     Program PWSCF v.6.6 starts on 20Jun2022 at 11:56: 5

     R & G space division:  proc/nbgrp/npool/nimage =      37
     Fft bands division:     nmany     =       1
     Reading input from Ag-750.in
Warning: card &CELL ignored
Warning: card / ignored

     Current dimensions of program PWSCF are:
     Max number of different atomic species (ntypx) = 10
     Max number of k-points (npk) =  40000
     Max angular momentum in pseudopotentials (lmaxx) =  3
     Presently stress not available with electric field and gates

     Message from routine cell_base_init:
     DEPRECATED: use true lattice parameter, not A to a.u. conversion factor

     IMPORTANT: XC functional enforced from input :
     Exchange-correlation= BEEF-VDW
                           (   1   4  43  14   2   0   0)
     Any further DFT definition will be discarded
     Please, verify this is what you really want

     Subspace diagonalization in iterative solution of the eigenvalue problem:
     a serial algorithm will be used

     Found symmetry operation: I + (  0.5000  0.0000  0.0000)
     This is a supercell, fractional translations are disabled

     bravais-lattice index     =            0
     lattice parameter (alat)  =       1.8897  a.u.
     unit-cell volume          =    5174.6150 (a.u.)^3
     number of atoms/cell      =           12
     number of atomic types    =            1
     number of electrons       =       132.00
     number of Kohn-Sham states=           79
     kinetic-energy cutoff     =      55.1240  Ry
     charge density cutoff     =     551.2396  Ry
     convergence threshold     =      1.0E-05
     mixing beta               =       0.1000
     number of iterations used =           10  plain     mixing
     Exchange-correlation= BEEF-VDW
                           (   1   4  43  14   2   0   0)

     celldm(1)=   1.889726  celldm(2)=   0.000000  celldm(3)=   0.000000
     celldm(4)=   0.000000  celldm(5)=   0.000000  celldm(6)=   0.000000

     crystal axes: (cart. coord. in units of alat)
               a(1) = (   5.966546   0.000000   0.000000 )
               a(2) = (   2.983273   5.167181   0.000000 )
               a(3) = (   0.000000   0.000000  24.871665 )

     reciprocal axes: (cart. coord. in units 2 pi/alat)
               b(1) = (  0.167601 -0.096765  0.000000 )
               b(2) = (  0.000000  0.193529  0.000000 )
               b(3) = (  0.000000  0.000000  0.040206 )

     PseudoPot. # 1 for Ag read from file:
     ../pseudo/Ag.pbe-n-rrkjus_psl.1.0.0.UPF
     MD5 check sum: d841cbfac2b0861aec33b46768a516bf
     Pseudo is Ultrasoft + core correction, Zval = 11.0
     Generated using "atomic" code by A. Dal Corso v.6.2.2
     Using radial grid of 1237 points,  6 beta functions with:
                l(1) =   0
                l(2) =   0
                l(3) =   1
                l(4) =   1
                l(5) =   2
                l(6) =   2
     Q(r) pseudized with 0 coefficients

     atomic species   valence    mass     pseudopotential
        Ag            11.00   107.86820     Ag( 1.00)

     No symmetry found

   Cartesian axes

     site n.     atom                  positions (alat units)
         1           Ag  tau(   1) = (   1.4916368   0.8611970  10.0000011  )
         2           Ag  tau(   2) = (   4.4749098   0.8611970  10.0000011  )
         3           Ag  tau(   3) = (   2.9832733   3.4447875  10.0000011  )
         4           Ag  tau(   4) = (   5.9665463   3.4447875  10.0000011  )
         5           Ag  tau(   5) = (   5.9665457   1.7223935  12.4358325  )
         6           Ag  tau(   6) = (   2.9832727   1.7223935  12.4358325  )
         7           Ag  tau(   7) = (   7.4581822   4.3059840  12.4358325  )
         8           Ag  tau(   8) = (   4.4749092   4.3059840  12.4358325  )
         9           Ag  tau(   9) = (   0.0000000   0.0000000  14.8716639  )
        10           Ag  tau(  10) = (   2.9832730   0.0000000  14.8716639  )
        11           Ag  tau(  11) = (   1.4916365   2.5835905  14.8716639  )
        12           Ag  tau(  12) = (   4.4749095   2.5835905  14.8716639  )

     number of k points=    74  Fermi-Dirac smearing, width (Ry)=  0.0100
                       cart. coord. in units 2pi/alat
        k(    1) = (   0.0000000   0.0000000   0.0000000), wk =   0.0138889
        k(    2) = (   0.0000000   0.0161274   0.0000000), wk =   0.0277778
        k(    3) = (   0.0000000   0.0322549   0.0000000), wk =   0.0277778
        k(    4) = (   0.0000000   0.0483823   0.0000000), wk =   0.0277778
        k(    5) = (   0.0000000   0.0645097   0.0000000), wk =   0.0277778
        k(    6) = (   0.0000000   0.0806371   0.0000000), wk =   0.0277778
        k(    7) = (   0.0000000  -0.0967646   0.0000000), wk =   0.0138889
        k(    8) = (   0.0139668  -0.0080637   0.0000000), wk =   0.0277778
        k(    9) = (   0.0139668   0.0080637   0.0000000), wk =   0.0277778
        k(   10) = (   0.0139668   0.0241911   0.0000000), wk =   0.0277778
        k(   11) = (   0.0139668   0.0403186   0.0000000), wk =   0.0277778
        k(   12) = (   0.0139668   0.0564460   0.0000000), wk =   0.0277778
        k(   13) = (   0.0139668   0.0725734   0.0000000), wk =   0.0277778
        k(   14) = (   0.0139668  -0.1048283   0.0000000), wk =   0.0277778
        k(   15) = (   0.0139668  -0.0887008   0.0000000), wk =   0.0277778
        k(   16) = (   0.0139668  -0.0725734   0.0000000), wk =   0.0277778
        k(   17) = (   0.0139668  -0.0564460   0.0000000), wk =   0.0277778
        k(   18) = (   0.0139668  -0.0403186   0.0000000), wk =   0.0277778
        k(   19) = (   0.0139668  -0.0241911   0.0000000), wk =   0.0277778
        k(   20) = (   0.0279335  -0.0161274   0.0000000), wk =   0.0277778
        k(   21) = (   0.0279335   0.0000000   0.0000000), wk =   0.0277778
        k(   22) = (   0.0279335   0.0161274   0.0000000), wk =   0.0277778
        k(   23) = (   0.0279335   0.0322549   0.0000000), wk =   0.0277778
        k(   24) = (   0.0279335   0.0483823   0.0000000), wk =   0.0277778
        k(   25) = (   0.0279335   0.0645097   0.0000000), wk =   0.0277778
        k(   26) = (   0.0279335  -0.1128920   0.0000000), wk =   0.0277778
        k(   27) = (   0.0279335  -0.0967646   0.0000000), wk =   0.0277778
        k(   28) = (   0.0279335  -0.0806371   0.0000000), wk =   0.0277778
        k(   29) = (   0.0279335  -0.0645097   0.0000000), wk =   0.0277778
        k(   30) = (   0.0279335  -0.0483823   0.0000000), wk =   0.0277778
        k(   31) = (   0.0279335  -0.0322549   0.0000000), wk =   0.0277778
        k(   32) = (   0.0419003  -0.0241911   0.0000000), wk =   0.0277778
        k(   33) = (   0.0419003  -0.0080637   0.0000000), wk =   0.0277778
        k(   34) = (   0.0419003   0.0080637   0.0000000), wk =   0.0277778
        k(   35) = (   0.0419003   0.0241911   0.0000000), wk =   0.0277778
        k(   36) = (   0.0419003   0.0403186   0.0000000), wk =   0.0277778
        k(   37) = (   0.0419003   0.0564460   0.0000000), wk =   0.0277778
        k(   38) = (   0.0419003  -0.1209557   0.0000000), wk =   0.0277778
        k(   39) = (   0.0419003  -0.1048283   0.0000000), wk =   0.0277778
        k(   40) = (   0.0419003  -0.0887008   0.0000000), wk =   0.0277778
        k(   41) = (   0.0419003  -0.0725734   0.0000000), wk =   0.0277778
        k(   42) = (   0.0419003  -0.0564460   0.0000000), wk =   0.0277778
        k(   43) = (   0.0419003  -0.0403186   0.0000000), wk =   0.0277778
        k(   44) = (   0.0558671  -0.0322549   0.0000000), wk =   0.0277778
        k(   45) = (   0.0558671  -0.0161274   0.0000000), wk =   0.0277778
        k(   46) = (   0.0558671   0.0000000   0.0000000), wk =   0.0277778
        k(   47) = (   0.0558671   0.0161274   0.0000000), wk =   0.0277778
        k(   48) = (   0.0558671   0.0322549   0.0000000), wk =   0.0277778
        k(   49) = (   0.0558671   0.0483823   0.0000000), wk =   0.0277778
        k(   50) = (   0.0558671  -0.1290194   0.0000000), wk =   0.0277778
        k(   51) = (   0.0558671  -0.1128920   0.0000000), wk =   0.0277778
        k(   52) = (   0.0558671  -0.0967646   0.0000000), wk =   0.0277778
        k(   53) = (   0.0558671  -0.0806371   0.0000000), wk =   0.0277778
        k(   54) = (   0.0558671  -0.0645097   0.0000000), wk =   0.0277778
        k(   55) = (   0.0558671  -0.0483823   0.0000000), wk =   0.0277778
        k(   56) = (   0.0698338  -0.0403186   0.0000000), wk =   0.0277778
        k(   57) = (   0.0698338  -0.0241911   0.0000000), wk =   0.0277778
        k(   58) = (   0.0698338  -0.0080637   0.0000000), wk =   0.0277778
        k(   59) = (   0.0698338   0.0080637   0.0000000), wk =   0.0277778
        k(   60) = (   0.0698338   0.0241911   0.0000000), wk =   0.0277778
        k(   61) = (   0.0698338   0.0403186   0.0000000), wk =   0.0277778
        k(   62) = (   0.0698338  -0.1370831   0.0000000), wk =   0.0277778
        k(   63) = (   0.0698338  -0.1209557   0.0000000), wk =   0.0277778
        k(   64) = (   0.0698338  -0.1048283   0.0000000), wk =   0.0277778
        k(   65) = (   0.0698338  -0.0887008   0.0000000), wk =   0.0277778
        k(   66) = (   0.0698338  -0.0725734   0.0000000), wk =   0.0277778
        k(   67) = (   0.0698338  -0.0564460   0.0000000), wk =   0.0277778
        k(   68) = (  -0.0838006   0.0483823   0.0000000), wk =   0.0138889
        k(   69) = (  -0.0838006   0.0645097   0.0000000), wk =   0.0277778
        k(   70) = (  -0.0838006   0.0806371   0.0000000), wk =   0.0277778
        k(   71) = (  -0.0838006   0.0967646   0.0000000), wk =   0.0277778
        k(   72) = (  -0.0838006   0.1128920   0.0000000), wk =   0.0277778
        k(   73) = (  -0.0838006   0.1290194   0.0000000), wk =   0.0277778
        k(   74) = (  -0.0838006  -0.0483823   0.0000000), wk =   0.0138889

     Initial potential from superposition of free atoms

     starting charge  131.99522, renormalised to  132.00000

     negative rho (up, down):  4.558E-05 0.000E+00

     %%%%%%%%%%%%%%%%%%%%%%%%%%%%%%%%%%%%%%%%%%%%%%%%%%%%%%%%%%%%%%%%%%%%%%%%
     %                                                                      %
     % You are using vdW-DF, which was implemented by the Thonhauser group. %
     % Please cite the following two papers that made this development      %
     % possible and the two reviews that describe the various versions:     %
     %                                                                      %
     %   T. Thonhauser et al., PRL 115, 136402 (2015).                      %
     %   T. Thonhauser et al., PRB 76, 125112 (2007).                       %
     %   K. Berland et al., Rep. Prog. Phys. 78, 066501 (2015).             %
     %   D.C. Langreth et al., J. Phys.: Condens. Matter 21, 084203 (2009). %
     %                                                                      %
     %                                                                      %
     % If you are calculating the stress with vdW-DF, please also cite:     %
     %                                                                      %
     %   R. Sabatini et al., J. Phys.: Condens. Matter 24, 424209 (2012).   %
     %                                                                      %
     %%%%%%%%%%%%%%%%%%%%%%%%%%%%%%%%%%%%%%%%%%%%%%%%%%%%%%%%%%%%%%%%%%%%%%%%

     Adding external electric field

     Computed dipole along edir(3) :
        Dipole                0.0000 Ry au,          0.0000 Debye
        Dipole field          0.0000 Ry au,

        Potential amp.       -0.0000 Ry
        Total length         45.8256 bohr

     Starting wfcs are  108 randomized atomic wfcs

     Self-consistent Calculation

     iteration #  1     ecut=    55.12 Ry     beta= 0.10
     Davidson diagonalization with overlap
     ethr =  1.00E-02,  avg # of iterations =  4.0

     Threshold (ethr) on eigenvalues was too large:
     Diagonalizing with lowered threshold

     Davidson diagonalization with overlap
     ethr =  2.67E-04,  avg # of iterations =  5.9

[...]

     total energy              =   -1020.64697435 Ry
     estimated scf accuracy    <       0.33531085 Ry

[...]

     iteration #  6     ecut=    55.12 Ry     beta= 0.10
     Davidson diagonalization with overlap
     c_bands:  1 eigenvalues not converged
     ethr =  9.30E-07,  avg # of iterations =  3.1

[...]

     total energy              =   -1020.62234941 Ry
     estimated scf accuracy    <       0.00002076 Ry

     iteration # 12     ecut=    55.12 Ry     beta= 0.10
     Davidson diagonalization with overlap
     ethr =  1.57E-08,  avg # of iterations =  3.9

[...]

     Adding external electric field

     Computed dipole along edir(3) :
        Dipole                0.0001 Ry au,          0.0002 Debye
        Dipole field          0.0000 Ry au,

        Potential amp.       -0.0000 Ry
        Total length         45.8256 bohr

     End of self-consistent calculation

          k = 0.0000 0.0000 0.0000 ( 35733 PWs)   bands (ev):

    -6.5084  -5.8037  -5.8036  -5.8036  -5.7797  -5.6566  -5.6566  -5.6565
    -5.5927  -5.5492  -5.5491  -5.5491  -5.3798  -5.3798  -5.3798  -4.7906
    -4.7906  -4.7906  -4.7040  -4.7040  -4.7040  -4.6296  -4.6237  -4.6237
    -4.4500  -4.4500  -4.4140  -4.4139  -4.4139  -4.3370  -4.3370  -3.8627
    -3.8563  -3.8563  -3.8563  -3.7848  -3.7848  -3.7453  -3.7453  -3.7453
    -3.5287  -3.5286  -3.5286  -3.5019  -3.5019  -3.2932  -3.2931  -3.2931
    -3.2300  -3.2300  -3.1909  -3.1909  -3.1909  -3.1429  -3.1428  -3.1427
    -2.9532  -2.9532  -2.9532  -2.9342  -2.9342  -2.9342  -1.2865   0.4805
     0.4805   0.4806   0.5477   1.2296   1.2296   1.2297   1.6792   1.6792
     1.6793   3.6039   3.6274   3.6274   3.6274   4.1026   4.5072

[...]

          k = 0.0698-0.0564 0.0000 ( 35787 PWs)   bands (ev):

[...]

          k =-0.0838 0.0484 0.0000 ( 35790 PWs)   bands (ev):

[...]

          k =-0.0838-0.0484 0.0000 ( 35790 PWs)   bands (ev):

    -5.5471  -5.5471  -5.3788  -5.3788  -5.3495  -5.3495  -5.2324  -5.2324
    -5.1443  -5.1442  -5.1041  -5.1041  -5.0085  -5.0085  -4.9149  -4.9149
    -4.6949  -4.6948  -4.6639  -4.6639  -4.6611  -4.6611  -4.5586  -4.5586
    -4.3435  -4.3435  -4.3274  -4.3274  -4.2675  -4.2674  -4.2233  -4.2233
    -4.0492  -4.0492  -4.0335  -4.0335  -4.0181  -4.0181  -3.9936  -3.9936
    -3.8460  -3.8460  -3.8228  -3.8228  -3.7387  -3.7386  -3.7338  -3.7338
    -3.6949  -3.6949  -3.6586  -3.6586  -3.5227  -3.5227  -3.4736  -3.4736
    -3.2098  -3.2098  -3.2038  -3.2038  -3.0719  -3.0718  -2.2814  -2.2814
    -0.2785  -0.2785   0.2068   0.2069   1.0447   1.0447   2.7577   2.7577
     3.2011   3.2011   4.8612   4.8612   5.5930   5.5931   5.7865

     the Fermi energy is    -0.0173 ev

!    total energy              =   -1020.62235322 Ry
     estimated scf accuracy    <       0.00000521 Ry
     smearing contrib. (-TS)   =      -0.01603429 Ry
     internal energy E=F+TS    =   -1020.60631893 Ry

     The total energy is F=E-TS. E is the sum of the following terms:
     one-electron contribution =   -8125.49505264 Ry
     hartree contribution      =    4152.27591879 Ry
     xc contribution           =    -277.97655011 Ry
     ewald contribution        =    3230.58936504 Ry
     electric field correction =       0.00000000 Ry

     convergence has been achieved in  12 iterations

     negative rho (up, down):  1.344E-05 0.000E+00

     Forces acting on atoms (cartesian axes, Ry/au):

     atom    1 type  1   force =    -0.00000712    0.00000591   -0.00039293
     atom    2 type  1   force =     0.00000606   -0.00000188   -0.00037861
     atom    3 type  1   force =    -0.00000558   -0.00000000   -0.00038983
     atom    4 type  1   force =     0.00000527   -0.00000262   -0.00038703
     atom    5 type  1   force =    -0.00000116    0.00000104    0.00000516
     atom    6 type  1   force =     0.00000310   -0.00000087    0.00001202
     atom    7 type  1   force =    -0.00000067    0.00000303    0.00000581
     atom    8 type  1   force =     0.00000116   -0.00000107    0.00001297
     atom    9 type  1   force =    -0.00000170    0.00000249    0.00037533
     atom   10 type  1   force =     0.00000023   -0.00000376    0.00037722
     atom   11 type  1   force =    -0.00000430    0.00000087    0.00037753
     atom   12 type  1   force =     0.00000471   -0.00000313    0.00038237

     Total force =     0.001083     Total SCF correction =     0.014146
     SCF correction compared to forces is large: reduce conv_thr to get better values

     Writing output data file ./Ag750/Ag750_beef.save/

     General routines

     Parallel routines

   This run was terminated on:  13:34:53  20Jun2022

   JOB DONE.