     Program PWSCF v.6.6 starts on 20Jun2022 at 13:34:57

     R & G space division:  proc/nbgrp/npool/nimage =      37
     Fft bands division:     nmany     =       1
     Reading input from Au-750.in
Warning: card &CELL ignored
Warning: card / ignored

     Current dimensions of program PWSCF are:
     Max number of different atomic species (ntypx) = 10
     Max number of k-points (npk) =  40000
     Max angular momentum in pseudopotentials (lmaxx) =  3
     Presently stress not available with electric field and gates

     Message from routine cell_base_init:
     DEPRECATED: use true lattice parameter, not A to a.u. conversion factor

     IMPORTANT: XC functional enforced from input :
     Exchange-correlation= BEEF-VDW
                           (   1   4  43  14   2   0   0)
     Any further DFT definition will be discarded
     Please, verify this is what you really want

     Subspace diagonalization in iterative solution of the eigenvalue problem:
     a serial algorithm will be used

     Found symmetry operation: I + ( -0.5000  0.0000  0.0000)
     This is a supercell, fractional translations are disabled

     bravais-lattice index     =            0
     lattice parameter (alat)  =       1.8897  a.u.
     unit-cell volume          =    5144.9552 (a.u.)^3
     number of atoms/cell      =           12
     number of atomic types    =            1
     number of electrons       =       132.00
     number of Kohn-Sham states=           79
     kinetic-energy cutoff     =      55.1240  Ry
     charge density cutoff     =     551.2396  Ry
     convergence threshold     =      1.0E-05
     mixing beta               =       0.1000
     number of iterations used =           10  plain     mixing
     Exchange-correlation= BEEF-VDW
                           (   1   4  43  14   2   0   0)

     celldm(1)=   1.889726  celldm(2)=   0.000000  celldm(3)=   0.000000
     celldm(4)=   0.000000  celldm(5)=   0.000000  celldm(6)=   0.000000

     crystal axes: (cart. coord. in units of alat)
               a(1) = (   5.950946   0.000000   0.000000 )
               a(2) = (   2.975473   5.153671   0.000000 )
               a(3) = (   0.000000   0.000000  24.858927 )

     reciprocal axes: (cart. coord. in units 2 pi/alat)
               b(1) = (  0.168041 -0.097018  0.000000 )
               b(2) = (  0.000000  0.194036  0.000000 )
               b(3) = (  0.000000  0.000000  0.040227 )

     PseudoPot. # 1 for Au read from file:
     ../pseudo/Au.pbe-n-rrkjus_psl.1.0.0.UPF
     MD5 check sum: d7e77ba19504afed2c9b41c931dde4f0
     Pseudo is Ultrasoft + core correction, Zval = 11.0
     Generated using "atomic" code by A. Dal Corso v.6.3
     Using radial grid of 1279 points,  6 beta functions with:
                l(1) =   0
                l(2) =   0
                l(3) =   1
                l(4) =   1
                l(5) =   2
                l(6) =   2
     Q(r) pseudized with 0 coefficients

     atomic species   valence    mass     pseudopotential
        Au            11.00   196.96657     Au( 1.00)

     No symmetry found

   Cartesian axes

     site n.     atom                  positions (alat units)
         1           Au  tau(   1) = (   1.4877368   0.8589453  10.0000006  )
         2           Au  tau(   2) = (   4.4632098   0.8589453  10.0000006  )
         3           Au  tau(   3) = (   2.9754733   3.4357808  10.0000006  )
         4           Au  tau(   4) = (   5.9509463   3.4357808  10.0000006  )
         5           Au  tau(   5) = (   5.9509457   1.7178902  12.4294635  )
         6           Au  tau(   6) = (   2.9754727   1.7178902  12.4294635  )
         7           Au  tau(   7) = (   7.4386822   4.2947257  12.4294635  )
         8           Au  tau(   8) = (   4.4632092   4.2947257  12.4294635  )
         9           Au  tau(   9) = (  -0.0000015  -0.0000015  14.8747765  )
        10           Au  tau(  10) = (   2.9754721  -0.0000005  14.8747715  )
        11           Au  tau(  11) = (   1.4877359   2.5768345  14.8747690  )
        12           Au  tau(  12) = (   4.4632098   2.5768340  14.8747790  )

     number of k points=    74  Fermi-Dirac smearing, width (Ry)=  0.0100
                       cart. coord. in units 2pi/alat
        k(    1) = (   0.0000000   0.0000000   0.0000000), wk =   0.0138889
        k(    2) = (   0.0000000   0.0161697   0.0000000), wk =   0.0277778
        k(    3) = (   0.0000000   0.0323394   0.0000000), wk =   0.0277778
        k(    4) = (   0.0000000   0.0485091   0.0000000), wk =   0.0277778
        k(    5) = (   0.0000000   0.0646788   0.0000000), wk =   0.0277778
        k(    6) = (   0.0000000   0.0808485   0.0000000), wk =   0.0277778
        k(    7) = (   0.0000000  -0.0970182   0.0000000), wk =   0.0138889
        k(    8) = (   0.0140034  -0.0080849   0.0000000), wk =   0.0277778
        k(    9) = (   0.0140034   0.0080849   0.0000000), wk =   0.0277778
        k(   10) = (   0.0140034   0.0242546   0.0000000), wk =   0.0277778
        k(   11) = (   0.0140034   0.0404243   0.0000000), wk =   0.0277778
        k(   12) = (   0.0140034   0.0565940   0.0000000), wk =   0.0277778
        k(   13) = (   0.0140034   0.0727637   0.0000000), wk =   0.0277778
        k(   14) = (   0.0140034  -0.1051031   0.0000000), wk =   0.0277778
        k(   15) = (   0.0140034  -0.0889334   0.0000000), wk =   0.0277778
        k(   16) = (   0.0140034  -0.0727637   0.0000000), wk =   0.0277778
        k(   17) = (   0.0140034  -0.0565940   0.0000000), wk =   0.0277778
        k(   18) = (   0.0140034  -0.0404243   0.0000000), wk =   0.0277778
        k(   19) = (   0.0140034  -0.0242546   0.0000000), wk =   0.0277778
        k(   20) = (   0.0280068  -0.0161697   0.0000000), wk =   0.0277778
        k(   21) = (   0.0280068   0.0000000   0.0000000), wk =   0.0277778
        k(   22) = (   0.0280068   0.0161697   0.0000000), wk =   0.0277778
        k(   23) = (   0.0280068   0.0323394   0.0000000), wk =   0.0277778
        k(   24) = (   0.0280068   0.0485091   0.0000000), wk =   0.0277778
        k(   25) = (   0.0280068   0.0646788   0.0000000), wk =   0.0277778
        k(   26) = (   0.0280068  -0.1131879   0.0000000), wk =   0.0277778
        k(   27) = (   0.0280068  -0.0970182   0.0000000), wk =   0.0277778
        k(   28) = (   0.0280068  -0.0808485   0.0000000), wk =   0.0277778
        k(   29) = (   0.0280068  -0.0646788   0.0000000), wk =   0.0277778
        k(   30) = (   0.0280068  -0.0485091   0.0000000), wk =   0.0277778
        k(   31) = (   0.0280068  -0.0323394   0.0000000), wk =   0.0277778
        k(   32) = (   0.0420101  -0.0242546   0.0000000), wk =   0.0277778
        k(   33) = (   0.0420101  -0.0080849   0.0000000), wk =   0.0277778
        k(   34) = (   0.0420101   0.0080849   0.0000000), wk =   0.0277778
        k(   35) = (   0.0420101   0.0242546   0.0000000), wk =   0.0277778
        k(   36) = (   0.0420101   0.0404243   0.0000000), wk =   0.0277778
        k(   37) = (   0.0420101   0.0565940   0.0000000), wk =   0.0277778
        k(   38) = (   0.0420101  -0.1212728   0.0000000), wk =   0.0277778
        k(   39) = (   0.0420101  -0.1051031   0.0000000), wk =   0.0277778
        k(   40) = (   0.0420101  -0.0889334   0.0000000), wk =   0.0277778
        k(   41) = (   0.0420101  -0.0727637   0.0000000), wk =   0.0277778
        k(   42) = (   0.0420101  -0.0565940   0.0000000), wk =   0.0277778
        k(   43) = (   0.0420101  -0.0404243   0.0000000), wk =   0.0277778
        k(   44) = (   0.0560135  -0.0323394   0.0000000), wk =   0.0277778
        k(   45) = (   0.0560135  -0.0161697   0.0000000), wk =   0.0277778
        k(   46) = (   0.0560135   0.0000000   0.0000000), wk =   0.0277778
        k(   47) = (   0.0560135   0.0161697   0.0000000), wk =   0.0277778
        k(   48) = (   0.0560135   0.0323394   0.0000000), wk =   0.0277778
        k(   49) = (   0.0560135   0.0485091   0.0000000), wk =   0.0277778
        k(   50) = (   0.0560135  -0.1293576   0.0000000), wk =   0.0277778
        k(   51) = (   0.0560135  -0.1131879   0.0000000), wk =   0.0277778
        k(   52) = (   0.0560135  -0.0970182   0.0000000), wk =   0.0277778
        k(   53) = (   0.0560135  -0.0808485   0.0000000), wk =   0.0277778
        k(   54) = (   0.0560135  -0.0646788   0.0000000), wk =   0.0277778
        k(   55) = (   0.0560135  -0.0485091   0.0000000), wk =   0.0277778
        k(   56) = (   0.0700169  -0.0404243   0.0000000), wk =   0.0277778
        k(   57) = (   0.0700169  -0.0242546   0.0000000), wk =   0.0277778
        k(   58) = (   0.0700169  -0.0080849   0.0000000), wk =   0.0277778
        k(   59) = (   0.0700169   0.0080849   0.0000000), wk =   0.0277778
        k(   60) = (   0.0700169   0.0242546   0.0000000), wk =   0.0277778
        k(   61) = (   0.0700169   0.0404243   0.0000000), wk =   0.0277778
        k(   62) = (   0.0700169  -0.1374425   0.0000000), wk =   0.0277778
        k(   63) = (   0.0700169  -0.1212728   0.0000000), wk =   0.0277778
        k(   64) = (   0.0700169  -0.1051031   0.0000000), wk =   0.0277778
        k(   65) = (   0.0700169  -0.0889334   0.0000000), wk =   0.0277778
        k(   66) = (   0.0700169  -0.0727637   0.0000000), wk =   0.0277778
        k(   67) = (   0.0700169  -0.0565940   0.0000000), wk =   0.0277778
        k(   68) = (  -0.0840203   0.0485091   0.0000000), wk =   0.0138889
        k(   69) = (  -0.0840203   0.0646788   0.0000000), wk =   0.0277778
        k(   70) = (  -0.0840203   0.0808485   0.0000000), wk =   0.0277778
        k(   71) = (  -0.0840203   0.0970182   0.0000000), wk =   0.0277778
        k(   72) = (  -0.0840203   0.1131879   0.0000000), wk =   0.0277778
        k(   73) = (  -0.0840203   0.1293576   0.0000000), wk =   0.0277778
        k(   74) = (  -0.0840203  -0.0485091   0.0000000), wk =   0.0138889

     Initial potential from superposition of free atoms

     starting charge  131.99868, renormalised to  132.00000

     negative rho (up, down):  1.349E-03 0.000E+00

     %%%%%%%%%%%%%%%%%%%%%%%%%%%%%%%%%%%%%%%%%%%%%%%%%%%%%%%%%%%%%%%%%%%%%%%%
     %                                                                      %
     % You are using vdW-DF, which was implemented by the Thonhauser group. %
     % Please cite the following two papers that made this development      %
     % possible and the two reviews that describe the various versions:     %
     %                                                                      %
     %   T. Thonhauser et al., PRL 115, 136402 (2015).                      %
     %   T. Thonhauser et al., PRB 76, 125112 (2007).                       %
     %   K. Berland et al., Rep. Prog. Phys. 78, 066501 (2015).             %
     %   D.C. Langreth et al., J. Phys.: Condens. Matter 21, 084203 (2009). %
     %                                                                      %
     %                                                                      %
     % If you are calculating the stress with vdW-DF, please also cite:     %
     %                                                                      %
     %   R. Sabatini et al., J. Phys.: Condens. Matter 24, 424209 (2012).   %
     %                                                                      %
     %%%%%%%%%%%%%%%%%%%%%%%%%%%%%%%%%%%%%%%%%%%%%%%%%%%%%%%%%%%%%%%%%%%%%%%%

     Adding external electric field

     Computed dipole along edir(3) :
        Dipole               -0.0000 Ry au,         -0.0000 Debye
        Dipole field         -0.0000 Ry au,

        Potential amp.        0.0000 Ry
        Total length         45.8021 bohr

     Starting wfcs are  108 randomized atomic wfcs

     Self-consistent Calculation

     iteration #  1     ecut=    55.12 Ry     beta= 0.10
     Davidson diagonalization with overlap
     ethr =  1.00E-02,  avg # of iterations =  4.0

     Threshold (ethr) on eigenvalues was too large:
     Diagonalizing with lowered threshold

     Davidson diagonalization with overlap
     ethr =  1.27E-04,  avg # of iterations =  6.5

[...]

     total energy              =   -1037.81635377 Ry
     estimated scf accuracy    <       0.18455649 Ry

[...]

     iteration #  6     ecut=    55.12 Ry     beta= 0.10
     Davidson diagonalization with overlap
     c_bands:  1 eigenvalues not converged
     c_bands:  1 eigenvalues not converged
     c_bands:  1 eigenvalues not converged
     c_bands:  1 eigenvalues not converged
     c_bands:  1 eigenvalues not converged
     c_bands:  1 eigenvalues not converged
     c_bands:  1 eigenvalues not converged
     c_bands:  1 eigenvalues not converged
     c_bands:  1 eigenvalues not converged
     c_bands:  1 eigenvalues not converged
     c_bands:  1 eigenvalues not converged
     c_bands:  1 eigenvalues not converged
     c_bands:  1 eigenvalues not converged
     ethr =  4.53E-06,  avg # of iterations = 10.0

[...]

     iteration # 10     ecut=    55.12 Ry     beta= 0.10
     Davidson diagonalization with overlap
     c_bands:  1 eigenvalues not converged
     ethr =  2.03E-07,  avg # of iterations =  7.3

[...]

     total energy              =   -1037.80530961 Ry
     estimated scf accuracy    <       0.00003377 Ry

     iteration # 14     ecut=    55.12 Ry     beta= 0.10
     Davidson diagonalization with overlap
     ethr =  2.08E-08,  avg # of iterations =  2.0

[...]

     Adding external electric field

     Computed dipole along edir(3) :
        Dipole               -0.0018 Ry au,         -0.0047 Debye
        Dipole field         -0.0000 Ry au,

        Potential amp.        0.0004 Ry
        Total length         45.8021 bohr

     End of self-consistent calculation

          k = 0.0000 0.0000 0.0000 ( 35553 PWs)   bands (ev):

    -7.8330  -6.3883  -6.0580  -5.7914  -5.7914  -5.7914  -5.5877  -5.5877
    -5.5877  -5.3003  -5.3003  -5.3003  -5.1672  -5.1672  -5.1672  -4.1991
    -4.1991  -4.1991  -4.0663  -4.0663  -4.0663  -3.9794  -3.9345  -3.9345
    -3.6940  -3.6940  -3.6170  -3.6170  -3.6170  -3.5423  -3.5423  -3.5328
    -3.0397  -3.0397  -3.0397  -2.6895  -2.6895  -2.6410  -2.6410  -2.6410
    -2.3897  -2.3897  -2.3897  -2.2638  -2.2638  -1.9480  -1.9480  -1.9480
    -1.8523  -1.8523  -1.8369  -1.8369  -1.8369  -1.7115  -1.7115  -1.7115
    -1.4627  -1.4627  -1.4627  -1.4303  -1.4303  -1.4303  -1.2232   0.7745
     0.7745   0.7746   0.8778   1.4863   1.4863   1.4863   1.8188   1.8188
     1.8188   3.4234   3.4234   3.4234   4.2304   4.2304   4.2308

[...]

          k = 0.0700-0.0566 0.0000 ( 35563 PWs)   bands (ev):

[...]

          k =-0.0840 0.0485 0.0000 ( 35574 PWs)   bands (ev):

[...]

          k =-0.0840-0.0485 0.0000 ( 35574 PWs)   bands (ev):

    -6.3732  -6.3732  -5.3236  -5.3236  -5.0984  -5.0984  -5.0685  -5.0685
    -5.0559  -5.0559  -4.7257  -4.7257  -4.5860  -4.5860  -4.4049  -4.4049
    -4.2595  -4.2595  -4.2254  -4.2254  -4.0671  -4.0671  -3.8837  -3.8837
    -3.5896  -3.5896  -3.5381  -3.5381  -3.5268  -3.5268  -3.4068  -3.4068
    -3.3180  -3.3180  -3.3062  -3.3061  -3.3015  -3.3015  -3.2350  -3.2350
    -3.0262  -3.0262  -2.8155  -2.8155  -2.8023  -2.8023  -2.6893  -2.6893
    -2.6107  -2.6107  -2.5351  -2.5351  -2.3017  -2.3016  -2.2569  -2.2569
    -1.8649  -1.8649  -1.8638  -1.8638  -1.8250  -1.8250  -1.6334  -1.6333
     0.1944   0.1944   0.2801   0.2801   1.2480   1.2480   3.1625   3.1625
     3.5493   3.5493   5.5753   5.5753   5.5953   5.5953   6.1208

     the Fermi energy is     0.1772 ev

!    total energy              =   -1037.80531037 Ry
     estimated scf accuracy    <       0.00000350 Ry
     smearing contrib. (-TS)   =      -0.01723368 Ry
     internal energy E=F+TS    =   -1037.78807669 Ry

     The total energy is F=E-TS. E is the sum of the following terms:
     one-electron contribution =   -7941.56792287 Ry
     hartree contribution      =    4057.35312902 Ry
     xc contribution           =    -398.48916315 Ry
     ewald contribution        =    3244.91588031 Ry
     electric field correction =       0.00000001 Ry

     convergence has been achieved in  14 iterations

     negative rho (up, down):  1.302E-03 0.000E+00

     Forces acting on atoms (cartesian axes, Ry/au):

     atom    1 type  1   force =     0.00000039    0.00000191   -0.00461510
     atom    2 type  1   force =     0.00000208   -0.00000486   -0.00460487
     atom    3 type  1   force =    -0.00000787    0.00000026   -0.00460608
     atom    4 type  1   force =     0.00001030   -0.00000605   -0.00459646
     atom    5 type  1   force =    -0.00000843    0.00000465    0.00179781
     atom    6 type  1   force =    -0.00000234    0.00000663    0.00180704
     atom    7 type  1   force =     0.00000183   -0.00000111    0.00179223
     atom    8 type  1   force =     0.00000376    0.00000613    0.00179694
     atom    9 type  1   force =    -0.00001142   -0.00000666    0.00280834
     atom   10 type  1   force =    -0.00000149   -0.00000305    0.00280220
     atom   11 type  1   force =     0.00000544    0.00000089    0.00280621
     atom   12 type  1   force =     0.00000776    0.00000127    0.00281173

     Total force =     0.011371     Total SCF correction =     0.004087
     SCF correction compared to forces is large: reduce conv_thr to get better values

     Writing output data file ./Au750/Au750_beef.save/

     General routines

     Parallel routines

   This run was terminated on:  16:56:47  20Jun2022

   JOB DONE.