     Program PWSCF v.6.6 starts on 20Jun2022 at 16:56:52

     R & G space division:  proc/nbgrp/npool/nimage =      37
     Fft bands division:     nmany     =       1
     Reading input from Cd-750.in
Warning: card &CELL ignored
Warning: card / ignored

     Current dimensions of program PWSCF are:
     Max number of different atomic species (ntypx) = 10
     Max number of k-points (npk) =  40000
     Max angular momentum in pseudopotentials (lmaxx) =  3
     Presently stress not available with electric field and gates

     Message from routine cell_base_init:
     DEPRECATED: use true lattice parameter, not A to a.u. conversion factor
     file Cd.pbe-n-rrkjus_psl.1.0.0.UPF: wavefunction(s)  4D renormalized

     IMPORTANT: XC functional enforced from input :
     Exchange-correlation= BEEF-VDW
                           (   1   4  43  14   2   0   0)
     Any further DFT definition will be discarded
     Please, verify this is what you really want

     Subspace diagonalization in iterative solution of the eigenvalue problem:
     a serial algorithm will be used

     bravais-lattice index     =            0
     lattice parameter (alat)  =       1.8897  a.u.
     unit-cell volume          =    5739.2964 (a.u.)^3
     number of atoms/cell      =           12
     number of atomic types    =            1
     number of electrons       =       144.00
     number of Kohn-Sham states=           86
     kinetic-energy cutoff     =      55.1240  Ry
     charge density cutoff     =     551.2396  Ry
     convergence threshold     =      1.0E-05
     mixing beta               =       0.1000
     number of iterations used =           10  plain     mixing
     Exchange-correlation= BEEF-VDW
                           (   1   4  43  14   2   0   0)

     celldm(1)=   1.889726  celldm(2)=   0.000000  celldm(3)=   0.000000
     celldm(4)=   0.000000  celldm(5)=   0.000000  celldm(6)=   0.000000

     crystal axes: (cart. coord. in units of alat)
               a(1) = (   6.254208   0.000000   0.000000 )
               a(2) = (   3.127104   5.416303   0.000000 )
               a(3) = (   0.000000   0.000000  25.106540 )

     reciprocal axes: (cart. coord. in units 2 pi/alat)
               b(1) = (  0.159892 -0.092314  0.000000 )
               b(2) = (  0.000000  0.184628  0.000000 )
               b(3) = (  0.000000  0.000000  0.039830 )

     PseudoPot. # 1 for Cd read from file:
     ../pseudo/Cd.pbe-n-rrkjus_psl.1.0.0.UPF
     MD5 check sum: a744746c89d2344a134ead0d8ab94e7a
     Pseudo is Ultrasoft + core correction, Zval = 12.0
     Generated using "atomic" code by A. Dal Corso v.6.3
     Using radial grid of 1239 points,  6 beta functions with:
                l(1) =   0
                l(2) =   0
                l(3) =   1
                l(4) =   1
                l(5) =   2
                l(6) =   2
     Q(r) pseudized with 0 coefficients

     atomic species   valence    mass     pseudopotential
        Cd            12.00   112.41400     Cd( 1.00)

     No symmetry found

   Cartesian axes

     site n.     atom                  positions (alat units)
         1           Cd  tau(   1) = (   1.5635521   0.9027172  10.0000000  )
         2           Cd  tau(   2) = (   4.6906562   0.9027172  10.0000000  )
         3           Cd  tau(   3) = (   3.1271041   3.6108688  10.0000000  )
         4           Cd  tau(   4) = (   6.2542083   3.6108688  10.0000000  )
         5           Cd  tau(   5) = (   6.2542083   1.8054344  12.5532698  )
         6           Cd  tau(   6) = (   3.1271041   1.8054344  12.5532698  )
         7           Cd  tau(   7) = (   7.8177603   4.5135860  12.5532698  )
         8           Cd  tau(   8) = (   4.6906562   4.5135860  12.5532698  )
         9           Cd  tau(   9) = (   3.1273885   5.4159546  15.4608605  )
        10           Cd  tau(  10) = (   3.1273084   0.0004598  15.4624636  )
        11           Cd  tau(  11) = (   1.5637466   2.7083529  15.4608813  )
        12           Cd  tau(  12) = (   4.6908499   2.7078508  15.4610644  )

     number of k points=    74  Fermi-Dirac smearing, width (Ry)=  0.0100
                       cart. coord. in units 2pi/alat
        k(    1) = (   0.0000000   0.0000000   0.0000000), wk =   0.0138889
        k(    2) = (   0.0000000   0.0153856   0.0000000), wk =   0.0277778
        k(    3) = (   0.0000000   0.0307713   0.0000000), wk =   0.0277778
        k(    4) = (   0.0000000   0.0461569   0.0000000), wk =   0.0277778
        k(    5) = (   0.0000000   0.0615426   0.0000000), wk =   0.0277778
        k(    6) = (   0.0000000   0.0769282   0.0000000), wk =   0.0277778
        k(    7) = (   0.0000000  -0.0923139   0.0000000), wk =   0.0138889
        k(    8) = (   0.0133244  -0.0076928   0.0000000), wk =   0.0277778
        k(    9) = (   0.0133244   0.0076928   0.0000000), wk =   0.0277778
        k(   10) = (   0.0133244   0.0230785   0.0000000), wk =   0.0277778
        k(   11) = (   0.0133244   0.0384641   0.0000000), wk =   0.0277778
        k(   12) = (   0.0133244   0.0538498   0.0000000), wk =   0.0277778
        k(   13) = (   0.0133244   0.0692354   0.0000000), wk =   0.0277778
        k(   14) = (   0.0133244  -0.1000067   0.0000000), wk =   0.0277778
        k(   15) = (   0.0133244  -0.0846211   0.0000000), wk =   0.0277778
        k(   16) = (   0.0133244  -0.0692354   0.0000000), wk =   0.0277778
        k(   17) = (   0.0133244  -0.0538498   0.0000000), wk =   0.0277778
        k(   18) = (   0.0133244  -0.0384641   0.0000000), wk =   0.0277778
        k(   19) = (   0.0133244  -0.0230785   0.0000000), wk =   0.0277778
        k(   20) = (   0.0266487  -0.0153856   0.0000000), wk =   0.0277778
        k(   21) = (   0.0266487   0.0000000   0.0000000), wk =   0.0277778
        k(   22) = (   0.0266487   0.0153856   0.0000000), wk =   0.0277778
        k(   23) = (   0.0266487   0.0307713   0.0000000), wk =   0.0277778
        k(   24) = (   0.0266487   0.0461569   0.0000000), wk =   0.0277778
        k(   25) = (   0.0266487   0.0615426   0.0000000), wk =   0.0277778
        k(   26) = (   0.0266487  -0.1076995   0.0000000), wk =   0.0277778
        k(   27) = (   0.0266487  -0.0923139   0.0000000), wk =   0.0277778
        k(   28) = (   0.0266487  -0.0769282   0.0000000), wk =   0.0277778
        k(   29) = (   0.0266487  -0.0615426   0.0000000), wk =   0.0277778
        k(   30) = (   0.0266487  -0.0461569   0.0000000), wk =   0.0277778
        k(   31) = (   0.0266487  -0.0307713   0.0000000), wk =   0.0277778
        k(   32) = (   0.0399731  -0.0230785   0.0000000), wk =   0.0277778
        k(   33) = (   0.0399731  -0.0076928   0.0000000), wk =   0.0277778
        k(   34) = (   0.0399731   0.0076928   0.0000000), wk =   0.0277778
        k(   35) = (   0.0399731   0.0230785   0.0000000), wk =   0.0277778
        k(   36) = (   0.0399731   0.0384641   0.0000000), wk =   0.0277778
        k(   37) = (   0.0399731   0.0538498   0.0000000), wk =   0.0277778
        k(   38) = (   0.0399731  -0.1153924   0.0000000), wk =   0.0277778
        k(   39) = (   0.0399731  -0.1000067   0.0000000), wk =   0.0277778
        k(   40) = (   0.0399731  -0.0846211   0.0000000), wk =   0.0277778
        k(   41) = (   0.0399731  -0.0692354   0.0000000), wk =   0.0277778
        k(   42) = (   0.0399731  -0.0538498   0.0000000), wk =   0.0277778
        k(   43) = (   0.0399731  -0.0384641   0.0000000), wk =   0.0277778
        k(   44) = (   0.0532974  -0.0307713   0.0000000), wk =   0.0277778
        k(   45) = (   0.0532974  -0.0153856   0.0000000), wk =   0.0277778
        k(   46) = (   0.0532974   0.0000000   0.0000000), wk =   0.0277778
        k(   47) = (   0.0532974   0.0153856   0.0000000), wk =   0.0277778
        k(   48) = (   0.0532974   0.0307713   0.0000000), wk =   0.0277778
        k(   49) = (   0.0532974   0.0461569   0.0000000), wk =   0.0277778
        k(   50) = (   0.0532974  -0.1230852   0.0000000), wk =   0.0277778
        k(   51) = (   0.0532974  -0.1076995   0.0000000), wk =   0.0277778
        k(   52) = (   0.0532974  -0.0923139   0.0000000), wk =   0.0277778
        k(   53) = (   0.0532974  -0.0769282   0.0000000), wk =   0.0277778
        k(   54) = (   0.0532974  -0.0615426   0.0000000), wk =   0.0277778
        k(   55) = (   0.0532974  -0.0461569   0.0000000), wk =   0.0277778
        k(   56) = (   0.0666218  -0.0384641   0.0000000), wk =   0.0277778
        k(   57) = (   0.0666218  -0.0230785   0.0000000), wk =   0.0277778
        k(   58) = (   0.0666218  -0.0076928   0.0000000), wk =   0.0277778
        k(   59) = (   0.0666218   0.0076928   0.0000000), wk =   0.0277778
        k(   60) = (   0.0666218   0.0230785   0.0000000), wk =   0.0277778
        k(   61) = (   0.0666218   0.0384641   0.0000000), wk =   0.0277778
        k(   62) = (   0.0666218  -0.1307780   0.0000000), wk =   0.0277778
        k(   63) = (   0.0666218  -0.1153924   0.0000000), wk =   0.0277778
        k(   64) = (   0.0666218  -0.1000067   0.0000000), wk =   0.0277778
        k(   65) = (   0.0666218  -0.0846211   0.0000000), wk =   0.0277778
        k(   66) = (   0.0666218  -0.0692354   0.0000000), wk =   0.0277778
        k(   67) = (   0.0666218  -0.0538498   0.0000000), wk =   0.0277778
        k(   68) = (  -0.0799462   0.0461569   0.0000000), wk =   0.0138889
        k(   69) = (  -0.0799462   0.0615426   0.0000000), wk =   0.0277778
        k(   70) = (  -0.0799462   0.0769282   0.0000000), wk =   0.0277778
        k(   71) = (  -0.0799462   0.0923139   0.0000000), wk =   0.0277778
        k(   72) = (  -0.0799462   0.1076995   0.0000000), wk =   0.0277778
        k(   73) = (  -0.0799462   0.1230852   0.0000000), wk =   0.0277778
        k(   74) = (  -0.0799462  -0.0461569   0.0000000), wk =   0.0138889

     Initial potential from superposition of free atoms

     starting charge  143.94140, renormalised to  144.00000

     negative rho (up, down):  4.088E-03 0.000E+00

     %%%%%%%%%%%%%%%%%%%%%%%%%%%%%%%%%%%%%%%%%%%%%%%%%%%%%%%%%%%%%%%%%%%%%%%%
     %                                                                      %
     % You are using vdW-DF, which was implemented by the Thonhauser group. %
     % Please cite the following two papers that made this development      %
     % possible and the two reviews that describe the various versions:     %
     %                                                                      %
     %   T. Thonhauser et al., PRL 115, 136402 (2015).                      %
     %   T. Thonhauser et al., PRB 76, 125112 (2007).                       %
     %   K. Berland et al., Rep. Prog. Phys. 78, 066501 (2015).             %
     %   D.C. Langreth et al., J. Phys.: Condens. Matter 21, 084203 (2009). %
     %                                                                      %
     %                                                                      %
     % If you are calculating the stress with vdW-DF, please also cite:     %
     %                                                                      %
     %   R. Sabatini et al., J. Phys.: Condens. Matter 24, 424209 (2012).   %
     %                                                                      %
     %%%%%%%%%%%%%%%%%%%%%%%%%%%%%%%%%%%%%%%%%%%%%%%%%%%%%%%%%%%%%%%%%%%%%%%%

     Adding external electric field

     Computed dipole along edir(3) :
        Dipole               -0.0000 Ry au,         -0.0000 Debye
        Dipole field         -0.0000 Ry au,

        Potential amp.        0.0000 Ry
        Total length         46.2584 bohr

     Starting wfcs are  108 randomized atomic wfcs

     Self-consistent Calculation

     iteration #  1     ecut=    55.12 Ry     beta= 0.10
     Davidson diagonalization with overlap
     ethr =  1.00E-02,  avg # of iterations =  2.5

     Threshold (ethr) on eigenvalues was too large:
     Diagonalizing with lowered threshold

     Davidson diagonalization with overlap
     ethr =  5.13E-04,  avg # of iterations =  4.8

[...]

     total energy              =   -1214.78537141 Ry
     estimated scf accuracy    <       0.71690895 Ry

[...]

     iteration #  5     ecut=    55.12 Ry     beta= 0.10
     Davidson diagonalization with overlap
     c_bands:  1 eigenvalues not converged
     c_bands:  2 eigenvalues not converged
     c_bands:  2 eigenvalues not converged
     c_bands:  1 eigenvalues not converged
     c_bands:  1 eigenvalues not converged
     c_bands:  1 eigenvalues not converged
     ethr =  4.44E-05,  avg # of iterations = 10.1

[...]

     iteration # 15     ecut=    55.12 Ry     beta= 0.10
     Davidson diagonalization with overlap
     c_bands:  1 eigenvalues not converged
     ethr =  1.98E-08,  avg # of iterations =  7.8

[...]

     total energy              =   -1214.68195554 Ry
     estimated scf accuracy    <       0.00002731 Ry

     iteration # 16     ecut=    55.12 Ry     beta= 0.10
     Davidson diagonalization with overlap
     ethr =  1.90E-08,  avg # of iterations =  2.0

[...]

     Adding external electric field

     Computed dipole along edir(3) :
        Dipole                0.0310 Ry au,          0.0789 Debye
        Dipole field          0.0001 Ry au,

        Potential amp.       -0.0063 Ry
        Total length         46.2584 bohr

     End of self-consistent calculation

          k = 0.0000 0.0000 0.0000 ( 39497 PWs)   bands (ev):

    -9.2148  -9.2148  -9.2148  -9.0754  -9.0503  -9.0503  -9.0502  -9.0260
    -9.0260  -9.0260  -8.9432  -8.9431  -8.9431  -8.8286  -8.7791  -8.7433
    -8.7433  -8.7432  -8.6890  -8.6890  -8.6190  -8.6189  -8.6189  -8.6152
    -8.6152  -8.5394  -8.5394  -8.5394  -8.4913  -8.4913  -8.2839  -8.2839
    -8.1904  -8.1903  -8.1903  -8.1597  -8.1596  -8.1595  -8.1210  -8.1210
    -8.1210  -8.0880  -8.0880  -8.0631  -8.0631  -8.0631  -8.0185  -8.0185
    -7.9697  -7.9696  -7.9696  -7.9269  -7.9269  -7.9269  -7.8480  -7.8480
    -7.8480  -7.7589  -7.7589  -7.7588  -7.3083  -5.7038  -3.4237  -1.3103
    -1.3102  -1.3099  -1.1150  -1.1149  -1.1149  -0.5978  -0.1696  -0.1693
    -0.1692   0.5045   0.5046   0.5050   1.8925   1.8928   1.8930   2.2257
     2.2259   2.2260   2.3183   3.7473   4.0607   4.8730

[...]

          k = 0.0666-0.0538 0.0000 ( 39717 PWs)   bands (ev):

[...]

          k =-0.0799 0.0462 0.0000 ( 39662 PWs)   bands (ev):

[...]

          k =-0.0799-0.0462 0.0000 ( 39662 PWs)   bands (ev):

    -9.0225  -9.0224  -8.9237  -8.9236  -8.8853  -8.8853  -8.8482  -8.8481
    -8.8237  -8.8237  -8.7560  -8.7558  -8.7139  -8.7139  -8.6765  -8.6764
    -8.6711  -8.6710  -8.5819  -8.5819  -8.5502  -8.5501  -8.4781  -8.4780
    -8.4744  -8.4743  -8.4595  -8.4594  -8.4520  -8.4519  -8.3799  -8.3795
    -8.3324  -8.3324  -8.3129  -8.3127  -8.2956  -8.2954  -8.2946  -8.2942
    -8.2457  -8.2454  -8.2324  -8.2323  -8.2100  -8.2100  -8.1988  -8.1986
    -8.1410  -8.1405  -8.1169  -8.1168  -8.1033  -8.1032  -8.0255  -8.0254
    -7.9544  -7.9544  -7.9083  -7.9082  -5.7860  -5.7857  -4.2765  -4.2758
    -2.6683  -2.6682  -2.1680  -2.1676  -1.2827  -1.2824   0.6231   0.6233
     1.0576   1.0579   2.9311   2.9313   3.2624   3.2627   3.5979   3.5988
     3.7833   3.7839   4.4495   4.4497   4.9478   4.9490

     the Fermi energy is     0.6156 ev

!    total energy              =   -1214.68195803 Ry
     estimated scf accuracy    <       0.00000280 Ry
     smearing contrib. (-TS)   =      -0.02062901 Ry
     internal energy E=F+TS    =   -1214.66132902 Ry

     The total energy is F=E-TS. E is the sum of the following terms:
     one-electron contribution =   -8320.34057938 Ry
     hartree contribution      =    4241.58373920 Ry
     xc contribution           =    -285.09240395 Ry
     ewald contribution        =    3149.18791300 Ry
     electric field correction =       0.00000211 Ry

     convergence has been achieved in  16 iterations

     negative rho (up, down):  4.361E-03 0.000E+00

     Forces acting on atoms (cartesian axes, Ry/au):

     atom    1 type  1   force =     0.00000563   -0.00000121   -0.01568981
     atom    2 type  1   force =     0.00001244    0.00000930   -0.01566772
     atom    3 type  1   force =    -0.00001566   -0.00000383   -0.01567500
     atom    4 type  1   force =    -0.00000661   -0.00000753   -0.01568300
     atom    5 type  1   force =    -0.00001697   -0.00000337    0.01723286
     atom    6 type  1   force =     0.00002451   -0.00001297    0.01722700
     atom    7 type  1   force =    -0.00000566    0.00001303    0.01722179
     atom    8 type  1   force =     0.00001538   -0.00000878    0.01724469
     atom    9 type  1   force =    -0.00000204    0.00003179   -0.00155232
     atom   10 type  1   force =    -0.00000859   -0.00003255   -0.00156885
     atom   11 type  1   force =    -0.00003184   -0.00000325   -0.00153804
     atom   12 type  1   force =     0.00002942    0.00001936   -0.00155160

     Total force =     0.046698     Total SCF correction =     0.006020
     SCF correction compared to forces is large: reduce conv_thr to get better values

     Writing output data file ./Cd750/Cd750_beef.save/

     General routines

     Parallel routines

   This run was terminated on:  19:54:16  20Jun2022

   JOB DONE.