     Program PWSCF v.6.6 starts on 22Jun2022 at 21:19:38

     R & G space division:  proc/nbgrp/npool/nimage =      37
     Fft bands division:     nmany     =       1
     Reading input from Co-750.in
Warning: card &CELL ignored
Warning: card / ignored

     Current dimensions of program PWSCF are:
     Max number of different atomic species (ntypx) = 10
     Max number of k-points (npk) =  40000
     Max angular momentum in pseudopotentials (lmaxx) =  3
     Presently stress not available with electric field and gates

     file Co.pbe-spn-rrkjus_psl.0.3.1.UPF: wavefunction(s)  3P renormalized

     IMPORTANT: XC functional enforced from input :
     Exchange-correlation= BEEF-VDW
                           (   1   4  43  14   2   0   0)
     Any further DFT definition will be discarded
     Please, verify this is what you really want

     Subspace diagonalization in iterative solution of the eigenvalue problem:
     a serial algorithm will be used

     bravais-lattice index     =            0
     lattice parameter (alat)  =       9.4723  a.u.
     unit-cell volume          =    3537.7745 (a.u.)^3
     number of atoms/cell      =           12
     number of atomic types    =            1
     number of electrons       =       204.00
     number of Kohn-Sham states=          122
     kinetic-energy cutoff     =      55.1240  Ry
     charge density cutoff     =     551.2396  Ry
     convergence threshold     =      1.0E-05
     mixing beta               =       0.1000
     number of iterations used =           10  plain     mixing
     Exchange-correlation= BEEF-VDW
                           (   1   4  43  14   2   0   0)

     celldm(1)=   9.472347  celldm(2)=   0.000000  celldm(3)=   0.000000
     celldm(4)=   0.000000  celldm(5)=   0.000000  celldm(6)=   0.000000

     crystal axes: (cart. coord. in units of alat)
               a(1) = (   1.000000   0.000000   0.000000 )
               a(2) = (   0.500000   0.866025   0.000000 )
               a(3) = (   0.000000   0.000000   4.806476 )

     reciprocal axes: (cart. coord. in units 2 pi/alat)
               b(1) = (  1.000000 -0.577350  0.000000 )
               b(2) = (  0.000000  1.154701  0.000000 )
               b(3) = (  0.000000  0.000000  0.208053 )

     PseudoPot. # 1 for Co read from file:
     ../pseudo/Co.pbe-spn-rrkjus_psl.0.3.1.UPF
     MD5 check sum: 99b21b1f85602741a4c0ed67614a7280
     Pseudo is Ultrasoft + core correction, Zval = 17.0
     Generated using "atomic" code by A. Dal Corso v.6.2.2
     Using radial grid of 1193 points,  6 beta functions with:
                l(1) =   0
                l(2) =   0
                l(3) =   1
                l(4) =   1
                l(5) =   2
                l(6) =   2
     Q(r) pseudized with 0 coefficients

     atomic species   valence    mass     pseudopotential
        Co            17.00    58.93319     Co( 1.00)

     Starting magnetic structure
     atomic species   magnetization
        Co           1.000

     No symmetry found

   Cartesian axes

     site n.     atom                  positions (alat units)
         1           Co  tau(   1) = (   0.2500050   0.1443405   1.9949758  )
         2           Co  tau(   2) = (   0.7500050   0.1443405   1.9949758  )
         3           Co  tau(   3) = (   0.5000050   0.5773532   1.9949758  )
         4           Co  tau(   4) = (   1.0000050   0.5773532   1.9949758  )
         5           Co  tau(   5) = (   0.9999950   0.2886722   2.4032379  )
         6           Co  tau(   6) = (   0.4999950   0.2886722   2.4032379  )
         7           Co  tau(   7) = (   1.2499950   0.7216849   2.4032379  )
         8           Co  tau(   8) = (   0.7499950   0.7216849   2.4032379  )
         9           Co  tau(   9) = (   0.9997350   0.0006322   2.8008295  )
        10           Co  tau(  10) = (   0.5001800   0.0002771   2.8014063  )
        11           Co  tau(  11) = (   1.2496450   0.4328135   2.8004931  )
        12           Co  tau(  12) = (   0.7503100   0.4325450   2.8003008  )

     number of k points=    74  Fermi-Dirac smearing, width (Ry)=  0.0100
                       cart. coord. in units 2pi/alat
        k(    1) = (   0.0000000   0.0000000   0.0000000), wk =   0.0069444
        k(    2) = (   0.0000000   0.0962250   0.0000000), wk =   0.0138889
        k(    3) = (   0.0000000   0.1924501   0.0000000), wk =   0.0138889
        k(    4) = (   0.0000000   0.2886751   0.0000000), wk =   0.0138889
        k(    5) = (   0.0000000   0.3849002   0.0000000), wk =   0.0138889
        k(    6) = (   0.0000000   0.4811252   0.0000000), wk =   0.0138889
        k(    7) = (   0.0000000  -0.5773503   0.0000000), wk =   0.0069444
        k(    8) = (   0.0833333  -0.0481125   0.0000000), wk =   0.0138889
        k(    9) = (   0.0833333   0.0481125   0.0000000), wk =   0.0138889
        k(   10) = (   0.0833333   0.1443376   0.0000000), wk =   0.0138889
        k(   11) = (   0.0833333   0.2405626   0.0000000), wk =   0.0138889
        k(   12) = (   0.0833333   0.3367877   0.0000000), wk =   0.0138889
        k(   13) = (   0.0833333   0.4330127   0.0000000), wk =   0.0138889
        k(   14) = (   0.0833333  -0.6254628   0.0000000), wk =   0.0138889
        k(   15) = (   0.0833333  -0.5292377   0.0000000), wk =   0.0138889
        k(   16) = (   0.0833333  -0.4330127   0.0000000), wk =   0.0138889
        k(   17) = (   0.0833333  -0.3367877   0.0000000), wk =   0.0138889
        k(   18) = (   0.0833333  -0.2405626   0.0000000), wk =   0.0138889
        k(   19) = (   0.0833333  -0.1443376   0.0000000), wk =   0.0138889
        k(   20) = (   0.1666667  -0.0962250   0.0000000), wk =   0.0138889
        k(   21) = (   0.1666667   0.0000000   0.0000000), wk =   0.0138889
        k(   22) = (   0.1666667   0.0962250   0.0000000), wk =   0.0138889
        k(   23) = (   0.1666667   0.1924501   0.0000000), wk =   0.0138889
        k(   24) = (   0.1666667   0.2886751   0.0000000), wk =   0.0138889
        k(   25) = (   0.1666667   0.3849002   0.0000000), wk =   0.0138889
        k(   26) = (   0.1666667  -0.6735753   0.0000000), wk =   0.0138889
        k(   27) = (   0.1666667  -0.5773503   0.0000000), wk =   0.0138889
        k(   28) = (   0.1666667  -0.4811252   0.0000000), wk =   0.0138889
        k(   29) = (   0.1666667  -0.3849002   0.0000000), wk =   0.0138889
        k(   30) = (   0.1666667  -0.2886751   0.0000000), wk =   0.0138889
        k(   31) = (   0.1666667  -0.1924501   0.0000000), wk =   0.0138889
        k(   32) = (   0.2500000  -0.1443376   0.0000000), wk =   0.0138889
        k(   33) = (   0.2500000  -0.0481125   0.0000000), wk =   0.0138889
        k(   34) = (   0.2500000   0.0481125   0.0000000), wk =   0.0138889
        k(   35) = (   0.2500000   0.1443376   0.0000000), wk =   0.0138889
        k(   36) = (   0.2500000   0.2405626   0.0000000), wk =   0.0138889
        k(   37) = (   0.2500000   0.3367877   0.0000000), wk =   0.0138889
        k(   38) = (   0.2500000  -0.7216878   0.0000000), wk =   0.0138889
        k(   39) = (   0.2500000  -0.6254628   0.0000000), wk =   0.0138889
        k(   40) = (   0.2500000  -0.5292377   0.0000000), wk =   0.0138889
        k(   41) = (   0.2500000  -0.4330127   0.0000000), wk =   0.0138889
        k(   42) = (   0.2500000  -0.3367877   0.0000000), wk =   0.0138889
        k(   43) = (   0.2500000  -0.2405626   0.0000000), wk =   0.0138889
        k(   44) = (   0.3333333  -0.1924501   0.0000000), wk =   0.0138889
        k(   45) = (   0.3333333  -0.0962250   0.0000000), wk =   0.0138889
        k(   46) = (   0.3333333   0.0000000   0.0000000), wk =   0.0138889
        k(   47) = (   0.3333333   0.0962250   0.0000000), wk =   0.0138889
        k(   48) = (   0.3333333   0.1924501   0.0000000), wk =   0.0138889
        k(   49) = (   0.3333333   0.2886751   0.0000000), wk =   0.0138889
        k(   50) = (   0.3333333  -0.7698004   0.0000000), wk =   0.0138889
        k(   51) = (   0.3333333  -0.6735753   0.0000000), wk =   0.0138889
        k(   52) = (   0.3333333  -0.5773503   0.0000000), wk =   0.0138889
        k(   53) = (   0.3333333  -0.4811252   0.0000000), wk =   0.0138889
        k(   54) = (   0.3333333  -0.3849002   0.0000000), wk =   0.0138889
        k(   55) = (   0.3333333  -0.2886751   0.0000000), wk =   0.0138889
        k(   56) = (   0.4166667  -0.2405626   0.0000000), wk =   0.0138889
        k(   57) = (   0.4166667  -0.1443376   0.0000000), wk =   0.0138889
        k(   58) = (   0.4166667  -0.0481125   0.0000000), wk =   0.0138889
        k(   59) = (   0.4166667   0.0481125   0.0000000), wk =   0.0138889
        k(   60) = (   0.4166667   0.1443376   0.0000000), wk =   0.0138889
        k(   61) = (   0.4166667   0.2405626   0.0000000), wk =   0.0138889
        k(   62) = (   0.4166667  -0.8179129   0.0000000), wk =   0.0138889
        k(   63) = (   0.4166667  -0.7216878   0.0000000), wk =   0.0138889
        k(   64) = (   0.4166667  -0.6254628   0.0000000), wk =   0.0138889
        k(   65) = (   0.4166667  -0.5292377   0.0000000), wk =   0.0138889
        k(   66) = (   0.4166667  -0.4330127   0.0000000), wk =   0.0138889
        k(   67) = (   0.4166667  -0.3367877   0.0000000), wk =   0.0138889
        k(   68) = (  -0.5000000   0.2886751   0.0000000), wk =   0.0069444
        k(   69) = (  -0.5000000   0.3849002   0.0000000), wk =   0.0138889
        k(   70) = (  -0.5000000   0.4811252   0.0000000), wk =   0.0138889
        k(   71) = (  -0.5000000   0.5773503   0.0000000), wk =   0.0138889
        k(   72) = (  -0.5000000   0.6735753   0.0000000), wk =   0.0138889
        k(   73) = (  -0.5000000   0.7698004   0.0000000), wk =   0.0138889
        k(   74) = (  -0.5000000  -0.2886751   0.0000000), wk =   0.0069444

     Check: negative core charge=   -0.000013
     Generating pointlists ...
     new r_m :   0.2024 (alat units)  1.9170 (a.u.) for type    1

     Initial potential from superposition of free atoms

     starting charge  203.99659, renormalised to  204.00000

     %%%%%%%%%%%%%%%%%%%%%%%%%%%%%%%%%%%%%%%%%%%%%%%%%%%%%%%%%%%%%%%%%%%%%%%%
     %                                                                      %
     % You are using vdW-DF, which was implemented by the Thonhauser group. %
     % Please cite the following two papers that made this development      %
     % possible and the two reviews that describe the various versions:     %
     %                                                                      %
     %   T. Thonhauser et al., PRL 115, 136402 (2015).                      %
     %   T. Thonhauser et al., PRB 76, 125112 (2007).                       %
     %   K. Berland et al., Rep. Prog. Phys. 78, 066501 (2015).             %
     %   D.C. Langreth et al., J. Phys.: Condens. Matter 21, 084203 (2009). %
     %                                                                      %
     %                                                                      %
     % If you are calculating the stress with vdW-DF, please also cite:     %
     %                                                                      %
     %   R. Sabatini et al., J. Phys.: Condens. Matter 24, 424209 (2012).   %
     %                                                                      %
     %%%%%%%%%%%%%%%%%%%%%%%%%%%%%%%%%%%%%%%%%%%%%%%%%%%%%%%%%%%%%%%%%%%%%%%%

     Adding external electric field

     Computed dipole along edir(3) :
        Dipole               -0.0000 Ry au,         -0.0000 Debye
        Dipole field         -0.0000 Ry au,

        Potential amp.        0.0000 Ry
        Total length         44.3904 bohr

[...]

     Starting wfcs are  120 randomized atomic wfcs +    2 random wfcs

     Self-consistent Calculation

     iteration #  1     ecut=    55.12 Ry     beta= 0.10
     Davidson diagonalization with overlap
     c_bands:  1 eigenvalues not converged
     c_bands:  1 eigenvalues not converged
     c_bands:  1 eigenvalues not converged
     c_bands:  1 eigenvalues not converged
     c_bands:  2 eigenvalues not converged
     c_bands:  2 eigenvalues not converged
     c_bands:  1 eigenvalues not converged
     c_bands:  1 eigenvalues not converged
     c_bands:  2 eigenvalues not converged
     c_bands:  2 eigenvalues not converged
     c_bands:  5 eigenvalues not converged
     c_bands:  1 eigenvalues not converged
     c_bands:  2 eigenvalues not converged
     c_bands:  1 eigenvalues not converged
     c_bands:  1 eigenvalues not converged
     ethr =  1.00E-02,  avg # of iterations = 12.7

[...]

     total energy              =   -3483.75894657 Ry
     estimated scf accuracy    <      82.95997798 Ry

     total magnetization       =    40.00 Bohr mag/cell
     absolute magnetization    =    57.56 Bohr mag/cell

     iteration #  2     ecut=    55.12 Ry     beta= 0.10
     Davidson diagonalization with overlap
     ethr =  1.00E-02,  avg # of iterations =  2.0

[...]

     iteration # 25     ecut=    55.12 Ry     beta= 0.10
     Davidson diagonalization with overlap
     c_bands:  1 eigenvalues not converged
     c_bands:  1 eigenvalues not converged
     ethr =  7.20E-07,  avg # of iterations =  3.8

[...]

     total energy              =   -3513.36838418 Ry
     estimated scf accuracy    <       0.00002028 Ry

[...]

     iteration # 34     ecut=    55.12 Ry     beta= 0.10
     Davidson diagonalization with overlap
     ethr =  9.94E-09,  avg # of iterations =  2.5

[...]

     Adding external electric field

     Computed dipole along edir(3) :
        Dipole                0.0172 Ry au,          0.0436 Debye
        Dipole field          0.0001 Ry au,

        Potential amp.       -0.0054 Ry
        Total length         44.3904 bohr

     Magnetic moment per site:
     atom:    1    charge:   15.4619    magn:    1.9085    constr:    0.0000
     atom:    2    charge:   15.4615    magn:    1.9084    constr:    0.0000
     atom:    3    charge:   15.4620    magn:    1.9077    constr:    0.0000
     atom:    4    charge:   15.4619    magn:    1.9085    constr:    0.0000
     atom:    5    charge:   15.5535    magn:    1.8549    constr:    0.0000
     atom:    6    charge:   15.5530    magn:    1.8552    constr:    0.0000
     atom:    7    charge:   15.5523    magn:    1.8561    constr:    0.0000
     atom:    8    charge:   15.5517    magn:    1.8565    constr:    0.0000
     atom:    9    charge:   15.4784    magn:    1.8908    constr:    0.0000
     atom:   10    charge:   15.4782    magn:    1.8908    constr:    0.0000
     atom:   11    charge:   15.4791    magn:    1.8902    constr:    0.0000
     atom:   12    charge:   15.4792    magn:    1.8902    constr:    0.0000

     End of self-consistent calculation

     Number of k-points >= 100: set verbosity='high' to print the bands.

     the Fermi energy is     0.8264 ev

!    total energy              =   -3512.11687159 Ry
     estimated scf accuracy    <       0.00000775 Ry
     smearing contrib. (-TS)   =      -0.06327815 Ry
     internal energy E=F+TS    =   -3512.05359344 Ry

     The total energy is F=E-TS. E is the sum of the following terms:
     one-electron contribution =  -31179.56726258 Ry
     hartree contribution      =   15589.07972662 Ry
     xc contribution           =    -382.55552048 Ry
     ewald contribution        =   12460.98946195 Ry
     electric field correction =       0.00000105 Ry

     total magnetization       =    21.30 Bohr mag/cell
     absolute magnetization    =    24.38 Bohr mag/cell

     convergence has been achieved in  34 iterations

     Forces acting on atoms (cartesian axes, Ry/au):

     atom    1 type  1   force =    -0.00001304   -0.00004592    0.00674784
     atom    2 type  1   force =     0.00001277   -0.00001092    0.00672339
     atom    3 type  1   force =     0.00003842    0.00003286    0.00672358
     atom    4 type  1   force =    -0.00004122    0.00003283    0.00676084
     atom    5 type  1   force =    -0.00000893   -0.00012775   -0.00890477
     atom    6 type  1   force =    -0.00001237   -0.00015149   -0.00852660
     atom    7 type  1   force =    -0.00002842    0.00018126   -0.00829643
     atom    8 type  1   force =     0.00001588    0.00017197   -0.00815736
     atom    9 type  1   force =     0.00062489   -0.00156612    0.00170125
     atom   10 type  1   force =    -0.00058403   -0.00059746    0.00086523
     atom   11 type  1   force =     0.00085198    0.00068284    0.00203999
     atom   12 type  1   force =    -0.00085593    0.00139790    0.00232304

     Total force =     0.022130     Total SCF correction =     0.015472
     SCF correction compared to forces is large: reduce conv_thr to get better values

     Writing output data file ./Co750/Co750_beef.save/

     General routines

     Parallel routines

   This run was terminated on:   1:11:19  23Jun2022

   JOB DONE.