     Program PWSCF v.6.6 starts on 20Jun2022 at 22:10:51

     R & G space division:  proc/nbgrp/npool/nimage =      37
     Fft bands division:     nmany     =       1
     Reading input from Cu-750.in
Warning: card &CELL ignored
Warning: card / ignored

     Current dimensions of program PWSCF are:
     Max number of different atomic species (ntypx) = 10
     Max number of k-points (npk) =  40000
     Max angular momentum in pseudopotentials (lmaxx) =  3
     Presently stress not available with electric field and gates

     Message from routine cell_base_init:
     DEPRECATED: use true lattice parameter, not A to a.u. conversion factor
     file Cu.pbe-dn-rrkjus_psl.1.0.0.UPF: wavefunction(s)  3D renormalized

     IMPORTANT: XC functional enforced from input :
     Exchange-correlation= BEEF-VDW
                           (   1   4  43  14   2   0   0)
     Any further DFT definition will be discarded
     Please, verify this is what you really want

     Subspace diagonalization in iterative solution of the eigenvalue problem:
     a serial algorithm will be used

     bravais-lattice index     =            0
     lattice parameter (alat)  =       1.8897  a.u.
     unit-cell volume          =    3807.2303 (a.u.)^3
     number of atoms/cell      =           12
     number of atomic types    =            1
     number of electrons       =       132.00
     number of Kohn-Sham states=           79
     kinetic-energy cutoff     =      55.1240  Ry
     charge density cutoff     =     551.2396  Ry
     convergence threshold     =      1.0E-05
     mixing beta               =       0.1000
     number of iterations used =           10  plain     mixing
     Exchange-correlation= BEEF-VDW
                           (   1   4  43  14   2   0   0)

     celldm(1)=   1.889726  celldm(2)=   0.000000  celldm(3)=   0.000000
     celldm(4)=   0.000000  celldm(5)=   0.000000  celldm(6)=   0.000000

     crystal axes: (cart. coord. in units of alat)
               a(1) = (   5.184823   0.000000   0.000000 )
               a(2) = (   2.592411   4.490188   0.000000 )
               a(3) = (   0.000000   0.000000  24.233390 )

     reciprocal axes: (cart. coord. in units 2 pi/alat)
               b(1) = (  0.192871 -0.111354  0.000000 )
               b(2) = (  0.000000  0.222708  0.000000 )
               b(3) = (  0.000000  0.000000  0.041265 )

     PseudoPot. # 1 for Cu read from file:
     ../pseudo/Cu.pbe-dn-rrkjus_psl.1.0.0.UPF
     MD5 check sum: 8469560995d0c2df1ffe68c099c04a63
     Pseudo is Ultrasoft + core correction, Zval = 11.0
     Generated using "atomic" code by A. Dal Corso v.6.3
     Using radial grid of 1199 points,  6 beta functions with:
                l(1) =   0
                l(2) =   0
                l(3) =   1
                l(4) =   1
                l(5) =   2
                l(6) =   2
     Q(r) pseudized with 0 coefficients

     atomic species   valence    mass     pseudopotential
        Cu            11.00    63.54600     Cu( 1.00)

     No symmetry found

   Cartesian axes

     site n.     atom                  positions (alat units)
         1           Cu  tau(   1) = (   1.2962059   0.7483648  10.0000005  )
         2           Cu  tau(   2) = (   3.8886174   0.7483648  10.0000005  )
         3           Cu  tau(   3) = (   2.5924114   2.9934588  10.0000005  )
         4           Cu  tau(   4) = (   5.1848229   2.9934588  10.0000005  )
         5           Cu  tau(   5) = (   5.1848226   1.4967292  12.1166950  )
         6           Cu  tau(   6) = (   2.5924111   1.4967292  12.1166950  )
         7           Cu  tau(   7) = (   6.4810281   3.7418232  12.1166950  )
         8           Cu  tau(   8) = (   3.8886166   3.7418232  12.1166950  )
         9           Cu  tau(   9) = (  -0.0002074  -0.0000449  14.2184254  )
        10           Cu  tau(  10) = (   2.5927094  -0.0008994  14.2190870  )
        11           Cu  tau(  11) = (   1.2955377   2.2457684  14.2189028  )
        12           Cu  tau(  12) = (   3.8892052   2.2453728  14.2191112  )

     number of k points=    74  Fermi-Dirac smearing, width (Ry)=  0.0100
                       cart. coord. in units 2pi/alat
        k(    1) = (   0.0000000   0.0000000   0.0000000), wk =   0.0138889
        k(    2) = (   0.0000000   0.0185590   0.0000000), wk =   0.0277778
        k(    3) = (   0.0000000   0.0371180   0.0000000), wk =   0.0277778
        k(    4) = (   0.0000000   0.0556770   0.0000000), wk =   0.0277778
        k(    5) = (   0.0000000   0.0742359   0.0000000), wk =   0.0277778
        k(    6) = (   0.0000000   0.0927949   0.0000000), wk =   0.0277778
        k(    7) = (   0.0000000  -0.1113539   0.0000000), wk =   0.0138889
        k(    8) = (   0.0160726  -0.0092795   0.0000000), wk =   0.0277778
        k(    9) = (   0.0160726   0.0092795   0.0000000), wk =   0.0277778
        k(   10) = (   0.0160726   0.0278385   0.0000000), wk =   0.0277778
        k(   11) = (   0.0160726   0.0463975   0.0000000), wk =   0.0277778
        k(   12) = (   0.0160726   0.0649565   0.0000000), wk =   0.0277778
        k(   13) = (   0.0160726   0.0835154   0.0000000), wk =   0.0277778
        k(   14) = (   0.0160726  -0.1206334   0.0000000), wk =   0.0277778
        k(   15) = (   0.0160726  -0.1020744   0.0000000), wk =   0.0277778
        k(   16) = (   0.0160726  -0.0835154   0.0000000), wk =   0.0277778
        k(   17) = (   0.0160726  -0.0649564   0.0000000), wk =   0.0277778
        k(   18) = (   0.0160726  -0.0463975   0.0000000), wk =   0.0277778
        k(   19) = (   0.0160726  -0.0278385   0.0000000), wk =   0.0277778
        k(   20) = (   0.0321451  -0.0185590   0.0000000), wk =   0.0277778
        k(   21) = (   0.0321451   0.0000000   0.0000000), wk =   0.0277778
        k(   22) = (   0.0321451   0.0185590   0.0000000), wk =   0.0277778
        k(   23) = (   0.0321451   0.0371180   0.0000000), wk =   0.0277778
        k(   24) = (   0.0321451   0.0556770   0.0000000), wk =   0.0277778
        k(   25) = (   0.0321451   0.0742359   0.0000000), wk =   0.0277778
        k(   26) = (   0.0321451  -0.1299129   0.0000000), wk =   0.0277778
        k(   27) = (   0.0321451  -0.1113539   0.0000000), wk =   0.0277778
        k(   28) = (   0.0321451  -0.0927949   0.0000000), wk =   0.0277778
        k(   29) = (   0.0321451  -0.0742359   0.0000000), wk =   0.0277778
        k(   30) = (   0.0321451  -0.0556770   0.0000000), wk =   0.0277778
        k(   31) = (   0.0321451  -0.0371180   0.0000000), wk =   0.0277778
        k(   32) = (   0.0482177  -0.0278385   0.0000000), wk =   0.0277778
        k(   33) = (   0.0482177  -0.0092795   0.0000000), wk =   0.0277778
        k(   34) = (   0.0482177   0.0092795   0.0000000), wk =   0.0277778
        k(   35) = (   0.0482177   0.0278385   0.0000000), wk =   0.0277778
        k(   36) = (   0.0482177   0.0463975   0.0000000), wk =   0.0277778
        k(   37) = (   0.0482177   0.0649565   0.0000000), wk =   0.0277778
        k(   38) = (   0.0482177  -0.1391924   0.0000000), wk =   0.0277778
        k(   39) = (   0.0482177  -0.1206334   0.0000000), wk =   0.0277778
        k(   40) = (   0.0482177  -0.1020744   0.0000000), wk =   0.0277778
        k(   41) = (   0.0482177  -0.0835154   0.0000000), wk =   0.0277778
        k(   42) = (   0.0482177  -0.0649564   0.0000000), wk =   0.0277778
        k(   43) = (   0.0482177  -0.0463975   0.0000000), wk =   0.0277778
        k(   44) = (   0.0642902  -0.0371180   0.0000000), wk =   0.0277778
        k(   45) = (   0.0642902  -0.0185590   0.0000000), wk =   0.0277778
        k(   46) = (   0.0642902   0.0000000   0.0000000), wk =   0.0277778
        k(   47) = (   0.0642902   0.0185590   0.0000000), wk =   0.0277778
        k(   48) = (   0.0642902   0.0371180   0.0000000), wk =   0.0277778
        k(   49) = (   0.0642902   0.0556770   0.0000000), wk =   0.0277778
        k(   50) = (   0.0642902  -0.1484719   0.0000000), wk =   0.0277778
        k(   51) = (   0.0642902  -0.1299129   0.0000000), wk =   0.0277778
        k(   52) = (   0.0642902  -0.1113539   0.0000000), wk =   0.0277778
        k(   53) = (   0.0642902  -0.0927949   0.0000000), wk =   0.0277778
        k(   54) = (   0.0642902  -0.0742359   0.0000000), wk =   0.0277778
        k(   55) = (   0.0642902  -0.0556769   0.0000000), wk =   0.0277778
        k(   56) = (   0.0803628  -0.0463975   0.0000000), wk =   0.0277778
        k(   57) = (   0.0803628  -0.0278385   0.0000000), wk =   0.0277778
        k(   58) = (   0.0803628  -0.0092795   0.0000000), wk =   0.0277778
        k(   59) = (   0.0803628   0.0092795   0.0000000), wk =   0.0277778
        k(   60) = (   0.0803628   0.0278385   0.0000000), wk =   0.0277778
        k(   61) = (   0.0803628   0.0463975   0.0000000), wk =   0.0277778
        k(   62) = (   0.0803628  -0.1577514   0.0000000), wk =   0.0277778
        k(   63) = (   0.0803628  -0.1391924   0.0000000), wk =   0.0277778
        k(   64) = (   0.0803628  -0.1206334   0.0000000), wk =   0.0277778
        k(   65) = (   0.0803628  -0.1020744   0.0000000), wk =   0.0277778
        k(   66) = (   0.0803628  -0.0835154   0.0000000), wk =   0.0277778
        k(   67) = (   0.0803628  -0.0649564   0.0000000), wk =   0.0277778
        k(   68) = (  -0.0964353   0.0556769   0.0000000), wk =   0.0138889
        k(   69) = (  -0.0964353   0.0742359   0.0000000), wk =   0.0277778
        k(   70) = (  -0.0964353   0.0927949   0.0000000), wk =   0.0277778
        k(   71) = (  -0.0964353   0.1113539   0.0000000), wk =   0.0277778
        k(   72) = (  -0.0964353   0.1299129   0.0000000), wk =   0.0277778
        k(   73) = (  -0.0964353   0.1484719   0.0000000), wk =   0.0277778
        k(   74) = (  -0.0964353  -0.0556770   0.0000000), wk =   0.0138889

     Initial potential from superposition of free atoms

     starting charge  131.99723, renormalised to  132.00000

     negative rho (up, down):  2.084E-04 0.000E+00

     %%%%%%%%%%%%%%%%%%%%%%%%%%%%%%%%%%%%%%%%%%%%%%%%%%%%%%%%%%%%%%%%%%%%%%%%
     %                                                                      %
     % You are using vdW-DF, which was implemented by the Thonhauser group. %
     % Please cite the following two papers that made this development      %
     % possible and the two reviews that describe the various versions:     %
     %                                                                      %
     %   T. Thonhauser et al., PRL 115, 136402 (2015).                      %
     %   T. Thonhauser et al., PRB 76, 125112 (2007).                       %
     %   K. Berland et al., Rep. Prog. Phys. 78, 066501 (2015).             %
     %   D.C. Langreth et al., J. Phys.: Condens. Matter 21, 084203 (2009). %
     %                                                                      %
     %                                                                      %
     % If you are calculating the stress with vdW-DF, please also cite:     %
     %                                                                      %
     %   R. Sabatini et al., J. Phys.: Condens. Matter 24, 424209 (2012).   %
     %                                                                      %
     %%%%%%%%%%%%%%%%%%%%%%%%%%%%%%%%%%%%%%%%%%%%%%%%%%%%%%%%%%%%%%%%%%%%%%%%

     Adding external electric field

     Computed dipole along edir(3) :
        Dipole               -0.0000 Ry au,         -0.0000 Debye
        Dipole field         -0.0000 Ry au,

        Potential amp.        0.0000 Ry
        Total length         44.6496 bohr

     Starting wfcs are  108 randomized atomic wfcs

     Self-consistent Calculation

     iteration #  1     ecut=    55.12 Ry     beta= 0.10
     Davidson diagonalization with overlap
     ethr =  1.00E-02,  avg # of iterations =  2.5

     Threshold (ethr) on eigenvalues was too large:
     Diagonalizing with lowered threshold

     Davidson diagonalization with overlap
     ethr =  1.95E-04,  avg # of iterations =  5.9

[...]

     total energy              =   -1488.22209699 Ry
     estimated scf accuracy    <       0.31607851 Ry

[...]

     iteration #  3     ecut=    55.12 Ry     beta= 0.10
     Davidson diagonalization with overlap
     c_bands:  1 eigenvalues not converged
     c_bands:  2 eigenvalues not converged
     c_bands:  2 eigenvalues not converged
     ethr =  8.28E-05,  avg # of iterations =  6.6

[...]

     iteration #  7     ecut=    55.12 Ry     beta= 0.10
     Davidson diagonalization with overlap
     c_bands:  1 eigenvalues not converged
     c_bands:  1 eigenvalues not converged
     ethr =  5.87E-07,  avg # of iterations =  6.0

[...]

     total energy              =   -1488.21318247 Ry
     estimated scf accuracy    <       0.00002879 Ry

     iteration # 10     ecut=    55.12 Ry     beta= 0.10
     Davidson diagonalization with overlap
     ethr =  2.18E-08,  avg # of iterations =  3.5

[...]

     Adding external electric field

     Computed dipole along edir(3) :
        Dipole               -0.0007 Ry au,         -0.0017 Debye
        Dipole field         -0.0000 Ry au,

        Potential amp.        0.0002 Ry
        Total length         44.6496 bohr

     End of self-consistent calculation

          k = 0.0000 0.0000 0.0000 ( 26371 PWs)   bands (ev):

    -8.7960  -6.8846  -5.4793  -5.0729  -5.0728  -5.0727  -4.8849  -4.8846
    -4.8845  -4.5263  -4.5262  -4.5259  -4.4652  -4.4652  -4.4652  -3.8462
    -3.8462  -3.8461  -3.5347  -3.5346  -3.5343  -3.4711  -3.4424  -3.4424
    -3.3750  -3.2555  -3.2554  -3.2554  -3.2512  -3.2512  -3.1339  -3.1339
    -3.0112  -3.0109  -3.0108  -2.6621  -2.6621  -2.6118  -2.6117  -2.6116
    -2.6095  -2.6095  -2.6094  -2.3813  -2.3813  -2.2436  -2.2436  -2.2436
    -2.1869  -2.1868  -2.1867  -2.1744  -2.1744  -2.1520  -2.1520  -2.1520
    -1.9838  -1.9462  -1.9462  -1.9461  -1.9317  -1.9316  -1.9316  -0.4720
    -0.3715  -0.3712  -0.3710   0.6668   0.6669   0.6671   1.1159   1.1161
     1.1166   3.2956   3.7265   3.7777   3.7783   3.7785   4.1799

[...]

          k = 0.0804-0.0650 0.0000 ( 26265 PWs)   bands (ev):

[...]

          k =-0.0964 0.0557 0.0000 ( 26272 PWs)   bands (ev):

[...]

          k =-0.0964-0.0557 0.0000 ( 26272 PWs)   bands (ev):

    -7.0001  -6.9996  -5.3918  -5.3913  -4.7653  -4.7651  -4.5314  -4.5310
    -4.5091  -4.5087  -4.2198  -4.2196  -4.0438  -4.0435  -3.9585  -3.9584
    -3.8093  -3.8092  -3.7824  -3.7824  -3.6846  -3.6842  -3.4662  -3.4659
    -3.3108  -3.3102  -3.2974  -3.2971  -3.2710  -3.2706  -3.1596  -3.1593
    -3.1546  -3.1543  -3.1376  -3.1372  -3.1168  -3.1164  -3.0881  -3.0879
    -2.8879  -2.8877  -2.7647  -2.7645  -2.7234  -2.7233  -2.6447  -2.6447
    -2.5757  -2.5750  -2.5358  -2.5354  -2.4381  -2.4379  -2.4128  -2.4127
    -2.2220  -2.2218  -2.1870  -2.1870  -2.1634  -2.1634  -2.0814  -2.0814
    -0.5669  -0.5669  -0.2459  -0.2455   0.6055   0.6056   2.3248   2.3255
     3.0348   3.0350   4.9729   4.9731   5.6393   5.6394   5.9843

     the Fermi energy is    -0.5213 ev

!    total energy              =   -1488.21319108 Ry
     estimated scf accuracy    <       0.00000229 Ry
     smearing contrib. (-TS)   =      -0.01856493 Ry
     internal energy E=F+TS    =   -1488.19462616 Ry

     The total energy is F=E-TS. E is the sum of the following terms:
     one-electron contribution =  -11642.65220404 Ry
     hartree contribution      =    5963.84308432 Ry
     xc contribution           =    -551.24266599 Ry
     ewald contribution        =    4741.85715954 Ry
     electric field correction =       0.00000000 Ry

     convergence has been achieved in  10 iterations

     negative rho (up, down):  1.662E-04 0.000E+00

     Forces acting on atoms (cartesian axes, Ry/au):

     atom    1 type  1   force =    -0.00000581   -0.00000131    0.00349667
     atom    2 type  1   force =     0.00000998   -0.00000304    0.00349143
     atom    3 type  1   force =    -0.00001252    0.00001532    0.00349349
     atom    4 type  1   force =     0.00000388   -0.00000649    0.00349122
     atom    5 type  1   force =    -0.00000928   -0.00001170   -0.00232597
     atom    6 type  1   force =     0.00000398   -0.00001245   -0.00216646
     atom    7 type  1   force =     0.00000329    0.00001423   -0.00237451
     atom    8 type  1   force =    -0.00000192    0.00001405   -0.00231047
     atom    9 type  1   force =     0.00011000    0.00003211   -0.00113456
     atom   10 type  1   force =    -0.00012075    0.00038855   -0.00123367
     atom   11 type  1   force =     0.00029437   -0.00028926   -0.00120066
     atom   12 type  1   force =    -0.00027521   -0.00014000   -0.00122650

     Total force =     0.008723     Total SCF correction =     0.003126
     SCF correction compared to forces is large: reduce conv_thr to get better values

     Writing output data file ./Cu750/Cu750_beef.save/

     General routines

     Parallel routines

   This run was terminated on:  23:53:34  20Jun2022

   JOB DONE.