     Program PWSCF v.6.6 starts on 20Jun2022 at 23:53:39

     R & G space division:  proc/nbgrp/npool/nimage =      37
     Fft bands division:     nmany     =       1
     Reading input from Hf-750.in
Warning: card &CELL ignored
Warning: card / ignored

     Current dimensions of program PWSCF are:
     Max number of different atomic species (ntypx) = 10
     Max number of k-points (npk) =  40000
     Max angular momentum in pseudopotentials (lmaxx) =  3
     Presently stress not available with electric field and gates

     Message from routine cell_base_init:
     DEPRECATED: use true lattice parameter, not A to a.u. conversion factor

     IMPORTANT: XC functional enforced from input :
     Exchange-correlation= BEEF-VDW
                           (   1   4  43  14   2   0   0)
     Any further DFT definition will be discarded
     Please, verify this is what you really want

     Subspace diagonalization in iterative solution of the eigenvalue problem:
     a serial algorithm will be used

     bravais-lattice index     =            0
     lattice parameter (alat)  =       1.8897  a.u.
     unit-cell volume          =    6024.3309 (a.u.)^3
     number of atoms/cell      =           12
     number of atomic types    =            1
     number of electrons       =       144.00
     number of Kohn-Sham states=           86
     kinetic-energy cutoff     =      55.1240  Ry
     charge density cutoff     =     551.2396  Ry
     convergence threshold     =      1.0E-05
     mixing beta               =       0.1000
     number of iterations used =           10  plain     mixing
     Exchange-correlation= BEEF-VDW
                           (   1   4  43  14   2   0   0)

     celldm(1)=   1.889726  celldm(2)=   0.000000  celldm(3)=   0.000000
     celldm(4)=   0.000000  celldm(5)=   0.000000  celldm(6)=   0.000000

     crystal axes: (cart. coord. in units of alat)
               a(1) = (   6.393197   0.000000   0.000000 )
               a(2) = (   3.196599   5.536671   0.000000 )
               a(3) = (   0.000000   0.000000  25.220024 )

     reciprocal axes: (cart. coord. in units 2 pi/alat)
               b(1) = (  0.156416 -0.090307  0.000000 )
               b(2) = (  0.000000  0.180614  0.000000 )
               b(3) = (  0.000000  0.000000  0.039651 )

     PseudoPot. # 1 for Hf read from file:
     ../pseudo/Hf.pbe-spn-rrkjus_psl.1.0.0.UPF
     MD5 check sum: 9605440c6f839e558204c6a924125fd0
     Pseudo is Ultrasoft + core correction, Zval = 12.0
     Generated using "atomic" code by A. Dal Corso v.6.2.2
     Using radial grid of 1271 points,  6 beta functions with:
                l(1) =   0
                l(2) =   0
                l(3) =   1
                l(4) =   1
                l(5) =   2
                l(6) =   2
     Q(r) pseudized with 0 coefficients

     atomic species   valence    mass     pseudopotential
        Hf            12.00   178.49000     Hf( 1.00)

     No symmetry found

   Cartesian axes

     site n.     atom                  positions (alat units)
         1           Hf  tau(   1) = (   1.5982997   0.9227787   9.9999993  )
         2           Hf  tau(   2) = (   4.7948982   0.9227787   9.9999993  )
         3           Hf  tau(   3) = (   3.1965992   3.6911142   9.9999993  )
         4           Hf  tau(   4) = (   6.3931977   3.6911142   9.9999993  )
         5           Hf  tau(   5) = (   6.3931968   1.8455568  12.6100120  )
         6           Hf  tau(   6) = (   3.1965983   1.8455568  12.6100120  )
         7           Hf  tau(   7) = (   7.9914963   4.6138923  12.6100120  )
         8           Hf  tau(   8) = (   4.7948978   4.6138923  12.6100120  )
         9           Hf  tau(   9) = (  -0.0000547  -0.0000327  15.0431037  )
        10           Hf  tau(  10) = (   3.1966458  -0.0001074  15.0433584  )
        11           Hf  tau(  11) = (   1.5982311   2.7684418  15.0433988  )
        12           Hf  tau(  12) = (   4.7949575   2.7683831  15.0434593  )

     number of k points=    74  Fermi-Dirac smearing, width (Ry)=  0.0100
                       cart. coord. in units 2pi/alat
        k(    1) = (   0.0000000   0.0000000   0.0000000), wk =   0.0138889
        k(    2) = (   0.0000000   0.0150512   0.0000000), wk =   0.0277778
        k(    3) = (   0.0000000   0.0301023   0.0000000), wk =   0.0277778
        k(    4) = (   0.0000000   0.0451535   0.0000000), wk =   0.0277778
        k(    5) = (   0.0000000   0.0602046   0.0000000), wk =   0.0277778
        k(    6) = (   0.0000000   0.0752558   0.0000000), wk =   0.0277778
        k(    7) = (   0.0000000  -0.0903070   0.0000000), wk =   0.0138889
        k(    8) = (   0.0130347  -0.0075256   0.0000000), wk =   0.0277778
        k(    9) = (   0.0130347   0.0075256   0.0000000), wk =   0.0277778
        k(   10) = (   0.0130347   0.0225767   0.0000000), wk =   0.0277778
        k(   11) = (   0.0130347   0.0376279   0.0000000), wk =   0.0277778
        k(   12) = (   0.0130347   0.0526791   0.0000000), wk =   0.0277778
        k(   13) = (   0.0130347   0.0677302   0.0000000), wk =   0.0277778
        k(   14) = (   0.0130347  -0.0978326   0.0000000), wk =   0.0277778
        k(   15) = (   0.0130347  -0.0827814   0.0000000), wk =   0.0277778
        k(   16) = (   0.0130347  -0.0677302   0.0000000), wk =   0.0277778
        k(   17) = (   0.0130347  -0.0526791   0.0000000), wk =   0.0277778
        k(   18) = (   0.0130347  -0.0376279   0.0000000), wk =   0.0277778
        k(   19) = (   0.0130347  -0.0225767   0.0000000), wk =   0.0277778
        k(   20) = (   0.0260694  -0.0150512   0.0000000), wk =   0.0277778
        k(   21) = (   0.0260694  -0.0000000   0.0000000), wk =   0.0277778
        k(   22) = (   0.0260694   0.0150512   0.0000000), wk =   0.0277778
        k(   23) = (   0.0260694   0.0301023   0.0000000), wk =   0.0277778
        k(   24) = (   0.0260694   0.0451535   0.0000000), wk =   0.0277778
        k(   25) = (   0.0260694   0.0602046   0.0000000), wk =   0.0277778
        k(   26) = (   0.0260694  -0.1053581   0.0000000), wk =   0.0277778
        k(   27) = (   0.0260694  -0.0903070   0.0000000), wk =   0.0277778
        k(   28) = (   0.0260694  -0.0752558   0.0000000), wk =   0.0277778
        k(   29) = (   0.0260694  -0.0602047   0.0000000), wk =   0.0277778
        k(   30) = (   0.0260694  -0.0451535   0.0000000), wk =   0.0277778
        k(   31) = (   0.0260694  -0.0301023   0.0000000), wk =   0.0277778
        k(   32) = (   0.0391041  -0.0225767   0.0000000), wk =   0.0277778
        k(   33) = (   0.0391041  -0.0075256   0.0000000), wk =   0.0277778
        k(   34) = (   0.0391041   0.0075256   0.0000000), wk =   0.0277778
        k(   35) = (   0.0391041   0.0225767   0.0000000), wk =   0.0277778
        k(   36) = (   0.0391041   0.0376279   0.0000000), wk =   0.0277778
        k(   37) = (   0.0391041   0.0526791   0.0000000), wk =   0.0277778
        k(   38) = (   0.0391041  -0.1128837   0.0000000), wk =   0.0277778
        k(   39) = (   0.0391041  -0.0978326   0.0000000), wk =   0.0277778
        k(   40) = (   0.0391041  -0.0827814   0.0000000), wk =   0.0277778
        k(   41) = (   0.0391041  -0.0677302   0.0000000), wk =   0.0277778
        k(   42) = (   0.0391041  -0.0526791   0.0000000), wk =   0.0277778
        k(   43) = (   0.0391041  -0.0376279   0.0000000), wk =   0.0277778
        k(   44) = (   0.0521388  -0.0301023   0.0000000), wk =   0.0277778
        k(   45) = (   0.0521388  -0.0150512   0.0000000), wk =   0.0277778
        k(   46) = (   0.0521388  -0.0000000   0.0000000), wk =   0.0277778
        k(   47) = (   0.0521388   0.0150512   0.0000000), wk =   0.0277778
        k(   48) = (   0.0521388   0.0301023   0.0000000), wk =   0.0277778
        k(   49) = (   0.0521388   0.0451535   0.0000000), wk =   0.0277778
        k(   50) = (   0.0521388  -0.1204093   0.0000000), wk =   0.0277778
        k(   51) = (   0.0521388  -0.1053581   0.0000000), wk =   0.0277778
        k(   52) = (   0.0521388  -0.0903070   0.0000000), wk =   0.0277778
        k(   53) = (   0.0521388  -0.0752558   0.0000000), wk =   0.0277778
        k(   54) = (   0.0521388  -0.0602047   0.0000000), wk =   0.0277778
        k(   55) = (   0.0521388  -0.0451535   0.0000000), wk =   0.0277778
        k(   56) = (   0.0651734  -0.0376279   0.0000000), wk =   0.0277778
        k(   57) = (   0.0651734  -0.0225767   0.0000000), wk =   0.0277778
        k(   58) = (   0.0651734  -0.0075256   0.0000000), wk =   0.0277778
        k(   59) = (   0.0651734   0.0075256   0.0000000), wk =   0.0277778
        k(   60) = (   0.0651734   0.0225767   0.0000000), wk =   0.0277778
        k(   61) = (   0.0651734   0.0376279   0.0000000), wk =   0.0277778
        k(   62) = (   0.0651734  -0.1279349   0.0000000), wk =   0.0277778
        k(   63) = (   0.0651734  -0.1128837   0.0000000), wk =   0.0277778
        k(   64) = (   0.0651734  -0.0978326   0.0000000), wk =   0.0277778
        k(   65) = (   0.0651734  -0.0827814   0.0000000), wk =   0.0277778
        k(   66) = (   0.0651734  -0.0677302   0.0000000), wk =   0.0277778
        k(   67) = (   0.0651734  -0.0526791   0.0000000), wk =   0.0277778
        k(   68) = (  -0.0782081   0.0451535   0.0000000), wk =   0.0138889
        k(   69) = (  -0.0782081   0.0602047   0.0000000), wk =   0.0277778
        k(   70) = (  -0.0782081   0.0752558   0.0000000), wk =   0.0277778
        k(   71) = (  -0.0782081   0.0903070   0.0000000), wk =   0.0277778
        k(   72) = (  -0.0782081   0.1053581   0.0000000), wk =   0.0277778
        k(   73) = (  -0.0782081   0.1204093   0.0000000), wk =   0.0277778
        k(   74) = (  -0.0782081  -0.0451535   0.0000000), wk =   0.0138889

     Initial potential from superposition of free atoms

     starting charge  143.97674, renormalised to  144.00000

     negative rho (up, down):  5.626E-04 0.000E+00

     %%%%%%%%%%%%%%%%%%%%%%%%%%%%%%%%%%%%%%%%%%%%%%%%%%%%%%%%%%%%%%%%%%%%%%%%
     %                                                                      %
     % You are using vdW-DF, which was implemented by the Thonhauser group. %
     % Please cite the following two papers that made this development      %
     % possible and the two reviews that describe the various versions:     %
     %                                                                      %
     %   T. Thonhauser et al., PRL 115, 136402 (2015).                      %
     %   T. Thonhauser et al., PRB 76, 125112 (2007).                       %
     %   K. Berland et al., Rep. Prog. Phys. 78, 066501 (2015).             %
     %   D.C. Langreth et al., J. Phys.: Condens. Matter 21, 084203 (2009). %
     %                                                                      %
     %                                                                      %
     % If you are calculating the stress with vdW-DF, please also cite:     %
     %                                                                      %
     %   R. Sabatini et al., J. Phys.: Condens. Matter 24, 424209 (2012).   %
     %                                                                      %
     %%%%%%%%%%%%%%%%%%%%%%%%%%%%%%%%%%%%%%%%%%%%%%%%%%%%%%%%%%%%%%%%%%%%%%%%

     Adding external electric field

     Computed dipole along edir(3) :
        Dipole                0.0000 Ry au,          0.0000 Debye
        Dipole field          0.0000 Ry au,

        Potential amp.       -0.0000 Ry
        Total length         46.4675 bohr

     Starting wfcs are  120 randomized atomic wfcs

     Self-consistent Calculation

     iteration #  1     ecut=    55.12 Ry     beta= 0.10
     Davidson diagonalization with overlap
     ethr =  1.00E-02,  avg # of iterations =  2.4

[...]

     total energy              =   -1513.36449016 Ry
     estimated scf accuracy    <       6.14844906 Ry

[...]

     iteration # 10     ecut=    55.12 Ry     beta= 0.10
     Davidson diagonalization with overlap
     c_bands:  1 eigenvalues not converged
     ethr =  6.89E-06,  avg # of iterations =  8.8

[...]

     iteration # 11     ecut=    55.12 Ry     beta= 0.10
     Davidson diagonalization with overlap
     c_bands:  1 eigenvalues not converged
     ethr =  6.89E-06,  avg # of iterations =  3.4

[...]

     total energy              =   -1514.00296598 Ry
     estimated scf accuracy    <       0.00001104 Ry

     iteration # 16     ecut=    55.12 Ry     beta= 0.10
     Davidson diagonalization with overlap
     ethr =  7.67E-09,  avg # of iterations =  5.3

[...]

     Adding external electric field

     Computed dipole along edir(3) :
        Dipole               -0.0100 Ry au,         -0.0253 Debye
        Dipole field         -0.0000 Ry au,

        Potential amp.        0.0019 Ry
        Total length         46.4675 bohr

     End of self-consistent calculation

          k = 0.0000 0.0000 0.0000 ( 41783 PWs)   bands (ev):

   -61.3672 -61.3332 -61.3332 -61.3331 -61.2489 -61.2138 -61.2137 -61.2134
   -60.8037 -60.7707 -60.7706 -60.7704 -30.0702 -30.0702 -30.0702 -29.9955
   -29.9954 -29.9954 -29.9897 -29.8846 -29.8846 -29.8846 -29.8533 -29.7776
   -29.7776 -29.7775 -29.6557 -29.6557 -29.6557 -29.5716 -29.5714 -29.5714
   -29.5279 -29.5279 -29.4488 -29.4487 -29.4486 -29.4380 -29.4380 -29.2075
   -29.2074 -29.2072 -29.1963 -29.1303 -29.1302 -29.1302 -29.0104 -29.0104
    -5.2898  -3.9262  -2.5841  -1.8117  -1.8116  -1.8116  -1.5803  -1.5803
    -1.5803  -1.0962  -1.0962  -1.0962  -0.4587  -0.4587  -0.4586   0.3532
     0.3533   0.3533   1.1788   1.3354   1.6908   1.6909   1.6909   1.7820
     1.8174   1.8175   1.8175   2.4787   2.4795   2.4906   2.4906   2.4906
     2.5882   2.6971   2.6971   2.6971   2.7453   2.7453

[...]

          k = 0.0652-0.0527 0.0000 ( 41643 PWs)   bands (ev):

[...]

          k =-0.0782 0.0452 0.0000 ( 41646 PWs)   bands (ev):

[...]

          k =-0.0782-0.0452 0.0000 ( 41646 PWs)   bands (ev):

   -61.3502 -61.3502 -61.3332 -61.3332 -61.2314 -61.2312 -61.2138 -61.2135
   -60.7872 -60.7871 -60.7706 -60.7705 -29.9708 -29.9708 -29.9190 -29.9190
   -29.8977 -29.8976 -29.8561 -29.8561 -29.8396 -29.8396 -29.7930 -29.7929
   -29.7925 -29.7925 -29.7515 -29.7515 -29.7218 -29.7216 -29.6860 -29.6858
   -29.5922 -29.5922 -29.5054 -29.5052 -29.3794 -29.3794 -29.2597 -29.2596
   -29.2295 -29.2294 -29.1939 -29.1938 -29.1850 -29.1849 -29.0707 -29.0706
    -3.6675  -3.6675  -2.4206  -2.4206  -1.4100  -1.4100  -1.1035  -1.1035
    -0.8093  -0.8092   0.0571   0.0571   0.2192   0.2192   0.3899   0.3900
     0.5319   0.5319   0.7320   0.7320   0.7966   0.7966   1.0169   1.0169
     1.1398   1.1399   1.2519   1.2519   1.4471   1.4472   1.6408   1.6409
     2.1720   2.1722   2.3026   2.3028   2.6371   2.6372

     the Fermi energy is     1.2817 ev

!    total energy              =   -1514.00296548 Ry
     estimated scf accuracy    <       0.00000413 Ry
     smearing contrib. (-TS)   =      -0.10030132 Ry
     internal energy E=F+TS    =   -1513.90266416 Ry

     The total energy is F=E-TS. E is the sum of the following terms:
     one-electron contribution =   -8503.65288768 Ry
     hartree contribution      =    4235.37542663 Ry
     xc contribution           =    -512.90078443 Ry
     ewald contribution        =    3267.27558112 Ry
     electric field correction =       0.00000021 Ry

     convergence has been achieved in  16 iterations

     negative rho (up, down):  1.322E-04 0.000E+00

     Forces acting on atoms (cartesian axes, Ry/au):

     atom    1 type  1   force =     0.00000628   -0.00000001    0.01938049
     atom    2 type  1   force =    -0.00000589    0.00000694    0.01939584
     atom    3 type  1   force =     0.00000694   -0.00000544    0.01937590
     atom    4 type  1   force =    -0.00000710    0.00000148    0.01939597
     atom    5 type  1   force =    -0.00004180    0.00002497   -0.01661120
     atom    6 type  1   force =     0.00004063   -0.00000444   -0.01657491
     atom    7 type  1   force =    -0.00002568    0.00001312   -0.01661697
     atom    8 type  1   force =     0.00002326   -0.00003507   -0.01662013
     atom    9 type  1   force =    -0.00000140   -0.00000479   -0.00273590
     atom   10 type  1   force =     0.00000470   -0.00000292   -0.00278695
     atom   11 type  1   force =     0.00000072    0.00000541   -0.00277630
     atom   12 type  1   force =    -0.00000065    0.00000077   -0.00282585

     Total force =     0.051356     Total SCF correction =     0.006423
     SCF correction compared to forces is large: reduce conv_thr to get better values

     Writing output data file ./Hf750/Hf750_beef.save/

     General routines

     Parallel routines

   This run was terminated on:   3:30:58  21Jun2022

   JOB DONE.