     Program PWSCF v.6.6 starts on 21Jun2022 at  3:31: 2

     R & G space division:  proc/nbgrp/npool/nimage =      37
     Fft bands division:     nmany     =       1
     Reading input from Hg-750.in
Warning: card &CELL ignored
Warning: card / ignored

     Current dimensions of program PWSCF are:
     Max number of different atomic species (ntypx) = 10
     Max number of k-points (npk) =  40000
     Max angular momentum in pseudopotentials (lmaxx) =  3
     Presently stress not available with electric field and gates

     Message from routine cell_base_init:
     DEPRECATED: use true lattice parameter, not A to a.u. conversion factor
     file Hg.pbe-n-rrkjus_psl.1.0.0.UPF: wavefunction(s)  6S renormalized

     IMPORTANT: XC functional enforced from input :
     Exchange-correlation= BEEF-VDW
                           (   1   4  43  14   2   0   0)
     Any further DFT definition will be discarded
     Please, verify this is what you really want

     Subspace diagonalization in iterative solution of the eigenvalue problem:
     a serial algorithm will be used

     Found symmetry operation: I + ( -0.5000  0.0000  0.0000)
     This is a supercell, fractional translations are disabled

     bravais-lattice index     =            0
     lattice parameter (alat)  =       1.8897  a.u.
     unit-cell volume          =    6117.3306 (a.u.)^3
     number of atoms/cell      =           12
     number of atomic types    =            1
     number of electrons       =       144.00
     number of Kohn-Sham states=           86
     kinetic-energy cutoff     =      55.1240  Ry
     charge density cutoff     =     551.2396  Ry
     convergence threshold     =      1.0E-05
     mixing beta               =       0.1000
     number of iterations used =           10  plain     mixing
     Exchange-correlation= BEEF-VDW
                           (   1   4  43  14   2   0   0)

     celldm(1)=   1.889726  celldm(2)=   0.000000  celldm(3)=   0.000000
     celldm(4)=   0.000000  celldm(5)=   0.000000  celldm(6)=   0.000000

     crystal axes: (cart. coord. in units of alat)
               a(1) = (   6.437717   0.000000   0.000000 )
               a(2) = (   3.218859   5.575227   0.000000 )
               a(3) = (   0.000000   0.000000  25.256374 )

     reciprocal axes: (cart. coord. in units 2 pi/alat)
               b(1) = (  0.155335 -0.089682  0.000000 )
               b(2) = (  0.000000  0.179365  0.000000 )
               b(3) = (  0.000000  0.000000  0.039594 )

     PseudoPot. # 1 for Hg read from file:
     ../pseudo/Hg.pbe-n-rrkjus_psl.1.0.0.UPF
     MD5 check sum: 7519ac2e5b9cac440d3cfd4127d6ea3c
     Pseudo is Ultrasoft + core correction, Zval = 12.0
     Generated using "atomic" code by A. Dal Corso v.6.3
     Using radial grid of 1279 points,  6 beta functions with:
                l(1) =   0
                l(2) =   0
                l(3) =   1
                l(4) =   1
                l(5) =   2
                l(6) =   2
     Q(r) pseudized with 0 coefficients

     atomic species   valence    mass     pseudopotential
        Hg            12.00   200.59200     Hg( 1.00)

     No symmetry found

   Cartesian axes

     site n.     atom                  positions (alat units)
         1           Hg  tau(   1) = (   1.6094293   0.9292045  10.0000000  )
         2           Hg  tau(   2) = (   4.8282880   0.9292045  10.0000000  )
         3           Hg  tau(   3) = (   3.2188587   3.7168178  10.0000000  )
         4           Hg  tau(   4) = (   6.4377173   3.7168178  10.0000000  )
         5           Hg  tau(   5) = (   6.4377173   1.8584089  12.6281871  )
         6           Hg  tau(   6) = (   3.2188587   1.8584089  12.6281871  )
         7           Hg  tau(   7) = (   8.0471466   4.6460223  12.6281871  )
         8           Hg  tau(   8) = (   4.8282880   4.6460223  12.6281871  )
         9           Hg  tau(   9) = (   0.0000304   0.0000510  15.7618386  )
        10           Hg  tau(  10) = (   3.2188928   0.0000393  15.7620546  )
        11           Hg  tau(  11) = (   1.6094803   2.7876797  15.7619513  )
        12           Hg  tau(  12) = (   4.8283885   2.7876615  15.7621275  )

     number of k points=    74  Fermi-Dirac smearing, width (Ry)=  0.0100
                       cart. coord. in units 2pi/alat
        k(    1) = (   0.0000000   0.0000000   0.0000000), wk =   0.0138889
        k(    2) = (   0.0000000   0.0149471   0.0000000), wk =   0.0277778
        k(    3) = (   0.0000000   0.0298941   0.0000000), wk =   0.0277778
        k(    4) = (   0.0000000   0.0448412   0.0000000), wk =   0.0277778
        k(    5) = (   0.0000000   0.0597883   0.0000000), wk =   0.0277778
        k(    6) = (   0.0000000   0.0747354   0.0000000), wk =   0.0277778
        k(    7) = (   0.0000000  -0.0896824   0.0000000), wk =   0.0138889
        k(    8) = (   0.0129445  -0.0074735   0.0000000), wk =   0.0277778
        k(    9) = (   0.0129445   0.0074735   0.0000000), wk =   0.0277778
        k(   10) = (   0.0129445   0.0224206   0.0000000), wk =   0.0277778
        k(   11) = (   0.0129445   0.0373677   0.0000000), wk =   0.0277778
        k(   12) = (   0.0129445   0.0523148   0.0000000), wk =   0.0277778
        k(   13) = (   0.0129445   0.0672618   0.0000000), wk =   0.0277778
        k(   14) = (   0.0129445  -0.0971560   0.0000000), wk =   0.0277778
        k(   15) = (   0.0129445  -0.0822089   0.0000000), wk =   0.0277778
        k(   16) = (   0.0129445  -0.0672618   0.0000000), wk =   0.0277778
        k(   17) = (   0.0129445  -0.0523148   0.0000000), wk =   0.0277778
        k(   18) = (   0.0129445  -0.0373677   0.0000000), wk =   0.0277778
        k(   19) = (   0.0129445  -0.0224206   0.0000000), wk =   0.0277778
        k(   20) = (   0.0258891  -0.0149471   0.0000000), wk =   0.0277778
        k(   21) = (   0.0258891  -0.0000000   0.0000000), wk =   0.0277778
        k(   22) = (   0.0258891   0.0149471   0.0000000), wk =   0.0277778
        k(   23) = (   0.0258891   0.0298941   0.0000000), wk =   0.0277778
        k(   24) = (   0.0258891   0.0448412   0.0000000), wk =   0.0277778
        k(   25) = (   0.0258891   0.0597883   0.0000000), wk =   0.0277778
        k(   26) = (   0.0258891  -0.1046295   0.0000000), wk =   0.0277778
        k(   27) = (   0.0258891  -0.0896824   0.0000000), wk =   0.0277778
        k(   28) = (   0.0258891  -0.0747354   0.0000000), wk =   0.0277778
        k(   29) = (   0.0258891  -0.0597883   0.0000000), wk =   0.0277778
        k(   30) = (   0.0258891  -0.0448412   0.0000000), wk =   0.0277778
        k(   31) = (   0.0258891  -0.0298942   0.0000000), wk =   0.0277778
        k(   32) = (   0.0388336  -0.0224206   0.0000000), wk =   0.0277778
        k(   33) = (   0.0388336  -0.0074735   0.0000000), wk =   0.0277778
        k(   34) = (   0.0388336   0.0074735   0.0000000), wk =   0.0277778
        k(   35) = (   0.0388336   0.0224206   0.0000000), wk =   0.0277778
        k(   36) = (   0.0388336   0.0373677   0.0000000), wk =   0.0277778
        k(   37) = (   0.0388336   0.0523148   0.0000000), wk =   0.0277778
        k(   38) = (   0.0388336  -0.1121031   0.0000000), wk =   0.0277778
        k(   39) = (   0.0388336  -0.0971560   0.0000000), wk =   0.0277778
        k(   40) = (   0.0388336  -0.0822089   0.0000000), wk =   0.0277778
        k(   41) = (   0.0388336  -0.0672618   0.0000000), wk =   0.0277778
        k(   42) = (   0.0388336  -0.0523148   0.0000000), wk =   0.0277778
        k(   43) = (   0.0388336  -0.0373677   0.0000000), wk =   0.0277778
        k(   44) = (   0.0517782  -0.0298942   0.0000000), wk =   0.0277778
        k(   45) = (   0.0517782  -0.0149471   0.0000000), wk =   0.0277778
        k(   46) = (   0.0517782  -0.0000000   0.0000000), wk =   0.0277778
        k(   47) = (   0.0517782   0.0149471   0.0000000), wk =   0.0277778
        k(   48) = (   0.0517782   0.0298941   0.0000000), wk =   0.0277778
        k(   49) = (   0.0517782   0.0448412   0.0000000), wk =   0.0277778
        k(   50) = (   0.0517782  -0.1195766   0.0000000), wk =   0.0277778
        k(   51) = (   0.0517782  -0.1046295   0.0000000), wk =   0.0277778
        k(   52) = (   0.0517782  -0.0896825   0.0000000), wk =   0.0277778
        k(   53) = (   0.0517782  -0.0747354   0.0000000), wk =   0.0277778
        k(   54) = (   0.0517782  -0.0597883   0.0000000), wk =   0.0277778
        k(   55) = (   0.0517782  -0.0448412   0.0000000), wk =   0.0277778
        k(   56) = (   0.0647227  -0.0373677   0.0000000), wk =   0.0277778
        k(   57) = (   0.0647227  -0.0224206   0.0000000), wk =   0.0277778
        k(   58) = (   0.0647227  -0.0074735   0.0000000), wk =   0.0277778
        k(   59) = (   0.0647227   0.0074735   0.0000000), wk =   0.0277778
        k(   60) = (   0.0647227   0.0224206   0.0000000), wk =   0.0277778
        k(   61) = (   0.0647227   0.0373677   0.0000000), wk =   0.0277778
        k(   62) = (   0.0647227  -0.1270501   0.0000000), wk =   0.0277778
        k(   63) = (   0.0647227  -0.1121031   0.0000000), wk =   0.0277778
        k(   64) = (   0.0647227  -0.0971560   0.0000000), wk =   0.0277778
        k(   65) = (   0.0647227  -0.0822089   0.0000000), wk =   0.0277778
        k(   66) = (   0.0647227  -0.0672618   0.0000000), wk =   0.0277778
        k(   67) = (   0.0647227  -0.0523148   0.0000000), wk =   0.0277778
        k(   68) = (  -0.0776673   0.0448412   0.0000000), wk =   0.0138889
        k(   69) = (  -0.0776673   0.0597883   0.0000000), wk =   0.0277778
        k(   70) = (  -0.0776673   0.0747354   0.0000000), wk =   0.0277778
        k(   71) = (  -0.0776673   0.0896825   0.0000000), wk =   0.0277778
        k(   72) = (  -0.0776673   0.1046295   0.0000000), wk =   0.0277778
        k(   73) = (  -0.0776673   0.1195766   0.0000000), wk =   0.0277778
        k(   74) = (  -0.0776673  -0.0448412   0.0000000), wk =   0.0138889

     Initial potential from superposition of free atoms

     starting charge  143.99901, renormalised to  144.00000

     negative rho (up, down):  1.845E-03 0.000E+00

     %%%%%%%%%%%%%%%%%%%%%%%%%%%%%%%%%%%%%%%%%%%%%%%%%%%%%%%%%%%%%%%%%%%%%%%%
     %                                                                      %
     % You are using vdW-DF, which was implemented by the Thonhauser group. %
     % Please cite the following two papers that made this development      %
     % possible and the two reviews that describe the various versions:     %
     %                                                                      %
     %   T. Thonhauser et al., PRL 115, 136402 (2015).                      %
     %   T. Thonhauser et al., PRB 76, 125112 (2007).                       %
     %   K. Berland et al., Rep. Prog. Phys. 78, 066501 (2015).             %
     %   D.C. Langreth et al., J. Phys.: Condens. Matter 21, 084203 (2009). %
     %                                                                      %
     %                                                                      %
     % If you are calculating the stress with vdW-DF, please also cite:     %
     %                                                                      %
     %   R. Sabatini et al., J. Phys.: Condens. Matter 24, 424209 (2012).   %
     %                                                                      %
     %%%%%%%%%%%%%%%%%%%%%%%%%%%%%%%%%%%%%%%%%%%%%%%%%%%%%%%%%%%%%%%%%%%%%%%%

     Adding external electric field

     Computed dipole along edir(3) :
        Dipole                0.0000 Ry au,          0.0000 Debye
        Dipole field          0.0000 Ry au,

        Potential amp.       -0.0000 Ry
        Total length         46.5344 bohr

     Starting wfcs are  108 randomized atomic wfcs

     Self-consistent Calculation

     iteration #  1     ecut=    55.12 Ry     beta= 0.10
     Davidson diagonalization with overlap
     ethr =  1.00E-02,  avg # of iterations =  3.3

     Threshold (ethr) on eigenvalues was too large:
     Diagonalizing with lowered threshold

     Davidson diagonalization with overlap
     c_bands:  1 eigenvalues not converged
     c_bands:  1 eigenvalues not converged
     c_bands:  2 eigenvalues not converged
     c_bands:  1 eigenvalues not converged
     c_bands:  2 eigenvalues not converged
     c_bands:  1 eigenvalues not converged
     c_bands:  1 eigenvalues not converged
     c_bands:  1 eigenvalues not converged
     c_bands:  1 eigenvalues not converged
     c_bands:  2 eigenvalues not converged
     c_bands:  2 eigenvalues not converged
     c_bands:  1 eigenvalues not converged
     c_bands:  1 eigenvalues not converged
     c_bands:  1 eigenvalues not converged
     c_bands:  2 eigenvalues not converged
     c_bands:  1 eigenvalues not converged
     c_bands:  2 eigenvalues not converged
     c_bands:  1 eigenvalues not converged
     c_bands:  1 eigenvalues not converged
     c_bands:  1 eigenvalues not converged
     c_bands:  1 eigenvalues not converged
     c_bands:  1 eigenvalues not converged
     c_bands:  1 eigenvalues not converged
     c_bands:  1 eigenvalues not converged
     c_bands:  2 eigenvalues not converged
     c_bands:  1 eigenvalues not converged
     c_bands:  1 eigenvalues not converged
     c_bands:  2 eigenvalues not converged
     c_bands:  1 eigenvalues not converged
     c_bands:  1 eigenvalues not converged
     c_bands:  1 eigenvalues not converged
     c_bands:  1 eigenvalues not converged
     c_bands:  1 eigenvalues not converged
     c_bands:  2 eigenvalues not converged
     c_bands:  1 eigenvalues not converged
     c_bands:  1 eigenvalues not converged
     c_bands:  1 eigenvalues not converged
     c_bands:  1 eigenvalues not converged
     c_bands:  1 eigenvalues not converged
     c_bands:  1 eigenvalues not converged
     c_bands:  1 eigenvalues not converged
     c_bands:  1 eigenvalues not converged
     c_bands:  1 eigenvalues not converged
     c_bands:  2 eigenvalues not converged
     c_bands:  1 eigenvalues not converged
     c_bands:  1 eigenvalues not converged
     c_bands:  1 eigenvalues not converged
     c_bands:  1 eigenvalues not converged
     c_bands:  2 eigenvalues not converged
     c_bands:  1 eigenvalues not converged
     c_bands:  1 eigenvalues not converged
     c_bands:  1 eigenvalues not converged
     c_bands:  1 eigenvalues not converged
     c_bands:  1 eigenvalues not converged
     c_bands:  2 eigenvalues not converged
     c_bands:  2 eigenvalues not converged
     c_bands:  2 eigenvalues not converged
     c_bands:  1 eigenvalues not converged
     c_bands:  2 eigenvalues not converged
     c_bands:  2 eigenvalues not converged
     ethr =  1.44E-05,  avg # of iterations = 19.5

[...]

     total energy              =   -1213.43290212 Ry
     estimated scf accuracy    <       0.02266758 Ry

     iteration #  2     ecut=    55.12 Ry     beta= 0.10
     Davidson diagonalization with overlap
     c_bands:  1 eigenvalues not converged
     ethr =  1.57E-05,  avg # of iterations =  7.0

[...]

     iteration #  6     ecut=    55.12 Ry     beta= 0.10
     Davidson diagonalization with overlap
     c_bands:  1 eigenvalues not converged
     ethr =  7.06E-07,  avg # of iterations =  6.6

[...]

     total energy              =   -1213.43235660 Ry
     estimated scf accuracy    <       0.00008599 Ry

     iteration # 11     ecut=    55.12 Ry     beta= 0.10
     Davidson diagonalization with overlap
     ethr =  8.16E-09,  avg # of iterations =  5.1

[...]

     Adding external electric field

     Computed dipole along edir(3) :
        Dipole                0.0340 Ry au,          0.0863 Debye
        Dipole field          0.0001 Ry au,

        Potential amp.       -0.0065 Ry
        Total length         46.5344 bohr

     End of self-consistent calculation

          k = 0.0000 0.0000 0.0000 ( 42287 PWs)   bands (ev):

    -7.5148  -7.2197  -7.1584  -7.1584  -7.1584  -7.0433  -7.0433  -7.0433
    -6.9189  -6.9168  -6.9168  -6.9168  -6.7907  -6.7906  -6.7906  -6.4926
    -6.4926  -6.4926  -6.4225  -6.3923  -6.3923  -6.3145  -6.3145  -6.2785
    -6.2785  -6.2785  -6.1806  -6.1806  -6.1806  -6.0967  -6.0967  -5.8273
    -5.8273  -5.6987  -5.6987  -5.6986  -5.6664  -5.6664  -5.6663  -5.6286
    -5.6286  -5.6286  -5.5325  -5.5325  -5.5262  -5.5262  -5.5262  -5.4436
    -5.4436  -5.4131  -5.4130  -5.4130  -5.3448  -5.3160  -5.3160  -5.3159
    -5.2320  -5.2320  -5.2320  -5.0617  -5.0617  -5.0617  -3.4801  -1.1670
    -1.1670  -1.1670  -0.8946  -0.8946  -0.8945   0.0035   0.0035   0.0035
     0.1095   0.4984   0.4984   0.4984   1.6954   1.6955   1.6955   1.9208
     1.9208   1.9209   2.5254   4.1209   4.5090   5.2961

[...]

          k = 0.0647-0.0523 0.0000 ( 42287 PWs)   bands (ev):

[...]

          k =-0.0777 0.0448 0.0000 ( 42282 PWs)   bands (ev):

[...]

          k =-0.0777-0.0448 0.0000 ( 42282 PWs)   bands (ev):

    -6.9370  -6.9370  -6.8095  -6.8095  -6.7586  -6.7585  -6.7070  -6.7070
    -6.6327  -6.6327  -6.5856  -6.5855  -6.5521  -6.5521  -6.3981  -6.3980
    -6.3628  -6.3628  -6.2773  -6.2773  -6.2307  -6.2307  -6.1378  -6.1378
    -6.1225  -6.1225  -6.1024  -6.1024  -6.0932  -6.0932  -5.9687  -5.9687
    -5.9539  -5.9539  -5.8996  -5.8996  -5.8916  -5.8916  -5.8589  -5.8589
    -5.8296  -5.8296  -5.7745  -5.7745  -5.7453  -5.7453  -5.7340  -5.7340
    -5.6156  -5.6156  -5.6110  -5.6109  -5.5696  -5.5696  -5.4695  -5.4695
    -5.4242  -5.4242  -5.3976  -5.3976  -5.3234  -5.3234  -4.1904  -4.1904
    -2.4715  -2.4715  -2.4473  -2.4473  -1.3326  -1.3326  -0.0714  -0.0714
     1.8384   1.8384   3.0475   3.0476   3.5650   3.5650   3.7514   3.7514
     4.3220   4.3220   4.4084   4.4085   5.2932   5.2932

     the Fermi energy is     0.4615 ev

!    total energy              =   -1213.43237761 Ry
     estimated scf accuracy    <       0.00000173 Ry
     smearing contrib. (-TS)   =      -0.01626939 Ry
     internal energy E=F+TS    =   -1213.41610822 Ry

     The total energy is F=E-TS. E is the sum of the following terms:
     one-electron contribution =   -7419.71327258 Ry
     hartree contribution      =    3796.21801977 Ry
     xc contribution           =    -401.52913275 Ry
     ewald contribution        =    2811.60827497 Ry
     electric field correction =       0.00000237 Ry

     convergence has been achieved in  11 iterations

     negative rho (up, down):  1.676E-03 0.000E+00

     Forces acting on atoms (cartesian axes, Ry/au):

     atom    1 type  1   force =    -0.00000190    0.00000498   -0.02195260
     atom    2 type  1   force =     0.00000179   -0.00000848   -0.02195338
     atom    3 type  1   force =    -0.00000504    0.00000208   -0.02196456
     atom    4 type  1   force =    -0.00000048    0.00000210   -0.02195311
     atom    5 type  1   force =    -0.00000557    0.00000029    0.01962167
     atom    6 type  1   force =    -0.00000027   -0.00001121    0.01962707
     atom    7 type  1   force =    -0.00000301   -0.00000823    0.01963619
     atom    8 type  1   force =     0.00000925    0.00000215    0.01962658
     atom    9 type  1   force =     0.00000384    0.00001373    0.00232545
     atom   10 type  1   force =     0.00000225    0.00000625    0.00232565
     atom   11 type  1   force =     0.00000310   -0.00000051    0.00233130
     atom   12 type  1   force =    -0.00000397   -0.00000315    0.00232974

     Total force =     0.059084     Total SCF correction =     0.003241

     Writing output data file ./Hg750/Hg750_beef.save/

     General routines

     Parallel routines

   This run was terminated on:   5:43: 2  21Jun2022

   JOB DONE.