     Program PWSCF v.6.6 starts on 21Jun2022 at 14:35:44

     R & G space division:  proc/nbgrp/npool/nimage =      37
     Fft bands division:     nmany     =       1
     Reading input from Mo-750.in
Warning: card &CELL ignored
Warning: card / ignored

     Current dimensions of program PWSCF are:
     Max number of different atomic species (ntypx) = 10
     Max number of k-points (npk) =  40000
     Max angular momentum in pseudopotentials (lmaxx) =  3
     Presently stress not available with electric field and gates

     Message from routine cell_base_init:
     DEPRECATED: use true lattice parameter, not A to a.u. conversion factor
     file Mo.pbe-spn-rrkjus_psl.1.0.0.UPF: wavefunction(s)  4S renormalized

     IMPORTANT: XC functional enforced from input :
     Exchange-correlation= BEEF-VDW
                           (   1   4  43  14   2   0   0)
     Any further DFT definition will be discarded
     Please, verify this is what you really want

     Subspace diagonalization in iterative solution of the eigenvalue problem:
     a serial algorithm will be used

     Found symmetry operation: I + ( -0.5000  0.0000  0.0000)
     This is a supercell, fractional translations are disabled

     bravais-lattice index     =            0
     lattice parameter (alat)  =       1.8897  a.u.
     unit-cell volume          =    4552.2833 (a.u.)^3
     number of atoms/cell      =           12
     number of atomic types    =            1
     number of electrons       =       168.00
     number of Kohn-Sham states=          101
     kinetic-energy cutoff     =      55.1240  Ry
     charge density cutoff     =     551.2396  Ry
     convergence threshold     =      1.0E-05
     mixing beta               =       0.1000
     number of iterations used =           10  plain     mixing
     Exchange-correlation= BEEF-VDW
                           (   1   4  43  14   2   0   0)

     celldm(1)=   1.889726  celldm(2)=   0.000000  celldm(3)=   0.000000
     celldm(4)=   0.000000  celldm(5)=   0.000000  celldm(6)=   0.000000

     crystal axes: (cart. coord. in units of alat)
               a(1) = (   5.627661   0.000000   0.000000 )
               a(2) = (   2.813831   4.873698   0.000000 )
               a(3) = (   0.000000   0.000000  24.594966 )

     reciprocal axes: (cart. coord. in units 2 pi/alat)
               b(1) = (  0.177694 -0.102592  0.000000 )
               b(2) = (  0.000000  0.205183  0.000000 )
               b(3) = (  0.000000  0.000000  0.040659 )

     PseudoPot. # 1 for Mo read from file:
     ../pseudo/Mo.pbe-spn-rrkjus_psl.1.0.0.UPF
     MD5 check sum: 03f09b12e49601d1a456a78ce8b2d514
     Pseudo is Ultrasoft + core correction, Zval = 14.0
     Generated using "atomic" code by A. Dal Corso v.6.3
     Using radial grid of 1229 points,  6 beta functions with:
                l(1) =   0
                l(2) =   0
                l(3) =   1
                l(4) =   1
                l(5) =   2
                l(6) =   2
     Q(r) pseudized with 0 coefficients

     atomic species   valence    mass     pseudopotential
        Mo            14.00    95.95000     Mo( 1.00)

     No symmetry found

   Cartesian axes

     site n.     atom                  positions (alat units)
         1           Mo  tau(   1) = (   1.4069153   0.8122829  10.0000000  )
         2           Mo  tau(   2) = (   4.2207459   0.8122829  10.0000000  )
         3           Mo  tau(   3) = (   2.8138306   3.2491317  10.0000000  )
         4           Mo  tau(   4) = (   5.6276612   3.2491317  10.0000000  )
         5           Mo  tau(   5) = (   5.6276612   1.6245658  12.2974831  )
         6           Mo  tau(   6) = (   2.8138306   1.6245658  12.2974831  )
         7           Mo  tau(   7) = (   7.0345765   4.0614146  12.2974831  )
         8           Mo  tau(   8) = (   4.2207459   4.0614146  12.2974831  )
         9           Mo  tau(   9) = (   0.0000066   0.0000087  14.6056570  )
        10           Mo  tau(  10) = (   2.8138264   0.0000088  14.6056447  )
        11           Mo  tau(  11) = (   1.4069145   2.4368404  14.6056281  )
        12           Mo  tau(  12) = (   4.2207464   2.4368429  14.6056164  )

     number of k points=    74  Fermi-Dirac smearing, width (Ry)=  0.0100
                       cart. coord. in units 2pi/alat
        k(    1) = (   0.0000000   0.0000000   0.0000000), wk =   0.0138889
        k(    2) = (   0.0000000   0.0170986   0.0000000), wk =   0.0277778
        k(    3) = (   0.0000000   0.0341972   0.0000000), wk =   0.0277778
        k(    4) = (   0.0000000   0.0512958   0.0000000), wk =   0.0277778
        k(    5) = (   0.0000000   0.0683943   0.0000000), wk =   0.0277778
        k(    6) = (   0.0000000   0.0854929   0.0000000), wk =   0.0277778
        k(    7) = (   0.0000000  -0.1025915   0.0000000), wk =   0.0138889
        k(    8) = (   0.0148078  -0.0085493   0.0000000), wk =   0.0277778
        k(    9) = (   0.0148078   0.0085493   0.0000000), wk =   0.0277778
        k(   10) = (   0.0148078   0.0256479   0.0000000), wk =   0.0277778
        k(   11) = (   0.0148078   0.0427465   0.0000000), wk =   0.0277778
        k(   12) = (   0.0148078   0.0598450   0.0000000), wk =   0.0277778
        k(   13) = (   0.0148078   0.0769436   0.0000000), wk =   0.0277778
        k(   14) = (   0.0148078  -0.1111408   0.0000000), wk =   0.0277778
        k(   15) = (   0.0148078  -0.0940422   0.0000000), wk =   0.0277778
        k(   16) = (   0.0148078  -0.0769436   0.0000000), wk =   0.0277778
        k(   17) = (   0.0148078  -0.0598450   0.0000000), wk =   0.0277778
        k(   18) = (   0.0148078  -0.0427465   0.0000000), wk =   0.0277778
        k(   19) = (   0.0148078  -0.0256479   0.0000000), wk =   0.0277778
        k(   20) = (   0.0296156  -0.0170986   0.0000000), wk =   0.0277778
        k(   21) = (   0.0296156  -0.0000000   0.0000000), wk =   0.0277778
        k(   22) = (   0.0296156   0.0170986   0.0000000), wk =   0.0277778
        k(   23) = (   0.0296156   0.0341972   0.0000000), wk =   0.0277778
        k(   24) = (   0.0296156   0.0512957   0.0000000), wk =   0.0277778
        k(   25) = (   0.0296156   0.0683943   0.0000000), wk =   0.0277778
        k(   26) = (   0.0296156  -0.1196901   0.0000000), wk =   0.0277778
        k(   27) = (   0.0296156  -0.1025915   0.0000000), wk =   0.0277778
        k(   28) = (   0.0296156  -0.0854929   0.0000000), wk =   0.0277778
        k(   29) = (   0.0296156  -0.0683943   0.0000000), wk =   0.0277778
        k(   30) = (   0.0296156  -0.0512958   0.0000000), wk =   0.0277778
        k(   31) = (   0.0296156  -0.0341972   0.0000000), wk =   0.0277778
        k(   32) = (   0.0444234  -0.0256479   0.0000000), wk =   0.0277778
        k(   33) = (   0.0444234  -0.0085493   0.0000000), wk =   0.0277778
        k(   34) = (   0.0444234   0.0085493   0.0000000), wk =   0.0277778
        k(   35) = (   0.0444234   0.0256479   0.0000000), wk =   0.0277778
        k(   36) = (   0.0444234   0.0427465   0.0000000), wk =   0.0277778
        k(   37) = (   0.0444234   0.0598450   0.0000000), wk =   0.0277778
        k(   38) = (   0.0444234  -0.1282394   0.0000000), wk =   0.0277778
        k(   39) = (   0.0444234  -0.1111408   0.0000000), wk =   0.0277778
        k(   40) = (   0.0444234  -0.0940422   0.0000000), wk =   0.0277778
        k(   41) = (   0.0444234  -0.0769436   0.0000000), wk =   0.0277778
        k(   42) = (   0.0444234  -0.0598450   0.0000000), wk =   0.0277778
        k(   43) = (   0.0444234  -0.0427465   0.0000000), wk =   0.0277778
        k(   44) = (   0.0592312  -0.0341972   0.0000000), wk =   0.0277778
        k(   45) = (   0.0592312  -0.0170986   0.0000000), wk =   0.0277778
        k(   46) = (   0.0592312  -0.0000000   0.0000000), wk =   0.0277778
        k(   47) = (   0.0592312   0.0170986   0.0000000), wk =   0.0277778
        k(   48) = (   0.0592312   0.0341972   0.0000000), wk =   0.0277778
        k(   49) = (   0.0592312   0.0512957   0.0000000), wk =   0.0277778
        k(   50) = (   0.0592312  -0.1367887   0.0000000), wk =   0.0277778
        k(   51) = (   0.0592312  -0.1196901   0.0000000), wk =   0.0277778
        k(   52) = (   0.0592312  -0.1025915   0.0000000), wk =   0.0277778
        k(   53) = (   0.0592312  -0.0854929   0.0000000), wk =   0.0277778
        k(   54) = (   0.0592312  -0.0683943   0.0000000), wk =   0.0277778
        k(   55) = (   0.0592312  -0.0512958   0.0000000), wk =   0.0277778
        k(   56) = (   0.0740390  -0.0427465   0.0000000), wk =   0.0277778
        k(   57) = (   0.0740390  -0.0256479   0.0000000), wk =   0.0277778
        k(   58) = (   0.0740390  -0.0085493   0.0000000), wk =   0.0277778
        k(   59) = (   0.0740390   0.0085493   0.0000000), wk =   0.0277778
        k(   60) = (   0.0740390   0.0256479   0.0000000), wk =   0.0277778
        k(   61) = (   0.0740390   0.0427465   0.0000000), wk =   0.0277778
        k(   62) = (   0.0740390  -0.1453380   0.0000000), wk =   0.0277778
        k(   63) = (   0.0740390  -0.1282394   0.0000000), wk =   0.0277778
        k(   64) = (   0.0740390  -0.1111408   0.0000000), wk =   0.0277778
        k(   65) = (   0.0740390  -0.0940422   0.0000000), wk =   0.0277778
        k(   66) = (   0.0740390  -0.0769436   0.0000000), wk =   0.0277778
        k(   67) = (   0.0740390  -0.0598451   0.0000000), wk =   0.0277778
        k(   68) = (  -0.0888469   0.0512958   0.0000000), wk =   0.0138889
        k(   69) = (  -0.0888469   0.0683943   0.0000000), wk =   0.0277778
        k(   70) = (  -0.0888469   0.0854929   0.0000000), wk =   0.0277778
        k(   71) = (  -0.0888469   0.1025915   0.0000000), wk =   0.0277778
        k(   72) = (  -0.0888469   0.1196901   0.0000000), wk =   0.0277778
        k(   73) = (  -0.0888469   0.1367887   0.0000000), wk =   0.0277778
        k(   74) = (  -0.0888469  -0.0512957   0.0000000), wk =   0.0138889

     Initial potential from superposition of free atoms

     starting charge  167.98943, renormalised to  168.00000

     negative rho (up, down):  5.935E-04 0.000E+00

     %%%%%%%%%%%%%%%%%%%%%%%%%%%%%%%%%%%%%%%%%%%%%%%%%%%%%%%%%%%%%%%%%%%%%%%%
     %                                                                      %
     % You are using vdW-DF, which was implemented by the Thonhauser group. %
     % Please cite the following two papers that made this development      %
     % possible and the two reviews that describe the various versions:     %
     %                                                                      %
     %   T. Thonhauser et al., PRL 115, 136402 (2015).                      %
     %   T. Thonhauser et al., PRB 76, 125112 (2007).                       %
     %   K. Berland et al., Rep. Prog. Phys. 78, 066501 (2015).             %
     %   D.C. Langreth et al., J. Phys.: Condens. Matter 21, 084203 (2009). %
     %                                                                      %
     %                                                                      %
     % If you are calculating the stress with vdW-DF, please also cite:     %
     %                                                                      %
     %   R. Sabatini et al., J. Phys.: Condens. Matter 24, 424209 (2012).   %
     %                                                                      %
     %%%%%%%%%%%%%%%%%%%%%%%%%%%%%%%%%%%%%%%%%%%%%%%%%%%%%%%%%%%%%%%%%%%%%%%%

     Adding external electric field

     Computed dipole along edir(3) :
        Dipole               -0.0000 Ry au,         -0.0000 Debye
        Dipole field         -0.0000 Ry au,

        Potential amp.        0.0000 Ry
        Total length         45.3158 bohr

     Starting wfcs are  120 randomized atomic wfcs

     Self-consistent Calculation

     iteration #  1     ecut=    55.12 Ry     beta= 0.10
     Davidson diagonalization with overlap
     ethr =  1.00E-02,  avg # of iterations =  2.7

[...]

     total energy              =   -1680.70030682 Ry
     estimated scf accuracy    <       7.16442481 Ry

[...]

     iteration #  9     ecut=    55.12 Ry     beta= 0.10
     Davidson diagonalization with overlap
     c_bands:  1 eigenvalues not converged
     ethr =  1.74E-06,  avg # of iterations = 10.2

[...]

     iteration # 11     ecut=    55.12 Ry     beta= 0.10
     Davidson diagonalization with overlap
     c_bands:  1 eigenvalues not converged
     ethr =  1.25E-07,  avg # of iterations =  5.4

[...]

     total energy              =   -1681.37630496 Ry
     estimated scf accuracy    <       0.00003042 Ry

     iteration # 16     ecut=    55.12 Ry     beta= 0.10
     Davidson diagonalization with overlap
     ethr =  1.06E-08,  avg # of iterations =  4.7

[...]

     Adding external electric field

     Computed dipole along edir(3) :
        Dipole               -0.0023 Ry au,         -0.0059 Debye
        Dipole field         -0.0000 Ry au,

        Potential amp.        0.0006 Ry
        Total length         45.3158 bohr

     End of self-consistent calculation

          k = 0.0000 0.0000 0.0000 ( 31549 PWs)   bands (ev):

   -58.7662 -58.6591 -58.5977 -58.5633 -58.5632 -58.5632 -58.5066 -58.5066
   -58.5065 -58.4911 -58.4911 -58.4911 -33.3089 -33.3089 -33.3088 -33.2218
   -33.1942 -33.1942 -33.1942 -33.1014 -33.1013 -33.1013 -32.7663 -32.6187
   -32.6187 -32.6187 -32.6118 -32.6118 -32.6118 -32.4871 -32.4871 -32.4871
   -32.3827 -32.3826 -32.3826 -32.3344 -32.3344 -32.3344 -32.2957 -32.2626
   -32.2625 -32.2625 -32.2113 -32.2113 -32.0991 -32.0991 -32.0656 -32.0656
    -3.6896  -2.3477  -2.2025  -2.2025  -2.2025  -2.1691  -1.7521  -1.7521
    -1.7521  -1.5407  -1.5407  -1.5407  -1.2780  -1.2780  -1.2780  -0.0952
    -0.0952  -0.0952   0.8761   0.8761   0.8762   0.9876   1.1748   1.5727
     1.5727   1.8558   1.8558   1.9590   1.9590   1.9590   2.0562   2.0562
     2.1796   2.2535   2.2535   2.2535   3.3439   3.3439   3.3439   3.3471
     3.5792   3.5792   3.5793   4.0931   4.0931   4.5065   4.5065   4.8773
     4.8773   4.8774   4.9436   4.9437   5.4468

[...]

          k = 0.0740-0.0598 0.0000 ( 31406 PWs)   bands (ev):

[...]

          k =-0.0888 0.0513 0.0000 ( 31434 PWs)   bands (ev):

[...]

          k =-0.0888-0.0513 0.0000 ( 31434 PWs)   bands (ev):

   -58.6707 -58.6706 -58.5828 -58.5828 -58.5637 -58.5636 -58.5401 -58.5401
   -58.5065 -58.5064 -58.4905 -58.4904 -33.1133 -33.1132 -33.0709 -33.0709
   -33.0522 -33.0522 -32.9118 -32.9117 -32.8801 -32.8800 -32.8135 -32.8135
   -32.6376 -32.6375 -32.6154 -32.6154 -32.5638 -32.5637 -32.5524 -32.5524
   -32.5241 -32.5241 -32.4904 -32.4903 -32.4843 -32.4843 -32.3531 -32.3530
   -32.3322 -32.3321 -32.2839 -32.2838 -32.2179 -32.2179 -32.1628 -32.1628
    -2.0800  -2.0800  -1.2906  -1.2906  -1.1551  -1.1551  -0.9264  -0.9264
    -0.7738  -0.7737  -0.4049  -0.4048  -0.2811  -0.2811  -0.1161  -0.1161
     0.3732   0.3733   0.5395   0.5395   0.5586   0.5586   1.0332   1.0332
     1.3147   1.3147   1.4769   1.4769   1.4832   1.4832   1.6094   1.6095
     1.7385   1.7385   1.8008   1.8008   1.9890   1.9890   2.4296   2.4297
     2.9477   2.9478   3.1589   3.1589   3.1929   3.1930   3.6136   3.6136
     3.8628   3.8628   3.8834   3.8834   3.9875

     the Fermi energy is     2.2760 ev

!    total energy              =   -1681.37630864 Ry
     estimated scf accuracy    <       0.00000201 Ry
     smearing contrib. (-TS)   =      -0.08577648 Ry
     internal energy E=F+TS    =   -1681.29053216 Ry

     The total energy is F=E-TS. E is the sum of the following terms:
     one-electron contribution =  -15141.53471352 Ry
     hartree contribution      =    7564.84036118 Ry
     xc contribution           =    -241.48811188 Ry
     ewald contribution        =    6136.89193204 Ry
     electric field correction =       0.00000001 Ry

     convergence has been achieved in  16 iterations

     negative rho (up, down):  6.744E-04 0.000E+00

     Forces acting on atoms (cartesian axes, Ry/au):

     atom    1 type  1   force =     0.00000598    0.00000351   -0.00644037
     atom    2 type  1   force =    -0.00000502   -0.00000250   -0.00643460
     atom    3 type  1   force =    -0.00000483   -0.00000421   -0.00643151
     atom    4 type  1   force =     0.00000546    0.00000249   -0.00643644
     atom    5 type  1   force =     0.00000049    0.00000137    0.00282490
     atom    6 type  1   force =    -0.00000056   -0.00000051    0.00282082
     atom    7 type  1   force =    -0.00000159   -0.00000127    0.00283396
     atom    8 type  1   force =     0.00000100   -0.00000012    0.00282924
     atom    9 type  1   force =    -0.00001052   -0.00000974    0.00360544
     atom   10 type  1   force =     0.00001005   -0.00000800    0.00360243
     atom   11 type  1   force =     0.00000149    0.00001553    0.00360768
     atom   12 type  1   force =    -0.00000194    0.00000345    0.00361845

     Total force =     0.015803     Total SCF correction =     0.008028
     SCF correction compared to forces is large: reduce conv_thr to get better values

     Writing output data file ./Mo750/Mo750_beef.save/

     General routines

     Parallel routines

   This run was terminated on:  16:48:47  21Jun2022

   JOB DONE.