     Program PWSCF v.6.6 starts on 21Jun2022 at 18:59: 5

     R & G space division:  proc/nbgrp/npool/nimage =      37
     Fft bands division:     nmany     =       1
     Reading input from Os-750.in
Warning: card &CELL ignored
Warning: card / ignored

     Current dimensions of program PWSCF are:
     Max number of different atomic species (ntypx) = 10
     Max number of k-points (npk) =  40000
     Max angular momentum in pseudopotentials (lmaxx) =  3
     Presently stress not available with electric field and gates

     Message from routine cell_base_init:
     DEPRECATED: use true lattice parameter, not A to a.u. conversion factor

     IMPORTANT: XC functional enforced from input :
     Exchange-correlation= BEEF-VDW
                           (   1   4  43  14   2   0   0)
     Any further DFT definition will be discarded
     Please, verify this is what you really want

     Subspace diagonalization in iterative solution of the eigenvalue problem:
     a serial algorithm will be used

     bravais-lattice index     =            0
     lattice parameter (alat)  =       1.8897  a.u.
     unit-cell volume          =    4228.3691 (a.u.)^3
     number of atoms/cell      =           12
     number of atomic types    =            1
     number of electrons       =       192.00
     number of Kohn-Sham states=          115
     kinetic-energy cutoff     =      55.1240  Ry
     charge density cutoff     =     551.2396  Ry
     convergence threshold     =      1.0E-05
     mixing beta               =       0.1000
     number of iterations used =           10  plain     mixing
     Exchange-correlation= BEEF-VDW
                           (   1   4  43  14   2   0   0)

     celldm(1)=   1.889726  celldm(2)=   0.000000  celldm(3)=   0.000000
     celldm(4)=   0.000000  celldm(5)=   0.000000  celldm(6)=   0.000000

     crystal axes: (cart. coord. in units of alat)
               a(1) = (   5.440665   0.000000   0.000000 )
               a(2) = (   2.720332   4.711754   0.000000 )
               a(3) = (   0.000000   0.000000  24.442284 )

     reciprocal axes: (cart. coord. in units 2 pi/alat)
               b(1) = (  0.183801 -0.106118  0.000000 )
               b(2) = (  0.000000  0.212235  0.000000 )
               b(3) = (  0.000000  0.000000  0.040913 )

     PseudoPot. # 1 for Os read from file:
     ../pseudo/Os.pbe-spn-rrkjus_psl.1.0.0.UPF
     MD5 check sum: 3e7416ed594f6513d36e5cb31ba709d9
     Pseudo is Ultrasoft + core correction, Zval = 16.0
     Generated using "atomic" code by A. Dal Corso v.6.2.2
     Using radial grid of 1275 points,  6 beta functions with:
                l(1) =   0
                l(2) =   0
                l(3) =   1
                l(4) =   1
                l(5) =   2
                l(6) =   2
     Q(r) pseudized with 0 coefficients

     atomic species   valence    mass     pseudopotential
        Os            16.00   190.23000     Os( 1.00)

     No symmetry found

   Cartesian axes

     site n.     atom                  positions (alat units)
         1           Os  tau(   1) = (   1.3601662   0.7852923  10.0000000  )
         2           Os  tau(   2) = (   4.0804987   0.7852923  10.0000000  )
         3           Os  tau(   3) = (   2.7203325   3.1411694  10.0000000  )
         4           Os  tau(   4) = (   5.4406649   3.1411694  10.0000000  )
         5           Os  tau(   5) = (   5.4406649   1.5705847  12.2211422  )
         6           Os  tau(   6) = (   2.7203325   1.5705847  12.2211422  )
         7           Os  tau(   7) = (   6.8008312   3.9264617  12.2211422  )
         8           Os  tau(   8) = (   4.0804987   3.9264617  12.2211422  )
         9           Os  tau(   9) = (   5.4406640   0.0000555  14.3593712  )
        10           Os  tau(  10) = (   2.7203222   0.0000099  14.3594105  )
        11           Os  tau(  11) = (   6.8007940   2.3558376  14.3594075  )
        12           Os  tau(  12) = (   4.0805409   2.3558407  14.3594224  )

     number of k points=    74  Fermi-Dirac smearing, width (Ry)=  0.0100
                       cart. coord. in units 2pi/alat
        k(    1) = (   0.0000000   0.0000000   0.0000000), wk =   0.0138889
        k(    2) = (   0.0000000   0.0176863   0.0000000), wk =   0.0277778
        k(    3) = (   0.0000000   0.0353725   0.0000000), wk =   0.0277778
        k(    4) = (   0.0000000   0.0530588   0.0000000), wk =   0.0277778
        k(    5) = (   0.0000000   0.0707451   0.0000000), wk =   0.0277778
        k(    6) = (   0.0000000   0.0884313   0.0000000), wk =   0.0277778
        k(    7) = (   0.0000000  -0.1061176   0.0000000), wk =   0.0138889
        k(    8) = (   0.0153168  -0.0088431   0.0000000), wk =   0.0277778
        k(    9) = (   0.0153168   0.0088431   0.0000000), wk =   0.0277778
        k(   10) = (   0.0153168   0.0265294   0.0000000), wk =   0.0277778
        k(   11) = (   0.0153168   0.0442157   0.0000000), wk =   0.0277778
        k(   12) = (   0.0153168   0.0619019   0.0000000), wk =   0.0277778
        k(   13) = (   0.0153168   0.0795882   0.0000000), wk =   0.0277778
        k(   14) = (   0.0153168  -0.1149607   0.0000000), wk =   0.0277778
        k(   15) = (   0.0153168  -0.0972745   0.0000000), wk =   0.0277778
        k(   16) = (   0.0153168  -0.0795882   0.0000000), wk =   0.0277778
        k(   17) = (   0.0153168  -0.0619019   0.0000000), wk =   0.0277778
        k(   18) = (   0.0153168  -0.0442157   0.0000000), wk =   0.0277778
        k(   19) = (   0.0153168  -0.0265294   0.0000000), wk =   0.0277778
        k(   20) = (   0.0306335  -0.0176863   0.0000000), wk =   0.0277778
        k(   21) = (   0.0306335   0.0000000   0.0000000), wk =   0.0277778
        k(   22) = (   0.0306335   0.0176863   0.0000000), wk =   0.0277778
        k(   23) = (   0.0306335   0.0353725   0.0000000), wk =   0.0277778
        k(   24) = (   0.0306335   0.0530588   0.0000000), wk =   0.0277778
        k(   25) = (   0.0306335   0.0707451   0.0000000), wk =   0.0277778
        k(   26) = (   0.0306335  -0.1238039   0.0000000), wk =   0.0277778
        k(   27) = (   0.0306335  -0.1061176   0.0000000), wk =   0.0277778
        k(   28) = (   0.0306335  -0.0884313   0.0000000), wk =   0.0277778
        k(   29) = (   0.0306335  -0.0707451   0.0000000), wk =   0.0277778
        k(   30) = (   0.0306335  -0.0530588   0.0000000), wk =   0.0277778
        k(   31) = (   0.0306335  -0.0353725   0.0000000), wk =   0.0277778
        k(   32) = (   0.0459503  -0.0265294   0.0000000), wk =   0.0277778
        k(   33) = (   0.0459503  -0.0088431   0.0000000), wk =   0.0277778
        k(   34) = (   0.0459503   0.0088431   0.0000000), wk =   0.0277778
        k(   35) = (   0.0459503   0.0265294   0.0000000), wk =   0.0277778
        k(   36) = (   0.0459503   0.0442157   0.0000000), wk =   0.0277778
        k(   37) = (   0.0459503   0.0619019   0.0000000), wk =   0.0277778
        k(   38) = (   0.0459503  -0.1326470   0.0000000), wk =   0.0277778
        k(   39) = (   0.0459503  -0.1149607   0.0000000), wk =   0.0277778
        k(   40) = (   0.0459503  -0.0972745   0.0000000), wk =   0.0277778
        k(   41) = (   0.0459503  -0.0795882   0.0000000), wk =   0.0277778
        k(   42) = (   0.0459503  -0.0619019   0.0000000), wk =   0.0277778
        k(   43) = (   0.0459503  -0.0442157   0.0000000), wk =   0.0277778
        k(   44) = (   0.0612670  -0.0353725   0.0000000), wk =   0.0277778
        k(   45) = (   0.0612670  -0.0176863   0.0000000), wk =   0.0277778
        k(   46) = (   0.0612670   0.0000000   0.0000000), wk =   0.0277778
        k(   47) = (   0.0612670   0.0176863   0.0000000), wk =   0.0277778
        k(   48) = (   0.0612670   0.0353725   0.0000000), wk =   0.0277778
        k(   49) = (   0.0612670   0.0530588   0.0000000), wk =   0.0277778
        k(   50) = (   0.0612670  -0.1414901   0.0000000), wk =   0.0277778
        k(   51) = (   0.0612670  -0.1238039   0.0000000), wk =   0.0277778
        k(   52) = (   0.0612670  -0.1061176   0.0000000), wk =   0.0277778
        k(   53) = (   0.0612670  -0.0884313   0.0000000), wk =   0.0277778
        k(   54) = (   0.0612670  -0.0707451   0.0000000), wk =   0.0277778
        k(   55) = (   0.0612670  -0.0530588   0.0000000), wk =   0.0277778
        k(   56) = (   0.0765838  -0.0442157   0.0000000), wk =   0.0277778
        k(   57) = (   0.0765838  -0.0265294   0.0000000), wk =   0.0277778
        k(   58) = (   0.0765838  -0.0088431   0.0000000), wk =   0.0277778
        k(   59) = (   0.0765838   0.0088431   0.0000000), wk =   0.0277778
        k(   60) = (   0.0765838   0.0265294   0.0000000), wk =   0.0277778
        k(   61) = (   0.0765838   0.0442157   0.0000000), wk =   0.0277778
        k(   62) = (   0.0765838  -0.1503333   0.0000000), wk =   0.0277778
        k(   63) = (   0.0765838  -0.1326470   0.0000000), wk =   0.0277778
        k(   64) = (   0.0765838  -0.1149607   0.0000000), wk =   0.0277778
        k(   65) = (   0.0765838  -0.0972745   0.0000000), wk =   0.0277778
        k(   66) = (   0.0765838  -0.0795882   0.0000000), wk =   0.0277778
        k(   67) = (   0.0765838  -0.0619019   0.0000000), wk =   0.0277778
        k(   68) = (  -0.0919005   0.0530588   0.0000000), wk =   0.0138889
        k(   69) = (  -0.0919005   0.0707451   0.0000000), wk =   0.0277778
        k(   70) = (  -0.0919005   0.0884313   0.0000000), wk =   0.0277778
        k(   71) = (  -0.0919005   0.1061176   0.0000000), wk =   0.0277778
        k(   72) = (  -0.0919005   0.1238039   0.0000000), wk =   0.0277778
        k(   73) = (  -0.0919005   0.1414901   0.0000000), wk =   0.0277778
        k(   74) = (  -0.0919005  -0.0530588   0.0000000), wk =   0.0138889

     Initial potential from superposition of free atoms

     starting charge  191.99708, renormalised to  192.00000

     negative rho (up, down):  5.282E-04 0.000E+00

     %%%%%%%%%%%%%%%%%%%%%%%%%%%%%%%%%%%%%%%%%%%%%%%%%%%%%%%%%%%%%%%%%%%%%%%%
     %                                                                      %
     % You are using vdW-DF, which was implemented by the Thonhauser group. %
     % Please cite the following two papers that made this development      %
     % possible and the two reviews that describe the various versions:     %
     %                                                                      %
     %   T. Thonhauser et al., PRL 115, 136402 (2015).                      %
     %   T. Thonhauser et al., PRB 76, 125112 (2007).                       %
     %   K. Berland et al., Rep. Prog. Phys. 78, 066501 (2015).             %
     %   D.C. Langreth et al., J. Phys.: Condens. Matter 21, 084203 (2009). %
     %                                                                      %
     %                                                                      %
     % If you are calculating the stress with vdW-DF, please also cite:     %
     %                                                                      %
     %   R. Sabatini et al., J. Phys.: Condens. Matter 24, 424209 (2012).   %
     %                                                                      %
     %%%%%%%%%%%%%%%%%%%%%%%%%%%%%%%%%%%%%%%%%%%%%%%%%%%%%%%%%%%%%%%%%%%%%%%%

     Adding external electric field

     Computed dipole along edir(3) :
        Dipole                0.0000 Ry au,          0.0000 Debye
        Dipole field          0.0000 Ry au,

        Potential amp.       -0.0000 Ry
        Total length         45.0345 bohr

     Starting wfcs are  120 randomized atomic wfcs

     Self-consistent Calculation

     iteration #  1     ecut=    55.12 Ry     beta= 0.10
     Davidson diagonalization with overlap
     ethr =  1.00E-02,  avg # of iterations =  3.2

     Threshold (ethr) on eigenvalues was too large:
     Diagonalizing with lowered threshold

     Davidson diagonalization with overlap
     ethr =  4.31E-04,  avg # of iterations =  3.9

[...]

     total energy              =   -2407.35133697 Ry
     estimated scf accuracy    <       0.96233011 Ry

[...]

     total energy              =   -2407.34553816 Ry
     estimated scf accuracy    <       0.00001892 Ry

     iteration # 13     ecut=    55.12 Ry     beta= 0.10
     Davidson diagonalization with overlap
     ethr =  9.11E-09,  avg # of iterations =  3.3

[...]

     Adding external electric field

     Computed dipole along edir(3) :
        Dipole                0.0223 Ry au,          0.0566 Debye
        Dipole field          0.0001 Ry au,

        Potential amp.       -0.0060 Ry
        Total length         45.0345 bohr

     End of self-consistent calculation

          k = 0.0000 0.0000 0.0000 ( 29113 PWs)   bands (ev):

   -84.1685 -84.1060 -84.1060 -84.1060 -83.6565 -83.5986 -83.5986 -83.5985
   -83.5880 -83.5294 -83.5293 -83.5293 -43.8475 -43.8475 -43.8475 -43.6922
   -43.5618 -43.5618 -43.5618 -43.2391 -43.2390 -43.2390 -43.2371 -43.2371
   -43.2371 -43.0866 -43.0866 -43.0866 -43.0463 -43.0463 -42.9235 -42.8318
   -42.8318 -42.8318 -42.7309 -42.7309 -42.7309 -42.7161 -42.7031 -42.7031
   -42.7031 -42.6318 -42.6318 -42.6318 -42.5283 -42.5283 -42.4557 -42.4557
    -6.8182  -4.7245  -4.3649  -4.1015  -4.1015  -4.1015  -3.7450  -3.7450
    -3.7450  -3.1549  -3.1549  -3.1549  -2.7455  -2.7455  -2.7455  -1.2021
    -1.2021  -1.2021  -0.3089  -0.3088  -0.3088  -0.0947  -0.0459  -0.0459
     0.0862   0.4233   0.4234   0.4234   0.4864   0.4864   0.9390   0.9390
     0.9391   0.9487   0.9487   1.9993   2.5283   2.5284   2.5284   2.6517
     2.6517   2.6517   2.9264   2.9264   3.3497   3.6648   3.6648   4.2766
     4.2766   4.2766   4.3926   4.3926   4.3926   4.6823   4.6823   4.6823
     4.9153   4.9153   5.2675   5.2675   5.2675   5.8515   5.8515   5.8515
     5.9728   5.9728   5.9728

[...]

          k = 0.0766-0.0619 0.0000 ( 29248 PWs)   bands (ev):

[...]

          k =-0.0919 0.0531 0.0000 ( 29258 PWs)   bands (ev):

[...]

          k =-0.0919-0.0531 0.0000 ( 29258 PWs)   bands (ev):

   -84.1373 -84.1373 -84.1060 -84.1060 -83.6276 -83.6276 -83.5986 -83.5986
   -83.5587 -83.5587 -83.5294 -83.5294 -43.7031 -43.7030 -43.5958 -43.5957
   -43.5164 -43.5164 -43.4700 -43.4700 -43.4114 -43.4114 -43.1436 -43.1435
   -43.1039 -43.1039 -43.0015 -43.0015 -42.9029 -42.9028 -42.8576 -42.8576
   -42.8474 -42.8474 -42.8161 -42.8161 -42.8121 -42.8121 -42.7619 -42.7619
   -42.7315 -42.7315 -42.7137 -42.7137 -42.6162 -42.6162 -42.5445 -42.5445
    -4.8273  -4.8272  -3.2395  -3.2395  -2.8918  -2.8917  -2.7962  -2.7961
    -2.7262  -2.7261  -2.1470  -2.1469  -1.7127  -1.7126  -1.5754  -1.5753
    -1.2320  -1.2320  -1.1789  -1.1788  -0.6280  -0.6280  -0.0744  -0.0743
     0.2708   0.2708   0.2712   0.2712   0.3753   0.3753   0.5584   0.5584
     0.7145   0.7146   0.8189   0.8190   0.9072   0.9073   0.9144   0.9145
     1.8173   1.8174   2.0469   2.0469   2.2608   2.2608   2.5316   2.5316
     2.9119   2.9122   3.1092   3.1093   3.2284   3.2285   3.4900   3.4900
     3.7518   3.7518   4.4318   4.4318   5.0424   5.0424   5.3624   5.3625
     5.8676   5.8677   7.3667

     the Fermi energy is     2.9432 ev

!    total energy              =   -2407.34554390 Ry
     estimated scf accuracy    <       0.00000117 Ry
     smearing contrib. (-TS)   =      -0.05186779 Ry
     internal energy E=F+TS    =   -2407.29367611 Ry

     The total energy is F=E-TS. E is the sum of the following terms:
     one-electron contribution =  -21691.81553384 Ry
     hartree contribution      =   10828.18298326 Ry
     xc contribution           =    -471.92510559 Ry
     ewald contribution        =    8928.26397858 Ry
     electric field correction =       0.00000147 Ry

     convergence has been achieved in  13 iterations

     negative rho (up, down):  2.369E-04 0.000E+00

     Forces acting on atoms (cartesian axes, Ry/au):

     atom    1 type  1   force =     0.00000187   -0.00000217    0.02593058
     atom    2 type  1   force =    -0.00000238   -0.00000049    0.02592990
     atom    3 type  1   force =    -0.00000002   -0.00000078    0.02593197
     atom    4 type  1   force =     0.00000053    0.00000264    0.02592481
     atom    5 type  1   force =    -0.00000018    0.00000297   -0.02576561
     atom    6 type  1   force =     0.00000092    0.00000203   -0.02576709
     atom    7 type  1   force =    -0.00000210   -0.00000424   -0.02576801
     atom    8 type  1   force =     0.00000057   -0.00000192   -0.02576701
     atom    9 type  1   force =     0.00000115   -0.00002612   -0.00014523
     atom   10 type  1   force =     0.00000242   -0.00000617   -0.00016482
     atom   11 type  1   force =     0.00001672    0.00001852   -0.00016450
     atom   12 type  1   force =    -0.00001951    0.00001574   -0.00017501

     Total force =     0.073111     Total SCF correction =     0.006374

     Writing output data file ./Os750/Os750_beef.save/

     General routines

     Parallel routines

   This run was terminated on:  20:49:59  21Jun2022

   JOB DONE.