     Program PWSCF v.6.6 starts on 21Jun2022 at 20:50: 3

     R & G space division:  proc/nbgrp/npool/nimage =      37
     Fft bands division:     nmany     =       1
     Reading input from Pd-750.in
Warning: card &CELL ignored
Warning: card / ignored

     Current dimensions of program PWSCF are:
     Max number of different atomic species (ntypx) = 10
     Max number of k-points (npk) =  40000
     Max angular momentum in pseudopotentials (lmaxx) =  3
     Presently stress not available with electric field and gates

     Message from routine cell_base_init:
     DEPRECATED: use true lattice parameter, not A to a.u. conversion factor
     file Pd.pbe-n-rrkjus_psl.1.0.0.UPF: wavefunction(s)  4D renormalized

     IMPORTANT: XC functional enforced from input :
     Exchange-correlation= BEEF-VDW
                           (   1   4  43  14   2   0   0)
     Any further DFT definition will be discarded
     Please, verify this is what you really want

     Subspace diagonalization in iterative solution of the eigenvalue problem:
     a serial algorithm will be used

     Found symmetry operation: I + ( -0.5000  0.0000  0.0000)
     This is a supercell, fractional translations are disabled

     bravais-lattice index     =            0
     lattice parameter (alat)  =       1.8897  a.u.
     unit-cell volume          =    4569.9951 (a.u.)^3
     number of atoms/cell      =           12
     number of atomic types    =            1
     number of electrons       =       120.00
     number of Kohn-Sham states=           72
     kinetic-energy cutoff     =      55.1240  Ry
     charge density cutoff     =     551.2396  Ry
     convergence threshold     =      1.0E-05
     mixing beta               =       0.1000
     number of iterations used =           10  plain     mixing
     Exchange-correlation= BEEF-VDW
                           (   1   4  43  14   2   0   0)

     celldm(1)=   1.889726  celldm(2)=   0.000000  celldm(3)=   0.000000
     celldm(4)=   0.000000  celldm(5)=   0.000000  celldm(6)=   0.000000

     crystal axes: (cart. coord. in units of alat)
               a(1) = (   5.637663   0.000000   0.000000 )
               a(2) = (   2.818831   4.882359   0.000000 )
               a(3) = (   0.000000   0.000000  24.603132 )

     reciprocal axes: (cart. coord. in units 2 pi/alat)
               b(1) = (  0.177378 -0.102409  0.000000 )
               b(2) = (  0.000000  0.204819  0.000000 )
               b(3) = (  0.000000  0.000000  0.040645 )

     PseudoPot. # 1 for Pd read from file:
     ../pseudo/Pd.pbe-n-rrkjus_psl.1.0.0.UPF
     MD5 check sum: d9f693bf1c5b493397a6bd6f2231cfc3
     Pseudo is Ultrasoft + core correction, Zval = 10.0
     Generated using "atomic" code by A. Dal Corso v.6.3
     Using radial grid of 1235 points,  6 beta functions with:
                l(1) =   0
                l(2) =   0
                l(3) =   1
                l(4) =   1
                l(5) =   2
                l(6) =   2
     Q(r) pseudized with 0 coefficients

     atomic species   valence    mass     pseudopotential
        Pd            10.00   106.42000     Pd( 1.00)

     No symmetry found

   Cartesian axes

     site n.     atom                  positions (alat units)
         1           Pd  tau(   1) = (   1.4094159   0.8137267   9.9999996  )
         2           Pd  tau(   2) = (   4.2282474   0.8137267   9.9999996  )
         3           Pd  tau(   3) = (   2.8188314   3.2549062   9.9999996  )
         4           Pd  tau(   4) = (   5.6376629   3.2549062   9.9999996  )
         5           Pd  tau(   5) = (   5.6376626   1.6274528  12.3015660  )
         6           Pd  tau(   6) = (   2.8188311   1.6274528  12.3015660  )
         7           Pd  tau(   7) = (   7.0470781   4.0686323  12.3015660  )
         8           Pd  tau(   8) = (   4.2282466   4.0686323  12.3015660  )
         9           Pd  tau(   9) = (   0.0000000   0.0000000  14.6031324  )
        10           Pd  tau(  10) = (   2.8188315   0.0000000  14.6031324  )
        11           Pd  tau(  11) = (   1.4094155   2.4411795  14.6031324  )
        12           Pd  tau(  12) = (   4.2282470   2.4411795  14.6031324  )

     number of k points=    74  Fermi-Dirac smearing, width (Ry)=  0.0100
                       cart. coord. in units 2pi/alat
        k(    1) = (   0.0000000   0.0000000   0.0000000), wk =   0.0138889
        k(    2) = (   0.0000000   0.0170683   0.0000000), wk =   0.0277778
        k(    3) = (   0.0000000   0.0341365   0.0000000), wk =   0.0277778
        k(    4) = (   0.0000000   0.0512048   0.0000000), wk =   0.0277778
        k(    5) = (   0.0000000   0.0682730   0.0000000), wk =   0.0277778
        k(    6) = (   0.0000000   0.0853413   0.0000000), wk =   0.0277778
        k(    7) = (   0.0000000  -0.1024095   0.0000000), wk =   0.0138889
        k(    8) = (   0.0147815  -0.0085341   0.0000000), wk =   0.0277778
        k(    9) = (   0.0147815   0.0085341   0.0000000), wk =   0.0277778
        k(   10) = (   0.0147815   0.0256024   0.0000000), wk =   0.0277778
        k(   11) = (   0.0147815   0.0426706   0.0000000), wk =   0.0277778
        k(   12) = (   0.0147815   0.0597389   0.0000000), wk =   0.0277778
        k(   13) = (   0.0147815   0.0768071   0.0000000), wk =   0.0277778
        k(   14) = (   0.0147815  -0.1109436   0.0000000), wk =   0.0277778
        k(   15) = (   0.0147815  -0.0938754   0.0000000), wk =   0.0277778
        k(   16) = (   0.0147815  -0.0768071   0.0000000), wk =   0.0277778
        k(   17) = (   0.0147815  -0.0597389   0.0000000), wk =   0.0277778
        k(   18) = (   0.0147815  -0.0426706   0.0000000), wk =   0.0277778
        k(   19) = (   0.0147815  -0.0256024   0.0000000), wk =   0.0277778
        k(   20) = (   0.0295631  -0.0170682   0.0000000), wk =   0.0277778
        k(   21) = (   0.0295631   0.0000000   0.0000000), wk =   0.0277778
        k(   22) = (   0.0295631   0.0170683   0.0000000), wk =   0.0277778
        k(   23) = (   0.0295631   0.0341365   0.0000000), wk =   0.0277778
        k(   24) = (   0.0295631   0.0512048   0.0000000), wk =   0.0277778
        k(   25) = (   0.0295631   0.0682730   0.0000000), wk =   0.0277778
        k(   26) = (   0.0295631  -0.1194778   0.0000000), wk =   0.0277778
        k(   27) = (   0.0295631  -0.1024095   0.0000000), wk =   0.0277778
        k(   28) = (   0.0295631  -0.0853413   0.0000000), wk =   0.0277778
        k(   29) = (   0.0295631  -0.0682730   0.0000000), wk =   0.0277778
        k(   30) = (   0.0295631  -0.0512048   0.0000000), wk =   0.0277778
        k(   31) = (   0.0295631  -0.0341365   0.0000000), wk =   0.0277778
        k(   32) = (   0.0443446  -0.0256024   0.0000000), wk =   0.0277778
        k(   33) = (   0.0443446  -0.0085341   0.0000000), wk =   0.0277778
        k(   34) = (   0.0443446   0.0085341   0.0000000), wk =   0.0277778
        k(   35) = (   0.0443446   0.0256024   0.0000000), wk =   0.0277778
        k(   36) = (   0.0443446   0.0426706   0.0000000), wk =   0.0277778
        k(   37) = (   0.0443446   0.0597389   0.0000000), wk =   0.0277778
        k(   38) = (   0.0443446  -0.1280119   0.0000000), wk =   0.0277778
        k(   39) = (   0.0443446  -0.1109436   0.0000000), wk =   0.0277778
        k(   40) = (   0.0443446  -0.0938754   0.0000000), wk =   0.0277778
        k(   41) = (   0.0443446  -0.0768071   0.0000000), wk =   0.0277778
        k(   42) = (   0.0443446  -0.0597389   0.0000000), wk =   0.0277778
        k(   43) = (   0.0443446  -0.0426706   0.0000000), wk =   0.0277778
        k(   44) = (   0.0591262  -0.0341365   0.0000000), wk =   0.0277778
        k(   45) = (   0.0591262  -0.0170682   0.0000000), wk =   0.0277778
        k(   46) = (   0.0591262   0.0000000   0.0000000), wk =   0.0277778
        k(   47) = (   0.0591262   0.0170683   0.0000000), wk =   0.0277778
        k(   48) = (   0.0591262   0.0341365   0.0000000), wk =   0.0277778
        k(   49) = (   0.0591262   0.0512048   0.0000000), wk =   0.0277778
        k(   50) = (   0.0591262  -0.1365460   0.0000000), wk =   0.0277778
        k(   51) = (   0.0591262  -0.1194778   0.0000000), wk =   0.0277778
        k(   52) = (   0.0591262  -0.1024095   0.0000000), wk =   0.0277778
        k(   53) = (   0.0591262  -0.0853413   0.0000000), wk =   0.0277778
        k(   54) = (   0.0591262  -0.0682730   0.0000000), wk =   0.0277778
        k(   55) = (   0.0591262  -0.0512047   0.0000000), wk =   0.0277778
        k(   56) = (   0.0739077  -0.0426706   0.0000000), wk =   0.0277778
        k(   57) = (   0.0739077  -0.0256024   0.0000000), wk =   0.0277778
        k(   58) = (   0.0739077  -0.0085341   0.0000000), wk =   0.0277778
        k(   59) = (   0.0739077   0.0085341   0.0000000), wk =   0.0277778
        k(   60) = (   0.0739077   0.0256024   0.0000000), wk =   0.0277778
        k(   61) = (   0.0739077   0.0426706   0.0000000), wk =   0.0277778
        k(   62) = (   0.0739077  -0.1450801   0.0000000), wk =   0.0277778
        k(   63) = (   0.0739077  -0.1280119   0.0000000), wk =   0.0277778
        k(   64) = (   0.0739077  -0.1109436   0.0000000), wk =   0.0277778
        k(   65) = (   0.0739077  -0.0938754   0.0000000), wk =   0.0277778
        k(   66) = (   0.0739077  -0.0768071   0.0000000), wk =   0.0277778
        k(   67) = (   0.0739077  -0.0597389   0.0000000), wk =   0.0277778
        k(   68) = (  -0.0886892   0.0512047   0.0000000), wk =   0.0138889
        k(   69) = (  -0.0886892   0.0682730   0.0000000), wk =   0.0277778
        k(   70) = (  -0.0886892   0.0853413   0.0000000), wk =   0.0277778
        k(   71) = (  -0.0886892   0.1024095   0.0000000), wk =   0.0277778
        k(   72) = (  -0.0886892   0.1194778   0.0000000), wk =   0.0277778
        k(   73) = (  -0.0886892   0.1365460   0.0000000), wk =   0.0277778
        k(   74) = (  -0.0886892  -0.0512048   0.0000000), wk =   0.0138889

     Initial potential from superposition of free atoms

     starting charge  119.99314, renormalised to  120.00000

     negative rho (up, down):  1.260E-03 0.000E+00

     %%%%%%%%%%%%%%%%%%%%%%%%%%%%%%%%%%%%%%%%%%%%%%%%%%%%%%%%%%%%%%%%%%%%%%%%
     %                                                                      %
     % You are using vdW-DF, which was implemented by the Thonhauser group. %
     % Please cite the following two papers that made this development      %
     % possible and the two reviews that describe the various versions:     %
     %                                                                      %
     %   T. Thonhauser et al., PRL 115, 136402 (2015).                      %
     %   T. Thonhauser et al., PRB 76, 125112 (2007).                       %
     %   K. Berland et al., Rep. Prog. Phys. 78, 066501 (2015).             %
     %   D.C. Langreth et al., J. Phys.: Condens. Matter 21, 084203 (2009). %
     %                                                                      %
     %                                                                      %
     % If you are calculating the stress with vdW-DF, please also cite:     %
     %                                                                      %
     %   R. Sabatini et al., J. Phys.: Condens. Matter 24, 424209 (2012).   %
     %                                                                      %
     %%%%%%%%%%%%%%%%%%%%%%%%%%%%%%%%%%%%%%%%%%%%%%%%%%%%%%%%%%%%%%%%%%%%%%%%

     Adding external electric field

     Computed dipole along edir(3) :
        Dipole                0.0000 Ry au,          0.0000 Debye
        Dipole field          0.0000 Ry au,

        Potential amp.       -0.0000 Ry
        Total length         45.3308 bohr

     Starting wfcs are  108 randomized atomic wfcs

     Self-consistent Calculation

     iteration #  1     ecut=    55.12 Ry     beta= 0.10
     Davidson diagonalization with overlap
     ethr =  1.00E-02,  avg # of iterations =  2.1

     Threshold (ethr) on eigenvalues was too large:
     Diagonalizing with lowered threshold

     Davidson diagonalization with overlap
     ethr =  2.16E-04,  avg # of iterations =  4.9

[...]

     total energy              =    -822.09535641 Ry
     estimated scf accuracy    <       0.35064627 Ry

[...]

     total energy              =    -822.08100984 Ry
     estimated scf accuracy    <       0.00001643 Ry

     iteration # 13     ecut=    55.12 Ry     beta= 0.10
     Davidson diagonalization with overlap
     ethr =  1.37E-08,  avg # of iterations =  2.6

[...]

     Adding external electric field

     Computed dipole along edir(3) :
        Dipole                0.0004 Ry au,          0.0011 Debye
        Dipole field          0.0000 Ry au,

        Potential amp.       -0.0001 Ry
        Total length         45.3308 bohr

     End of self-consistent calculation

          k = 0.0000 0.0000 0.0000 ( 31693 PWs)   bands (ev):

    -5.9550  -4.7172  -4.7020  -4.6704  -4.6704  -4.6704  -4.4745  -4.4745
    -4.4745  -4.2975  -4.2975  -4.2975  -4.1101  -4.1101  -4.1101  -3.1764
    -3.1764  -3.1764  -2.8915  -2.8915  -2.8915  -2.7407  -2.6909  -2.6909
    -2.5024  -2.5024  -2.3744  -2.3744  -2.3744  -2.3555  -2.3555  -2.2541
    -1.7039  -1.7039  -1.7039  -1.3398  -1.3398  -1.3350  -1.3349  -1.3349
    -1.1216  -1.1216  -1.1215  -0.9093  -0.9093  -0.5536  -0.5536  -0.5536
    -0.4761  -0.4761  -0.4761  -0.4516  -0.4516  -0.2906  -0.2906  -0.2906
    -0.1123  -0.0983  -0.0983  -0.0983  -0.0570  -0.0570  -0.0570   1.3522
     2.0727   2.0727   2.0727   3.3016   3.3016   3.3018   3.6309   3.6309

[...]

          k = 0.0739-0.0597 0.0000 ( 31564 PWs)   bands (ev):

[...]

          k =-0.0887 0.0512 0.0000 ( 31582 PWs)   bands (ev):

[...]

          k =-0.0887-0.0512 0.0000 ( 31582 PWs)   bands (ev):

    -4.6019  -4.6019  -4.0910  -4.0910  -3.9887  -3.9887  -3.8411  -3.8411
    -3.7503  -3.7503  -3.6479  -3.6479  -3.4830  -3.4830  -3.3674  -3.3674
    -3.0485  -3.0485  -2.9908  -2.9908  -2.9633  -2.9633  -2.6930  -2.6930
    -2.4228  -2.4228  -2.3891  -2.3891  -2.2482  -2.2482  -2.1402  -2.1402
    -2.1053  -2.1053  -2.0701  -2.0701  -2.0471  -2.0471  -1.9506  -1.9506
    -1.7163  -1.7163  -1.5379  -1.5379  -1.5258  -1.5258  -1.3414  -1.3414
    -1.3375  -1.3375  -1.2455  -1.2455  -0.9399  -0.9399  -0.9342  -0.9342
    -0.4919  -0.4919  -0.4212  -0.4212  -0.3661  -0.3661  -0.2259  -0.2259
     2.0109   2.0109   2.2552   2.2552   3.2757   3.2757   4.2557   4.2557

     the Fermi energy is    -0.2901 ev

!    total energy              =    -822.08100002 Ry
     estimated scf accuracy    <       0.00000161 Ry
     smearing contrib. (-TS)   =      -0.10594932 Ry
     internal energy E=F+TS    =    -821.97505070 Ry

     The total energy is F=E-TS. E is the sum of the following terms:
     one-electron contribution =   -7516.47841983 Ry
     hartree contribution      =    3841.81508276 Ry
     xc contribution           =    -269.15231795 Ry
     ewald contribution        =    3121.84060431 Ry
     electric field correction =       0.00000000 Ry

     convergence has been achieved in  13 iterations

     negative rho (up, down):  1.241E-03 0.000E+00

     Forces acting on atoms (cartesian axes, Ry/au):

     atom    1 type  1   force =     0.00000157   -0.00000301   -0.00158558
     atom    2 type  1   force =    -0.00000238   -0.00000030   -0.00158788
     atom    3 type  1   force =     0.00000203    0.00000020   -0.00158442
     atom    4 type  1   force =    -0.00000155    0.00000204   -0.00158625
     atom    5 type  1   force =     0.00000006    0.00000041    0.00003759
     atom    6 type  1   force =     0.00000024   -0.00000081    0.00003792
     atom    7 type  1   force =    -0.00000042    0.00000015    0.00003842
     atom    8 type  1   force =     0.00000053    0.00000041    0.00003862
     atom    9 type  1   force =     0.00000188   -0.00000210    0.00154780
     atom   10 type  1   force =    -0.00000208   -0.00000087    0.00154542
     atom   11 type  1   force =     0.00000146    0.00000056    0.00155034
     atom   12 type  1   force =    -0.00000135    0.00000331    0.00154803

     Total force =     0.004433     Total SCF correction =     0.004993
     SCF correction compared to forces is large: reduce conv_thr to get better values

     Writing output data file ./Pd750/Pd750_beef.save/

     General routines

     Parallel routines

   This run was terminated on:  21:29:55  21Jun2022

   JOB DONE.