     Program PWSCF v.6.6 starts on 21Jun2022 at 21:29:58

     R & G space division:  proc/nbgrp/npool/nimage =      37
     Fft bands division:     nmany     =       1
     Reading input from Pt-750.in
Warning: card &CELL ignored
Warning: card / ignored

     Current dimensions of program PWSCF are:
     Max number of different atomic species (ntypx) = 10
     Max number of k-points (npk) =  40000
     Max angular momentum in pseudopotentials (lmaxx) =  3
     Presently stress not available with electric field and gates

     Message from routine cell_base_init:
     DEPRECATED: use true lattice parameter, not A to a.u. conversion factor
     file Pt.pbe-n-rrkjus_psl.1.0.0.UPF: wavefunction(s)  6S renormalized

     IMPORTANT: XC functional enforced from input :
     Exchange-correlation= BEEF-VDW
                           (   1   4  43  14   2   0   0)
     Any further DFT definition will be discarded
     Please, verify this is what you really want

     Subspace diagonalization in iterative solution of the eigenvalue problem:
     a serial algorithm will be used

     Found symmetry operation: I + ( -0.5000  0.0000  0.0000)
     This is a supercell, fractional translations are disabled

     bravais-lattice index     =            0
     lattice parameter (alat)  =       1.8897  a.u.
     unit-cell volume          =    4481.2744 (a.u.)^3
     number of atoms/cell      =           12
     number of atomic types    =            1
     number of electrons       =       120.00
     number of Kohn-Sham states=           72
     kinetic-energy cutoff     =      55.1240  Ry
     charge density cutoff     =     551.2396  Ry
     convergence threshold     =      1.0E-05
     mixing beta               =       0.1000
     number of iterations used =           10  plain     mixing
     Exchange-correlation= BEEF-VDW
                           (   1   4  43  14   2   0   0)

     celldm(1)=   1.889726  celldm(2)=   0.000000  celldm(3)=   0.000000
     celldm(4)=   0.000000  celldm(5)=   0.000000  celldm(6)=   0.000000

     crystal axes: (cart. coord. in units of alat)
               a(1) = (   5.587338   0.000000   0.000000 )
               a(2) = (   2.793669   4.838777   0.000000 )
               a(3) = (   0.000000   0.000000  24.562042 )

     reciprocal axes: (cart. coord. in units 2 pi/alat)
               b(1) = (  0.178976 -0.103332  0.000000 )
               b(2) = (  0.000000  0.206664  0.000000 )
               b(3) = (  0.000000  0.000000  0.040713 )

     PseudoPot. # 1 for Pt read from file:
     ../pseudo/Pt.pbe-n-rrkjus_psl.1.0.0.UPF
     MD5 check sum: 6bc887cfe28d63a5fc1f72d35a7d3ef7
     Pseudo is Ultrasoft + core correction, Zval = 10.0
     Generated using "atomic" code by A. Dal Corso v.6.3
     Using radial grid of 1277 points,  6 beta functions with:
                l(1) =   0
                l(2) =   0
                l(3) =   1
                l(4) =   1
                l(5) =   2
                l(6) =   2
     Q(r) pseudized with 0 coefficients

     atomic species   valence    mass     pseudopotential
        Pt            10.00   195.08400     Pt( 1.00)

     No symmetry found

   Cartesian axes

     site n.     atom                  positions (alat units)
         1           Pt  tau(   1) = (   1.3968345   0.8064628  10.0000000  )
         2           Pt  tau(   2) = (   4.1905036   0.8064628  10.0000000  )
         3           Pt  tau(   3) = (   2.7936691   3.2258512  10.0000000  )
         4           Pt  tau(   4) = (   5.5873381   3.2258512  10.0000000  )
         5           Pt  tau(   5) = (   5.5873381   1.6129256  12.2810212  )
         6           Pt  tau(   6) = (   2.7936691   1.6129256  12.2810212  )
         7           Pt  tau(   7) = (   6.9841727   4.0323140  12.2810212  )
         8           Pt  tau(   8) = (   4.1905036   4.0323140  12.2810212  )
         9           Pt  tau(   9) = (   2.7937083   4.8387661  14.6259962  )
        10           Pt  tau(  10) = (   5.5872990   4.8387208  14.6259426  )
        11           Pt  tau(  11) = (   6.9841363   2.4193981  14.6259531  )
        12           Pt  tau(  12) = (   4.1905407   2.4194424  14.6259038  )

     number of k points=    74  Fermi-Dirac smearing, width (Ry)=  0.0100
                       cart. coord. in units 2pi/alat
        k(    1) = (   0.0000000   0.0000000   0.0000000), wk =   0.0138889
        k(    2) = (   0.0000000   0.0172220   0.0000000), wk =   0.0277778
        k(    3) = (   0.0000000   0.0344440   0.0000000), wk =   0.0277778
        k(    4) = (   0.0000000   0.0516659   0.0000000), wk =   0.0277778
        k(    5) = (   0.0000000   0.0688879   0.0000000), wk =   0.0277778
        k(    6) = (   0.0000000   0.0861099   0.0000000), wk =   0.0277778
        k(    7) = (   0.0000000  -0.1033319   0.0000000), wk =   0.0138889
        k(    8) = (   0.0149147  -0.0086110   0.0000000), wk =   0.0277778
        k(    9) = (   0.0149147   0.0086110   0.0000000), wk =   0.0277778
        k(   10) = (   0.0149147   0.0258330   0.0000000), wk =   0.0277778
        k(   11) = (   0.0149147   0.0430550   0.0000000), wk =   0.0277778
        k(   12) = (   0.0149147   0.0602769   0.0000000), wk =   0.0277778
        k(   13) = (   0.0149147   0.0774989   0.0000000), wk =   0.0277778
        k(   14) = (   0.0149147  -0.1119429   0.0000000), wk =   0.0277778
        k(   15) = (   0.0149147  -0.0947209   0.0000000), wk =   0.0277778
        k(   16) = (   0.0149147  -0.0774989   0.0000000), wk =   0.0277778
        k(   17) = (   0.0149147  -0.0602769   0.0000000), wk =   0.0277778
        k(   18) = (   0.0149147  -0.0430550   0.0000000), wk =   0.0277778
        k(   19) = (   0.0149147  -0.0258330   0.0000000), wk =   0.0277778
        k(   20) = (   0.0298294  -0.0172220   0.0000000), wk =   0.0277778
        k(   21) = (   0.0298294   0.0000000   0.0000000), wk =   0.0277778
        k(   22) = (   0.0298294   0.0172220   0.0000000), wk =   0.0277778
        k(   23) = (   0.0298294   0.0344440   0.0000000), wk =   0.0277778
        k(   24) = (   0.0298294   0.0516659   0.0000000), wk =   0.0277778
        k(   25) = (   0.0298294   0.0688879   0.0000000), wk =   0.0277778
        k(   26) = (   0.0298294  -0.1205539   0.0000000), wk =   0.0277778
        k(   27) = (   0.0298294  -0.1033319   0.0000000), wk =   0.0277778
        k(   28) = (   0.0298294  -0.0861099   0.0000000), wk =   0.0277778
        k(   29) = (   0.0298294  -0.0688879   0.0000000), wk =   0.0277778
        k(   30) = (   0.0298294  -0.0516659   0.0000000), wk =   0.0277778
        k(   31) = (   0.0298294  -0.0344440   0.0000000), wk =   0.0277778
        k(   32) = (   0.0447440  -0.0258330   0.0000000), wk =   0.0277778
        k(   33) = (   0.0447440  -0.0086110   0.0000000), wk =   0.0277778
        k(   34) = (   0.0447440   0.0086110   0.0000000), wk =   0.0277778
        k(   35) = (   0.0447440   0.0258330   0.0000000), wk =   0.0277778
        k(   36) = (   0.0447440   0.0430550   0.0000000), wk =   0.0277778
        k(   37) = (   0.0447440   0.0602769   0.0000000), wk =   0.0277778
        k(   38) = (   0.0447440  -0.1291649   0.0000000), wk =   0.0277778
        k(   39) = (   0.0447440  -0.1119429   0.0000000), wk =   0.0277778
        k(   40) = (   0.0447440  -0.0947209   0.0000000), wk =   0.0277778
        k(   41) = (   0.0447440  -0.0774989   0.0000000), wk =   0.0277778
        k(   42) = (   0.0447440  -0.0602769   0.0000000), wk =   0.0277778
        k(   43) = (   0.0447440  -0.0430550   0.0000000), wk =   0.0277778
        k(   44) = (   0.0596587  -0.0344440   0.0000000), wk =   0.0277778
        k(   45) = (   0.0596587  -0.0172220   0.0000000), wk =   0.0277778
        k(   46) = (   0.0596587   0.0000000   0.0000000), wk =   0.0277778
        k(   47) = (   0.0596587   0.0172220   0.0000000), wk =   0.0277778
        k(   48) = (   0.0596587   0.0344440   0.0000000), wk =   0.0277778
        k(   49) = (   0.0596587   0.0516659   0.0000000), wk =   0.0277778
        k(   50) = (   0.0596587  -0.1377759   0.0000000), wk =   0.0277778
        k(   51) = (   0.0596587  -0.1205539   0.0000000), wk =   0.0277778
        k(   52) = (   0.0596587  -0.1033319   0.0000000), wk =   0.0277778
        k(   53) = (   0.0596587  -0.0861099   0.0000000), wk =   0.0277778
        k(   54) = (   0.0596587  -0.0688879   0.0000000), wk =   0.0277778
        k(   55) = (   0.0596587  -0.0516659   0.0000000), wk =   0.0277778
        k(   56) = (   0.0745734  -0.0430550   0.0000000), wk =   0.0277778
        k(   57) = (   0.0745734  -0.0258330   0.0000000), wk =   0.0277778
        k(   58) = (   0.0745734  -0.0086110   0.0000000), wk =   0.0277778
        k(   59) = (   0.0745734   0.0086110   0.0000000), wk =   0.0277778
        k(   60) = (   0.0745734   0.0258330   0.0000000), wk =   0.0277778
        k(   61) = (   0.0745734   0.0430550   0.0000000), wk =   0.0277778
        k(   62) = (   0.0745734  -0.1463869   0.0000000), wk =   0.0277778
        k(   63) = (   0.0745734  -0.1291649   0.0000000), wk =   0.0277778
        k(   64) = (   0.0745734  -0.1119429   0.0000000), wk =   0.0277778
        k(   65) = (   0.0745734  -0.0947209   0.0000000), wk =   0.0277778
        k(   66) = (   0.0745734  -0.0774989   0.0000000), wk =   0.0277778
        k(   67) = (   0.0745734  -0.0602769   0.0000000), wk =   0.0277778
        k(   68) = (  -0.0894881   0.0516659   0.0000000), wk =   0.0138889
        k(   69) = (  -0.0894881   0.0688879   0.0000000), wk =   0.0277778
        k(   70) = (  -0.0894881   0.0861099   0.0000000), wk =   0.0277778
        k(   71) = (  -0.0894881   0.1033319   0.0000000), wk =   0.0277778
        k(   72) = (  -0.0894881   0.1205539   0.0000000), wk =   0.0277778
        k(   73) = (  -0.0894881   0.1377759   0.0000000), wk =   0.0277778
        k(   74) = (  -0.0894881  -0.0516659   0.0000000), wk =   0.0138889

     Initial potential from superposition of free atoms

     starting charge  119.99796, renormalised to  120.00000

     negative rho (up, down):  9.665E-04 0.000E+00

     %%%%%%%%%%%%%%%%%%%%%%%%%%%%%%%%%%%%%%%%%%%%%%%%%%%%%%%%%%%%%%%%%%%%%%%%
     %                                                                      %
     % You are using vdW-DF, which was implemented by the Thonhauser group. %
     % Please cite the following two papers that made this development      %
     % possible and the two reviews that describe the various versions:     %
     %                                                                      %
     %   T. Thonhauser et al., PRL 115, 136402 (2015).                      %
     %   T. Thonhauser et al., PRB 76, 125112 (2007).                       %
     %   K. Berland et al., Rep. Prog. Phys. 78, 066501 (2015).             %
     %   D.C. Langreth et al., J. Phys.: Condens. Matter 21, 084203 (2009). %
     %                                                                      %
     %                                                                      %
     % If you are calculating the stress with vdW-DF, please also cite:     %
     %                                                                      %
     %   R. Sabatini et al., J. Phys.: Condens. Matter 24, 424209 (2012).   %
     %                                                                      %
     %%%%%%%%%%%%%%%%%%%%%%%%%%%%%%%%%%%%%%%%%%%%%%%%%%%%%%%%%%%%%%%%%%%%%%%%

     Adding external electric field

     Computed dipole along edir(3) :
        Dipole               -0.0000 Ry au,         -0.0000 Debye
        Dipole field         -0.0000 Ry au,

        Potential amp.        0.0000 Ry
        Total length         45.2551 bohr

     Starting wfcs are  108 randomized atomic wfcs

     Self-consistent Calculation

     iteration #  1     ecut=    55.12 Ry     beta= 0.10
     Davidson diagonalization with overlap
     ethr =  1.00E-02,  avg # of iterations =  2.0

     Threshold (ethr) on eigenvalues was too large:
     Diagonalizing with lowered threshold

     Davidson diagonalization with overlap
     ethr =  2.47E-04,  avg # of iterations =  5.3

[...]

     total energy              =    -793.74894937 Ry
     estimated scf accuracy    <       0.39025200 Ry

[...]

     total energy              =    -793.72011165 Ry
     estimated scf accuracy    <       0.00001313 Ry

     iteration # 16     ecut=    55.12 Ry     beta= 0.10
     Davidson diagonalization with overlap
     ethr =  1.09E-08,  avg # of iterations =  2.0

[...]

     Adding external electric field

     Computed dipole along edir(3) :
        Dipole               -0.0035 Ry au,         -0.0088 Debye
        Dipole field         -0.0000 Ry au,

        Potential amp.        0.0009 Ry
        Total length         45.2551 bohr

     End of self-consistent calculation

          k = 0.0000 0.0000 0.0000 ( 30997 PWs)   bands (ev):

    -8.3003  -6.6250  -6.1811  -5.7929  -5.7929  -5.7929  -5.5747  -5.5747
    -5.5747  -5.1004  -5.1004  -5.1004  -5.0052  -5.0052  -5.0052  -3.5716
    -3.5716  -3.5716  -3.2575  -3.2575  -3.2575  -3.1034  -2.9400  -2.9400
    -2.6398  -2.6398  -2.6349  -2.4399  -2.4399  -2.4226  -2.4225  -2.4225
    -1.8236  -1.8235  -1.8235  -0.9710  -0.9710  -0.9557  -0.9557  -0.9557
    -0.8308  -0.8308  -0.8308  -0.3136  -0.3136  -0.2716   0.1597   0.1597
     0.1598   0.2221   0.2221   0.2221   0.3153   0.3153   0.5953   0.5953
     0.5953   0.8802   0.8802   0.8802   0.9465   0.9466   0.9466   1.3132
     1.7928   1.7928   1.7929   3.3850   3.3851   3.3875   3.4328   3.4328

[...]

          k = 0.0746-0.0603 0.0000 ( 30939 PWs)   bands (ev):

[...]

          k =-0.0895 0.0517 0.0000 ( 30910 PWs)   bands (ev):

[...]

          k =-0.0895-0.0517 0.0000 ( 30910 PWs)   bands (ev):

    -6.5404  -6.5403  -5.2452  -5.2452  -4.8593  -4.8592  -4.8261  -4.8261
    -4.7481  -4.7481  -4.2927  -4.2927  -4.0646  -4.0646  -3.8933  -3.8932
    -3.5429  -3.5429  -3.5388  -3.5387  -3.3990  -3.3989  -3.0108  -3.0108
    -2.6369  -2.6368  -2.6306  -2.6305  -2.5096  -2.5095  -2.3003  -2.3002
    -2.2879  -2.2878  -2.2625  -2.2623  -2.1186  -2.1184  -2.0993  -2.0992
    -1.5563  -1.5562  -1.3741  -1.3740  -1.2983  -1.2983  -1.0971  -1.0971
    -1.0106  -1.0103  -0.8479  -0.8476  -0.4487  -0.4487  -0.3952  -0.3952
    -0.2320  -0.2319   0.1984   0.1984   0.3469   0.3469   0.6313   0.6313
     2.0792   2.0793   2.6219   2.6220   3.4619   3.4619   4.9676   4.9678

     the Fermi energy is     0.3782 ev

!    total energy              =    -793.72010949 Ry
     estimated scf accuracy    <       0.00000448 Ry
     smearing contrib. (-TS)   =      -0.09754950 Ry
     internal energy E=F+TS    =    -793.62255998 Ry

     The total energy is F=E-TS. E is the sum of the following terms:
     one-electron contribution =   -7471.52711692 Ry
     hartree contribution      =    3811.33961658 Ry
     xc contribution           =    -296.45311607 Ry
     ewald contribution        =    3163.01805638 Ry
     electric field correction =       0.00000003 Ry

     convergence has been achieved in  16 iterations

     negative rho (up, down):  9.229E-04 0.000E+00

     Forces acting on atoms (cartesian axes, Ry/au):

     atom    1 type  1   force =    -0.00000096   -0.00000155   -0.02073756
     atom    2 type  1   force =     0.00000322   -0.00000297   -0.02072025
     atom    3 type  1   force =     0.00000782    0.00000240   -0.02073045
     atom    4 type  1   force =     0.00000619    0.00000791   -0.02072889
     atom    5 type  1   force =     0.00000725   -0.00000243    0.01543095
     atom    6 type  1   force =     0.00000125   -0.00000170    0.01543104
     atom    7 type  1   force =    -0.00000509   -0.00001117    0.01542836
     atom    8 type  1   force =    -0.00001091   -0.00000240    0.01541767
     atom    9 type  1   force =    -0.00002897    0.00001229    0.00529740
     atom   10 type  1   force =     0.00002191    0.00003270    0.00531547
     atom   11 type  1   force =     0.00002452   -0.00000015    0.00529276
     atom   12 type  1   force =    -0.00002622   -0.00003293    0.00530351

     Total force =     0.052756     Total SCF correction =     0.008368
     SCF correction compared to forces is large: reduce conv_thr to get better values

     Writing output data file ./Pt750/Pt750_beef.save/

     General routines

     Parallel routines

   This run was terminated on:  23: 2: 3  21Jun2022

   JOB DONE.