     Program PWSCF v.6.6 starts on 21Jun2022 at 23: 2:13

     R & G space division:  proc/nbgrp/npool/nimage =      37
     Fft bands division:     nmany     =       1
     Reading input from Re-750.in
Warning: card &CELL ignored
Warning: card / ignored

     Current dimensions of program PWSCF are:
     Max number of different atomic species (ntypx) = 10
     Max number of k-points (npk) =  40000
     Max angular momentum in pseudopotentials (lmaxx) =  3
     Presently stress not available with electric field and gates

     Message from routine cell_base_init:
     DEPRECATED: use true lattice parameter, not A to a.u. conversion factor

     IMPORTANT: XC functional enforced from input :
     Exchange-correlation= BEEF-VDW
                           (   1   4  43  14   2   0   0)
     Any further DFT definition will be discarded
     Please, verify this is what you really want

     Subspace diagonalization in iterative solution of the eigenvalue problem:
     a serial algorithm will be used

     Found symmetry operation: I + ( -0.5000  0.0000  0.0000)
     This is a supercell, fractional translations are disabled

     bravais-lattice index     =            0
     lattice parameter (alat)  =       1.8897  a.u.
     unit-cell volume          =    4306.9633 (a.u.)^3
     number of atoms/cell      =           12
     number of atomic types    =            1
     number of electrons       =       180.00
     number of Kohn-Sham states=          108
     kinetic-energy cutoff     =      55.1240  Ry
     charge density cutoff     =     551.2396  Ry
     convergence threshold     =      1.0E-05
     mixing beta               =       0.1000
     number of iterations used =           10  plain     mixing
     Exchange-correlation= BEEF-VDW
                           (   1   4  43  14   2   0   0)

     celldm(1)=   1.889726  celldm(2)=   0.000000  celldm(3)=   0.000000
     celldm(4)=   0.000000  celldm(5)=   0.000000  celldm(6)=   0.000000

     crystal axes: (cart. coord. in units of alat)
               a(1) = (   5.486772   0.000000   0.000000 )
               a(2) = (   2.743386   4.751684   0.000000 )
               a(3) = (   0.000000   0.000000  24.479931 )

     reciprocal axes: (cart. coord. in units 2 pi/alat)
               b(1) = (  0.182257 -0.105226  0.000000 )
               b(2) = (  0.000000  0.210452  0.000000 )
               b(3) = (  0.000000  0.000000  0.040850 )

     PseudoPot. # 1 for Re read from file:
     ../pseudo/Re.pbe-spn-rrkjus_psl.1.0.0.UPF
     MD5 check sum: 1282f1ec51ad523723a04c61ae80a9e6
     Pseudo is Ultrasoft + core correction, Zval = 15.0
     Generated using "atomic" code by A. Dal Corso v.6.2.2
     Using radial grid of 1275 points,  6 beta functions with:
                l(1) =   0
                l(2) =   0
                l(3) =   1
                l(4) =   1
                l(5) =   2
                l(6) =   2
     Q(r) pseudized with 0 coefficients

     atomic species   valence    mass     pseudopotential
        Re            15.00   186.20700     Re( 1.00)

     No symmetry found

   Cartesian axes

     site n.     atom                  positions (alat units)
         1           Re  tau(   1) = (   1.3716930   0.7919474  10.0000000  )
         2           Re  tau(   2) = (   4.1150791   0.7919474  10.0000000  )
         3           Re  tau(   3) = (   2.7433861   3.1677894  10.0000000  )
         4           Re  tau(   4) = (   5.4867722   3.1677894  10.0000000  )
         5           Re  tau(   5) = (   5.4867722   1.5838947  12.2399654  )
         6           Re  tau(   6) = (   2.7433861   1.5838947  12.2399654  )
         7           Re  tau(   7) = (   6.8584652   3.9597368  12.2399654  )
         8           Re  tau(   8) = (   4.1150791   3.9597368  12.2399654  )
         9           Re  tau(   9) = (   2.7433905   4.7516831  14.4234921  )
        10           Re  tau(  10) = (   2.7433892   0.0000162  14.4234946  )
        11           Re  tau(  11) = (   1.3717054   2.3758440  14.4234876  )
        12           Re  tau(  12) = (   4.1150769   2.3758453  14.4234769  )

     number of k points=    74  Fermi-Dirac smearing, width (Ry)=  0.0100
                       cart. coord. in units 2pi/alat
        k(    1) = (   0.0000000   0.0000000   0.0000000), wk =   0.0138889
        k(    2) = (   0.0000000   0.0175376   0.0000000), wk =   0.0277778
        k(    3) = (   0.0000000   0.0350753   0.0000000), wk =   0.0277778
        k(    4) = (   0.0000000   0.0526129   0.0000000), wk =   0.0277778
        k(    5) = (   0.0000000   0.0701506   0.0000000), wk =   0.0277778
        k(    6) = (   0.0000000   0.0876882   0.0000000), wk =   0.0277778
        k(    7) = (   0.0000000  -0.1052259   0.0000000), wk =   0.0138889
        k(    8) = (   0.0151880  -0.0087688   0.0000000), wk =   0.0277778
        k(    9) = (   0.0151880   0.0087688   0.0000000), wk =   0.0277778
        k(   10) = (   0.0151880   0.0263065   0.0000000), wk =   0.0277778
        k(   11) = (   0.0151880   0.0438441   0.0000000), wk =   0.0277778
        k(   12) = (   0.0151880   0.0613817   0.0000000), wk =   0.0277778
        k(   13) = (   0.0151880   0.0789194   0.0000000), wk =   0.0277778
        k(   14) = (   0.0151880  -0.1139947   0.0000000), wk =   0.0277778
        k(   15) = (   0.0151880  -0.0964570   0.0000000), wk =   0.0277778
        k(   16) = (   0.0151880  -0.0789194   0.0000000), wk =   0.0277778
        k(   17) = (   0.0151880  -0.0613817   0.0000000), wk =   0.0277778
        k(   18) = (   0.0151880  -0.0438441   0.0000000), wk =   0.0277778
        k(   19) = (   0.0151880  -0.0263065   0.0000000), wk =   0.0277778
        k(   20) = (   0.0303761  -0.0175376   0.0000000), wk =   0.0277778
        k(   21) = (   0.0303761   0.0000000   0.0000000), wk =   0.0277778
        k(   22) = (   0.0303761   0.0175376   0.0000000), wk =   0.0277778
        k(   23) = (   0.0303761   0.0350753   0.0000000), wk =   0.0277778
        k(   24) = (   0.0303761   0.0526129   0.0000000), wk =   0.0277778
        k(   25) = (   0.0303761   0.0701506   0.0000000), wk =   0.0277778
        k(   26) = (   0.0303761  -0.1227635   0.0000000), wk =   0.0277778
        k(   27) = (   0.0303761  -0.1052259   0.0000000), wk =   0.0277778
        k(   28) = (   0.0303761  -0.0876882   0.0000000), wk =   0.0277778
        k(   29) = (   0.0303761  -0.0701506   0.0000000), wk =   0.0277778
        k(   30) = (   0.0303761  -0.0526129   0.0000000), wk =   0.0277778
        k(   31) = (   0.0303761  -0.0350753   0.0000000), wk =   0.0277778
        k(   32) = (   0.0455641  -0.0263065   0.0000000), wk =   0.0277778
        k(   33) = (   0.0455641  -0.0087688   0.0000000), wk =   0.0277778
        k(   34) = (   0.0455641   0.0087688   0.0000000), wk =   0.0277778
        k(   35) = (   0.0455641   0.0263065   0.0000000), wk =   0.0277778
        k(   36) = (   0.0455641   0.0438441   0.0000000), wk =   0.0277778
        k(   37) = (   0.0455641   0.0613817   0.0000000), wk =   0.0277778
        k(   38) = (   0.0455641  -0.1315323   0.0000000), wk =   0.0277778
        k(   39) = (   0.0455641  -0.1139947   0.0000000), wk =   0.0277778
        k(   40) = (   0.0455641  -0.0964570   0.0000000), wk =   0.0277778
        k(   41) = (   0.0455641  -0.0789194   0.0000000), wk =   0.0277778
        k(   42) = (   0.0455641  -0.0613817   0.0000000), wk =   0.0277778
        k(   43) = (   0.0455641  -0.0438441   0.0000000), wk =   0.0277778
        k(   44) = (   0.0607522  -0.0350753   0.0000000), wk =   0.0277778
        k(   45) = (   0.0607522  -0.0175376   0.0000000), wk =   0.0277778
        k(   46) = (   0.0607522   0.0000000   0.0000000), wk =   0.0277778
        k(   47) = (   0.0607522   0.0175376   0.0000000), wk =   0.0277778
        k(   48) = (   0.0607522   0.0350753   0.0000000), wk =   0.0277778
        k(   49) = (   0.0607522   0.0526129   0.0000000), wk =   0.0277778
        k(   50) = (   0.0607522  -0.1403011   0.0000000), wk =   0.0277778
        k(   51) = (   0.0607522  -0.1227635   0.0000000), wk =   0.0277778
        k(   52) = (   0.0607522  -0.1052259   0.0000000), wk =   0.0277778
        k(   53) = (   0.0607522  -0.0876882   0.0000000), wk =   0.0277778
        k(   54) = (   0.0607522  -0.0701506   0.0000000), wk =   0.0277778
        k(   55) = (   0.0607522  -0.0526129   0.0000000), wk =   0.0277778
        k(   56) = (   0.0759402  -0.0438441   0.0000000), wk =   0.0277778
        k(   57) = (   0.0759402  -0.0263065   0.0000000), wk =   0.0277778
        k(   58) = (   0.0759402  -0.0087688   0.0000000), wk =   0.0277778
        k(   59) = (   0.0759402   0.0087688   0.0000000), wk =   0.0277778
        k(   60) = (   0.0759402   0.0263065   0.0000000), wk =   0.0277778
        k(   61) = (   0.0759402   0.0438441   0.0000000), wk =   0.0277778
        k(   62) = (   0.0759402  -0.1490700   0.0000000), wk =   0.0277778
        k(   63) = (   0.0759402  -0.1315323   0.0000000), wk =   0.0277778
        k(   64) = (   0.0759402  -0.1139947   0.0000000), wk =   0.0277778
        k(   65) = (   0.0759402  -0.0964570   0.0000000), wk =   0.0277778
        k(   66) = (   0.0759402  -0.0789194   0.0000000), wk =   0.0277778
        k(   67) = (   0.0759402  -0.0613817   0.0000000), wk =   0.0277778
        k(   68) = (  -0.0911283   0.0526129   0.0000000), wk =   0.0138889
        k(   69) = (  -0.0911283   0.0701506   0.0000000), wk =   0.0277778
        k(   70) = (  -0.0911283   0.0876882   0.0000000), wk =   0.0277778
        k(   71) = (  -0.0911283   0.1052259   0.0000000), wk =   0.0277778
        k(   72) = (  -0.0911283   0.1227635   0.0000000), wk =   0.0277778
        k(   73) = (  -0.0911283   0.1403011   0.0000000), wk =   0.0277778
        k(   74) = (  -0.0911283  -0.0526129   0.0000000), wk =   0.0138889

     Initial potential from superposition of free atoms

     starting charge  179.99640, renormalised to  180.00000

     negative rho (up, down):  3.864E-04 0.000E+00

     %%%%%%%%%%%%%%%%%%%%%%%%%%%%%%%%%%%%%%%%%%%%%%%%%%%%%%%%%%%%%%%%%%%%%%%%
     %                                                                      %
     % You are using vdW-DF, which was implemented by the Thonhauser group. %
     % Please cite the following two papers that made this development      %
     % possible and the two reviews that describe the various versions:     %
     %                                                                      %
     %   T. Thonhauser et al., PRL 115, 136402 (2015).                      %
     %   T. Thonhauser et al., PRB 76, 125112 (2007).                       %
     %   K. Berland et al., Rep. Prog. Phys. 78, 066501 (2015).             %
     %   D.C. Langreth et al., J. Phys.: Condens. Matter 21, 084203 (2009). %
     %                                                                      %
     %                                                                      %
     % If you are calculating the stress with vdW-DF, please also cite:     %
     %                                                                      %
     %   R. Sabatini et al., J. Phys.: Condens. Matter 24, 424209 (2012).   %
     %                                                                      %
     %%%%%%%%%%%%%%%%%%%%%%%%%%%%%%%%%%%%%%%%%%%%%%%%%%%%%%%%%%%%%%%%%%%%%%%%

     Adding external electric field

     Computed dipole along edir(3) :
        Dipole                0.0000 Ry au,          0.0000 Debye
        Dipole field          0.0000 Ry au,

        Potential amp.       -0.0000 Ry
        Total length         45.1039 bohr

     Starting wfcs are  120 randomized atomic wfcs

     Self-consistent Calculation

     iteration #  1     ecut=    55.12 Ry     beta= 0.10
     Davidson diagonalization with overlap
     ethr =  1.00E-02,  avg # of iterations =  2.9

[...]

     total energy              =   -2151.41605526 Ry
     estimated scf accuracy    <       2.06297390 Ry

[...]

     iteration #  8     ecut=    55.12 Ry     beta= 0.10
     Davidson diagonalization with overlap
     c_bands:  1 eigenvalues not converged
     ethr =  6.83E-06,  avg # of iterations =  6.9

[...]

     total energy              =   -2151.55464042 Ry
     estimated scf accuracy    <       0.00001281 Ry

     iteration # 15     ecut=    55.12 Ry     beta= 0.10
     Davidson diagonalization with overlap
     ethr =  7.12E-09,  avg # of iterations =  3.0

[...]

     Adding external electric field

     Computed dipole along edir(3) :
        Dipole                0.0195 Ry au,          0.0497 Debye
        Dipole field          0.0001 Ry au,

        Potential amp.       -0.0051 Ry
        Total length         45.1039 bohr

     End of self-consistent calculation

          k = 0.0000 0.0000 0.0000 ( 29785 PWs)   bands (ev):

   -77.6786 -77.5873 -77.5873 -77.5872 -77.5560 -77.4879 -77.4852 -77.4852
   -77.4852 -77.4183 -77.4183 -77.4182 -39.9731 -39.9730 -39.9730 -39.8667
   -39.7637 -39.7637 -39.7637 -39.6185 -39.6185 -39.6185 -39.3927 -39.2789
   -39.2789 -39.2789 -39.2374 -39.2374 -39.2373 -39.2062 -39.2061 -39.2061
   -39.0345 -39.0345 -39.0345 -38.9588 -38.9588 -38.9406 -38.9403 -38.9403
   -38.9403 -38.8694 -38.8694 -38.8694 -38.7287 -38.7287 -38.6717 -38.6717
    -6.3688  -4.3523  -3.8379  -3.4964  -3.4964  -3.4964  -3.1555  -3.1555
    -3.1555  -2.4844  -2.4844  -2.4844  -2.2259  -2.2259  -2.2259  -0.6835
    -0.6835  -0.6835   0.4453   0.4453   0.4453   0.4944   0.8220   0.9657
     0.9657   1.4133   1.4133   1.4134   1.4357   1.4357   1.5561   1.5561
     1.5561   1.8014   1.8014   2.0962   3.1613   3.1613   3.1613   3.3280
     3.5299   3.5299   3.5299   4.1086   4.1086   4.6487   4.6487   4.6487
     4.6594   4.6594   5.0894   5.0894   5.0895   5.8951   5.8951   5.8951
     6.1467   6.1467   6.7816   6.7819

[...]

          k = 0.0759-0.0614 0.0000 ( 29774 PWs)   bands (ev):

[...]

          k =-0.0911 0.0526 0.0000 ( 29746 PWs)   bands (ev):

[...]

          k =-0.0911-0.0526 0.0000 ( 29746 PWs)   bands (ev):

   -77.6334 -77.6334 -77.5874 -77.5873 -77.5204 -77.5203 -77.4852 -77.4852
   -77.4532 -77.4532 -77.4183 -77.4183 -39.7997 -39.7996 -39.7243 -39.7243
   -39.6437 -39.6437 -39.5628 -39.5627 -39.4883 -39.4882 -39.4495 -39.4495
   -39.2448 -39.2448 -39.2073 -39.2073 -39.1938 -39.1938 -39.1745 -39.1745
   -39.1553 -39.1553 -39.1209 -39.1209 -39.0845 -39.0844 -39.0780 -39.0780
   -38.9623 -38.9622 -38.9216 -38.9216 -38.8348 -38.8348 -38.7713 -38.7713
    -4.3330  -4.3330  -2.7429  -2.7429  -2.2338  -2.2338  -2.2153  -2.2153
    -2.0935  -2.0935  -1.4027  -1.4026  -1.0476  -1.0476  -0.8907  -0.8907
    -0.5110  -0.5109  -0.4478  -0.4478   0.0260   0.0260   0.5813   0.5813
     0.8739   0.8739   0.9499   0.9499   0.9788   0.9788   1.0736   1.0736
     1.3859   1.3860   1.5224   1.5224   1.5705   1.5705   1.9542   1.9542
     2.8115   2.8115   2.8767   2.8767   3.0951   3.0951   3.4539   3.4539
     3.9063   3.9064   3.9123   3.9124   4.0874   4.0874   4.4104   4.4105
     4.8704   4.8704   5.3601   5.3601

     the Fermi energy is     2.9184 ev

!    total energy              =   -2151.55463899 Ry
     estimated scf accuracy    <       0.00000105 Ry
     smearing contrib. (-TS)   =      -0.05451435 Ry
     internal energy E=F+TS    =   -2151.50012464 Ry

     The total energy is F=E-TS. E is the sum of the following terms:
     one-electron contribution =  -18559.42708754 Ry
     hartree contribution      =    9263.76196302 Ry
     xc contribution           =    -491.54517786 Ry
     ewald contribution        =    7635.71017662 Ry
     electric field correction =       0.00000111 Ry

     convergence has been achieved in  15 iterations

     negative rho (up, down):  7.682E-05 0.000E+00

     Forces acting on atoms (cartesian axes, Ry/au):

     atom    1 type  1   force =    -0.00000333    0.00001594    0.01432656
     atom    2 type  1   force =     0.00000319    0.00000172    0.01434021
     atom    3 type  1   force =    -0.00001229   -0.00000636    0.01432667
     atom    4 type  1   force =     0.00001199   -0.00001009    0.01432495
     atom    5 type  1   force =    -0.00000025   -0.00000170   -0.01203538
     atom    6 type  1   force =     0.00000080    0.00000183   -0.01203618
     atom    7 type  1   force =     0.00000319    0.00000116   -0.01203227
     atom    8 type  1   force =    -0.00000208    0.00000019   -0.01202827
     atom    9 type  1   force =    -0.00000708    0.00000603   -0.00229592
     atom   10 type  1   force =     0.00000669   -0.00000848   -0.00229350
     atom   11 type  1   force =    -0.00001127    0.00000391   -0.00230819
     atom   12 type  1   force =     0.00001046   -0.00000415   -0.00228868

     Total force =     0.037704     Total SCF correction =     0.004848
     SCF correction compared to forces is large: reduce conv_thr to get better values

     Writing output data file ./Re750/Re750_beef.save/

     General routines

     Parallel routines

   This run was terminated on:   0:30: 2  22Jun2022

   JOB DONE.