     Program PWSCF v.6.6 starts on 22Jun2022 at  4:34:49

     R & G space division:  proc/nbgrp/npool/nimage =      37
     Fft bands division:     nmany     =       1
     Reading input from Sc-750.in
Warning: card &CELL ignored
Warning: card / ignored

     Current dimensions of program PWSCF are:
     Max number of different atomic species (ntypx) = 10
     Max number of k-points (npk) =  40000
     Max angular momentum in pseudopotentials (lmaxx) =  3
     Presently stress not available with electric field and gates

     Message from routine cell_base_init:
     DEPRECATED: use true lattice parameter, not A to a.u. conversion factor
     file Sc.pbe-spn-rrkjus_psl.1.0.0.UPF: wavefunction(s)  3S 3P renormalized

     IMPORTANT: XC functional enforced from input :
     Exchange-correlation= BEEF-VDW
                           (   1   4  43  14   2   0   0)
     Any further DFT definition will be discarded
     Please, verify this is what you really want

     Subspace diagonalization in iterative solution of the eigenvalue problem:
     a serial algorithm will be used

     Found symmetry operation: I + (  0.5000  0.0000  0.0000)
     This is a supercell, fractional translations are disabled

     bravais-lattice index     =            0
     lattice parameter (alat)  =       1.8897  a.u.
     unit-cell volume          =    6116.8010 (a.u.)^3
     number of atoms/cell      =           12
     number of atomic types    =            1
     number of electrons       =       132.00
     number of Kohn-Sham states=           79
     kinetic-energy cutoff     =      55.1240  Ry
     charge density cutoff     =     551.2396  Ry
     convergence threshold     =      1.0E-05
     mixing beta               =       0.1000
     number of iterations used =           10  plain     mixing
     Exchange-correlation= BEEF-VDW
                           (   1   4  43  14   2   0   0)

     celldm(1)=   1.889726  celldm(2)=   0.000000  celldm(3)=   0.000000
     celldm(4)=   0.000000  celldm(5)=   0.000000  celldm(6)=   0.000000

     crystal axes: (cart. coord. in units of alat)
               a(1) = (   6.437465   0.000000   0.000000 )
               a(2) = (   3.218732   5.575008   0.000000 )
               a(3) = (   0.000000   0.000000  25.256168 )

     reciprocal axes: (cart. coord. in units 2 pi/alat)
               b(1) = (  0.155341 -0.089686  0.000000 )
               b(2) = (  0.000000  0.179372  0.000000 )
               b(3) = (  0.000000  0.000000  0.039594 )

     PseudoPot. # 1 for Sc read from file:
     ../pseudo/Sc.pbe-spn-rrkjus_psl.1.0.0.UPF
     MD5 check sum: f739f74c200e509e5c24cbe053202ee5
     Pseudo is Ultrasoft + core correction, Zval = 11.0
     Generated using "atomic" code by A. Dal Corso v.6.2.2
     Using radial grid of 1173 points,  6 beta functions with:
                l(1) =   0
                l(2) =   0
                l(3) =   1
                l(4) =   1
                l(5) =   2
                l(6) =   2
     Q(r) pseudized with 0 coefficients

     atomic species   valence    mass     pseudopotential
        Sc            11.00    44.95591     Sc( 1.00)

     No symmetry found

   Cartesian axes

     site n.     atom                  positions (alat units)
         1           Sc  tau(   1) = (   1.6093665   0.9291682  10.0000004  )
         2           Sc  tau(   2) = (   4.8280990   0.9291682  10.0000004  )
         3           Sc  tau(   3) = (   3.2187325   3.7166722  10.0000004  )
         4           Sc  tau(   4) = (   6.4374650   3.7166722  10.0000004  )
         5           Sc  tau(   5) = (   6.4374645   1.8583358  12.6280840  )
         6           Sc  tau(   6) = (   3.2187320   1.8583358  12.6280840  )
         7           Sc  tau(   7) = (   8.0468305   4.6458398  12.6280840  )
         8           Sc  tau(   8) = (   4.8280980   4.6458398  12.6280840  )
         9           Sc  tau(   9) = (   0.0000000   0.0000000  15.2561676  )
        10           Sc  tau(  10) = (   3.2187325   0.0000000  15.2561676  )
        11           Sc  tau(  11) = (   1.6093660   2.7875040  15.2561676  )
        12           Sc  tau(  12) = (   4.8280985   2.7875040  15.2561676  )

     number of k points=    74  Fermi-Dirac smearing, width (Ry)=  0.0100
                       cart. coord. in units 2pi/alat
        k(    1) = (   0.0000000   0.0000000   0.0000000), wk =   0.0138889
        k(    2) = (   0.0000000   0.0149477   0.0000000), wk =   0.0277778
        k(    3) = (   0.0000000   0.0298953   0.0000000), wk =   0.0277778
        k(    4) = (   0.0000000   0.0448430   0.0000000), wk =   0.0277778
        k(    5) = (   0.0000000   0.0597906   0.0000000), wk =   0.0277778
        k(    6) = (   0.0000000   0.0747383   0.0000000), wk =   0.0277778
        k(    7) = (   0.0000000  -0.0896860   0.0000000), wk =   0.0138889
        k(    8) = (   0.0129451  -0.0074738   0.0000000), wk =   0.0277778
        k(    9) = (   0.0129451   0.0074738   0.0000000), wk =   0.0277778
        k(   10) = (   0.0129451   0.0224215   0.0000000), wk =   0.0277778
        k(   11) = (   0.0129451   0.0373692   0.0000000), wk =   0.0277778
        k(   12) = (   0.0129451   0.0523168   0.0000000), wk =   0.0277778
        k(   13) = (   0.0129451   0.0672645   0.0000000), wk =   0.0277778
        k(   14) = (   0.0129451  -0.0971598   0.0000000), wk =   0.0277778
        k(   15) = (   0.0129451  -0.0822121   0.0000000), wk =   0.0277778
        k(   16) = (   0.0129451  -0.0672645   0.0000000), wk =   0.0277778
        k(   17) = (   0.0129451  -0.0523168   0.0000000), wk =   0.0277778
        k(   18) = (   0.0129451  -0.0373692   0.0000000), wk =   0.0277778
        k(   19) = (   0.0129451  -0.0224215   0.0000000), wk =   0.0277778
        k(   20) = (   0.0258901  -0.0149477   0.0000000), wk =   0.0277778
        k(   21) = (   0.0258901   0.0000000   0.0000000), wk =   0.0277778
        k(   22) = (   0.0258901   0.0149477   0.0000000), wk =   0.0277778
        k(   23) = (   0.0258901   0.0298953   0.0000000), wk =   0.0277778
        k(   24) = (   0.0258901   0.0448430   0.0000000), wk =   0.0277778
        k(   25) = (   0.0258901   0.0597906   0.0000000), wk =   0.0277778
        k(   26) = (   0.0258901  -0.1046336   0.0000000), wk =   0.0277778
        k(   27) = (   0.0258901  -0.0896860   0.0000000), wk =   0.0277778
        k(   28) = (   0.0258901  -0.0747383   0.0000000), wk =   0.0277778
        k(   29) = (   0.0258901  -0.0597906   0.0000000), wk =   0.0277778
        k(   30) = (   0.0258901  -0.0448430   0.0000000), wk =   0.0277778
        k(   31) = (   0.0258901  -0.0298953   0.0000000), wk =   0.0277778
        k(   32) = (   0.0388352  -0.0224215   0.0000000), wk =   0.0277778
        k(   33) = (   0.0388352  -0.0074738   0.0000000), wk =   0.0277778
        k(   34) = (   0.0388352   0.0074738   0.0000000), wk =   0.0277778
        k(   35) = (   0.0388352   0.0224215   0.0000000), wk =   0.0277778
        k(   36) = (   0.0388352   0.0373692   0.0000000), wk =   0.0277778
        k(   37) = (   0.0388352   0.0523168   0.0000000), wk =   0.0277778
        k(   38) = (   0.0388352  -0.1121075   0.0000000), wk =   0.0277778
        k(   39) = (   0.0388352  -0.0971598   0.0000000), wk =   0.0277778
        k(   40) = (   0.0388352  -0.0822121   0.0000000), wk =   0.0277778
        k(   41) = (   0.0388352  -0.0672645   0.0000000), wk =   0.0277778
        k(   42) = (   0.0388352  -0.0523168   0.0000000), wk =   0.0277778
        k(   43) = (   0.0388352  -0.0373692   0.0000000), wk =   0.0277778
        k(   44) = (   0.0517802  -0.0298953   0.0000000), wk =   0.0277778
        k(   45) = (   0.0517802  -0.0149477   0.0000000), wk =   0.0277778
        k(   46) = (   0.0517802   0.0000000   0.0000000), wk =   0.0277778
        k(   47) = (   0.0517802   0.0149477   0.0000000), wk =   0.0277778
        k(   48) = (   0.0517802   0.0298953   0.0000000), wk =   0.0277778
        k(   49) = (   0.0517802   0.0448430   0.0000000), wk =   0.0277778
        k(   50) = (   0.0517802  -0.1195813   0.0000000), wk =   0.0277778
        k(   51) = (   0.0517802  -0.1046336   0.0000000), wk =   0.0277778
        k(   52) = (   0.0517802  -0.0896860   0.0000000), wk =   0.0277778
        k(   53) = (   0.0517802  -0.0747383   0.0000000), wk =   0.0277778
        k(   54) = (   0.0517802  -0.0597906   0.0000000), wk =   0.0277778
        k(   55) = (   0.0517802  -0.0448430   0.0000000), wk =   0.0277778
        k(   56) = (   0.0647253  -0.0373691   0.0000000), wk =   0.0277778
        k(   57) = (   0.0647253  -0.0224215   0.0000000), wk =   0.0277778
        k(   58) = (   0.0647253  -0.0074738   0.0000000), wk =   0.0277778
        k(   59) = (   0.0647253   0.0074738   0.0000000), wk =   0.0277778
        k(   60) = (   0.0647253   0.0224215   0.0000000), wk =   0.0277778
        k(   61) = (   0.0647253   0.0373692   0.0000000), wk =   0.0277778
        k(   62) = (   0.0647253  -0.1270551   0.0000000), wk =   0.0277778
        k(   63) = (   0.0647253  -0.1121075   0.0000000), wk =   0.0277778
        k(   64) = (   0.0647253  -0.0971598   0.0000000), wk =   0.0277778
        k(   65) = (   0.0647253  -0.0822121   0.0000000), wk =   0.0277778
        k(   66) = (   0.0647253  -0.0672645   0.0000000), wk =   0.0277778
        k(   67) = (   0.0647253  -0.0523168   0.0000000), wk =   0.0277778
        k(   68) = (  -0.0776703   0.0448430   0.0000000), wk =   0.0138889
        k(   69) = (  -0.0776703   0.0597906   0.0000000), wk =   0.0277778
        k(   70) = (  -0.0776703   0.0747383   0.0000000), wk =   0.0277778
        k(   71) = (  -0.0776703   0.0896860   0.0000000), wk =   0.0277778
        k(   72) = (  -0.0776703   0.1046336   0.0000000), wk =   0.0277778
        k(   73) = (  -0.0776703   0.1195813   0.0000000), wk =   0.0277778
        k(   74) = (  -0.0776703  -0.0448430   0.0000000), wk =   0.0138889

     Check: negative core charge=   -0.000002

     Initial potential from superposition of free atoms

     starting charge  131.96926, renormalised to  132.00000

     negative rho (up, down):  5.560E-04 0.000E+00

     %%%%%%%%%%%%%%%%%%%%%%%%%%%%%%%%%%%%%%%%%%%%%%%%%%%%%%%%%%%%%%%%%%%%%%%%
     %                                                                      %
     % You are using vdW-DF, which was implemented by the Thonhauser group. %
     % Please cite the following two papers that made this development      %
     % possible and the two reviews that describe the various versions:     %
     %                                                                      %
     %   T. Thonhauser et al., PRL 115, 136402 (2015).                      %
     %   T. Thonhauser et al., PRB 76, 125112 (2007).                       %
     %   K. Berland et al., Rep. Prog. Phys. 78, 066501 (2015).             %
     %   D.C. Langreth et al., J. Phys.: Condens. Matter 21, 084203 (2009). %
     %                                                                      %
     %                                                                      %
     % If you are calculating the stress with vdW-DF, please also cite:     %
     %                                                                      %
     %   R. Sabatini et al., J. Phys.: Condens. Matter 24, 424209 (2012).   %
     %                                                                      %
     %%%%%%%%%%%%%%%%%%%%%%%%%%%%%%%%%%%%%%%%%%%%%%%%%%%%%%%%%%%%%%%%%%%%%%%%

     Adding external electric field

     Computed dipole along edir(3) :
        Dipole                0.0000 Ry au,          0.0000 Debye
        Dipole field          0.0000 Ry au,

        Potential amp.       -0.0000 Ry
        Total length         46.5341 bohr

     Starting wfcs are  120 randomized atomic wfcs

     Self-consistent Calculation

     iteration #  1     ecut=    55.12 Ry     beta= 0.10
     Davidson diagonalization with overlap
     ethr =  1.00E-02,  avg # of iterations =  2.0

[...]

     total energy              =   -1180.84611620 Ry
     estimated scf accuracy    <       5.14045270 Ry

[...]

     iteration #  4     ecut=    55.12 Ry     beta= 0.10
     Davidson diagonalization with overlap
     c_bands:  3 eigenvalues not converged
     c_bands:  3 eigenvalues not converged
     c_bands:  1 eigenvalues not converged
     c_bands:  4 eigenvalues not converged
     c_bands:  3 eigenvalues not converged
     c_bands:  5 eigenvalues not converged
     c_bands:  3 eigenvalues not converged
     ethr =  4.89E-04,  avg # of iterations = 13.6

[...]

     iteration # 29     ecut=    55.12 Ry     beta= 0.10
     Davidson diagonalization with overlap
     ethr =  8.38E-08,  avg # of iterations =  3.5

[...]

     total energy              =   -1182.03440318 Ry
     estimated scf accuracy    <       0.00002095 Ry

     iteration # 34     ecut=    55.12 Ry     beta= 0.10
     Davidson diagonalization with overlap
     c_bands:  4 eigenvalues not converged
     c_bands:  1 eigenvalues not converged
     ethr =  1.59E-08,  avg # of iterations =  6.2

[...]

     Adding external electric field

     Computed dipole along edir(3) :
        Dipole                0.0072 Ry au,          0.0183 Debye
        Dipole field          0.0000 Ry au,

        Potential amp.       -0.0014 Ry
        Total length         46.5341 bohr

     End of self-consistent calculation

          k = 0.0000 0.0000 0.0000 ( 42287 PWs)   bands (ev):

   -49.4530 -49.4518 -49.4068 -49.4067 -49.4065 -49.4065 -49.4063 -49.4061
   -48.9990 -48.9545 -48.9543 -48.9540 -28.1681 -28.1680 -28.1679 -28.1557
   -28.1555 -28.1555 -28.1478 -28.1063 -28.0817 -28.0816 -28.0813 -28.0573
   -28.0571 -28.0569 -27.9037 -27.9036 -27.9035 -27.9010 -27.9010 -27.9009
   -27.8241 -27.8240 -27.8232 -27.8231 -27.7161 -27.7160 -27.7158 -27.5578
   -27.5341 -27.5339 -27.5336 -27.4778 -27.4776 -27.4776 -27.4010 -27.4009
    -4.2555  -3.2129  -1.8929  -0.9909  -0.9908  -0.9908  -0.8804  -0.8803
    -0.8802  -0.6254  -0.6253  -0.6253  -0.0591  -0.0590  -0.0590   0.2001
     0.2002   0.2003   0.5805   0.5964   1.0068   1.0904   1.0905   1.0905
     1.1448   1.1449   1.1449   1.7297   1.7729   1.7740   1.7793

[...]

          k = 0.0647-0.0523 0.0000 ( 42281 PWs)   bands (ev):

[...]

          k =-0.0777 0.0448 0.0000 ( 42282 PWs)   bands (ev):

[...]

          k =-0.0777-0.0448 0.0000 ( 42282 PWs)   bands (ev):

   -49.4300 -49.4298 -49.4293 -49.4290 -49.4068 -49.4066 -49.4065 -49.4061
   -48.9768 -48.9766 -48.9544 -48.9541 -28.1075 -28.1073 -28.1042 -28.1039
   -28.0934 -28.0931 -28.0881 -28.0879 -28.0704 -28.0702 -28.0648 -28.0645
   -27.9985 -27.9984 -27.9917 -27.9916 -27.9700 -27.9697 -27.9676 -27.9673
   -27.8642 -27.8639 -27.8624 -27.8621 -27.6588 -27.6585 -27.5639 -27.5637
   -27.5430 -27.5428 -27.5411 -27.5409 -27.5314 -27.5311 -27.4397 -27.4394
    -2.9459  -2.9457  -1.9868  -1.9866  -1.0244  -1.0244  -0.7913  -0.7911
    -0.4822  -0.4820   0.2479   0.2479   0.2490   0.2491   0.2818   0.2819
     0.5055   0.5056   0.5779   0.5779   0.6165   0.6165   0.6819   0.6821
     0.9062   0.9063   0.9836   0.9836   1.0889   1.0890   1.2836

     the Fermi energy is     0.5015 ev

!    total energy              =   -1182.03440690 Ry
     estimated scf accuracy    <       0.00000452 Ry
     smearing contrib. (-TS)   =      -0.11910498 Ry
     internal energy E=F+TS    =   -1181.91530192 Ry

     The total energy is F=E-TS. E is the sum of the following terms:
     one-electron contribution =   -7105.96645374 Ry
     hartree contribution      =    3537.44182635 Ry
     xc contribution           =    -217.58842422 Ry
     ewald contribution        =    2604.19774959 Ry
     electric field correction =       0.00000011 Ry

     convergence has been achieved in  34 iterations

     negative rho (up, down):  3.586E-04 0.000E+00

     Forces acting on atoms (cartesian axes, Ry/au):

     atom    1 type  1   force =    -0.00005351   -0.00004528   -0.00080316
     atom    2 type  1   force =     0.00003639   -0.00003349   -0.00078187
     atom    3 type  1   force =    -0.00002278    0.00005384   -0.00084371
     atom    4 type  1   force =     0.00003095   -0.00001831   -0.00076646
     atom    5 type  1   force =     0.00005366    0.00003987   -0.00003483
     atom    6 type  1   force =    -0.00005534   -0.00005843    0.00002244
     atom    7 type  1   force =    -0.00008787   -0.00001265   -0.00005808
     atom    8 type  1   force =     0.00008672    0.00003124    0.00002053
     atom    9 type  1   force =     0.00004162   -0.00002933    0.00078432
     atom   10 type  1   force =    -0.00006335   -0.00003022    0.00086797
     atom   11 type  1   force =     0.00001452    0.00001871    0.00078341
     atom   12 type  1   force =     0.00001898    0.00008405    0.00080945

     Total force =     0.002292     Total SCF correction =     0.004942
     SCF correction compared to forces is large: reduce conv_thr to get better values

     Writing output data file ./Sc750/Sc750_beef.save/

     General routines

     Parallel routines

   This run was terminated on:   8:11:47  22Jun2022

   JOB DONE.