     Program PWSCF v.6.6 starts on 22Jun2022 at  8:12: 5

     R & G space division:  proc/nbgrp/npool/nimage =      37
     Fft bands division:     nmany     =       1
     Reading input from Ta-750.in
Warning: card &CELL ignored
Warning: card / ignored

     Current dimensions of program PWSCF are:
     Max number of different atomic species (ntypx) = 10
     Max number of k-points (npk) =  40000
     Max angular momentum in pseudopotentials (lmaxx) =  3
     Presently stress not available with electric field and gates

     Message from routine cell_base_init:
     DEPRECATED: use true lattice parameter, not A to a.u. conversion factor
     file Ta.pbe-spfn-rrkjus_psl.1.0.0.UPF: wavefunction(s)  5S 5P renormalized

     IMPORTANT: XC functional enforced from input :
     Exchange-correlation= BEEF-VDW
                           (   1   4  43  14   2   0   0)
     Any further DFT definition will be discarded
     Please, verify this is what you really want

     Subspace diagonalization in iterative solution of the eigenvalue problem:
     a serial algorithm will be used

     Found symmetry operation: I + ( -0.5000  0.0000  0.0000)
     This is a supercell, fractional translations are disabled

     bravais-lattice index     =            0
     lattice parameter (alat)  =       1.8897  a.u.
     unit-cell volume          =    5185.0493 (a.u.)^3
     number of atoms/cell      =           12
     number of atomic types    =            1
     number of electrons       =       324.00
     number of Kohn-Sham states=          194
     kinetic-energy cutoff     =      55.1240  Ry
     charge density cutoff     =     551.2396  Ry
     convergence threshold     =      1.0E-05
     mixing beta               =       0.1000
     number of iterations used =           10  plain     mixing
     Exchange-correlation= BEEF-VDW
                           (   1   4  43  14   2   0   0)

     celldm(1)=   1.889726  celldm(2)=   0.000000  celldm(3)=   0.000000
     celldm(4)=   0.000000  celldm(5)=   0.000000  celldm(6)=   0.000000

     crystal axes: (cart. coord. in units of alat)
               a(1) = (   5.972022   0.000000   0.000000 )
               a(2) = (   2.986011   5.171923   0.000000 )
               a(3) = (   0.000000   0.000000  24.876136 )

     reciprocal axes: (cart. coord. in units 2 pi/alat)
               b(1) = (  0.167447 -0.096676  0.000000 )
               b(2) = (  0.000000  0.193352  0.000000 )
               b(3) = (  0.000000  0.000000  0.040199 )

     PseudoPot. # 1 for Ta read from file:
     ../pseudo/Ta.pbe-spfn-rrkjus_psl.1.0.0.UPF
     MD5 check sum: 39d7d349fe394e56adf8454eb9315fbb
     Pseudo is Ultrasoft + core correction, Zval = 27.0
     Generated using "atomic" code by A. Dal Corso v.6.3
     Using radial grid of 1273 points,  8 beta functions with:
                l(1) =   0
                l(2) =   0
                l(3) =   1
                l(4) =   1
                l(5) =   2
                l(6) =   2
                l(7) =   3
                l(8) =   3
     Q(r) pseudized with 0 coefficients

     atomic species   valence    mass     pseudopotential
        Ta            27.00   180.94788     Ta( 1.00)

     No symmetry found

   Cartesian axes

     site n.     atom                  positions (alat units)
         1           Ta  tau(   1) = (   1.4930058   0.8619873  10.0000002  )
         2           Ta  tau(   2) = (   4.4790168   0.8619873  10.0000002  )
         3           Ta  tau(   3) = (   2.9860113   3.4479488  10.0000002  )
         4           Ta  tau(   4) = (   5.9720223   3.4479488  10.0000002  )
         5           Ta  tau(   5) = (   5.9720217   1.7239742  12.4380680  )
         6           Ta  tau(   6) = (   2.9860107   1.7239742  12.4380680  )
         7           Ta  tau(   7) = (   7.4650272   4.3099357  12.4380680  )
         8           Ta  tau(   8) = (   4.4790162   4.3099357  12.4380680  )
         9           Ta  tau(   9) = (  -0.0000078  -0.0000093  14.8584936  )
        10           Ta  tau(  10) = (   2.9860122   0.0000093  14.8585633  )
        11           Ta  tau(  11) = (   1.4930276   2.5859605  14.8585409  )
        12           Ta  tau(  12) = (   4.4789911   2.5859475  14.8585036  )

     number of k points=    74  Fermi-Dirac smearing, width (Ry)=  0.0100
                       cart. coord. in units 2pi/alat
        k(    1) = (   0.0000000   0.0000000   0.0000000), wk =   0.0138889
        k(    2) = (   0.0000000   0.0161126   0.0000000), wk =   0.0277778
        k(    3) = (   0.0000000   0.0322253   0.0000000), wk =   0.0277778
        k(    4) = (   0.0000000   0.0483379   0.0000000), wk =   0.0277778
        k(    5) = (   0.0000000   0.0644506   0.0000000), wk =   0.0277778
        k(    6) = (   0.0000000   0.0805632   0.0000000), wk =   0.0277778
        k(    7) = (   0.0000000  -0.0966758   0.0000000), wk =   0.0138889
        k(    8) = (   0.0139540  -0.0080563   0.0000000), wk =   0.0277778
        k(    9) = (   0.0139540   0.0080563   0.0000000), wk =   0.0277778
        k(   10) = (   0.0139540   0.0241690   0.0000000), wk =   0.0277778
        k(   11) = (   0.0139540   0.0402816   0.0000000), wk =   0.0277778
        k(   12) = (   0.0139540   0.0563942   0.0000000), wk =   0.0277778
        k(   13) = (   0.0139540   0.0725069   0.0000000), wk =   0.0277778
        k(   14) = (   0.0139540  -0.1047322   0.0000000), wk =   0.0277778
        k(   15) = (   0.0139540  -0.0886195   0.0000000), wk =   0.0277778
        k(   16) = (   0.0139540  -0.0725069   0.0000000), wk =   0.0277778
        k(   17) = (   0.0139540  -0.0563942   0.0000000), wk =   0.0277778
        k(   18) = (   0.0139540  -0.0402816   0.0000000), wk =   0.0277778
        k(   19) = (   0.0139540  -0.0241690   0.0000000), wk =   0.0277778
        k(   20) = (   0.0279079  -0.0161126   0.0000000), wk =   0.0277778
        k(   21) = (   0.0279079   0.0000000   0.0000000), wk =   0.0277778
        k(   22) = (   0.0279079   0.0161126   0.0000000), wk =   0.0277778
        k(   23) = (   0.0279079   0.0322253   0.0000000), wk =   0.0277778
        k(   24) = (   0.0279079   0.0483379   0.0000000), wk =   0.0277778
        k(   25) = (   0.0279079   0.0644506   0.0000000), wk =   0.0277778
        k(   26) = (   0.0279079  -0.1127885   0.0000000), wk =   0.0277778
        k(   27) = (   0.0279079  -0.0966758   0.0000000), wk =   0.0277778
        k(   28) = (   0.0279079  -0.0805632   0.0000000), wk =   0.0277778
        k(   29) = (   0.0279079  -0.0644506   0.0000000), wk =   0.0277778
        k(   30) = (   0.0279079  -0.0483379   0.0000000), wk =   0.0277778
        k(   31) = (   0.0279079  -0.0322253   0.0000000), wk =   0.0277778
        k(   32) = (   0.0418619  -0.0241690   0.0000000), wk =   0.0277778
        k(   33) = (   0.0418619  -0.0080563   0.0000000), wk =   0.0277778
        k(   34) = (   0.0418619   0.0080563   0.0000000), wk =   0.0277778
        k(   35) = (   0.0418619   0.0241690   0.0000000), wk =   0.0277778
        k(   36) = (   0.0418619   0.0402816   0.0000000), wk =   0.0277778
        k(   37) = (   0.0418619   0.0563942   0.0000000), wk =   0.0277778
        k(   38) = (   0.0418619  -0.1208448   0.0000000), wk =   0.0277778
        k(   39) = (   0.0418619  -0.1047322   0.0000000), wk =   0.0277778
        k(   40) = (   0.0418619  -0.0886195   0.0000000), wk =   0.0277778
        k(   41) = (   0.0418619  -0.0725069   0.0000000), wk =   0.0277778
        k(   42) = (   0.0418619  -0.0563942   0.0000000), wk =   0.0277778
        k(   43) = (   0.0418619  -0.0402816   0.0000000), wk =   0.0277778
        k(   44) = (   0.0558158  -0.0322253   0.0000000), wk =   0.0277778
        k(   45) = (   0.0558158  -0.0161126   0.0000000), wk =   0.0277778
        k(   46) = (   0.0558158   0.0000000   0.0000000), wk =   0.0277778
        k(   47) = (   0.0558158   0.0161126   0.0000000), wk =   0.0277778
        k(   48) = (   0.0558158   0.0322253   0.0000000), wk =   0.0277778
        k(   49) = (   0.0558158   0.0483379   0.0000000), wk =   0.0277778
        k(   50) = (   0.0558158  -0.1289011   0.0000000), wk =   0.0277778
        k(   51) = (   0.0558158  -0.1127885   0.0000000), wk =   0.0277778
        k(   52) = (   0.0558158  -0.0966758   0.0000000), wk =   0.0277778
        k(   53) = (   0.0558158  -0.0805632   0.0000000), wk =   0.0277778
        k(   54) = (   0.0558158  -0.0644506   0.0000000), wk =   0.0277778
        k(   55) = (   0.0558158  -0.0483379   0.0000000), wk =   0.0277778
        k(   56) = (   0.0697698  -0.0402816   0.0000000), wk =   0.0277778
        k(   57) = (   0.0697698  -0.0241690   0.0000000), wk =   0.0277778
        k(   58) = (   0.0697698  -0.0080563   0.0000000), wk =   0.0277778
        k(   59) = (   0.0697698   0.0080563   0.0000000), wk =   0.0277778
        k(   60) = (   0.0697698   0.0241690   0.0000000), wk =   0.0277778
        k(   61) = (   0.0697698   0.0402816   0.0000000), wk =   0.0277778
        k(   62) = (   0.0697698  -0.1369574   0.0000000), wk =   0.0277778
        k(   63) = (   0.0697698  -0.1208448   0.0000000), wk =   0.0277778
        k(   64) = (   0.0697698  -0.1047322   0.0000000), wk =   0.0277778
        k(   65) = (   0.0697698  -0.0886195   0.0000000), wk =   0.0277778
        k(   66) = (   0.0697698  -0.0725069   0.0000000), wk =   0.0277778
        k(   67) = (   0.0697698  -0.0563942   0.0000000), wk =   0.0277778
        k(   68) = (  -0.0837237   0.0483379   0.0000000), wk =   0.0138889
        k(   69) = (  -0.0837237   0.0644506   0.0000000), wk =   0.0277778
        k(   70) = (  -0.0837237   0.0805632   0.0000000), wk =   0.0277778
        k(   71) = (  -0.0837237   0.0966758   0.0000000), wk =   0.0277778
        k(   72) = (  -0.0837237   0.1127885   0.0000000), wk =   0.0277778
        k(   73) = (  -0.0837237   0.1289011   0.0000000), wk =   0.0277778
        k(   74) = (  -0.0837237  -0.0483379   0.0000000), wk =   0.0138889

     Initial potential from superposition of free atoms

     starting charge  323.98987, renormalised to  324.00000

     negative rho (up, down):  1.124E-04 0.000E+00

     %%%%%%%%%%%%%%%%%%%%%%%%%%%%%%%%%%%%%%%%%%%%%%%%%%%%%%%%%%%%%%%%%%%%%%%%
     %                                                                      %
     % You are using vdW-DF, which was implemented by the Thonhauser group. %
     % Please cite the following two papers that made this development      %
     % possible and the two reviews that describe the various versions:     %
     %                                                                      %
     %   T. Thonhauser et al., PRL 115, 136402 (2015).                      %
     %   T. Thonhauser et al., PRB 76, 125112 (2007).                       %
     %   K. Berland et al., Rep. Prog. Phys. 78, 066501 (2015).             %
     %   D.C. Langreth et al., J. Phys.: Condens. Matter 21, 084203 (2009). %
     %                                                                      %
     %                                                                      %
     % If you are calculating the stress with vdW-DF, please also cite:     %
     %                                                                      %
     %   R. Sabatini et al., J. Phys.: Condens. Matter 24, 424209 (2012).   %
     %                                                                      %
     %%%%%%%%%%%%%%%%%%%%%%%%%%%%%%%%%%%%%%%%%%%%%%%%%%%%%%%%%%%%%%%%%%%%%%%%

     Adding external electric field

     Computed dipole along edir(3) :
        Dipole               -0.0000 Ry au,         -0.0000 Debye
        Dipole field         -0.0000 Ry au,

        Potential amp.        0.0000 Ry
        Total length         45.8339 bohr

     Starting wfcs are  204 randomized atomic wfcs

     Self-consistent Calculation

     iteration #  1     ecut=    55.12 Ry     beta= 0.10
     Davidson diagonalization with overlap
     ethr =  1.00E-02,  avg # of iterations =  2.8

[...]

     total energy              =   -8183.12182431 Ry
     estimated scf accuracy    <       5.61569048 Ry

[...]

     iteration #  6     ecut=    55.12 Ry     beta= 0.10
     Davidson diagonalization with overlap
     c_bands:  1 eigenvalues not converged
     c_bands:  1 eigenvalues not converged
     c_bands:  2 eigenvalues not converged
     c_bands:  1 eigenvalues not converged
     ethr =  3.33E-05,  avg # of iterations = 10.4

[...]

     iteration # 10     ecut=    55.12 Ry     beta= 0.10
     Davidson diagonalization with overlap
     c_bands:  1 eigenvalues not converged
     c_bands:  1 eigenvalues not converged
     ethr =  6.37E-07,  avg # of iterations =  2.8

[...]

     total energy              =   -8183.61215653 Ry
     estimated scf accuracy    <       0.00004461 Ry

     iteration # 13     ecut=    55.12 Ry     beta= 0.10
     Davidson diagonalization with overlap
     ethr =  1.38E-08,  avg # of iterations =  2.2

[...]

     Adding external electric field

     Computed dipole along edir(3) :
        Dipole                0.0156 Ry au,          0.0395 Debye
        Dipole field          0.0000 Ry au,

        Potential amp.       -0.0035 Ry
        Total length         45.8339 bohr

     End of self-consistent calculation

          k = 0.0000 0.0000 0.0000 ( 35877 PWs)   bands (ev):

   -65.5024 -65.4865 -65.4343 -65.4343 -65.4343 -65.4318 -65.4318 -65.4318
   -65.4296 -65.3882 -65.3882 -65.3882 -32.1905 -32.1905 -32.1905 -32.1604
   -32.1224 -32.1224 -32.1224 -32.0579 -32.0579 -32.0579 -31.8757 -31.7693
   -31.7693 -31.7693 -31.7160 -31.7160 -31.7160 -31.5933 -31.5933 -31.5933
   -31.5170 -31.5169 -31.5169 -31.5045 -31.5045 -31.5045 -31.4598 -31.4332
   -31.4331 -31.4331 -31.3873 -31.3873 -31.3316 -31.3316 -31.2919 -31.2919
   -17.1643 -17.1613 -17.1599 -17.1599 -17.1599 -17.1576 -17.1575 -17.1575
   -17.1536 -17.1536 -17.1536 -17.1508 -17.1508 -17.1508 -17.1467 -17.1467
   -17.1467 -17.1440 -17.1440 -17.1440 -17.1380 -17.1380 -17.1360 -17.1360
   -17.1343 -17.1343 -17.1328 -17.1328 -17.1307 -17.1307 -17.1307 -17.1282
   -17.1282 -17.1282 -17.1207 -17.1188 -17.1188 -17.1188 -17.1181 -17.1161
   -17.1161 -17.1161 -17.0990 -17.0990 -17.0990 -17.0965 -17.0965 -17.0965
   -17.0843 -17.0803 -17.0802 -17.0802 -17.0779 -17.0779 -17.0779 -17.0712
   -17.0712 -17.0712 -17.0642 -17.0642 -17.0641 -17.0604 -17.0604 -17.0604
   -17.0588 -17.0583 -17.0583 -17.0564 -17.0494 -17.0449 -17.0449 -17.0448
   -17.0431 -17.0431 -17.0431 -17.0338 -17.0338 -17.0330 -17.0330 -17.0330
   -17.0294 -17.0294 -17.0293 -17.0209  -4.5797  -2.9565  -1.9093  -1.2158
    -1.2158  -1.2158  -1.0143  -1.0143  -1.0143  -0.3010  -0.3010  -0.3010
    -0.0763  -0.0763  -0.0763   1.1398   1.1398   1.1398   2.2018   2.4386
     2.4386   2.4386   2.6341   2.8160   2.9329   2.9329   2.9329   3.2196
     3.2196   3.3612   3.5253   3.5253   3.5788   3.5789   3.5789   3.7294
     3.7294   3.8871   3.8871   3.8872   4.6002   4.6002   4.6002   5.2652
     5.2652   5.2652   5.9910   5.9910   6.0424   6.0424   6.0424   6.3659
     6.3659   6.9446   7.0473   7.0493   7.0494   7.0494   7.4353   7.4353
     7.4354   7.7190

[...]

          k = 0.0698-0.0564 0.0000 ( 35852 PWs)   bands (ev):

[...]

          k =-0.0837 0.0483 0.0000 ( 35866 PWs)   bands (ev):

[...]

          k =-0.0837-0.0483 0.0000 ( 35866 PWs)   bands (ev):

   -65.4691 -65.4691 -65.4593 -65.4593 -65.4344 -65.4344 -65.4318 -65.4318
   -65.4082 -65.4082 -65.3882 -65.3881 -32.0533 -32.0533 -32.0477 -32.0477
   -32.0166 -32.0166 -31.9208 -31.9208 -31.9182 -31.9181 -31.8673 -31.8673
   -31.7401 -31.7401 -31.7074 -31.7073 -31.6892 -31.6891 -31.6812 -31.6812
   -31.6215 -31.6215 -31.6087 -31.6087 -31.6065 -31.6065 -31.4933 -31.4933
   -31.4750 -31.4750 -31.4456 -31.4456 -31.4187 -31.4187 -31.3609 -31.3609
   -17.1570 -17.1570 -17.1563 -17.1563 -17.1545 -17.1545 -17.1540 -17.1539
   -17.1492 -17.1492 -17.1480 -17.1480 -17.1470 -17.1470 -17.1465 -17.1465
   -17.1457 -17.1457 -17.1447 -17.1447 -17.1409 -17.1409 -17.1379 -17.1379
   -17.1354 -17.1353 -17.1329 -17.1328 -17.1328 -17.1328 -17.1304 -17.1304
   -17.1272 -17.1272 -17.1246 -17.1245 -17.1222 -17.1222 -17.1198 -17.1197
   -17.1038 -17.1038 -17.1015 -17.1014 -17.1007 -17.1007 -17.0984 -17.0983
   -17.0809 -17.0809 -17.0808 -17.0808 -17.0785 -17.0785 -17.0785 -17.0785
   -17.0693 -17.0693 -17.0661 -17.0661 -17.0607 -17.0607 -17.0570 -17.0570
   -17.0512 -17.0512 -17.0511 -17.0511 -17.0503 -17.0503 -17.0487 -17.0487
   -17.0475 -17.0475 -17.0462 -17.0462 -17.0418 -17.0418 -17.0402 -17.0402
   -17.0321 -17.0321 -17.0305 -17.0305  -2.7599  -2.7599  -1.3208  -1.3208
    -0.4649  -0.4649  -0.2324  -0.2324  -0.1063  -0.1063   0.7556   0.7556
     1.0613   1.0613   1.0684   1.0684   1.4321   1.4321   1.5581   1.5581
     1.7568   1.7569   2.1008   2.1008   2.1673   2.1674   2.3417   2.3417
     2.4955   2.4956   2.5888   2.5889   3.0903   3.0905   3.1912   3.1913
     3.2769   3.2770   4.0797   4.0798   4.3262   4.3263   4.7995   4.7996
     4.8437   4.8437   5.1120   5.1121   5.1279   5.1280   5.6053   5.6054
     5.7628   5.7629   5.7965   5.7965   6.5322   6.5323   6.6027   6.6027
     7.8498   7.8501

     the Fermi energy is     2.8868 ev

!    total energy              =   -8183.61216907 Ry
     estimated scf accuracy    <       0.00000766 Ry
     smearing contrib. (-TS)   =      -0.09054522 Ry
     internal energy E=F+TS    =   -8183.52162385 Ry

     The total energy is F=E-TS. E is the sum of the following terms:
     one-electron contribution =  -54075.39542048 Ry
     hartree contribution      =   27242.96734402 Ry
     xc contribution           =    -827.10795226 Ry
     ewald contribution        =   19476.01440428 Ry
     electric field correction =       0.00000059 Ry

     convergence has been achieved in  13 iterations

     negative rho (up, down):  3.716E-04 0.000E+00

     Forces acting on atoms (cartesian axes, Ry/au):

     atom    1 type  1   force =    -0.00000439    0.00002399    0.00125804
     atom    2 type  1   force =     0.00000243    0.00002230    0.00126830
     atom    3 type  1   force =    -0.00000747   -0.00002375    0.00124215
     atom    4 type  1   force =     0.00000384   -0.00002828    0.00125360
     atom    5 type  1   force =     0.00000691   -0.00000066   -0.00500619
     atom    6 type  1   force =    -0.00000319    0.00000229   -0.00502143
     atom    7 type  1   force =    -0.00000182   -0.00000259   -0.00500711
     atom    8 type  1   force =    -0.00000166    0.00000315   -0.00501277
     atom    9 type  1   force =    -0.00001105    0.00001945    0.00375939
     atom   10 type  1   force =     0.00001495    0.00001004    0.00376518
     atom   11 type  1   force =    -0.00000513   -0.00000502    0.00373889
     atom   12 type  1   force =     0.00000657   -0.00002091    0.00376194

     Total force =     0.012776     Total SCF correction =     0.037096
     SCF correction compared to forces is large: reduce conv_thr to get better values

     Writing output data file ./Ta750/Ta750_beef.save/

     General routines

     Parallel routines

   This run was terminated on:  12:55:29  22Jun2022

   JOB DONE.