     Program PWSCF v.6.6 starts on 22Jun2022 at 12:55:33

     R & G space division:  proc/nbgrp/npool/nimage =      37
     Fft bands division:     nmany     =       1
     Reading input from Tc-750.in
Warning: card &CELL ignored
Warning: card / ignored

     Current dimensions of program PWSCF are:
     Max number of different atomic species (ntypx) = 10
     Max number of k-points (npk) =  40000
     Max angular momentum in pseudopotentials (lmaxx) =  3
     Presently stress not available with electric field and gates

     Message from routine cell_base_init:
     DEPRECATED: use true lattice parameter, not A to a.u. conversion factor
     file Tc.pbe-spn-rrkjus_psl.0.3.0.UPF: wavefunction(s)  4S 4P renormalized

     IMPORTANT: XC functional enforced from input :
     Exchange-correlation= BEEF-VDW
                           (   1   4  43  14   2   0   0)
     Any further DFT definition will be discarded
     Please, verify this is what you really want

     Subspace diagonalization in iterative solution of the eigenvalue problem:
     a serial algorithm will be used

     Found symmetry operation: I + ( -0.5000  0.0000  0.0000)
     This is a supercell, fractional translations are disabled

     bravais-lattice index     =            0
     lattice parameter (alat)  =       1.8897  a.u.
     unit-cell volume          =    4301.6095 (a.u.)^3
     number of atoms/cell      =           12
     number of atomic types    =            1
     number of electrons       =       180.00
     number of Kohn-Sham states=          108
     kinetic-energy cutoff     =      55.1240  Ry
     charge density cutoff     =     551.2396  Ry
     convergence threshold     =      1.0E-05
     mixing beta               =       0.1000
     number of iterations used =           10  plain     mixing
     Exchange-correlation= BEEF-VDW
                           (   1   4  43  14   2   0   0)

     celldm(1)=   1.889726  celldm(2)=   0.000000  celldm(3)=   0.000000
     celldm(4)=   0.000000  celldm(5)=   0.000000  celldm(6)=   0.000000

     crystal axes: (cart. coord. in units of alat)
               a(1) = (   5.483647   0.000000   0.000000 )
               a(2) = (   2.741823   4.748977   0.000000 )
               a(3) = (   0.000000   0.000000  24.477379 )

     reciprocal axes: (cart. coord. in units 2 pi/alat)
               b(1) = (  0.182360 -0.105286  0.000000 )
               b(2) = (  0.000000  0.210572  0.000000 )
               b(3) = (  0.000000  0.000000  0.040854 )

     PseudoPot. # 1 for Tc read from file:
     ../pseudo/Tc.pbe-spn-rrkjus_psl.0.3.0.UPF
     MD5 check sum: 5f147c0bf103030af994b79b1f5562e4
     Pseudo is Ultrasoft + core correction, Zval = 15.0
     Generated using "atomic" code by A. Dal Corso v.6.2.2
     Using radial grid of 1231 points,  6 beta functions with:
                l(1) =   0
                l(2) =   0
                l(3) =   1
                l(4) =   1
                l(5) =   2
                l(6) =   2
     Q(r) pseudized with 0 coefficients

     atomic species   valence    mass     pseudopotential
        Tc            15.00    97.90721     Tc( 1.00)

     No symmetry found

   Cartesian axes

     site n.     atom                  positions (alat units)
         1           Tc  tau(   1) = (   1.3709119   0.7914963  10.0000007  )
         2           Tc  tau(   2) = (   4.1127354   0.7914963  10.0000007  )
         3           Tc  tau(   3) = (   2.7418234   3.1659848  10.0000007  )
         4           Tc  tau(   4) = (   5.4836469   3.1659848  10.0000007  )
         5           Tc  tau(   5) = (   5.4836466   1.5829922  12.2386895  )
         6           Tc  tau(   6) = (   2.7418231   1.5829922  12.2386895  )
         7           Tc  tau(   7) = (   6.8545581   3.9574807  12.2386895  )
         8           Tc  tau(   8) = (   4.1127346   3.9574807  12.2386895  )
         9           Tc  tau(   9) = (   0.0000178   0.0000109  14.3680771  )
        10           Tc  tau(  10) = (   2.7418109   0.0000028  14.3680281  )
        11           Tc  tau(  11) = (   1.3709140   2.3744804  14.3680501  )
        12           Tc  tau(  12) = (   4.1127216   2.3744814  14.3680648  )

     number of k points=    74  Fermi-Dirac smearing, width (Ry)=  0.0100
                       cart. coord. in units 2pi/alat
        k(    1) = (   0.0000000   0.0000000   0.0000000), wk =   0.0138889
        k(    2) = (   0.0000000   0.0175476   0.0000000), wk =   0.0277778
        k(    3) = (   0.0000000   0.0350953   0.0000000), wk =   0.0277778
        k(    4) = (   0.0000000   0.0526429   0.0000000), wk =   0.0277778
        k(    5) = (   0.0000000   0.0701906   0.0000000), wk =   0.0277778
        k(    6) = (   0.0000000   0.0877382   0.0000000), wk =   0.0277778
        k(    7) = (   0.0000000  -0.1052858   0.0000000), wk =   0.0138889
        k(    8) = (   0.0151967  -0.0087738   0.0000000), wk =   0.0277778
        k(    9) = (   0.0151967   0.0087738   0.0000000), wk =   0.0277778
        k(   10) = (   0.0151967   0.0263215   0.0000000), wk =   0.0277778
        k(   11) = (   0.0151967   0.0438691   0.0000000), wk =   0.0277778
        k(   12) = (   0.0151967   0.0614167   0.0000000), wk =   0.0277778
        k(   13) = (   0.0151967   0.0789644   0.0000000), wk =   0.0277778
        k(   14) = (   0.0151967  -0.1140597   0.0000000), wk =   0.0277778
        k(   15) = (   0.0151967  -0.0965120   0.0000000), wk =   0.0277778
        k(   16) = (   0.0151967  -0.0789644   0.0000000), wk =   0.0277778
        k(   17) = (   0.0151967  -0.0614167   0.0000000), wk =   0.0277778
        k(   18) = (   0.0151967  -0.0438691   0.0000000), wk =   0.0277778
        k(   19) = (   0.0151967  -0.0263215   0.0000000), wk =   0.0277778
        k(   20) = (   0.0303934  -0.0175476   0.0000000), wk =   0.0277778
        k(   21) = (   0.0303934   0.0000000   0.0000000), wk =   0.0277778
        k(   22) = (   0.0303934   0.0175476   0.0000000), wk =   0.0277778
        k(   23) = (   0.0303934   0.0350953   0.0000000), wk =   0.0277778
        k(   24) = (   0.0303934   0.0526429   0.0000000), wk =   0.0277778
        k(   25) = (   0.0303934   0.0701906   0.0000000), wk =   0.0277778
        k(   26) = (   0.0303934  -0.1228335   0.0000000), wk =   0.0277778
        k(   27) = (   0.0303934  -0.1052858   0.0000000), wk =   0.0277778
        k(   28) = (   0.0303934  -0.0877382   0.0000000), wk =   0.0277778
        k(   29) = (   0.0303934  -0.0701906   0.0000000), wk =   0.0277778
        k(   30) = (   0.0303934  -0.0526429   0.0000000), wk =   0.0277778
        k(   31) = (   0.0303934  -0.0350953   0.0000000), wk =   0.0277778
        k(   32) = (   0.0455901  -0.0263215   0.0000000), wk =   0.0277778
        k(   33) = (   0.0455901  -0.0087738   0.0000000), wk =   0.0277778
        k(   34) = (   0.0455901   0.0087738   0.0000000), wk =   0.0277778
        k(   35) = (   0.0455901   0.0263215   0.0000000), wk =   0.0277778
        k(   36) = (   0.0455901   0.0438691   0.0000000), wk =   0.0277778
        k(   37) = (   0.0455901   0.0614167   0.0000000), wk =   0.0277778
        k(   38) = (   0.0455901  -0.1316073   0.0000000), wk =   0.0277778
        k(   39) = (   0.0455901  -0.1140596   0.0000000), wk =   0.0277778
        k(   40) = (   0.0455901  -0.0965120   0.0000000), wk =   0.0277778
        k(   41) = (   0.0455901  -0.0789644   0.0000000), wk =   0.0277778
        k(   42) = (   0.0455901  -0.0614167   0.0000000), wk =   0.0277778
        k(   43) = (   0.0455901  -0.0438691   0.0000000), wk =   0.0277778
        k(   44) = (   0.0607868  -0.0350953   0.0000000), wk =   0.0277778
        k(   45) = (   0.0607868  -0.0175476   0.0000000), wk =   0.0277778
        k(   46) = (   0.0607868   0.0000000   0.0000000), wk =   0.0277778
        k(   47) = (   0.0607868   0.0175476   0.0000000), wk =   0.0277778
        k(   48) = (   0.0607868   0.0350953   0.0000000), wk =   0.0277778
        k(   49) = (   0.0607868   0.0526429   0.0000000), wk =   0.0277778
        k(   50) = (   0.0607868  -0.1403811   0.0000000), wk =   0.0277778
        k(   51) = (   0.0607868  -0.1228335   0.0000000), wk =   0.0277778
        k(   52) = (   0.0607868  -0.1052858   0.0000000), wk =   0.0277778
        k(   53) = (   0.0607868  -0.0877382   0.0000000), wk =   0.0277778
        k(   54) = (   0.0607868  -0.0701905   0.0000000), wk =   0.0277778
        k(   55) = (   0.0607868  -0.0526429   0.0000000), wk =   0.0277778
        k(   56) = (   0.0759835  -0.0438691   0.0000000), wk =   0.0277778
        k(   57) = (   0.0759835  -0.0263215   0.0000000), wk =   0.0277778
        k(   58) = (   0.0759835  -0.0087738   0.0000000), wk =   0.0277778
        k(   59) = (   0.0759835   0.0087738   0.0000000), wk =   0.0277778
        k(   60) = (   0.0759835   0.0263215   0.0000000), wk =   0.0277778
        k(   61) = (   0.0759835   0.0438691   0.0000000), wk =   0.0277778
        k(   62) = (   0.0759835  -0.1491549   0.0000000), wk =   0.0277778
        k(   63) = (   0.0759835  -0.1316073   0.0000000), wk =   0.0277778
        k(   64) = (   0.0759835  -0.1140596   0.0000000), wk =   0.0277778
        k(   65) = (   0.0759835  -0.0965120   0.0000000), wk =   0.0277778
        k(   66) = (   0.0759835  -0.0789644   0.0000000), wk =   0.0277778
        k(   67) = (   0.0759835  -0.0614167   0.0000000), wk =   0.0277778
        k(   68) = (  -0.0911802   0.0526429   0.0000000), wk =   0.0138889
        k(   69) = (  -0.0911802   0.0701905   0.0000000), wk =   0.0277778
        k(   70) = (  -0.0911802   0.0877382   0.0000000), wk =   0.0277778
        k(   71) = (  -0.0911802   0.1052858   0.0000000), wk =   0.0277778
        k(   72) = (  -0.0911802   0.1228335   0.0000000), wk =   0.0277778
        k(   73) = (  -0.0911802   0.1403811   0.0000000), wk =   0.0277778
        k(   74) = (  -0.0911802  -0.0526429   0.0000000), wk =   0.0138889

     Check: negative core charge=   -0.000001

     Initial potential from superposition of free atoms

     starting charge  179.99242, renormalised to  180.00000

     negative rho (up, down):  8.245E-03 0.000E+00

     %%%%%%%%%%%%%%%%%%%%%%%%%%%%%%%%%%%%%%%%%%%%%%%%%%%%%%%%%%%%%%%%%%%%%%%%
     %                                                                      %
     % You are using vdW-DF, which was implemented by the Thonhauser group. %
     % Please cite the following two papers that made this development      %
     % possible and the two reviews that describe the various versions:     %
     %                                                                      %
     %   T. Thonhauser et al., PRL 115, 136402 (2015).                      %
     %   T. Thonhauser et al., PRB 76, 125112 (2007).                       %
     %   K. Berland et al., Rep. Prog. Phys. 78, 066501 (2015).             %
     %   D.C. Langreth et al., J. Phys.: Condens. Matter 21, 084203 (2009). %
     %                                                                      %
     %                                                                      %
     % If you are calculating the stress with vdW-DF, please also cite:     %
     %                                                                      %
     %   R. Sabatini et al., J. Phys.: Condens. Matter 24, 424209 (2012).   %
     %                                                                      %
     %%%%%%%%%%%%%%%%%%%%%%%%%%%%%%%%%%%%%%%%%%%%%%%%%%%%%%%%%%%%%%%%%%%%%%%%

     Adding external electric field

     Computed dipole along edir(3) :
        Dipole               -0.0000 Ry au,         -0.0000 Debye
        Dipole field         -0.0000 Ry au,

        Potential amp.        0.0000 Ry
        Total length         45.0992 bohr

     Starting wfcs are  156 randomized atomic wfcs

     Self-consistent Calculation

     iteration #  1     ecut=    55.12 Ry     beta= 0.10
     Davidson diagonalization with overlap
     ethr =  1.00E-02,  avg # of iterations =  2.0

[...]

     total energy              =   -2175.10707374 Ry
     estimated scf accuracy    <       4.64922068 Ry

[...]

     total energy              =   -2175.44559559 Ry
     estimated scf accuracy    <       0.00002471 Ry

     iteration # 14     ecut=    55.12 Ry     beta= 0.10
     Davidson diagonalization with overlap
     ethr =  1.37E-08,  avg # of iterations =  5.2

[...]

     Adding external electric field

     Computed dipole along edir(3) :
        Dipole                0.0436 Ry au,          0.1108 Debye
        Dipole field          0.0001 Ry au,

        Potential amp.       -0.0115 Ry
        Total length         45.0992 bohr

     End of self-consistent calculation

          k = 0.0000 0.0000 0.0000 ( 29749 PWs)   bands (ev):

   -64.9039 -64.7441 -64.7441 -64.7441 -64.6358 -64.5752 -64.5078 -64.5078
   -64.5078 -64.4602 -64.4601 -64.4600 -37.2474 -37.2474 -37.2474 -37.1510
   -37.0532 -37.0532 -37.0531 -36.8710 -36.8710 -36.8709 -36.5601 -36.5013
   -36.5013 -36.5013 -36.4960 -36.4960 -36.4960 -36.4286 -36.4286 -36.4286
   -36.2546 -36.2546 -36.2440 -36.2439 -36.2439 -36.1926 -36.1926 -36.1926
   -36.1552 -36.1305 -36.1305 -36.1304 -35.9838 -35.9838 -35.9432 -35.9432
    -4.1562  -2.9922  -2.9922  -2.9922  -2.8494  -2.6827  -2.4809  -2.4809
    -2.4809  -2.2970  -2.2970  -2.2970  -1.8541  -1.8541  -1.8541  -0.6689
    -0.6689  -0.6689   0.2494   0.2494   0.2494   0.4271   0.5531   0.5531
     0.6957   0.8774   0.8774   0.8774   0.8961   0.8961   1.2604   1.2605
     1.6345   1.6345   1.6345   2.1986   2.7121   2.7122   2.7122   2.8421
     2.8421   2.8422   3.0816   3.0816   3.5587   3.5587   3.5739   4.2089
     4.2089   4.2089   4.5430   4.5430   4.5430   4.7266   4.7266   4.9594
     5.0852   5.0855   5.0859   5.4294

[...]

          k = 0.0760-0.0614 0.0000 ( 29741 PWs)   bands (ev):

[...]

          k =-0.0912 0.0526 0.0000 ( 29738 PWs)   bands (ev):

[...]

          k =-0.0912-0.0526 0.0000 ( 29738 PWs)   bands (ev):

   -64.8252 -64.8251 -64.7443 -64.7443 -64.5715 -64.5715 -64.5182 -64.5180
   -64.5079 -64.5078 -64.4602 -64.4600 -37.0738 -37.0738 -37.0164 -37.0163
   -36.9453 -36.9452 -36.8208 -36.8208 -36.7537 -36.7537 -36.7031 -36.7030
   -36.4574 -36.4574 -36.4449 -36.4448 -36.4383 -36.4383 -36.3984 -36.3984
   -36.3772 -36.3772 -36.3760 -36.3760 -36.3437 -36.3437 -36.2994 -36.2992
   -36.2043 -36.2042 -36.1497 -36.1496 -36.0887 -36.0887 -36.0375 -36.0373
    -2.5917  -2.5916  -1.9630  -1.9630  -1.9380  -1.9380  -1.6402  -1.6401
    -1.4119  -1.4119  -1.2622  -1.2621  -0.9623  -0.9623  -0.8820  -0.8819
    -0.4308  -0.4308  -0.2512  -0.2512  -0.0487  -0.0486   0.4697   0.4697
     0.7267   0.7267   0.8475   0.8476   1.0099   1.0100   1.0684   1.0685
     1.1616   1.1616   1.2690   1.2690   1.3076   1.3077   1.3936   1.3936
     2.1567   2.1568   2.3126   2.3126   2.4330   2.4331   2.8140   2.8141
     2.9910   2.9911   3.1135   3.1135   3.3947   3.3948   3.5251   3.5251
     3.7331   3.7331   4.3454   4.3454

     the Fermi energy is     2.3934 ev

!    total energy              =   -2175.44566090 Ry
     estimated scf accuracy    <       0.00000615 Ry
     smearing contrib. (-TS)   =      -0.07521832 Ry
     internal energy E=F+TS    =   -2175.37044258 Ry

     The total energy is F=E-TS. E is the sum of the following terms:
     one-electron contribution =  -18845.41281328 Ry
     hartree contribution      =    9426.00797322 Ry
     xc contribution           =    -474.14520954 Ry
     ewald contribution        =    7718.17960147 Ry
     electric field correction =       0.00000556 Ry

     convergence has been achieved in  14 iterations

     negative rho (up, down):  8.455E-03 0.000E+00

     Forces acting on atoms (cartesian axes, Ry/au):

     atom    1 type  1   force =     0.00000241    0.00000411    0.01488379
     atom    2 type  1   force =    -0.00000216    0.00000058    0.01488951
     atom    3 type  1   force =    -0.00000248   -0.00000179    0.01489201
     atom    4 type  1   force =     0.00000399    0.00000146    0.01488304
     atom    5 type  1   force =     0.00002189    0.00001213   -0.01481504
     atom    6 type  1   force =    -0.00002276   -0.00000655   -0.01480236
     atom    7 type  1   force =    -0.00001701   -0.00001628   -0.01480184
     atom    8 type  1   force =     0.00001640    0.00000954   -0.01482474
     atom    9 type  1   force =    -0.00000763   -0.00000616   -0.00009074
     atom   10 type  1   force =     0.00000781   -0.00000318   -0.00006192
     atom   11 type  1   force =    -0.00000024    0.00000657   -0.00006427
     atom   12 type  1   force =    -0.00000023   -0.00000045   -0.00008744

     Total force =     0.042000     Total SCF correction =     0.011039
     SCF correction compared to forces is large: reduce conv_thr to get better values

     Writing output data file ./Tc750/Tc750_beef.save/

     General routines

     Parallel routines

   This run was terminated on:  14: 3:46  22Jun2022

   JOB DONE.