     Program PWSCF v.6.6 starts on 22Jun2022 at 14: 3:51

     R & G space division:  proc/nbgrp/npool/nimage =      37
     Fft bands division:     nmany     =       1
     Reading input from Ti-750.in
Warning: card &CELL ignored
Warning: card / ignored

     Current dimensions of program PWSCF are:
     Max number of different atomic species (ntypx) = 10
     Max number of k-points (npk) =  40000
     Max angular momentum in pseudopotentials (lmaxx) =  3
     Presently stress not available with electric field and gates

     Message from routine cell_base_init:
     DEPRECATED: use true lattice parameter, not A to a.u. conversion factor
     file Ti.pbe-spn-rrkjus_psl.1.0.0.UPF: wavefunction(s)  3S 3D renormalized

     IMPORTANT: XC functional enforced from input :
     Exchange-correlation= BEEF-VDW
                           (   1   4  43  14   2   0   0)
     Any further DFT definition will be discarded
     Please, verify this is what you really want

     Subspace diagonalization in iterative solution of the eigenvalue problem:
     a serial algorithm will be used

     bravais-lattice index     =            0
     lattice parameter (alat)  =       1.8897  a.u.
     unit-cell volume          =    4806.0844 (a.u.)^3
     number of atoms/cell      =           12
     number of atomic types    =            1
     number of electrons       =       144.00
     number of Kohn-Sham states=           86
     kinetic-energy cutoff     =      55.1240  Ry
     charge density cutoff     =     551.2396  Ry
     convergence threshold     =      1.0E-05
     mixing beta               =       0.1000
     number of iterations used =           10  plain     mixing
     Exchange-correlation= BEEF-VDW
                           (   1   4  43  14   2   0   0)

     celldm(1)=   1.889726  celldm(2)=   0.000000  celldm(3)=   0.000000
     celldm(4)=   0.000000  celldm(5)=   0.000000  celldm(6)=   0.000000

     crystal axes: (cart. coord. in units of alat)
               a(1) = (   5.768903   0.000000   0.000000 )
               a(2) = (   2.884451   4.996016   0.000000 )
               a(3) = (   0.000000   0.000000  24.710289 )

     reciprocal axes: (cart. coord. in units 2 pi/alat)
               b(1) = (  0.173343 -0.100080  0.000000 )
               b(2) = (  0.000000  0.200159  0.000000 )
               b(3) = (  0.000000  0.000000  0.040469 )

     PseudoPot. # 1 for Ti read from file:
     ../pseudo/Ti.pbe-spn-rrkjus_psl.1.0.0.UPF
     MD5 check sum: e281089c08e14b8efcf92e44a67ada65
     Pseudo is Ultrasoft + core correction, Zval = 12.0
     Generated using "atomic" code by A. Dal Corso v.6.2.2
     Using radial grid of 1177 points,  6 beta functions with:
                l(1) =   0
                l(2) =   0
                l(3) =   1
                l(4) =   1
                l(5) =   2
                l(6) =   2
     Q(r) pseudized with 0 coefficients

     atomic species   valence    mass     pseudopotential
        Ti            12.00    47.86700     Ti( 1.00)

     No symmetry found

   Cartesian axes

     site n.     atom                  positions (alat units)
         1           Ti  tau(   1) = (   1.4422257   0.8326694  10.0000000  )
         2           Ti  tau(   2) = (   4.3266771   0.8326694  10.0000000  )
         3           Ti  tau(   3) = (   2.8844514   3.3306776  10.0000000  )
         4           Ti  tau(   4) = (   5.7689029   3.3306776  10.0000000  )
         5           Ti  tau(   5) = (   5.7689029   1.6653388  12.3551447  )
         6           Ti  tau(   6) = (   2.8844514   1.6653388  12.3551447  )
         7           Ti  tau(   7) = (   7.2111286   4.1633470  12.3551447  )
         8           Ti  tau(   8) = (   4.3266771   4.1633470  12.3551447  )
         9           Ti  tau(   9) = (   5.7688341   0.0000439  14.6121387  )
        10           Ti  tau(  10) = (   2.8845518   0.0000612  14.6119809  )
        11           Ti  tau(  11) = (   1.4422585   2.4980278  14.6119586  )
        12           Ti  tau(  12) = (   4.3266860   2.4979333  14.6120613  )

     number of k points=    74  Fermi-Dirac smearing, width (Ry)=  0.0100
                       cart. coord. in units 2pi/alat
        k(    1) = (   0.0000000   0.0000000   0.0000000), wk =   0.0138889
        k(    2) = (   0.0000000   0.0166800   0.0000000), wk =   0.0277778
        k(    3) = (   0.0000000   0.0333599   0.0000000), wk =   0.0277778
        k(    4) = (   0.0000000   0.0500399   0.0000000), wk =   0.0277778
        k(    5) = (   0.0000000   0.0667198   0.0000000), wk =   0.0277778
        k(    6) = (   0.0000000   0.0833998   0.0000000), wk =   0.0277778
        k(    7) = (   0.0000000  -0.1000797   0.0000000), wk =   0.0138889
        k(    8) = (   0.0144453  -0.0083400   0.0000000), wk =   0.0277778
        k(    9) = (   0.0144453   0.0083400   0.0000000), wk =   0.0277778
        k(   10) = (   0.0144453   0.0250199   0.0000000), wk =   0.0277778
        k(   11) = (   0.0144453   0.0416999   0.0000000), wk =   0.0277778
        k(   12) = (   0.0144453   0.0583799   0.0000000), wk =   0.0277778
        k(   13) = (   0.0144453   0.0750598   0.0000000), wk =   0.0277778
        k(   14) = (   0.0144453  -0.1084197   0.0000000), wk =   0.0277778
        k(   15) = (   0.0144453  -0.0917398   0.0000000), wk =   0.0277778
        k(   16) = (   0.0144453  -0.0750598   0.0000000), wk =   0.0277778
        k(   17) = (   0.0144453  -0.0583798   0.0000000), wk =   0.0277778
        k(   18) = (   0.0144453  -0.0416999   0.0000000), wk =   0.0277778
        k(   19) = (   0.0144453  -0.0250199   0.0000000), wk =   0.0277778
        k(   20) = (   0.0288905  -0.0166800   0.0000000), wk =   0.0277778
        k(   21) = (   0.0288905   0.0000000   0.0000000), wk =   0.0277778
        k(   22) = (   0.0288905   0.0166800   0.0000000), wk =   0.0277778
        k(   23) = (   0.0288905   0.0333599   0.0000000), wk =   0.0277778
        k(   24) = (   0.0288905   0.0500399   0.0000000), wk =   0.0277778
        k(   25) = (   0.0288905   0.0667198   0.0000000), wk =   0.0277778
        k(   26) = (   0.0288905  -0.1167597   0.0000000), wk =   0.0277778
        k(   27) = (   0.0288905  -0.1000797   0.0000000), wk =   0.0277778
        k(   28) = (   0.0288905  -0.0833998   0.0000000), wk =   0.0277778
        k(   29) = (   0.0288905  -0.0667198   0.0000000), wk =   0.0277778
        k(   30) = (   0.0288905  -0.0500399   0.0000000), wk =   0.0277778
        k(   31) = (   0.0288905  -0.0333599   0.0000000), wk =   0.0277778
        k(   32) = (   0.0433358  -0.0250199   0.0000000), wk =   0.0277778
        k(   33) = (   0.0433358  -0.0083400   0.0000000), wk =   0.0277778
        k(   34) = (   0.0433358   0.0083400   0.0000000), wk =   0.0277778
        k(   35) = (   0.0433358   0.0250199   0.0000000), wk =   0.0277778
        k(   36) = (   0.0433358   0.0416999   0.0000000), wk =   0.0277778
        k(   37) = (   0.0433358   0.0583799   0.0000000), wk =   0.0277778
        k(   38) = (   0.0433358  -0.1250997   0.0000000), wk =   0.0277778
        k(   39) = (   0.0433358  -0.1084197   0.0000000), wk =   0.0277778
        k(   40) = (   0.0433358  -0.0917398   0.0000000), wk =   0.0277778
        k(   41) = (   0.0433358  -0.0750598   0.0000000), wk =   0.0277778
        k(   42) = (   0.0433358  -0.0583798   0.0000000), wk =   0.0277778
        k(   43) = (   0.0433358  -0.0416999   0.0000000), wk =   0.0277778
        k(   44) = (   0.0577811  -0.0333599   0.0000000), wk =   0.0277778
        k(   45) = (   0.0577811  -0.0166800   0.0000000), wk =   0.0277778
        k(   46) = (   0.0577811   0.0000000   0.0000000), wk =   0.0277778
        k(   47) = (   0.0577811   0.0166800   0.0000000), wk =   0.0277778
        k(   48) = (   0.0577811   0.0333599   0.0000000), wk =   0.0277778
        k(   49) = (   0.0577811   0.0500399   0.0000000), wk =   0.0277778
        k(   50) = (   0.0577811  -0.1334397   0.0000000), wk =   0.0277778
        k(   51) = (   0.0577811  -0.1167597   0.0000000), wk =   0.0277778
        k(   52) = (   0.0577811  -0.1000797   0.0000000), wk =   0.0277778
        k(   53) = (   0.0577811  -0.0833998   0.0000000), wk =   0.0277778
        k(   54) = (   0.0577811  -0.0667198   0.0000000), wk =   0.0277778
        k(   55) = (   0.0577811  -0.0500399   0.0000000), wk =   0.0277778
        k(   56) = (   0.0722263  -0.0416999   0.0000000), wk =   0.0277778
        k(   57) = (   0.0722263  -0.0250199   0.0000000), wk =   0.0277778
        k(   58) = (   0.0722263  -0.0083400   0.0000000), wk =   0.0277778
        k(   59) = (   0.0722263   0.0083400   0.0000000), wk =   0.0277778
        k(   60) = (   0.0722263   0.0250199   0.0000000), wk =   0.0277778
        k(   61) = (   0.0722263   0.0416999   0.0000000), wk =   0.0277778
        k(   62) = (   0.0722263  -0.1417796   0.0000000), wk =   0.0277778
        k(   63) = (   0.0722263  -0.1250997   0.0000000), wk =   0.0277778
        k(   64) = (   0.0722263  -0.1084197   0.0000000), wk =   0.0277778
        k(   65) = (   0.0722263  -0.0917398   0.0000000), wk =   0.0277778
        k(   66) = (   0.0722263  -0.0750598   0.0000000), wk =   0.0277778
        k(   67) = (   0.0722263  -0.0583798   0.0000000), wk =   0.0277778
        k(   68) = (  -0.0866716   0.0500399   0.0000000), wk =   0.0138889
        k(   69) = (  -0.0866716   0.0667198   0.0000000), wk =   0.0277778
        k(   70) = (  -0.0866716   0.0833998   0.0000000), wk =   0.0277778
        k(   71) = (  -0.0866716   0.1000797   0.0000000), wk =   0.0277778
        k(   72) = (  -0.0866716   0.1167597   0.0000000), wk =   0.0277778
        k(   73) = (  -0.0866716   0.1334396   0.0000000), wk =   0.0277778
        k(   74) = (  -0.0866716  -0.0500399   0.0000000), wk =   0.0138889

     Check: negative core charge=   -0.000002

     Initial potential from superposition of free atoms

     starting charge  143.98225, renormalised to  144.00000

     negative rho (up, down):  1.189E-03 0.000E+00

     %%%%%%%%%%%%%%%%%%%%%%%%%%%%%%%%%%%%%%%%%%%%%%%%%%%%%%%%%%%%%%%%%%%%%%%%
     %                                                                      %
     % You are using vdW-DF, which was implemented by the Thonhauser group. %
     % Please cite the following two papers that made this development      %
     % possible and the two reviews that describe the various versions:     %
     %                                                                      %
     %   T. Thonhauser et al., PRL 115, 136402 (2015).                      %
     %   T. Thonhauser et al., PRB 76, 125112 (2007).                       %
     %   K. Berland et al., Rep. Prog. Phys. 78, 066501 (2015).             %
     %   D.C. Langreth et al., J. Phys.: Condens. Matter 21, 084203 (2009). %
     %                                                                      %
     %                                                                      %
     % If you are calculating the stress with vdW-DF, please also cite:     %
     %                                                                      %
     %   R. Sabatini et al., J. Phys.: Condens. Matter 24, 424209 (2012).   %
     %                                                                      %
     %%%%%%%%%%%%%%%%%%%%%%%%%%%%%%%%%%%%%%%%%%%%%%%%%%%%%%%%%%%%%%%%%%%%%%%%

     Adding external electric field

     Computed dipole along edir(3) :
        Dipole                0.0000 Ry au,          0.0000 Debye
        Dipole field          0.0000 Ry au,

        Potential amp.       -0.0000 Ry
        Total length         45.5283 bohr

     Starting wfcs are  120 randomized atomic wfcs

     Self-consistent Calculation

     iteration #  1     ecut=    55.12 Ry     beta= 0.10
     Davidson diagonalization with overlap
     ethr =  1.00E-02,  avg # of iterations =  2.5

[...]

     total energy              =   -1443.11445248 Ry
     estimated scf accuracy    <      12.03890031 Ry

[...]

     iteration # 14     ecut=    55.12 Ry     beta= 0.10
     Davidson diagonalization with overlap
     c_bands:  1 eigenvalues not converged
     c_bands:  1 eigenvalues not converged
     c_bands:  1 eigenvalues not converged
     ethr =  3.21E-06,  avg # of iterations =  8.9

[...]

     iteration # 19     ecut=    55.12 Ry     beta= 0.10
     Davidson diagonalization with overlap
     c_bands:  1 eigenvalues not converged
     ethr =  1.70E-08,  avg # of iterations =  6.1

[...]

     total energy              =   -1444.55353713 Ry
     estimated scf accuracy    <       0.00001482 Ry

     iteration # 21     ecut=    55.12 Ry     beta= 0.10
     Davidson diagonalization with overlap
     ethr =  1.03E-08,  avg # of iterations =  3.8

[...]

     Adding external electric field

     Computed dipole along edir(3) :
        Dipole                0.0016 Ry au,          0.0041 Debye
        Dipole field          0.0000 Ry au,

        Potential amp.       -0.0004 Ry
        Total length         45.5283 bohr

     End of self-consistent calculation

          k = 0.0000 0.0000 0.0000 ( 33141 PWs)   bands (ev):

   -56.2968 -56.2718 -56.2042 -56.2041 -56.2041 -56.1777 -56.1776 -56.1775
   -56.0435 -55.9681 -55.9680 -55.9680 -32.7760 -32.7760 -32.7760 -32.7280
   -32.7252 -32.7252 -32.7251 -32.6504 -32.6504 -32.6504 -32.5501 -32.4696
   -32.4695 -32.4695 -32.3369 -32.3369 -32.3368 -32.3351 -32.3351 -32.3351
   -32.3124 -32.3124 -32.3124 -32.2045 -32.2045 -32.1841 -32.1841 -32.1567
   -32.1567 -32.1566 -32.1272 -32.0774 -32.0774 -32.0774 -31.9659 -31.9659
    -4.7938  -3.4478  -2.2168  -1.6734  -1.6734  -1.6733  -1.5153  -1.5153
    -1.5153  -1.0773  -1.0773  -1.0773  -0.8548  -0.8548  -0.8547  -0.1771
    -0.1771  -0.1771   0.5979   0.6641   1.0013   1.0014   1.0014   1.2516
     1.2900   1.2900   1.2900   1.4649   1.4650   1.4987   1.6604   1.6604
     1.6736   1.6737   1.6738   1.6829   1.6829   1.8582

[...]

          k = 0.0722-0.0584 0.0000 ( 33244 PWs)   bands (ev):

[...]

          k =-0.0867 0.0500 0.0000 ( 33210 PWs)   bands (ev):

[...]

          k =-0.0867-0.0500 0.0000 ( 33210 PWs)   bands (ev):

   -56.2504 -56.2504 -56.2254 -56.2253 -56.2042 -56.2042 -56.1777 -56.1776
   -56.0058 -56.0057 -55.9680 -55.9679 -32.6738 -32.6738 -32.6457 -32.6456
   -32.6290 -32.6290 -32.5771 -32.5770 -32.5495 -32.5494 -32.5173 -32.5173
   -32.4773 -32.4772 -32.4608 -32.4606 -32.4345 -32.4344 -32.4240 -32.4240
   -32.2825 -32.2824 -32.2699 -32.2699 -32.2492 -32.2491 -32.1976 -32.1975
   -32.1790 -32.1789 -32.1354 -32.1354 -32.1196 -32.1194 -32.0219 -32.0218
    -3.2071  -3.2070  -2.0449  -2.0449  -1.2331  -1.2331  -0.9771  -0.9771
    -0.9658  -0.9658  -0.2461  -0.2461  -0.2410  -0.2409  -0.1005  -0.1004
     0.2357   0.2358   0.2657   0.2658   0.2878   0.2879   0.5497   0.5498
     0.5528   0.5529   0.7313   0.7313   0.8113   0.8115   1.0103   1.0105
     1.3379   1.3380   1.4453   1.4454   1.5953   1.5955

     the Fermi energy is     0.7207 ev

!    total energy              =   -1444.55344438 Ry
     estimated scf accuracy    <       0.00000420 Ry
     smearing contrib. (-TS)   =      -0.11262959 Ry
     internal energy E=F+TS    =   -1444.44081480 Ry

     The total energy is F=E-TS. E is the sum of the following terms:
     one-electron contribution =  -10988.03981392 Ry
     hartree contribution      =    5479.33042307 Ry
     xc contribution           =    -231.07288738 Ry
     ewald contribution        =    4295.34146343 Ry
     electric field correction =       0.00000001 Ry

     convergence has been achieved in  21 iterations

     negative rho (up, down):  9.344E-04 0.000E+00

     Forces acting on atoms (cartesian axes, Ry/au):

     atom    1 type  1   force =     0.00001364    0.00000358    0.00640420
     atom    2 type  1   force =    -0.00001246    0.00001091    0.00640025
     atom    3 type  1   force =     0.00000718   -0.00001675    0.00641080
     atom    4 type  1   force =    -0.00000389    0.00000146    0.00641760
     atom    5 type  1   force =    -0.00000678   -0.00004268   -0.00871192
     atom    6 type  1   force =     0.00000602    0.00000072   -0.00870153
     atom    7 type  1   force =     0.00004084    0.00002462   -0.00872089
     atom    8 type  1   force =    -0.00003785    0.00001690   -0.00869649
     atom    9 type  1   force =     0.00001395   -0.00000377    0.00233528
     atom   10 type  1   force =    -0.00001777   -0.00000508    0.00228454
     atom   11 type  1   force =     0.00000046   -0.00000352    0.00229696
     atom   12 type  1   force =    -0.00000334    0.00001360    0.00228120

     Total force =     0.022107     Total SCF correction =     0.004458
     SCF correction compared to forces is large: reduce conv_thr to get better values

     Writing output data file ./Ti750/Ti750_beef.save/

     General routines

     Parallel routines

   This run was terminated on:  15:22:25  22Jun2022

   JOB DONE.