     Program PWSCF v.6.6 starts on 22Jun2022 at 15:22:30

     R & G space division:  proc/nbgrp/npool/nimage =      37
     Fft bands division:     nmany     =       1
     Reading input from V-750.in
Warning: card &CELL ignored
Warning: card / ignored

     Current dimensions of program PWSCF are:
     Max number of different atomic species (ntypx) = 10
     Max number of k-points (npk) =  40000
     Max angular momentum in pseudopotentials (lmaxx) =  3
     Presently stress not available with electric field and gates

     Message from routine cell_base_init:
     DEPRECATED: use true lattice parameter, not A to a.u. conversion factor
     file V.pbe-spnl-rrkjus_psl.1.0.0.UPF: wavefunction(s)  3P 3D renormalized

     IMPORTANT: XC functional enforced from input :
     Exchange-correlation= BEEF-VDW
                           (   1   4  43  14   2   0   0)
     Any further DFT definition will be discarded
     Please, verify this is what you really want

     Subspace diagonalization in iterative solution of the eigenvalue problem:
     a serial algorithm will be used

     Found symmetry operation: I + ( -0.5000  0.0000  0.0000)
     This is a supercell, fractional translations are disabled

     bravais-lattice index     =            0
     lattice parameter (alat)  =       1.8897  a.u.
     unit-cell volume          =    4158.3584 (a.u.)^3
     number of atoms/cell      =           12
     number of atomic types    =            1
     number of electrons       =       156.00
     number of Kohn-Sham states=           94
     kinetic-energy cutoff     =      55.1240  Ry
     charge density cutoff     =     551.2396  Ry
     convergence threshold     =      1.0E-05
     mixing beta               =       0.1000
     number of iterations used =           10  plain     mixing
     Exchange-correlation= BEEF-VDW
                           (   1   4  43  14   2   0   0)

     celldm(1)=   1.889726  celldm(2)=   0.000000  celldm(3)=   0.000000
     celldm(4)=   0.000000  celldm(5)=   0.000000  celldm(6)=   0.000000

     crystal axes: (cart. coord. in units of alat)
               a(1) = (   5.399178   0.000000   0.000000 )
               a(2) = (   2.699589   4.675825   0.000000 )
               a(3) = (   0.000000   0.000000  24.408411 )

     reciprocal axes: (cart. coord. in units 2 pi/alat)
               b(1) = (  0.185213 -0.106933  0.000000 )
               b(2) = (  0.000000  0.213866  0.000000 )
               b(3) = (  0.000000  0.000000  0.040969 )

     PseudoPot. # 1 for V  read from file:
     ../pseudo/V.pbe-spnl-rrkjus_psl.1.0.0.UPF
     MD5 check sum: 79b3eb63147daf0b665d9f1bcc691206
     Pseudo is Ultrasoft + core correction, Zval = 13.0
     Generated using "atomic" code by A. Dal Corso v.6.2.2
     Using radial grid of 1181 points,  6 beta functions with:
                l(1) =   0
                l(2) =   0
                l(3) =   1
                l(4) =   1
                l(5) =   2
                l(6) =   2
     Q(r) pseudized with 0 coefficients

     atomic species   valence    mass     pseudopotential
        V             13.00    50.94150     V ( 1.00)

     No symmetry found

   Cartesian axes

     site n.     atom                  positions (alat units)
         1           V   tau(   1) = (   1.3497948   0.7793043   9.9999991  )
         2           V   tau(   2) = (   4.0493838   0.7793043   9.9999991  )
         3           V   tau(   3) = (   2.6995893   3.1172168   9.9999991  )
         4           V   tau(   4) = (   5.3991783   3.1172168   9.9999991  )
         5           V   tau(   5) = (   5.3991777   1.5586082  12.2042055  )
         6           V   tau(   6) = (   2.6995887   1.5586082  12.2042055  )
         7           V   tau(   7) = (   6.7489722   3.8965207  12.2042055  )
         8           V   tau(   8) = (   4.0493832   3.8965207  12.2042055  )
         9           V   tau(   9) = (   0.0000000   0.0000000  14.4084119  )
        10           V   tau(  10) = (   2.6995890   0.0000000  14.4084119  )
        11           V   tau(  11) = (   1.3497945   2.3379125  14.4084119  )
        12           V   tau(  12) = (   4.0493835   2.3379125  14.4084119  )

     number of k points=    74  Fermi-Dirac smearing, width (Ry)=  0.0100
                       cart. coord. in units 2pi/alat
        k(    1) = (   0.0000000   0.0000000   0.0000000), wk =   0.0138889
        k(    2) = (   0.0000000   0.0178222   0.0000000), wk =   0.0277778
        k(    3) = (   0.0000000   0.0356443   0.0000000), wk =   0.0277778
        k(    4) = (   0.0000000   0.0534665   0.0000000), wk =   0.0277778
        k(    5) = (   0.0000000   0.0712887   0.0000000), wk =   0.0277778
        k(    6) = (   0.0000000   0.0891108   0.0000000), wk =   0.0277778
        k(    7) = (   0.0000000  -0.1069330   0.0000000), wk =   0.0138889
        k(    8) = (   0.0154344  -0.0089111   0.0000000), wk =   0.0277778
        k(    9) = (   0.0154344   0.0089111   0.0000000), wk =   0.0277778
        k(   10) = (   0.0154344   0.0267333   0.0000000), wk =   0.0277778
        k(   11) = (   0.0154344   0.0445554   0.0000000), wk =   0.0277778
        k(   12) = (   0.0154344   0.0623776   0.0000000), wk =   0.0277778
        k(   13) = (   0.0154344   0.0801998   0.0000000), wk =   0.0277778
        k(   14) = (   0.0154344  -0.1158441   0.0000000), wk =   0.0277778
        k(   15) = (   0.0154344  -0.0980219   0.0000000), wk =   0.0277778
        k(   16) = (   0.0154344  -0.0801998   0.0000000), wk =   0.0277778
        k(   17) = (   0.0154344  -0.0623776   0.0000000), wk =   0.0277778
        k(   18) = (   0.0154344  -0.0445554   0.0000000), wk =   0.0277778
        k(   19) = (   0.0154344  -0.0267333   0.0000000), wk =   0.0277778
        k(   20) = (   0.0308689  -0.0178222   0.0000000), wk =   0.0277778
        k(   21) = (   0.0308689   0.0000000   0.0000000), wk =   0.0277778
        k(   22) = (   0.0308689   0.0178222   0.0000000), wk =   0.0277778
        k(   23) = (   0.0308689   0.0356443   0.0000000), wk =   0.0277778
        k(   24) = (   0.0308689   0.0534665   0.0000000), wk =   0.0277778
        k(   25) = (   0.0308689   0.0712887   0.0000000), wk =   0.0277778
        k(   26) = (   0.0308689  -0.1247552   0.0000000), wk =   0.0277778
        k(   27) = (   0.0308689  -0.1069330   0.0000000), wk =   0.0277778
        k(   28) = (   0.0308689  -0.0891108   0.0000000), wk =   0.0277778
        k(   29) = (   0.0308689  -0.0712887   0.0000000), wk =   0.0277778
        k(   30) = (   0.0308689  -0.0534665   0.0000000), wk =   0.0277778
        k(   31) = (   0.0308689  -0.0356443   0.0000000), wk =   0.0277778
        k(   32) = (   0.0463033  -0.0267333   0.0000000), wk =   0.0277778
        k(   33) = (   0.0463033  -0.0089111   0.0000000), wk =   0.0277778
        k(   34) = (   0.0463033   0.0089111   0.0000000), wk =   0.0277778
        k(   35) = (   0.0463033   0.0267333   0.0000000), wk =   0.0277778
        k(   36) = (   0.0463033   0.0445554   0.0000000), wk =   0.0277778
        k(   37) = (   0.0463033   0.0623776   0.0000000), wk =   0.0277778
        k(   38) = (   0.0463033  -0.1336663   0.0000000), wk =   0.0277778
        k(   39) = (   0.0463033  -0.1158441   0.0000000), wk =   0.0277778
        k(   40) = (   0.0463033  -0.0980219   0.0000000), wk =   0.0277778
        k(   41) = (   0.0463033  -0.0801998   0.0000000), wk =   0.0277778
        k(   42) = (   0.0463033  -0.0623776   0.0000000), wk =   0.0277778
        k(   43) = (   0.0463033  -0.0445554   0.0000000), wk =   0.0277778
        k(   44) = (   0.0617378  -0.0356443   0.0000000), wk =   0.0277778
        k(   45) = (   0.0617378  -0.0178222   0.0000000), wk =   0.0277778
        k(   46) = (   0.0617378   0.0000000   0.0000000), wk =   0.0277778
        k(   47) = (   0.0617378   0.0178222   0.0000000), wk =   0.0277778
        k(   48) = (   0.0617378   0.0356443   0.0000000), wk =   0.0277778
        k(   49) = (   0.0617378   0.0534665   0.0000000), wk =   0.0277778
        k(   50) = (   0.0617378  -0.1425773   0.0000000), wk =   0.0277778
        k(   51) = (   0.0617378  -0.1247552   0.0000000), wk =   0.0277778
        k(   52) = (   0.0617378  -0.1069330   0.0000000), wk =   0.0277778
        k(   53) = (   0.0617378  -0.0891108   0.0000000), wk =   0.0277778
        k(   54) = (   0.0617378  -0.0712887   0.0000000), wk =   0.0277778
        k(   55) = (   0.0617378  -0.0534665   0.0000000), wk =   0.0277778
        k(   56) = (   0.0771722  -0.0445554   0.0000000), wk =   0.0277778
        k(   57) = (   0.0771722  -0.0267333   0.0000000), wk =   0.0277778
        k(   58) = (   0.0771722  -0.0089111   0.0000000), wk =   0.0277778
        k(   59) = (   0.0771722   0.0089111   0.0000000), wk =   0.0277778
        k(   60) = (   0.0771722   0.0267333   0.0000000), wk =   0.0277778
        k(   61) = (   0.0771722   0.0445554   0.0000000), wk =   0.0277778
        k(   62) = (   0.0771722  -0.1514884   0.0000000), wk =   0.0277778
        k(   63) = (   0.0771722  -0.1336663   0.0000000), wk =   0.0277778
        k(   64) = (   0.0771722  -0.1158441   0.0000000), wk =   0.0277778
        k(   65) = (   0.0771722  -0.0980219   0.0000000), wk =   0.0277778
        k(   66) = (   0.0771722  -0.0801998   0.0000000), wk =   0.0277778
        k(   67) = (   0.0771722  -0.0623776   0.0000000), wk =   0.0277778
        k(   68) = (  -0.0926067   0.0534665   0.0000000), wk =   0.0138889
        k(   69) = (  -0.0926067   0.0712887   0.0000000), wk =   0.0277778
        k(   70) = (  -0.0926067   0.0891108   0.0000000), wk =   0.0277778
        k(   71) = (  -0.0926067   0.1069330   0.0000000), wk =   0.0277778
        k(   72) = (  -0.0926067   0.1247552   0.0000000), wk =   0.0277778
        k(   73) = (  -0.0926067   0.1425773   0.0000000), wk =   0.0277778
        k(   74) = (  -0.0926067  -0.0534665   0.0000000), wk =   0.0138889

     Check: negative core charge=   -0.000002

     Initial potential from superposition of free atoms

     starting charge  155.98910, renormalised to  156.00000

     negative rho (up, down):  1.444E-03 0.000E+00

     %%%%%%%%%%%%%%%%%%%%%%%%%%%%%%%%%%%%%%%%%%%%%%%%%%%%%%%%%%%%%%%%%%%%%%%%
     %                                                                      %
     % You are using vdW-DF, which was implemented by the Thonhauser group. %
     % Please cite the following two papers that made this development      %
     % possible and the two reviews that describe the various versions:     %
     %                                                                      %
     %   T. Thonhauser et al., PRL 115, 136402 (2015).                      %
     %   T. Thonhauser et al., PRB 76, 125112 (2007).                       %
     %   K. Berland et al., Rep. Prog. Phys. 78, 066501 (2015).             %
     %   D.C. Langreth et al., J. Phys.: Condens. Matter 21, 084203 (2009). %
     %                                                                      %
     %                                                                      %
     % If you are calculating the stress with vdW-DF, please also cite:     %
     %                                                                      %
     %   R. Sabatini et al., J. Phys.: Condens. Matter 24, 424209 (2012).   %
     %                                                                      %
     %%%%%%%%%%%%%%%%%%%%%%%%%%%%%%%%%%%%%%%%%%%%%%%%%%%%%%%%%%%%%%%%%%%%%%%%

     Adding external electric field

     Computed dipole along edir(3) :
        Dipole                0.0000 Ry au,          0.0000 Debye
        Dipole field          0.0000 Ry au,

        Potential amp.       -0.0000 Ry
        Total length         44.9721 bohr

     Starting wfcs are  120 randomized atomic wfcs

     Self-consistent Calculation

     iteration #  1     ecut=    55.12 Ry     beta= 0.10
     Davidson diagonalization with overlap
     ethr =  1.00E-02,  avg # of iterations =  2.3

[...]

     total energy              =   -1753.04873947 Ry
     estimated scf accuracy    <      12.82782355 Ry

[...]

     iteration # 10     ecut=    55.12 Ry     beta= 0.10
     Davidson diagonalization with overlap
     c_bands:  1 eigenvalues not converged
     ethr =  6.25E-05,  avg # of iterations =  8.9

[...]

     iteration # 17     ecut=    55.12 Ry     beta= 0.10
     Davidson diagonalization with overlap
     c_bands:  1 eigenvalues not converged
     ethr =  5.41E-07,  avg # of iterations =  7.6

[...]

     total energy              =   -1754.68567452 Ry
     estimated scf accuracy    <       0.00003669 Ry

     iteration # 22     ecut=    55.12 Ry     beta= 0.10
     Davidson diagonalization with overlap
     ethr =  2.35E-08,  avg # of iterations =  4.5

[...]

     Adding external electric field

     Computed dipole along edir(3) :
        Dipole               -0.0039 Ry au,         -0.0100 Debye
        Dipole field         -0.0000 Ry au,

        Potential amp.        0.0011 Ry
        Total length         44.9721 bohr

     End of self-consistent calculation

          k = 0.0000 0.0000 0.0000 ( 28597 PWs)   bands (ev):

   -63.3564 -63.2596 -63.2270 -63.2240 -63.2240 -63.2240 -63.1547 -63.1547
   -63.1546 -63.1499 -63.1499 -63.1498 -37.4319 -37.4318 -37.4318 -37.3841
   -37.3405 -37.3404 -37.3404 -37.2720 -37.2720 -37.2720 -37.1154 -37.0242
   -37.0242 -37.0241 -37.0124 -37.0124 -37.0123 -36.9326 -36.9325 -36.9325
   -36.8747 -36.8747 -36.8746 -36.8258 -36.8099 -36.8098 -36.8098 -36.7777
   -36.7776 -36.7776 -36.7744 -36.7743 -36.6705 -36.6704 -36.6579 -36.6578
    -5.1614  -3.6124  -2.4982  -2.1013  -2.1013  -2.1012  -1.8438  -1.8438
    -1.8438  -1.3371  -1.3371  -1.3371  -1.3325  -1.3325  -1.3325  -0.4609
    -0.4608  -0.4608   0.4032   0.5676   0.5677   0.5677   0.7486   0.8054
     1.0994   1.0994   1.1918   1.1918   1.1918   1.2778   1.2778   1.3465
     1.3465   1.3466   1.4174   1.4174   1.5230   1.8674   1.8675   1.8675
     2.3793   2.3794   2.3794   2.6988   2.6990   2.9365

[...]

          k = 0.0772-0.0624 0.0000 ( 28765 PWs)   bands (ev):

[...]

          k =-0.0926 0.0535 0.0000 ( 28780 PWs)   bands (ev):

[...]

          k =-0.0926-0.0535 0.0000 ( 28780 PWs)   bands (ev):

   -63.2924 -63.2924 -63.2243 -63.2243 -63.2074 -63.2073 -63.1868 -63.1868
   -63.1547 -63.1546 -63.1498 -63.1497 -37.3165 -37.3165 -37.2887 -37.2887
   -37.2524 -37.2524 -37.1791 -37.1791 -37.1567 -37.1566 -37.1329 -37.1329
   -37.0112 -37.0112 -36.9793 -36.9793 -36.9697 -36.9697 -36.9630 -36.9629
   -36.9529 -36.9529 -36.9368 -36.9368 -36.9147 -36.9146 -36.8547 -36.8547
   -36.8323 -36.8323 -36.8100 -36.8100 -36.7408 -36.7407 -36.7177 -36.7176
    -3.4272  -3.4272  -2.1504  -2.1504  -1.4410  -1.4409  -1.3312  -1.3312
    -1.2006  -1.2006  -0.6442  -0.6442  -0.5078  -0.5078  -0.4295  -0.4295
    -0.0426  -0.0426   0.0486   0.0486   0.0574   0.0574   0.3430   0.3431
     0.5002   0.5002   0.5893   0.5893   0.6690   0.6690   0.8109   0.8109
     1.0617   1.0617   1.1631   1.1632   1.1708   1.1708   1.6600   1.6602
     1.9323   1.9324   2.1449   2.1450   2.1555   2.1555

     the Fermi energy is     0.9614 ev

!    total energy              =   -1754.68604581 Ry
     estimated scf accuracy    <       0.00000153 Ry
     smearing contrib. (-TS)   =      -0.12577655 Ry
     internal energy E=F+TS    =   -1754.56026926 Ry

     The total energy is F=E-TS. E is the sum of the following terms:
     one-electron contribution =  -14838.97616633 Ry
     hartree contribution      =    7406.87570412 Ry
     xc contribution           =    -252.80961170 Ry
     ewald contribution        =    5930.34980461 Ry
     electric field correction =       0.00000005 Ry

     convergence has been achieved in  22 iterations

     negative rho (up, down):  1.122E-03 0.000E+00

     Forces acting on atoms (cartesian axes, Ry/au):

     atom    1 type  1   force =    -0.00000279   -0.00001093   -0.00137251
     atom    2 type  1   force =     0.00000204   -0.00000005   -0.00134174
     atom    3 type  1   force =     0.00000831    0.00000245   -0.00133852
     atom    4 type  1   force =    -0.00000692    0.00000122   -0.00135868
     atom    5 type  1   force =    -0.00001522    0.00001030    0.00000515
     atom    6 type  1   force =     0.00003042    0.00002420    0.00001185
     atom    7 type  1   force =    -0.00000559   -0.00000833   -0.00000332
     atom    8 type  1   force =    -0.00001806   -0.00003734   -0.00000714
     atom    9 type  1   force =    -0.00000811   -0.00001161    0.00134959
     atom   10 type  1   force =     0.00001403    0.00001173    0.00135904
     atom   11 type  1   force =     0.00000138    0.00001020    0.00135258
     atom   12 type  1   force =     0.00000050    0.00000817    0.00134369

     Total force =     0.003825     Total SCF correction =     0.008951
     SCF correction compared to forces is large: reduce conv_thr to get better values

     Writing output data file ./V750/V750_beef.save/

     General routines

     Parallel routines

   This run was terminated on:  16:29:10  22Jun2022

   JOB DONE.