     Program PWSCF v.6.6 starts on 22Jun2022 at 16:29:14

     R & G space division:  proc/nbgrp/npool/nimage =      37
     Fft bands division:     nmany     =       1
     Reading input from W-750.in
Warning: card &CELL ignored
Warning: card / ignored

     Current dimensions of program PWSCF are:
     Max number of different atomic species (ntypx) = 10
     Max number of k-points (npk) =  40000
     Max angular momentum in pseudopotentials (lmaxx) =  3
     Presently stress not available with electric field and gates

     Message from routine cell_base_init:
     DEPRECATED: use true lattice parameter, not A to a.u. conversion factor
     Message from routine emend_upf/check:
     BEWARE !!! Possible out of bounds while fixing pseudo
     Message from routine emend_upf/check:
     BEWARE !!! Possible out of bounds while fixing pseudo
     Message from routine read_upf:
     Pseudo file W.pbe-spn-rrkjus_psl.0.2.3.UPF has been fixed on the fly.
     To avoid this message in the future, permanently fix
     your pseudo files following these instructions:

     IMPORTANT: XC functional enforced from input :
     Exchange-correlation= BEEF-VDW
                           (   1   4  43  14   2   0   0)
     Any further DFT definition will be discarded
     Please, verify this is what you really want

     Subspace diagonalization in iterative solution of the eigenvalue problem:
     a serial algorithm will be used

     Found symmetry operation: I + (  0.0000  0.5000  0.0000)
     This is a supercell, fractional translations are disabled
     Message from routine find_sym:
     Not a group! Trying with lower acceptance parameter...
     Message from routine find_sym:
     Symmetry operations form a group

     bravais-lattice index     =            0
     lattice parameter (alat)  =       1.8897  a.u.
     unit-cell volume          =    4704.3526 (a.u.)^3
     number of atoms/cell      =           12
     number of atomic types    =            1
     number of electrons       =       168.00
     number of Kohn-Sham states=          101
     kinetic-energy cutoff     =      55.1240  Ry
     charge density cutoff     =     551.2396  Ry
     convergence threshold     =      1.0E-05
     mixing beta               =       0.1000
     number of iterations used =           10  plain     mixing
     Exchange-correlation= BEEF-VDW
                           (   1   4  43  14   2   0   0)

     celldm(1)=   1.889726  celldm(2)=   0.000000  celldm(3)=   0.000000
     celldm(4)=   0.000000  celldm(5)=   0.000000  celldm(6)=   0.000000

     crystal axes: (cart. coord. in units of alat)
               a(1) = (   5.712816   0.000000   0.000000 )
               a(2) = (   2.856408   4.947444   0.000000 )
               a(3) = (   0.000000   0.000000  24.664495 )

     reciprocal axes: (cart. coord. in units 2 pi/alat)
               b(1) = (  0.175045 -0.101062  0.000000 )
               b(2) = (  0.000000  0.202125  0.000000 )
               b(3) = (  0.000000  0.000000  0.040544 )

     PseudoPot. # 1 for W  read from file:
     ../pseudo/W.pbe-spn-rrkjus_psl.0.2.3.UPF
     MD5 check sum: 25b665cf2bbae626ad8d9f1bc024df95
     Pseudo is Ultrasoft + core correction, Zval = 14.0
     Generated using "atomic" code by A. Dal Corso v.5.0.2 svn rev. 10551
     Using radial grid of 1273 points,  6 beta functions with:
                l(1) =   0
                l(2) =   0
                l(3) =   1
                l(4) =   1
                l(5) =   2
                l(6) =   2
     Q(r) pseudized with 0 coefficients

     atomic species   valence    mass     pseudopotential
        W             14.00   183.84000     W ( 1.00)

     No symmetry found

   Cartesian axes

     site n.     atom                  positions (alat units)
         1           W   tau(   1) = (   1.4282043   0.8245742  10.0000000  )
         2           W   tau(   2) = (   4.2846123   0.8245742  10.0000000  )
         3           W   tau(   3) = (   2.8564083   3.2982962  10.0000000  )
         4           W   tau(   4) = (   5.7128163   3.2982962  10.0000000  )
         5           W   tau(   5) = (   5.7128157   1.6491478  12.3322475  )
         6           W   tau(   6) = (   2.8564077   1.6491478  12.3322475  )
         7           W   tau(   7) = (   7.1410197   4.1228698  12.3322475  )
         8           W   tau(   8) = (   4.2846117   4.1228698  12.3322475  )
         9           W   tau(   9) = (   0.0000440  -0.0000059  14.6722298  )
        10           W   tau(  10) = (   2.8563660   0.0000025  14.6722520  )
        11           W   tau(  11) = (   1.4282149   2.4737111  14.6722569  )
        12           W   tau(  12) = (   4.2846057   2.4737398  14.6722298  )

     number of k points=    74  Fermi-Dirac smearing, width (Ry)=  0.0100
                       cart. coord. in units 2pi/alat
        k(    1) = (   0.0000000   0.0000000   0.0000000), wk =   0.0138889
        k(    2) = (   0.0000000   0.0168437   0.0000000), wk =   0.0277778
        k(    3) = (   0.0000000   0.0336874   0.0000000), wk =   0.0277778
        k(    4) = (   0.0000000   0.0505311   0.0000000), wk =   0.0277778
        k(    5) = (   0.0000000   0.0673749   0.0000000), wk =   0.0277778
        k(    6) = (   0.0000000   0.0842186   0.0000000), wk =   0.0277778
        k(    7) = (   0.0000000  -0.1010623   0.0000000), wk =   0.0138889
        k(    8) = (   0.0145871  -0.0084219   0.0000000), wk =   0.0277778
        k(    9) = (   0.0145871   0.0084219   0.0000000), wk =   0.0277778
        k(   10) = (   0.0145871   0.0252656   0.0000000), wk =   0.0277778
        k(   11) = (   0.0145871   0.0421093   0.0000000), wk =   0.0277778
        k(   12) = (   0.0145871   0.0589530   0.0000000), wk =   0.0277778
        k(   13) = (   0.0145871   0.0757967   0.0000000), wk =   0.0277778
        k(   14) = (   0.0145871  -0.1094841   0.0000000), wk =   0.0277778
        k(   15) = (   0.0145871  -0.0926404   0.0000000), wk =   0.0277778
        k(   16) = (   0.0145871  -0.0757967   0.0000000), wk =   0.0277778
        k(   17) = (   0.0145871  -0.0589530   0.0000000), wk =   0.0277778
        k(   18) = (   0.0145871  -0.0421093   0.0000000), wk =   0.0277778
        k(   19) = (   0.0145871  -0.0252656   0.0000000), wk =   0.0277778
        k(   20) = (   0.0291742  -0.0168437   0.0000000), wk =   0.0277778
        k(   21) = (   0.0291742   0.0000000   0.0000000), wk =   0.0277778
        k(   22) = (   0.0291742   0.0168437   0.0000000), wk =   0.0277778
        k(   23) = (   0.0291742   0.0336874   0.0000000), wk =   0.0277778
        k(   24) = (   0.0291742   0.0505311   0.0000000), wk =   0.0277778
        k(   25) = (   0.0291742   0.0673749   0.0000000), wk =   0.0277778
        k(   26) = (   0.0291742  -0.1179060   0.0000000), wk =   0.0277778
        k(   27) = (   0.0291742  -0.1010623   0.0000000), wk =   0.0277778
        k(   28) = (   0.0291742  -0.0842186   0.0000000), wk =   0.0277778
        k(   29) = (   0.0291742  -0.0673749   0.0000000), wk =   0.0277778
        k(   30) = (   0.0291742  -0.0505311   0.0000000), wk =   0.0277778
        k(   31) = (   0.0291742  -0.0336874   0.0000000), wk =   0.0277778
        k(   32) = (   0.0437613  -0.0252656   0.0000000), wk =   0.0277778
        k(   33) = (   0.0437613  -0.0084219   0.0000000), wk =   0.0277778
        k(   34) = (   0.0437613   0.0084219   0.0000000), wk =   0.0277778
        k(   35) = (   0.0437613   0.0252656   0.0000000), wk =   0.0277778
        k(   36) = (   0.0437613   0.0421093   0.0000000), wk =   0.0277778
        k(   37) = (   0.0437613   0.0589530   0.0000000), wk =   0.0277778
        k(   38) = (   0.0437613  -0.1263279   0.0000000), wk =   0.0277778
        k(   39) = (   0.0437613  -0.1094841   0.0000000), wk =   0.0277778
        k(   40) = (   0.0437613  -0.0926404   0.0000000), wk =   0.0277778
        k(   41) = (   0.0437613  -0.0757967   0.0000000), wk =   0.0277778
        k(   42) = (   0.0437613  -0.0589530   0.0000000), wk =   0.0277778
        k(   43) = (   0.0437613  -0.0421093   0.0000000), wk =   0.0277778
        k(   44) = (   0.0583483  -0.0336874   0.0000000), wk =   0.0277778
        k(   45) = (   0.0583483  -0.0168437   0.0000000), wk =   0.0277778
        k(   46) = (   0.0583483   0.0000000   0.0000000), wk =   0.0277778
        k(   47) = (   0.0583483   0.0168437   0.0000000), wk =   0.0277778
        k(   48) = (   0.0583483   0.0336874   0.0000000), wk =   0.0277778
        k(   49) = (   0.0583483   0.0505311   0.0000000), wk =   0.0277778
        k(   50) = (   0.0583483  -0.1347497   0.0000000), wk =   0.0277778
        k(   51) = (   0.0583483  -0.1179060   0.0000000), wk =   0.0277778
        k(   52) = (   0.0583483  -0.1010623   0.0000000), wk =   0.0277778
        k(   53) = (   0.0583483  -0.0842186   0.0000000), wk =   0.0277778
        k(   54) = (   0.0583483  -0.0673749   0.0000000), wk =   0.0277778
        k(   55) = (   0.0583483  -0.0505311   0.0000000), wk =   0.0277778
        k(   56) = (   0.0729354  -0.0421093   0.0000000), wk =   0.0277778
        k(   57) = (   0.0729354  -0.0252656   0.0000000), wk =   0.0277778
        k(   58) = (   0.0729354  -0.0084219   0.0000000), wk =   0.0277778
        k(   59) = (   0.0729354   0.0084219   0.0000000), wk =   0.0277778
        k(   60) = (   0.0729354   0.0252656   0.0000000), wk =   0.0277778
        k(   61) = (   0.0729354   0.0421093   0.0000000), wk =   0.0277778
        k(   62) = (   0.0729354  -0.1431716   0.0000000), wk =   0.0277778
        k(   63) = (   0.0729354  -0.1263279   0.0000000), wk =   0.0277778
        k(   64) = (   0.0729354  -0.1094841   0.0000000), wk =   0.0277778
        k(   65) = (   0.0729354  -0.0926404   0.0000000), wk =   0.0277778
        k(   66) = (   0.0729354  -0.0757967   0.0000000), wk =   0.0277778
        k(   67) = (   0.0729354  -0.0589530   0.0000000), wk =   0.0277778
        k(   68) = (  -0.0875225   0.0505311   0.0000000), wk =   0.0138889
        k(   69) = (  -0.0875225   0.0673749   0.0000000), wk =   0.0277778
        k(   70) = (  -0.0875225   0.0842186   0.0000000), wk =   0.0277778
        k(   71) = (  -0.0875225   0.1010623   0.0000000), wk =   0.0277778
        k(   72) = (  -0.0875225   0.1179060   0.0000000), wk =   0.0277778
        k(   73) = (  -0.0875225   0.1347497   0.0000000), wk =   0.0277778
        k(   74) = (  -0.0875225  -0.0505311   0.0000000), wk =   0.0138889

     Initial potential from superposition of free atoms

     starting charge  167.99332, renormalised to  168.00000

     negative rho (up, down):  1.142E-03 0.000E+00

     %%%%%%%%%%%%%%%%%%%%%%%%%%%%%%%%%%%%%%%%%%%%%%%%%%%%%%%%%%%%%%%%%%%%%%%%
     %                                                                      %
     % You are using vdW-DF, which was implemented by the Thonhauser group. %
     % Please cite the following two papers that made this development      %
     % possible and the two reviews that describe the various versions:     %
     %                                                                      %
     %   T. Thonhauser et al., PRL 115, 136402 (2015).                      %
     %   T. Thonhauser et al., PRB 76, 125112 (2007).                       %
     %   K. Berland et al., Rep. Prog. Phys. 78, 066501 (2015).             %
     %   D.C. Langreth et al., J. Phys.: Condens. Matter 21, 084203 (2009). %
     %                                                                      %
     %                                                                      %
     % If you are calculating the stress with vdW-DF, please also cite:     %
     %                                                                      %
     %   R. Sabatini et al., J. Phys.: Condens. Matter 24, 424209 (2012).   %
     %                                                                      %
     %%%%%%%%%%%%%%%%%%%%%%%%%%%%%%%%%%%%%%%%%%%%%%%%%%%%%%%%%%%%%%%%%%%%%%%%

     Adding external electric field

     Computed dipole along edir(3) :
        Dipole               -0.0000 Ry au,         -0.0000 Debye
        Dipole field         -0.0000 Ry au,

        Potential amp.        0.0000 Ry
        Total length         45.4439 bohr

     Starting wfcs are  156 randomized atomic wfcs

     Self-consistent Calculation

     iteration #  1     ecut=    55.12 Ry     beta= 0.10
     Davidson diagonalization with overlap
     ethr =  1.00E-02,  avg # of iterations =  2.0

[...]

     total energy              =   -1909.44644996 Ry
     estimated scf accuracy    <       3.83359889 Ry

[...]

     iteration #  6     ecut=    55.12 Ry     beta= 0.10
     Davidson diagonalization with overlap
     c_bands:  1 eigenvalues not converged
     c_bands:  1 eigenvalues not converged
     c_bands:  1 eigenvalues not converged
     c_bands:  1 eigenvalues not converged
     ethr =  7.09E-05,  avg # of iterations =  7.6

[...]

     iteration # 15     ecut=    55.12 Ry     beta= 0.10
     Davidson diagonalization with overlap
     c_bands:  1 eigenvalues not converged
     c_bands:  1 eigenvalues not converged
     c_bands:  1 eigenvalues not converged
     ethr =  1.21E-08,  avg # of iterations =  6.2

[...]

     total energy              =   -1909.77804567 Ry
     estimated scf accuracy    <       0.00001247 Ry

     iteration # 16     ecut=    55.12 Ry     beta= 0.10
     Davidson diagonalization with overlap
     ethr =  7.42E-09,  avg # of iterations =  2.1

[...]

     Adding external electric field

     Computed dipole along edir(3) :
        Dipole               -0.0038 Ry au,         -0.0098 Debye
        Dipole field         -0.0000 Ry au,

        Potential amp.        0.0009 Ry
        Total length         45.4439 bohr

     End of self-consistent calculation

          k = 0.0000 0.0000 0.0000 ( 32457 PWs)   bands (ev):

   -71.9127 -71.8361 -71.8323 -71.8323 -71.8323 -71.8184 -71.7726 -71.7726
   -71.7726 -71.7639 -71.7639 -71.7639 -36.4536 -36.4536 -36.4536 -36.3826
   -36.3155 -36.3155 -36.3155 -36.2191 -36.2191 -36.2190 -36.0188 -35.9001
   -35.9001 -35.9001 -35.8833 -35.8833 -35.8833 -35.7734 -35.7734 -35.7734
   -35.6931 -35.6931 -35.6931 -35.6216 -35.5964 -35.5964 -35.5964 -35.5531
   -35.5531 -35.5531 -35.5508 -35.5508 -35.4012 -35.4012 -35.3822 -35.3822
    -5.8327  -4.0410  -3.2114  -2.6518  -2.6518  -2.6518  -2.4154  -2.4154
    -2.4154  -1.6133  -1.6133  -1.6133  -1.6094  -1.6094  -1.6094  -0.1359
    -0.1359  -0.1359   0.9499   1.0295   1.0295   1.0296   1.3461   1.7888
     1.7888   1.8810   1.8810   1.8810   1.9262   2.1613   2.1613   2.2123
     2.2123   2.2123   2.4149   2.4149   2.8685   3.1558   3.1558   3.1558
     4.0508   4.0508   4.0508   4.2274   4.2274   4.2274   4.6851   4.6851
     5.1646   5.1646   5.1692   5.1692   5.1692

[...]

          k = 0.0729-0.0590 0.0000 ( 32530 PWs)   bands (ev):

[...]

          k =-0.0875 0.0505 0.0000 ( 32558 PWs)   bands (ev):

[...]

          k =-0.0875-0.0505 0.0000 ( 32558 PWs)   bands (ev):

   -71.8733 -71.8732 -71.8324 -71.8323 -71.8038 -71.8038 -71.7912 -71.7912
   -71.7726 -71.7726 -71.7639 -71.7639 -36.3000 -36.3000 -36.2564 -36.2564
   -36.1989 -36.1989 -36.1093 -36.1093 -36.0660 -36.0660 -36.0469 -36.0469
   -35.8735 -35.8735 -35.8278 -35.8277 -35.8252 -35.8252 -35.8118 -35.8118
   -35.7982 -35.7982 -35.7746 -35.7746 -35.7411 -35.7411 -35.6641 -35.6641
   -35.6318 -35.6318 -35.6015 -35.6015 -35.4996 -35.4996 -35.4675 -35.4675
    -3.8956  -3.8956  -2.3670  -2.3670  -1.6571  -1.6571  -1.4840  -1.4840
    -1.4738  -1.4738  -0.6257  -0.6257  -0.3276  -0.3276  -0.2235  -0.2235
     0.1475   0.1475   0.2507   0.2507   0.5321   0.5321   0.9758   0.9758
     1.1710   1.1711   1.3077   1.3077   1.3871   1.3872   1.4055   1.4056
     1.8613   1.8613   1.9666   1.9666   1.9889   1.9889   2.7407   2.7407
     3.1609   3.1609   3.5451   3.5451   3.5549   3.5549   3.8992   3.8992
     4.0953   4.0954   4.4153   4.4162   4.5728

     the Fermi energy is     2.3665 ev

!    total energy              =   -1909.77800825 Ry
     estimated scf accuracy    <       0.00000533 Ry
     smearing contrib. (-TS)   =      -0.07893556 Ry
     internal energy E=F+TS    =   -1909.69907269 Ry

     The total energy is F=E-TS. E is the sum of the following terms:
     one-electron contribution =  -14581.18749093 Ry
     hartree contribution      =    7273.57757876 Ry
     xc contribution           =    -495.16709047 Ry
     ewald contribution        =    5893.07792991 Ry
     electric field correction =       0.00000004 Ry

     convergence has been achieved in  16 iterations

     negative rho (up, down):  1.881E-03 0.000E+00

     Forces acting on atoms (cartesian axes, Ry/au):

     atom    1 type  1   force =    -0.00000300   -0.00000442   -0.00260977
     atom    2 type  1   force =     0.00000037   -0.00000225   -0.00261036
     atom    3 type  1   force =     0.00000258    0.00000832   -0.00261707
     atom    4 type  1   force =    -0.00000267    0.00000549   -0.00259482
     atom    5 type  1   force =    -0.00000010    0.00000653    0.00286530
     atom    6 type  1   force =    -0.00000000   -0.00000233    0.00287813
     atom    7 type  1   force =    -0.00001157   -0.00000261    0.00288294
     atom    8 type  1   force =     0.00000760   -0.00000391    0.00286311
     atom    9 type  1   force =    -0.00001361    0.00000309   -0.00027452
     atom   10 type  1   force =     0.00001910    0.00000106   -0.00026405
     atom   11 type  1   force =     0.00000577    0.00000789   -0.00026667
     atom   12 type  1   force =    -0.00000448   -0.00001685   -0.00025221

     Total force =     0.007778     Total SCF correction =     0.019397
     SCF correction compared to forces is large: reduce conv_thr to get better values

     Writing output data file ./W750/W750_beef.save/

     General routines

     Parallel routines

   This run was terminated on:  17:31:50  22Jun2022

   JOB DONE.