     Program PWSCF v.6.6 starts on 22Jun2022 at 17:32: 4

     R & G space division:  proc/nbgrp/npool/nimage =      37
     Fft bands division:     nmany     =       1
     Reading input from Y-750.in
Warning: card &CELL ignored
Warning: card / ignored

     Current dimensions of program PWSCF are:
     Max number of different atomic species (ntypx) = 10
     Max number of k-points (npk) =  40000
     Max angular momentum in pseudopotentials (lmaxx) =  3
     Presently stress not available with electric field and gates

     Message from routine cell_base_init:
     DEPRECATED: use true lattice parameter, not A to a.u. conversion factor
     file Y.pbe-spn-rrkjus_psl.1.0.0.UPF: wavefunction(s)  4S renormalized

     IMPORTANT: XC functional enforced from input :
     Exchange-correlation= BEEF-VDW
                           (   1   4  43  14   2   0   0)
     Any further DFT definition will be discarded
     Please, verify this is what you really want

     Subspace diagonalization in iterative solution of the eigenvalue problem:
     a serial algorithm will be used

     Found symmetry operation: I + ( -0.5000  0.0000  0.0000)
     This is a supercell, fractional translations are disabled

     bravais-lattice index     =            0
     lattice parameter (alat)  =       1.8897  a.u.
     unit-cell volume          =    7725.1184 (a.u.)^3
     number of atoms/cell      =           12
     number of atomic types    =            1
     number of electrons       =       132.00
     number of Kohn-Sham states=           79
     kinetic-energy cutoff     =      55.1240  Ry
     charge density cutoff     =     551.2396  Ry
     convergence threshold     =      1.0E-05
     mixing beta               =       0.1000
     number of iterations used =           10  plain     mixing
     Exchange-correlation= BEEF-VDW
                           (   1   4  43  14   2   0   0)

     celldm(1)=   1.889726  celldm(2)=   0.000000  celldm(3)=   0.000000
     celldm(4)=   0.000000  celldm(5)=   0.000000  celldm(6)=   0.000000

     crystal axes: (cart. coord. in units of alat)
               a(1) = (   7.152277   0.000000   0.000000 )
               a(2) = (   3.576139   6.194054   0.000000 )
               a(3) = (   0.000000   0.000000  25.839810 )

     reciprocal axes: (cart. coord. in units 2 pi/alat)
               b(1) = (  0.139816 -0.080723  0.000000 )
               b(2) = (  0.000000  0.161445  0.000000 )
               b(3) = (  0.000000  0.000000  0.038700 )

     PseudoPot. # 1 for Y  read from file:
     ../pseudo/Y.pbe-spn-rrkjus_psl.1.0.0.UPF
     MD5 check sum: 5fe32e6a006803c2ec2edff47948a3c8
     Pseudo is Ultrasoft + core correction, Zval = 11.0
     Generated using "atomic" code by A. Dal Corso v.6.2.2
     Using radial grid of 1223 points,  6 beta functions with:
                l(1) =   0
                l(2) =   0
                l(3) =   1
                l(4) =   1
                l(5) =   2
                l(6) =   2
     Q(r) pseudized with 0 coefficients

     atomic species   valence    mass     pseudopotential
        Y             11.00    88.90584     Y ( 1.00)

     No symmetry found

   Cartesian axes

     site n.     atom                  positions (alat units)
         1           Y   tau(   1) = (   1.7880697   1.0323425   9.9999987  )
         2           Y   tau(   2) = (   5.3642082   1.0323425   9.9999987  )
         3           Y   tau(   3) = (   3.5761392   4.1293695   9.9999987  )
         4           Y   tau(   4) = (   7.1522777   4.1293695   9.9999987  )
         5           Y   tau(   5) = (   7.1522768   2.0646845  12.9199050  )
         6           Y   tau(   6) = (   3.5761383   2.0646845  12.9199050  )
         7           Y   tau(   7) = (   8.9403463   5.1617115  12.9199050  )
         8           Y   tau(   8) = (   5.3642078   5.1617115  12.9199050  )
         9           Y   tau(   9) = (   0.0000465   0.0000273  15.7917441  )
        10           Y   tau(  10) = (   3.5761381   0.0000180  15.7917492  )
        11           Y   tau(  11) = (   1.7880834   3.0969892  15.7917492  )
        12           Y   tau(  12) = (   5.3642334   3.0970165  15.7917389  )

     number of k points=    74  Fermi-Dirac smearing, width (Ry)=  0.0100
                       cart. coord. in units 2pi/alat
        k(    1) = (   0.0000000   0.0000000   0.0000000), wk =   0.0138889
        k(    2) = (   0.0000000   0.0134538   0.0000000), wk =   0.0277778
        k(    3) = (   0.0000000   0.0269075   0.0000000), wk =   0.0277778
        k(    4) = (   0.0000000   0.0403613   0.0000000), wk =   0.0277778
        k(    5) = (   0.0000000   0.0538151   0.0000000), wk =   0.0277778
        k(    6) = (   0.0000000   0.0672688   0.0000000), wk =   0.0277778
        k(    7) = (   0.0000000  -0.0807226   0.0000000), wk =   0.0138889
        k(    8) = (   0.0116513  -0.0067269   0.0000000), wk =   0.0277778
        k(    9) = (   0.0116513   0.0067269   0.0000000), wk =   0.0277778
        k(   10) = (   0.0116513   0.0201806   0.0000000), wk =   0.0277778
        k(   11) = (   0.0116513   0.0336344   0.0000000), wk =   0.0277778
        k(   12) = (   0.0116513   0.0470882   0.0000000), wk =   0.0277778
        k(   13) = (   0.0116513   0.0605419   0.0000000), wk =   0.0277778
        k(   14) = (   0.0116513  -0.0874495   0.0000000), wk =   0.0277778
        k(   15) = (   0.0116513  -0.0739957   0.0000000), wk =   0.0277778
        k(   16) = (   0.0116513  -0.0605419   0.0000000), wk =   0.0277778
        k(   17) = (   0.0116513  -0.0470882   0.0000000), wk =   0.0277778
        k(   18) = (   0.0116513  -0.0336344   0.0000000), wk =   0.0277778
        k(   19) = (   0.0116513  -0.0201806   0.0000000), wk =   0.0277778
        k(   20) = (   0.0233026  -0.0134538   0.0000000), wk =   0.0277778
        k(   21) = (   0.0233026  -0.0000000   0.0000000), wk =   0.0277778
        k(   22) = (   0.0233026   0.0134538   0.0000000), wk =   0.0277778
        k(   23) = (   0.0233026   0.0269075   0.0000000), wk =   0.0277778
        k(   24) = (   0.0233026   0.0403613   0.0000000), wk =   0.0277778
        k(   25) = (   0.0233026   0.0538150   0.0000000), wk =   0.0277778
        k(   26) = (   0.0233026  -0.0941763   0.0000000), wk =   0.0277778
        k(   27) = (   0.0233026  -0.0807226   0.0000000), wk =   0.0277778
        k(   28) = (   0.0233026  -0.0672688   0.0000000), wk =   0.0277778
        k(   29) = (   0.0233026  -0.0538151   0.0000000), wk =   0.0277778
        k(   30) = (   0.0233026  -0.0403613   0.0000000), wk =   0.0277778
        k(   31) = (   0.0233026  -0.0269075   0.0000000), wk =   0.0277778
        k(   32) = (   0.0349539  -0.0201806   0.0000000), wk =   0.0277778
        k(   33) = (   0.0349539  -0.0067269   0.0000000), wk =   0.0277778
        k(   34) = (   0.0349539   0.0067269   0.0000000), wk =   0.0277778
        k(   35) = (   0.0349539   0.0201806   0.0000000), wk =   0.0277778
        k(   36) = (   0.0349539   0.0336344   0.0000000), wk =   0.0277778
        k(   37) = (   0.0349539   0.0470882   0.0000000), wk =   0.0277778
        k(   38) = (   0.0349539  -0.1009032   0.0000000), wk =   0.0277778
        k(   39) = (   0.0349539  -0.0874495   0.0000000), wk =   0.0277778
        k(   40) = (   0.0349539  -0.0739957   0.0000000), wk =   0.0277778
        k(   41) = (   0.0349539  -0.0605419   0.0000000), wk =   0.0277778
        k(   42) = (   0.0349539  -0.0470882   0.0000000), wk =   0.0277778
        k(   43) = (   0.0349539  -0.0336344   0.0000000), wk =   0.0277778
        k(   44) = (   0.0466052  -0.0269075   0.0000000), wk =   0.0277778
        k(   45) = (   0.0466052  -0.0134538   0.0000000), wk =   0.0277778
        k(   46) = (   0.0466052  -0.0000000   0.0000000), wk =   0.0277778
        k(   47) = (   0.0466052   0.0134538   0.0000000), wk =   0.0277778
        k(   48) = (   0.0466052   0.0269075   0.0000000), wk =   0.0277778
        k(   49) = (   0.0466052   0.0403613   0.0000000), wk =   0.0277778
        k(   50) = (   0.0466052  -0.1076301   0.0000000), wk =   0.0277778
        k(   51) = (   0.0466052  -0.0941763   0.0000000), wk =   0.0277778
        k(   52) = (   0.0466052  -0.0807226   0.0000000), wk =   0.0277778
        k(   53) = (   0.0466052  -0.0672688   0.0000000), wk =   0.0277778
        k(   54) = (   0.0466052  -0.0538151   0.0000000), wk =   0.0277778
        k(   55) = (   0.0466052  -0.0403613   0.0000000), wk =   0.0277778
        k(   56) = (   0.0582565  -0.0336344   0.0000000), wk =   0.0277778
        k(   57) = (   0.0582565  -0.0201806   0.0000000), wk =   0.0277778
        k(   58) = (   0.0582565  -0.0067269   0.0000000), wk =   0.0277778
        k(   59) = (   0.0582565   0.0067269   0.0000000), wk =   0.0277778
        k(   60) = (   0.0582565   0.0201806   0.0000000), wk =   0.0277778
        k(   61) = (   0.0582565   0.0336344   0.0000000), wk =   0.0277778
        k(   62) = (   0.0582565  -0.1143570   0.0000000), wk =   0.0277778
        k(   63) = (   0.0582565  -0.1009032   0.0000000), wk =   0.0277778
        k(   64) = (   0.0582565  -0.0874495   0.0000000), wk =   0.0277778
        k(   65) = (   0.0582565  -0.0739957   0.0000000), wk =   0.0277778
        k(   66) = (   0.0582565  -0.0605419   0.0000000), wk =   0.0277778
        k(   67) = (   0.0582565  -0.0470882   0.0000000), wk =   0.0277778
        k(   68) = (  -0.0699078   0.0403613   0.0000000), wk =   0.0138889
        k(   69) = (  -0.0699078   0.0538151   0.0000000), wk =   0.0277778
        k(   70) = (  -0.0699078   0.0672688   0.0000000), wk =   0.0277778
        k(   71) = (  -0.0699078   0.0807226   0.0000000), wk =   0.0277778
        k(   72) = (  -0.0699078   0.0941763   0.0000000), wk =   0.0277778
        k(   73) = (  -0.0699078   0.1076301   0.0000000), wk =   0.0277778
        k(   74) = (  -0.0699078  -0.0403613   0.0000000), wk =   0.0138889

     Initial potential from superposition of free atoms

     starting charge  131.95099, renormalised to  132.00000

     negative rho (up, down):  3.113E-04 0.000E+00

     %%%%%%%%%%%%%%%%%%%%%%%%%%%%%%%%%%%%%%%%%%%%%%%%%%%%%%%%%%%%%%%%%%%%%%%%
     %                                                                      %
     % You are using vdW-DF, which was implemented by the Thonhauser group. %
     % Please cite the following two papers that made this development      %
     % possible and the two reviews that describe the various versions:     %
     %                                                                      %
     %   T. Thonhauser et al., PRL 115, 136402 (2015).                      %
     %   T. Thonhauser et al., PRB 76, 125112 (2007).                       %
     %   K. Berland et al., Rep. Prog. Phys. 78, 066501 (2015).             %
     %   D.C. Langreth et al., J. Phys.: Condens. Matter 21, 084203 (2009). %
     %                                                                      %
     %                                                                      %
     % If you are calculating the stress with vdW-DF, please also cite:     %
     %                                                                      %
     %   R. Sabatini et al., J. Phys.: Condens. Matter 24, 424209 (2012).   %
     %                                                                      %
     %%%%%%%%%%%%%%%%%%%%%%%%%%%%%%%%%%%%%%%%%%%%%%%%%%%%%%%%%%%%%%%%%%%%%%%%

     Adding external electric field

     Computed dipole along edir(3) :
        Dipole               -0.0000 Ry au,         -0.0000 Debye
        Dipole field         -0.0000 Ry au,

        Potential amp.        0.0000 Ry
        Total length         47.6094 bohr

     Starting wfcs are  156 randomized atomic wfcs

     Self-consistent Calculation

     iteration #  1     ecut=    55.12 Ry     beta= 0.10
     Davidson diagonalization with overlap
     ethr =  1.00E-02,  avg # of iterations =  2.0

[...]

     total energy              =   -1008.72825182 Ry
     estimated scf accuracy    <       5.59110279 Ry

[...]

     iteration #  8     ecut=    55.12 Ry     beta= 0.10
     Davidson diagonalization with overlap
     c_bands:  1 eigenvalues not converged
     c_bands:  1 eigenvalues not converged
     c_bands:  1 eigenvalues not converged
     ethr =  1.34E-05,  avg # of iterations = 10.9

[...]

     iteration # 14     ecut=    55.12 Ry     beta= 0.10
     Davidson diagonalization with overlap
     c_bands:  1 eigenvalues not converged
     c_bands:  2 eigenvalues not converged
     c_bands:  1 eigenvalues not converged
     c_bands:  2 eigenvalues not converged
     c_bands:  1 eigenvalues not converged
     c_bands:  2 eigenvalues not converged
     ethr =  1.55E-06,  avg # of iterations =  9.5

[...]

     total energy              =   -1009.24044365 Ry
     estimated scf accuracy    <       0.00011364 Ry

     iteration # 22     ecut=    55.12 Ry     beta= 0.10
     Davidson diagonalization with overlap
     ethr =  8.61E-08,  avg # of iterations =  6.1

[...]

     Adding external electric field

     Computed dipole along edir(3) :
        Dipole                0.0032 Ry au,          0.0080 Debye
        Dipole field          0.0000 Ry au,

        Potential amp.       -0.0005 Ry
        Total length         47.6094 bohr

     End of self-consistent calculation

          k = 0.0000 0.0000 0.0000 ( 53227 PWs)   bands (ev):

   -42.3852 -42.3466 -42.3427 -42.3427 -42.3426 -42.3039 -42.3039 -42.3038
   -41.7901 -41.7479 -41.7479 -41.7478 -22.4730 -22.4730 -22.4729 -22.4374
   -22.4373 -22.4373 -22.4145 -22.3506 -22.3333 -22.3332 -22.3332 -22.2869
   -22.2869 -22.2868 -22.1487 -22.1487 -22.1487 -22.1143 -22.1142 -22.1142
   -22.0500 -22.0500 -22.0150 -22.0150 -21.8890 -21.8890 -21.8889 -21.6832
   -21.6577 -21.6576 -21.6575 -21.5932 -21.5931 -21.5931 -21.4962 -21.4961
    -3.2941  -2.4021  -1.3332  -0.6210  -0.6210  -0.6210  -0.4984  -0.4984
    -0.4984  -0.2240  -0.2240  -0.2240   0.3206   0.3206   0.3206   0.7336
     0.7336   0.7336   1.1393   1.2418   1.6432   1.6432   1.6432   1.6449
     1.7599   1.7599   1.7599   2.3513   2.3514   2.3515   2.4077

[...]

          k = 0.0583-0.0471 0.0000 ( 53418 PWs)   bands (ev):

[...]

          k =-0.0699 0.0404 0.0000 ( 53352 PWs)   bands (ev):

[...]

          k =-0.0699-0.0404 0.0000 ( 53352 PWs)   bands (ev):

   -42.3640 -42.3640 -42.3427 -42.3427 -42.3254 -42.3253 -42.3039 -42.3039
   -41.7691 -41.7690 -41.7479 -41.7479 -22.3946 -22.3945 -22.3664 -22.3663
   -22.3597 -22.3596 -22.3262 -22.3261 -22.3238 -22.3238 -22.2916 -22.2916
   -22.2645 -22.2645 -22.2314 -22.2314 -22.2312 -22.2311 -22.1986 -22.1986
   -22.0997 -22.0997 -22.0650 -22.0649 -21.8189 -21.8189 -21.7019 -21.7019
   -21.6733 -21.6733 -21.6661 -21.6661 -21.6540 -21.6539 -21.5450 -21.5450
    -2.0879  -2.0878  -1.2711  -1.2711  -0.3915  -0.3915  -0.2709  -0.2709
     0.0336   0.0337   0.7005   0.7006   0.7535   0.7535   0.8313   0.8313
     0.9178   0.9178   1.0685   1.0685   1.1120   1.1120   1.1807   1.1807
     1.3884   1.3884   1.5195   1.5195   1.6008   1.6008   1.8186

     the Fermi energy is     1.0027 ev

!    total energy              =   -1009.24045615 Ry
     estimated scf accuracy    <       0.00000800 Ry
     smearing contrib. (-TS)   =      -0.11222765 Ry
     internal energy E=F+TS    =   -1009.12822850 Ry

     The total energy is F=E-TS. E is the sum of the following terms:
     one-electron contribution =   -5405.26200709 Ry
     hartree contribution      =    2694.02887120 Ry
     xc contribution           =    -221.73386686 Ry
     ewald contribution        =    1923.83877424 Ry
     electric field correction =       0.00000002 Ry

     convergence has been achieved in  22 iterations

     negative rho (up, down):  1.124E-04 0.000E+00

     Forces acting on atoms (cartesian axes, Ry/au):

     atom    1 type  1   force =     0.00001971   -0.00000267    0.00478296
     atom    2 type  1   force =    -0.00002388    0.00000989    0.00476290
     atom    3 type  1   force =     0.00000938   -0.00001365    0.00479079
     atom    4 type  1   force =    -0.00001485    0.00001398    0.00476566
     atom    5 type  1   force =     0.00001668   -0.00000088   -0.00348365
     atom    6 type  1   force =    -0.00001031    0.00001138   -0.00344795
     atom    7 type  1   force =     0.00001275   -0.00001480   -0.00346209
     atom    8 type  1   force =    -0.00001372   -0.00000045   -0.00347443
     atom    9 type  1   force =     0.00000539   -0.00003020   -0.00131355
     atom   10 type  1   force =    -0.00000530    0.00000755   -0.00130297
     atom   11 type  1   force =     0.00003595    0.00000701   -0.00130471
     atom   12 type  1   force =    -0.00003180    0.00001283   -0.00131294

     Total force =     0.012090     Total SCF correction =     0.007332
     SCF correction compared to forces is large: reduce conv_thr to get better values

     Writing output data file ./Y750/Y750_beef.save/

     General routines

     Parallel routines

   This run was terminated on:  19:26:27  22Jun2022

   JOB DONE.