     Program PWSCF v.6.6 starts on 22Jun2022 at 20:14: 4

     R & G space division:  proc/nbgrp/npool/nimage =      37
     Fft bands division:     nmany     =       1
     Reading input from Zr-750.in
Warning: card &CELL ignored
Warning: card / ignored

     Current dimensions of program PWSCF are:
     Max number of different atomic species (ntypx) = 10
     Max number of k-points (npk) =  40000
     Max angular momentum in pseudopotentials (lmaxx) =  3
     Presently stress not available with electric field and gates

     Message from routine cell_base_init:
     DEPRECATED: use true lattice parameter, not A to a.u. conversion factor
     file Zr.pbe-spn-rrkjus_psl.1.0.0.UPF: wavefunction(s)  4S renormalized

     IMPORTANT: XC functional enforced from input :
     Exchange-correlation= BEEF-VDW
                           (   1   4  43  14   2   0   0)
     Any further DFT definition will be discarded
     Please, verify this is what you really want

     Subspace diagonalization in iterative solution of the eigenvalue problem:
     a serial algorithm will be used

     Message from routine find_sym:
     Not a group! Trying with lower acceptance parameter...
     Message from routine find_sym:
     Symmetry operations form a group

     bravais-lattice index     =            0
     lattice parameter (alat)  =       1.8897  a.u.
     unit-cell volume          =    6082.7782 (a.u.)^3
     number of atoms/cell      =           12
     number of atomic types    =            1
     number of electrons       =       144.00
     number of Kohn-Sham states=           86
     kinetic-energy cutoff     =      55.1240  Ry
     charge density cutoff     =     551.2396  Ry
     convergence threshold     =      1.0E-05
     mixing beta               =       0.1000
     number of iterations used =           10  plain     mixing
     Exchange-correlation= BEEF-VDW
                           (   1   4  43  14   2   0   0)

     celldm(1)=   1.889726  celldm(2)=   0.000000  celldm(3)=   0.000000
     celldm(4)=   0.000000  celldm(5)=   0.000000  celldm(6)=   0.000000

     crystal axes: (cart. coord. in units of alat)
               a(1) = (   6.421223   0.000000   0.000000 )
               a(2) = (   3.210611   5.560942   0.000000 )
               a(3) = (   0.000000   0.000000  25.242906 )

     reciprocal axes: (cart. coord. in units 2 pi/alat)
               b(1) = (  0.155734 -0.089913  0.000000 )
               b(2) = (  0.000000  0.179826  0.000000 )
               b(3) = (  0.000000  0.000000  0.039615 )

     PseudoPot. # 1 for Zr read from file:
     ../pseudo/Zr.pbe-spn-rrkjus_psl.1.0.0.UPF
     MD5 check sum: 3d17ee99aa1707c2ccb6b09ed65e51a1
     Pseudo is Ultrasoft + core correction, Zval = 12.0
     Generated using "atomic" code by A. Dal Corso v.6.2.2
     Using radial grid of 1225 points,  6 beta functions with:
                l(1) =   0
                l(2) =   0
                l(3) =   1
                l(4) =   1
                l(5) =   2
                l(6) =   2
     Q(r) pseudized with 0 coefficients

     atomic species   valence    mass     pseudopotential
        Zr            12.00    91.22400     Zr( 1.00)

     No symmetry found

   Cartesian axes

     site n.     atom                  positions (alat units)
         1           Zr  tau(   1) = (   1.6053060   0.9268239   9.9999999  )
         2           Zr  tau(   2) = (   4.8159175   0.9268239   9.9999999  )
         3           Zr  tau(   3) = (   3.2106115   3.7072949   9.9999999  )
         4           Zr  tau(   4) = (   6.4212230   3.7072949   9.9999999  )
         5           Zr  tau(   5) = (   6.4212225   1.8536471  12.6214530  )
         6           Zr  tau(   6) = (   3.2106110   1.8536471  12.6214530  )
         7           Zr  tau(   7) = (   8.0265280   4.6341181  12.6214530  )
         8           Zr  tau(   8) = (   4.8159165   4.6341181  12.6214530  )
         9           Zr  tau(   9) = (  -0.0000154  -0.0001557  15.1108402  )
        10           Zr  tau(  10) = (   3.2106208  -0.0000361  15.1107014  )
        11           Zr  tau(  11) = (   1.6054089   2.7805789  15.1107696  )
        12           Zr  tau(  12) = (   4.8158098   2.7805678  15.1107948  )

     number of k points=    74  Fermi-Dirac smearing, width (Ry)=  0.0100
                       cart. coord. in units 2pi/alat
        k(    1) = (   0.0000000   0.0000000   0.0000000), wk =   0.0138889
        k(    2) = (   0.0000000   0.0149855   0.0000000), wk =   0.0277778
        k(    3) = (   0.0000000   0.0299709   0.0000000), wk =   0.0277778
        k(    4) = (   0.0000000   0.0449564   0.0000000), wk =   0.0277778
        k(    5) = (   0.0000000   0.0599419   0.0000000), wk =   0.0277778
        k(    6) = (   0.0000000   0.0749274   0.0000000), wk =   0.0277778
        k(    7) = (   0.0000000  -0.0899128   0.0000000), wk =   0.0138889
        k(    8) = (   0.0129778  -0.0074927   0.0000000), wk =   0.0277778
        k(    9) = (   0.0129778   0.0074927   0.0000000), wk =   0.0277778
        k(   10) = (   0.0129778   0.0224782   0.0000000), wk =   0.0277778
        k(   11) = (   0.0129778   0.0374637   0.0000000), wk =   0.0277778
        k(   12) = (   0.0129778   0.0524491   0.0000000), wk =   0.0277778
        k(   13) = (   0.0129778   0.0674346   0.0000000), wk =   0.0277778
        k(   14) = (   0.0129778  -0.0974056   0.0000000), wk =   0.0277778
        k(   15) = (   0.0129778  -0.0824201   0.0000000), wk =   0.0277778
        k(   16) = (   0.0129778  -0.0674346   0.0000000), wk =   0.0277778
        k(   17) = (   0.0129778  -0.0524491   0.0000000), wk =   0.0277778
        k(   18) = (   0.0129778  -0.0374637   0.0000000), wk =   0.0277778
        k(   19) = (   0.0129778  -0.0224782   0.0000000), wk =   0.0277778
        k(   20) = (   0.0259556  -0.0149855   0.0000000), wk =   0.0277778
        k(   21) = (   0.0259556   0.0000000   0.0000000), wk =   0.0277778
        k(   22) = (   0.0259556   0.0149855   0.0000000), wk =   0.0277778
        k(   23) = (   0.0259556   0.0299709   0.0000000), wk =   0.0277778
        k(   24) = (   0.0259556   0.0449564   0.0000000), wk =   0.0277778
        k(   25) = (   0.0259556   0.0599419   0.0000000), wk =   0.0277778
        k(   26) = (   0.0259556  -0.1048983   0.0000000), wk =   0.0277778
        k(   27) = (   0.0259556  -0.0899128   0.0000000), wk =   0.0277778
        k(   28) = (   0.0259556  -0.0749274   0.0000000), wk =   0.0277778
        k(   29) = (   0.0259556  -0.0599419   0.0000000), wk =   0.0277778
        k(   30) = (   0.0259556  -0.0449564   0.0000000), wk =   0.0277778
        k(   31) = (   0.0259556  -0.0299709   0.0000000), wk =   0.0277778
        k(   32) = (   0.0389334  -0.0224782   0.0000000), wk =   0.0277778
        k(   33) = (   0.0389334  -0.0074927   0.0000000), wk =   0.0277778
        k(   34) = (   0.0389334   0.0074927   0.0000000), wk =   0.0277778
        k(   35) = (   0.0389334   0.0224782   0.0000000), wk =   0.0277778
        k(   36) = (   0.0389334   0.0374637   0.0000000), wk =   0.0277778
        k(   37) = (   0.0389334   0.0524492   0.0000000), wk =   0.0277778
        k(   38) = (   0.0389334  -0.1123910   0.0000000), wk =   0.0277778
        k(   39) = (   0.0389334  -0.0974056   0.0000000), wk =   0.0277778
        k(   40) = (   0.0389334  -0.0824201   0.0000000), wk =   0.0277778
        k(   41) = (   0.0389334  -0.0674346   0.0000000), wk =   0.0277778
        k(   42) = (   0.0389334  -0.0524491   0.0000000), wk =   0.0277778
        k(   43) = (   0.0389334  -0.0374637   0.0000000), wk =   0.0277778
        k(   44) = (   0.0519112  -0.0299709   0.0000000), wk =   0.0277778
        k(   45) = (   0.0519112  -0.0149855   0.0000000), wk =   0.0277778
        k(   46) = (   0.0519112   0.0000000   0.0000000), wk =   0.0277778
        k(   47) = (   0.0519112   0.0149855   0.0000000), wk =   0.0277778
        k(   48) = (   0.0519112   0.0299709   0.0000000), wk =   0.0277778
        k(   49) = (   0.0519112   0.0449564   0.0000000), wk =   0.0277778
        k(   50) = (   0.0519112  -0.1198838   0.0000000), wk =   0.0277778
        k(   51) = (   0.0519112  -0.1048983   0.0000000), wk =   0.0277778
        k(   52) = (   0.0519112  -0.0899128   0.0000000), wk =   0.0277778
        k(   53) = (   0.0519112  -0.0749273   0.0000000), wk =   0.0277778
        k(   54) = (   0.0519112  -0.0599419   0.0000000), wk =   0.0277778
        k(   55) = (   0.0519112  -0.0449564   0.0000000), wk =   0.0277778
        k(   56) = (   0.0648890  -0.0374637   0.0000000), wk =   0.0277778
        k(   57) = (   0.0648890  -0.0224782   0.0000000), wk =   0.0277778
        k(   58) = (   0.0648890  -0.0074927   0.0000000), wk =   0.0277778
        k(   59) = (   0.0648890   0.0074927   0.0000000), wk =   0.0277778
        k(   60) = (   0.0648890   0.0224782   0.0000000), wk =   0.0277778
        k(   61) = (   0.0648890   0.0374637   0.0000000), wk =   0.0277778
        k(   62) = (   0.0648890  -0.1273765   0.0000000), wk =   0.0277778
        k(   63) = (   0.0648890  -0.1123910   0.0000000), wk =   0.0277778
        k(   64) = (   0.0648890  -0.0974056   0.0000000), wk =   0.0277778
        k(   65) = (   0.0648890  -0.0824201   0.0000000), wk =   0.0277778
        k(   66) = (   0.0648890  -0.0674346   0.0000000), wk =   0.0277778
        k(   67) = (   0.0648890  -0.0524491   0.0000000), wk =   0.0277778
        k(   68) = (  -0.0778668   0.0449564   0.0000000), wk =   0.0138889
        k(   69) = (  -0.0778668   0.0599419   0.0000000), wk =   0.0277778
        k(   70) = (  -0.0778668   0.0749273   0.0000000), wk =   0.0277778
        k(   71) = (  -0.0778668   0.0899128   0.0000000), wk =   0.0277778
        k(   72) = (  -0.0778668   0.1048983   0.0000000), wk =   0.0277778
        k(   73) = (  -0.0778668   0.1198838   0.0000000), wk =   0.0277778
        k(   74) = (  -0.0778668  -0.0449564   0.0000000), wk =   0.0138889

     Initial potential from superposition of free atoms

     starting charge  143.97419, renormalised to  144.00000

     negative rho (up, down):  4.149E-04 0.000E+00

     %%%%%%%%%%%%%%%%%%%%%%%%%%%%%%%%%%%%%%%%%%%%%%%%%%%%%%%%%%%%%%%%%%%%%%%%
     %                                                                      %
     % You are using vdW-DF, which was implemented by the Thonhauser group. %
     % Please cite the following two papers that made this development      %
     % possible and the two reviews that describe the various versions:     %
     %                                                                      %
     %   T. Thonhauser et al., PRL 115, 136402 (2015).                      %
     %   T. Thonhauser et al., PRB 76, 125112 (2007).                       %
     %   K. Berland et al., Rep. Prog. Phys. 78, 066501 (2015).             %
     %   D.C. Langreth et al., J. Phys.: Condens. Matter 21, 084203 (2009). %
     %                                                                      %
     %                                                                      %
     % If you are calculating the stress with vdW-DF, please also cite:     %
     %                                                                      %
     %   R. Sabatini et al., J. Phys.: Condens. Matter 24, 424209 (2012).   %
     %                                                                      %
     %%%%%%%%%%%%%%%%%%%%%%%%%%%%%%%%%%%%%%%%%%%%%%%%%%%%%%%%%%%%%%%%%%%%%%%%

     Adding external electric field

     Computed dipole along edir(3) :
        Dipole                0.0000 Ry au,          0.0000 Debye
        Dipole field          0.0000 Ry au,

        Potential amp.       -0.0000 Ry
        Total length         46.5096 bohr

     Starting wfcs are  156 randomized atomic wfcs

     Self-consistent Calculation

     iteration #  1     ecut=    55.12 Ry     beta= 0.10
     Davidson diagonalization with overlap
     ethr =  1.00E-02,  avg # of iterations =  2.0

[...]

     total energy              =   -1199.09589724 Ry
     estimated scf accuracy    <       8.39658320 Ry

[...]

     iteration # 10     ecut=    55.12 Ry     beta= 0.10
     Davidson diagonalization with overlap
     c_bands:  2 eigenvalues not converged
     c_bands:  2 eigenvalues not converged
     c_bands:  2 eigenvalues not converged
     c_bands:  1 eigenvalues not converged
     c_bands:  1 eigenvalues not converged
     c_bands:  2 eigenvalues not converged
     c_bands:  2 eigenvalues not converged
     c_bands:  1 eigenvalues not converged
     c_bands:  1 eigenvalues not converged
     c_bands:  1 eigenvalues not converged
     c_bands:  1 eigenvalues not converged
     ethr =  4.78E-06,  avg # of iterations = 12.3

[...]

     total energy              =   -1199.94386811 Ry
     estimated scf accuracy    <       0.00393383 Ry

     iteration # 15     ecut=    55.12 Ry     beta= 0.10
     Davidson diagonalization with overlap
     ethr =  2.86E-07,  avg # of iterations =  2.4

[...]

     Adding external electric field

     Computed dipole along edir(3) :
        Dipole               -0.0077 Ry au,         -0.0195 Debye
        Dipole field         -0.0000 Ry au,

        Potential amp.        0.0015 Ry
        Total length         46.5096 bohr

     End of self-consistent calculation

          k = 0.0000 0.0000 0.0000 ( 42047 PWs)   bands (ev):

   -47.8903 -47.8541 -47.8004 -47.8003 -47.8003 -47.7609 -47.7607 -47.7605
   -47.5105 -47.4314 -47.4310 -47.4306 -26.1916 -26.1916 -26.1915 -26.1303
   -26.1302 -26.1301 -26.1155 -26.0140 -26.0138 -26.0137 -25.8953 -25.7928
   -25.7928 -25.7927 -25.6291 -25.6291 -25.6290 -25.6006 -25.6005 -25.6005
   -25.5969 -25.5967 -25.5966 -25.4608 -25.4608 -25.4331 -25.4330 -25.3424
   -25.3421 -25.3417 -25.3051 -25.2531 -25.2529 -25.2528 -25.1059 -25.1059
    -3.6002  -2.4701  -1.6579  -1.2660  -1.2660  -1.2660  -1.1024  -1.1024
    -1.1024  -0.6508  -0.6508  -0.6508  -0.4776  -0.4776  -0.4775   0.4263
     0.4263   0.4264   1.2477   1.4306   1.6600   1.6600   1.6601   2.0510
     2.0829   2.0830   2.0831   2.2110   2.2110   2.4078   2.4714   2.4715
     2.4715   2.4720   2.4721   2.5248   2.5248   2.7019

[...]

          k = 0.0649-0.0524 0.0000 ( 42060 PWs)   bands (ev):

[...]

          k =-0.0779 0.0450 0.0000 ( 42062 PWs)   bands (ev):

[...]

          k =-0.0779-0.0450 0.0000 ( 42062 PWs)   bands (ev):

   -47.8455 -47.8454 -47.8078 -47.8078 -47.8004 -47.8003 -47.7608 -47.7607
   -47.4710 -47.4708 -47.4311 -47.4309 -26.0622 -26.0622 -26.0139 -26.0138
   -26.0075 -26.0074 -25.9259 -25.9258 -25.8935 -25.8934 -25.8529 -25.8528
   -25.8118 -25.8117 -25.7919 -25.7917 -25.7582 -25.7581 -25.7441 -25.7441
   -25.5454 -25.5453 -25.5264 -25.5263 -25.5182 -25.5182 -25.4106 -25.4105
   -25.3829 -25.3827 -25.3182 -25.3180 -25.2962 -25.2961 -25.1799 -25.1798
    -2.1551  -2.1551  -1.2073  -1.2073  -0.5323  -0.5323  -0.4331  -0.4330
    -0.4225  -0.4225   0.2828   0.2829   0.3555   0.3556   0.4011   0.4012
     0.7820   0.7820   0.8030   0.8030   0.9270   0.9270   1.1971   1.1972
     1.2131   1.2132   1.4398   1.4399   1.4743   1.4746   1.6810   1.6812
     2.0276   2.0276   2.1834   2.1834   2.3685   2.3687

     the Fermi energy is     1.3865 ev

!    total energy              =   -1199.94392558 Ry
     estimated scf accuracy    <       0.00000696 Ry
     smearing contrib. (-TS)   =      -0.09883417 Ry
     internal energy E=F+TS    =   -1199.84509140 Ry

     The total energy is F=E-TS. E is the sum of the following terms:
     one-electron contribution =   -8334.94155727 Ry
     hartree contribution      =    4158.21872063 Ry
     xc contribution           =    -223.14251900 Ry
     ewald contribution        =    3200.02026412 Ry
     electric field correction =       0.00000012 Ry

     convergence has been achieved in  15 iterations

     negative rho (up, down):  4.575E-04 0.000E+00

     Forces acting on atoms (cartesian axes, Ry/au):

     atom    1 type  1   force =    -0.00001623    0.00003328    0.01177452
     atom    2 type  1   force =     0.00001715    0.00001220    0.01184397
     atom    3 type  1   force =    -0.00001774   -0.00001311    0.01178205
     atom    4 type  1   force =     0.00001836   -0.00003359    0.01181375
     atom    5 type  1   force =    -0.00000624   -0.00000329   -0.01300161
     atom    6 type  1   force =     0.00000620    0.00000171   -0.01303904
     atom    7 type  1   force =     0.00000103    0.00000384   -0.01301824
     atom    8 type  1   force =    -0.00000614   -0.00000331   -0.01301300
     atom    9 type  1   force =     0.00002940    0.00001797    0.00119390
     atom   10 type  1   force =    -0.00002776   -0.00000676    0.00124028
     atom   11 type  1   force =    -0.00001909   -0.00002114    0.00119888
     atom   12 type  1   force =     0.00002106    0.00001220    0.00122454

     Total force =     0.035229     Total SCF correction =     0.010238
     SCF correction compared to forces is large: reduce conv_thr to get better values

     Writing output data file ./Zr750/Zr750_beef.save/

     General routines

     Parallel routines

   This run was terminated on:  21:19:29  22Jun2022

   JOB DONE.