     Program PWSCF v.5.1rc2 starts on 14Nov2017 at  9:35: 2

     Current dimensions of program PWSCF are:
     Max number of different atomic species (ntypx) = 10
     Max number of k-points (npk) =  40000
     Max angular momentum in pseudopotentials (lmaxx) =  3

     IMPORTANT: XC functional enforced from input :
     Exchange-correlation      = BEEF-VDW ( 1  4 27 13 2)
     Any further DFT definition will be discarded
     Please, verify this is what you really want

     Found symmetry operation: I + ( -0.5000 -0.5000  0.0000)
     This is a supercell, fractional translations are disabled

     bravais-lattice index     =            0
     lattice parameter (alat)  =       1.8897  a.u.
     unit-cell volume          =     571.7609 (a.u.)^3
     number of atoms/cell      =            4
     number of atomic types    =            2
     number of electrons       =        50.00
     number of Kohn-Sham states=           45
     kinetic-energy cutoff     =      58.7989  Ry
     charge density cutoff     =     587.9892  Ry
     convergence threshold     =      1.0E-06
     mixing beta               =       0.1000
     number of iterations used =           10  plain     mixing
     Exchange-correlation      = BEEF-VDW ( 1  4 27 13 2)

     celldm(1)=   1.889726  celldm(2)=   0.000000  celldm(3)=   0.000000
     celldm(4)=   0.000000  celldm(5)=   0.000000  celldm(6)=   0.000000

     crystal axes: (cart. coord. in units of alat)
               a(1) = (   4.130392   0.000000   0.000000 )
               a(2) = (   0.000000   4.130392   0.000000 )
               a(3) = (   0.000000   0.000000   4.966328 )

     reciprocal axes: (cart. coord. in units 2 pi/alat)
               b(1) = (  0.242108  0.000000  0.000000 )
               b(2) = (  0.000000  0.242108  0.000000 )
               b(3) = (  0.000000  0.000000  0.201356 )

     PseudoPot. # 1 for Y  read from file:
     /home/users/vossj/suncat/psp/gbrv1.5pbe/Y.UPF
     MD5 check sum: d034151ed7554c50b6e82763ed42c788
     Pseudo is Ultrasoft + core correction, Zval = 11.0
     Generated by new atomic code, or converted to UPF format
     Using radial grid of  885 points,  6 beta functions with:
                l(1) =   0
                l(2) =   0
                l(3) =   1
                l(4) =   1
                l(5) =   2
                l(6) =   2
     Q(r) pseudized with  8 coefficients,  rinner =    1.200   1.200   1.200
                                                       1.200   1.200

     PseudoPot. # 2 for W  read from file:
     /home/users/vossj/suncat/psp/gbrv1.5pbe/W.UPF
     MD5 check sum: 9c083fa34c2a2ea0f02f1f893e16e1c8
     Pseudo is Ultrasoft + core correction, Zval = 14.0
     Generated by new atomic code, or converted to UPF format
     Using radial grid of  923 points,  8 beta functions with:
                l(1) =   0
                l(2) =   0
                l(3) =   0
                l(4) =   1
                l(5) =   1
                l(6) =   2
                l(7) =   2
                l(8) =   3
     Q(r) pseudized with  6 coefficients,  rinner =    1.350   1.350   1.350
                                                       1.350   1.350   1.350
                                                       1.350

     vdW kernel table read from file vdW_kernel_table
     MD5 check sum: 095c7af220d748ca6e76c0b4c6cfb241

     atomic species   valence    mass     pseudopotential
        Y1            11.00    88.90590     Y ( 1.00)
        W1            14.00   183.85000     W ( 1.00)

     16 Sym. Ops., with inversion, found

   Cartesian axes

     site n.     atom                  positions (alat units)
         1           Y1  tau(   1) = (   0.0000000   0.0000000   0.0000000  )
         2           Y1  tau(   2) = (   2.0651959   2.0651959   0.0000000  )
         3           W1  tau(   3) = (   2.0651959   0.0000000   2.4831638  )
         4           W1  tau(   4) = (   0.0000000   2.0651959   2.4831638  )

     number of k points=    75  Fermi-Dirac smearing, width (Ry)=  0.0073
                       cart. coord. in units 2pi/alat
        k(    1) = (   0.0000000   0.0000000   0.0000000), wk =   0.0027435
        k(    2) = (   0.0000000   0.0000000   0.0223729), wk =   0.0054870
        k(    3) = (   0.0000000   0.0000000   0.0447458), wk =   0.0054870
        k(    4) = (   0.0000000   0.0000000   0.0671187), wk =   0.0054870
        k(    5) = (   0.0000000   0.0000000   0.0894916), wk =   0.0054870
        k(    6) = (   0.0000000   0.0269009   0.0000000), wk =   0.0109739
        k(    7) = (   0.0000000   0.0269009   0.0223729), wk =   0.0219479
        k(    8) = (   0.0000000   0.0269009   0.0447458), wk =   0.0219479
        k(    9) = (   0.0000000   0.0269009   0.0671187), wk =   0.0219479
        k(   10) = (   0.0000000   0.0269009   0.0894916), wk =   0.0219479
        k(   11) = (   0.0000000   0.0538017   0.0000000), wk =   0.0109739
        k(   12) = (   0.0000000   0.0538017   0.0223729), wk =   0.0219479
        k(   13) = (   0.0000000   0.0538017   0.0447458), wk =   0.0219479
        k(   14) = (   0.0000000   0.0538017   0.0671187), wk =   0.0219479
        k(   15) = (   0.0000000   0.0538017   0.0894916), wk =   0.0219479
        k(   16) = (   0.0000000   0.0807026   0.0000000), wk =   0.0109739
        k(   17) = (   0.0000000   0.0807026   0.0223729), wk =   0.0219479
        k(   18) = (   0.0000000   0.0807026   0.0447458), wk =   0.0219479
        k(   19) = (   0.0000000   0.0807026   0.0671187), wk =   0.0219479
        k(   20) = (   0.0000000   0.0807026   0.0894916), wk =   0.0219479
        k(   21) = (   0.0000000   0.1076035   0.0000000), wk =   0.0109739
        k(   22) = (   0.0000000   0.1076035   0.0223729), wk =   0.0219479
        k(   23) = (   0.0000000   0.1076035   0.0447458), wk =   0.0219479
        k(   24) = (   0.0000000   0.1076035   0.0671187), wk =   0.0219479
        k(   25) = (   0.0000000   0.1076035   0.0894916), wk =   0.0219479
        k(   26) = (   0.0269009   0.0269009   0.0000000), wk =   0.0109739
        k(   27) = (   0.0269009   0.0269009   0.0223729), wk =   0.0219479
        k(   28) = (   0.0269009   0.0269009   0.0447458), wk =   0.0219479
        k(   29) = (   0.0269009   0.0269009   0.0671187), wk =   0.0219479
        k(   30) = (   0.0269009   0.0269009   0.0894916), wk =   0.0219479
        k(   31) = (   0.0269009   0.0538017   0.0000000), wk =   0.0219479
        k(   32) = (   0.0269009   0.0538017   0.0223729), wk =   0.0438957
        k(   33) = (   0.0269009   0.0538017   0.0447458), wk =   0.0438957
        k(   34) = (   0.0269009   0.0538017   0.0671187), wk =   0.0438957
        k(   35) = (   0.0269009   0.0538017   0.0894916), wk =   0.0438957
        k(   36) = (   0.0269009   0.0807026   0.0000000), wk =   0.0219479
        k(   37) = (   0.0269009   0.0807026   0.0223729), wk =   0.0438957
        k(   38) = (   0.0269009   0.0807026   0.0447458), wk =   0.0438957
        k(   39) = (   0.0269009   0.0807026   0.0671187), wk =   0.0438957
        k(   40) = (   0.0269009   0.0807026   0.0894916), wk =   0.0438957
        k(   41) = (   0.0269009   0.1076035   0.0000000), wk =   0.0219479
        k(   42) = (   0.0269009   0.1076035   0.0223729), wk =   0.0438957
        k(   43) = (   0.0269009   0.1076035   0.0447458), wk =   0.0438957
        k(   44) = (   0.0269009   0.1076035   0.0671187), wk =   0.0438957
        k(   45) = (   0.0269009   0.1076035   0.0894916), wk =   0.0438957
        k(   46) = (   0.0538017   0.0538017   0.0000000), wk =   0.0109739
        k(   47) = (   0.0538017   0.0538017   0.0223729), wk =   0.0219479
        k(   48) = (   0.0538017   0.0538017   0.0447458), wk =   0.0219479
        k(   49) = (   0.0538017   0.0538017   0.0671187), wk =   0.0219479
        k(   50) = (   0.0538017   0.0538017   0.0894916), wk =   0.0219479
        k(   51) = (   0.0538017   0.0807026   0.0000000), wk =   0.0219479
        k(   52) = (   0.0538017   0.0807026   0.0223729), wk =   0.0438957
        k(   53) = (   0.0538017   0.0807026   0.0447458), wk =   0.0438957
        k(   54) = (   0.0538017   0.0807026   0.0671187), wk =   0.0438957
        k(   55) = (   0.0538017   0.0807026   0.0894916), wk =   0.0438957
        k(   56) = (   0.0538017   0.1076035   0.0000000), wk =   0.0219479
        k(   57) = (   0.0538017   0.1076035   0.0223729), wk =   0.0438957
        k(   58) = (   0.0538017   0.1076035   0.0447458), wk =   0.0438957
        k(   59) = (   0.0538017   0.1076035   0.0671187), wk =   0.0438957
        k(   60) = (   0.0538017   0.1076035   0.0894916), wk =   0.0438957
        k(   61) = (   0.0807026   0.0807026   0.0000000), wk =   0.0109739
        k(   62) = (   0.0807026   0.0807026   0.0223729), wk =   0.0219479
        k(   63) = (   0.0807026   0.0807026   0.0447458), wk =   0.0219479
        k(   64) = (   0.0807026   0.0807026   0.0671187), wk =   0.0219479
        k(   65) = (   0.0807026   0.0807026   0.0894916), wk =   0.0219479
        k(   66) = (   0.0807026   0.1076035   0.0000000), wk =   0.0219479
        k(   67) = (   0.0807026   0.1076035   0.0223729), wk =   0.0438957
        k(   68) = (   0.0807026   0.1076035   0.0447458), wk =   0.0438957
        k(   69) = (   0.0807026   0.1076035   0.0671187), wk =   0.0438957
        k(   70) = (   0.0807026   0.1076035   0.0894916), wk =   0.0438957
        k(   71) = (   0.1076035   0.1076035   0.0000000), wk =   0.0109739
        k(   72) = (   0.1076035   0.1076035   0.0223729), wk =   0.0219479
        k(   73) = (   0.1076035   0.1076035   0.0447458), wk =   0.0219479
        k(   74) = (   0.1076035   0.1076035   0.0671187), wk =   0.0219479
        k(   75) = (   0.1076035   0.1076035   0.0894916), wk =   0.0219479

     Largest allocated arrays     est. size (Mb)     dimensions
     Largest temporary arrays     est. size (Mb)     dimensions

     Initial potential from superposition of free atoms
     Check: negative starting charge=   -0.125816

     starting charge   49.79038, renormalised to   50.00000

     negative rho (up, down):  1.263E-01 0.000E+00

     *
     * You are using vdW-DF for exchange-correlation in this calculation.
     * Please cite the following three references that made this development
     * possible:
     *
     *   M. Dion, H. Rydberg, E. Schroder, D. C. Langreth, and
     *   B. I. Lundqvist, Phys. Rev. Lett. 92, 246401 (2004).
     *
     *   T. Thonhauser, V. R. Cooper, S. Li, A. Puzder, P. Hyldgaard, and
     *   D. C. Langreth, Phys. Rev. B 76, 125112 (2007).
     *
     *   G. Roman-Perez and J. M. Soler, Phys. Rev. Lett. 103, 096102 (2009).
     *
     *
     * If you are using vdW-DF2, please also cite:
     *
     *   K. Lee, E. D. Murray, L. Kong, B. I. Lundqvist, and
     *   D. C. Langreth, Phys. Rev. B 82, 081101(R) (2010).
     *
     *
     * If you are calculating the stress with vdW-DF, please also cite:
     *
     *   R. Sabatini, E. Kucukbenli, B. Kolb, T. Thonhauser, and
     *   S. de Gironcoli, J. Phys.: Condens. Matter 24, 424209 (2012).
     *

     Carrying out vdW-DF run using the following parameters:

     Nqs =      20    Nr_points =    1024   r_max =   100.000
     q_mesh =
               0.00001000     0.04494208     0.09755937     0.15916263
               0.23128650     0.31572767     0.41458969     0.53033537
               0.66584808     0.82450364     1.01025438     1.22772762
               1.48234092     1.78043706     2.12944203     2.53805004
               3.01644009     3.57652955     4.23227104     5.00000000

     Gradients computed in reciprocal space

     Starting wfc are   52 randomized atomic wfcs

     Self-consistent Calculation

     iteration #  1     ecut=    58.80 Ry     beta=0.10
     Davidson diagonalization with overlap
     ethr =  1.00E-02,  avg # of iterations =  4.7

     Threshold (ethr) on eigenvalues was too large:
     Diagonalizing with lowered threshold

     Davidson diagonalization with overlap
     ethr =  3.07E-04,  avg # of iterations =  2.7

[...]

     total energy              =    -508.22090047 Ry
     Harris-Foulkes estimate   =    -508.24106739 Ry
     estimated scf accuracy    <       0.15864184 Ry

[...]

     total energy              =    -508.21700944 Ry
     Harris-Foulkes estimate   =    -508.21700945 Ry
     estimated scf accuracy    <       0.00000109 Ry

     iteration #  9     ecut=    58.80 Ry     beta=0.10
     Davidson diagonalization with overlap
     ethr =  2.19E-09,  avg # of iterations =  3.3

     negative rho (up, down):  1.367E-01 0.000E+00

     End of self-consistent calculation

          k = 0.0000 0.0000 0.0000 (  4371 PWs)   bands (ev):

   -58.6818 -58.6330 -26.8712 -26.4308 -22.9147 -22.9147 -22.7202 -22.6209
   -22.5101 -22.5101  -7.5063  -7.5063  -6.7180  -6.2669  -6.0914  -6.0914
     8.8585  11.9489  11.9658  12.1295  12.7945  12.9461  12.9461  15.5612
    16.7723  16.7723  17.0623  17.2564  18.9333  19.1185  19.5908  19.5908
    20.3720  20.3720  20.6356  21.9145  22.2500  22.2500  23.0467  23.0961
    25.3410  25.8759  25.9403  26.2499  27.2369

[...]

          k = 0.1076 0.1076 0.0895 (  4317 PWs)   bands (ev):

   -58.6579 -58.6565 -26.6531 -26.6396 -22.9673 -22.9555 -22.6712 -22.6685
   -22.4848 -22.4722  -7.7725  -7.7346  -6.4987  -6.4838  -5.9784  -5.9302
    11.4053  11.4971  12.4649  12.4889  14.3122  14.3956  15.7353  16.0594
    16.2409  16.4516  16.4707  16.8181  16.9665  17.0796  17.1574  17.2876
    20.3646  20.4006  20.4179  20.7099  22.0622  22.1270  22.1545  22.2873
    23.9658  24.1507  25.9546  26.0276  26.7610

     the Fermi energy is    15.5479 ev

!    total energy              =    -508.21703387 Ry
     Harris-Foulkes estimate   =    -508.21700983 Ry
     estimated scf accuracy    <       0.00000030 Ry

     The total energy is the sum of the following terms:

     one-electron contribution =     -82.66632633 Ry
     hartree contribution      =      63.16558047 Ry
     xc contribution           =    -141.93631268 Ry
     ewald contribution        =    -346.76842148 Ry
     smearing contrib. (-TS)   =      -0.01155385 Ry

     convergence has been achieved in   9 iterations

     Forces acting on atoms (Ry/au):

     negative rho (up, down):  1.367E-01 0.000E+00
     atom    1 type  1   force =     0.00000000    0.00000000    0.00000000
     atom    2 type  1   force =     0.00000000    0.00000000    0.00000000
     atom    3 type  2   force =     0.00000000    0.00000000    0.00000000
     atom    4 type  2   force =     0.00000000    0.00000000    0.00000000

     Total force =     0.000000     Total SCF correction =     0.000000

     General routines

     Parallel routines

   This run was terminated on:   9:35:38  14Nov2017

   JOB DONE.