     Program PWSCF v.5.1rc2 starts on 15Nov2017 at  6: 7: 5

     Current dimensions of program PWSCF are:
     Max number of different atomic species (ntypx) = 10
     Max number of k-points (npk) =  40000
     Max angular momentum in pseudopotentials (lmaxx) =  3

     IMPORTANT: XC functional enforced from input :
     Exchange-correlation      = BEEF-VDW ( 1  4 27 13 2)
     Any further DFT definition will be discarded
     Please, verify this is what you really want

     Found symmetry operation: I + ( -0.5000 -0.5000  0.0000)
     This is a supercell, fractional translations are disabled

     bravais-lattice index     =            0
     lattice parameter (alat)  =       1.8897  a.u.
     unit-cell volume          =     411.5273 (a.u.)^3
     number of atoms/cell      =            4
     number of atomic types    =            2
     number of electrons       =        54.00
     number of Kohn-Sham states=           47
     kinetic-energy cutoff     =      58.7989  Ry
     charge density cutoff     =     587.9892  Ry
     convergence threshold     =      1.0E-06
     mixing beta               =       0.1000
     number of iterations used =           10  plain     mixing
     Exchange-correlation      = BEEF-VDW ( 1  4 27 13 2)

     celldm(1)=   1.889726  celldm(2)=   0.000000  celldm(3)=   0.000000
     celldm(4)=   0.000000  celldm(5)=   0.000000  celldm(6)=   0.000000

     crystal axes: (cart. coord. in units of alat)
               a(1) = (   3.680868   0.000000   0.000000 )
               a(2) = (   0.000000   3.680868   0.000000 )
               a(3) = (   0.000000   0.000000   4.500922 )

     reciprocal axes: (cart. coord. in units 2 pi/alat)
               b(1) = (  0.271675  0.000000  0.000000 )
               b(2) = (  0.000000  0.271675  0.000000 )
               b(3) = (  0.000000  0.000000  0.222177 )

     PseudoPot. # 1 for V  read from file:
     /home/users/vossj/suncat/psp/gbrv1.5pbe/V.UPF
     MD5 check sum: 22b79981416ebb76fdaf5b1b8640f6fb
     Pseudo is Ultrasoft + core correction, Zval = 13.0
     Generated by new atomic code, or converted to UPF format
     Using radial grid of  853 points,  6 beta functions with:
                l(1) =   0
                l(2) =   0
                l(3) =   1
                l(4) =   1
                l(5) =   2
                l(6) =   2
     Q(r) pseudized with  8 coefficients,  rinner =    1.100   1.100   1.100
                                                       1.100   1.100

     PseudoPot. # 2 for W  read from file:
     /home/users/vossj/suncat/psp/gbrv1.5pbe/W.UPF
     MD5 check sum: 9c083fa34c2a2ea0f02f1f893e16e1c8
     Pseudo is Ultrasoft + core correction, Zval = 14.0
     Generated by new atomic code, or converted to UPF format
     Using radial grid of  923 points,  8 beta functions with:
                l(1) =   0
                l(2) =   0
                l(3) =   0
                l(4) =   1
                l(5) =   1
                l(6) =   2
                l(7) =   2
                l(8) =   3
     Q(r) pseudized with  6 coefficients,  rinner =    1.350   1.350   1.350
                                                       1.350   1.350   1.350
                                                       1.350

     vdW kernel table read from file vdW_kernel_table
     MD5 check sum: 095c7af220d748ca6e76c0b4c6cfb241

     atomic species   valence    mass     pseudopotential
        V1            13.00    50.94150     V ( 1.00)
        W1            14.00   183.85000     W ( 1.00)

     16 Sym. Ops., with inversion, found

   Cartesian axes

     site n.     atom                  positions (alat units)
         1           V1  tau(   1) = (   0.0000000   0.0000000   0.0000000  )
         2           V1  tau(   2) = (   1.8404341   1.8404341   0.0000000  )
         3           W1  tau(   3) = (   1.8404341   0.0000000   2.2504610  )
         4           W1  tau(   4) = (   0.0000000   1.8404341   2.2504610  )

     number of k points=    75  Fermi-Dirac smearing, width (Ry)=  0.0073
                       cart. coord. in units 2pi/alat
        k(    1) = (   0.0000000   0.0000000   0.0000000), wk =   0.0027435
        k(    2) = (   0.0000000   0.0000000   0.0246863), wk =   0.0054870
        k(    3) = (   0.0000000   0.0000000   0.0493726), wk =   0.0054870
        k(    4) = (   0.0000000   0.0000000   0.0740589), wk =   0.0054870
        k(    5) = (   0.0000000   0.0000000   0.0987452), wk =   0.0054870
        k(    6) = (   0.0000000   0.0301861   0.0000000), wk =   0.0109739
        k(    7) = (   0.0000000   0.0301861   0.0246863), wk =   0.0219479
        k(    8) = (   0.0000000   0.0301861   0.0493726), wk =   0.0219479
        k(    9) = (   0.0000000   0.0301861   0.0740589), wk =   0.0219479
        k(   10) = (   0.0000000   0.0301861   0.0987452), wk =   0.0219479
        k(   11) = (   0.0000000   0.0603722   0.0000000), wk =   0.0109739
        k(   12) = (   0.0000000   0.0603722   0.0246863), wk =   0.0219479
        k(   13) = (   0.0000000   0.0603722   0.0493726), wk =   0.0219479
        k(   14) = (   0.0000000   0.0603722   0.0740589), wk =   0.0219479
        k(   15) = (   0.0000000   0.0603722   0.0987452), wk =   0.0219479
        k(   16) = (   0.0000000   0.0905583   0.0000000), wk =   0.0109739
        k(   17) = (   0.0000000   0.0905583   0.0246863), wk =   0.0219479
        k(   18) = (   0.0000000   0.0905583   0.0493726), wk =   0.0219479
        k(   19) = (   0.0000000   0.0905583   0.0740589), wk =   0.0219479
        k(   20) = (   0.0000000   0.0905583   0.0987452), wk =   0.0219479
        k(   21) = (   0.0000000   0.1207445   0.0000000), wk =   0.0109739
        k(   22) = (   0.0000000   0.1207445   0.0246863), wk =   0.0219479
        k(   23) = (   0.0000000   0.1207445   0.0493726), wk =   0.0219479
        k(   24) = (   0.0000000   0.1207445   0.0740589), wk =   0.0219479
        k(   25) = (   0.0000000   0.1207445   0.0987452), wk =   0.0219479
        k(   26) = (   0.0301861   0.0301861   0.0000000), wk =   0.0109739
        k(   27) = (   0.0301861   0.0301861   0.0246863), wk =   0.0219479
        k(   28) = (   0.0301861   0.0301861   0.0493726), wk =   0.0219479
        k(   29) = (   0.0301861   0.0301861   0.0740589), wk =   0.0219479
        k(   30) = (   0.0301861   0.0301861   0.0987452), wk =   0.0219479
        k(   31) = (   0.0301861   0.0603722   0.0000000), wk =   0.0219479
        k(   32) = (   0.0301861   0.0603722   0.0246863), wk =   0.0438957
        k(   33) = (   0.0301861   0.0603722   0.0493726), wk =   0.0438957
        k(   34) = (   0.0301861   0.0603722   0.0740589), wk =   0.0438957
        k(   35) = (   0.0301861   0.0603722   0.0987452), wk =   0.0438957
        k(   36) = (   0.0301861   0.0905583   0.0000000), wk =   0.0219479
        k(   37) = (   0.0301861   0.0905583   0.0246863), wk =   0.0438957
        k(   38) = (   0.0301861   0.0905583   0.0493726), wk =   0.0438957
        k(   39) = (   0.0301861   0.0905583   0.0740589), wk =   0.0438957
        k(   40) = (   0.0301861   0.0905583   0.0987452), wk =   0.0438957
        k(   41) = (   0.0301861   0.1207445   0.0000000), wk =   0.0219479
        k(   42) = (   0.0301861   0.1207445   0.0246863), wk =   0.0438957
        k(   43) = (   0.0301861   0.1207445   0.0493726), wk =   0.0438957
        k(   44) = (   0.0301861   0.1207445   0.0740589), wk =   0.0438957
        k(   45) = (   0.0301861   0.1207445   0.0987452), wk =   0.0438957
        k(   46) = (   0.0603722   0.0603722   0.0000000), wk =   0.0109739
        k(   47) = (   0.0603722   0.0603722   0.0246863), wk =   0.0219479
        k(   48) = (   0.0603722   0.0603722   0.0493726), wk =   0.0219479
        k(   49) = (   0.0603722   0.0603722   0.0740589), wk =   0.0219479
        k(   50) = (   0.0603722   0.0603722   0.0987452), wk =   0.0219479
        k(   51) = (   0.0603722   0.0905583   0.0000000), wk =   0.0219479
        k(   52) = (   0.0603722   0.0905583   0.0246863), wk =   0.0438957
        k(   53) = (   0.0603722   0.0905583   0.0493726), wk =   0.0438957
        k(   54) = (   0.0603722   0.0905583   0.0740589), wk =   0.0438957
        k(   55) = (   0.0603722   0.0905583   0.0987452), wk =   0.0438957
        k(   56) = (   0.0603722   0.1207445   0.0000000), wk =   0.0219479
        k(   57) = (   0.0603722   0.1207445   0.0246863), wk =   0.0438957
        k(   58) = (   0.0603722   0.1207445   0.0493726), wk =   0.0438957
        k(   59) = (   0.0603722   0.1207445   0.0740589), wk =   0.0438957
        k(   60) = (   0.0603722   0.1207445   0.0987452), wk =   0.0438957
        k(   61) = (   0.0905583   0.0905583   0.0000000), wk =   0.0109739
        k(   62) = (   0.0905583   0.0905583   0.0246863), wk =   0.0219479
        k(   63) = (   0.0905583   0.0905583   0.0493726), wk =   0.0219479
        k(   64) = (   0.0905583   0.0905583   0.0740589), wk =   0.0219479
        k(   65) = (   0.0905583   0.0905583   0.0987452), wk =   0.0219479
        k(   66) = (   0.0905583   0.1207445   0.0000000), wk =   0.0219479
        k(   67) = (   0.0905583   0.1207445   0.0246863), wk =   0.0438957
        k(   68) = (   0.0905583   0.1207445   0.0493726), wk =   0.0438957
        k(   69) = (   0.0905583   0.1207445   0.0740589), wk =   0.0438957
        k(   70) = (   0.0905583   0.1207445   0.0987452), wk =   0.0438957
        k(   71) = (   0.1207445   0.1207445   0.0000000), wk =   0.0109739
        k(   72) = (   0.1207445   0.1207445   0.0246863), wk =   0.0219479
        k(   73) = (   0.1207445   0.1207445   0.0493726), wk =   0.0219479
        k(   74) = (   0.1207445   0.1207445   0.0740589), wk =   0.0219479
        k(   75) = (   0.1207445   0.1207445   0.0987452), wk =   0.0219479

     Largest allocated arrays     est. size (Mb)     dimensions
     Largest temporary arrays     est. size (Mb)     dimensions

     Initial potential from superposition of free atoms
     Check: negative starting charge=   -0.124396

     starting charge   53.79687, renormalised to   54.00000

     negative rho (up, down):  1.249E-01 0.000E+00

     *
     * You are using vdW-DF for exchange-correlation in this calculation.
     * Please cite the following three references that made this development
     * possible:
     *
     *   M. Dion, H. Rydberg, E. Schroder, D. C. Langreth, and
     *   B. I. Lundqvist, Phys. Rev. Lett. 92, 246401 (2004).
     *
     *   T. Thonhauser, V. R. Cooper, S. Li, A. Puzder, P. Hyldgaard, and
     *   D. C. Langreth, Phys. Rev. B 76, 125112 (2007).
     *
     *   G. Roman-Perez and J. M. Soler, Phys. Rev. Lett. 103, 096102 (2009).
     *
     *
     * If you are using vdW-DF2, please also cite:
     *
     *   K. Lee, E. D. Murray, L. Kong, B. I. Lundqvist, and
     *   D. C. Langreth, Phys. Rev. B 82, 081101(R) (2010).
     *
     *
     * If you are calculating the stress with vdW-DF, please also cite:
     *
     *   R. Sabatini, E. Kucukbenli, B. Kolb, T. Thonhauser, and
     *   S. de Gironcoli, J. Phys.: Condens. Matter 24, 424209 (2012).
     *

     Carrying out vdW-DF run using the following parameters:

     Nqs =      20    Nr_points =    1024   r_max =   100.000
     q_mesh =
               0.00001000     0.04494208     0.09755937     0.15916263
               0.23128650     0.31572767     0.41458969     0.53033537
               0.66584808     0.82450364     1.01025438     1.22772762
               1.48234092     1.78043706     2.12944203     2.53805004
               3.01644009     3.57652955     4.23227104     5.00000000

     Gradients computed in reciprocal space

     Starting wfc are   46 randomized atomic wfcs +    1 random wfc

     Self-consistent Calculation

     iteration #  1     ecut=    58.80 Ry     beta=0.10
     Davidson diagonalization with overlap
     ethr =  1.00E-02,  avg # of iterations =  3.2

     Threshold (ethr) on eigenvalues was too large:
     Diagonalizing with lowered threshold

     Davidson diagonalization with overlap
     ethr =  2.97E-04,  avg # of iterations =  1.0

[...]

     total energy              =    -612.54547761 Ry
     Harris-Foulkes estimate   =    -612.56325553 Ry
     estimated scf accuracy    <       0.16104398 Ry

[...]

     total energy              =    -612.52316804 Ry
     Harris-Foulkes estimate   =    -612.52316757 Ry
     estimated scf accuracy    <       0.00000150 Ry

     iteration #  9     ecut=    58.80 Ry     beta=0.10
     Davidson diagonalization with overlap
     ethr =  2.77E-09,  avg # of iterations =  1.0

     negative rho (up, down):  1.377E-01 0.000E+00

     End of self-consistent calculation

          k = 0.0000 0.0000 0.0000 (  3157 PWs)   bands (ev):

   -55.5072 -55.2934 -45.6383 -45.4820 -20.1736 -20.1736 -19.9060 -19.5551
   -19.5551 -19.3273 -19.3159 -19.1776 -19.1239 -19.1239 -18.9293 -18.9293
    10.5262  13.1471  14.0244  14.6111  15.0761  15.2025  15.2025  17.4388
    18.9739  19.3780  19.4116  19.4116  21.1281  21.3121  21.4063  21.4063
    22.2321  22.4476  22.8848  22.8848  23.2702  23.2702  24.0509  26.7000
    28.2320  28.3118  30.5853  31.7526  31.7526  32.4193  33.6674

[...]

          k = 0.1207 0.1207 0.0987 (  3130 PWs)   bands (ev):

   -55.4022 -55.3958 -45.5612 -45.5565 -20.3750 -20.3446 -19.8181 -19.8110
   -19.3390 -19.3341 -19.3090 -19.3080 -19.0527 -19.0371 -18.8856 -18.8471
    14.0037  14.0513  14.0902  14.2265  16.7346  16.8495  17.8168  17.9306
    18.6543  18.8991  19.1103  19.2947  19.4139  19.5597  19.6670  19.6731
    21.5427  21.7442  21.8785  22.0600  22.7837  22.8011  22.8498  23.0325
    28.7174  28.8620  29.3998  29.4092  31.7495  31.8148  32.6579

     the Fermi energy is    18.6013 ev

!    total energy              =    -612.52317060 Ry
     Harris-Foulkes estimate   =    -612.52316813 Ry
     estimated scf accuracy    <       0.00000046 Ry

     The total energy is the sum of the following terms:

     one-electron contribution =    -132.04832011 Ry
     hartree contribution      =      94.51344184 Ry
     xc contribution           =    -126.09962478 Ry
     ewald contribution        =    -448.88014776 Ry
     smearing contrib. (-TS)   =      -0.00851979 Ry

     convergence has been achieved in   9 iterations

     Forces acting on atoms (Ry/au):

     negative rho (up, down):  1.377E-01 0.000E+00
     atom    1 type  1   force =     0.00000000    0.00000000    0.00000000
     atom    2 type  1   force =     0.00000000    0.00000000    0.00000000
     atom    3 type  2   force =     0.00000000    0.00000000    0.00000000
     atom    4 type  2   force =     0.00000000    0.00000000    0.00000000

     Total force =     0.000000     Total SCF correction =     0.000000

     General routines

     Parallel routines

   This run was terminated on:   6: 7:33  15Nov2017

   JOB DONE.