     Program PWSCF v.5.1rc2 (svn rev. ) starts on 31Oct2017 at 15:49: 1

     Current dimensions of program PWSCF are:
     Max number of different atomic species (ntypx) = 10
     Max number of k-points (npk) =  40000
     Max angular momentum in pseudopotentials (lmaxx) =  3

     IMPORTANT: XC functional enforced from input :
     Exchange-correlation      = BEEF-VDW ( 1  4 27 13 2)
     Any further DFT definition will be discarded
     Please, verify this is what you really want

     Subspace diagonalization in iterative solution of the eigenvalue problem:
     a serial algorithm will be used

     bravais-lattice index     =            0
     lattice parameter (alat)  =       1.8897  a.u.
     unit-cell volume          =     346.6728 (a.u.)^3
     number of atoms/cell      =            4
     number of atomic types    =            2
     number of electrons       =        56.00
     number of Kohn-Sham states=           48
     kinetic-energy cutoff     =      58.7989  Ry
     charge density cutoff     =     587.9892  Ry
     convergence threshold     =      7.3E-09
     mixing beta               =       0.1000
     number of iterations used =           10  local-TF  mixing
     Exchange-correlation      = BEEF-VDW ( 1  4 27 13 2)
     nstep                     =           50

     celldm(1)=   1.889726  celldm(2)=   0.000000  celldm(3)=   0.000000
     celldm(4)=   0.000000  celldm(5)=   0.000000  celldm(6)=   0.000000

     crystal axes: (cart. coord. in units of alat)
               a(1) = (   3.717415   0.000000   0.000000 )
               a(2) = (   0.000000   3.717415   0.000000 )
               a(3) = (   0.000000   0.000000   3.717415 )

     reciprocal axes: (cart. coord. in units 2 pi/alat)
               b(1) = (  0.269004  0.000000  0.000000 )
               b(2) = (  0.000000  0.269004  0.000000 )
               b(3) = (  0.000000  0.000000  0.269004 )

     PseudoPot. # 1 for V  read from file:
     /home/vossj/suncat/psp/gbrv1.5pbe/V.UPF
     MD5 check sum: 22b79981416ebb76fdaf5b1b8640f6fb
     Pseudo is Ultrasoft + core correction, Zval = 13.0
     Generated by new atomic code, or converted to UPF format
     Using radial grid of  853 points,  6 beta functions with:
                l(1) =   0
                l(2) =   0
                l(3) =   1
                l(4) =   1
                l(5) =   2
                l(6) =   2
     Q(r) pseudized with  8 coefficients,  rinner =    1.100   1.100   1.100
                                                       1.100   1.100

     PseudoPot. # 2 for Co read from file:
     /home/vossj/suncat/psp/gbrv1.5pbe/Co.UPF
     MD5 check sum: 5f91765df6ddd3222702df6e7b74a16d
     Pseudo is Ultrasoft + core correction, Zval = 17.0
     Generated by new atomic code, or converted to UPF format
     Using radial grid of  863 points,  6 beta functions with:
                l(1) =   0
                l(2) =   0
                l(3) =   1
                l(4) =   1
                l(5) =   2
                l(6) =   2
     Q(r) pseudized with  8 coefficients,  rinner =    1.200   1.200   1.200
                                                       1.200   1.200

     vdW kernel table read from file vdW_kernel_table
     MD5 check sum: 095c7af220d748ca6e76c0b4c6cfb241

     atomic species   valence    mass     pseudopotential
        V1            13.00    50.94150     V ( 1.00)
        Co1           17.00    58.93319     Co( 1.00)

     48 Sym. Ops., with inversion, found (32 have fractional translation)

   Cartesian axes

     site n.     atom                  positions (alat units)
         1           V1  tau(   1) = (   0.0000000   0.0000000   0.0000000  )
         2           V1  tau(   2) = (   0.0000000   1.8587075   1.8587075  )
         3           V1  tau(   3) = (   1.8587075   0.0000000   1.8587075  )
         4           Co1 tau(   4) = (   1.8587075   1.8587075   0.0000000  )

     number of k points=    84  Fermi-Dirac smearing, width (Ry)=  0.0073
                       cart. coord. in units 2pi/alat
        k(    1) = (   0.0000000   0.0000000   0.0000000), wk =   0.0011574
        k(    2) = (   0.0000000   0.0000000   0.0224170), wk =   0.0069444
        k(    3) = (   0.0000000   0.0000000   0.0448340), wk =   0.0069444
        k(    4) = (   0.0000000   0.0000000   0.0672510), wk =   0.0069444
        k(    5) = (   0.0000000   0.0000000   0.0896680), wk =   0.0069444
        k(    6) = (   0.0000000   0.0000000   0.1120851), wk =   0.0069444
        k(    7) = (   0.0000000   0.0000000  -0.1345021), wk =   0.0034722
        k(    8) = (   0.0000000   0.0224170   0.0224170), wk =   0.0138889
        k(    9) = (   0.0000000   0.0224170   0.0448340), wk =   0.0277778
        k(   10) = (   0.0000000   0.0224170   0.0672510), wk =   0.0277778
        k(   11) = (   0.0000000   0.0224170   0.0896680), wk =   0.0277778
        k(   12) = (   0.0000000   0.0224170   0.1120851), wk =   0.0277778
        k(   13) = (   0.0000000   0.0224170  -0.1345021), wk =   0.0138889
        k(   14) = (   0.0000000   0.0448340   0.0448340), wk =   0.0138889
        k(   15) = (   0.0000000   0.0448340   0.0672510), wk =   0.0277778
        k(   16) = (   0.0000000   0.0448340   0.0896680), wk =   0.0277778
        k(   17) = (   0.0000000   0.0448340   0.1120851), wk =   0.0277778
        k(   18) = (   0.0000000   0.0448340  -0.1345021), wk =   0.0138889
        k(   19) = (   0.0000000   0.0672510   0.0672510), wk =   0.0138889
        k(   20) = (   0.0000000   0.0672510   0.0896680), wk =   0.0277778
        k(   21) = (   0.0000000   0.0672510   0.1120851), wk =   0.0277778
        k(   22) = (   0.0000000   0.0672510  -0.1345021), wk =   0.0138889
        k(   23) = (   0.0000000   0.0896680   0.0896680), wk =   0.0138889
        k(   24) = (   0.0000000   0.0896680   0.1120851), wk =   0.0277778
        k(   25) = (   0.0000000   0.0896680  -0.1345021), wk =   0.0138889
        k(   26) = (   0.0000000   0.1120851   0.1120851), wk =   0.0138889
        k(   27) = (   0.0000000   0.1120851  -0.1345021), wk =   0.0138889
        k(   28) = (   0.0000000  -0.1345021  -0.1345021), wk =   0.0034722
        k(   29) = (   0.0224170   0.0224170   0.0224170), wk =   0.0092593
        k(   30) = (   0.0224170   0.0224170   0.0448340), wk =   0.0277778
        k(   31) = (   0.0224170   0.0224170   0.0672510), wk =   0.0277778
        k(   32) = (   0.0224170   0.0224170   0.0896680), wk =   0.0277778
        k(   33) = (   0.0224170   0.0224170   0.1120851), wk =   0.0277778
        k(   34) = (   0.0224170   0.0224170  -0.1345021), wk =   0.0138889
        k(   35) = (   0.0224170   0.0448340   0.0448340), wk =   0.0277778
        k(   36) = (   0.0224170   0.0448340   0.0672510), wk =   0.0555556
        k(   37) = (   0.0224170   0.0448340   0.0896680), wk =   0.0555556
        k(   38) = (   0.0224170   0.0448340   0.1120851), wk =   0.0555556
        k(   39) = (   0.0224170   0.0448340  -0.1345021), wk =   0.0277778
        k(   40) = (   0.0224170   0.0672510   0.0672510), wk =   0.0277778
        k(   41) = (   0.0224170   0.0672510   0.0896680), wk =   0.0555556
        k(   42) = (   0.0224170   0.0672510   0.1120851), wk =   0.0555556
        k(   43) = (   0.0224170   0.0672510  -0.1345021), wk =   0.0277778
        k(   44) = (   0.0224170   0.0896680   0.0896680), wk =   0.0277778
        k(   45) = (   0.0224170   0.0896680   0.1120851), wk =   0.0555556
        k(   46) = (   0.0224170   0.0896680  -0.1345021), wk =   0.0277778
        k(   47) = (   0.0224170   0.1120851   0.1120851), wk =   0.0277778
        k(   48) = (   0.0224170   0.1120851  -0.1345021), wk =   0.0277778
        k(   49) = (   0.0224170  -0.1345021  -0.1345021), wk =   0.0069444
        k(   50) = (   0.0448340   0.0448340   0.0448340), wk =   0.0092593
        k(   51) = (   0.0448340   0.0448340   0.0672510), wk =   0.0277778
        k(   52) = (   0.0448340   0.0448340   0.0896680), wk =   0.0277778
        k(   53) = (   0.0448340   0.0448340   0.1120851), wk =   0.0277778
        k(   54) = (   0.0448340   0.0448340  -0.1345021), wk =   0.0138889
        k(   55) = (   0.0448340   0.0672510   0.0672510), wk =   0.0277778
        k(   56) = (   0.0448340   0.0672510   0.0896680), wk =   0.0555556
        k(   57) = (   0.0448340   0.0672510   0.1120851), wk =   0.0555556
        k(   58) = (   0.0448340   0.0672510  -0.1345021), wk =   0.0277778
        k(   59) = (   0.0448340   0.0896680   0.0896680), wk =   0.0277778
        k(   60) = (   0.0448340   0.0896680   0.1120851), wk =   0.0555556
[...]
        k(   70) = (   0.0672510   0.0896680   0.1120851), wk =   0.0555556
        k(   71) = (   0.0672510   0.0896680  -0.1345021), wk =   0.0277778
        k(   72) = (   0.0672510   0.1120851   0.1120851), wk =   0.0277778
        k(   73) = (   0.0672510   0.1120851  -0.1345021), wk =   0.0277778
        k(   74) = (   0.0672510  -0.1345021  -0.1345021), wk =   0.0069444
        k(   75) = (   0.0896680   0.0896680   0.0896680), wk =   0.0092593
        k(   76) = (   0.0896680   0.0896680   0.1120851), wk =   0.0277778
        k(   77) = (   0.0896680   0.0896680  -0.1345021), wk =   0.0138889
        k(   78) = (   0.0896680   0.1120851   0.1120851), wk =   0.0277778
        k(   79) = (   0.0896680   0.1120851  -0.1345021), wk =   0.0277778
        k(   80) = (   0.0896680  -0.1345021  -0.1345021), wk =   0.0069444
        k(   81) = (   0.1120851   0.1120851   0.1120851), wk =   0.0092593
        k(   82) = (   0.1120851   0.1120851  -0.1345021), wk =   0.0138889
        k(   83) = (   0.1120851  -0.1345021  -0.1345021), wk =   0.0069444
        k(   84) = (  -0.1345021  -0.1345021  -0.1345021), wk =   0.0011574

     Largest allocated arrays     est. size (Mb)     dimensions
     Largest temporary arrays     est. size (Mb)     dimensions

     Check: negative/imaginary core charge=   -0.000018    0.000000

     Initial potential from superposition of free atoms
     Check: negative starting charge=   -0.001137

     starting charge   54.99631, renormalised to   56.00000

     negative rho (up, down):  1.158E-03 0.000E+00

     *
     * You are using vdW-DF for exchange-correlation in this calculation.
     * Please cite the following three references that made this development
     * possible:
     *
     *   M. Dion, H. Rydberg, E. Schroder, D. C. Langreth, and
     *   B. I. Lundqvist, Phys. Rev. Lett. 92, 246401 (2004).
     *
     *   T. Thonhauser, V. R. Cooper, S. Li, A. Puzder, P. Hyldgaard, and
     *   D. C. Langreth, Phys. Rev. B 76, 125112 (2007).
     *
     *   G. Roman-Perez and J. M. Soler, Phys. Rev. Lett. 103, 096102 (2009).
     *
     *
     * If you are using vdW-DF2, please also cite:
     *
     *   K. Lee, E. D. Murray, L. Kong, B. I. Lundqvist, and
     *   D. C. Langreth, Phys. Rev. B 82, 081101(R) (2010).
     *
     *
     * If you are calculating the stress with vdW-DF, please also cite:
     *
     *   R. Sabatini, E. Kucukbenli, B. Kolb, T. Thonhauser, and
     *   S. de Gironcoli, J. Phys.: Condens. Matter 24, 424209 (2012).
     *

     Carrying out vdW-DF run using the following parameters:

     Nqs =      20    Nr_points =    1024   r_max =   100.000
     q_mesh =
               0.00001000     0.04494208     0.09755937     0.15916263
               0.23128650     0.31572767     0.41458969     0.53033537
               0.66584808     0.82450364     1.01025438     1.22772762
               1.48234092     1.78043706     2.12944203     2.53805004
               3.01644009     3.57652955     4.23227104     5.00000000

     Gradients computed in reciprocal space

     Starting wfc are   43 randomized atomic wfcs +    5 random wfc

     Self-consistent Calculation

     iteration #  1     ecut=    58.80 Ry     beta=0.10
     Davidson diagonalization with overlap
     ethr =  1.00E-02,  avg # of iterations =  3.4

[...]

     total energy              =    -737.14076433 Ry
     Harris-Foulkes estimate   =    -737.34792102 Ry
     estimated scf accuracy    <       2.95883351 Ry

[...]

     total energy              =    -736.92814112 Ry
     Harris-Foulkes estimate   =    -736.92814059 Ry
     estimated scf accuracy    <       0.00000001 Ry

     iteration # 15     ecut=    58.80 Ry     beta=0.10
     Davidson diagonalization with overlap
     ethr =  2.28E-11,  avg # of iterations =  1.0

     negative rho (up, down):  2.492E-03 0.000E+00

     End of self-consistent calculation

          k = 0.0000 0.0000 0.0000 (  2601 PWs)   bands (ev):

   -78.0583 -47.4655 -47.2519 -47.2519 -41.3441 -41.3441 -41.3441 -21.4902
   -21.4902 -21.4902 -21.0870 -21.0870 -21.0870 -20.8214 -20.8214 -20.8214
     9.5972  12.8829  13.1210  13.1210  13.7950  13.7950  13.7950  16.2500
    16.2500  16.2500  17.4553  17.4553  18.9830  18.9830  18.9830  19.4400
    19.4400  19.9957  20.2370  20.2370  20.2370  20.3410  20.3410  20.3410
    28.0801  28.5743  28.5743  30.3827  30.3827  30.3827  32.1076  32.1076

[...]

          k = 0.1121-0.1345-0.1345 (  2588 PWs)   bands (ev):

[...]

          k =-0.1345-0.1345-0.1345 (  2608 PWs)   bands (ev):

   -78.0581 -47.3213 -47.3213 -47.3213 -41.3454 -41.3454 -41.3454 -21.7064
   -21.4502 -21.4502 -21.4502 -20.8655 -20.8655 -20.8655 -20.8228 -20.8228
    12.7061  13.3026  13.3026  13.3026  15.5082  15.5082  16.1000  16.1000
    16.1000  16.7921  16.7921  16.7921  17.4406  17.4406  17.4406  17.9579
    18.9031  18.9031  18.9031  19.1555  19.1555  20.0146  20.0146  20.0146
    24.6568  25.9790  25.9790  25.9790  34.6693  34.8753  34.8753  34.8753

     the Fermi energy is    16.7639 ev

!    total energy              =    -736.92814344 Ry
     Harris-Foulkes estimate   =    -736.92814112 Ry
     estimated scf accuracy    <          2.5E-10 Ry

     The total energy is the sum of the following terms:

     one-electron contribution =    -312.82933082 Ry
     hartree contribution      =     186.47340898 Ry
     xc contribution           =     -95.01907532 Ry
     ewald contribution        =    -515.53631171 Ry
     smearing contrib. (-TS)   =      -0.01683457 Ry

     convergence has been achieved in  15 iterations

     Forces acting on atoms (Ry/au):

     negative rho (up, down):  2.492E-03 0.000E+00
     atom    1 type  1   force =     0.00000000    0.00000000    0.00000000
     atom    2 type  1   force =     0.00000000    0.00000000    0.00000000
     atom    3 type  1   force =     0.00000000    0.00000000   -0.00000000
     atom    4 type  2   force =     0.00000000    0.00000000    0.00000000

     Total force =     0.000000     Total SCF correction =     0.000000
 !ASE

     General routines

     Parallel routines

   This run was terminated on:  15:49:54  31Oct2017

   JOB DONE.