     Program PWSCF v.5.1rc2 (svn rev. ) starts on 25Oct2017 at 10:53: 3

     Current dimensions of program PWSCF are:
     Max number of different atomic species (ntypx) = 10
     Max number of k-points (npk) =  40000
     Max angular momentum in pseudopotentials (lmaxx) =  3

     IMPORTANT: XC functional enforced from input :
     Exchange-correlation      = BEEF-VDW ( 1  4 27 13 2)
     Any further DFT definition will be discarded
     Please, verify this is what you really want

     Subspace diagonalization in iterative solution of the eigenvalue problem:
     a serial algorithm will be used

     bravais-lattice index     =            0
     lattice parameter (alat)  =       1.8897  a.u.
     unit-cell volume          =     809.7632 (a.u.)^3
     number of atoms/cell      =            4
     number of atomic types    =            2
     number of electrons       =        53.00
     number of Kohn-Sham states=           46
     kinetic-energy cutoff     =      58.7989  Ry
     charge density cutoff     =     587.9892  Ry
     convergence threshold     =      7.3E-09
     mixing beta               =       0.1000
     number of iterations used =           10  local-TF  mixing
     Exchange-correlation      = BEEF-VDW ( 1  4 27 13 2)
     nstep                     =           50

     celldm(1)=   1.889726  celldm(2)=   0.000000  celldm(3)=   0.000000
     celldm(4)=   0.000000  celldm(5)=   0.000000  celldm(6)=   0.000000

     crystal axes: (cart. coord. in units of alat)
               a(1) = (   4.932349   0.000000   0.000000 )
               a(2) = (   0.000000   4.932349   0.000000 )
               a(3) = (   0.000000   0.000000   4.932349 )

     reciprocal axes: (cart. coord. in units 2 pi/alat)
               b(1) = (  0.202743  0.000000  0.000000 )
               b(2) = (  0.000000  0.202743  0.000000 )
               b(3) = (  0.000000  0.000000  0.202743 )

     PseudoPot. # 1 for Pb read from file:
     /home/vossj/suncat/psp/gbrv1.5pbe/Pb.UPF
     MD5 check sum: 3d1c1779aa92214d1e8f3a7db79003e2
     Pseudo is Ultrasoft + core correction, Zval = 14.0
     Generated by new atomic code, or converted to UPF format
     Using radial grid of  899 points,  6 beta functions with:
                l(1) =   0
                l(2) =   0
                l(3) =   1
                l(4) =   1
                l(5) =   2
                l(6) =   2
     Q(r) pseudized with  6 coefficients,  rinner =    1.000   1.000   1.000
                                                       1.000   1.000

     PseudoPot. # 2 for Y  read from file:
     /home/vossj/suncat/psp/gbrv1.5pbe/Y.UPF
     MD5 check sum: d034151ed7554c50b6e82763ed42c788
     Pseudo is Ultrasoft + core correction, Zval = 11.0
     Generated by new atomic code, or converted to UPF format
     Using radial grid of  885 points,  6 beta functions with:
                l(1) =   0
                l(2) =   0
                l(3) =   1
                l(4) =   1
                l(5) =   2
                l(6) =   2
     Q(r) pseudized with  8 coefficients,  rinner =    1.200   1.200   1.200
                                                       1.200   1.200

     vdW kernel table read from file vdW_kernel_table
     MD5 check sum: 095c7af220d748ca6e76c0b4c6cfb241

     atomic species   valence    mass     pseudopotential
        Pb1           14.00   207.20000     Pb( 1.00)
        Y1            11.00    88.90584     Y ( 1.00)

     48 Sym. Ops., with inversion, found (32 have fractional translation)

   Cartesian axes

     site n.     atom                  positions (alat units)
         1           Pb1 tau(   1) = (   0.0000000   0.0000000   0.0000000  )
         2           Pb1 tau(   2) = (   0.0000000   2.4661746   2.4661746  )
         3           Pb1 tau(   3) = (   2.4661746   0.0000000   2.4661746  )
         4           Y1  tau(   4) = (   2.4661746   2.4661746   0.0000000  )

     number of k points=    84  Fermi-Dirac smearing, width (Ry)=  0.0073
                       cart. coord. in units 2pi/alat
        k(    1) = (   0.0000000   0.0000000   0.0000000), wk =   0.0011574
        k(    2) = (   0.0000000   0.0000000   0.0168953), wk =   0.0069444
        k(    3) = (   0.0000000   0.0000000   0.0337905), wk =   0.0069444
        k(    4) = (   0.0000000   0.0000000   0.0506858), wk =   0.0069444
        k(    5) = (   0.0000000   0.0000000   0.0675810), wk =   0.0069444
        k(    6) = (   0.0000000   0.0000000   0.0844763), wk =   0.0069444
        k(    7) = (   0.0000000   0.0000000  -0.1013716), wk =   0.0034722
        k(    8) = (   0.0000000   0.0168953   0.0168953), wk =   0.0138889
        k(    9) = (   0.0000000   0.0168953   0.0337905), wk =   0.0277778
        k(   10) = (   0.0000000   0.0168953   0.0506858), wk =   0.0277778
        k(   11) = (   0.0000000   0.0168953   0.0675810), wk =   0.0277778
        k(   12) = (   0.0000000   0.0168953   0.0844763), wk =   0.0277778
        k(   13) = (   0.0000000   0.0168953  -0.1013716), wk =   0.0138889
        k(   14) = (   0.0000000   0.0337905   0.0337905), wk =   0.0138889
        k(   15) = (   0.0000000   0.0337905   0.0506858), wk =   0.0277778
        k(   16) = (   0.0000000   0.0337905   0.0675810), wk =   0.0277778
        k(   17) = (   0.0000000   0.0337905   0.0844763), wk =   0.0277778
        k(   18) = (   0.0000000   0.0337905  -0.1013716), wk =   0.0138889
        k(   19) = (   0.0000000   0.0506858   0.0506858), wk =   0.0138889
        k(   20) = (   0.0000000   0.0506858   0.0675810), wk =   0.0277778
        k(   21) = (   0.0000000   0.0506858   0.0844763), wk =   0.0277778
        k(   22) = (   0.0000000   0.0506858  -0.1013716), wk =   0.0138889
        k(   23) = (   0.0000000   0.0675810   0.0675810), wk =   0.0138889
        k(   24) = (   0.0000000   0.0675810   0.0844763), wk =   0.0277778
        k(   25) = (   0.0000000   0.0675810  -0.1013716), wk =   0.0138889
        k(   26) = (   0.0000000   0.0844763   0.0844763), wk =   0.0138889
        k(   27) = (   0.0000000   0.0844763  -0.1013716), wk =   0.0138889
        k(   28) = (   0.0000000  -0.1013716  -0.1013716), wk =   0.0034722
        k(   29) = (   0.0168953   0.0168953   0.0168953), wk =   0.0092593
        k(   30) = (   0.0168953   0.0168953   0.0337905), wk =   0.0277778
        k(   31) = (   0.0168953   0.0168953   0.0506858), wk =   0.0277778
        k(   32) = (   0.0168953   0.0168953   0.0675810), wk =   0.0277778
        k(   33) = (   0.0168953   0.0168953   0.0844763), wk =   0.0277778
        k(   34) = (   0.0168953   0.0168953  -0.1013716), wk =   0.0138889
        k(   35) = (   0.0168953   0.0337905   0.0337905), wk =   0.0277778
        k(   36) = (   0.0168953   0.0337905   0.0506858), wk =   0.0555556
        k(   37) = (   0.0168953   0.0337905   0.0675810), wk =   0.0555556
        k(   38) = (   0.0168953   0.0337905   0.0844763), wk =   0.0555556
        k(   39) = (   0.0168953   0.0337905  -0.1013716), wk =   0.0277778
        k(   40) = (   0.0168953   0.0506858   0.0506858), wk =   0.0277778
        k(   41) = (   0.0168953   0.0506858   0.0675810), wk =   0.0555556
        k(   42) = (   0.0168953   0.0506858   0.0844763), wk =   0.0555556
        k(   43) = (   0.0168953   0.0506858  -0.1013716), wk =   0.0277778
        k(   44) = (   0.0168953   0.0675810   0.0675810), wk =   0.0277778
        k(   45) = (   0.0168953   0.0675810   0.0844763), wk =   0.0555556
        k(   46) = (   0.0168953   0.0675810  -0.1013716), wk =   0.0277778
        k(   47) = (   0.0168953   0.0844763   0.0844763), wk =   0.0277778
        k(   48) = (   0.0168953   0.0844763  -0.1013716), wk =   0.0277778
        k(   49) = (   0.0168953  -0.1013716  -0.1013716), wk =   0.0069444
        k(   50) = (   0.0337905   0.0337905   0.0337905), wk =   0.0092593
        k(   51) = (   0.0337905   0.0337905   0.0506858), wk =   0.0277778
        k(   52) = (   0.0337905   0.0337905   0.0675810), wk =   0.0277778
        k(   53) = (   0.0337905   0.0337905   0.0844763), wk =   0.0277778
        k(   54) = (   0.0337905   0.0337905  -0.1013716), wk =   0.0138889
        k(   55) = (   0.0337905   0.0506858   0.0506858), wk =   0.0277778
        k(   56) = (   0.0337905   0.0506858   0.0675810), wk =   0.0555556
        k(   57) = (   0.0337905   0.0506858   0.0844763), wk =   0.0555556
        k(   58) = (   0.0337905   0.0506858  -0.1013716), wk =   0.0277778
        k(   59) = (   0.0337905   0.0675810   0.0675810), wk =   0.0277778
        k(   60) = (   0.0337905   0.0675810   0.0844763), wk =   0.0555556
[...]
        k(   70) = (   0.0506858   0.0675810   0.0844763), wk =   0.0555556
        k(   71) = (   0.0506858   0.0675810  -0.1013716), wk =   0.0277778
        k(   72) = (   0.0506858   0.0844763   0.0844763), wk =   0.0277778
        k(   73) = (   0.0506858   0.0844763  -0.1013716), wk =   0.0277778
        k(   74) = (   0.0506858  -0.1013716  -0.1013716), wk =   0.0069444
        k(   75) = (   0.0675810   0.0675810   0.0675810), wk =   0.0092593
        k(   76) = (   0.0675810   0.0675810   0.0844763), wk =   0.0277778
        k(   77) = (   0.0675810   0.0675810  -0.1013716), wk =   0.0138889
        k(   78) = (   0.0675810   0.0844763   0.0844763), wk =   0.0277778
        k(   79) = (   0.0675810   0.0844763  -0.1013716), wk =   0.0277778
        k(   80) = (   0.0675810  -0.1013716  -0.1013716), wk =   0.0069444
        k(   81) = (   0.0844763   0.0844763   0.0844763), wk =   0.0092593
        k(   82) = (   0.0844763   0.0844763  -0.1013716), wk =   0.0138889
        k(   83) = (   0.0844763  -0.1013716  -0.1013716), wk =   0.0069444
        k(   84) = (  -0.1013716  -0.1013716  -0.1013716), wk =   0.0011574

     Largest allocated arrays     est. size (Mb)     dimensions
     Largest temporary arrays     est. size (Mb)     dimensions

     Initial potential from superposition of free atoms
     Check: negative starting charge=   -0.045330

     starting charge   52.98848, renormalised to   53.00000

     negative rho (up, down):  4.534E-02 0.000E+00

     *
     * You are using vdW-DF for exchange-correlation in this calculation.
     * Please cite the following three references that made this development
     * possible:
     *
     *   M. Dion, H. Rydberg, E. Schroder, D. C. Langreth, and
     *   B. I. Lundqvist, Phys. Rev. Lett. 92, 246401 (2004).
     *
     *   T. Thonhauser, V. R. Cooper, S. Li, A. Puzder, P. Hyldgaard, and
     *   D. C. Langreth, Phys. Rev. B 76, 125112 (2007).
     *
     *   G. Roman-Perez and J. M. Soler, Phys. Rev. Lett. 103, 096102 (2009).
     *
     *
     * If you are using vdW-DF2, please also cite:
     *
     *   K. Lee, E. D. Murray, L. Kong, B. I. Lundqvist, and
     *   D. C. Langreth, Phys. Rev. B 82, 081101(R) (2010).
     *
     *
     * If you are calculating the stress with vdW-DF, please also cite:
     *
     *   R. Sabatini, E. Kucukbenli, B. Kolb, T. Thonhauser, and
     *   S. de Gironcoli, J. Phys.: Condens. Matter 24, 424209 (2012).
     *

     Carrying out vdW-DF run using the following parameters:

     Nqs =      20    Nr_points =    1024   r_max =   100.000
     q_mesh =
               0.00001000     0.04494208     0.09755937     0.15916263
               0.23128650     0.31572767     0.41458969     0.53033537
               0.66584808     0.82450364     1.01025438     1.22772762
               1.48234092     1.78043706     2.12944203     2.53805004
               3.01644009     3.57652955     4.23227104     5.00000000

     Gradients computed in reciprocal space

     Starting wfc are   40 randomized atomic wfcs +    6 random wfc

     Self-consistent Calculation

     iteration #  1     ecut=    58.80 Ry     beta=0.10
     Davidson diagonalization with overlap
     ethr =  1.00E-02,  avg # of iterations =  5.3

     Threshold (ethr) on eigenvalues was too large:
     Diagonalizing with lowered threshold

     Davidson diagonalization with overlap
     c_bands:  2 eigenvalues not converged
     c_bands:  1 eigenvalues not converged
     c_bands:  3 eigenvalues not converged
     ethr =  2.47E-05,  avg # of iterations = 13.6

[...]

     total energy              =    -591.85875544 Ry
     Harris-Foulkes estimate   =    -591.85533326 Ry
     estimated scf accuracy    <       0.01319704 Ry

[...]

     total energy              =    -591.87078243 Ry
     Harris-Foulkes estimate   =    -591.87062286 Ry
     estimated scf accuracy    <       0.00000019 Ry

     iteration # 16     ecut=    58.80 Ry     beta=0.10
     Davidson diagonalization with overlap
     ethr =  2.02E-10,  avg # of iterations =  2.8

     negative rho (up, down):  5.207E-02 0.000E+00

     End of self-consistent calculation

          k = 0.0000 0.0000 0.0000 (  6187 PWs)   bands (ev):

   -32.6691 -12.5827 -12.5827 -12.5827  -6.1696  -6.1696  -6.1696  -6.1650
    -6.0086  -6.0086  -5.9297  -5.9296  -5.9296  -5.9030  -5.9030  -5.7669
    -5.7669  -5.7668  -5.7652   0.1544   4.4403   4.4403   8.7182   8.7182
     8.7182  12.5465  12.5465  12.5903  12.5903  12.5903  12.7093  13.2450
    13.2450  13.2450  15.5648  15.5648  15.5648  19.0234  20.1486  20.1486
    20.2257  20.2257  20.2257  20.8764  21.7835  21.7838

[...]

          k = 0.0845-0.1014-0.1014 (  6124 PWs)   bands (ev):

[...]

          k =-0.1014-0.1014-0.1014 (  6152 PWs)   bands (ev):

   -32.6685 -12.5912 -12.5912 -12.5912  -6.0870  -6.0870  -6.0870  -6.0559
    -6.0383  -6.0383  -6.0383  -5.9303  -5.9303  -5.9303  -5.8940  -5.8940
    -5.7788  -5.7788  -5.7788   2.9859   2.9859   2.9859   7.0850   8.1006
     8.1006   8.1006  12.0406  13.3080  13.3080  13.6067  13.6067  13.6067
    16.7979  16.7979  16.7979  16.9369  16.9369  20.2288  20.2288  20.2288
    20.4919  21.4007  21.4007  21.4009  21.9637  21.9637

     the Fermi energy is    11.3135 ev

!    total energy              =    -591.87144032 Ry
     Harris-Foulkes estimate   =    -591.87078256 Ry
     estimated scf accuracy    <          6.0E-09 Ry

     The total energy is the sum of the following terms:

     one-electron contribution =    -113.55942416 Ry
     hartree contribution      =      93.09849597 Ry
     xc contribution           =    -224.33712500 Ry
     ewald contribution        =    -347.06708669 Ry
     smearing contrib. (-TS)   =      -0.00630044 Ry

     convergence has been achieved in  16 iterations

     Forces acting on atoms (Ry/au):

     negative rho (up, down):  5.207E-02 0.000E+00
     atom    1 type  1   force =     0.00000000    0.00000000    0.00000000
     atom    2 type  1   force =     0.00000000    0.00000000    0.00000000
     atom    3 type  1   force =     0.00000000    0.00000000    0.00000000
     atom    4 type  2   force =     0.00000000    0.00000000    0.00000000

     Total force =     0.000000     Total SCF correction =     0.000000
 !ASE

     General routines

     Parallel routines

   This run was terminated on:  10:55:36  25Oct2017

   JOB DONE.