     Program PWSCF v.5.1rc2 (svn rev. ) starts on 26Oct2017 at  2:16: 5

     Current dimensions of program PWSCF are:
     Max number of different atomic species (ntypx) = 10
     Max number of k-points (npk) =  40000
     Max angular momentum in pseudopotentials (lmaxx) =  3

     IMPORTANT: XC functional enforced from input :
     Exchange-correlation      = BEEF-VDW ( 1  4 27 13 2)
     Any further DFT definition will be discarded
     Please, verify this is what you really want

     Subspace diagonalization in iterative solution of the eigenvalue problem:
     a serial algorithm will be used

     bravais-lattice index     =            0
     lattice parameter (alat)  =       1.8897  a.u.
     unit-cell volume          =     382.9812 (a.u.)^3
     number of atoms/cell      =            4
     number of atomic types    =            2
     number of electrons       =        73.00
     number of Kohn-Sham states=           56
     kinetic-energy cutoff     =      58.7989  Ry
     charge density cutoff     =     587.9892  Ry
     convergence threshold     =      7.3E-09
     mixing beta               =       0.1000
     number of iterations used =           10  local-TF  mixing
     Exchange-correlation      = BEEF-VDW ( 1  4 27 13 2)
     nstep                     =           50

     celldm(1)=   1.889726  celldm(2)=   0.000000  celldm(3)=   0.000000
     celldm(4)=   0.000000  celldm(5)=   0.000000  celldm(6)=   0.000000

     crystal axes: (cart. coord. in units of alat)
               a(1) = (   3.842911   0.000000   0.000000 )
               a(2) = (   0.000000   3.842911   0.000000 )
               a(3) = (   0.000000   0.000000   3.842911 )

     reciprocal axes: (cart. coord. in units 2 pi/alat)
               b(1) = (  0.260219  0.000000  0.000000 )
               b(2) = (  0.000000  0.260219  0.000000 )
               b(3) = (  0.000000  0.000000  0.260219 )

     PseudoPot. # 1 for Zn read from file:
     /home/vossj/suncat/psp/gbrv1.5pbe/Zn.UPF
     MD5 check sum: df62231357ef9e81f77b2b3087fa5675
     Pseudo is Ultrasoft, Zval = 20.0
     Generated by new atomic code, or converted to UPF format
     Using radial grid of  943 points,  6 beta functions with:
                l(1) =   0
                l(2) =   0
                l(3) =   1
                l(4) =   1
                l(5) =   2
                l(6) =   2
     Q(r) pseudized with  8 coefficients,  rinner =    1.100   1.100   1.100
                                                       1.100   1.100

     PseudoPot. # 2 for V  read from file:
     /home/vossj/suncat/psp/gbrv1.5pbe/V.UPF
     MD5 check sum: 22b79981416ebb76fdaf5b1b8640f6fb
     Pseudo is Ultrasoft + core correction, Zval = 13.0
     Generated by new atomic code, or converted to UPF format
     Using radial grid of  853 points,  6 beta functions with:
                l(1) =   0
                l(2) =   0
                l(3) =   1
                l(4) =   1
                l(5) =   2
                l(6) =   2
     Q(r) pseudized with  8 coefficients,  rinner =    1.100   1.100   1.100
                                                       1.100   1.100

     vdW kernel table read from file vdW_kernel_table
     MD5 check sum: 095c7af220d748ca6e76c0b4c6cfb241

     atomic species   valence    mass     pseudopotential
        Zn1           20.00    65.38000     Zn( 1.00)
        V1            13.00    50.94150     V ( 1.00)

     48 Sym. Ops., with inversion, found (32 have fractional translation)

   Cartesian axes

     site n.     atom                  positions (alat units)
         1           Zn1 tau(   1) = (   0.0000000   0.0000000   0.0000000  )
         2           Zn1 tau(   2) = (   0.0000000   1.9214553   1.9214553  )
         3           Zn1 tau(   3) = (   1.9214553   0.0000000   1.9214553  )
         4           V1  tau(   4) = (   1.9214553   1.9214553   0.0000000  )

     number of k points=    84  Fermi-Dirac smearing, width (Ry)=  0.0073
                       cart. coord. in units 2pi/alat
        k(    1) = (   0.0000000   0.0000000   0.0000000), wk =   0.0011574
        k(    2) = (   0.0000000   0.0000000   0.0216850), wk =   0.0069444
        k(    3) = (   0.0000000   0.0000000   0.0433699), wk =   0.0069444
        k(    4) = (   0.0000000   0.0000000   0.0650549), wk =   0.0069444
        k(    5) = (   0.0000000   0.0000000   0.0867398), wk =   0.0069444
        k(    6) = (   0.0000000   0.0000000   0.1084248), wk =   0.0069444
        k(    7) = (   0.0000000   0.0000000  -0.1301097), wk =   0.0034722
        k(    8) = (   0.0000000   0.0216850   0.0216850), wk =   0.0138889
        k(    9) = (   0.0000000   0.0216850   0.0433699), wk =   0.0277778
        k(   10) = (   0.0000000   0.0216850   0.0650549), wk =   0.0277778
        k(   11) = (   0.0000000   0.0216850   0.0867398), wk =   0.0277778
        k(   12) = (   0.0000000   0.0216850   0.1084248), wk =   0.0277778
        k(   13) = (   0.0000000   0.0216850  -0.1301097), wk =   0.0138889
        k(   14) = (   0.0000000   0.0433699   0.0433699), wk =   0.0138889
        k(   15) = (   0.0000000   0.0433699   0.0650549), wk =   0.0277778
        k(   16) = (   0.0000000   0.0433699   0.0867398), wk =   0.0277778
        k(   17) = (   0.0000000   0.0433699   0.1084248), wk =   0.0277778
        k(   18) = (   0.0000000   0.0433699  -0.1301097), wk =   0.0138889
        k(   19) = (   0.0000000   0.0650549   0.0650549), wk =   0.0138889
        k(   20) = (   0.0000000   0.0650549   0.0867398), wk =   0.0277778
        k(   21) = (   0.0000000   0.0650549   0.1084248), wk =   0.0277778
        k(   22) = (   0.0000000   0.0650549  -0.1301097), wk =   0.0138889
        k(   23) = (   0.0000000   0.0867398   0.0867398), wk =   0.0138889
        k(   24) = (   0.0000000   0.0867398   0.1084248), wk =   0.0277778
        k(   25) = (   0.0000000   0.0867398  -0.1301097), wk =   0.0138889
        k(   26) = (   0.0000000   0.1084248   0.1084248), wk =   0.0138889
        k(   27) = (   0.0000000   0.1084248  -0.1301097), wk =   0.0138889
        k(   28) = (   0.0000000  -0.1301097  -0.1301097), wk =   0.0034722
        k(   29) = (   0.0216850   0.0216850   0.0216850), wk =   0.0092593
        k(   30) = (   0.0216850   0.0216850   0.0433699), wk =   0.0277778
        k(   31) = (   0.0216850   0.0216850   0.0650549), wk =   0.0277778
        k(   32) = (   0.0216850   0.0216850   0.0867398), wk =   0.0277778
        k(   33) = (   0.0216850   0.0216850   0.1084248), wk =   0.0277778
        k(   34) = (   0.0216850   0.0216850  -0.1301097), wk =   0.0138889
        k(   35) = (   0.0216850   0.0433699   0.0433699), wk =   0.0277778
        k(   36) = (   0.0216850   0.0433699   0.0650549), wk =   0.0555556
        k(   37) = (   0.0216850   0.0433699   0.0867398), wk =   0.0555556
        k(   38) = (   0.0216850   0.0433699   0.1084248), wk =   0.0555556
        k(   39) = (   0.0216850   0.0433699  -0.1301097), wk =   0.0277778
        k(   40) = (   0.0216850   0.0650549   0.0650549), wk =   0.0277778
        k(   41) = (   0.0216850   0.0650549   0.0867398), wk =   0.0555556
        k(   42) = (   0.0216850   0.0650549   0.1084248), wk =   0.0555556
        k(   43) = (   0.0216850   0.0650549  -0.1301097), wk =   0.0277778
        k(   44) = (   0.0216850   0.0867398   0.0867398), wk =   0.0277778
        k(   45) = (   0.0216850   0.0867398   0.1084248), wk =   0.0555556
        k(   46) = (   0.0216850   0.0867398  -0.1301097), wk =   0.0277778
        k(   47) = (   0.0216850   0.1084248   0.1084248), wk =   0.0277778
        k(   48) = (   0.0216850   0.1084248  -0.1301097), wk =   0.0277778
        k(   49) = (   0.0216850  -0.1301097  -0.1301097), wk =   0.0069444
        k(   50) = (   0.0433699   0.0433699   0.0433699), wk =   0.0092593
        k(   51) = (   0.0433699   0.0433699   0.0650549), wk =   0.0277778
        k(   52) = (   0.0433699   0.0433699   0.0867398), wk =   0.0277778
        k(   53) = (   0.0433699   0.0433699   0.1084248), wk =   0.0277778
        k(   54) = (   0.0433699   0.0433699  -0.1301097), wk =   0.0138889
        k(   55) = (   0.0433699   0.0650549   0.0650549), wk =   0.0277778
        k(   56) = (   0.0433699   0.0650549   0.0867398), wk =   0.0555556
        k(   57) = (   0.0433699   0.0650549   0.1084248), wk =   0.0555556
        k(   58) = (   0.0433699   0.0650549  -0.1301097), wk =   0.0277778
        k(   59) = (   0.0433699   0.0867398   0.0867398), wk =   0.0277778
        k(   60) = (   0.0433699   0.0867398   0.1084248), wk =   0.0555556
[...]
        k(   70) = (   0.0650549   0.0867398   0.1084248), wk =   0.0555556
        k(   71) = (   0.0650549   0.0867398  -0.1301097), wk =   0.0277778
        k(   72) = (   0.0650549   0.1084248   0.1084248), wk =   0.0277778
        k(   73) = (   0.0650549   0.1084248  -0.1301097), wk =   0.0277778
        k(   74) = (   0.0650549  -0.1301097  -0.1301097), wk =   0.0069444
        k(   75) = (   0.0867398   0.0867398   0.0867398), wk =   0.0092593
        k(   76) = (   0.0867398   0.0867398   0.1084248), wk =   0.0277778
        k(   77) = (   0.0867398   0.0867398  -0.1301097), wk =   0.0138889
        k(   78) = (   0.0867398   0.1084248   0.1084248), wk =   0.0277778
        k(   79) = (   0.0867398   0.1084248  -0.1301097), wk =   0.0277778
        k(   80) = (   0.0867398  -0.1301097  -0.1301097), wk =   0.0069444
        k(   81) = (   0.1084248   0.1084248   0.1084248), wk =   0.0092593
        k(   82) = (   0.1084248   0.1084248  -0.1301097), wk =   0.0138889
        k(   83) = (   0.1084248  -0.1301097  -0.1301097), wk =   0.0069444
        k(   84) = (  -0.1301097  -0.1301097  -0.1301097), wk =   0.0011574

     Largest allocated arrays     est. size (Mb)     dimensions
     Largest temporary arrays     est. size (Mb)     dimensions

     Check: negative/imaginary core charge=   -0.000001    0.000000

     Initial potential from superposition of free atoms
     Check: negative starting charge=   -0.000392

     starting charge   72.99835, renormalised to   73.00000

     negative rho (up, down):  3.919E-04 0.000E+00

     *
     * You are using vdW-DF for exchange-correlation in this calculation.
     * Please cite the following three references that made this development
     * possible:
     *
     *   M. Dion, H. Rydberg, E. Schroder, D. C. Langreth, and
     *   B. I. Lundqvist, Phys. Rev. Lett. 92, 246401 (2004).
     *
     *   T. Thonhauser, V. R. Cooper, S. Li, A. Puzder, P. Hyldgaard, and
     *   D. C. Langreth, Phys. Rev. B 76, 125112 (2007).
     *
     *   G. Roman-Perez and J. M. Soler, Phys. Rev. Lett. 103, 096102 (2009).
     *
     *
     * If you are using vdW-DF2, please also cite:
     *
     *   K. Lee, E. D. Murray, L. Kong, B. I. Lundqvist, and
     *   D. C. Langreth, Phys. Rev. B 82, 081101(R) (2010).
     *
     *
     * If you are calculating the stress with vdW-DF, please also cite:
     *
     *   R. Sabatini, E. Kucukbenli, B. Kolb, T. Thonhauser, and
     *   S. de Gironcoli, J. Phys.: Condens. Matter 24, 424209 (2012).
     *

     Carrying out vdW-DF run using the following parameters:

     Nqs =      20    Nr_points =    1024   r_max =   100.000
     q_mesh =
               0.00001000     0.04494208     0.09755937     0.15916263
               0.23128650     0.31572767     0.41458969     0.53033537
               0.66584808     0.82450364     1.01025438     1.22772762
               1.48234092     1.78043706     2.12944203     2.53805004
               3.01644009     3.57652955     4.23227104     5.00000000

     Gradients computed in reciprocal space

     Starting wfc are   49 randomized atomic wfcs +    7 random wfc

     Self-consistent Calculation

     iteration #  1     ecut=    58.80 Ry     beta=0.10
     Davidson diagonalization with overlap
     ethr =  1.00E-02,  avg # of iterations =  4.5

[...]

     total energy              =   -1534.23194822 Ry
     Harris-Foulkes estimate   =   -1534.27805564 Ry
     estimated scf accuracy    <       0.91404815 Ry

[...]

     total energy              =   -1534.16345656 Ry
     Harris-Foulkes estimate   =   -1534.16345625 Ry
     estimated scf accuracy    <       0.00000063 Ry

     iteration # 12     ecut=    58.80 Ry     beta=0.10
     Davidson diagonalization with overlap
     ethr =  8.69E-10,  avg # of iterations =  2.0

     negative rho (up, down):  5.077E-04 0.000E+00

     End of self-consistent calculation

          k = 0.0000 0.0000 0.0000 (  2945 PWs)   bands (ev):

  -111.8962-111.8933-111.8933 -66.0944 -66.0944 -66.0944 -66.0531 -66.0531
   -66.0531 -66.0530 -66.0530 -66.0530 -49.8646 -23.6775 -23.6775 -23.6775
     4.7351   6.3200   6.5110   6.5110   6.5110   6.5919   6.5919   7.2788
     7.2788   7.2788   7.5315   7.5315   7.7670   7.8281   7.8281   7.8281
    13.4205  13.4205  14.5540  14.5540  14.5540  15.1635  15.1635  15.1635
    19.4983  19.4983  19.9565  23.5125  23.5125  23.5125  25.9545  25.9545
    25.9545  28.9263  28.9263  28.9263  29.7490  29.7490  33.5080  33.7035

[...]

          k = 0.1084-0.1301-0.1301 (  2936 PWs)   bands (ev):

[...]

          k =-0.1301-0.1301-0.1301 (  2872 PWs)   bands (ev):

  -111.8943-111.8943-111.8943 -66.1080 -66.0840 -66.0840 -66.0623 -66.0623
   -66.0623 -66.0463 -66.0463 -66.0463 -49.8632 -23.6864 -23.6864 -23.6864
     6.4225   6.4225   6.4225   6.5063   7.0164   7.0164   7.0164   7.2680
     7.2680   7.2680   7.4124   7.4124   7.7623   7.7623   7.7623  11.7587
    11.9085  11.9085  11.9085  12.7849  12.7849  12.7849  15.4800  15.4800
    17.5704  17.5704  17.5704  18.1931  30.7142  30.7142  30.7142  30.9594
    30.9594  32.0954  32.0954  32.0954  32.3304  34.3150  34.3150  34.3150

     the Fermi energy is    14.3523 ev

!    total energy              =   -1534.16345928 Ry
     Harris-Foulkes estimate   =   -1534.16345667 Ry
     estimated scf accuracy    <          1.8E-09 Ry

     The total energy is the sum of the following terms:

     one-electron contribution =   -1124.54156919 Ry
     hartree contribution      =     593.71422028 Ry
     xc contribution           =    -150.81028076 Ry
     ewald contribution        =    -852.52053588 Ry
     smearing contrib. (-TS)   =      -0.00529373 Ry

     convergence has been achieved in  12 iterations

     Forces acting on atoms (Ry/au):

     negative rho (up, down):  5.077E-04 0.000E+00
     atom    1 type  1   force =     0.00000000    0.00000000    0.00000000
     atom    2 type  1   force =     0.00000000    0.00000000    0.00000000
     atom    3 type  1   force =     0.00000000    0.00000000   -0.00000000
     atom    4 type  2   force =     0.00000000    0.00000000    0.00000000

     Total force =     0.000000     Total SCF correction =     0.000000
 !ASE

     General routines

     Parallel routines

   This run was terminated on:   2:16:57  26Oct2017

   JOB DONE.