     Program PWSCF v.5.1rc2 (svn rev. ) starts on 25Oct2017 at  6:55:40

     Current dimensions of program PWSCF are:
     Max number of different atomic species (ntypx) = 10
     Max number of k-points (npk) =  40000
     Max angular momentum in pseudopotentials (lmaxx) =  3

     IMPORTANT: XC functional enforced from input :
     Exchange-correlation      = BEEF-VDW ( 1  4 27 13 2)
     Any further DFT definition will be discarded
     Please, verify this is what you really want

     Subspace diagonalization in iterative solution of the eigenvalue problem:
     a serial algorithm will be used

     bravais-lattice index     =            0
     lattice parameter (alat)  =       1.8897  a.u.
     unit-cell volume          =     723.3117 (a.u.)^3
     number of atoms/cell      =            4
     number of atomic types    =            2
     number of electrons       =        52.00
     number of Kohn-Sham states=           46
     kinetic-energy cutoff     =      58.7989  Ry
     charge density cutoff     =     587.9892  Ry
     convergence threshold     =      7.3E-09
     mixing beta               =       0.1000
     number of iterations used =           10  local-TF  mixing
     Exchange-correlation      = BEEF-VDW ( 1  4 27 13 2)
     nstep                     =           50

     celldm(1)=   1.889726  celldm(2)=   0.000000  celldm(3)=   0.000000
     celldm(4)=   0.000000  celldm(5)=   0.000000  celldm(6)=   0.000000

     crystal axes: (cart. coord. in units of alat)
               a(1) = (   4.750175   0.000000   0.000000 )
               a(2) = (   0.000000   4.750175   0.000000 )
               a(3) = (   0.000000   0.000000   4.750175 )

     reciprocal axes: (cart. coord. in units 2 pi/alat)
               b(1) = (  0.210519  0.000000  0.000000 )
               b(2) = (  0.000000  0.210519  0.000000 )
               b(3) = (  0.000000  0.000000  0.210519 )

     PseudoPot. # 1 for Y  read from file:
     /home/vossj/suncat/psp/gbrv1.5pbe/Y.UPF
     MD5 check sum: d034151ed7554c50b6e82763ed42c788
     Pseudo is Ultrasoft + core correction, Zval = 11.0
     Generated by new atomic code, or converted to UPF format
     Using radial grid of  885 points,  6 beta functions with:
                l(1) =   0
                l(2) =   0
                l(3) =   1
                l(4) =   1
                l(5) =   2
                l(6) =   2
     Q(r) pseudized with  8 coefficients,  rinner =    1.200   1.200   1.200
                                                       1.200   1.200

     PseudoPot. # 2 for Ga read from file:
     /home/vossj/suncat/psp/gbrv1.5pbe/Ga.UPF
     MD5 check sum: ccd671392a58a050fbb373893b4fcd66
     Pseudo is Ultrasoft + core correction, Zval = 19.0
     Generated by new atomic code, or converted to UPF format
     Using radial grid of  871 points,  6 beta functions with:
                l(1) =   0
                l(2) =   0
                l(3) =   1
                l(4) =   1
                l(5) =   2
                l(6) =   2
     Q(r) pseudized with  8 coefficients,  rinner =    1.250   1.250   1.250
                                                       1.250   1.250

     vdW kernel table read from file vdW_kernel_table
     MD5 check sum: 095c7af220d748ca6e76c0b4c6cfb241

     atomic species   valence    mass     pseudopotential
        Y1            11.00    88.90584     Y ( 1.00)
        Ga1           19.00    69.72300     Ga( 1.00)

     48 Sym. Ops., with inversion, found (32 have fractional translation)

   Cartesian axes

     site n.     atom                  positions (alat units)
         1           Y1  tau(   1) = (   0.0000000   0.0000000   0.0000000  )
         2           Y1  tau(   2) = (   0.0000000   2.3750877   2.3750877  )
         3           Y1  tau(   3) = (   2.3750877   0.0000000   2.3750877  )
         4           Ga1 tau(   4) = (   2.3750877   2.3750877   0.0000000  )

     number of k points=    84  Fermi-Dirac smearing, width (Ry)=  0.0073
                       cart. coord. in units 2pi/alat
        k(    1) = (   0.0000000   0.0000000   0.0000000), wk =   0.0011574
        k(    2) = (   0.0000000   0.0000000   0.0175432), wk =   0.0069444
        k(    3) = (   0.0000000   0.0000000   0.0350864), wk =   0.0069444
        k(    4) = (   0.0000000   0.0000000   0.0526296), wk =   0.0069444
        k(    5) = (   0.0000000   0.0000000   0.0701728), wk =   0.0069444
        k(    6) = (   0.0000000   0.0000000   0.0877161), wk =   0.0069444
        k(    7) = (   0.0000000   0.0000000  -0.1052593), wk =   0.0034722
        k(    8) = (   0.0000000   0.0175432   0.0175432), wk =   0.0138889
        k(    9) = (   0.0000000   0.0175432   0.0350864), wk =   0.0277778
        k(   10) = (   0.0000000   0.0175432   0.0526296), wk =   0.0277778
        k(   11) = (   0.0000000   0.0175432   0.0701728), wk =   0.0277778
        k(   12) = (   0.0000000   0.0175432   0.0877161), wk =   0.0277778
        k(   13) = (   0.0000000   0.0175432  -0.1052593), wk =   0.0138889
        k(   14) = (   0.0000000   0.0350864   0.0350864), wk =   0.0138889
        k(   15) = (   0.0000000   0.0350864   0.0526296), wk =   0.0277778
        k(   16) = (   0.0000000   0.0350864   0.0701728), wk =   0.0277778
        k(   17) = (   0.0000000   0.0350864   0.0877161), wk =   0.0277778
        k(   18) = (   0.0000000   0.0350864  -0.1052593), wk =   0.0138889
        k(   19) = (   0.0000000   0.0526296   0.0526296), wk =   0.0138889
        k(   20) = (   0.0000000   0.0526296   0.0701728), wk =   0.0277778
        k(   21) = (   0.0000000   0.0526296   0.0877161), wk =   0.0277778
        k(   22) = (   0.0000000   0.0526296  -0.1052593), wk =   0.0138889
        k(   23) = (   0.0000000   0.0701728   0.0701728), wk =   0.0138889
        k(   24) = (   0.0000000   0.0701728   0.0877161), wk =   0.0277778
        k(   25) = (   0.0000000   0.0701728  -0.1052593), wk =   0.0138889
        k(   26) = (   0.0000000   0.0877161   0.0877161), wk =   0.0138889
        k(   27) = (   0.0000000   0.0877161  -0.1052593), wk =   0.0138889
        k(   28) = (   0.0000000  -0.1052593  -0.1052593), wk =   0.0034722
        k(   29) = (   0.0175432   0.0175432   0.0175432), wk =   0.0092593
        k(   30) = (   0.0175432   0.0175432   0.0350864), wk =   0.0277778
        k(   31) = (   0.0175432   0.0175432   0.0526296), wk =   0.0277778
        k(   32) = (   0.0175432   0.0175432   0.0701728), wk =   0.0277778
        k(   33) = (   0.0175432   0.0175432   0.0877161), wk =   0.0277778
        k(   34) = (   0.0175432   0.0175432  -0.1052593), wk =   0.0138889
        k(   35) = (   0.0175432   0.0350864   0.0350864), wk =   0.0277778
        k(   36) = (   0.0175432   0.0350864   0.0526296), wk =   0.0555556
        k(   37) = (   0.0175432   0.0350864   0.0701728), wk =   0.0555556
        k(   38) = (   0.0175432   0.0350864   0.0877161), wk =   0.0555556
        k(   39) = (   0.0175432   0.0350864  -0.1052593), wk =   0.0277778
        k(   40) = (   0.0175432   0.0526296   0.0526296), wk =   0.0277778
        k(   41) = (   0.0175432   0.0526296   0.0701728), wk =   0.0555556
        k(   42) = (   0.0175432   0.0526296   0.0877161), wk =   0.0555556
        k(   43) = (   0.0175432   0.0526296  -0.1052593), wk =   0.0277778
        k(   44) = (   0.0175432   0.0701728   0.0701728), wk =   0.0277778
        k(   45) = (   0.0175432   0.0701728   0.0877161), wk =   0.0555556
        k(   46) = (   0.0175432   0.0701728  -0.1052593), wk =   0.0277778
        k(   47) = (   0.0175432   0.0877161   0.0877161), wk =   0.0277778
        k(   48) = (   0.0175432   0.0877161  -0.1052593), wk =   0.0277778
        k(   49) = (   0.0175432  -0.1052593  -0.1052593), wk =   0.0069444
        k(   50) = (   0.0350864   0.0350864   0.0350864), wk =   0.0092593
        k(   51) = (   0.0350864   0.0350864   0.0526296), wk =   0.0277778
        k(   52) = (   0.0350864   0.0350864   0.0701728), wk =   0.0277778
        k(   53) = (   0.0350864   0.0350864   0.0877161), wk =   0.0277778
        k(   54) = (   0.0350864   0.0350864  -0.1052593), wk =   0.0138889
        k(   55) = (   0.0350864   0.0526296   0.0526296), wk =   0.0277778
        k(   56) = (   0.0350864   0.0526296   0.0701728), wk =   0.0555556
        k(   57) = (   0.0350864   0.0526296   0.0877161), wk =   0.0555556
        k(   58) = (   0.0350864   0.0526296  -0.1052593), wk =   0.0277778
        k(   59) = (   0.0350864   0.0701728   0.0701728), wk =   0.0277778
        k(   60) = (   0.0350864   0.0701728   0.0877161), wk =   0.0555556
[...]
        k(   70) = (   0.0526296   0.0701728   0.0877161), wk =   0.0555556
        k(   71) = (   0.0526296   0.0701728  -0.1052593), wk =   0.0277778
        k(   72) = (   0.0526296   0.0877161   0.0877161), wk =   0.0277778
        k(   73) = (   0.0526296   0.0877161  -0.1052593), wk =   0.0277778
        k(   74) = (   0.0526296  -0.1052593  -0.1052593), wk =   0.0069444
        k(   75) = (   0.0701728   0.0701728   0.0701728), wk =   0.0092593
        k(   76) = (   0.0701728   0.0701728   0.0877161), wk =   0.0277778
        k(   77) = (   0.0701728   0.0701728  -0.1052593), wk =   0.0138889
        k(   78) = (   0.0701728   0.0877161   0.0877161), wk =   0.0277778
        k(   79) = (   0.0701728   0.0877161  -0.1052593), wk =   0.0277778
        k(   80) = (   0.0701728  -0.1052593  -0.1052593), wk =   0.0069444
        k(   81) = (   0.0877161   0.0877161   0.0877161), wk =   0.0092593
        k(   82) = (   0.0877161   0.0877161  -0.1052593), wk =   0.0138889
        k(   83) = (   0.0877161  -0.1052593  -0.1052593), wk =   0.0069444
        k(   84) = (  -0.1052593  -0.1052593  -0.1052593), wk =   0.0011574

     Largest allocated arrays     est. size (Mb)     dimensions
     Largest temporary arrays     est. size (Mb)     dimensions

     Initial potential from superposition of free atoms

     starting charge   50.98659, renormalised to   52.00000

     *
     * You are using vdW-DF for exchange-correlation in this calculation.
     * Please cite the following three references that made this development
     * possible:
     *
     *   M. Dion, H. Rydberg, E. Schroder, D. C. Langreth, and
     *   B. I. Lundqvist, Phys. Rev. Lett. 92, 246401 (2004).
     *
     *   T. Thonhauser, V. R. Cooper, S. Li, A. Puzder, P. Hyldgaard, and
     *   D. C. Langreth, Phys. Rev. B 76, 125112 (2007).
     *
     *   G. Roman-Perez and J. M. Soler, Phys. Rev. Lett. 103, 096102 (2009).
     *
     *
     * If you are using vdW-DF2, please also cite:
     *
     *   K. Lee, E. D. Murray, L. Kong, B. I. Lundqvist, and
     *   D. C. Langreth, Phys. Rev. B 82, 081101(R) (2010).
     *
     *
     * If you are calculating the stress with vdW-DF, please also cite:
     *
     *   R. Sabatini, E. Kucukbenli, B. Kolb, T. Thonhauser, and
     *   S. de Gironcoli, J. Phys.: Condens. Matter 24, 424209 (2012).
     *

     Carrying out vdW-DF run using the following parameters:

     Nqs =      20    Nr_points =    1024   r_max =   100.000
     q_mesh =
               0.00001000     0.04494208     0.09755937     0.15916263
               0.23128650     0.31572767     0.41458969     0.53033537
               0.66584808     0.82450364     1.01025438     1.22772762
               1.48234092     1.78043706     2.12944203     2.53805004
               3.01644009     3.57652955     4.23227104     5.00000000

     Gradients computed in reciprocal space

     Starting wfc are   51 randomized atomic wfcs

     Self-consistent Calculation

     iteration #  1     ecut=    58.80 Ry     beta=0.10
     Davidson diagonalization with overlap
     ethr =  1.00E-02,  avg # of iterations =  4.4

     total energy              =    -698.04126847 Ry
     Harris-Foulkes estimate   =    -698.10643938 Ry
     estimated scf accuracy    <       0.91173811 Ry

[...]

     total energy              =    -697.82391615 Ry
     Harris-Foulkes estimate   =    -697.82390948 Ry
     estimated scf accuracy    <       0.00000002 Ry

     iteration # 13     ecut=    58.80 Ry     beta=0.10
     Davidson diagonalization with overlap
     ethr =  3.27E-11,  avg # of iterations =  2.7

     End of self-consistent calculation

          k = 0.0000 0.0000 0.0000 (  5497 PWs)   bands (ev):

   -83.3837 -83.3837 -83.3837 -32.2368 -32.0966 -32.0966 -12.4822 -12.4822
   -12.4822 -12.0579 -12.0579 -12.0579 -11.8272 -11.8272 -11.8272  -3.6932
    -3.6932  -3.6932  -3.6904  -3.6904   3.7798   7.6567   9.7203   9.7203
    10.1047  10.1047  10.1047  11.4221  11.4221  11.4221  13.6950  13.7991
    13.7991  13.7991  15.5349  15.5349  16.6768  17.1449  17.1449  17.1449
    17.3567  17.3567  17.3567  20.6216  20.6820  20.6820

[...]

          k = 0.0877-0.1053-0.1053 (  5544 PWs)   bands (ev):

[...]

          k =-0.1053-0.1053-0.1053 (  5520 PWs)   bands (ev):

   -83.3837 -83.3837 -83.3837 -32.1423 -32.1423 -32.1423 -12.7229 -12.4204
   -12.4204 -12.4204 -11.8510 -11.8510 -11.8392 -11.8392 -11.8392  -3.6945
    -3.6945  -3.6945  -3.6818  -3.6818   4.9085   9.1585   9.1585   9.1585
    10.0269  10.0269  10.0269  11.8659  12.3118  12.3118  12.3118  13.4511
    13.4511  13.4511  14.0699  14.5283  14.5283  16.6406  16.6406  16.6406
    19.1433  19.1433  19.1433  20.1204  20.1204  20.1205

     the Fermi energy is    10.6587 ev

!    total energy              =    -697.82390875 Ry
     Harris-Foulkes estimate   =    -697.82391615 Ry
     estimated scf accuracy    <          1.8E-09 Ry

     The total energy is the sum of the following terms:

     one-electron contribution =    -447.83105663 Ry
     hartree contribution      =     242.12131716 Ry
     xc contribution           =    -134.77088071 Ry
     ewald contribution        =    -357.33138155 Ry
     smearing contrib. (-TS)   =      -0.01190702 Ry

     convergence has been achieved in  13 iterations

     Forces acting on atoms (Ry/au):

     atom    1 type  1   force =     0.00000000    0.00000000    0.00000000
     atom    2 type  1   force =     0.00000000    0.00000000    0.00000000
     atom    3 type  1   force =     0.00000000    0.00000000   -0.00000000
     atom    4 type  2   force =     0.00000000   -0.00000000    0.00000000

     Total force =     0.000000     Total SCF correction =     0.000000
 !ASE

     General routines

     Parallel routines

   This run was terminated on:   6:56:48  25Oct2017

   JOB DONE.