     Program PWSCF v.5.1rc2 (svn rev. ) starts on 25Oct2017 at 23:22:15

     Current dimensions of program PWSCF are:
     Max number of different atomic species (ntypx) = 10
     Max number of k-points (npk) =  40000
     Max angular momentum in pseudopotentials (lmaxx) =  3

     IMPORTANT: XC functional enforced from input :
     Exchange-correlation      = BEEF-VDW ( 1  4 27 13 2)
     Any further DFT definition will be discarded
     Please, verify this is what you really want

     Subspace diagonalization in iterative solution of the eigenvalue problem:
     a serial algorithm will be used

     bravais-lattice index     =            0
     lattice parameter (alat)  =       1.8897  a.u.
     unit-cell volume          =     382.0584 (a.u.)^3
     number of atoms/cell      =            4
     number of atomic types    =            2
     number of electrons       =        55.00
     number of Kohn-Sham states=           47
     kinetic-energy cutoff     =      58.7989  Ry
     charge density cutoff     =     587.9892  Ry
     convergence threshold     =      7.3E-09
     mixing beta               =       0.1000
     number of iterations used =           10  local-TF  mixing
     Exchange-correlation      = BEEF-VDW ( 1  4 27 13 2)
     nstep                     =           50

     celldm(1)=   1.889726  celldm(2)=   0.000000  celldm(3)=   0.000000
     celldm(4)=   0.000000  celldm(5)=   0.000000  celldm(6)=   0.000000

     crystal axes: (cart. coord. in units of alat)
               a(1) = (   3.839822   0.000000   0.000000 )
               a(2) = (   0.000000   3.839822   0.000000 )
               a(3) = (   0.000000   0.000000   3.839822 )

     reciprocal axes: (cart. coord. in units 2 pi/alat)
               b(1) = (  0.260429  0.000000  0.000000 )
               b(2) = (  0.000000  0.260429  0.000000 )
               b(3) = (  0.000000  0.000000  0.260429 )

     PseudoPot. # 1 for V  read from file:
     /home/vossj/suncat/psp/gbrv1.5pbe/V.UPF
     MD5 check sum: 22b79981416ebb76fdaf5b1b8640f6fb
     Pseudo is Ultrasoft + core correction, Zval = 13.0
     Generated by new atomic code, or converted to UPF format
     Using radial grid of  853 points,  6 beta functions with:
                l(1) =   0
                l(2) =   0
                l(3) =   1
                l(4) =   1
                l(5) =   2
                l(6) =   2
     Q(r) pseudized with  8 coefficients,  rinner =    1.100   1.100   1.100
                                                       1.100   1.100

     PseudoPot. # 2 for Pt read from file:
     /home/vossj/suncat/psp/gbrv1.5pbe/Pt.UPF
     MD5 check sum: f09d6de1a584b5a045c4fc126da2d0c4
     Pseudo is Ultrasoft + core correction, Zval = 16.0
     Generated by new atomic code, or converted to UPF format
     Using radial grid of  985 points,  6 beta functions with:
                l(1) =   0
                l(2) =   0
                l(3) =   1
                l(4) =   1
                l(5) =   2
                l(6) =   2
     Q(r) pseudized with  8 coefficients,  rinner =    1.300   1.300   1.300
                                                       1.300   1.300

     vdW kernel table read from file vdW_kernel_table
     MD5 check sum: 095c7af220d748ca6e76c0b4c6cfb241

     atomic species   valence    mass     pseudopotential
        V1            13.00    50.94150     V ( 1.00)
        Pt1           16.00   195.08400     Pt( 1.00)

     48 Sym. Ops., with inversion, found (32 have fractional translation)

   Cartesian axes

     site n.     atom                  positions (alat units)
         1           V1  tau(   1) = (   0.0000000   0.0000000   0.0000000  )
         2           V1  tau(   2) = (   0.0000000   1.9199108   1.9199108  )
         3           V1  tau(   3) = (   1.9199108   0.0000000   1.9199108  )
         4           Pt1 tau(   4) = (   1.9199108   1.9199108   0.0000000  )

     number of k points=    84  Fermi-Dirac smearing, width (Ry)=  0.0073
                       cart. coord. in units 2pi/alat
        k(    1) = (   0.0000000   0.0000000   0.0000000), wk =   0.0011574
        k(    2) = (   0.0000000   0.0000000   0.0217024), wk =   0.0069444
        k(    3) = (   0.0000000   0.0000000   0.0434048), wk =   0.0069444
        k(    4) = (   0.0000000   0.0000000   0.0651072), wk =   0.0069444
        k(    5) = (   0.0000000   0.0000000   0.0868096), wk =   0.0069444
        k(    6) = (   0.0000000   0.0000000   0.1085120), wk =   0.0069444
        k(    7) = (   0.0000000   0.0000000  -0.1302144), wk =   0.0034722
        k(    8) = (   0.0000000   0.0217024   0.0217024), wk =   0.0138889
        k(    9) = (   0.0000000   0.0217024   0.0434048), wk =   0.0277778
        k(   10) = (   0.0000000   0.0217024   0.0651072), wk =   0.0277778
        k(   11) = (   0.0000000   0.0217024   0.0868096), wk =   0.0277778
        k(   12) = (   0.0000000   0.0217024   0.1085120), wk =   0.0277778
        k(   13) = (   0.0000000   0.0217024  -0.1302144), wk =   0.0138889
        k(   14) = (   0.0000000   0.0434048   0.0434048), wk =   0.0138889
        k(   15) = (   0.0000000   0.0434048   0.0651072), wk =   0.0277778
        k(   16) = (   0.0000000   0.0434048   0.0868096), wk =   0.0277778
        k(   17) = (   0.0000000   0.0434048   0.1085120), wk =   0.0277778
        k(   18) = (   0.0000000   0.0434048  -0.1302144), wk =   0.0138889
        k(   19) = (   0.0000000   0.0651072   0.0651072), wk =   0.0138889
        k(   20) = (   0.0000000   0.0651072   0.0868096), wk =   0.0277778
        k(   21) = (   0.0000000   0.0651072   0.1085120), wk =   0.0277778
        k(   22) = (   0.0000000   0.0651072  -0.1302144), wk =   0.0138889
        k(   23) = (   0.0000000   0.0868096   0.0868096), wk =   0.0138889
        k(   24) = (   0.0000000   0.0868096   0.1085120), wk =   0.0277778
        k(   25) = (   0.0000000   0.0868096  -0.1302144), wk =   0.0138889
        k(   26) = (   0.0000000   0.1085120   0.1085120), wk =   0.0138889
        k(   27) = (   0.0000000   0.1085120  -0.1302144), wk =   0.0138889
        k(   28) = (   0.0000000  -0.1302144  -0.1302144), wk =   0.0034722
        k(   29) = (   0.0217024   0.0217024   0.0217024), wk =   0.0092593
        k(   30) = (   0.0217024   0.0217024   0.0434048), wk =   0.0277778
        k(   31) = (   0.0217024   0.0217024   0.0651072), wk =   0.0277778
        k(   32) = (   0.0217024   0.0217024   0.0868096), wk =   0.0277778
        k(   33) = (   0.0217024   0.0217024   0.1085120), wk =   0.0277778
        k(   34) = (   0.0217024   0.0217024  -0.1302144), wk =   0.0138889
        k(   35) = (   0.0217024   0.0434048   0.0434048), wk =   0.0277778
        k(   36) = (   0.0217024   0.0434048   0.0651072), wk =   0.0555556
        k(   37) = (   0.0217024   0.0434048   0.0868096), wk =   0.0555556
        k(   38) = (   0.0217024   0.0434048   0.1085120), wk =   0.0555556
        k(   39) = (   0.0217024   0.0434048  -0.1302144), wk =   0.0277778
        k(   40) = (   0.0217024   0.0651072   0.0651072), wk =   0.0277778
        k(   41) = (   0.0217024   0.0651072   0.0868096), wk =   0.0555556
        k(   42) = (   0.0217024   0.0651072   0.1085120), wk =   0.0555556
        k(   43) = (   0.0217024   0.0651072  -0.1302144), wk =   0.0277778
        k(   44) = (   0.0217024   0.0868096   0.0868096), wk =   0.0277778
        k(   45) = (   0.0217024   0.0868096   0.1085120), wk =   0.0555556
        k(   46) = (   0.0217024   0.0868096  -0.1302144), wk =   0.0277778
        k(   47) = (   0.0217024   0.1085120   0.1085120), wk =   0.0277778
        k(   48) = (   0.0217024   0.1085120  -0.1302144), wk =   0.0277778
        k(   49) = (   0.0217024  -0.1302144  -0.1302144), wk =   0.0069444
        k(   50) = (   0.0434048   0.0434048   0.0434048), wk =   0.0092593
        k(   51) = (   0.0434048   0.0434048   0.0651072), wk =   0.0277778
        k(   52) = (   0.0434048   0.0434048   0.0868096), wk =   0.0277778
        k(   53) = (   0.0434048   0.0434048   0.1085120), wk =   0.0277778
        k(   54) = (   0.0434048   0.0434048  -0.1302144), wk =   0.0138889
        k(   55) = (   0.0434048   0.0651072   0.0651072), wk =   0.0277778
        k(   56) = (   0.0434048   0.0651072   0.0868096), wk =   0.0555556
        k(   57) = (   0.0434048   0.0651072   0.1085120), wk =   0.0555556
        k(   58) = (   0.0434048   0.0651072  -0.1302144), wk =   0.0277778
        k(   59) = (   0.0434048   0.0868096   0.0868096), wk =   0.0277778
        k(   60) = (   0.0434048   0.0868096   0.1085120), wk =   0.0555556
[...]
        k(   70) = (   0.0651072   0.0868096   0.1085120), wk =   0.0555556
        k(   71) = (   0.0651072   0.0868096  -0.1302144), wk =   0.0277778
        k(   72) = (   0.0651072   0.1085120   0.1085120), wk =   0.0277778
        k(   73) = (   0.0651072   0.1085120  -0.1302144), wk =   0.0277778
        k(   74) = (   0.0651072  -0.1302144  -0.1302144), wk =   0.0069444
        k(   75) = (   0.0868096   0.0868096   0.0868096), wk =   0.0092593
        k(   76) = (   0.0868096   0.0868096   0.1085120), wk =   0.0277778
        k(   77) = (   0.0868096   0.0868096  -0.1302144), wk =   0.0138889
        k(   78) = (   0.0868096   0.1085120   0.1085120), wk =   0.0277778
        k(   79) = (   0.0868096   0.1085120  -0.1302144), wk =   0.0277778
        k(   80) = (   0.0868096  -0.1302144  -0.1302144), wk =   0.0069444
        k(   81) = (   0.1085120   0.1085120   0.1085120), wk =   0.0092593
        k(   82) = (   0.1085120   0.1085120  -0.1302144), wk =   0.0138889
        k(   83) = (   0.1085120  -0.1302144  -0.1302144), wk =   0.0069444
        k(   84) = (  -0.1302144  -0.1302144  -0.1302144), wk =   0.0011574

     Largest allocated arrays     est. size (Mb)     dimensions
     Largest temporary arrays     est. size (Mb)     dimensions

     Check: negative/imaginary core charge=   -0.000002    0.000000

     Initial potential from superposition of free atoms
     Check: negative starting charge=   -0.184077

     starting charge   54.49631, renormalised to   55.00000

     negative rho (up, down):  1.858E-01 0.000E+00

     *
     * You are using vdW-DF for exchange-correlation in this calculation.
     * Please cite the following three references that made this development
     * possible:
     *
     *   M. Dion, H. Rydberg, E. Schroder, D. C. Langreth, and
     *   B. I. Lundqvist, Phys. Rev. Lett. 92, 246401 (2004).
     *
     *   T. Thonhauser, V. R. Cooper, S. Li, A. Puzder, P. Hyldgaard, and
     *   D. C. Langreth, Phys. Rev. B 76, 125112 (2007).
     *
     *   G. Roman-Perez and J. M. Soler, Phys. Rev. Lett. 103, 096102 (2009).
     *
     *
     * If you are using vdW-DF2, please also cite:
     *
     *   K. Lee, E. D. Murray, L. Kong, B. I. Lundqvist, and
     *   D. C. Langreth, Phys. Rev. B 82, 081101(R) (2010).
     *
     *
     * If you are calculating the stress with vdW-DF, please also cite:
     *
     *   R. Sabatini, E. Kucukbenli, B. Kolb, T. Thonhauser, and
     *   S. de Gironcoli, J. Phys.: Condens. Matter 24, 424209 (2012).
     *

     Carrying out vdW-DF run using the following parameters:

     Nqs =      20    Nr_points =    1024   r_max =   100.000
     q_mesh =
               0.00001000     0.04494208     0.09755937     0.15916263
               0.23128650     0.31572767     0.41458969     0.53033537
               0.66584808     0.82450364     1.01025438     1.22772762
               1.48234092     1.78043706     2.12944203     2.53805004
               3.01644009     3.57652955     4.23227104     5.00000000

     Gradients computed in reciprocal space

     Starting wfc are   42 randomized atomic wfcs +    5 random wfc

     Self-consistent Calculation

     iteration #  1     ecut=    58.80 Ry     beta=0.10
     Davidson diagonalization with overlap
     ethr =  1.00E-02,  avg # of iterations =  3.5

[...]

     total energy              =    -650.11580441 Ry
     Harris-Foulkes estimate   =    -650.30455116 Ry
     estimated scf accuracy    <       3.68581719 Ry

[...]

     total energy              =    -649.83263681 Ry
     Harris-Foulkes estimate   =    -649.83263603 Ry
     estimated scf accuracy    <       0.00000002 Ry

     iteration # 14     ecut=    58.80 Ry     beta=0.10
     Davidson diagonalization with overlap
     ethr =  3.00E-11,  avg # of iterations =  1.5

     negative rho (up, down):  1.774E-01 0.000E+00

     End of self-consistent calculation

          k = 0.0000 0.0000 0.0000 (  2945 PWs)   bands (ev):

   -46.5244 -46.3775 -46.3775 -35.6300 -35.6300 -35.6300 -20.4889 -20.4889
   -20.4889 -20.2237 -20.2237 -20.2237 -19.9735 -19.9735 -19.9735   9.8555
    12.2984  12.2984  13.1611  13.1611  13.1611  14.2024  17.0603  17.0603
    17.0603  18.5203  18.5203  20.1633  20.1633  20.1633  20.2764  20.2764
    20.5615  20.7659  20.7659  20.7659  20.9208  20.9208  20.9208  27.5413
    29.8315  29.8315  30.8748  30.8748  30.8748  31.0133  31.0133

[...]

          k = 0.1085-0.1302-0.1302 (  2928 PWs)   bands (ev):

[...]

          k =-0.1302-0.1302-0.1302 (  2872 PWs)   bands (ev):

   -46.4253 -46.4253 -46.4253 -35.6342 -35.6342 -35.6342 -20.5986 -20.4872
   -20.4872 -20.4872 -20.0568 -20.0568 -20.0568 -19.9460 -19.9460  12.6155
    12.6155  12.6155  13.0153  14.5777  14.5777  16.8565  16.8565  16.8565
    17.7170  17.7170  17.7170  18.1394  18.1394  18.1394  18.5683  20.0613
    20.0613  20.0613  20.0738  20.0738  20.6120  20.6120  20.6120  24.0824
    26.7740  26.7740  26.7740  33.7881  33.7881  33.7881  34.0340

     the Fermi energy is    17.7962 ev

!    total energy              =    -649.83264013 Ry
     Harris-Foulkes estimate   =    -649.83263681 Ry
     estimated scf accuracy    <          7.3E-09 Ry

     The total energy is the sum of the following terms:

     one-electron contribution =    -165.30564243 Ry
     hartree contribution      =     115.30688222 Ry
     xc contribution           =    -119.88160844 Ry
     ewald contribution        =    -479.93664544 Ry
     smearing contrib. (-TS)   =      -0.01562604 Ry

     convergence has been achieved in  14 iterations

     Forces acting on atoms (Ry/au):

     negative rho (up, down):  1.774E-01 0.000E+00
     atom    1 type  1   force =     0.00000000    0.00000000    0.00000000
     atom    2 type  1   force =     0.00000000    0.00000000   -0.00000000
     atom    3 type  1   force =     0.00000000    0.00000000    0.00000000
     atom    4 type  2   force =     0.00000000    0.00000000   -0.00000000

     Total force =     0.000000     Total SCF correction =     0.000000
 !ASE

     General routines

     Parallel routines

   This run was terminated on:  23:23: 5  25Oct2017

   JOB DONE.