     Program PWSCF v.5.1rc2 (svn rev. ) starts on 26Oct2017 at  1:56:30

     Current dimensions of program PWSCF are:
     Max number of different atomic species (ntypx) = 10
     Max number of k-points (npk) =  40000
     Max angular momentum in pseudopotentials (lmaxx) =  3

     IMPORTANT: XC functional enforced from input :
     Exchange-correlation      = BEEF-VDW ( 1  4 27 13 2)
     Any further DFT definition will be discarded
     Please, verify this is what you really want

     Subspace diagonalization in iterative solution of the eigenvalue problem:
     a serial algorithm will be used

     bravais-lattice index     =            0
     lattice parameter (alat)  =       1.8897  a.u.
     unit-cell volume          =     453.5732 (a.u.)^3
     number of atoms/cell      =            4
     number of atomic types    =            2
     number of electrons       =        54.00
     number of Kohn-Sham states=           47
     kinetic-energy cutoff     =      58.7989  Ry
     charge density cutoff     =     587.9892  Ry
     convergence threshold     =      7.3E-09
     mixing beta               =       0.1000
     number of iterations used =           10  local-TF  mixing
     Exchange-correlation      = BEEF-VDW ( 1  4 27 13 2)
     nstep                     =           50

     celldm(1)=   1.889726  celldm(2)=   0.000000  celldm(3)=   0.000000
     celldm(4)=   0.000000  celldm(5)=   0.000000  celldm(6)=   0.000000

     crystal axes: (cart. coord. in units of alat)
               a(1) = (   4.065840   0.000000   0.000000 )
               a(2) = (   0.000000   4.065840   0.000000 )
               a(3) = (   0.000000   0.000000   4.065840 )

     reciprocal axes: (cart. coord. in units 2 pi/alat)
               b(1) = (  0.245952  0.000000  0.000000 )
               b(2) = (  0.000000  0.245952  0.000000 )
               b(3) = (  0.000000  0.000000  0.245952 )

     PseudoPot. # 1 for W  read from file:
     /home/vossj/suncat/psp/gbrv1.5pbe/W.UPF
     MD5 check sum: 9c083fa34c2a2ea0f02f1f893e16e1c8
     Pseudo is Ultrasoft + core correction, Zval = 14.0
     Generated by new atomic code, or converted to UPF format
     Using radial grid of  923 points,  8 beta functions with:
                l(1) =   0
                l(2) =   0
                l(3) =   0
                l(4) =   1
                l(5) =   1
                l(6) =   2
                l(7) =   2
                l(8) =   3
     Q(r) pseudized with  6 coefficients,  rinner =    1.350   1.350   1.350
                                                       1.350   1.350   1.350
                                                       1.350

     PseudoPot. # 2 for Cd read from file:
     /home/vossj/suncat/psp/gbrv1.5pbe/Cd.UPF
     MD5 check sum: 17164a7926edb8e0dc231208abae86a6
     Pseudo is Ultrasoft + core correction, Zval = 12.0
     Generated by new atomic code, or converted to UPF format
     Using radial grid of  889 points,  6 beta functions with:
                l(1) =   0
                l(2) =   0
                l(3) =   1
                l(4) =   1
                l(5) =   2
                l(6) =   2
     Q(r) pseudized with  6 coefficients,  rinner =    1.000   1.000   1.000
                                                       1.000   1.000

     vdW kernel table read from file vdW_kernel_table
     MD5 check sum: 095c7af220d748ca6e76c0b4c6cfb241

     atomic species   valence    mass     pseudopotential
        W1            14.00   183.84000     W ( 1.00)
        Cd1           12.00   112.41400     Cd( 1.00)

     48 Sym. Ops., with inversion, found (32 have fractional translation)

   Cartesian axes

     site n.     atom                  positions (alat units)
         1           W1  tau(   1) = (   0.0000000   0.0000000   0.0000000  )
         2           W1  tau(   2) = (   0.0000000   2.0329199   2.0329199  )
         3           W1  tau(   3) = (   2.0329199   0.0000000   2.0329199  )
         4           Cd1 tau(   4) = (   2.0329199   2.0329199   0.0000000  )

     number of k points=    84  Fermi-Dirac smearing, width (Ry)=  0.0073
                       cart. coord. in units 2pi/alat
        k(    1) = (   0.0000000   0.0000000   0.0000000), wk =   0.0011574
        k(    2) = (   0.0000000   0.0000000   0.0204960), wk =   0.0069444
        k(    3) = (   0.0000000   0.0000000   0.0409919), wk =   0.0069444
        k(    4) = (   0.0000000   0.0000000   0.0614879), wk =   0.0069444
        k(    5) = (   0.0000000   0.0000000   0.0819839), wk =   0.0069444
        k(    6) = (   0.0000000   0.0000000   0.1024799), wk =   0.0069444
        k(    7) = (   0.0000000   0.0000000  -0.1229758), wk =   0.0034722
        k(    8) = (   0.0000000   0.0204960   0.0204960), wk =   0.0138889
        k(    9) = (   0.0000000   0.0204960   0.0409919), wk =   0.0277778
        k(   10) = (   0.0000000   0.0204960   0.0614879), wk =   0.0277778
        k(   11) = (   0.0000000   0.0204960   0.0819839), wk =   0.0277778
        k(   12) = (   0.0000000   0.0204960   0.1024799), wk =   0.0277778
        k(   13) = (   0.0000000   0.0204960  -0.1229758), wk =   0.0138889
        k(   14) = (   0.0000000   0.0409919   0.0409919), wk =   0.0138889
        k(   15) = (   0.0000000   0.0409919   0.0614879), wk =   0.0277778
        k(   16) = (   0.0000000   0.0409919   0.0819839), wk =   0.0277778
        k(   17) = (   0.0000000   0.0409919   0.1024799), wk =   0.0277778
        k(   18) = (   0.0000000   0.0409919  -0.1229758), wk =   0.0138889
        k(   19) = (   0.0000000   0.0614879   0.0614879), wk =   0.0138889
        k(   20) = (   0.0000000   0.0614879   0.0819839), wk =   0.0277778
        k(   21) = (   0.0000000   0.0614879   0.1024799), wk =   0.0277778
        k(   22) = (   0.0000000   0.0614879  -0.1229758), wk =   0.0138889
        k(   23) = (   0.0000000   0.0819839   0.0819839), wk =   0.0138889
        k(   24) = (   0.0000000   0.0819839   0.1024799), wk =   0.0277778
        k(   25) = (   0.0000000   0.0819839  -0.1229758), wk =   0.0138889
        k(   26) = (   0.0000000   0.1024799   0.1024799), wk =   0.0138889
        k(   27) = (   0.0000000   0.1024799  -0.1229758), wk =   0.0138889
        k(   28) = (   0.0000000  -0.1229758  -0.1229758), wk =   0.0034722
        k(   29) = (   0.0204960   0.0204960   0.0204960), wk =   0.0092593
        k(   30) = (   0.0204960   0.0204960   0.0409919), wk =   0.0277778
        k(   31) = (   0.0204960   0.0204960   0.0614879), wk =   0.0277778
        k(   32) = (   0.0204960   0.0204960   0.0819839), wk =   0.0277778
        k(   33) = (   0.0204960   0.0204960   0.1024799), wk =   0.0277778
        k(   34) = (   0.0204960   0.0204960  -0.1229758), wk =   0.0138889
        k(   35) = (   0.0204960   0.0409919   0.0409919), wk =   0.0277778
        k(   36) = (   0.0204960   0.0409919   0.0614879), wk =   0.0555556
        k(   37) = (   0.0204960   0.0409919   0.0819839), wk =   0.0555556
        k(   38) = (   0.0204960   0.0409919   0.1024799), wk =   0.0555556
        k(   39) = (   0.0204960   0.0409919  -0.1229758), wk =   0.0277778
        k(   40) = (   0.0204960   0.0614879   0.0614879), wk =   0.0277778
        k(   41) = (   0.0204960   0.0614879   0.0819839), wk =   0.0555556
        k(   42) = (   0.0204960   0.0614879   0.1024799), wk =   0.0555556
        k(   43) = (   0.0204960   0.0614879  -0.1229758), wk =   0.0277778
        k(   44) = (   0.0204960   0.0819839   0.0819839), wk =   0.0277778
        k(   45) = (   0.0204960   0.0819839   0.1024799), wk =   0.0555556
        k(   46) = (   0.0204960   0.0819839  -0.1229758), wk =   0.0277778
        k(   47) = (   0.0204960   0.1024799   0.1024799), wk =   0.0277778
        k(   48) = (   0.0204960   0.1024799  -0.1229758), wk =   0.0277778
        k(   49) = (   0.0204960  -0.1229758  -0.1229758), wk =   0.0069444
        k(   50) = (   0.0409919   0.0409919   0.0409919), wk =   0.0092593
        k(   51) = (   0.0409919   0.0409919   0.0614879), wk =   0.0277778
        k(   52) = (   0.0409919   0.0409919   0.0819839), wk =   0.0277778
        k(   53) = (   0.0409919   0.0409919   0.1024799), wk =   0.0277778
        k(   54) = (   0.0409919   0.0409919  -0.1229758), wk =   0.0138889
        k(   55) = (   0.0409919   0.0614879   0.0614879), wk =   0.0277778
        k(   56) = (   0.0409919   0.0614879   0.0819839), wk =   0.0555556
        k(   57) = (   0.0409919   0.0614879   0.1024799), wk =   0.0555556
        k(   58) = (   0.0409919   0.0614879  -0.1229758), wk =   0.0277778
        k(   59) = (   0.0409919   0.0819839   0.0819839), wk =   0.0277778
        k(   60) = (   0.0409919   0.0819839   0.1024799), wk =   0.0555556
[...]
        k(   70) = (   0.0614879   0.0819839   0.1024799), wk =   0.0555556
        k(   71) = (   0.0614879   0.0819839  -0.1229758), wk =   0.0277778
        k(   72) = (   0.0614879   0.1024799   0.1024799), wk =   0.0277778
        k(   73) = (   0.0614879   0.1024799  -0.1229758), wk =   0.0277778
        k(   74) = (   0.0614879  -0.1229758  -0.1229758), wk =   0.0069444
        k(   75) = (   0.0819839   0.0819839   0.0819839), wk =   0.0092593
        k(   76) = (   0.0819839   0.0819839   0.1024799), wk =   0.0277778
        k(   77) = (   0.0819839   0.0819839  -0.1229758), wk =   0.0138889
        k(   78) = (   0.0819839   0.1024799   0.1024799), wk =   0.0277778
        k(   79) = (   0.0819839   0.1024799  -0.1229758), wk =   0.0277778
        k(   80) = (   0.0819839  -0.1229758  -0.1229758), wk =   0.0069444
        k(   81) = (   0.1024799   0.1024799   0.1024799), wk =   0.0092593
        k(   82) = (   0.1024799   0.1024799  -0.1229758), wk =   0.0138889
        k(   83) = (   0.1024799  -0.1229758  -0.1229758), wk =   0.0069444
        k(   84) = (  -0.1229758  -0.1229758  -0.1229758), wk =   0.0011574

     Largest allocated arrays     est. size (Mb)     dimensions
     Largest temporary arrays     est. size (Mb)     dimensions

     Initial potential from superposition of free atoms
     Check: negative starting charge=   -0.207101

     starting charge   53.19894, renormalised to   54.00000

     negative rho (up, down):  2.102E-01 0.000E+00

     *
     * You are using vdW-DF for exchange-correlation in this calculation.
     * Please cite the following three references that made this development
     * possible:
     *
     *   M. Dion, H. Rydberg, E. Schroder, D. C. Langreth, and
     *   B. I. Lundqvist, Phys. Rev. Lett. 92, 246401 (2004).
     *
     *   T. Thonhauser, V. R. Cooper, S. Li, A. Puzder, P. Hyldgaard, and
     *   D. C. Langreth, Phys. Rev. B 76, 125112 (2007).
     *
     *   G. Roman-Perez and J. M. Soler, Phys. Rev. Lett. 103, 096102 (2009).
     *
     *
     * If you are using vdW-DF2, please also cite:
     *
     *   K. Lee, E. D. Murray, L. Kong, B. I. Lundqvist, and
     *   D. C. Langreth, Phys. Rev. B 82, 081101(R) (2010).
     *
     *
     * If you are calculating the stress with vdW-DF, please also cite:
     *
     *   R. Sabatini, E. Kucukbenli, B. Kolb, T. Thonhauser, and
     *   S. de Gironcoli, J. Phys.: Condens. Matter 24, 424209 (2012).
     *

     Carrying out vdW-DF run using the following parameters:

     Nqs =      20    Nr_points =    1024   r_max =   100.000
     q_mesh =
               0.00001000     0.04494208     0.09755937     0.15916263
               0.23128650     0.31572767     0.41458969     0.53033537
               0.66584808     0.82450364     1.01025438     1.22772762
               1.48234092     1.78043706     2.12944203     2.53805004
               3.01644009     3.57652955     4.23227104     5.00000000

     Gradients computed in reciprocal space

     Starting wfc are   48 randomized atomic wfcs

     Self-consistent Calculation

     iteration #  1     ecut=    58.80 Ry     beta=0.10
     Davidson diagonalization with overlap
     ethr =  1.00E-02,  avg # of iterations =  4.3

     Threshold (ethr) on eigenvalues was too large:
     Diagonalizing with lowered threshold

     Davidson diagonalization with overlap
     ethr =  3.74E-04,  avg # of iterations =  1.1

[...]

     total energy              =    -597.45077859 Ry
     Harris-Foulkes estimate   =    -597.46005230 Ry
     estimated scf accuracy    <       0.20296372 Ry

[...]

     total energy              =    -597.39839600 Ry
     Harris-Foulkes estimate   =    -597.39839475 Ry
     estimated scf accuracy    <       0.00000002 Ry

     iteration # 15     ecut=    58.80 Ry     beta=0.10
     Davidson diagonalization with overlap
     ethr =  3.25E-11,  avg # of iterations =  2.7

     negative rho (up, down):  2.268E-01 0.000E+00

     End of self-consistent calculation

          k = 0.0000 0.0000 0.0000 (  3407 PWs)   bands (ev):

   -55.0607 -54.9691 -54.9691 -19.4381 -19.4381 -19.4381 -19.0576 -19.0576
   -19.0576 -18.7413 -18.7413 -18.7413   9.8517   9.8517   9.9677  10.0417
    10.0417  10.0417  13.7574  16.2473  16.2473  16.2473  16.4853  16.4853
    20.8200  20.8200  20.8200  20.8623  20.8623  20.8623  22.5501  22.5501
    23.7695  24.5800  24.5800  24.5800  28.3460  29.0747  29.0747  29.0747
    30.3696  30.3696  31.0280  31.0280  31.0280  32.3880  37.2777

[...]

          k = 0.1025-0.1230-0.1230 (  3456 PWs)   bands (ev):

[...]

          k =-0.1230-0.1230-0.1230 (  3448 PWs)   bands (ev):

   -54.9993 -54.9993 -54.9993 -19.6049 -19.4197 -19.4197 -19.4197 -18.8258
   -18.8258 -18.8258 -18.7228 -18.7228   9.8887   9.8887   9.8887  10.4061
    10.4061  12.9665  15.3134  15.3134  15.3134  18.3347  18.3347  18.3347
    18.4642  18.4642  18.4642  19.7726  20.5406  20.5406  20.5406  21.5670
    21.5670  23.8606  23.8606  23.8606  26.4200  27.8333  27.8333  27.8333
    31.8849  31.8849  31.8849  31.8989  35.5137  35.5137  35.5137

     the Fermi energy is    19.4431 ev

!    total energy              =    -597.39840128 Ry
     Harris-Foulkes estimate   =    -597.39839600 Ry
     estimated scf accuracy    <          3.5E-09 Ry

     The total energy is the sum of the following terms:

     one-electron contribution =     -60.86304242 Ry
     hartree contribution      =      68.05961257 Ry
     xc contribution           =    -168.69473090 Ry
     ewald contribution        =    -435.89584038 Ry
     smearing contrib. (-TS)   =      -0.00440015 Ry

     convergence has been achieved in  15 iterations

     Forces acting on atoms (Ry/au):

     negative rho (up, down):  2.268E-01 0.000E+00
     atom    1 type  1   force =     0.00000000    0.00000000    0.00000000
     atom    2 type  1   force =     0.00000000    0.00000000    0.00000000
     atom    3 type  1   force =     0.00000000    0.00000000    0.00000000
     atom    4 type  2   force =     0.00000000    0.00000000    0.00000000

     Total force =     0.000000     Total SCF correction =     0.000000
 !ASE

     General routines

     Parallel routines

   This run was terminated on:   1:57:36  26Oct2017

   JOB DONE.