     Program PWSCF v.5.1rc2 (svn rev. ) starts on 25Oct2017 at 23:54:55

     Current dimensions of program PWSCF are:
     Max number of different atomic species (ntypx) = 10
     Max number of k-points (npk) =  40000
     Max angular momentum in pseudopotentials (lmaxx) =  3

     IMPORTANT: XC functional enforced from input :
     Exchange-correlation      = BEEF-VDW ( 1  4 27 13 2)
     Any further DFT definition will be discarded
     Please, verify this is what you really want

     Subspace diagonalization in iterative solution of the eigenvalue problem:
     a serial algorithm will be used

     bravais-lattice index     =            0
     lattice parameter (alat)  =       1.8897  a.u.
     unit-cell volume          =     472.2012 (a.u.)^3
     number of atoms/cell      =            4
     number of atomic types    =            2
     number of electrons       =        56.00
     number of Kohn-Sham states=           48
     kinetic-energy cutoff     =      58.7989  Ry
     charge density cutoff     =     587.9892  Ry
     convergence threshold     =      7.3E-09
     mixing beta               =       0.1000
     number of iterations used =           10  local-TF  mixing
     Exchange-correlation      = BEEF-VDW ( 1  4 27 13 2)
     nstep                     =           50

     celldm(1)=   1.889726  celldm(2)=   0.000000  celldm(3)=   0.000000
     celldm(4)=   0.000000  celldm(5)=   0.000000  celldm(6)=   0.000000

     crystal axes: (cart. coord. in units of alat)
               a(1) = (   4.120755   0.000000   0.000000 )
               a(2) = (   0.000000   4.120755   0.000000 )
               a(3) = (   0.000000   0.000000   4.120755 )

     reciprocal axes: (cart. coord. in units 2 pi/alat)
               b(1) = (  0.242674  0.000000  0.000000 )
               b(2) = (  0.000000  0.242674  0.000000 )
               b(3) = (  0.000000  0.000000  0.242674 )

     PseudoPot. # 1 for Re read from file:
     /home/vossj/suncat/psp/gbrv1.5pbe/Re.UPF
     MD5 check sum: 85f993410f3e006da9d71c142b4ad953
     Pseudo is Ultrasoft + core correction, Zval = 15.0
     Generated by new atomic code, or converted to UPF format
     Using radial grid of  981 points,  8 beta functions with:
                l(1) =   0
                l(2) =   0
                l(3) =   1
                l(4) =   1
                l(5) =   2
                l(6) =   2
                l(7) =   3
                l(8) =   3
     Q(r) pseudized with  8 coefficients,  rinner =    1.150   1.150   1.150
                                                       1.150   1.150   1.150
                                                       1.150

     PseudoPot. # 2 for Y  read from file:
     /home/vossj/suncat/psp/gbrv1.5pbe/Y.UPF
     MD5 check sum: d034151ed7554c50b6e82763ed42c788
     Pseudo is Ultrasoft + core correction, Zval = 11.0
     Generated by new atomic code, or converted to UPF format
     Using radial grid of  885 points,  6 beta functions with:
                l(1) =   0
                l(2) =   0
                l(3) =   1
                l(4) =   1
                l(5) =   2
                l(6) =   2
     Q(r) pseudized with  8 coefficients,  rinner =    1.200   1.200   1.200
                                                       1.200   1.200

     vdW kernel table read from file vdW_kernel_table
     MD5 check sum: 095c7af220d748ca6e76c0b4c6cfb241

     atomic species   valence    mass     pseudopotential
        Re1           15.00   186.20700     Re( 1.00)
        Y1            11.00    88.90584     Y ( 1.00)

     48 Sym. Ops., with inversion, found (32 have fractional translation)

   Cartesian axes

     site n.     atom                  positions (alat units)
         1           Re1 tau(   1) = (   0.0000000   0.0000000   0.0000000  )
         2           Re1 tau(   2) = (   0.0000000   2.0603777   2.0603777  )
         3           Re1 tau(   3) = (   2.0603777   0.0000000   2.0603777  )
         4           Y1  tau(   4) = (   2.0603777   2.0603777   0.0000000  )

     number of k points=    84  Fermi-Dirac smearing, width (Ry)=  0.0073
                       cart. coord. in units 2pi/alat
        k(    1) = (   0.0000000   0.0000000   0.0000000), wk =   0.0011574
        k(    2) = (   0.0000000   0.0000000   0.0202228), wk =   0.0069444
        k(    3) = (   0.0000000   0.0000000   0.0404457), wk =   0.0069444
        k(    4) = (   0.0000000   0.0000000   0.0606685), wk =   0.0069444
        k(    5) = (   0.0000000   0.0000000   0.0808913), wk =   0.0069444
        k(    6) = (   0.0000000   0.0000000   0.1011141), wk =   0.0069444
        k(    7) = (   0.0000000   0.0000000  -0.1213370), wk =   0.0034722
        k(    8) = (   0.0000000   0.0202228   0.0202228), wk =   0.0138889
        k(    9) = (   0.0000000   0.0202228   0.0404457), wk =   0.0277778
        k(   10) = (   0.0000000   0.0202228   0.0606685), wk =   0.0277778
        k(   11) = (   0.0000000   0.0202228   0.0808913), wk =   0.0277778
        k(   12) = (   0.0000000   0.0202228   0.1011141), wk =   0.0277778
        k(   13) = (   0.0000000   0.0202228  -0.1213370), wk =   0.0138889
        k(   14) = (   0.0000000   0.0404457   0.0404457), wk =   0.0138889
        k(   15) = (   0.0000000   0.0404457   0.0606685), wk =   0.0277778
        k(   16) = (   0.0000000   0.0404457   0.0808913), wk =   0.0277778
        k(   17) = (   0.0000000   0.0404457   0.1011141), wk =   0.0277778
        k(   18) = (   0.0000000   0.0404457  -0.1213370), wk =   0.0138889
        k(   19) = (   0.0000000   0.0606685   0.0606685), wk =   0.0138889
        k(   20) = (   0.0000000   0.0606685   0.0808913), wk =   0.0277778
        k(   21) = (   0.0000000   0.0606685   0.1011141), wk =   0.0277778
        k(   22) = (   0.0000000   0.0606685  -0.1213370), wk =   0.0138889
        k(   23) = (   0.0000000   0.0808913   0.0808913), wk =   0.0138889
        k(   24) = (   0.0000000   0.0808913   0.1011141), wk =   0.0277778
        k(   25) = (   0.0000000   0.0808913  -0.1213370), wk =   0.0138889
        k(   26) = (   0.0000000   0.1011141   0.1011141), wk =   0.0138889
        k(   27) = (   0.0000000   0.1011141  -0.1213370), wk =   0.0138889
        k(   28) = (   0.0000000  -0.1213370  -0.1213370), wk =   0.0034722
        k(   29) = (   0.0202228   0.0202228   0.0202228), wk =   0.0092593
        k(   30) = (   0.0202228   0.0202228   0.0404457), wk =   0.0277778
        k(   31) = (   0.0202228   0.0202228   0.0606685), wk =   0.0277778
        k(   32) = (   0.0202228   0.0202228   0.0808913), wk =   0.0277778
        k(   33) = (   0.0202228   0.0202228   0.1011141), wk =   0.0277778
        k(   34) = (   0.0202228   0.0202228  -0.1213370), wk =   0.0138889
        k(   35) = (   0.0202228   0.0404457   0.0404457), wk =   0.0277778
        k(   36) = (   0.0202228   0.0404457   0.0606685), wk =   0.0555556
        k(   37) = (   0.0202228   0.0404457   0.0808913), wk =   0.0555556
        k(   38) = (   0.0202228   0.0404457   0.1011141), wk =   0.0555556
        k(   39) = (   0.0202228   0.0404457  -0.1213370), wk =   0.0277778
        k(   40) = (   0.0202228   0.0606685   0.0606685), wk =   0.0277778
        k(   41) = (   0.0202228   0.0606685   0.0808913), wk =   0.0555556
        k(   42) = (   0.0202228   0.0606685   0.1011141), wk =   0.0555556
        k(   43) = (   0.0202228   0.0606685  -0.1213370), wk =   0.0277778
        k(   44) = (   0.0202228   0.0808913   0.0808913), wk =   0.0277778
        k(   45) = (   0.0202228   0.0808913   0.1011141), wk =   0.0555556
        k(   46) = (   0.0202228   0.0808913  -0.1213370), wk =   0.0277778
        k(   47) = (   0.0202228   0.1011141   0.1011141), wk =   0.0277778
        k(   48) = (   0.0202228   0.1011141  -0.1213370), wk =   0.0277778
        k(   49) = (   0.0202228  -0.1213370  -0.1213370), wk =   0.0069444
        k(   50) = (   0.0404457   0.0404457   0.0404457), wk =   0.0092593
        k(   51) = (   0.0404457   0.0404457   0.0606685), wk =   0.0277778
        k(   52) = (   0.0404457   0.0404457   0.0808913), wk =   0.0277778
        k(   53) = (   0.0404457   0.0404457   0.1011141), wk =   0.0277778
        k(   54) = (   0.0404457   0.0404457  -0.1213370), wk =   0.0138889
        k(   55) = (   0.0404457   0.0606685   0.0606685), wk =   0.0277778
        k(   56) = (   0.0404457   0.0606685   0.0808913), wk =   0.0555556
        k(   57) = (   0.0404457   0.0606685   0.1011141), wk =   0.0555556
        k(   58) = (   0.0404457   0.0606685  -0.1213370), wk =   0.0277778
        k(   59) = (   0.0404457   0.0808913   0.0808913), wk =   0.0277778
        k(   60) = (   0.0404457   0.0808913   0.1011141), wk =   0.0555556
[...]
        k(   70) = (   0.0606685   0.0808913   0.1011141), wk =   0.0555556
        k(   71) = (   0.0606685   0.0808913  -0.1213370), wk =   0.0277778
        k(   72) = (   0.0606685   0.1011141   0.1011141), wk =   0.0277778
        k(   73) = (   0.0606685   0.1011141  -0.1213370), wk =   0.0277778
        k(   74) = (   0.0606685  -0.1213370  -0.1213370), wk =   0.0069444
        k(   75) = (   0.0808913   0.0808913   0.0808913), wk =   0.0092593
        k(   76) = (   0.0808913   0.0808913   0.1011141), wk =   0.0277778
        k(   77) = (   0.0808913   0.0808913  -0.1213370), wk =   0.0138889
        k(   78) = (   0.0808913   0.1011141   0.1011141), wk =   0.0277778
        k(   79) = (   0.0808913   0.1011141  -0.1213370), wk =   0.0277778
        k(   80) = (   0.0808913  -0.1213370  -0.1213370), wk =   0.0069444
        k(   81) = (   0.1011141   0.1011141   0.1011141), wk =   0.0092593
        k(   82) = (   0.1011141   0.1011141  -0.1213370), wk =   0.0138889
        k(   83) = (   0.1011141  -0.1213370  -0.1213370), wk =   0.0069444
        k(   84) = (  -0.1213370  -0.1213370  -0.1213370), wk =   0.0011574

     Largest allocated arrays     est. size (Mb)     dimensions
     Largest temporary arrays     est. size (Mb)     dimensions

     Initial potential from superposition of free atoms
     Check: negative starting charge=   -0.386056

     starting charge   54.49540, renormalised to   56.00000

     negative rho (up, down):  3.967E-01 0.000E+00

     *
     * You are using vdW-DF for exchange-correlation in this calculation.
     * Please cite the following three references that made this development
     * possible:
     *
     *   M. Dion, H. Rydberg, E. Schroder, D. C. Langreth, and
     *   B. I. Lundqvist, Phys. Rev. Lett. 92, 246401 (2004).
     *
     *   T. Thonhauser, V. R. Cooper, S. Li, A. Puzder, P. Hyldgaard, and
     *   D. C. Langreth, Phys. Rev. B 76, 125112 (2007).
     *
     *   G. Roman-Perez and J. M. Soler, Phys. Rev. Lett. 103, 096102 (2009).
     *
     *
     * If you are using vdW-DF2, please also cite:
     *
     *   K. Lee, E. D. Murray, L. Kong, B. I. Lundqvist, and
     *   D. C. Langreth, Phys. Rev. B 82, 081101(R) (2010).
     *
     *
     * If you are calculating the stress with vdW-DF, please also cite:
     *
     *   R. Sabatini, E. Kucukbenli, B. Kolb, T. Thonhauser, and
     *   S. de Gironcoli, J. Phys.: Condens. Matter 24, 424209 (2012).
     *

     Carrying out vdW-DF run using the following parameters:

     Nqs =      20    Nr_points =    1024   r_max =   100.000
     q_mesh =
               0.00001000     0.04494208     0.09755937     0.15916263
               0.23128650     0.31572767     0.41458969     0.53033537
               0.66584808     0.82450364     1.01025438     1.22772762
               1.48234092     1.78043706     2.12944203     2.53805004
               3.01644009     3.57652955     4.23227104     5.00000000

     Gradients computed in reciprocal space

     Starting wfc are   52 randomized atomic wfcs

     Self-consistent Calculation

     iteration #  1     ecut=    58.80 Ry     beta=0.10
     Davidson diagonalization with overlap
     ethr =  1.00E-02,  avg # of iterations =  4.7

[...]

     total energy              =    -670.27838261 Ry
     Harris-Foulkes estimate   =    -670.31056262 Ry
     estimated scf accuracy    <       0.56490440 Ry

[...]

     total energy              =    -670.14343508 Ry
     Harris-Foulkes estimate   =    -670.14343711 Ry
     estimated scf accuracy    <       0.00000007 Ry

     iteration # 12     ecut=    58.80 Ry     beta=0.10
     Davidson diagonalization with overlap
     ethr =  1.33E-10,  avg # of iterations =  1.6

     negative rho (up, down):  4.082E-01 0.000E+00

     End of self-consistent calculation

          k = 0.0000 0.0000 0.0000 (  3695 PWs)   bands (ev):

   -60.9102 -60.8588 -60.8588 -22.8046 -22.8046 -22.8046 -22.5100 -22.5100
   -22.5100 -22.3626 -22.3626 -22.3626 -21.4898  -1.6301  -1.6301  -1.6301
    11.3700  14.4318  14.4318  14.5962  15.1848  15.1848  15.1848  18.7206
    18.7206  18.7206  21.0071  21.0071  22.4001  22.6159  22.6159  22.6159
    23.0207  23.0207  23.0207  25.4944  25.4944  27.3289  27.3289  27.3289
    29.8550  29.8550  29.8550  31.2345  31.2345  32.0243  32.4482  32.4482

[...]

          k = 0.1011-0.1213-0.1213 (  3576 PWs)   bands (ev):

[...]

          k =-0.1213-0.1213-0.1213 (  3544 PWs)   bands (ev):

   -60.8757 -60.8757 -60.8757 -22.9637 -22.7467 -22.7467 -22.7467 -22.3997
   -22.3997 -22.3573 -22.3573 -22.3573 -21.4778  -1.6996  -1.6996  -1.6996
    14.0506  14.0506  14.0506  15.3603  17.8058  17.8058  17.8058  18.5750
    18.5750  18.5750  19.3128  19.3128  19.3410  20.9495  20.9495  20.9495
    22.4532  22.4532  22.4532  24.6892  24.6892  24.6892  26.3131  26.3131
    29.9216  29.9216  29.9216  31.6466  31.6466  31.6466  31.7415  32.4160

     the Fermi energy is    19.2963 ev

!    total energy              =    -670.14345316 Ry
     Harris-Foulkes estimate   =    -670.14343509 Ry
     estimated scf accuracy    <          4.1E-10 Ry

     The total energy is the sum of the following terms:

     one-electron contribution =     -91.18265286 Ry
     hartree contribution      =      77.00187354 Ry
     xc contribution           =    -190.87325508 Ry
     ewald contribution        =    -465.07552211 Ry
     smearing contrib. (-TS)   =      -0.01389666 Ry

     convergence has been achieved in  12 iterations

     Forces acting on atoms (Ry/au):

     negative rho (up, down):  4.082E-01 0.000E+00
     atom    1 type  1   force =     0.00000000   -0.00000000    0.00000000
     atom    2 type  1   force =     0.00000000    0.00000000    0.00000000
     atom    3 type  1   force =     0.00000000    0.00000000    0.00000000
     atom    4 type  2   force =     0.00000000    0.00000000    0.00000000

     Total force =     0.000000     Total SCF correction =     0.000000
 !ASE

     General routines

     Parallel routines

   This run was terminated on:  23:55:54  25Oct2017

   JOB DONE.