     Program PWSCF v.5.1rc2 (svn rev. ) starts on 10Nov2017 at 12:26:31

     Current dimensions of program PWSCF are:
     Max number of different atomic species (ntypx) = 10
     Max number of k-points (npk) =  40000
     Max angular momentum in pseudopotentials (lmaxx) =  3

     IMPORTANT: XC functional enforced from input :
     Exchange-correlation      = BEEF-VDW ( 1  4 27 13 2)
     Any further DFT definition will be discarded
     Please, verify this is what you really want

     Subspace diagonalization in iterative solution of the eigenvalue problem:
     a serial algorithm will be used

     Generating pointlists ...
     new r_m :   0.4125 (alat units)  0.7795 (a.u.) for type    1
     new r_m :   0.4125 (alat units)  0.7795 (a.u.) for type    2

     bravais-lattice index     =            0
     lattice parameter (alat)  =       1.8897  a.u.
     unit-cell volume          =     331.0484 (a.u.)^3
     number of atoms/cell      =            4
     number of atomic types    =            2
     number of electrons       =        58.00
     number of Kohn-Sham states=           49
     kinetic-energy cutoff     =      58.7989  Ry
     charge density cutoff     =     587.9892  Ry
     convergence threshold     =      7.3E-07
     mixing beta               =       0.3000
     number of iterations used =           10  local-TF  mixing
     Exchange-correlation      = BEEF-VDW ( 1  4 27 13 2)
     nstep                     =           50

     celldm(1)=   1.889726  celldm(2)=   0.000000  celldm(3)=   0.000000
     celldm(4)=   0.000000  celldm(5)=   0.000000  celldm(6)=   0.000000

     crystal axes: (cart. coord. in units of alat)
               a(1) = (   3.660707   0.000000   0.000000 )
               a(2) = (   0.000000   3.660707   0.000000 )
               a(3) = (   0.000000   0.000000   3.660707 )

     reciprocal axes: (cart. coord. in units 2 pi/alat)
               b(1) = (  0.273171  0.000000  0.000000 )
               b(2) = (  0.000000  0.273171  0.000000 )
               b(3) = (  0.000000  0.000000  0.273171 )

     PseudoPot. # 1 for Mn read from file:
     /home/vossj/suncat/psp/gbrv1.5pbe/Mn.UPF
     MD5 check sum: 82ef2b46521d7a7d9e736dc3972e4928
     Pseudo is Ultrasoft + core correction, Zval = 15.0
     Generated by new atomic code, or converted to UPF format
     Using radial grid of  859 points,  6 beta functions with:
                l(1) =   0
                l(2) =   0
                l(3) =   1
                l(4) =   1
                l(5) =   2
                l(6) =   2
     Q(r) pseudized with  8 coefficients,  rinner =    0.950   0.950   0.950
                                                       0.950   0.950

     PseudoPot. # 2 for V  read from file:
     /home/vossj/suncat/psp/gbrv1.5pbe/V.UPF
     MD5 check sum: 22b79981416ebb76fdaf5b1b8640f6fb
     Pseudo is Ultrasoft + core correction, Zval = 13.0
     Generated by new atomic code, or converted to UPF format
     Using radial grid of  853 points,  6 beta functions with:
                l(1) =   0
                l(2) =   0
                l(3) =   1
                l(4) =   1
                l(5) =   2
                l(6) =   2
     Q(r) pseudized with  8 coefficients,  rinner =    1.100   1.100   1.100
                                                       1.100   1.100

     vdW kernel table read from file vdW_kernel_table
     MD5 check sum: 095c7af220d748ca6e76c0b4c6cfb241

     atomic species   valence    mass     pseudopotential
        Mn1           15.00    54.93804     Mn( 1.00)
        V1            13.00    50.94150     V ( 1.00)

     Starting magnetic structure
     atomic species   magnetization
        Mn1          0.133
        V1           0.154

     48 Sym. Ops., with inversion, found (32 have fractional translation)

   Cartesian axes

     site n.     atom                  positions (alat units)
         1           Mn1 tau(   1) = (   0.0000000   0.0000000   0.0000000  )
         2           Mn1 tau(   2) = (   0.0000000   1.8303534   1.8303534  )
         3           Mn1 tau(   3) = (   1.8303534   0.0000000   1.8303534  )
         4           V1  tau(   4) = (   1.8303534   1.8303534   0.0000000  )

     number of k points=    70  Fermi-Dirac smearing, width (Ry)=  0.0073
                       cart. coord. in units 2pi/alat
        k(    1) = (   0.0000000   0.0000000   0.0000000), wk =   0.0013717
        k(    2) = (   0.0000000   0.0000000   0.0303524), wk =   0.0082305
        k(    3) = (   0.0000000   0.0000000   0.0607047), wk =   0.0082305
        k(    4) = (   0.0000000   0.0000000   0.0910571), wk =   0.0082305
        k(    5) = (   0.0000000   0.0000000   0.1214095), wk =   0.0082305
        k(    6) = (   0.0000000   0.0303524   0.0303524), wk =   0.0164609
        k(    7) = (   0.0000000   0.0303524   0.0607047), wk =   0.0329218
        k(    8) = (   0.0000000   0.0303524   0.0910571), wk =   0.0329218
        k(    9) = (   0.0000000   0.0303524   0.1214095), wk =   0.0329218
        k(   10) = (   0.0000000   0.0607047   0.0607047), wk =   0.0164609
        k(   11) = (   0.0000000   0.0607047   0.0910571), wk =   0.0329218
        k(   12) = (   0.0000000   0.0607047   0.1214095), wk =   0.0329218
        k(   13) = (   0.0000000   0.0910571   0.0910571), wk =   0.0164609
        k(   14) = (   0.0000000   0.0910571   0.1214095), wk =   0.0329218
        k(   15) = (   0.0000000   0.1214095   0.1214095), wk =   0.0164609
        k(   16) = (   0.0303524   0.0303524   0.0303524), wk =   0.0109739
        k(   17) = (   0.0303524   0.0303524   0.0607047), wk =   0.0329218
        k(   18) = (   0.0303524   0.0303524   0.0910571), wk =   0.0329218
        k(   19) = (   0.0303524   0.0303524   0.1214095), wk =   0.0329218
        k(   20) = (   0.0303524   0.0607047   0.0607047), wk =   0.0329218
        k(   21) = (   0.0303524   0.0607047   0.0910571), wk =   0.0658436
        k(   22) = (   0.0303524   0.0607047   0.1214095), wk =   0.0658436
        k(   23) = (   0.0303524   0.0910571   0.0910571), wk =   0.0329218
        k(   24) = (   0.0303524   0.0910571   0.1214095), wk =   0.0658436
        k(   25) = (   0.0303524   0.1214095   0.1214095), wk =   0.0329218
        k(   26) = (   0.0607047   0.0607047   0.0607047), wk =   0.0109739
        k(   27) = (   0.0607047   0.0607047   0.0910571), wk =   0.0329218
        k(   28) = (   0.0607047   0.0607047   0.1214095), wk =   0.0329218
        k(   29) = (   0.0607047   0.0910571   0.0910571), wk =   0.0329218
        k(   30) = (   0.0607047   0.0910571   0.1214095), wk =   0.0658436
        k(   31) = (   0.0607047   0.1214095   0.1214095), wk =   0.0329218
        k(   32) = (   0.0910571   0.0910571   0.0910571), wk =   0.0109739
        k(   33) = (   0.0910571   0.0910571   0.1214095), wk =   0.0329218
        k(   34) = (   0.0910571   0.1214095   0.1214095), wk =   0.0329218
        k(   35) = (   0.1214095   0.1214095   0.1214095), wk =   0.0109739
        k(   36) = (   0.0000000   0.0000000   0.0000000), wk =   0.0013717
        k(   37) = (   0.0000000   0.0000000   0.0303524), wk =   0.0082305
        k(   38) = (   0.0000000   0.0000000   0.0607047), wk =   0.0082305
        k(   39) = (   0.0000000   0.0000000   0.0910571), wk =   0.0082305
        k(   40) = (   0.0000000   0.0000000   0.1214095), wk =   0.0082305
        k(   41) = (   0.0000000   0.0303524   0.0303524), wk =   0.0164609
        k(   42) = (   0.0000000   0.0303524   0.0607047), wk =   0.0329218
        k(   43) = (   0.0000000   0.0303524   0.0910571), wk =   0.0329218
        k(   44) = (   0.0000000   0.0303524   0.1214095), wk =   0.0329218
        k(   45) = (   0.0000000   0.0607047   0.0607047), wk =   0.0164609
        k(   46) = (   0.0000000   0.0607047   0.0910571), wk =   0.0329218
        k(   47) = (   0.0000000   0.0607047   0.1214095), wk =   0.0329218
        k(   48) = (   0.0000000   0.0910571   0.0910571), wk =   0.0164609
        k(   49) = (   0.0000000   0.0910571   0.1214095), wk =   0.0329218
        k(   50) = (   0.0000000   0.1214095   0.1214095), wk =   0.0164609
        k(   51) = (   0.0303524   0.0303524   0.0303524), wk =   0.0109739
        k(   52) = (   0.0303524   0.0303524   0.0607047), wk =   0.0329218
        k(   53) = (   0.0303524   0.0303524   0.0910571), wk =   0.0329218
        k(   54) = (   0.0303524   0.0303524   0.1214095), wk =   0.0329218
        k(   55) = (   0.0303524   0.0607047   0.0607047), wk =   0.0329218
        k(   56) = (   0.0303524   0.0607047   0.0910571), wk =   0.0658436
        k(   57) = (   0.0303524   0.0607047   0.1214095), wk =   0.0658436
        k(   58) = (   0.0303524   0.0910571   0.0910571), wk =   0.0329218
        k(   59) = (   0.0303524   0.0910571   0.1214095), wk =   0.0658436
        k(   60) = (   0.0303524   0.1214095   0.1214095), wk =   0.0329218
        k(   61) = (   0.0607047   0.0607047   0.0607047), wk =   0.0109739
        k(   62) = (   0.0607047   0.0607047   0.0910571), wk =   0.0329218
        k(   63) = (   0.0607047   0.0607047   0.1214095), wk =   0.0329218
        k(   64) = (   0.0607047   0.0910571   0.0910571), wk =   0.0329218
        k(   65) = (   0.0607047   0.0910571   0.1214095), wk =   0.0658436
        k(   66) = (   0.0607047   0.1214095   0.1214095), wk =   0.0329218
        k(   67) = (   0.0910571   0.0910571   0.0910571), wk =   0.0109739
        k(   68) = (   0.0910571   0.0910571   0.1214095), wk =   0.0329218
        k(   69) = (   0.0910571   0.1214095   0.1214095), wk =   0.0329218
        k(   70) = (   0.1214095   0.1214095   0.1214095), wk =   0.0109739

     Largest allocated arrays     est. size (Mb)     dimensions
     Largest temporary arrays     est. size (Mb)     dimensions

     Check: negative/imaginary core charge=   -0.000050    0.000000

     Initial potential from superposition of free atoms
     Check: negative starting charge=(component1):   -0.000266
     Check: negative starting charge=(component2):   -0.000195

     starting charge   56.49852, renormalised to   58.00000

     negative rho (up, down):  2.730E-04 2.000E-04

     *
     * You are using vdW-DF for exchange-correlation in this calculation.
     * Please cite the following three references that made this development
     * possible:
     *
     *   M. Dion, H. Rydberg, E. Schroder, D. C. Langreth, and
     *   B. I. Lundqvist, Phys. Rev. Lett. 92, 246401 (2004).
     *
     *   T. Thonhauser, V. R. Cooper, S. Li, A. Puzder, P. Hyldgaard, and
     *   D. C. Langreth, Phys. Rev. B 76, 125112 (2007).
     *
     *   G. Roman-Perez and J. M. Soler, Phys. Rev. Lett. 103, 096102 (2009).
     *
     *
     * If you are using vdW-DF2, please also cite:
     *
     *   K. Lee, E. D. Murray, L. Kong, B. I. Lundqvist, and
     *   D. C. Langreth, Phys. Rev. B 82, 081101(R) (2010).
     *
     *
     * If you are calculating the stress with vdW-DF, please also cite:
     *
     *   R. Sabatini, E. Kucukbenli, B. Kolb, T. Thonhauser, and
     *   S. de Gironcoli, J. Phys.: Condens. Matter 24, 424209 (2012).
     *

     Carrying out vdW-DF run using the following parameters:

     Nqs =      20    Nr_points =    1024   r_max =   100.000
     q_mesh =
               0.00001000     0.04494208     0.09755937     0.15916263
               0.23128650     0.31572767     0.41458969     0.53033537
               0.66584808     0.82450364     1.01025438     1.22772762
               1.48234092     1.78043706     2.12944203     2.53805004
               3.01644009     3.57652955     4.23227104     5.00000000

     Gradients computed in reciprocal space

     Starting wfc are   49 randomized atomic wfcs

     Self-consistent Calculation

     iteration #  1     ecut=    58.80 Ry     beta=0.30
     Davidson diagonalization with overlap
     ethr =  1.00E-02,  avg # of iterations =  3.6

[...]

     Magnetic moment per site:
     atom:    1    charge:    6.0271    magn:    0.7015    constr:    0.0000
     atom:    2    charge:    6.0271    magn:    0.7015    constr:    0.0000
     atom:    3    charge:    6.0271    magn:    0.7015    constr:    0.0000
     atom:    4    charge:    4.0732    magn:    0.5034    constr:    0.0000

     total energy              =    -782.14017848 Ry
     Harris-Foulkes estimate   =    -782.84626220 Ry
     estimated scf accuracy    <       3.68058335 Ry

     total magnetization       =     4.16 Bohr mag/cell
     absolute magnetization    =     4.17 Bohr mag/cell

[...]

     total energy              =    -782.22625861 Ry
     Harris-Foulkes estimate   =    -782.22627170 Ry
     estimated scf accuracy    <       0.00003712 Ry

[...]

     iteration # 15     ecut=    58.80 Ry     beta=0.30
     Davidson diagonalization with overlap
     ethr =  4.62E-08,  avg # of iterations =  1.0

     negative rho (up, down):  9.247E-04 1.933E-04

     Magnetic moment per site:
     atom:    1    charge:    5.9743    magn:    0.7998    constr:    0.0000
     atom:    2    charge:    5.9743    magn:    0.7998    constr:    0.0000
     atom:    3    charge:    5.9743    magn:    0.7998    constr:    0.0000
     atom:    4    charge:    3.9884    magn:   -0.2141    constr:    0.0000

     End of self-consistent calculation

 ------ SPIN UP ------------

          k = 0.0000 0.0000 0.0000 (  2517 PWs)   bands (ev):

   -62.8163 -62.7291 -62.7291 -46.4915 -31.6316 -31.6316 -31.6316 -31.4447
   -31.4447 -31.4447 -31.3096 -31.3096 -31.3096 -20.2921 -20.2921 -20.2921
     9.7074  12.8871  12.9708  12.9708  13.7105  13.7105  13.7105  16.0332
    16.0332  16.0332  17.1211  17.1211  17.8495  18.3393  18.3393  18.3393
    19.3883  19.3883  20.0474  20.0474  20.0474  20.5579  20.5579  20.5579
    28.3957  28.4280  28.4280  31.2619  31.2619  31.2619  32.5695  32.5695
    32.5695

[...]

 ------ SPIN DOWN ----------

[...]

          k = 0.1214 0.1214 0.1214 (  2488 PWs)   bands (ev):

   -60.5250 -60.5221 -60.5221 -47.2545 -29.5799 -29.4396 -29.4392 -29.4392
   -29.1493 -29.1493 -29.1382 -29.1375 -29.1375 -21.0571 -21.0558 -21.0558
    13.7001  13.7963  13.7963  14.3113  17.0490  17.0490  17.2638  17.3425
    17.3425  17.4178  17.4178  17.4314  17.6514  17.7707  17.8299  17.8299
    19.9782  19.9845  19.9845  20.1605  20.1605  20.3514  20.3514  20.4508
    26.1001  26.1001  26.3522  26.9068  36.0079  36.0079  36.1227  36.3071
    40.1814

     the Fermi energy is    17.3409 ev

!    total energy              =    -782.22627300 Ry
     Harris-Foulkes estimate   =    -782.22627285 Ry
     estimated scf accuracy    <       0.00000023 Ry

     The total energy is the sum of the following terms:

     one-electron contribution =    -306.75782133 Ry
     hartree contribution      =     186.04064737 Ry
     xc contribution           =    -103.12830658 Ry
     ewald contribution        =    -558.36689974 Ry
     smearing contrib. (-TS)   =      -0.01389272 Ry

     total magnetization       =     5.07 Bohr mag/cell
     absolute magnetization    =     6.75 Bohr mag/cell

     convergence has been achieved in  15 iterations

     Forces acting on atoms (Ry/au):

     negative rho (up, down):  9.247E-04 1.933E-04
     atom    1 type  1   force =     0.00000000    0.00000000    0.00000000
     atom    2 type  1   force =     0.00000000    0.00000000    0.00000000
     atom    3 type  1   force =     0.00000000    0.00000000   -0.00000000
     atom    4 type  2   force =     0.00000000   -0.00000000    0.00000000

     Total force =     0.000000     Total SCF correction =     0.000000
 !ASE

     General routines

     Parallel routines

   This run was terminated on:  12:27:15  10Nov2017

   JOB DONE.