     Program PWSCF v.5.1rc2 (svn rev. ) starts on 25Oct2017 at  6:57:29

     Current dimensions of program PWSCF are:
     Max number of different atomic species (ntypx) = 10
     Max number of k-points (npk) =  40000
     Max angular momentum in pseudopotentials (lmaxx) =  3

     IMPORTANT: XC functional enforced from input :
     Exchange-correlation      = BEEF-VDW ( 1  4 27 13 2)
     Any further DFT definition will be discarded
     Please, verify this is what you really want

     Subspace diagonalization in iterative solution of the eigenvalue problem:
     a serial algorithm will be used

     bravais-lattice index     =            0
     lattice parameter (alat)  =       1.8897  a.u.
     unit-cell volume          =     448.1999 (a.u.)^3
     number of atoms/cell      =            4
     number of atomic types    =            2
     number of electrons       =        54.00
     number of Kohn-Sham states=           47
     kinetic-energy cutoff     =      58.7989  Ry
     charge density cutoff     =     587.9892  Ry
     convergence threshold     =      7.3E-09
     mixing beta               =       0.1000
     number of iterations used =           10  local-TF  mixing
     Exchange-correlation      = BEEF-VDW ( 1  4 27 13 2)
     nstep                     =           50

     celldm(1)=   1.889726  celldm(2)=   0.000000  celldm(3)=   0.000000
     celldm(4)=   0.000000  celldm(5)=   0.000000  celldm(6)=   0.000000

     crystal axes: (cart. coord. in units of alat)
               a(1) = (   4.049720   0.000000   0.000000 )
               a(2) = (   0.000000   4.049720   0.000000 )
               a(3) = (   0.000000   0.000000   4.049720 )

     reciprocal axes: (cart. coord. in units 2 pi/alat)
               b(1) = (  0.246931  0.000000  0.000000 )
               b(2) = (  0.000000  0.246931  0.000000 )
               b(3) = (  0.000000  0.000000  0.246931 )

     PseudoPot. # 1 for W  read from file:
     /home/vossj/suncat/psp/gbrv1.5pbe/W.UPF
     MD5 check sum: 9c083fa34c2a2ea0f02f1f893e16e1c8
     Pseudo is Ultrasoft + core correction, Zval = 14.0
     Generated by new atomic code, or converted to UPF format
     Using radial grid of  923 points,  8 beta functions with:
                l(1) =   0
                l(2) =   0
                l(3) =   0
                l(4) =   1
                l(5) =   1
                l(6) =   2
                l(7) =   2
                l(8) =   3
     Q(r) pseudized with  6 coefficients,  rinner =    1.350   1.350   1.350
                                                       1.350   1.350   1.350
                                                       1.350

     PseudoPot. # 2 for Ti read from file:
     /home/vossj/suncat/psp/gbrv1.5pbe/Ti.UPF
     MD5 check sum: 88a00a6731bd790ddea75d31a80cb452
     Pseudo is Ultrasoft + core correction, Zval = 12.0
     Generated by new atomic code, or converted to UPF format
     Using radial grid of  851 points,  6 beta functions with:
                l(1) =   0
                l(2) =   0
                l(3) =   1
                l(4) =   1
                l(5) =   2
                l(6) =   2
     Q(r) pseudized with  6 coefficients,  rinner =    1.000   1.000   1.000
                                                       1.000   1.000

     vdW kernel table read from file vdW_kernel_table
     MD5 check sum: 095c7af220d748ca6e76c0b4c6cfb241

     atomic species   valence    mass     pseudopotential
        W1            14.00   183.84000     W ( 1.00)
        Ti1           12.00    47.86700     Ti( 1.00)

     48 Sym. Ops., with inversion, found (32 have fractional translation)

   Cartesian axes

     site n.     atom                  positions (alat units)
         1           W1  tau(   1) = (   0.0000000   0.0000000   0.0000000  )
         2           W1  tau(   2) = (   0.0000000   2.0248602   2.0248602  )
         3           W1  tau(   3) = (   2.0248602   0.0000000   2.0248602  )
         4           Ti1 tau(   4) = (   2.0248602   2.0248602   0.0000000  )

     number of k points=    84  Fermi-Dirac smearing, width (Ry)=  0.0073
                       cart. coord. in units 2pi/alat
        k(    1) = (   0.0000000   0.0000000   0.0000000), wk =   0.0011574
        k(    2) = (   0.0000000   0.0000000   0.0205776), wk =   0.0069444
        k(    3) = (   0.0000000   0.0000000   0.0411551), wk =   0.0069444
        k(    4) = (   0.0000000   0.0000000   0.0617327), wk =   0.0069444
        k(    5) = (   0.0000000   0.0000000   0.0823102), wk =   0.0069444
        k(    6) = (   0.0000000   0.0000000   0.1028878), wk =   0.0069444
        k(    7) = (   0.0000000   0.0000000  -0.1234653), wk =   0.0034722
        k(    8) = (   0.0000000   0.0205776   0.0205776), wk =   0.0138889
        k(    9) = (   0.0000000   0.0205776   0.0411551), wk =   0.0277778
        k(   10) = (   0.0000000   0.0205776   0.0617327), wk =   0.0277778
        k(   11) = (   0.0000000   0.0205776   0.0823102), wk =   0.0277778
        k(   12) = (   0.0000000   0.0205776   0.1028878), wk =   0.0277778
        k(   13) = (   0.0000000   0.0205776  -0.1234653), wk =   0.0138889
        k(   14) = (   0.0000000   0.0411551   0.0411551), wk =   0.0138889
        k(   15) = (   0.0000000   0.0411551   0.0617327), wk =   0.0277778
        k(   16) = (   0.0000000   0.0411551   0.0823102), wk =   0.0277778
        k(   17) = (   0.0000000   0.0411551   0.1028878), wk =   0.0277778
        k(   18) = (   0.0000000   0.0411551  -0.1234653), wk =   0.0138889
        k(   19) = (   0.0000000   0.0617327   0.0617327), wk =   0.0138889
        k(   20) = (   0.0000000   0.0617327   0.0823102), wk =   0.0277778
        k(   21) = (   0.0000000   0.0617327   0.1028878), wk =   0.0277778
        k(   22) = (   0.0000000   0.0617327  -0.1234653), wk =   0.0138889
        k(   23) = (   0.0000000   0.0823102   0.0823102), wk =   0.0138889
        k(   24) = (   0.0000000   0.0823102   0.1028878), wk =   0.0277778
        k(   25) = (   0.0000000   0.0823102  -0.1234653), wk =   0.0138889
        k(   26) = (   0.0000000   0.1028878   0.1028878), wk =   0.0138889
        k(   27) = (   0.0000000   0.1028878  -0.1234653), wk =   0.0138889
        k(   28) = (   0.0000000  -0.1234653  -0.1234653), wk =   0.0034722
        k(   29) = (   0.0205776   0.0205776   0.0205776), wk =   0.0092593
        k(   30) = (   0.0205776   0.0205776   0.0411551), wk =   0.0277778
        k(   31) = (   0.0205776   0.0205776   0.0617327), wk =   0.0277778
        k(   32) = (   0.0205776   0.0205776   0.0823102), wk =   0.0277778
        k(   33) = (   0.0205776   0.0205776   0.1028878), wk =   0.0277778
        k(   34) = (   0.0205776   0.0205776  -0.1234653), wk =   0.0138889
        k(   35) = (   0.0205776   0.0411551   0.0411551), wk =   0.0277778
        k(   36) = (   0.0205776   0.0411551   0.0617327), wk =   0.0555556
        k(   37) = (   0.0205776   0.0411551   0.0823102), wk =   0.0555556
        k(   38) = (   0.0205776   0.0411551   0.1028878), wk =   0.0555556
        k(   39) = (   0.0205776   0.0411551  -0.1234653), wk =   0.0277778
        k(   40) = (   0.0205776   0.0617327   0.0617327), wk =   0.0277778
        k(   41) = (   0.0205776   0.0617327   0.0823102), wk =   0.0555556
        k(   42) = (   0.0205776   0.0617327   0.1028878), wk =   0.0555556
        k(   43) = (   0.0205776   0.0617327  -0.1234653), wk =   0.0277778
        k(   44) = (   0.0205776   0.0823102   0.0823102), wk =   0.0277778
        k(   45) = (   0.0205776   0.0823102   0.1028878), wk =   0.0555556
        k(   46) = (   0.0205776   0.0823102  -0.1234653), wk =   0.0277778
        k(   47) = (   0.0205776   0.1028878   0.1028878), wk =   0.0277778
        k(   48) = (   0.0205776   0.1028878  -0.1234653), wk =   0.0277778
        k(   49) = (   0.0205776  -0.1234653  -0.1234653), wk =   0.0069444
        k(   50) = (   0.0411551   0.0411551   0.0411551), wk =   0.0092593
        k(   51) = (   0.0411551   0.0411551   0.0617327), wk =   0.0277778
        k(   52) = (   0.0411551   0.0411551   0.0823102), wk =   0.0277778
        k(   53) = (   0.0411551   0.0411551   0.1028878), wk =   0.0277778
        k(   54) = (   0.0411551   0.0411551  -0.1234653), wk =   0.0138889
        k(   55) = (   0.0411551   0.0617327   0.0617327), wk =   0.0277778
        k(   56) = (   0.0411551   0.0617327   0.0823102), wk =   0.0555556
        k(   57) = (   0.0411551   0.0617327   0.1028878), wk =   0.0555556
        k(   58) = (   0.0411551   0.0617327  -0.1234653), wk =   0.0277778
        k(   59) = (   0.0411551   0.0823102   0.0823102), wk =   0.0277778
        k(   60) = (   0.0411551   0.0823102   0.1028878), wk =   0.0555556
[...]
        k(   70) = (   0.0617327   0.0823102   0.1028878), wk =   0.0555556
        k(   71) = (   0.0617327   0.0823102  -0.1234653), wk =   0.0277778
        k(   72) = (   0.0617327   0.1028878   0.1028878), wk =   0.0277778
        k(   73) = (   0.0617327   0.1028878  -0.1234653), wk =   0.0277778
        k(   74) = (   0.0617327  -0.1234653  -0.1234653), wk =   0.0069444
        k(   75) = (   0.0823102   0.0823102   0.0823102), wk =   0.0092593
        k(   76) = (   0.0823102   0.0823102   0.1028878), wk =   0.0277778
        k(   77) = (   0.0823102   0.0823102  -0.1234653), wk =   0.0138889
        k(   78) = (   0.0823102   0.1028878   0.1028878), wk =   0.0277778
        k(   79) = (   0.0823102   0.1028878  -0.1234653), wk =   0.0277778
        k(   80) = (   0.0823102  -0.1234653  -0.1234653), wk =   0.0069444
        k(   81) = (   0.1028878   0.1028878   0.1028878), wk =   0.0092593
        k(   82) = (   0.1028878   0.1028878  -0.1234653), wk =   0.0138889
        k(   83) = (   0.1028878  -0.1234653  -0.1234653), wk =   0.0069444
        k(   84) = (  -0.1234653  -0.1234653  -0.1234653), wk =   0.0011574

     Largest allocated arrays     est. size (Mb)     dimensions
     Largest temporary arrays     est. size (Mb)     dimensions

     Initial potential from superposition of free atoms
     Check: negative starting charge=   -0.187094

     starting charge   52.69894, renormalised to   54.00000

     negative rho (up, down):  1.917E-01 0.000E+00

     *
     * You are using vdW-DF for exchange-correlation in this calculation.
     * Please cite the following three references that made this development
     * possible:
     *
     *   M. Dion, H. Rydberg, E. Schroder, D. C. Langreth, and
     *   B. I. Lundqvist, Phys. Rev. Lett. 92, 246401 (2004).
     *
     *   T. Thonhauser, V. R. Cooper, S. Li, A. Puzder, P. Hyldgaard, and
     *   D. C. Langreth, Phys. Rev. B 76, 125112 (2007).
     *
     *   G. Roman-Perez and J. M. Soler, Phys. Rev. Lett. 103, 096102 (2009).
     *
     *
     * If you are using vdW-DF2, please also cite:
     *
     *   K. Lee, E. D. Murray, L. Kong, B. I. Lundqvist, and
     *   D. C. Langreth, Phys. Rev. B 82, 081101(R) (2010).
     *
     *
     * If you are calculating the stress with vdW-DF, please also cite:
     *
     *   R. Sabatini, E. Kucukbenli, B. Kolb, T. Thonhauser, and
     *   S. de Gironcoli, J. Phys.: Condens. Matter 24, 424209 (2012).
     *

     Carrying out vdW-DF run using the following parameters:

     Nqs =      20    Nr_points =    1024   r_max =   100.000
     q_mesh =
               0.00001000     0.04494208     0.09755937     0.15916263
               0.23128650     0.31572767     0.41458969     0.53033537
               0.66584808     0.82450364     1.01025438     1.22772762
               1.48234092     1.78043706     2.12944203     2.53805004
               3.01644009     3.57652955     4.23227104     5.00000000

     Gradients computed in reciprocal space

     Starting wfc are   49 randomized atomic wfcs

     Self-consistent Calculation

     iteration #  1     ecut=    58.80 Ry     beta=0.10
     Davidson diagonalization with overlap
     ethr =  1.00E-02,  avg # of iterations =  3.9

[...]

     total energy              =    -601.58007144 Ry
     Harris-Foulkes estimate   =    -602.06820109 Ry
     estimated scf accuracy    <       9.81169529 Ry

[...]

     total energy              =    -601.29209146 Ry
     Harris-Foulkes estimate   =    -601.29209141 Ry
     estimated scf accuracy    <       0.00000005 Ry

     iteration # 17     ecut=    58.80 Ry     beta=0.10
     Davidson diagonalization with overlap
     ethr =  3.51E-11,  avg # of iterations =  1.2

     negative rho (up, down):  2.050E-01 0.000E+00

     End of self-consistent calculation

          k = 0.0000 0.0000 0.0000 (  3407 PWs)   bands (ev):

   -55.1518 -55.0547 -55.0547 -37.6753 -19.5644 -19.5644 -19.5644 -19.1134
   -19.1134 -19.1134 -18.8517 -18.8517 -18.8517 -13.8881 -13.8881 -13.8881
    10.7111  13.9037  14.4469  14.4469  15.1313  15.1313  15.1313  18.9142
    18.9142  18.9142  21.5219  21.5219  21.9781  21.9781  21.9781  23.2889
    23.2889  23.5503  23.5503  23.5503  23.8345  24.5492  24.5492  24.5492
    30.4551  30.4551  30.4551  30.9665  30.9665  31.1615  31.1615

[...]

          k = 0.1029-0.1235-0.1235 (  3408 PWs)   bands (ev):

[...]

          k =-0.1235-0.1235-0.1235 (  3448 PWs)   bands (ev):

   -55.0866 -55.0866 -55.0866 -37.6744 -19.7939 -19.5091 -19.5091 -19.5091
   -18.8730 -18.8730 -18.8725 -18.8725 -18.8725 -13.8884 -13.8884 -13.8884
    14.0233  14.0233  14.0233  14.4315  18.2600  18.2600  18.2600  18.7142
    18.7142  18.7142  19.2065  19.2065  19.5581  19.6249  19.6249  19.6249
    23.1643  23.1643  23.1643  23.2979  23.2979  23.8578  23.8578  23.8578
    28.3321  28.3321  28.3321  30.5670  31.8366  32.0123  32.0123

     the Fermi energy is    19.0333 ev

!    total energy              =    -601.29209172 Ry
     Harris-Foulkes estimate   =    -601.29209147 Ry
     estimated scf accuracy    <          7.3E-11 Ry

     The total energy is the sum of the following terms:

     one-electron contribution =     -90.62120687 Ry
     hartree contribution      =      73.56042216 Ry
     xc contribution           =    -146.58669496 Ry
     ewald contribution        =    -437.63085908 Ry
     smearing contrib. (-TS)   =      -0.01375296 Ry

     convergence has been achieved in  17 iterations

     Forces acting on atoms (Ry/au):

     negative rho (up, down):  2.050E-01 0.000E+00
     atom    1 type  1   force =     0.00000000    0.00000000    0.00000000
     atom    2 type  1   force =     0.00000000    0.00000000    0.00000000
     atom    3 type  1   force =     0.00000000    0.00000000    0.00000000
     atom    4 type  2   force =     0.00000000    0.00000000    0.00000000

     Total force =     0.000000     Total SCF correction =     0.000000
 !ASE

     General routines

     Parallel routines

   This run was terminated on:   6:58:43  25Oct2017

   JOB DONE.