     Program PWSCF v.5.1rc2 (svn rev. ) starts on 26Oct2017 at  1:56: 2

     Current dimensions of program PWSCF are:
     Max number of different atomic species (ntypx) = 10
     Max number of k-points (npk) =  40000
     Max angular momentum in pseudopotentials (lmaxx) =  3

     IMPORTANT: XC functional enforced from input :
     Exchange-correlation      = BEEF-VDW ( 1  4 27 13 2)
     Any further DFT definition will be discarded
     Please, verify this is what you really want

     Subspace diagonalization in iterative solution of the eigenvalue problem:
     a serial algorithm will be used

     bravais-lattice index     =            0
     lattice parameter (alat)  =       1.8897  a.u.
     unit-cell volume          =     439.7810 (a.u.)^3
     number of atoms/cell      =            4
     number of atomic types    =            2
     number of electrons       =        53.00
     number of Kohn-Sham states=           46
     kinetic-energy cutoff     =      58.7989  Ry
     charge density cutoff     =     587.9892  Ry
     convergence threshold     =      7.3E-09
     mixing beta               =       0.1000
     number of iterations used =           10  local-TF  mixing
     Exchange-correlation      = BEEF-VDW ( 1  4 27 13 2)
     nstep                     =           50

     celldm(1)=   1.889726  celldm(2)=   0.000000  celldm(3)=   0.000000
     celldm(4)=   0.000000  celldm(5)=   0.000000  celldm(6)=   0.000000

     crystal axes: (cart. coord. in units of alat)
               a(1) = (   4.024204   0.000000   0.000000 )
               a(2) = (   0.000000   4.024204   0.000000 )
               a(3) = (   0.000000   0.000000   4.024204 )

     reciprocal axes: (cart. coord. in units 2 pi/alat)
               b(1) = (  0.248496  0.000000  0.000000 )
               b(2) = (  0.000000  0.248496  0.000000 )
               b(3) = (  0.000000  0.000000  0.248496 )

     PseudoPot. # 1 for W  read from file:
     /home/vossj/suncat/psp/gbrv1.5pbe/W.UPF
     MD5 check sum: 9c083fa34c2a2ea0f02f1f893e16e1c8
     Pseudo is Ultrasoft + core correction, Zval = 14.0
     Generated by new atomic code, or converted to UPF format
     Using radial grid of  923 points,  8 beta functions with:
                l(1) =   0
                l(2) =   0
                l(3) =   0
                l(4) =   1
                l(5) =   1
                l(6) =   2
                l(7) =   2
                l(8) =   3
     Q(r) pseudized with  6 coefficients,  rinner =    1.350   1.350   1.350
                                                       1.350   1.350   1.350
                                                       1.350

     PseudoPot. # 2 for Au read from file:
     /home/vossj/suncat/psp/gbrv1.5pbe/Au.UPF
     MD5 check sum: 9d7f43293ad2c663164586bc4b293ffc
     Pseudo is Ultrasoft + core correction, Zval = 11.0
     Generated by new atomic code, or converted to UPF format
     Using radial grid of  985 points,  7 beta functions with:
                l(1) =   0
                l(2) =   0
                l(3) =   1
                l(4) =   1
                l(5) =   2
                l(6) =   2
                l(7) =   3
     Q(r) pseudized with  6 coefficients,  rinner =    1.900   1.900   1.900
                                                       1.900   1.900   1.900
                                                       1.900

     vdW kernel table read from file vdW_kernel_table
     MD5 check sum: 095c7af220d748ca6e76c0b4c6cfb241

     atomic species   valence    mass     pseudopotential
        W1            14.00   183.84000     W ( 1.00)
        Au1           11.00   196.96657     Au( 1.00)

     48 Sym. Ops., with inversion, found (32 have fractional translation)

   Cartesian axes

     site n.     atom                  positions (alat units)
         1           W1  tau(   1) = (   0.0000000   0.0000000   0.0000000  )
         2           W1  tau(   2) = (   0.0000000   2.0121018   2.0121018  )
         3           W1  tau(   3) = (   2.0121018   0.0000000   2.0121018  )
         4           Au1 tau(   4) = (   2.0121018   2.0121018   0.0000000  )

     number of k points=    84  Fermi-Dirac smearing, width (Ry)=  0.0073
                       cart. coord. in units 2pi/alat
        k(    1) = (   0.0000000   0.0000000   0.0000000), wk =   0.0011574
        k(    2) = (   0.0000000   0.0000000   0.0207080), wk =   0.0069444
        k(    3) = (   0.0000000   0.0000000   0.0414161), wk =   0.0069444
        k(    4) = (   0.0000000   0.0000000   0.0621241), wk =   0.0069444
        k(    5) = (   0.0000000   0.0000000   0.0828321), wk =   0.0069444
        k(    6) = (   0.0000000   0.0000000   0.1035402), wk =   0.0069444
        k(    7) = (   0.0000000   0.0000000  -0.1242482), wk =   0.0034722
        k(    8) = (   0.0000000   0.0207080   0.0207080), wk =   0.0138889
        k(    9) = (   0.0000000   0.0207080   0.0414161), wk =   0.0277778
        k(   10) = (   0.0000000   0.0207080   0.0621241), wk =   0.0277778
        k(   11) = (   0.0000000   0.0207080   0.0828321), wk =   0.0277778
        k(   12) = (   0.0000000   0.0207080   0.1035402), wk =   0.0277778
        k(   13) = (   0.0000000   0.0207080  -0.1242482), wk =   0.0138889
        k(   14) = (   0.0000000   0.0414161   0.0414161), wk =   0.0138889
        k(   15) = (   0.0000000   0.0414161   0.0621241), wk =   0.0277778
        k(   16) = (   0.0000000   0.0414161   0.0828321), wk =   0.0277778
        k(   17) = (   0.0000000   0.0414161   0.1035402), wk =   0.0277778
        k(   18) = (   0.0000000   0.0414161  -0.1242482), wk =   0.0138889
        k(   19) = (   0.0000000   0.0621241   0.0621241), wk =   0.0138889
        k(   20) = (   0.0000000   0.0621241   0.0828321), wk =   0.0277778
        k(   21) = (   0.0000000   0.0621241   0.1035402), wk =   0.0277778
        k(   22) = (   0.0000000   0.0621241  -0.1242482), wk =   0.0138889
        k(   23) = (   0.0000000   0.0828321   0.0828321), wk =   0.0138889
        k(   24) = (   0.0000000   0.0828321   0.1035402), wk =   0.0277778
        k(   25) = (   0.0000000   0.0828321  -0.1242482), wk =   0.0138889
        k(   26) = (   0.0000000   0.1035402   0.1035402), wk =   0.0138889
        k(   27) = (   0.0000000   0.1035402  -0.1242482), wk =   0.0138889
        k(   28) = (   0.0000000  -0.1242482  -0.1242482), wk =   0.0034722
        k(   29) = (   0.0207080   0.0207080   0.0207080), wk =   0.0092593
        k(   30) = (   0.0207080   0.0207080   0.0414161), wk =   0.0277778
        k(   31) = (   0.0207080   0.0207080   0.0621241), wk =   0.0277778
        k(   32) = (   0.0207080   0.0207080   0.0828321), wk =   0.0277778
        k(   33) = (   0.0207080   0.0207080   0.1035402), wk =   0.0277778
        k(   34) = (   0.0207080   0.0207080  -0.1242482), wk =   0.0138889
        k(   35) = (   0.0207080   0.0414161   0.0414161), wk =   0.0277778
        k(   36) = (   0.0207080   0.0414161   0.0621241), wk =   0.0555556
        k(   37) = (   0.0207080   0.0414161   0.0828321), wk =   0.0555556
        k(   38) = (   0.0207080   0.0414161   0.1035402), wk =   0.0555556
        k(   39) = (   0.0207080   0.0414161  -0.1242482), wk =   0.0277778
        k(   40) = (   0.0207080   0.0621241   0.0621241), wk =   0.0277778
        k(   41) = (   0.0207080   0.0621241   0.0828321), wk =   0.0555556
        k(   42) = (   0.0207080   0.0621241   0.1035402), wk =   0.0555556
        k(   43) = (   0.0207080   0.0621241  -0.1242482), wk =   0.0277778
        k(   44) = (   0.0207080   0.0828321   0.0828321), wk =   0.0277778
        k(   45) = (   0.0207080   0.0828321   0.1035402), wk =   0.0555556
        k(   46) = (   0.0207080   0.0828321  -0.1242482), wk =   0.0277778
        k(   47) = (   0.0207080   0.1035402   0.1035402), wk =   0.0277778
        k(   48) = (   0.0207080   0.1035402  -0.1242482), wk =   0.0277778
        k(   49) = (   0.0207080  -0.1242482  -0.1242482), wk =   0.0069444
        k(   50) = (   0.0414161   0.0414161   0.0414161), wk =   0.0092593
        k(   51) = (   0.0414161   0.0414161   0.0621241), wk =   0.0277778
        k(   52) = (   0.0414161   0.0414161   0.0828321), wk =   0.0277778
        k(   53) = (   0.0414161   0.0414161   0.1035402), wk =   0.0277778
        k(   54) = (   0.0414161   0.0414161  -0.1242482), wk =   0.0138889
        k(   55) = (   0.0414161   0.0621241   0.0621241), wk =   0.0277778
        k(   56) = (   0.0414161   0.0621241   0.0828321), wk =   0.0555556
        k(   57) = (   0.0414161   0.0621241   0.1035402), wk =   0.0555556
        k(   58) = (   0.0414161   0.0621241  -0.1242482), wk =   0.0277778
        k(   59) = (   0.0414161   0.0828321   0.0828321), wk =   0.0277778
        k(   60) = (   0.0414161   0.0828321   0.1035402), wk =   0.0555556
[...]
        k(   70) = (   0.0621241   0.0828321   0.1035402), wk =   0.0555556
        k(   71) = (   0.0621241   0.0828321  -0.1242482), wk =   0.0277778
        k(   72) = (   0.0621241   0.1035402   0.1035402), wk =   0.0277778
        k(   73) = (   0.0621241   0.1035402  -0.1242482), wk =   0.0277778
        k(   74) = (   0.0621241  -0.1242482  -0.1242482), wk =   0.0069444
        k(   75) = (   0.0828321   0.0828321   0.0828321), wk =   0.0092593
        k(   76) = (   0.0828321   0.0828321   0.1035402), wk =   0.0277778
        k(   77) = (   0.0828321   0.0828321  -0.1242482), wk =   0.0138889
        k(   78) = (   0.0828321   0.1035402   0.1035402), wk =   0.0277778
        k(   79) = (   0.0828321   0.1035402  -0.1242482), wk =   0.0277778
        k(   80) = (   0.0828321  -0.1242482  -0.1242482), wk =   0.0069444
        k(   81) = (   0.1035402   0.1035402   0.1035402), wk =   0.0092593
        k(   82) = (   0.1035402   0.1035402  -0.1242482), wk =   0.0138889
        k(   83) = (   0.1035402  -0.1242482  -0.1242482), wk =   0.0069444
        k(   84) = (  -0.1242482  -0.1242482  -0.1242482), wk =   0.0011574

     Largest allocated arrays     est. size (Mb)     dimensions
     Largest temporary arrays     est. size (Mb)     dimensions

     Initial potential from superposition of free atoms
     Check: negative starting charge=   -0.186108

     starting charge   52.69886, renormalised to   53.00000

     negative rho (up, down):  1.872E-01 0.000E+00

     *
     * You are using vdW-DF for exchange-correlation in this calculation.
     * Please cite the following three references that made this development
     * possible:
     *
     *   M. Dion, H. Rydberg, E. Schroder, D. C. Langreth, and
     *   B. I. Lundqvist, Phys. Rev. Lett. 92, 246401 (2004).
     *
     *   T. Thonhauser, V. R. Cooper, S. Li, A. Puzder, P. Hyldgaard, and
     *   D. C. Langreth, Phys. Rev. B 76, 125112 (2007).
     *
     *   G. Roman-Perez and J. M. Soler, Phys. Rev. Lett. 103, 096102 (2009).
     *
     *
     * If you are using vdW-DF2, please also cite:
     *
     *   K. Lee, E. D. Murray, L. Kong, B. I. Lundqvist, and
     *   D. C. Langreth, Phys. Rev. B 82, 081101(R) (2010).
     *
     *
     * If you are calculating the stress with vdW-DF, please also cite:
     *
     *   R. Sabatini, E. Kucukbenli, B. Kolb, T. Thonhauser, and
     *   S. de Gironcoli, J. Phys.: Condens. Matter 24, 424209 (2012).
     *

     Carrying out vdW-DF run using the following parameters:

     Nqs =      20    Nr_points =    1024   r_max =   100.000
     q_mesh =
               0.00001000     0.04494208     0.09755937     0.15916263
               0.23128650     0.31572767     0.41458969     0.53033537
               0.66584808     0.82450364     1.01025438     1.22772762
               1.48234092     1.78043706     2.12944203     2.53805004
               3.01644009     3.57652955     4.23227104     5.00000000

     Gradients computed in reciprocal space

     Starting wfc are   48 randomized atomic wfcs

     Self-consistent Calculation

     iteration #  1     ecut=    58.80 Ry     beta=0.10
     Davidson diagonalization with overlap
     ethr =  1.00E-02,  avg # of iterations =  4.4

[...]

     total energy              =    -598.23477035 Ry
     Harris-Foulkes estimate   =    -598.30490599 Ry
     estimated scf accuracy    <       1.28470864 Ry

[...]

     total energy              =    -598.10037114 Ry
     Harris-Foulkes estimate   =    -598.10037106 Ry
     estimated scf accuracy    <       0.00000003 Ry

     iteration # 12     ecut=    58.80 Ry     beta=0.10
     Davidson diagonalization with overlap
     ethr =  6.24E-11,  avg # of iterations =  1.2

     negative rho (up, down):  2.053E-01 0.000E+00

     End of self-consistent calculation

          k = 0.0000 0.0000 0.0000 (  3407 PWs)   bands (ev):

   -54.0550 -53.9498 -53.9498 -18.4697 -18.4697 -18.4697 -18.0474 -18.0474
   -18.0474 -17.7006 -17.7006 -17.7006  10.6317  13.1735  13.1735  13.8210
    13.8210  13.8210  14.4781  17.8950  17.8950  17.8950  19.3227  19.3227
    22.4117  22.4117  22.4117  22.7677  22.7677  22.7677  23.8404  23.8404
    24.9704  25.8014  25.8014  25.8014  29.4891  30.7842  30.7842  30.7842
    32.2048  32.2048  32.2048  32.3223  32.3223  33.2989

[...]

          k = 0.1035-0.1242-0.1242 (  3348 PWs)   bands (ev):

[...]

          k =-0.1242-0.1242-0.1242 (  3328 PWs)   bands (ev):

   -53.9844 -53.9844 -53.9844 -18.6594 -18.4474 -18.4474 -18.4474 -17.7918
   -17.7918 -17.7918 -17.6807 -17.6807  13.2651  13.2651  13.2651  13.5129
    15.0953  15.0953  17.3783  17.3783  17.3783  19.2974  19.2974  19.2974
    19.9420  19.9420  19.9420  20.8509  22.4264  22.4264  22.4264  23.2126
    23.2126  25.0533  25.0533  25.0533  27.4831  29.5441  29.5441  29.5441
    32.8680  32.8794  32.8794  32.8794  37.4837  37.4838

     the Fermi energy is    20.3124 ev

!    total energy              =    -598.10037151 Ry
     Harris-Foulkes estimate   =    -598.10037114 Ry
     estimated scf accuracy    <          3.0E-10 Ry

     The total energy is the sum of the following terms:

     one-electron contribution =     -38.83489194 Ry
     hartree contribution      =      58.02041118 Ry
     xc contribution           =    -191.88973854 Ry
     ewald contribution        =    -425.39001593 Ry
     smearing contrib. (-TS)   =      -0.00613628 Ry

     convergence has been achieved in  12 iterations

     Forces acting on atoms (Ry/au):

     negative rho (up, down):  2.053E-01 0.000E+00
     atom    1 type  1   force =     0.00000000    0.00000000    0.00000000
     atom    2 type  1   force =     0.00000000    0.00000000   -0.00000000
     atom    3 type  1   force =     0.00000000    0.00000000    0.00000000
     atom    4 type  2   force =     0.00000000    0.00000000    0.00000000

     Total force =     0.000000     Total SCF correction =     0.000000
 !ASE

     General routines

     Parallel routines

   This run was terminated on:   1:56:54  26Oct2017

   JOB DONE.