     Program PWSCF v.5.1rc2 (svn rev. ) starts on 25Oct2017 at  5:23:19

     Current dimensions of program PWSCF are:
     Max number of different atomic species (ntypx) = 10
     Max number of k-points (npk) =  40000
     Max angular momentum in pseudopotentials (lmaxx) =  3

     IMPORTANT: XC functional enforced from input :
     Exchange-correlation      = BEEF-VDW ( 1  4 27 13 2)
     Any further DFT definition will be discarded
     Please, verify this is what you really want

     Subspace diagonalization in iterative solution of the eigenvalue problem:
     a serial algorithm will be used

     bravais-lattice index     =            0
     lattice parameter (alat)  =       1.8897  a.u.
     unit-cell volume          =     383.2219 (a.u.)^3
     number of atoms/cell      =            4
     number of atomic types    =            2
     number of electrons       =        58.00
     number of Kohn-Sham states=           49
     kinetic-energy cutoff     =      58.7989  Ry
     charge density cutoff     =     587.9892  Ry
     convergence threshold     =      7.3E-09
     mixing beta               =       0.1000
     number of iterations used =           10  local-TF  mixing
     Exchange-correlation      = BEEF-VDW ( 1  4 27 13 2)
     nstep                     =           50

     celldm(1)=   1.889726  celldm(2)=   0.000000  celldm(3)=   0.000000
     celldm(4)=   0.000000  celldm(5)=   0.000000  celldm(6)=   0.000000

     crystal axes: (cart. coord. in units of alat)
               a(1) = (   3.843716   0.000000   0.000000 )
               a(2) = (   0.000000   3.843716   0.000000 )
               a(3) = (   0.000000   0.000000   3.843716 )

     reciprocal axes: (cart. coord. in units 2 pi/alat)
               b(1) = (  0.260165  0.000000  0.000000 )
               b(2) = (  0.000000  0.260165  0.000000 )
               b(3) = (  0.000000  0.000000  0.260165 )

     PseudoPot. # 1 for Ir read from file:
     /home/vossj/suncat/psp/gbrv1.5pbe/Ir.UPF
     MD5 check sum: 8836f839c3459d2b385c504ce6d91f2c
     Pseudo is Ultrasoft + core correction, Zval = 15.0
     Generated by new atomic code, or converted to UPF format
     Using radial grid of  983 points,  7 beta functions with:
                l(1) =   0
                l(2) =   0
                l(3) =   1
                l(4) =   1
                l(5) =   1
                l(6) =   2
                l(7) =   2
     Q(r) pseudized with  8 coefficients,  rinner =    1.400   1.400   1.400
                                                       1.400   1.400

     PseudoPot. # 2 for V  read from file:
     /home/vossj/suncat/psp/gbrv1.5pbe/V.UPF
     MD5 check sum: 22b79981416ebb76fdaf5b1b8640f6fb
     Pseudo is Ultrasoft + core correction, Zval = 13.0
     Generated by new atomic code, or converted to UPF format
     Using radial grid of  853 points,  6 beta functions with:
                l(1) =   0
                l(2) =   0
                l(3) =   1
                l(4) =   1
                l(5) =   2
                l(6) =   2
     Q(r) pseudized with  8 coefficients,  rinner =    1.100   1.100   1.100
                                                       1.100   1.100

     vdW kernel table read from file vdW_kernel_table
     MD5 check sum: 095c7af220d748ca6e76c0b4c6cfb241

     atomic species   valence    mass     pseudopotential
        Ir1           15.00   192.21700     Ir( 1.00)
        V1            13.00    50.94150     V ( 1.00)

     48 Sym. Ops., with inversion, found (32 have fractional translation)

   Cartesian axes

     site n.     atom                  positions (alat units)
         1           Ir1 tau(   1) = (   0.0000000   0.0000000   0.0000000  )
         2           Ir1 tau(   2) = (   0.0000000   1.9218578   1.9218578  )
         3           Ir1 tau(   3) = (   1.9218578   0.0000000   1.9218578  )
         4           V1  tau(   4) = (   1.9218578   1.9218578   0.0000000  )

     number of k points=    84  Fermi-Dirac smearing, width (Ry)=  0.0073
                       cart. coord. in units 2pi/alat
        k(    1) = (   0.0000000   0.0000000   0.0000000), wk =   0.0011574
        k(    2) = (   0.0000000   0.0000000   0.0216804), wk =   0.0069444
        k(    3) = (   0.0000000   0.0000000   0.0433608), wk =   0.0069444
        k(    4) = (   0.0000000   0.0000000   0.0650412), wk =   0.0069444
        k(    5) = (   0.0000000   0.0000000   0.0867216), wk =   0.0069444
        k(    6) = (   0.0000000   0.0000000   0.1084021), wk =   0.0069444
        k(    7) = (   0.0000000   0.0000000  -0.1300825), wk =   0.0034722
        k(    8) = (   0.0000000   0.0216804   0.0216804), wk =   0.0138889
        k(    9) = (   0.0000000   0.0216804   0.0433608), wk =   0.0277778
        k(   10) = (   0.0000000   0.0216804   0.0650412), wk =   0.0277778
        k(   11) = (   0.0000000   0.0216804   0.0867216), wk =   0.0277778
        k(   12) = (   0.0000000   0.0216804   0.1084021), wk =   0.0277778
        k(   13) = (   0.0000000   0.0216804  -0.1300825), wk =   0.0138889
        k(   14) = (   0.0000000   0.0433608   0.0433608), wk =   0.0138889
        k(   15) = (   0.0000000   0.0433608   0.0650412), wk =   0.0277778
        k(   16) = (   0.0000000   0.0433608   0.0867216), wk =   0.0277778
        k(   17) = (   0.0000000   0.0433608   0.1084021), wk =   0.0277778
        k(   18) = (   0.0000000   0.0433608  -0.1300825), wk =   0.0138889
        k(   19) = (   0.0000000   0.0650412   0.0650412), wk =   0.0138889
        k(   20) = (   0.0000000   0.0650412   0.0867216), wk =   0.0277778
        k(   21) = (   0.0000000   0.0650412   0.1084021), wk =   0.0277778
        k(   22) = (   0.0000000   0.0650412  -0.1300825), wk =   0.0138889
        k(   23) = (   0.0000000   0.0867216   0.0867216), wk =   0.0138889
        k(   24) = (   0.0000000   0.0867216   0.1084021), wk =   0.0277778
        k(   25) = (   0.0000000   0.0867216  -0.1300825), wk =   0.0138889
        k(   26) = (   0.0000000   0.1084021   0.1084021), wk =   0.0138889
        k(   27) = (   0.0000000   0.1084021  -0.1300825), wk =   0.0138889
        k(   28) = (   0.0000000  -0.1300825  -0.1300825), wk =   0.0034722
        k(   29) = (   0.0216804   0.0216804   0.0216804), wk =   0.0092593
        k(   30) = (   0.0216804   0.0216804   0.0433608), wk =   0.0277778
        k(   31) = (   0.0216804   0.0216804   0.0650412), wk =   0.0277778
        k(   32) = (   0.0216804   0.0216804   0.0867216), wk =   0.0277778
        k(   33) = (   0.0216804   0.0216804   0.1084021), wk =   0.0277778
        k(   34) = (   0.0216804   0.0216804  -0.1300825), wk =   0.0138889
        k(   35) = (   0.0216804   0.0433608   0.0433608), wk =   0.0277778
        k(   36) = (   0.0216804   0.0433608   0.0650412), wk =   0.0555556
        k(   37) = (   0.0216804   0.0433608   0.0867216), wk =   0.0555556
        k(   38) = (   0.0216804   0.0433608   0.1084021), wk =   0.0555556
        k(   39) = (   0.0216804   0.0433608  -0.1300825), wk =   0.0277778
        k(   40) = (   0.0216804   0.0650412   0.0650412), wk =   0.0277778
        k(   41) = (   0.0216804   0.0650412   0.0867216), wk =   0.0555556
        k(   42) = (   0.0216804   0.0650412   0.1084021), wk =   0.0555556
        k(   43) = (   0.0216804   0.0650412  -0.1300825), wk =   0.0277778
        k(   44) = (   0.0216804   0.0867216   0.0867216), wk =   0.0277778
        k(   45) = (   0.0216804   0.0867216   0.1084021), wk =   0.0555556
        k(   46) = (   0.0216804   0.0867216  -0.1300825), wk =   0.0277778
        k(   47) = (   0.0216804   0.1084021   0.1084021), wk =   0.0277778
        k(   48) = (   0.0216804   0.1084021  -0.1300825), wk =   0.0277778
        k(   49) = (   0.0216804  -0.1300825  -0.1300825), wk =   0.0069444
        k(   50) = (   0.0433608   0.0433608   0.0433608), wk =   0.0092593
        k(   51) = (   0.0433608   0.0433608   0.0650412), wk =   0.0277778
        k(   52) = (   0.0433608   0.0433608   0.0867216), wk =   0.0277778
        k(   53) = (   0.0433608   0.0433608   0.1084021), wk =   0.0277778
        k(   54) = (   0.0433608   0.0433608  -0.1300825), wk =   0.0138889
        k(   55) = (   0.0433608   0.0650412   0.0650412), wk =   0.0277778
        k(   56) = (   0.0433608   0.0650412   0.0867216), wk =   0.0555556
        k(   57) = (   0.0433608   0.0650412   0.1084021), wk =   0.0555556
        k(   58) = (   0.0433608   0.0650412  -0.1300825), wk =   0.0277778
        k(   59) = (   0.0433608   0.0867216   0.0867216), wk =   0.0277778
        k(   60) = (   0.0433608   0.0867216   0.1084021), wk =   0.0555556
[...]
        k(   70) = (   0.0650412   0.0867216   0.1084021), wk =   0.0555556
        k(   71) = (   0.0650412   0.0867216  -0.1300825), wk =   0.0277778
        k(   72) = (   0.0650412   0.1084021   0.1084021), wk =   0.0277778
        k(   73) = (   0.0650412   0.1084021  -0.1300825), wk =   0.0277778
        k(   74) = (   0.0650412  -0.1300825  -0.1300825), wk =   0.0069444
        k(   75) = (   0.0867216   0.0867216   0.0867216), wk =   0.0092593
        k(   76) = (   0.0867216   0.0867216   0.1084021), wk =   0.0277778
        k(   77) = (   0.0867216   0.0867216  -0.1300825), wk =   0.0138889
        k(   78) = (   0.0867216   0.1084021   0.1084021), wk =   0.0277778
        k(   79) = (   0.0867216   0.1084021  -0.1300825), wk =   0.0277778
        k(   80) = (   0.0867216  -0.1300825  -0.1300825), wk =   0.0069444
        k(   81) = (   0.1084021   0.1084021   0.1084021), wk =   0.0092593
        k(   82) = (   0.1084021   0.1084021  -0.1300825), wk =   0.0138889
        k(   83) = (   0.1084021  -0.1300825  -0.1300825), wk =   0.0069444
        k(   84) = (  -0.1300825  -0.1300825  -0.1300825), wk =   0.0011574

     Largest allocated arrays     est. size (Mb)     dimensions
     Largest temporary arrays     est. size (Mb)     dimensions

     Initial potential from superposition of free atoms
     Check: negative starting charge=   -1.093212

     starting charge   56.49868, renormalised to   58.00000

     negative rho (up, down):  1.122E+00 0.000E+00

     *
     * You are using vdW-DF for exchange-correlation in this calculation.
     * Please cite the following three references that made this development
     * possible:
     *
     *   M. Dion, H. Rydberg, E. Schroder, D. C. Langreth, and
     *   B. I. Lundqvist, Phys. Rev. Lett. 92, 246401 (2004).
     *
     *   T. Thonhauser, V. R. Cooper, S. Li, A. Puzder, P. Hyldgaard, and
     *   D. C. Langreth, Phys. Rev. B 76, 125112 (2007).
     *
     *   G. Roman-Perez and J. M. Soler, Phys. Rev. Lett. 103, 096102 (2009).
     *
     *
     * If you are using vdW-DF2, please also cite:
     *
     *   K. Lee, E. D. Murray, L. Kong, B. I. Lundqvist, and
     *   D. C. Langreth, Phys. Rev. B 82, 081101(R) (2010).
     *
     *
     * If you are calculating the stress with vdW-DF, please also cite:
     *
     *   R. Sabatini, E. Kucukbenli, B. Kolb, T. Thonhauser, and
     *   S. de Gironcoli, J. Phys.: Condens. Matter 24, 424209 (2012).
     *

     Carrying out vdW-DF run using the following parameters:

     Nqs =      20    Nr_points =    1024   r_max =   100.000
     q_mesh =
               0.00001000     0.04494208     0.09755937     0.15916263
               0.23128650     0.31572767     0.41458969     0.53033537
               0.66584808     0.82450364     1.01025438     1.22772762
               1.48234092     1.78043706     2.12944203     2.53805004
               3.01644009     3.57652955     4.23227104     5.00000000

     Gradients computed in reciprocal space

     Starting wfc are   46 randomized atomic wfcs +    3 random wfc

     Self-consistent Calculation

     iteration #  1     ecut=    58.80 Ry     beta=0.10
     Davidson diagonalization with overlap
     ethr =  1.00E-02,  avg # of iterations =  4.5

[...]

     total energy              =    -696.53238554 Ry
     Harris-Foulkes estimate   =    -696.81508197 Ry
     estimated scf accuracy    <       5.12207667 Ry

[...]

     total energy              =    -696.01062272 Ry
     Harris-Foulkes estimate   =    -696.01062058 Ry
     estimated scf accuracy    <       0.00000004 Ry

     iteration # 14     ecut=    58.80 Ry     beta=0.10
     Davidson diagonalization with overlap
     ethr =  4.35E-11,  avg # of iterations =  1.4

     negative rho (up, down):  9.656E-01 0.000E+00

     End of self-consistent calculation

          k = 0.0000 0.0000 0.0000 (  2945 PWs)   bands (ev):

   -43.0230 -27.7035 -27.7035 -27.7035 -27.3800 -27.3800 -27.3800 -27.1942
   -27.1942 -27.1942 -16.7928 -16.7928 -16.7928  12.3214  14.9809  15.6038
    15.6038  15.8824  15.8824  15.8824  19.4034  19.4034  19.4034  21.6645
    21.6645  23.2328  23.7379  23.7379  23.8514  23.8514  23.8514  24.2092
    24.2092  24.2092  24.4870  24.4870  24.4870  32.4308  32.4308  33.1811
    33.2144  33.2144  34.1755  34.1755  34.1755  34.6478  34.6478  34.6478
    35.2989

[...]

          k = 0.1084-0.1301-0.1301 (  2936 PWs)   bands (ev):

[...]

          k =-0.1301-0.1301-0.1301 (  2872 PWs)   bands (ev):

   -43.0219 -27.8745 -27.6482 -27.6482 -27.6482 -27.2225 -27.2225 -27.2051
   -27.2051 -27.2051 -16.7972 -16.7972 -16.7972  15.1795  15.1795  15.1795
    15.4762  18.5253  18.5253  18.5253  19.2965  19.2965  19.2965  19.9759
    19.9759  21.9422  22.0285  22.0285  22.0285  23.2801  23.2801  23.2801
    23.7443  23.7443  23.7443  23.7969  23.7969  29.2797  29.2797  29.2797
    32.2243  33.1887  33.1887  33.1887  36.3926  36.5226  36.5226  36.5226
    41.7232

     the Fermi energy is    22.0571 ev

!    total energy              =    -696.01063205 Ry
     Harris-Foulkes estimate   =    -696.01062272 Ry
     estimated scf accuracy    <          3.3E-10 Ry

     The total energy is the sum of the following terms:

     one-electron contribution =     -71.70634171 Ry
     hartree contribution      =      84.07312151 Ry
     xc contribution           =    -176.58969152 Ry
     ewald contribution        =    -531.78168009 Ry
     smearing contrib. (-TS)   =      -0.00604024 Ry

     convergence has been achieved in  14 iterations

     Forces acting on atoms (Ry/au):

     negative rho (up, down):  9.656E-01 0.000E+00
     atom    1 type  1   force =     0.00000000   -0.00000000    0.00000000
     atom    2 type  1   force =     0.00000000    0.00000000    0.00000000
     atom    3 type  1   force =     0.00000000   -0.00000000    0.00000000
     atom    4 type  2   force =     0.00000000    0.00000000    0.00000000

     Total force =     0.000000     Total SCF correction =     0.000000
 !ASE

     General routines

     Parallel routines

   This run was terminated on:   5:24:14  25Oct2017

   JOB DONE.