     Program PWSCF v.5.1rc2 (svn rev. ) starts on 25Oct2017 at  7:25:59

     Current dimensions of program PWSCF are:
     Max number of different atomic species (ntypx) = 10
     Max number of k-points (npk) =  40000
     Max angular momentum in pseudopotentials (lmaxx) =  3

     IMPORTANT: XC functional enforced from input :
     Exchange-correlation      = BEEF-VDW ( 1  4 27 13 2)
     Any further DFT definition will be discarded
     Please, verify this is what you really want

     Subspace diagonalization in iterative solution of the eigenvalue problem:
     a serial algorithm will be used

     bravais-lattice index     =            0
     lattice parameter (alat)  =       1.8897  a.u.
     unit-cell volume          =     765.2328 (a.u.)^3
     number of atoms/cell      =            4
     number of atomic types    =            2
     number of electrons       =        47.00
     number of Kohn-Sham states=           43
     kinetic-energy cutoff     =      58.7989  Ry
     charge density cutoff     =     587.9892  Ry
     convergence threshold     =      7.3E-09
     mixing beta               =       0.1000
     number of iterations used =           10  local-TF  mixing
     Exchange-correlation      = BEEF-VDW ( 1  4 27 13 2)
     nstep                     =           50

     celldm(1)=   1.889726  celldm(2)=   0.000000  celldm(3)=   0.000000
     celldm(4)=   0.000000  celldm(5)=   0.000000  celldm(6)=   0.000000

     crystal axes: (cart. coord. in units of alat)
               a(1) = (   4.840226   0.000000   0.000000 )
               a(2) = (   0.000000   4.840226   0.000000 )
               a(3) = (   0.000000   0.000000   4.840226 )

     reciprocal axes: (cart. coord. in units 2 pi/alat)
               b(1) = (  0.206602  0.000000  0.000000 )
               b(2) = (  0.000000  0.206602  0.000000 )
               b(3) = (  0.000000  0.000000  0.206602 )

     PseudoPot. # 1 for Y  read from file:
     /home/vossj/suncat/psp/gbrv1.5pbe/Y.UPF
     MD5 check sum: d034151ed7554c50b6e82763ed42c788
     Pseudo is Ultrasoft + core correction, Zval = 11.0
     Generated by new atomic code, or converted to UPF format
     Using radial grid of  885 points,  6 beta functions with:
                l(1) =   0
                l(2) =   0
                l(3) =   1
                l(4) =   1
                l(5) =   2
                l(6) =   2
     Q(r) pseudized with  8 coefficients,  rinner =    1.200   1.200   1.200
                                                       1.200   1.200

     PseudoPot. # 2 for Sn read from file:
     /home/vossj/suncat/psp/gbrv1.5pbe/Sn.UPF
     MD5 check sum: 469debedee59599fedebd795477fea03
     Pseudo is Ultrasoft + core correction, Zval = 14.0
     Generated by new atomic code, or converted to UPF format
     Using radial grid of  891 points,  6 beta functions with:
                l(1) =   0
                l(2) =   0
                l(3) =   1
                l(4) =   1
                l(5) =   2
                l(6) =   2
     Q(r) pseudized with  8 coefficients,  rinner =    1.350   1.350   1.350
                                                       1.350   1.350

     vdW kernel table read from file vdW_kernel_table
     MD5 check sum: 095c7af220d748ca6e76c0b4c6cfb241

     atomic species   valence    mass     pseudopotential
        Y1            11.00    88.90584     Y ( 1.00)
        Sn1           14.00   118.71000     Sn( 1.00)

     48 Sym. Ops., with inversion, found (32 have fractional translation)

   Cartesian axes

     site n.     atom                  positions (alat units)
         1           Y1  tau(   1) = (   0.0000000   0.0000000   0.0000000  )
         2           Y1  tau(   2) = (   0.0000000   2.4201131   2.4201131  )
         3           Y1  tau(   3) = (   2.4201131   0.0000000   2.4201131  )
         4           Sn1 tau(   4) = (   2.4201131   2.4201131   0.0000000  )

     number of k points=    84  Fermi-Dirac smearing, width (Ry)=  0.0073
                       cart. coord. in units 2pi/alat
        k(    1) = (   0.0000000   0.0000000   0.0000000), wk =   0.0011574
        k(    2) = (   0.0000000   0.0000000   0.0172168), wk =   0.0069444
        k(    3) = (   0.0000000   0.0000000   0.0344337), wk =   0.0069444
        k(    4) = (   0.0000000   0.0000000   0.0516505), wk =   0.0069444
        k(    5) = (   0.0000000   0.0000000   0.0688673), wk =   0.0069444
        k(    6) = (   0.0000000   0.0000000   0.0860841), wk =   0.0069444
        k(    7) = (   0.0000000   0.0000000  -0.1033010), wk =   0.0034722
        k(    8) = (   0.0000000   0.0172168   0.0172168), wk =   0.0138889
        k(    9) = (   0.0000000   0.0172168   0.0344337), wk =   0.0277778
        k(   10) = (   0.0000000   0.0172168   0.0516505), wk =   0.0277778
        k(   11) = (   0.0000000   0.0172168   0.0688673), wk =   0.0277778
        k(   12) = (   0.0000000   0.0172168   0.0860841), wk =   0.0277778
        k(   13) = (   0.0000000   0.0172168  -0.1033010), wk =   0.0138889
        k(   14) = (   0.0000000   0.0344337   0.0344337), wk =   0.0138889
        k(   15) = (   0.0000000   0.0344337   0.0516505), wk =   0.0277778
        k(   16) = (   0.0000000   0.0344337   0.0688673), wk =   0.0277778
        k(   17) = (   0.0000000   0.0344337   0.0860841), wk =   0.0277778
        k(   18) = (   0.0000000   0.0344337  -0.1033010), wk =   0.0138889
        k(   19) = (   0.0000000   0.0516505   0.0516505), wk =   0.0138889
        k(   20) = (   0.0000000   0.0516505   0.0688673), wk =   0.0277778
        k(   21) = (   0.0000000   0.0516505   0.0860841), wk =   0.0277778
        k(   22) = (   0.0000000   0.0516505  -0.1033010), wk =   0.0138889
        k(   23) = (   0.0000000   0.0688673   0.0688673), wk =   0.0138889
        k(   24) = (   0.0000000   0.0688673   0.0860841), wk =   0.0277778
        k(   25) = (   0.0000000   0.0688673  -0.1033010), wk =   0.0138889
        k(   26) = (   0.0000000   0.0860841   0.0860841), wk =   0.0138889
        k(   27) = (   0.0000000   0.0860841  -0.1033010), wk =   0.0138889
        k(   28) = (   0.0000000  -0.1033010  -0.1033010), wk =   0.0034722
        k(   29) = (   0.0172168   0.0172168   0.0172168), wk =   0.0092593
        k(   30) = (   0.0172168   0.0172168   0.0344337), wk =   0.0277778
        k(   31) = (   0.0172168   0.0172168   0.0516505), wk =   0.0277778
        k(   32) = (   0.0172168   0.0172168   0.0688673), wk =   0.0277778
        k(   33) = (   0.0172168   0.0172168   0.0860841), wk =   0.0277778
        k(   34) = (   0.0172168   0.0172168  -0.1033010), wk =   0.0138889
        k(   35) = (   0.0172168   0.0344337   0.0344337), wk =   0.0277778
        k(   36) = (   0.0172168   0.0344337   0.0516505), wk =   0.0555556
        k(   37) = (   0.0172168   0.0344337   0.0688673), wk =   0.0555556
        k(   38) = (   0.0172168   0.0344337   0.0860841), wk =   0.0555556
        k(   39) = (   0.0172168   0.0344337  -0.1033010), wk =   0.0277778
        k(   40) = (   0.0172168   0.0516505   0.0516505), wk =   0.0277778
        k(   41) = (   0.0172168   0.0516505   0.0688673), wk =   0.0555556
        k(   42) = (   0.0172168   0.0516505   0.0860841), wk =   0.0555556
        k(   43) = (   0.0172168   0.0516505  -0.1033010), wk =   0.0277778
        k(   44) = (   0.0172168   0.0688673   0.0688673), wk =   0.0277778
        k(   45) = (   0.0172168   0.0688673   0.0860841), wk =   0.0555556
        k(   46) = (   0.0172168   0.0688673  -0.1033010), wk =   0.0277778
        k(   47) = (   0.0172168   0.0860841   0.0860841), wk =   0.0277778
        k(   48) = (   0.0172168   0.0860841  -0.1033010), wk =   0.0277778
        k(   49) = (   0.0172168  -0.1033010  -0.1033010), wk =   0.0069444
        k(   50) = (   0.0344337   0.0344337   0.0344337), wk =   0.0092593
        k(   51) = (   0.0344337   0.0344337   0.0516505), wk =   0.0277778
        k(   52) = (   0.0344337   0.0344337   0.0688673), wk =   0.0277778
        k(   53) = (   0.0344337   0.0344337   0.0860841), wk =   0.0277778
        k(   54) = (   0.0344337   0.0344337  -0.1033010), wk =   0.0138889
        k(   55) = (   0.0344337   0.0516505   0.0516505), wk =   0.0277778
        k(   56) = (   0.0344337   0.0516505   0.0688673), wk =   0.0555556
        k(   57) = (   0.0344337   0.0516505   0.0860841), wk =   0.0555556
        k(   58) = (   0.0344337   0.0516505  -0.1033010), wk =   0.0277778
        k(   59) = (   0.0344337   0.0688673   0.0688673), wk =   0.0277778
        k(   60) = (   0.0344337   0.0688673   0.0860841), wk =   0.0555556
[...]
        k(   70) = (   0.0516505   0.0688673   0.0860841), wk =   0.0555556
        k(   71) = (   0.0516505   0.0688673  -0.1033010), wk =   0.0277778
        k(   72) = (   0.0516505   0.0860841   0.0860841), wk =   0.0277778
        k(   73) = (   0.0516505   0.0860841  -0.1033010), wk =   0.0277778
        k(   74) = (   0.0516505  -0.1033010  -0.1033010), wk =   0.0069444
        k(   75) = (   0.0688673   0.0688673   0.0688673), wk =   0.0092593
        k(   76) = (   0.0688673   0.0688673   0.0860841), wk =   0.0277778
        k(   77) = (   0.0688673   0.0688673  -0.1033010), wk =   0.0138889
        k(   78) = (   0.0688673   0.0860841   0.0860841), wk =   0.0277778
        k(   79) = (   0.0688673   0.0860841  -0.1033010), wk =   0.0277778
        k(   80) = (   0.0688673  -0.1033010  -0.1033010), wk =   0.0069444
        k(   81) = (   0.0860841   0.0860841   0.0860841), wk =   0.0092593
        k(   82) = (   0.0860841   0.0860841  -0.1033010), wk =   0.0138889
        k(   83) = (   0.0860841  -0.1033010  -0.1033010), wk =   0.0069444
        k(   84) = (  -0.1033010  -0.1033010  -0.1033010), wk =   0.0011574

     Largest allocated arrays     est. size (Mb)     dimensions
     Largest temporary arrays     est. size (Mb)     dimensions

     Initial potential from superposition of free atoms

     starting charge   45.98655, renormalised to   47.00000

     *
     * You are using vdW-DF for exchange-correlation in this calculation.
     * Please cite the following three references that made this development
     * possible:
     *
     *   M. Dion, H. Rydberg, E. Schroder, D. C. Langreth, and
     *   B. I. Lundqvist, Phys. Rev. Lett. 92, 246401 (2004).
     *
     *   T. Thonhauser, V. R. Cooper, S. Li, A. Puzder, P. Hyldgaard, and
     *   D. C. Langreth, Phys. Rev. B 76, 125112 (2007).
     *
     *   G. Roman-Perez and J. M. Soler, Phys. Rev. Lett. 103, 096102 (2009).
     *
     *
     * If you are using vdW-DF2, please also cite:
     *
     *   K. Lee, E. D. Murray, L. Kong, B. I. Lundqvist, and
     *   D. C. Langreth, Phys. Rev. B 82, 081101(R) (2010).
     *
     *
     * If you are calculating the stress with vdW-DF, please also cite:
     *
     *   R. Sabatini, E. Kucukbenli, B. Kolb, T. Thonhauser, and
     *   S. de Gironcoli, J. Phys.: Condens. Matter 24, 424209 (2012).
     *

     Carrying out vdW-DF run using the following parameters:

     Nqs =      20    Nr_points =    1024   r_max =   100.000
     q_mesh =
               0.00001000     0.04494208     0.09755937     0.15916263
               0.23128650     0.31572767     0.41458969     0.53033537
               0.66584808     0.82450364     1.01025438     1.22772762
               1.48234092     1.78043706     2.12944203     2.53805004
               3.01644009     3.57652955     4.23227104     5.00000000

     Gradients computed in reciprocal space

     Starting wfc are   48 randomized atomic wfcs

     Self-consistent Calculation

     iteration #  1     ecut=    58.80 Ry     beta=0.10
     Davidson diagonalization with overlap
     ethr =  1.00E-02,  avg # of iterations =  4.5

     Threshold (ethr) on eigenvalues was too large:
     Diagonalizing with lowered threshold

     Davidson diagonalization with overlap
     ethr =  4.84E-04,  avg # of iterations =  1.5

     total energy              =    -442.06706156 Ry
     Harris-Foulkes estimate   =    -442.07949562 Ry
     estimated scf accuracy    <       0.21846100 Ry

[...]

     total energy              =    -441.99090443 Ry
     Harris-Foulkes estimate   =    -441.99089233 Ry
     estimated scf accuracy    <       0.00000005 Ry

     iteration # 13     ecut=    58.80 Ry     beta=0.10
     Davidson diagonalization with overlap
     ethr =  4.93E-11,  avg # of iterations =  3.1

     End of self-consistent calculation

          k = 0.0000 0.0000 0.0000 (  5743 PWs)   bands (ev):

   -31.9532 -31.8411 -31.8411 -12.1537 -12.1537 -12.1537 -11.8277 -11.8277
   -11.8277 -11.5842 -11.5842 -11.5842 -10.3366 -10.3366 -10.3366 -10.3311
   -10.3311   2.9492   8.1011   9.8344   9.8344  10.4170  10.4170  10.4170
    10.6485  10.6485  10.6485  13.4016  13.8345  13.8345  13.8345  15.6138
    15.6138  16.6271  17.0585  17.0585  17.0585  17.1393  17.1393  17.1393
    19.9662  19.9663  20.2600

[...]

          k = 0.0861-0.1033-0.1033 (  5868 PWs)   bands (ev):

[...]

          k =-0.1033-0.1033-0.1033 (  5832 PWs)   bands (ev):

   -31.8777 -31.8777 -31.8777 -12.3060 -12.1378 -12.1378 -12.1378 -11.6405
   -11.6405 -11.6405 -11.5706 -11.5706 -10.3373 -10.3373 -10.3373 -10.3257
   -10.3257   3.8734   9.3586   9.3586   9.3586   9.4131   9.4131   9.4131
    12.0133  12.5130  12.5130  12.5130  13.5810  13.5810  13.5810  13.9723
    14.4884  14.4884  16.6393  16.6393  16.6393  18.8821  18.8821  18.8821
    19.5370  19.5370  19.5370

     the Fermi energy is    11.0367 ev

!    total energy              =    -441.99095299 Ry
     Harris-Foulkes estimate   =    -441.99090444 Ry
     estimated scf accuracy    <          3.6E-10 Ry

     The total energy is the sum of the following terms:

     one-electron contribution =    -110.16594003 Ry
     hartree contribution      =      76.25589324 Ry
     xc contribution           =    -129.58317040 Ry
     ewald contribution        =    -278.48396803 Ry
     smearing contrib. (-TS)   =      -0.01376777 Ry

     convergence has been achieved in  13 iterations

     Forces acting on atoms (Ry/au):

     atom    1 type  1   force =     0.00000000    0.00000000    0.00000000
     atom    2 type  1   force =     0.00000000    0.00000000    0.00000000
     atom    3 type  1   force =     0.00000000    0.00000000   -0.00000000
     atom    4 type  2   force =     0.00000000    0.00000000    0.00000000

     Total force =     0.000000     Total SCF correction =     0.000000
 !ASE

     General routines

     Parallel routines

   This run was terminated on:   7:27: 9  25Oct2017

   JOB DONE.