     Program PWSCF v.5.1rc2 (svn rev. ) starts on 25Oct2017 at 23: 7:25

     Current dimensions of program PWSCF are:
     Max number of different atomic species (ntypx) = 10
     Max number of k-points (npk) =  40000
     Max angular momentum in pseudopotentials (lmaxx) =  3

     IMPORTANT: XC functional enforced from input :
     Exchange-correlation      = BEEF-VDW ( 1  4 27 13 2)
     Any further DFT definition will be discarded
     Please, verify this is what you really want

     Subspace diagonalization in iterative solution of the eigenvalue problem:
     a serial algorithm will be used

     bravais-lattice index     =            0
     lattice parameter (alat)  =       1.8897  a.u.
     unit-cell volume          =     479.8413 (a.u.)^3
     number of atoms/cell      =            4
     number of atomic types    =            2
     number of electrons       =        56.00
     number of Kohn-Sham states=           48
     kinetic-energy cutoff     =      58.7989  Ry
     charge density cutoff     =     587.9892  Ry
     convergence threshold     =      7.3E-09
     mixing beta               =       0.1000
     number of iterations used =           10  local-TF  mixing
     Exchange-correlation      = BEEF-VDW ( 1  4 27 13 2)
     nstep                     =           50

     celldm(1)=   1.889726  celldm(2)=   0.000000  celldm(3)=   0.000000
     celldm(4)=   0.000000  celldm(5)=   0.000000  celldm(6)=   0.000000

     crystal axes: (cart. coord. in units of alat)
               a(1) = (   4.142861   0.000000   0.000000 )
               a(2) = (   0.000000   4.142861   0.000000 )
               a(3) = (   0.000000   0.000000   4.142861 )

     reciprocal axes: (cart. coord. in units 2 pi/alat)
               b(1) = (  0.241379  0.000000  0.000000 )
               b(2) = (  0.000000  0.241379  0.000000 )
               b(3) = (  0.000000  0.000000  0.241379 )

     PseudoPot. # 1 for W  read from file:
     /home/vossj/suncat/psp/gbrv1.5pbe/W.UPF
     MD5 check sum: 9c083fa34c2a2ea0f02f1f893e16e1c8
     Pseudo is Ultrasoft + core correction, Zval = 14.0
     Generated by new atomic code, or converted to UPF format
     Using radial grid of  923 points,  8 beta functions with:
                l(1) =   0
                l(2) =   0
                l(3) =   0
                l(4) =   1
                l(5) =   1
                l(6) =   2
                l(7) =   2
                l(8) =   3
     Q(r) pseudized with  6 coefficients,  rinner =    1.350   1.350   1.350
                                                       1.350   1.350   1.350
                                                       1.350

     PseudoPot. # 2 for Pb read from file:
     /home/vossj/suncat/psp/gbrv1.5pbe/Pb.UPF
     MD5 check sum: 3d1c1779aa92214d1e8f3a7db79003e2
     Pseudo is Ultrasoft + core correction, Zval = 14.0
     Generated by new atomic code, or converted to UPF format
     Using radial grid of  899 points,  6 beta functions with:
                l(1) =   0
                l(2) =   0
                l(3) =   1
                l(4) =   1
                l(5) =   2
                l(6) =   2
     Q(r) pseudized with  6 coefficients,  rinner =    1.000   1.000   1.000
                                                       1.000   1.000

     vdW kernel table read from file vdW_kernel_table
     MD5 check sum: 095c7af220d748ca6e76c0b4c6cfb241

     atomic species   valence    mass     pseudopotential
        W1            14.00   183.84000     W ( 1.00)
        Pb1           14.00   207.20000     Pb( 1.00)

     48 Sym. Ops., with inversion, found (32 have fractional translation)

   Cartesian axes

     site n.     atom                  positions (alat units)
         1           W1  tau(   1) = (   0.0000000   0.0000000   0.0000000  )
         2           W1  tau(   2) = (   0.0000000   2.0714303   2.0714303  )
         3           W1  tau(   3) = (   2.0714303   0.0000000   2.0714303  )
         4           Pb1 tau(   4) = (   2.0714303   2.0714303   0.0000000  )

     number of k points=    84  Fermi-Dirac smearing, width (Ry)=  0.0073
                       cart. coord. in units 2pi/alat
        k(    1) = (   0.0000000   0.0000000   0.0000000), wk =   0.0011574
        k(    2) = (   0.0000000   0.0000000   0.0201149), wk =   0.0069444
        k(    3) = (   0.0000000   0.0000000   0.0402299), wk =   0.0069444
        k(    4) = (   0.0000000   0.0000000   0.0603448), wk =   0.0069444
        k(    5) = (   0.0000000   0.0000000   0.0804597), wk =   0.0069444
        k(    6) = (   0.0000000   0.0000000   0.1005746), wk =   0.0069444
        k(    7) = (   0.0000000   0.0000000  -0.1206896), wk =   0.0034722
        k(    8) = (   0.0000000   0.0201149   0.0201149), wk =   0.0138889
        k(    9) = (   0.0000000   0.0201149   0.0402299), wk =   0.0277778
        k(   10) = (   0.0000000   0.0201149   0.0603448), wk =   0.0277778
        k(   11) = (   0.0000000   0.0201149   0.0804597), wk =   0.0277778
        k(   12) = (   0.0000000   0.0201149   0.1005746), wk =   0.0277778
        k(   13) = (   0.0000000   0.0201149  -0.1206896), wk =   0.0138889
        k(   14) = (   0.0000000   0.0402299   0.0402299), wk =   0.0138889
        k(   15) = (   0.0000000   0.0402299   0.0603448), wk =   0.0277778
        k(   16) = (   0.0000000   0.0402299   0.0804597), wk =   0.0277778
        k(   17) = (   0.0000000   0.0402299   0.1005746), wk =   0.0277778
        k(   18) = (   0.0000000   0.0402299  -0.1206896), wk =   0.0138889
        k(   19) = (   0.0000000   0.0603448   0.0603448), wk =   0.0138889
        k(   20) = (   0.0000000   0.0603448   0.0804597), wk =   0.0277778
        k(   21) = (   0.0000000   0.0603448   0.1005746), wk =   0.0277778
        k(   22) = (   0.0000000   0.0603448  -0.1206896), wk =   0.0138889
        k(   23) = (   0.0000000   0.0804597   0.0804597), wk =   0.0138889
        k(   24) = (   0.0000000   0.0804597   0.1005746), wk =   0.0277778
        k(   25) = (   0.0000000   0.0804597  -0.1206896), wk =   0.0138889
        k(   26) = (   0.0000000   0.1005746   0.1005746), wk =   0.0138889
        k(   27) = (   0.0000000   0.1005746  -0.1206896), wk =   0.0138889
        k(   28) = (   0.0000000  -0.1206896  -0.1206896), wk =   0.0034722
        k(   29) = (   0.0201149   0.0201149   0.0201149), wk =   0.0092593
        k(   30) = (   0.0201149   0.0201149   0.0402299), wk =   0.0277778
        k(   31) = (   0.0201149   0.0201149   0.0603448), wk =   0.0277778
        k(   32) = (   0.0201149   0.0201149   0.0804597), wk =   0.0277778
        k(   33) = (   0.0201149   0.0201149   0.1005746), wk =   0.0277778
        k(   34) = (   0.0201149   0.0201149  -0.1206896), wk =   0.0138889
        k(   35) = (   0.0201149   0.0402299   0.0402299), wk =   0.0277778
        k(   36) = (   0.0201149   0.0402299   0.0603448), wk =   0.0555556
        k(   37) = (   0.0201149   0.0402299   0.0804597), wk =   0.0555556
        k(   38) = (   0.0201149   0.0402299   0.1005746), wk =   0.0555556
        k(   39) = (   0.0201149   0.0402299  -0.1206896), wk =   0.0277778
        k(   40) = (   0.0201149   0.0603448   0.0603448), wk =   0.0277778
        k(   41) = (   0.0201149   0.0603448   0.0804597), wk =   0.0555556
        k(   42) = (   0.0201149   0.0603448   0.1005746), wk =   0.0555556
        k(   43) = (   0.0201149   0.0603448  -0.1206896), wk =   0.0277778
        k(   44) = (   0.0201149   0.0804597   0.0804597), wk =   0.0277778
        k(   45) = (   0.0201149   0.0804597   0.1005746), wk =   0.0555556
        k(   46) = (   0.0201149   0.0804597  -0.1206896), wk =   0.0277778
        k(   47) = (   0.0201149   0.1005746   0.1005746), wk =   0.0277778
        k(   48) = (   0.0201149   0.1005746  -0.1206896), wk =   0.0277778
        k(   49) = (   0.0201149  -0.1206896  -0.1206896), wk =   0.0069444
        k(   50) = (   0.0402299   0.0402299   0.0402299), wk =   0.0092593
        k(   51) = (   0.0402299   0.0402299   0.0603448), wk =   0.0277778
        k(   52) = (   0.0402299   0.0402299   0.0804597), wk =   0.0277778
        k(   53) = (   0.0402299   0.0402299   0.1005746), wk =   0.0277778
        k(   54) = (   0.0402299   0.0402299  -0.1206896), wk =   0.0138889
        k(   55) = (   0.0402299   0.0603448   0.0603448), wk =   0.0277778
        k(   56) = (   0.0402299   0.0603448   0.0804597), wk =   0.0555556
        k(   57) = (   0.0402299   0.0603448   0.1005746), wk =   0.0555556
        k(   58) = (   0.0402299   0.0603448  -0.1206896), wk =   0.0277778
        k(   59) = (   0.0402299   0.0804597   0.0804597), wk =   0.0277778
        k(   60) = (   0.0402299   0.0804597   0.1005746), wk =   0.0555556
[...]
        k(   70) = (   0.0603448   0.0804597   0.1005746), wk =   0.0555556
        k(   71) = (   0.0603448   0.0804597  -0.1206896), wk =   0.0277778
        k(   72) = (   0.0603448   0.1005746   0.1005746), wk =   0.0277778
        k(   73) = (   0.0603448   0.1005746  -0.1206896), wk =   0.0277778
        k(   74) = (   0.0603448  -0.1206896  -0.1206896), wk =   0.0069444
        k(   75) = (   0.0804597   0.0804597   0.0804597), wk =   0.0092593
        k(   76) = (   0.0804597   0.0804597   0.1005746), wk =   0.0277778
        k(   77) = (   0.0804597   0.0804597  -0.1206896), wk =   0.0138889
        k(   78) = (   0.0804597   0.1005746   0.1005746), wk =   0.0277778
        k(   79) = (   0.0804597   0.1005746  -0.1206896), wk =   0.0277778
        k(   80) = (   0.0804597  -0.1206896  -0.1206896), wk =   0.0069444
        k(   81) = (   0.1005746   0.1005746   0.1005746), wk =   0.0092593
        k(   82) = (   0.1005746   0.1005746  -0.1206896), wk =   0.0138889
        k(   83) = (   0.1005746  -0.1206896  -0.1206896), wk =   0.0069444
        k(   84) = (  -0.1206896  -0.1206896  -0.1206896), wk =   0.0011574

     Largest allocated arrays     est. size (Mb)     dimensions
     Largest temporary arrays     est. size (Mb)     dimensions

     Initial potential from superposition of free atoms
     Check: negative starting charge=   -0.201897

     starting charge   55.69663, renormalised to   56.00000

     negative rho (up, down):  2.030E-01 0.000E+00

     *
     * You are using vdW-DF for exchange-correlation in this calculation.
     * Please cite the following three references that made this development
     * possible:
     *
     *   M. Dion, H. Rydberg, E. Schroder, D. C. Langreth, and
     *   B. I. Lundqvist, Phys. Rev. Lett. 92, 246401 (2004).
     *
     *   T. Thonhauser, V. R. Cooper, S. Li, A. Puzder, P. Hyldgaard, and
     *   D. C. Langreth, Phys. Rev. B 76, 125112 (2007).
     *
     *   G. Roman-Perez and J. M. Soler, Phys. Rev. Lett. 103, 096102 (2009).
     *
     *
     * If you are using vdW-DF2, please also cite:
     *
     *   K. Lee, E. D. Murray, L. Kong, B. I. Lundqvist, and
     *   D. C. Langreth, Phys. Rev. B 82, 081101(R) (2010).
     *
     *
     * If you are calculating the stress with vdW-DF, please also cite:
     *
     *   R. Sabatini, E. Kucukbenli, B. Kolb, T. Thonhauser, and
     *   S. de Gironcoli, J. Phys.: Condens. Matter 24, 424209 (2012).
     *

     Carrying out vdW-DF run using the following parameters:

     Nqs =      20    Nr_points =    1024   r_max =   100.000
     q_mesh =
               0.00001000     0.04494208     0.09755937     0.15916263
               0.23128650     0.31572767     0.41458969     0.53033537
               0.66584808     0.82450364     1.01025438     1.22772762
               1.48234092     1.78043706     2.12944203     2.53805004
               3.01644009     3.57652955     4.23227104     5.00000000

     Gradients computed in reciprocal space

     Starting wfc are   48 randomized atomic wfcs

     Self-consistent Calculation

     iteration #  1     ecut=    58.80 Ry     beta=0.10
     Davidson diagonalization with overlap
     ethr =  1.00E-02,  avg # of iterations =  4.5

     Threshold (ethr) on eigenvalues was too large:
     Diagonalizing with lowered threshold

     Davidson diagonalization with overlap
     ethr =  2.84E-04,  avg # of iterations =  1.1

[...]

     total energy              =    -647.25092400 Ry
     Harris-Foulkes estimate   =    -647.25615212 Ry
     estimated scf accuracy    <       0.15963569 Ry

[...]

     total energy              =    -647.21440107 Ry
     Harris-Foulkes estimate   =    -647.21437980 Ry
     estimated scf accuracy    <       0.00000002 Ry

     iteration # 13     ecut=    58.80 Ry     beta=0.10
     Davidson diagonalization with overlap
     ethr =  3.91E-11,  avg # of iterations =  1.0

     negative rho (up, down):  2.256E-01 0.000E+00

     End of self-consistent calculation

          k = 0.0000 0.0000 0.0000 (  3743 PWs)   bands (ev):

   -54.4866 -54.4149 -54.4149 -18.8322 -18.8322 -18.8322 -18.5380 -18.5380
   -18.5380 -18.2243 -18.2243 -18.2243   2.3584   2.3584   2.3852   2.3852
     2.3852   7.9344  14.1662  16.2347  16.2347  16.6365  16.6365  16.6365
    19.2370  19.2370  19.2370  20.7904  20.7904  20.7904  22.7476  22.7476
    22.8301  23.8741  24.7264  24.7264  24.7264  27.8090  27.8090  27.8090
    29.7036  29.7036  30.0903  30.0903  30.0903  30.5395  31.6309  36.3427

[...]

          k = 0.1006-0.1207-0.1207 (  3624 PWs)   bands (ev):

[...]

          k =-0.1207-0.1207-0.1207 (  3648 PWs)   bands (ev):

   -54.4385 -54.4385 -54.4385 -18.9186 -18.8451 -18.8451 -18.8451 -18.3417
   -18.3417 -18.3417 -18.1840 -18.1840   2.3542   2.3542   2.3542   2.4946
     2.4946   9.7905  15.5168  15.5168  15.5168  17.0648  17.0648  17.0648
    18.7890  18.7890  18.7890  20.0996  20.6118  20.6118  20.6118  21.5322
    21.5322  22.5002  24.0222  24.0222  24.0222  27.4857  27.4857  27.4857
    30.5276  30.8421  30.8421  30.8421  31.5241  33.7704  33.7704  33.7704

     the Fermi energy is    20.4157 ev

!    total energy              =    -647.21449172 Ry
     Harris-Foulkes estimate   =    -647.21440107 Ry
     estimated scf accuracy    <          3.8E-09 Ry

     The total energy is the sum of the following terms:

     one-electron contribution =     -65.20863065 Ry
     hartree contribution      =      70.50367781 Ry
     xc contribution           =    -193.36280292 Ry
     ewald contribution        =    -459.13790088 Ry
     smearing contrib. (-TS)   =      -0.00883507 Ry

     convergence has been achieved in  13 iterations

     Forces acting on atoms (Ry/au):

     negative rho (up, down):  2.256E-01 0.000E+00
     atom    1 type  1   force =     0.00000000    0.00000000    0.00000000
     atom    2 type  1   force =     0.00000000    0.00000000    0.00000000
     atom    3 type  1   force =     0.00000000    0.00000000    0.00000000
     atom    4 type  2   force =     0.00000000    0.00000000    0.00000000

     Total force =     0.000000     Total SCF correction =     0.000000
 !ASE

     General routines

     Parallel routines

   This run was terminated on:  23: 8:34  25Oct2017

   JOB DONE.