     Program PWSCF v.5.1rc2 (svn rev. ) starts on 26Oct2017 at  2: 0:51

     Current dimensions of program PWSCF are:
     Max number of different atomic species (ntypx) = 10
     Max number of k-points (npk) =  40000
     Max angular momentum in pseudopotentials (lmaxx) =  3

     IMPORTANT: XC functional enforced from input :
     Exchange-correlation      = BEEF-VDW ( 1  4 27 13 2)
     Any further DFT definition will be discarded
     Please, verify this is what you really want

     Subspace diagonalization in iterative solution of the eigenvalue problem:
     a serial algorithm will be used

     bravais-lattice index     =            0
     lattice parameter (alat)  =       1.8897  a.u.
     unit-cell volume          =     426.8688 (a.u.)^3
     number of atoms/cell      =            4
     number of atomic types    =            2
     number of electrons       =        61.00
     number of Kohn-Sham states=           50
     kinetic-energy cutoff     =      58.7989  Ry
     charge density cutoff     =     587.9892  Ry
     convergence threshold     =      7.3E-09
     mixing beta               =       0.1000
     number of iterations used =           10  local-TF  mixing
     Exchange-correlation      = BEEF-VDW ( 1  4 27 13 2)
     nstep                     =           50

     celldm(1)=   1.889726  celldm(2)=   0.000000  celldm(3)=   0.000000
     celldm(4)=   0.000000  celldm(5)=   0.000000  celldm(6)=   0.000000

     crystal axes: (cart. coord. in units of alat)
               a(1) = (   3.984428   0.000000   0.000000 )
               a(2) = (   0.000000   3.984428   0.000000 )
               a(3) = (   0.000000   0.000000   3.984428 )

     reciprocal axes: (cart. coord. in units 2 pi/alat)
               b(1) = (  0.250977  0.000000  0.000000 )
               b(2) = (  0.000000  0.250977  0.000000 )
               b(3) = (  0.000000  0.000000  0.250977 )

     PseudoPot. # 1 for W  read from file:
     /home/vossj/suncat/psp/gbrv1.5pbe/W.UPF
     MD5 check sum: 9c083fa34c2a2ea0f02f1f893e16e1c8
     Pseudo is Ultrasoft + core correction, Zval = 14.0
     Generated by new atomic code, or converted to UPF format
     Using radial grid of  923 points,  8 beta functions with:
                l(1) =   0
                l(2) =   0
                l(3) =   0
                l(4) =   1
                l(5) =   1
                l(6) =   2
                l(7) =   2
                l(8) =   3
     Q(r) pseudized with  6 coefficients,  rinner =    1.350   1.350   1.350
                                                       1.350   1.350   1.350
                                                       1.350

     PseudoPot. # 2 for Ga read from file:
     /home/vossj/suncat/psp/gbrv1.5pbe/Ga.UPF
     MD5 check sum: ccd671392a58a050fbb373893b4fcd66
     Pseudo is Ultrasoft + core correction, Zval = 19.0
     Generated by new atomic code, or converted to UPF format
     Using radial grid of  871 points,  6 beta functions with:
                l(1) =   0
                l(2) =   0
                l(3) =   1
                l(4) =   1
                l(5) =   2
                l(6) =   2
     Q(r) pseudized with  8 coefficients,  rinner =    1.250   1.250   1.250
                                                       1.250   1.250

     vdW kernel table read from file vdW_kernel_table
     MD5 check sum: 095c7af220d748ca6e76c0b4c6cfb241

     atomic species   valence    mass     pseudopotential
        W1            14.00   183.84000     W ( 1.00)
        Ga1           19.00    69.72300     Ga( 1.00)

     48 Sym. Ops., with inversion, found (32 have fractional translation)

   Cartesian axes

     site n.     atom                  positions (alat units)
         1           W1  tau(   1) = (   0.0000000   0.0000000   0.0000000  )
         2           W1  tau(   2) = (   0.0000000   1.9922139   1.9922139  )
         3           W1  tau(   3) = (   1.9922139   0.0000000   1.9922139  )
         4           Ga1 tau(   4) = (   1.9922139   1.9922139   0.0000000  )

     number of k points=    84  Fermi-Dirac smearing, width (Ry)=  0.0073
                       cart. coord. in units 2pi/alat
        k(    1) = (   0.0000000   0.0000000   0.0000000), wk =   0.0011574
        k(    2) = (   0.0000000   0.0000000   0.0209148), wk =   0.0069444
        k(    3) = (   0.0000000   0.0000000   0.0418295), wk =   0.0069444
        k(    4) = (   0.0000000   0.0000000   0.0627443), wk =   0.0069444
        k(    5) = (   0.0000000   0.0000000   0.0836590), wk =   0.0069444
        k(    6) = (   0.0000000   0.0000000   0.1045738), wk =   0.0069444
        k(    7) = (   0.0000000   0.0000000  -0.1254885), wk =   0.0034722
        k(    8) = (   0.0000000   0.0209148   0.0209148), wk =   0.0138889
        k(    9) = (   0.0000000   0.0209148   0.0418295), wk =   0.0277778
        k(   10) = (   0.0000000   0.0209148   0.0627443), wk =   0.0277778
        k(   11) = (   0.0000000   0.0209148   0.0836590), wk =   0.0277778
        k(   12) = (   0.0000000   0.0209148   0.1045738), wk =   0.0277778
        k(   13) = (   0.0000000   0.0209148  -0.1254885), wk =   0.0138889
        k(   14) = (   0.0000000   0.0418295   0.0418295), wk =   0.0138889
        k(   15) = (   0.0000000   0.0418295   0.0627443), wk =   0.0277778
        k(   16) = (   0.0000000   0.0418295   0.0836590), wk =   0.0277778
        k(   17) = (   0.0000000   0.0418295   0.1045738), wk =   0.0277778
        k(   18) = (   0.0000000   0.0418295  -0.1254885), wk =   0.0138889
        k(   19) = (   0.0000000   0.0627443   0.0627443), wk =   0.0138889
        k(   20) = (   0.0000000   0.0627443   0.0836590), wk =   0.0277778
        k(   21) = (   0.0000000   0.0627443   0.1045738), wk =   0.0277778
        k(   22) = (   0.0000000   0.0627443  -0.1254885), wk =   0.0138889
        k(   23) = (   0.0000000   0.0836590   0.0836590), wk =   0.0138889
        k(   24) = (   0.0000000   0.0836590   0.1045738), wk =   0.0277778
        k(   25) = (   0.0000000   0.0836590  -0.1254885), wk =   0.0138889
        k(   26) = (   0.0000000   0.1045738   0.1045738), wk =   0.0138889
        k(   27) = (   0.0000000   0.1045738  -0.1254885), wk =   0.0138889
        k(   28) = (   0.0000000  -0.1254885  -0.1254885), wk =   0.0034722
        k(   29) = (   0.0209148   0.0209148   0.0209148), wk =   0.0092593
        k(   30) = (   0.0209148   0.0209148   0.0418295), wk =   0.0277778
        k(   31) = (   0.0209148   0.0209148   0.0627443), wk =   0.0277778
        k(   32) = (   0.0209148   0.0209148   0.0836590), wk =   0.0277778
        k(   33) = (   0.0209148   0.0209148   0.1045738), wk =   0.0277778
        k(   34) = (   0.0209148   0.0209148  -0.1254885), wk =   0.0138889
        k(   35) = (   0.0209148   0.0418295   0.0418295), wk =   0.0277778
        k(   36) = (   0.0209148   0.0418295   0.0627443), wk =   0.0555556
        k(   37) = (   0.0209148   0.0418295   0.0836590), wk =   0.0555556
        k(   38) = (   0.0209148   0.0418295   0.1045738), wk =   0.0555556
        k(   39) = (   0.0209148   0.0418295  -0.1254885), wk =   0.0277778
        k(   40) = (   0.0209148   0.0627443   0.0627443), wk =   0.0277778
        k(   41) = (   0.0209148   0.0627443   0.0836590), wk =   0.0555556
        k(   42) = (   0.0209148   0.0627443   0.1045738), wk =   0.0555556
        k(   43) = (   0.0209148   0.0627443  -0.1254885), wk =   0.0277778
        k(   44) = (   0.0209148   0.0836590   0.0836590), wk =   0.0277778
        k(   45) = (   0.0209148   0.0836590   0.1045738), wk =   0.0555556
        k(   46) = (   0.0209148   0.0836590  -0.1254885), wk =   0.0277778
        k(   47) = (   0.0209148   0.1045738   0.1045738), wk =   0.0277778
        k(   48) = (   0.0209148   0.1045738  -0.1254885), wk =   0.0277778
        k(   49) = (   0.0209148  -0.1254885  -0.1254885), wk =   0.0069444
        k(   50) = (   0.0418295   0.0418295   0.0418295), wk =   0.0092593
        k(   51) = (   0.0418295   0.0418295   0.0627443), wk =   0.0277778
        k(   52) = (   0.0418295   0.0418295   0.0836590), wk =   0.0277778
        k(   53) = (   0.0418295   0.0418295   0.1045738), wk =   0.0277778
        k(   54) = (   0.0418295   0.0418295  -0.1254885), wk =   0.0138889
        k(   55) = (   0.0418295   0.0627443   0.0627443), wk =   0.0277778
        k(   56) = (   0.0418295   0.0627443   0.0836590), wk =   0.0555556
        k(   57) = (   0.0418295   0.0627443   0.1045738), wk =   0.0555556
        k(   58) = (   0.0418295   0.0627443  -0.1254885), wk =   0.0277778
        k(   59) = (   0.0418295   0.0836590   0.0836590), wk =   0.0277778
        k(   60) = (   0.0418295   0.0836590   0.1045738), wk =   0.0555556
[...]
        k(   70) = (   0.0627443   0.0836590   0.1045738), wk =   0.0555556
        k(   71) = (   0.0627443   0.0836590  -0.1254885), wk =   0.0277778
        k(   72) = (   0.0627443   0.1045738   0.1045738), wk =   0.0277778
        k(   73) = (   0.0627443   0.1045738  -0.1254885), wk =   0.0277778
        k(   74) = (   0.0627443  -0.1254885  -0.1254885), wk =   0.0069444
        k(   75) = (   0.0836590   0.0836590   0.0836590), wk =   0.0092593
        k(   76) = (   0.0836590   0.0836590   0.1045738), wk =   0.0277778
        k(   77) = (   0.0836590   0.0836590  -0.1254885), wk =   0.0138889
        k(   78) = (   0.0836590   0.1045738   0.1045738), wk =   0.0277778
        k(   79) = (   0.0836590   0.1045738  -0.1254885), wk =   0.0277778
        k(   80) = (   0.0836590  -0.1254885  -0.1254885), wk =   0.0069444
        k(   81) = (   0.1045738   0.1045738   0.1045738), wk =   0.0092593
        k(   82) = (   0.1045738   0.1045738  -0.1254885), wk =   0.0138889
        k(   83) = (   0.1045738  -0.1254885  -0.1254885), wk =   0.0069444
        k(   84) = (  -0.1254885  -0.1254885  -0.1254885), wk =   0.0011574

     Largest allocated arrays     est. size (Mb)     dimensions
     Largest temporary arrays     est. size (Mb)     dimensions

     Initial potential from superposition of free atoms
     Check: negative starting charge=   -0.186826

     starting charge   59.69898, renormalised to   61.00000

     negative rho (up, down):  1.909E-01 0.000E+00

     *
     * You are using vdW-DF for exchange-correlation in this calculation.
     * Please cite the following three references that made this development
     * possible:
     *
     *   M. Dion, H. Rydberg, E. Schroder, D. C. Langreth, and
     *   B. I. Lundqvist, Phys. Rev. Lett. 92, 246401 (2004).
     *
     *   T. Thonhauser, V. R. Cooper, S. Li, A. Puzder, P. Hyldgaard, and
     *   D. C. Langreth, Phys. Rev. B 76, 125112 (2007).
     *
     *   G. Roman-Perez and J. M. Soler, Phys. Rev. Lett. 103, 096102 (2009).
     *
     *
     * If you are using vdW-DF2, please also cite:
     *
     *   K. Lee, E. D. Murray, L. Kong, B. I. Lundqvist, and
     *   D. C. Langreth, Phys. Rev. B 82, 081101(R) (2010).
     *
     *
     * If you are calculating the stress with vdW-DF, please also cite:
     *
     *   R. Sabatini, E. Kucukbenli, B. Kolb, T. Thonhauser, and
     *   S. de Gironcoli, J. Phys.: Condens. Matter 24, 424209 (2012).
     *

     Carrying out vdW-DF run using the following parameters:

     Nqs =      20    Nr_points =    1024   r_max =   100.000
     q_mesh =
               0.00001000     0.04494208     0.09755937     0.15916263
               0.23128650     0.31572767     0.41458969     0.53033537
               0.66584808     0.82450364     1.01025438     1.22772762
               1.48234092     1.78043706     2.12944203     2.53805004
               3.01644009     3.57652955     4.23227104     5.00000000

     Gradients computed in reciprocal space

     Starting wfc are   51 randomized atomic wfcs

     Self-consistent Calculation

     iteration #  1     ecut=    58.80 Ry     beta=0.10
     Davidson diagonalization with overlap
     ethr =  1.00E-02,  avg # of iterations =  4.1

[...]

     total energy              =    -898.32321006 Ry
     Harris-Foulkes estimate   =    -898.42093998 Ry
     estimated scf accuracy    <       1.43691062 Ry

[...]

     total energy              =    -897.99931111 Ry
     Harris-Foulkes estimate   =    -897.99931069 Ry
     estimated scf accuracy    <       0.00000012 Ry

     iteration # 13     ecut=    58.80 Ry     beta=0.10
     Davidson diagonalization with overlap
     ethr =  2.03E-10,  avg # of iterations =  2.0

     negative rho (up, down):  2.056E-01 0.000E+00

     End of self-consistent calculation

          k = 0.0000 0.0000 0.0000 (  3239 PWs)   bands (ev):

   -74.3809 -74.3809 -74.3809 -54.3128 -54.1925 -54.1925 -18.7809 -18.7809
   -18.7809 -18.2962 -18.2962 -18.2962 -17.9403 -17.9403 -17.9403   5.2028
     5.2028   5.2153   5.2153   5.2153   9.5331  13.7488  16.0000  16.0000
    16.2814  16.2814  16.2814  20.4011  20.4011  20.4011  21.1379  21.1379
    21.1379  23.4266  23.4266  24.8851  25.3998  25.7425  25.7425  25.7425
    28.9368  28.9368  28.9368  31.4677  31.4677  32.6410  32.6410  32.6410
    33.6191  38.5776

[...]

          k = 0.1046-0.1255-0.1255 (  3244 PWs)   bands (ev):

[...]

          k =-0.1255-0.1255-0.1255 (  3184 PWs)   bands (ev):

   -74.3809 -74.3809 -74.3809 -54.2321 -54.2321 -54.2321 -19.0142 -18.7427
   -18.7427 -18.7427 -18.0147 -18.0147 -18.0147 -17.9333 -17.9333   5.2014
     5.2014   5.2014   5.2717   5.2717  11.8788  15.2211  15.2211  15.2211
    18.1691  18.1691  18.1691  18.9714  18.9714  18.9714  20.6598  20.8292
    20.8292  20.8292  22.0957  22.0957  24.4577  24.9626  24.9626  24.9626
    29.0142  29.0142  29.0142  32.7876  32.7876  32.7876  33.0099  34.6582
    34.6582  34.6582

     the Fermi energy is    20.4137 ev

!    total energy              =    -897.99931318 Ry
     Harris-Foulkes estimate   =    -897.99931113 Ry
     estimated scf accuracy    <          1.6E-10 Ry

     The total energy is the sum of the following terms:

     one-electron contribution =    -370.43902531 Ry
     hartree contribution      =     222.32561118 Ry
     xc contribution           =    -177.81594711 Ry
     ewald contribution        =    -572.06428964 Ry
     smearing contrib. (-TS)   =      -0.00566230 Ry

     convergence has been achieved in  13 iterations

     Forces acting on atoms (Ry/au):

     negative rho (up, down):  2.056E-01 0.000E+00
     atom    1 type  1   force =     0.00000000    0.00000000    0.00000000
     atom    2 type  1   force =     0.00000000    0.00000000    0.00000000
     atom    3 type  1   force =     0.00000000    0.00000000   -0.00000000
     atom    4 type  2   force =     0.00000000    0.00000000    0.00000000

     Total force =     0.000000     Total SCF correction =     0.000000
 !ASE

     General routines

     Parallel routines

   This run was terminated on:   2: 1:50  26Oct2017

   JOB DONE.