     Program PWSCF v.5.1rc2 (svn rev. ) starts on 27Jan2018 at 13:19:36

     Current dimensions of program PWSCF are:
     Max number of different atomic species (ntypx) = 10
     Max number of k-points (npk) =  40000
     Max angular momentum in pseudopotentials (lmaxx) =  3

     IMPORTANT: XC functional enforced from input :
     Exchange-correlation      = BEEF-VDW ( 1  4 27 13 2)
     Any further DFT definition will be discarded
     Please, verify this is what you really want

     Subspace diagonalization in iterative solution of the eigenvalue problem:
     a serial algorithm will be used

     Found symmetry operation: I + ( -0.5000 -0.5000 -0.5000)
     This is a supercell, fractional translations are disabled

     bravais-lattice index     =            0
     lattice parameter (alat)  =       1.8897  a.u.
     unit-cell volume          =     259.3102 (a.u.)^3
     number of atoms/cell      =            2
     number of atomic types    =            1
     number of electrons       =        26.00
     number of Kohn-Sham states=           23
     kinetic-energy cutoff     =      58.7989  Ry
     charge density cutoff     =     587.9892  Ry
     convergence threshold     =      7.3E-07
     mixing beta               =       0.2000
     number of iterations used =           10  plain     mixing
     Exchange-correlation      = BEEF-VDW ( 1  4 27 13 2)

     celldm(1)=   1.889726  celldm(2)=   0.000000  celldm(3)=   0.000000
     celldm(4)=   0.000000  celldm(5)=   0.000000  celldm(6)=   0.000000

     crystal axes: (cart. coord. in units of alat)
               a(1) = (   3.374486   0.000000   0.000000 )
               a(2) = (   0.000000   3.374486   0.000000 )
               a(3) = (   0.000000   0.000000   3.374486 )

     reciprocal axes: (cart. coord. in units 2 pi/alat)
               b(1) = (  0.296341  0.000000  0.000000 )
               b(2) = (  0.000000  0.296341  0.000000 )
               b(3) = (  0.000000  0.000000  0.296341 )

     PseudoPot. # 1 for V  read from file:
     /home/vossj/suncat/psp/gbrv1.5pbe/V.UPF
     MD5 check sum: 22b79981416ebb76fdaf5b1b8640f6fb
     Pseudo is Ultrasoft + core correction, Zval = 13.0
     Generated by new atomic code, or converted to UPF format
     Using radial grid of  853 points,  6 beta functions with:
                l(1) =   0
                l(2) =   0
                l(3) =   1
                l(4) =   1
                l(5) =   2
                l(6) =   2
     Q(r) pseudized with  8 coefficients,  rinner =    1.100   1.100   1.100
                                                       1.100   1.100

     vdW kernel table read from file vdW_kernel_table
     MD5 check sum: 095c7af220d748ca6e76c0b4c6cfb241

     atomic species   valence    mass     pseudopotential
        V1            13.00    50.94150     V ( 1.00)

     48 Sym. Ops., with inversion, found

   Cartesian axes

     site n.     atom                  positions (alat units)
         1           V1  tau(   1) = (   0.0000000   0.0000000   0.0000000  )
         2           V1  tau(   2) = (   1.6872432   1.6872432   1.6872432  )

     number of k points=    84  Fermi-Dirac smearing, width (Ry)=  0.0073
                       cart. coord. in units 2pi/alat
        k(    1) = (   0.0000000   0.0000000   0.0000000), wk =   0.0011574
        k(    2) = (   0.0000000   0.0000000   0.0246951), wk =   0.0069444
        k(    3) = (   0.0000000   0.0000000   0.0493902), wk =   0.0069444
        k(    4) = (   0.0000000   0.0000000   0.0740853), wk =   0.0069444
        k(    5) = (   0.0000000   0.0000000   0.0987805), wk =   0.0069444
        k(    6) = (   0.0000000   0.0000000   0.1234756), wk =   0.0069444
        k(    7) = (   0.0000000   0.0000000  -0.1481707), wk =   0.0034722
        k(    8) = (   0.0000000   0.0246951   0.0246951), wk =   0.0138889
        k(    9) = (   0.0000000   0.0246951   0.0493902), wk =   0.0277778
        k(   10) = (   0.0000000   0.0246951   0.0740853), wk =   0.0277778
        k(   11) = (   0.0000000   0.0246951   0.0987805), wk =   0.0277778
        k(   12) = (   0.0000000   0.0246951   0.1234756), wk =   0.0277778
        k(   13) = (   0.0000000   0.0246951  -0.1481707), wk =   0.0138889
        k(   14) = (   0.0000000   0.0493902   0.0493902), wk =   0.0138889
        k(   15) = (   0.0000000   0.0493902   0.0740853), wk =   0.0277778
        k(   16) = (   0.0000000   0.0493902   0.0987805), wk =   0.0277778
        k(   17) = (   0.0000000   0.0493902   0.1234756), wk =   0.0277778
        k(   18) = (   0.0000000   0.0493902  -0.1481707), wk =   0.0138889
        k(   19) = (   0.0000000   0.0740853   0.0740853), wk =   0.0138889
        k(   20) = (   0.0000000   0.0740853   0.0987805), wk =   0.0277778
        k(   21) = (   0.0000000   0.0740853   0.1234756), wk =   0.0277778
        k(   22) = (   0.0000000   0.0740853  -0.1481707), wk =   0.0138889
        k(   23) = (   0.0000000   0.0987805   0.0987805), wk =   0.0138889
        k(   24) = (   0.0000000   0.0987805   0.1234756), wk =   0.0277778
        k(   25) = (   0.0000000   0.0987805  -0.1481707), wk =   0.0138889
        k(   26) = (   0.0000000   0.1234756   0.1234756), wk =   0.0138889
        k(   27) = (   0.0000000   0.1234756  -0.1481707), wk =   0.0138889
        k(   28) = (   0.0000000  -0.1481707  -0.1481707), wk =   0.0034722
        k(   29) = (   0.0246951   0.0246951   0.0246951), wk =   0.0092593
        k(   30) = (   0.0246951   0.0246951   0.0493902), wk =   0.0277778
        k(   31) = (   0.0246951   0.0246951   0.0740853), wk =   0.0277778
        k(   32) = (   0.0246951   0.0246951   0.0987805), wk =   0.0277778
        k(   33) = (   0.0246951   0.0246951   0.1234756), wk =   0.0277778
        k(   34) = (   0.0246951   0.0246951  -0.1481707), wk =   0.0138889
        k(   35) = (   0.0246951   0.0493902   0.0493902), wk =   0.0277778
        k(   36) = (   0.0246951   0.0493902   0.0740853), wk =   0.0555556
        k(   37) = (   0.0246951   0.0493902   0.0987805), wk =   0.0555556
        k(   38) = (   0.0246951   0.0493902   0.1234756), wk =   0.0555556
        k(   39) = (   0.0246951   0.0493902  -0.1481707), wk =   0.0277778
        k(   40) = (   0.0246951   0.0740853   0.0740853), wk =   0.0277778
        k(   41) = (   0.0246951   0.0740853   0.0987805), wk =   0.0555556
        k(   42) = (   0.0246951   0.0740853   0.1234756), wk =   0.0555556
        k(   43) = (   0.0246951   0.0740853  -0.1481707), wk =   0.0277778
        k(   44) = (   0.0246951   0.0987805   0.0987805), wk =   0.0277778
        k(   45) = (   0.0246951   0.0987805   0.1234756), wk =   0.0555556
        k(   46) = (   0.0246951   0.0987805  -0.1481707), wk =   0.0277778
        k(   47) = (   0.0246951   0.1234756   0.1234756), wk =   0.0277778
        k(   48) = (   0.0246951   0.1234756  -0.1481707), wk =   0.0277778
        k(   49) = (   0.0246951  -0.1481707  -0.1481707), wk =   0.0069444
        k(   50) = (   0.0493902   0.0493902   0.0493902), wk =   0.0092593
        k(   51) = (   0.0493902   0.0493902   0.0740853), wk =   0.0277778
        k(   52) = (   0.0493902   0.0493902   0.0987805), wk =   0.0277778
        k(   53) = (   0.0493902   0.0493902   0.1234756), wk =   0.0277778
        k(   54) = (   0.0493902   0.0493902  -0.1481707), wk =   0.0138889
        k(   55) = (   0.0493902   0.0740853   0.0740853), wk =   0.0277778
        k(   56) = (   0.0493902   0.0740853   0.0987805), wk =   0.0555556
        k(   57) = (   0.0493902   0.0740853   0.1234756), wk =   0.0555556
        k(   58) = (   0.0493902   0.0740853  -0.1481707), wk =   0.0277778
        k(   59) = (   0.0493902   0.0987805   0.0987805), wk =   0.0277778
        k(   60) = (   0.0493902   0.0987805   0.1234756), wk =   0.0555556
[...]
        k(   70) = (   0.0740853   0.0987805   0.1234756), wk =   0.0555556
        k(   71) = (   0.0740853   0.0987805  -0.1481707), wk =   0.0277778
        k(   72) = (   0.0740853   0.1234756   0.1234756), wk =   0.0277778
        k(   73) = (   0.0740853   0.1234756  -0.1481707), wk =   0.0277778
        k(   74) = (   0.0740853  -0.1481707  -0.1481707), wk =   0.0069444
        k(   75) = (   0.0987805   0.0987805   0.0987805), wk =   0.0092593
        k(   76) = (   0.0987805   0.0987805   0.1234756), wk =   0.0277778
        k(   77) = (   0.0987805   0.0987805  -0.1481707), wk =   0.0138889
        k(   78) = (   0.0987805   0.1234756   0.1234756), wk =   0.0277778
        k(   79) = (   0.0987805   0.1234756  -0.1481707), wk =   0.0277778
        k(   80) = (   0.0987805  -0.1481707  -0.1481707), wk =   0.0069444
        k(   81) = (   0.1234756   0.1234756   0.1234756), wk =   0.0092593
        k(   82) = (   0.1234756   0.1234756  -0.1481707), wk =   0.0138889
        k(   83) = (   0.1234756  -0.1481707  -0.1481707), wk =   0.0069444
        k(   84) = (  -0.1481707  -0.1481707  -0.1481707), wk =   0.0011574

     Largest allocated arrays     est. size (Mb)     dimensions
     Largest temporary arrays     est. size (Mb)     dimensions

     Check: negative/imaginary core charge=   -0.000003    0.000000

     Initial potential from superposition of free atoms
     Check: negative starting charge=   -0.000914

     starting charge   25.99755, renormalised to   26.00000

     negative rho (up, down):  9.143E-04 0.000E+00

     *
     * You are using vdW-DF for exchange-correlation in this calculation.
     * Please cite the following three references that made this development
     * possible:
     *
     *   M. Dion, H. Rydberg, E. Schroder, D. C. Langreth, and
     *   B. I. Lundqvist, Phys. Rev. Lett. 92, 246401 (2004).
     *
     *   T. Thonhauser, V. R. Cooper, S. Li, A. Puzder, P. Hyldgaard, and
     *   D. C. Langreth, Phys. Rev. B 76, 125112 (2007).
     *
     *   G. Roman-Perez and J. M. Soler, Phys. Rev. Lett. 103, 096102 (2009).
     *
     *
     * If you are using vdW-DF2, please also cite:
     *
     *   K. Lee, E. D. Murray, L. Kong, B. I. Lundqvist, and
     *   D. C. Langreth, Phys. Rev. B 82, 081101(R) (2010).
     *
     *
     * If you are calculating the stress with vdW-DF, please also cite:
     *
     *   R. Sabatini, E. Kucukbenli, B. Kolb, T. Thonhauser, and
     *   S. de Gironcoli, J. Phys.: Condens. Matter 24, 424209 (2012).
     *

     Carrying out vdW-DF run using the following parameters:

     Nqs =      20    Nr_points =    1024   r_max =   100.000
     q_mesh =
               0.00001000     0.04494208     0.09755937     0.15916263
               0.23128650     0.31572767     0.41458969     0.53033537
               0.66584808     0.82450364     1.01025438     1.22772762
               1.48234092     1.78043706     2.12944203     2.53805004
               3.01644009     3.57652955     4.23227104     5.00000000

     Gradients computed in reciprocal space

     Starting wfc are   20 randomized atomic wfcs +    3 random wfc

     Self-consistent Calculation

     iteration #  1     ecut=    58.80 Ry     beta=0.20
     Davidson diagonalization with overlap
     ethr =  1.00E-02,  avg # of iterations =  3.2

     Threshold (ethr) on eigenvalues was too large:
     Diagonalizing with lowered threshold

     Davidson diagonalization with overlap
     ethr =  1.97E-04,  avg # of iterations =  1.0

[...]

     total energy              =    -291.48374274 Ry
     Harris-Foulkes estimate   =    -291.49656856 Ry
     estimated scf accuracy    <       0.05160729 Ry

[...]

     total energy              =    -291.48797865 Ry
     Harris-Foulkes estimate   =    -291.48797862 Ry
     estimated scf accuracy    <       0.00000225 Ry

     iteration #  8     ecut=    58.80 Ry     beta=0.20
     Davidson diagonalization with overlap
     ethr =  8.66E-09,  avg # of iterations =  1.0

     negative rho (up, down):  1.012E-03 0.000E+00

     End of self-consistent calculation

          k = 0.0000 0.0000 0.0000 (  1935 PWs)   bands (ev):

   -53.8680 -53.7916 -27.6694 -27.6694 -27.6694 -27.4744 -27.4744 -27.4744
     4.9234   8.7594   8.7594  10.7386  10.7386  10.7386  12.0097  12.0097
    12.7092  12.7092  12.7092  18.0217  18.0217  18.0217  23.1291

[...]

          k = 0.1235-0.1482-0.1482 (  1952 PWs)   bands (ev):

[...]

          k =-0.1482-0.1482-0.1482 (  1904 PWs)   bands (ev):

   -53.8215 -53.8215 -27.6061 -27.6061 -27.6061 -27.6061 -27.6061 -27.6061
     9.7020   9.7020   9.7020   9.7020   9.7020   9.7020  12.2205  12.2205
    12.2205  12.2205  17.8342  17.8342  17.8342  17.8342  17.8342

     the Fermi energy is    10.4945 ev

!    total energy              =    -291.48797912 Ry
     Harris-Foulkes estimate   =    -291.48797875 Ry
     estimated scf accuracy    <       0.00000057 Ry

     The total energy is the sum of the following terms:

     one-electron contribution =    -129.92877905 Ry
     hartree contribution      =      71.72258410 Ry
     xc contribution           =     -40.37453732 Ry
     ewald contribution        =    -192.89460108 Ry
     smearing contrib. (-TS)   =      -0.01264577 Ry

     convergence has been achieved in   8 iterations

     Forces acting on atoms (Ry/au):

     negative rho (up, down):  1.012E-03 0.000E+00
     atom    1 type  1   force =     0.00000000    0.00000000   -0.00000000
     atom    2 type  1   force =     0.00000000    0.00000000   -0.00000000

     Total force =     0.000000     Total SCF correction =     0.000000

     General routines

     Parallel routines

   This run was terminated on:  13:19:46  27Jan2018

   JOB DONE.