     Program PWSCF v.5.1rc2 (svn rev. ) starts on 24Oct2017 at 20:57:41

     Current dimensions of program PWSCF are:
     Max number of different atomic species (ntypx) = 10
     Max number of k-points (npk) =  40000
     Max angular momentum in pseudopotentials (lmaxx) =  3

     IMPORTANT: XC functional enforced from input :
     Exchange-correlation      = BEEF-VDW ( 1  4 27 13 2)
     Any further DFT definition will be discarded
     Please, verify this is what you really want

     Subspace diagonalization in iterative solution of the eigenvalue problem:
     a serial algorithm will be used

     bravais-lattice index     =            0
     lattice parameter (alat)  =       1.8897  a.u.
     unit-cell volume          =     428.6585 (a.u.)^3
     number of atoms/cell      =            4
     number of atomic types    =            2
     number of electrons       =        58.00
     number of Kohn-Sham states=           49
     kinetic-energy cutoff     =      58.7989  Ry
     charge density cutoff     =     587.9892  Ry
     convergence threshold     =      7.3E-09
     mixing beta               =       0.1000
     number of iterations used =           10  local-TF  mixing
     Exchange-correlation      = BEEF-VDW ( 1  4 27 13 2)
     nstep                     =           50

     celldm(1)=   1.889726  celldm(2)=   0.000000  celldm(3)=   0.000000
     celldm(4)=   0.000000  celldm(5)=   0.000000  celldm(6)=   0.000000

     crystal axes: (cart. coord. in units of alat)
               a(1) = (   3.989988   0.000000   0.000000 )
               a(2) = (   0.000000   3.989988   0.000000 )
               a(3) = (   0.000000   0.000000   3.989988 )

     reciprocal axes: (cart. coord. in units 2 pi/alat)
               b(1) = (  0.250627  0.000000  0.000000 )
               b(2) = (  0.000000  0.250627  0.000000 )
               b(3) = (  0.000000  0.000000  0.250627 )

     PseudoPot. # 1 for W  read from file:
     /home/vossj/suncat/psp/gbrv1.5pbe/W.UPF
     MD5 check sum: 9c083fa34c2a2ea0f02f1f893e16e1c8
     Pseudo is Ultrasoft + core correction, Zval = 14.0
     Generated by new atomic code, or converted to UPF format
     Using radial grid of  923 points,  8 beta functions with:
                l(1) =   0
                l(2) =   0
                l(3) =   0
                l(4) =   1
                l(5) =   1
                l(6) =   2
                l(7) =   2
                l(8) =   3
     Q(r) pseudized with  6 coefficients,  rinner =    1.350   1.350   1.350
                                                       1.350   1.350   1.350
                                                       1.350

     PseudoPot. # 2 for Os read from file:
     /home/vossj/suncat/psp/gbrv1.5pbe/Os.UPF
     MD5 check sum: a3fb40a04f0c37c25c34bbc47164c9a8
     Pseudo is Ultrasoft + core correction, Zval = 16.0
     Generated by new atomic code, or converted to UPF format
     Using radial grid of  983 points,  8 beta functions with:
                l(1) =   0
                l(2) =   0
                l(3) =   1
                l(4) =   1
                l(5) =   2
                l(6) =   2
                l(7) =   3
                l(8) =   3
     Q(r) pseudized with  8 coefficients,  rinner =    1.150   1.150   1.150
                                                       1.150   1.150   1.150
                                                       1.150

     vdW kernel table read from file vdW_kernel_table
     MD5 check sum: 095c7af220d748ca6e76c0b4c6cfb241

     atomic species   valence    mass     pseudopotential
        W1            14.00   183.84000     W ( 1.00)
        Os1           16.00   190.23000     Os( 1.00)

     48 Sym. Ops., with inversion, found (32 have fractional translation)

   Cartesian axes

     site n.     atom                  positions (alat units)
         1           W1  tau(   1) = (   0.0000000   0.0000000   0.0000000  )
         2           W1  tau(   2) = (   0.0000000   1.9949942   1.9949942  )
         3           W1  tau(   3) = (   1.9949942   0.0000000   1.9949942  )
         4           Os1 tau(   4) = (   1.9949942   1.9949942   0.0000000  )

     number of k points=    84  Fermi-Dirac smearing, width (Ry)=  0.0073
                       cart. coord. in units 2pi/alat
        k(    1) = (   0.0000000   0.0000000   0.0000000), wk =   0.0011574
        k(    2) = (   0.0000000   0.0000000   0.0208856), wk =   0.0069444
        k(    3) = (   0.0000000   0.0000000   0.0417712), wk =   0.0069444
        k(    4) = (   0.0000000   0.0000000   0.0626568), wk =   0.0069444
        k(    5) = (   0.0000000   0.0000000   0.0835424), wk =   0.0069444
        k(    6) = (   0.0000000   0.0000000   0.1044280), wk =   0.0069444
        k(    7) = (   0.0000000   0.0000000  -0.1253136), wk =   0.0034722
        k(    8) = (   0.0000000   0.0208856   0.0208856), wk =   0.0138889
        k(    9) = (   0.0000000   0.0208856   0.0417712), wk =   0.0277778
        k(   10) = (   0.0000000   0.0208856   0.0626568), wk =   0.0277778
        k(   11) = (   0.0000000   0.0208856   0.0835424), wk =   0.0277778
        k(   12) = (   0.0000000   0.0208856   0.1044280), wk =   0.0277778
        k(   13) = (   0.0000000   0.0208856  -0.1253136), wk =   0.0138889
        k(   14) = (   0.0000000   0.0417712   0.0417712), wk =   0.0138889
        k(   15) = (   0.0000000   0.0417712   0.0626568), wk =   0.0277778
        k(   16) = (   0.0000000   0.0417712   0.0835424), wk =   0.0277778
        k(   17) = (   0.0000000   0.0417712   0.1044280), wk =   0.0277778
        k(   18) = (   0.0000000   0.0417712  -0.1253136), wk =   0.0138889
        k(   19) = (   0.0000000   0.0626568   0.0626568), wk =   0.0138889
        k(   20) = (   0.0000000   0.0626568   0.0835424), wk =   0.0277778
        k(   21) = (   0.0000000   0.0626568   0.1044280), wk =   0.0277778
        k(   22) = (   0.0000000   0.0626568  -0.1253136), wk =   0.0138889
        k(   23) = (   0.0000000   0.0835424   0.0835424), wk =   0.0138889
        k(   24) = (   0.0000000   0.0835424   0.1044280), wk =   0.0277778
        k(   25) = (   0.0000000   0.0835424  -0.1253136), wk =   0.0138889
        k(   26) = (   0.0000000   0.1044280   0.1044280), wk =   0.0138889
        k(   27) = (   0.0000000   0.1044280  -0.1253136), wk =   0.0138889
        k(   28) = (   0.0000000  -0.1253136  -0.1253136), wk =   0.0034722
        k(   29) = (   0.0208856   0.0208856   0.0208856), wk =   0.0092593
        k(   30) = (   0.0208856   0.0208856   0.0417712), wk =   0.0277778
        k(   31) = (   0.0208856   0.0208856   0.0626568), wk =   0.0277778
        k(   32) = (   0.0208856   0.0208856   0.0835424), wk =   0.0277778
        k(   33) = (   0.0208856   0.0208856   0.1044280), wk =   0.0277778
        k(   34) = (   0.0208856   0.0208856  -0.1253136), wk =   0.0138889
        k(   35) = (   0.0208856   0.0417712   0.0417712), wk =   0.0277778
        k(   36) = (   0.0208856   0.0417712   0.0626568), wk =   0.0555556
        k(   37) = (   0.0208856   0.0417712   0.0835424), wk =   0.0555556
        k(   38) = (   0.0208856   0.0417712   0.1044280), wk =   0.0555556
        k(   39) = (   0.0208856   0.0417712  -0.1253136), wk =   0.0277778
        k(   40) = (   0.0208856   0.0626568   0.0626568), wk =   0.0277778
        k(   41) = (   0.0208856   0.0626568   0.0835424), wk =   0.0555556
        k(   42) = (   0.0208856   0.0626568   0.1044280), wk =   0.0555556
        k(   43) = (   0.0208856   0.0626568  -0.1253136), wk =   0.0277778
        k(   44) = (   0.0208856   0.0835424   0.0835424), wk =   0.0277778
        k(   45) = (   0.0208856   0.0835424   0.1044280), wk =   0.0555556
        k(   46) = (   0.0208856   0.0835424  -0.1253136), wk =   0.0277778
        k(   47) = (   0.0208856   0.1044280   0.1044280), wk =   0.0277778
        k(   48) = (   0.0208856   0.1044280  -0.1253136), wk =   0.0277778
        k(   49) = (   0.0208856  -0.1253136  -0.1253136), wk =   0.0069444
        k(   50) = (   0.0417712   0.0417712   0.0417712), wk =   0.0092593
        k(   51) = (   0.0417712   0.0417712   0.0626568), wk =   0.0277778
        k(   52) = (   0.0417712   0.0417712   0.0835424), wk =   0.0277778
        k(   53) = (   0.0417712   0.0417712   0.1044280), wk =   0.0277778
        k(   54) = (   0.0417712   0.0417712  -0.1253136), wk =   0.0138889
        k(   55) = (   0.0417712   0.0626568   0.0626568), wk =   0.0277778
        k(   56) = (   0.0417712   0.0626568   0.0835424), wk =   0.0555556
        k(   57) = (   0.0417712   0.0626568   0.1044280), wk =   0.0555556
        k(   58) = (   0.0417712   0.0626568  -0.1253136), wk =   0.0277778
        k(   59) = (   0.0417712   0.0835424   0.0835424), wk =   0.0277778
        k(   60) = (   0.0417712   0.0835424   0.1044280), wk =   0.0555556
[...]
        k(   70) = (   0.0626568   0.0835424   0.1044280), wk =   0.0555556
        k(   71) = (   0.0626568   0.0835424  -0.1253136), wk =   0.0277778
        k(   72) = (   0.0626568   0.1044280   0.1044280), wk =   0.0277778
        k(   73) = (   0.0626568   0.1044280  -0.1253136), wk =   0.0277778
        k(   74) = (   0.0626568  -0.1253136  -0.1253136), wk =   0.0069444
        k(   75) = (   0.0835424   0.0835424   0.0835424), wk =   0.0092593
        k(   76) = (   0.0835424   0.0835424   0.1044280), wk =   0.0277778
        k(   77) = (   0.0835424   0.0835424  -0.1253136), wk =   0.0138889
        k(   78) = (   0.0835424   0.1044280   0.1044280), wk =   0.0277778
        k(   79) = (   0.0835424   0.1044280  -0.1253136), wk =   0.0277778
        k(   80) = (   0.0835424  -0.1253136  -0.1253136), wk =   0.0069444
        k(   81) = (   0.1044280   0.1044280   0.1044280), wk =   0.0092593
        k(   82) = (   0.1044280   0.1044280  -0.1253136), wk =   0.0138889
        k(   83) = (   0.1044280  -0.1253136  -0.1253136), wk =   0.0069444
        k(   84) = (  -0.1253136  -0.1253136  -0.1253136), wk =   0.0011574

     Largest allocated arrays     est. size (Mb)     dimensions
     Largest temporary arrays     est. size (Mb)     dimensions

     Initial potential from superposition of free atoms
     Check: negative starting charge=   -0.308909

     starting charge   57.19894, renormalised to   58.00000

     negative rho (up, down):  3.132E-01 0.000E+00

     *
     * You are using vdW-DF for exchange-correlation in this calculation.
     * Please cite the following three references that made this development
     * possible:
     *
     *   M. Dion, H. Rydberg, E. Schroder, D. C. Langreth, and
     *   B. I. Lundqvist, Phys. Rev. Lett. 92, 246401 (2004).
     *
     *   T. Thonhauser, V. R. Cooper, S. Li, A. Puzder, P. Hyldgaard, and
     *   D. C. Langreth, Phys. Rev. B 76, 125112 (2007).
     *
     *   G. Roman-Perez and J. M. Soler, Phys. Rev. Lett. 103, 096102 (2009).
     *
     *
     * If you are using vdW-DF2, please also cite:
     *
     *   K. Lee, E. D. Murray, L. Kong, B. I. Lundqvist, and
     *   D. C. Langreth, Phys. Rev. B 82, 081101(R) (2010).
     *
     *
     * If you are calculating the stress with vdW-DF, please also cite:
     *
     *   R. Sabatini, E. Kucukbenli, B. Kolb, T. Thonhauser, and
     *   S. de Gironcoli, J. Phys.: Condens. Matter 24, 424209 (2012).
     *

     Carrying out vdW-DF run using the following parameters:

     Nqs =      20    Nr_points =    1024   r_max =   100.000
     q_mesh =
               0.00001000     0.04494208     0.09755937     0.15916263
               0.23128650     0.31572767     0.41458969     0.53033537
               0.66584808     0.82450364     1.01025438     1.22772762
               1.48234092     1.78043706     2.12944203     2.53805004
               3.01644009     3.57652955     4.23227104     5.00000000

     Gradients computed in reciprocal space

     Starting wfc are   52 randomized atomic wfcs

     Self-consistent Calculation

     iteration #  1     ecut=    58.80 Ry     beta=0.10
     Davidson diagonalization with overlap
     ethr =  1.00E-02,  avg # of iterations =  4.0

     Threshold (ethr) on eigenvalues was too large:
     Diagonalizing with lowered threshold

     Davidson diagonalization with overlap
     ethr =  6.70E-04,  avg # of iterations =  1.3

[...]

     total energy              =    -681.33384475 Ry
     Harris-Foulkes estimate   =    -681.35272010 Ry
     estimated scf accuracy    <       0.39025085 Ry

[...]

     total energy              =    -681.25174380 Ry
     Harris-Foulkes estimate   =    -681.25174359 Ry
     estimated scf accuracy    <       0.00000020 Ry

     iteration # 13     ecut=    58.80 Ry     beta=0.10
     Davidson diagonalization with overlap
     ethr =  3.45E-10,  avg # of iterations =  1.0

     negative rho (up, down):  3.301E-01 0.000E+00

     End of self-consistent calculation

          k = 0.0000 0.0000 0.0000 (  3239 PWs)   bands (ev):

   -64.2679 -52.2292 -52.1113 -52.1113 -23.5473 -23.5473 -23.5473 -16.6791
   -16.6791 -16.6791 -16.1938 -16.1938 -16.1938 -15.8646 -15.8646 -15.8646
    12.7006  16.0759  16.0759  16.1559  16.9697  16.9697  16.9697  20.8228
    20.8228  20.8228  23.6552  23.6552  24.8655  24.8655  24.8655  26.2227
    26.2227  26.4122  26.4122  26.4122  27.0170  27.7914  27.7914  27.7914
    33.4767  33.4767  33.4767  34.0858  34.1469  34.1469  34.1469  35.0730
    35.0730

[...]

          k = 0.1044-0.1253-0.1253 (  3256 PWs)   bands (ev):

[...]

          k =-0.1253-0.1253-0.1253 (  3184 PWs)   bands (ev):

   -64.2676 -52.1502 -52.1502 -52.1502 -23.5575 -23.5575 -23.5575 -16.9511
   -16.6063 -16.6063 -16.6063 -15.9157 -15.9157 -15.9157 -15.8831 -15.8831
    15.8904  16.0309  16.0309  16.0309  20.0216  20.0216  20.5767  20.5767
    20.5767  21.0784  21.0784  21.0784  22.3596  22.3596  22.3596  22.6223
    25.8961  25.8961  25.8961  26.1431  26.1431  27.0449  27.0449  27.0449
    31.4808  32.1606  32.1606  32.1606  34.5863  34.6475  34.6475  34.6475
    40.4429

     the Fermi energy is    21.9540 ev

!    total energy              =    -681.25174495 Ry
     Harris-Foulkes estimate   =    -681.25174383 Ry
     estimated scf accuracy    <          3.3E-09 Ry

     The total energy is the sum of the following terms:

     one-electron contribution =     -76.09306058 Ry
     hartree contribution      =      73.81197170 Ry
     xc contribution           =    -166.67551551 Ry
     ewald contribution        =    -512.28659254 Ry
     smearing contrib. (-TS)   =      -0.00854800 Ry

     convergence has been achieved in  13 iterations

     Forces acting on atoms (Ry/au):

     negative rho (up, down):  3.301E-01 0.000E+00
     atom    1 type  1   force =     0.00000000    0.00000000    0.00000000
     atom    2 type  1   force =     0.00000000    0.00000000    0.00000000
     atom    3 type  1   force =     0.00000000    0.00000000   -0.00000000
     atom    4 type  2   force =     0.00000000    0.00000000    0.00000000

     Total force =     0.000000     Total SCF correction =     0.000000
 !ASE

     General routines

     Parallel routines

   This run was terminated on:  20:58:43  24Oct2017

   JOB DONE.