     Program PWSCF v.5.1rc2 (svn rev. ) starts on 31Oct2017 at 16:16:19

     Current dimensions of program PWSCF are:
     Max number of different atomic species (ntypx) = 10
     Max number of k-points (npk) =  40000
     Max angular momentum in pseudopotentials (lmaxx) =  3

     IMPORTANT: XC functional enforced from input :
     Exchange-correlation      = BEEF-VDW ( 1  4 27 13 2)
     Any further DFT definition will be discarded
     Please, verify this is what you really want

     Subspace diagonalization in iterative solution of the eigenvalue problem:
     a serial algorithm will be used

     bravais-lattice index     =            0
     lattice parameter (alat)  =       1.8897  a.u.
     unit-cell volume          =     676.1974 (a.u.)^3
     number of atoms/cell      =            4
     number of atomic types    =            2
     number of electrons       =        50.00
     number of Kohn-Sham states=           45
     kinetic-energy cutoff     =      58.7989  Ry
     charge density cutoff     =     587.9892  Ry
     convergence threshold     =      7.3E-09
     mixing beta               =       0.1000
     number of iterations used =           10  local-TF  mixing
     Exchange-correlation      = BEEF-VDW ( 1  4 27 13 2)
     nstep                     =           50

     celldm(1)=   1.889726  celldm(2)=   0.000000  celldm(3)=   0.000000
     celldm(4)=   0.000000  celldm(5)=   0.000000  celldm(6)=   0.000000

     crystal axes: (cart. coord. in units of alat)
               a(1) = (   4.644714   0.000000   0.000000 )
               a(2) = (   0.000000   4.644714   0.000000 )
               a(3) = (   0.000000   0.000000   4.644714 )

     reciprocal axes: (cart. coord. in units 2 pi/alat)
               b(1) = (  0.215299  0.000000  0.000000 )
               b(2) = (  0.000000  0.215299  0.000000 )
               b(3) = (  0.000000  0.000000  0.215299 )

     PseudoPot. # 1 for Y  read from file:
     /home/vossj/suncat/psp/gbrv1.5pbe/Y.UPF
     MD5 check sum: d034151ed7554c50b6e82763ed42c788
     Pseudo is Ultrasoft + core correction, Zval = 11.0
     Generated by new atomic code, or converted to UPF format
     Using radial grid of  885 points,  6 beta functions with:
                l(1) =   0
                l(2) =   0
                l(3) =   1
                l(4) =   1
                l(5) =   2
                l(6) =   2
     Q(r) pseudized with  8 coefficients,  rinner =    1.200   1.200   1.200
                                                       1.200   1.200

     PseudoPot. # 2 for Co read from file:
     /home/vossj/suncat/psp/gbrv1.5pbe/Co.UPF
     MD5 check sum: 5f91765df6ddd3222702df6e7b74a16d
     Pseudo is Ultrasoft + core correction, Zval = 17.0
     Generated by new atomic code, or converted to UPF format
     Using radial grid of  863 points,  6 beta functions with:
                l(1) =   0
                l(2) =   0
                l(3) =   1
                l(4) =   1
                l(5) =   2
                l(6) =   2
     Q(r) pseudized with  8 coefficients,  rinner =    1.200   1.200   1.200
                                                       1.200   1.200

     vdW kernel table read from file vdW_kernel_table
     MD5 check sum: 095c7af220d748ca6e76c0b4c6cfb241

     atomic species   valence    mass     pseudopotential
        Y1            11.00    88.90584     Y ( 1.00)
        Co1           17.00    58.93319     Co( 1.00)

     48 Sym. Ops., with inversion, found (32 have fractional translation)

   Cartesian axes

     site n.     atom                  positions (alat units)
         1           Y1  tau(   1) = (   0.0000000   0.0000000   0.0000000  )
         2           Y1  tau(   2) = (   0.0000000   2.3223570   2.3223570  )
         3           Y1  tau(   3) = (   2.3223570   0.0000000   2.3223570  )
         4           Co1 tau(   4) = (   2.3223570   2.3223570   0.0000000  )

     number of k points=    84  Fermi-Dirac smearing, width (Ry)=  0.0073
                       cart. coord. in units 2pi/alat
        k(    1) = (   0.0000000   0.0000000   0.0000000), wk =   0.0011574
        k(    2) = (   0.0000000   0.0000000   0.0179415), wk =   0.0069444
        k(    3) = (   0.0000000   0.0000000   0.0358831), wk =   0.0069444
        k(    4) = (   0.0000000   0.0000000   0.0538246), wk =   0.0069444
        k(    5) = (   0.0000000   0.0000000   0.0717662), wk =   0.0069444
        k(    6) = (   0.0000000   0.0000000   0.0897077), wk =   0.0069444
        k(    7) = (   0.0000000   0.0000000  -0.1076493), wk =   0.0034722
        k(    8) = (   0.0000000   0.0179415   0.0179415), wk =   0.0138889
        k(    9) = (   0.0000000   0.0179415   0.0358831), wk =   0.0277778
        k(   10) = (   0.0000000   0.0179415   0.0538246), wk =   0.0277778
        k(   11) = (   0.0000000   0.0179415   0.0717662), wk =   0.0277778
        k(   12) = (   0.0000000   0.0179415   0.0897077), wk =   0.0277778
        k(   13) = (   0.0000000   0.0179415  -0.1076493), wk =   0.0138889
        k(   14) = (   0.0000000   0.0358831   0.0358831), wk =   0.0138889
        k(   15) = (   0.0000000   0.0358831   0.0538246), wk =   0.0277778
        k(   16) = (   0.0000000   0.0358831   0.0717662), wk =   0.0277778
        k(   17) = (   0.0000000   0.0358831   0.0897077), wk =   0.0277778
        k(   18) = (   0.0000000   0.0358831  -0.1076493), wk =   0.0138889
        k(   19) = (   0.0000000   0.0538246   0.0538246), wk =   0.0138889
        k(   20) = (   0.0000000   0.0538246   0.0717662), wk =   0.0277778
        k(   21) = (   0.0000000   0.0538246   0.0897077), wk =   0.0277778
        k(   22) = (   0.0000000   0.0538246  -0.1076493), wk =   0.0138889
        k(   23) = (   0.0000000   0.0717662   0.0717662), wk =   0.0138889
        k(   24) = (   0.0000000   0.0717662   0.0897077), wk =   0.0277778
        k(   25) = (   0.0000000   0.0717662  -0.1076493), wk =   0.0138889
        k(   26) = (   0.0000000   0.0897077   0.0897077), wk =   0.0138889
        k(   27) = (   0.0000000   0.0897077  -0.1076493), wk =   0.0138889
        k(   28) = (   0.0000000  -0.1076493  -0.1076493), wk =   0.0034722
        k(   29) = (   0.0179415   0.0179415   0.0179415), wk =   0.0092593
        k(   30) = (   0.0179415   0.0179415   0.0358831), wk =   0.0277778
        k(   31) = (   0.0179415   0.0179415   0.0538246), wk =   0.0277778
        k(   32) = (   0.0179415   0.0179415   0.0717662), wk =   0.0277778
        k(   33) = (   0.0179415   0.0179415   0.0897077), wk =   0.0277778
        k(   34) = (   0.0179415   0.0179415  -0.1076493), wk =   0.0138889
        k(   35) = (   0.0179415   0.0358831   0.0358831), wk =   0.0277778
        k(   36) = (   0.0179415   0.0358831   0.0538246), wk =   0.0555556
        k(   37) = (   0.0179415   0.0358831   0.0717662), wk =   0.0555556
        k(   38) = (   0.0179415   0.0358831   0.0897077), wk =   0.0555556
        k(   39) = (   0.0179415   0.0358831  -0.1076493), wk =   0.0277778
        k(   40) = (   0.0179415   0.0538246   0.0538246), wk =   0.0277778
        k(   41) = (   0.0179415   0.0538246   0.0717662), wk =   0.0555556
        k(   42) = (   0.0179415   0.0538246   0.0897077), wk =   0.0555556
        k(   43) = (   0.0179415   0.0538246  -0.1076493), wk =   0.0277778
        k(   44) = (   0.0179415   0.0717662   0.0717662), wk =   0.0277778
        k(   45) = (   0.0179415   0.0717662   0.0897077), wk =   0.0555556
        k(   46) = (   0.0179415   0.0717662  -0.1076493), wk =   0.0277778
        k(   47) = (   0.0179415   0.0897077   0.0897077), wk =   0.0277778
        k(   48) = (   0.0179415   0.0897077  -0.1076493), wk =   0.0277778
        k(   49) = (   0.0179415  -0.1076493  -0.1076493), wk =   0.0069444
        k(   50) = (   0.0358831   0.0358831   0.0358831), wk =   0.0092593
        k(   51) = (   0.0358831   0.0358831   0.0538246), wk =   0.0277778
        k(   52) = (   0.0358831   0.0358831   0.0717662), wk =   0.0277778
        k(   53) = (   0.0358831   0.0358831   0.0897077), wk =   0.0277778
        k(   54) = (   0.0358831   0.0358831  -0.1076493), wk =   0.0138889
        k(   55) = (   0.0358831   0.0538246   0.0538246), wk =   0.0277778
        k(   56) = (   0.0358831   0.0538246   0.0717662), wk =   0.0555556
        k(   57) = (   0.0358831   0.0538246   0.0897077), wk =   0.0555556
        k(   58) = (   0.0358831   0.0538246  -0.1076493), wk =   0.0277778
        k(   59) = (   0.0358831   0.0717662   0.0717662), wk =   0.0277778
        k(   60) = (   0.0358831   0.0717662   0.0897077), wk =   0.0555556
[...]
        k(   70) = (   0.0538246   0.0717662   0.0897077), wk =   0.0555556
        k(   71) = (   0.0538246   0.0717662  -0.1076493), wk =   0.0277778
        k(   72) = (   0.0538246   0.0897077   0.0897077), wk =   0.0277778
        k(   73) = (   0.0538246   0.0897077  -0.1076493), wk =   0.0277778
        k(   74) = (   0.0538246  -0.1076493  -0.1076493), wk =   0.0069444
        k(   75) = (   0.0717662   0.0717662   0.0717662), wk =   0.0092593
        k(   76) = (   0.0717662   0.0717662   0.0897077), wk =   0.0277778
        k(   77) = (   0.0717662   0.0717662  -0.1076493), wk =   0.0138889
        k(   78) = (   0.0717662   0.0897077   0.0897077), wk =   0.0277778
        k(   79) = (   0.0717662   0.0897077  -0.1076493), wk =   0.0277778
        k(   80) = (   0.0717662  -0.1076493  -0.1076493), wk =   0.0069444
        k(   81) = (   0.0897077   0.0897077   0.0897077), wk =   0.0092593
        k(   82) = (   0.0897077   0.0897077  -0.1076493), wk =   0.0138889
        k(   83) = (   0.0897077  -0.1076493  -0.1076493), wk =   0.0069444
        k(   84) = (  -0.1076493  -0.1076493  -0.1076493), wk =   0.0011574

     Largest allocated arrays     est. size (Mb)     dimensions
     Largest temporary arrays     est. size (Mb)     dimensions

     Check: negative/imaginary core charge=   -0.000010    0.000000

     Initial potential from superposition of free atoms

     starting charge   48.98659, renormalised to   50.00000

     *
     * You are using vdW-DF for exchange-correlation in this calculation.
     * Please cite the following three references that made this development
     * possible:
     *
     *   M. Dion, H. Rydberg, E. Schroder, D. C. Langreth, and
     *   B. I. Lundqvist, Phys. Rev. Lett. 92, 246401 (2004).
     *
     *   T. Thonhauser, V. R. Cooper, S. Li, A. Puzder, P. Hyldgaard, and
     *   D. C. Langreth, Phys. Rev. B 76, 125112 (2007).
     *
     *   G. Roman-Perez and J. M. Soler, Phys. Rev. Lett. 103, 096102 (2009).
     *
     *
     * If you are using vdW-DF2, please also cite:
     *
     *   K. Lee, E. D. Murray, L. Kong, B. I. Lundqvist, and
     *   D. C. Langreth, Phys. Rev. B 82, 081101(R) (2010).
     *
     *
     * If you are calculating the stress with vdW-DF, please also cite:
     *
     *   R. Sabatini, E. Kucukbenli, B. Kolb, T. Thonhauser, and
     *   S. de Gironcoli, J. Phys.: Condens. Matter 24, 424209 (2012).
     *

     Carrying out vdW-DF run using the following parameters:

     Nqs =      20    Nr_points =    1024   r_max =   100.000
     q_mesh =
               0.00001000     0.04494208     0.09755937     0.15916263
               0.23128650     0.31572767     0.41458969     0.53033537
               0.66584808     0.82450364     1.01025438     1.22772762
               1.48234092     1.78043706     2.12944203     2.53805004
               3.01644009     3.57652955     4.23227104     5.00000000

     Gradients computed in reciprocal space

     Starting wfc are   52 randomized atomic wfcs

     Self-consistent Calculation

     iteration #  1     ecut=    58.80 Ry     beta=0.10
     Davidson diagonalization with overlap
     ethr =  1.00E-02,  avg # of iterations =  4.1

     total energy              =    -580.75136396 Ry
     Harris-Foulkes estimate   =    -580.85062502 Ry
     estimated scf accuracy    <       1.40091958 Ry

[...]

     total energy              =    -580.63362362 Ry
     Harris-Foulkes estimate   =    -580.63362221 Ry
     estimated scf accuracy    <       0.00000004 Ry

     iteration # 20     ecut=    58.80 Ry     beta=0.10
     Davidson diagonalization with overlap
     ethr =  2.54E-11,  avg # of iterations =  1.0

     End of self-consistent calculation

          k = 0.0000 0.0000 0.0000 (  5137 PWs)   bands (ev):

   -83.0047 -46.3055 -46.3055 -46.3055 -31.6134 -31.4310 -31.4310 -11.9230
   -11.9230 -11.9230 -11.3786 -11.3786 -11.3786 -11.1315 -11.1315 -11.1315
     6.0718   8.4005   9.3001   9.3001   9.7528   9.7528   9.7528  11.4863
    11.4863  11.4863  12.0551  12.0551  13.8279  13.8279  13.8279  15.0791
    15.0791  15.0791  16.4651  16.4651  17.6932  18.1514  18.1514  18.1514
    19.1584  19.5002  19.5002  19.5002  22.0408

[...]

          k = 0.0897-0.1076-0.1076 (  5136 PWs)   bands (ev):

[...]

          k =-0.1076-0.1076-0.1076 (  5040 PWs)   bands (ev):

   -83.0047 -46.3055 -46.3055 -46.3055 -31.4904 -31.4904 -31.4904 -12.2525
   -11.8178 -11.8178 -11.8178 -11.1885 -11.1885 -11.1142 -11.1142 -11.1142
     8.1389   9.1922   9.1922   9.1922  10.6071  10.6071  11.1448  11.1448
    11.1448  12.0871  12.0871  12.0871  12.6992  12.9796  12.9796  12.9796
    14.6534  14.6534  14.6534  15.7766  15.7766  17.6216  17.6216  17.6216
    18.1448  20.6504  20.6504  20.6504  21.5829

     the Fermi energy is    11.2308 ev

!    total energy              =    -580.63362543 Ry
     Harris-Foulkes estimate   =    -580.63362363 Ry
     estimated scf accuracy    <          1.4E-09 Ry

     The total energy is the sum of the following terms:

     one-electron contribution =    -293.80401159 Ry
     hartree contribution      =     165.31777089 Ry
     xc contribution           =    -118.72234187 Ry
     ewald contribution        =    -333.40989607 Ry
     smearing contrib. (-TS)   =      -0.01514678 Ry

     convergence has been achieved in  20 iterations

     Forces acting on atoms (Ry/au):

     atom    1 type  1   force =     0.00000000    0.00000000    0.00000000
     atom    2 type  1   force =     0.00000000    0.00000000    0.00000000
     atom    3 type  1   force =     0.00000000    0.00000000    0.00000000
     atom    4 type  2   force =     0.00000000    0.00000000    0.00000000

     Total force =     0.000000     Total SCF correction =     0.000000
 !ASE

     General routines

     Parallel routines

   This run was terminated on:  16:17:47  31Oct2017

   JOB DONE.