     Program PWSCF v.5.1rc2 (svn rev. ) starts on 25Oct2017 at  2:34: 7

     Current dimensions of program PWSCF are:
     Max number of different atomic species (ntypx) = 10
     Max number of k-points (npk) =  40000
     Max angular momentum in pseudopotentials (lmaxx) =  3

     IMPORTANT: XC functional enforced from input :
     Exchange-correlation      = BEEF-VDW ( 1  4 27 13 2)
     Any further DFT definition will be discarded
     Please, verify this is what you really want

     Subspace diagonalization in iterative solution of the eigenvalue problem:
     a serial algorithm will be used

     bravais-lattice index     =            0
     lattice parameter (alat)  =       1.8897  a.u.
     unit-cell volume          =     555.9273 (a.u.)^3
     number of atoms/cell      =            4
     number of atomic types    =            2
     number of electrons       =        47.00
     number of Kohn-Sham states=           43
     kinetic-energy cutoff     =      58.7989  Ry
     charge density cutoff     =     587.9892  Ry
     convergence threshold     =      7.3E-09
     mixing beta               =       0.1000
     number of iterations used =           10  local-TF  mixing
     Exchange-correlation      = BEEF-VDW ( 1  4 27 13 2)
     nstep                     =           50

     celldm(1)=   1.889726  celldm(2)=   0.000000  celldm(3)=   0.000000
     celldm(4)=   0.000000  celldm(5)=   0.000000  celldm(6)=   0.000000

     crystal axes: (cart. coord. in units of alat)
               a(1) = (   4.351181   0.000000   0.000000 )
               a(2) = (   0.000000   4.351181   0.000000 )
               a(3) = (   0.000000   0.000000   4.351181 )

     reciprocal axes: (cart. coord. in units 2 pi/alat)
               b(1) = (  0.229823  0.000000  0.000000 )
               b(2) = (  0.000000  0.229823  0.000000 )
               b(3) = (  0.000000  0.000000  0.229823 )

     PseudoPot. # 1 for Sc read from file:
     /home/vossj/suncat/psp/gbrv1.5pbe/Sc.UPF
     MD5 check sum: db30a2753ba66ef00f23801d899b7e7f
     Pseudo is Ultrasoft + core correction, Zval = 11.0
     Generated by new atomic code, or converted to UPF format
     Using radial grid of  849 points,  6 beta functions with:
                l(1) =   0
                l(2) =   0
                l(3) =   1
                l(4) =   1
                l(5) =   2
                l(6) =   2
     Q(r) pseudized with  6 coefficients,  rinner =    1.200   1.200   1.200
                                                       1.200   1.200

     PseudoPot. # 2 for W  read from file:
     /home/vossj/suncat/psp/gbrv1.5pbe/W.UPF
     MD5 check sum: 9c083fa34c2a2ea0f02f1f893e16e1c8
     Pseudo is Ultrasoft + core correction, Zval = 14.0
     Generated by new atomic code, or converted to UPF format
     Using radial grid of  923 points,  8 beta functions with:
                l(1) =   0
                l(2) =   0
                l(3) =   0
                l(4) =   1
                l(5) =   1
                l(6) =   2
                l(7) =   2
                l(8) =   3
     Q(r) pseudized with  6 coefficients,  rinner =    1.350   1.350   1.350
                                                       1.350   1.350   1.350
                                                       1.350

     vdW kernel table read from file vdW_kernel_table
     MD5 check sum: 095c7af220d748ca6e76c0b4c6cfb241

     atomic species   valence    mass     pseudopotential
        Sc1           11.00    44.95591     Sc( 1.00)
        W1            14.00   183.84000     W ( 1.00)

     48 Sym. Ops., with inversion, found (32 have fractional translation)

   Cartesian axes

     site n.     atom                  positions (alat units)
         1           Sc1 tau(   1) = (   0.0000000   0.0000000   0.0000000  )
         2           Sc1 tau(   2) = (   0.0000000   2.1755904   2.1755904  )
         3           Sc1 tau(   3) = (   2.1755904   0.0000000   2.1755904  )
         4           W1  tau(   4) = (   2.1755904   2.1755904   0.0000000  )

     number of k points=    84  Fermi-Dirac smearing, width (Ry)=  0.0073
                       cart. coord. in units 2pi/alat
        k(    1) = (   0.0000000   0.0000000   0.0000000), wk =   0.0011574
        k(    2) = (   0.0000000   0.0000000   0.0191519), wk =   0.0069444
        k(    3) = (   0.0000000   0.0000000   0.0383038), wk =   0.0069444
        k(    4) = (   0.0000000   0.0000000   0.0574557), wk =   0.0069444
        k(    5) = (   0.0000000   0.0000000   0.0766076), wk =   0.0069444
        k(    6) = (   0.0000000   0.0000000   0.0957594), wk =   0.0069444
        k(    7) = (   0.0000000   0.0000000  -0.1149113), wk =   0.0034722
        k(    8) = (   0.0000000   0.0191519   0.0191519), wk =   0.0138889
        k(    9) = (   0.0000000   0.0191519   0.0383038), wk =   0.0277778
        k(   10) = (   0.0000000   0.0191519   0.0574557), wk =   0.0277778
        k(   11) = (   0.0000000   0.0191519   0.0766076), wk =   0.0277778
        k(   12) = (   0.0000000   0.0191519   0.0957594), wk =   0.0277778
        k(   13) = (   0.0000000   0.0191519  -0.1149113), wk =   0.0138889
        k(   14) = (   0.0000000   0.0383038   0.0383038), wk =   0.0138889
        k(   15) = (   0.0000000   0.0383038   0.0574557), wk =   0.0277778
        k(   16) = (   0.0000000   0.0383038   0.0766076), wk =   0.0277778
        k(   17) = (   0.0000000   0.0383038   0.0957594), wk =   0.0277778
        k(   18) = (   0.0000000   0.0383038  -0.1149113), wk =   0.0138889
        k(   19) = (   0.0000000   0.0574557   0.0574557), wk =   0.0138889
        k(   20) = (   0.0000000   0.0574557   0.0766076), wk =   0.0277778
        k(   21) = (   0.0000000   0.0574557   0.0957594), wk =   0.0277778
        k(   22) = (   0.0000000   0.0574557  -0.1149113), wk =   0.0138889
        k(   23) = (   0.0000000   0.0766076   0.0766076), wk =   0.0138889
        k(   24) = (   0.0000000   0.0766076   0.0957594), wk =   0.0277778
        k(   25) = (   0.0000000   0.0766076  -0.1149113), wk =   0.0138889
        k(   26) = (   0.0000000   0.0957594   0.0957594), wk =   0.0138889
        k(   27) = (   0.0000000   0.0957594  -0.1149113), wk =   0.0138889
        k(   28) = (   0.0000000  -0.1149113  -0.1149113), wk =   0.0034722
        k(   29) = (   0.0191519   0.0191519   0.0191519), wk =   0.0092593
        k(   30) = (   0.0191519   0.0191519   0.0383038), wk =   0.0277778
        k(   31) = (   0.0191519   0.0191519   0.0574557), wk =   0.0277778
        k(   32) = (   0.0191519   0.0191519   0.0766076), wk =   0.0277778
        k(   33) = (   0.0191519   0.0191519   0.0957594), wk =   0.0277778
        k(   34) = (   0.0191519   0.0191519  -0.1149113), wk =   0.0138889
        k(   35) = (   0.0191519   0.0383038   0.0383038), wk =   0.0277778
        k(   36) = (   0.0191519   0.0383038   0.0574557), wk =   0.0555556
        k(   37) = (   0.0191519   0.0383038   0.0766076), wk =   0.0555556
        k(   38) = (   0.0191519   0.0383038   0.0957594), wk =   0.0555556
        k(   39) = (   0.0191519   0.0383038  -0.1149113), wk =   0.0277778
        k(   40) = (   0.0191519   0.0574557   0.0574557), wk =   0.0277778
        k(   41) = (   0.0191519   0.0574557   0.0766076), wk =   0.0555556
        k(   42) = (   0.0191519   0.0574557   0.0957594), wk =   0.0555556
        k(   43) = (   0.0191519   0.0574557  -0.1149113), wk =   0.0277778
        k(   44) = (   0.0191519   0.0766076   0.0766076), wk =   0.0277778
        k(   45) = (   0.0191519   0.0766076   0.0957594), wk =   0.0555556
        k(   46) = (   0.0191519   0.0766076  -0.1149113), wk =   0.0277778
        k(   47) = (   0.0191519   0.0957594   0.0957594), wk =   0.0277778
        k(   48) = (   0.0191519   0.0957594  -0.1149113), wk =   0.0277778
        k(   49) = (   0.0191519  -0.1149113  -0.1149113), wk =   0.0069444
        k(   50) = (   0.0383038   0.0383038   0.0383038), wk =   0.0092593
        k(   51) = (   0.0383038   0.0383038   0.0574557), wk =   0.0277778
        k(   52) = (   0.0383038   0.0383038   0.0766076), wk =   0.0277778
        k(   53) = (   0.0383038   0.0383038   0.0957594), wk =   0.0277778
        k(   54) = (   0.0383038   0.0383038  -0.1149113), wk =   0.0138889
        k(   55) = (   0.0383038   0.0574557   0.0574557), wk =   0.0277778
        k(   56) = (   0.0383038   0.0574557   0.0766076), wk =   0.0555556
        k(   57) = (   0.0383038   0.0574557   0.0957594), wk =   0.0555556
        k(   58) = (   0.0383038   0.0574557  -0.1149113), wk =   0.0277778
        k(   59) = (   0.0383038   0.0766076   0.0766076), wk =   0.0277778
        k(   60) = (   0.0383038   0.0766076   0.0957594), wk =   0.0555556
[...]
        k(   70) = (   0.0574557   0.0766076   0.0957594), wk =   0.0555556
        k(   71) = (   0.0574557   0.0766076  -0.1149113), wk =   0.0277778
        k(   72) = (   0.0574557   0.0957594   0.0957594), wk =   0.0277778
        k(   73) = (   0.0574557   0.0957594  -0.1149113), wk =   0.0277778
        k(   74) = (   0.0574557  -0.1149113  -0.1149113), wk =   0.0069444
        k(   75) = (   0.0766076   0.0766076   0.0766076), wk =   0.0092593
        k(   76) = (   0.0766076   0.0766076   0.0957594), wk =   0.0277778
        k(   77) = (   0.0766076   0.0766076  -0.1149113), wk =   0.0138889
        k(   78) = (   0.0766076   0.0957594   0.0957594), wk =   0.0277778
        k(   79) = (   0.0766076   0.0957594  -0.1149113), wk =   0.0277778
        k(   80) = (   0.0766076  -0.1149113  -0.1149113), wk =   0.0069444
        k(   81) = (   0.0957594   0.0957594   0.0957594), wk =   0.0092593
        k(   82) = (   0.0957594   0.0957594  -0.1149113), wk =   0.0138889
        k(   83) = (   0.0957594  -0.1149113  -0.1149113), wk =   0.0069444
        k(   84) = (  -0.1149113  -0.1149113  -0.1149113), wk =   0.0011574

     Largest allocated arrays     est. size (Mb)     dimensions
     Largest temporary arrays     est. size (Mb)     dimensions

     Initial potential from superposition of free atoms
     Check: negative starting charge=   -0.062117

     starting charge   46.89245, renormalised to   47.00000

     negative rho (up, down):  6.226E-02 0.000E+00

     *
     * You are using vdW-DF for exchange-correlation in this calculation.
     * Please cite the following three references that made this development
     * possible:
     *
     *   M. Dion, H. Rydberg, E. Schroder, D. C. Langreth, and
     *   B. I. Lundqvist, Phys. Rev. Lett. 92, 246401 (2004).
     *
     *   T. Thonhauser, V. R. Cooper, S. Li, A. Puzder, P. Hyldgaard, and
     *   D. C. Langreth, Phys. Rev. B 76, 125112 (2007).
     *
     *   G. Roman-Perez and J. M. Soler, Phys. Rev. Lett. 103, 096102 (2009).
     *
     *
     * If you are using vdW-DF2, please also cite:
     *
     *   K. Lee, E. D. Murray, L. Kong, B. I. Lundqvist, and
     *   D. C. Langreth, Phys. Rev. B 82, 081101(R) (2010).
     *
     *
     * If you are calculating the stress with vdW-DF, please also cite:
     *
     *   R. Sabatini, E. Kucukbenli, B. Kolb, T. Thonhauser, and
     *   S. de Gironcoli, J. Phys.: Condens. Matter 24, 424209 (2012).
     *

     Carrying out vdW-DF run using the following parameters:

     Nqs =      20    Nr_points =    1024   r_max =   100.000
     q_mesh =
               0.00001000     0.04494208     0.09755937     0.15916263
               0.23128650     0.31572767     0.41458969     0.53033537
               0.66584808     0.82450364     1.01025438     1.22772762
               1.48234092     1.78043706     2.12944203     2.53805004
               3.01644009     3.57652955     4.23227104     5.00000000

     Gradients computed in reciprocal space

     Starting wfc are   52 randomized atomic wfcs

     Self-consistent Calculation

     iteration #  1     ecut=    58.80 Ry     beta=0.10
     Davidson diagonalization with overlap
     ethr =  1.00E-02,  avg # of iterations =  2.6

     Threshold (ethr) on eigenvalues was too large:
     Diagonalizing with lowered threshold

     Davidson diagonalization with overlap
     ethr =  1.15E-04,  avg # of iterations =  3.7

[...]

     total energy              =    -444.93201976 Ry
     Harris-Foulkes estimate   =    -444.93358947 Ry
     estimated scf accuracy    <       0.05688378 Ry

[...]

     total energy              =    -444.92527533 Ry
     Harris-Foulkes estimate   =    -444.92527249 Ry
     estimated scf accuracy    <          7.4E-09 Ry

     iteration # 11     ecut=    58.80 Ry     beta=0.10
     Davidson diagonalization with overlap
     ethr =  1.58E-11,  avg # of iterations =  1.9

     negative rho (up, down):  6.734E-02 0.000E+00

     End of self-consistent calculation

          k = 0.0000 0.0000 0.0000 (  4169 PWs)   bands (ev):

   -61.4794 -37.0358 -36.9165 -36.9165 -25.5492 -25.5492 -25.5492 -15.8237
   -15.8237 -15.8237 -15.4933 -15.4933 -15.4933 -15.3754 -15.3754 -15.3754
     6.3381   9.7732   9.7732  10.1184  10.7247  10.7247  10.7247  13.6909
    13.6909  13.6909  14.9972  14.9972  14.9972  15.4875  15.4875  16.6432
    16.6432  16.8813  17.0143  17.0143  17.0143  17.0862  17.0862  17.0862
    21.4709  22.8991  22.8991

[...]

          k = 0.0958-0.1149-0.1149 (  4248 PWs)   bands (ev):

[...]

          k =-0.1149-0.1149-0.1149 (  4224 PWs)   bands (ev):

   -61.4793 -36.9553 -36.9553 -36.9553 -25.5541 -25.5541 -25.5541 -16.0335
   -15.7323 -15.7323 -15.7323 -15.4391 -15.4391 -15.3436 -15.3436 -15.3436
     9.3269   9.8379   9.8379   9.8379  12.7487  12.7487  12.9986  13.0041
    13.0041  13.0041  13.4393  13.4393  13.4393  13.9914  13.9914  13.9914
    16.6337  16.6337  16.6337  16.7192  16.7192  16.8355  16.8355  16.8355
    19.2023  21.1005  21.1005

     the Fermi energy is    12.4087 ev

!    total energy              =    -444.92528742 Ry
     Harris-Foulkes estimate   =    -444.92527533 Ry
     estimated scf accuracy    <          3.4E-09 Ry

     The total energy is the sum of the following terms:

     one-electron contribution =    -130.15047987 Ry
     hartree contribution      =      79.35413154 Ry
     xc contribution           =     -84.33567452 Ry
     ewald contribution        =    -309.78381869 Ry
     smearing contrib. (-TS)   =      -0.00944589 Ry

     convergence has been achieved in  11 iterations

     Forces acting on atoms (Ry/au):

     negative rho (up, down):  6.734E-02 0.000E+00
     atom    1 type  1   force =     0.00000000    0.00000000    0.00000000
     atom    2 type  1   force =     0.00000000    0.00000000    0.00000000
     atom    3 type  1   force =     0.00000000    0.00000000    0.00000000
     atom    4 type  2   force =     0.00000000    0.00000000    0.00000000

     Total force =     0.000000     Total SCF correction =     0.000000
 !ASE

     General routines

     Parallel routines

   This run was terminated on:   2:35: 4  25Oct2017

   JOB DONE.