     Program PWSCF v.5.1rc2 (svn rev. ) starts on 25Oct2017 at  9:19:54

     Current dimensions of program PWSCF are:
     Max number of different atomic species (ntypx) = 10
     Max number of k-points (npk) =  40000
     Max angular momentum in pseudopotentials (lmaxx) =  3

     IMPORTANT: XC functional enforced from input :
     Exchange-correlation      = BEEF-VDW ( 1  4 27 13 2)
     Any further DFT definition will be discarded
     Please, verify this is what you really want

     Subspace diagonalization in iterative solution of the eigenvalue problem:
     a serial algorithm will be used

     bravais-lattice index     =            0
     lattice parameter (alat)  =       1.8897  a.u.
     unit-cell volume          =     553.5763 (a.u.)^3
     number of atoms/cell      =            4
     number of atomic types    =            2
     number of electrons       =        49.00
     number of Kohn-Sham states=           44
     kinetic-energy cutoff     =      58.7989  Ry
     charge density cutoff     =     587.9892  Ry
     convergence threshold     =      7.3E-09
     mixing beta               =       0.1000
     number of iterations used =           10  local-TF  mixing
     Exchange-correlation      = BEEF-VDW ( 1  4 27 13 2)
     nstep                     =           50

     celldm(1)=   1.889726  celldm(2)=   0.000000  celldm(3)=   0.000000
     celldm(4)=   0.000000  celldm(5)=   0.000000  celldm(6)=   0.000000

     crystal axes: (cart. coord. in units of alat)
               a(1) = (   4.345038   0.000000   0.000000 )
               a(2) = (   0.000000   4.345038   0.000000 )
               a(3) = (   0.000000   0.000000   4.345038 )

     reciprocal axes: (cart. coord. in units 2 pi/alat)
               b(1) = (  0.230148  0.000000  0.000000 )
               b(2) = (  0.000000  0.230148  0.000000 )
               b(3) = (  0.000000  0.000000  0.230148 )

     PseudoPot. # 1 for Hg read from file:
     /home/vossj/suncat/psp/gbrv1.5pbe/Hg.UPF
     MD5 check sum: 8f42caffe07f7fd9c0a564347f8c5498
     Pseudo is Ultrasoft + core correction, Zval = 12.0
     Generated by new atomic code, or converted to UPF format
     Using radial grid of  985 points,  6 beta functions with:
                l(1) =   0
                l(2) =   0
                l(3) =   1
                l(4) =   1
                l(5) =   2
                l(6) =   2
     Q(r) pseudized with  8 coefficients,  rinner =    2.000   2.000   2.000
                                                       2.000   2.000

     PseudoPot. # 2 for V  read from file:
     /home/vossj/suncat/psp/gbrv1.5pbe/V.UPF
     MD5 check sum: 22b79981416ebb76fdaf5b1b8640f6fb
     Pseudo is Ultrasoft + core correction, Zval = 13.0
     Generated by new atomic code, or converted to UPF format
     Using radial grid of  853 points,  6 beta functions with:
                l(1) =   0
                l(2) =   0
                l(3) =   1
                l(4) =   1
                l(5) =   2
                l(6) =   2
     Q(r) pseudized with  8 coefficients,  rinner =    1.100   1.100   1.100
                                                       1.100   1.100

     vdW kernel table read from file vdW_kernel_table
     MD5 check sum: 095c7af220d748ca6e76c0b4c6cfb241

     atomic species   valence    mass     pseudopotential
        Hg1           12.00   200.59200     Hg( 1.00)
        V1            13.00    50.94150     V ( 1.00)

     48 Sym. Ops., with inversion, found (32 have fractional translation)

   Cartesian axes

     site n.     atom                  positions (alat units)
         1           Hg1 tau(   1) = (   0.0000000   0.0000000   0.0000000  )
         2           Hg1 tau(   2) = (   0.0000000   2.1725192   2.1725192  )
         3           Hg1 tau(   3) = (   2.1725192   0.0000000   2.1725192  )
         4           V1  tau(   4) = (   2.1725192   2.1725192   0.0000000  )

     number of k points=    84  Fermi-Dirac smearing, width (Ry)=  0.0073
                       cart. coord. in units 2pi/alat
        k(    1) = (   0.0000000   0.0000000   0.0000000), wk =   0.0011574
        k(    2) = (   0.0000000   0.0000000   0.0191790), wk =   0.0069444
        k(    3) = (   0.0000000   0.0000000   0.0383579), wk =   0.0069444
        k(    4) = (   0.0000000   0.0000000   0.0575369), wk =   0.0069444
        k(    5) = (   0.0000000   0.0000000   0.0767159), wk =   0.0069444
        k(    6) = (   0.0000000   0.0000000   0.0958948), wk =   0.0069444
        k(    7) = (   0.0000000   0.0000000  -0.1150738), wk =   0.0034722
        k(    8) = (   0.0000000   0.0191790   0.0191790), wk =   0.0138889
        k(    9) = (   0.0000000   0.0191790   0.0383579), wk =   0.0277778
        k(   10) = (   0.0000000   0.0191790   0.0575369), wk =   0.0277778
        k(   11) = (   0.0000000   0.0191790   0.0767159), wk =   0.0277778
        k(   12) = (   0.0000000   0.0191790   0.0958948), wk =   0.0277778
        k(   13) = (   0.0000000   0.0191790  -0.1150738), wk =   0.0138889
        k(   14) = (   0.0000000   0.0383579   0.0383579), wk =   0.0138889
        k(   15) = (   0.0000000   0.0383579   0.0575369), wk =   0.0277778
        k(   16) = (   0.0000000   0.0383579   0.0767159), wk =   0.0277778
        k(   17) = (   0.0000000   0.0383579   0.0958948), wk =   0.0277778
        k(   18) = (   0.0000000   0.0383579  -0.1150738), wk =   0.0138889
        k(   19) = (   0.0000000   0.0575369   0.0575369), wk =   0.0138889
        k(   20) = (   0.0000000   0.0575369   0.0767159), wk =   0.0277778
        k(   21) = (   0.0000000   0.0575369   0.0958948), wk =   0.0277778
        k(   22) = (   0.0000000   0.0575369  -0.1150738), wk =   0.0138889
        k(   23) = (   0.0000000   0.0767159   0.0767159), wk =   0.0138889
        k(   24) = (   0.0000000   0.0767159   0.0958948), wk =   0.0277778
        k(   25) = (   0.0000000   0.0767159  -0.1150738), wk =   0.0138889
        k(   26) = (   0.0000000   0.0958948   0.0958948), wk =   0.0138889
        k(   27) = (   0.0000000   0.0958948  -0.1150738), wk =   0.0138889
        k(   28) = (   0.0000000  -0.1150738  -0.1150738), wk =   0.0034722
        k(   29) = (   0.0191790   0.0191790   0.0191790), wk =   0.0092593
        k(   30) = (   0.0191790   0.0191790   0.0383579), wk =   0.0277778
        k(   31) = (   0.0191790   0.0191790   0.0575369), wk =   0.0277778
        k(   32) = (   0.0191790   0.0191790   0.0767159), wk =   0.0277778
        k(   33) = (   0.0191790   0.0191790   0.0958948), wk =   0.0277778
        k(   34) = (   0.0191790   0.0191790  -0.1150738), wk =   0.0138889
        k(   35) = (   0.0191790   0.0383579   0.0383579), wk =   0.0277778
        k(   36) = (   0.0191790   0.0383579   0.0575369), wk =   0.0555556
        k(   37) = (   0.0191790   0.0383579   0.0767159), wk =   0.0555556
        k(   38) = (   0.0191790   0.0383579   0.0958948), wk =   0.0555556
        k(   39) = (   0.0191790   0.0383579  -0.1150738), wk =   0.0277778
        k(   40) = (   0.0191790   0.0575369   0.0575369), wk =   0.0277778
        k(   41) = (   0.0191790   0.0575369   0.0767159), wk =   0.0555556
        k(   42) = (   0.0191790   0.0575369   0.0958948), wk =   0.0555556
        k(   43) = (   0.0191790   0.0575369  -0.1150738), wk =   0.0277778
        k(   44) = (   0.0191790   0.0767159   0.0767159), wk =   0.0277778
        k(   45) = (   0.0191790   0.0767159   0.0958948), wk =   0.0555556
        k(   46) = (   0.0191790   0.0767159  -0.1150738), wk =   0.0277778
        k(   47) = (   0.0191790   0.0958948   0.0958948), wk =   0.0277778
        k(   48) = (   0.0191790   0.0958948  -0.1150738), wk =   0.0277778
        k(   49) = (   0.0191790  -0.1150738  -0.1150738), wk =   0.0069444
        k(   50) = (   0.0383579   0.0383579   0.0383579), wk =   0.0092593
        k(   51) = (   0.0383579   0.0383579   0.0575369), wk =   0.0277778
        k(   52) = (   0.0383579   0.0383579   0.0767159), wk =   0.0277778
        k(   53) = (   0.0383579   0.0383579   0.0958948), wk =   0.0277778
        k(   54) = (   0.0383579   0.0383579  -0.1150738), wk =   0.0138889
        k(   55) = (   0.0383579   0.0575369   0.0575369), wk =   0.0277778
        k(   56) = (   0.0383579   0.0575369   0.0767159), wk =   0.0555556
        k(   57) = (   0.0383579   0.0575369   0.0958948), wk =   0.0555556
        k(   58) = (   0.0383579   0.0575369  -0.1150738), wk =   0.0277778
        k(   59) = (   0.0383579   0.0767159   0.0767159), wk =   0.0277778
        k(   60) = (   0.0383579   0.0767159   0.0958948), wk =   0.0555556
[...]
        k(   70) = (   0.0575369   0.0767159   0.0958948), wk =   0.0555556
        k(   71) = (   0.0575369   0.0767159  -0.1150738), wk =   0.0277778
        k(   72) = (   0.0575369   0.0958948   0.0958948), wk =   0.0277778
        k(   73) = (   0.0575369   0.0958948  -0.1150738), wk =   0.0277778
        k(   74) = (   0.0575369  -0.1150738  -0.1150738), wk =   0.0069444
        k(   75) = (   0.0767159   0.0767159   0.0767159), wk =   0.0092593
        k(   76) = (   0.0767159   0.0767159   0.0958948), wk =   0.0277778
        k(   77) = (   0.0767159   0.0767159  -0.1150738), wk =   0.0138889
        k(   78) = (   0.0767159   0.0958948   0.0958948), wk =   0.0277778
        k(   79) = (   0.0767159   0.0958948  -0.1150738), wk =   0.0277778
        k(   80) = (   0.0767159  -0.1150738  -0.1150738), wk =   0.0069444
        k(   81) = (   0.0958948   0.0958948   0.0958948), wk =   0.0092593
        k(   82) = (   0.0958948   0.0958948  -0.1150738), wk =   0.0138889
        k(   83) = (   0.0958948  -0.1150738  -0.1150738), wk =   0.0069444
        k(   84) = (  -0.1150738  -0.1150738  -0.1150738), wk =   0.0011574

     Largest allocated arrays     est. size (Mb)     dimensions
     Largest temporary arrays     est. size (Mb)     dimensions

     Initial potential from superposition of free atoms
     Check: negative starting charge=   -0.000471

     starting charge   48.99860, renormalised to   49.00000

     negative rho (up, down):  4.710E-04 0.000E+00

     *
     * You are using vdW-DF for exchange-correlation in this calculation.
     * Please cite the following three references that made this development
     * possible:
     *
     *   M. Dion, H. Rydberg, E. Schroder, D. C. Langreth, and
     *   B. I. Lundqvist, Phys. Rev. Lett. 92, 246401 (2004).
     *
     *   T. Thonhauser, V. R. Cooper, S. Li, A. Puzder, P. Hyldgaard, and
     *   D. C. Langreth, Phys. Rev. B 76, 125112 (2007).
     *
     *   G. Roman-Perez and J. M. Soler, Phys. Rev. Lett. 103, 096102 (2009).
     *
     *
     * If you are using vdW-DF2, please also cite:
     *
     *   K. Lee, E. D. Murray, L. Kong, B. I. Lundqvist, and
     *   D. C. Langreth, Phys. Rev. B 82, 081101(R) (2010).
     *
     *
     * If you are calculating the stress with vdW-DF, please also cite:
     *
     *   R. Sabatini, E. Kucukbenli, B. Kolb, T. Thonhauser, and
     *   S. de Gironcoli, J. Phys.: Condens. Matter 24, 424209 (2012).
     *

     Carrying out vdW-DF run using the following parameters:

     Nqs =      20    Nr_points =    1024   r_max =   100.000
     q_mesh =
               0.00001000     0.04494208     0.09755937     0.15916263
               0.23128650     0.31572767     0.41458969     0.53033537
               0.66584808     0.82450364     1.01025438     1.22772762
               1.48234092     1.78043706     2.12944203     2.53805004
               3.01644009     3.57652955     4.23227104     5.00000000

     Gradients computed in reciprocal space

     Starting wfc are   37 randomized atomic wfcs +    7 random wfc

     Self-consistent Calculation

     iteration #  1     ecut=    58.80 Ry     beta=0.10
     Davidson diagonalization with overlap
     ethr =  1.00E-02,  avg # of iterations =  5.8

[...]

     total energy              =    -473.04720290 Ry
     Harris-Foulkes estimate   =    -473.14049223 Ry
     estimated scf accuracy    <       1.86105782 Ry

[...]

     total energy              =    -472.97760014 Ry
     Harris-Foulkes estimate   =    -472.97759994 Ry
     estimated scf accuracy    <       0.00000002 Ry

     iteration # 15     ecut=    58.80 Ry     beta=0.10
     Davidson diagonalization with overlap
     ethr =  3.22E-11,  avg # of iterations =  1.0

     negative rho (up, down):  4.553E-04 0.000E+00

     End of self-consistent calculation

          k = 0.0000 0.0000 0.0000 (  4169 PWs)   bands (ev):

   -51.7232 -25.5396 -25.5396 -25.5396   3.3251   4.2529   4.3964   4.3964
     4.3964   4.6640   4.6640   5.7397   5.7397   5.7397   6.2377   6.2377
     6.6825   6.8711   6.8711   6.8711  12.0847  12.0847  12.8571  12.8571
    12.8571  13.4176  13.4176  13.4176  15.2706  15.2706  18.1568  20.4702
    20.4702  20.4702  21.1985  21.1985  21.1985  25.5567  25.5567  26.4846
    27.3937  27.3937  27.3937  27.4169

[...]

          k = 0.0959-0.1151-0.1151 (  4240 PWs)   bands (ev):

[...]

          k =-0.1151-0.1151-0.1151 (  4224 PWs)   bands (ev):

   -51.7230 -25.5412 -25.5412 -25.5412   4.3110   4.3110   4.3110   4.4375
     5.1891   5.1891   5.1891   5.7525   5.7525   5.7525   5.9883   5.9883
     6.7015   6.7015   6.7015  10.4383  10.4383  10.4383  10.8083  11.3775
    11.3775  11.3775  13.4686  13.4686  14.4531  14.4531  14.4531  16.1747
    25.7385  25.8168  25.8168  25.8168  26.3892  26.3892  26.7296  26.7296
    26.7296  27.8097  27.8097  27.8097

     the Fermi energy is    12.8458 ev

!    total energy              =    -472.97760096 Ry
     Harris-Foulkes estimate   =    -472.97760013 Ry
     estimated scf accuracy    <          3.9E-10 Ry

     The total energy is the sum of the following terms:

     one-electron contribution =     -78.00595752 Ry
     hartree contribution      =      82.21576006 Ry
     xc contribution           =    -141.80221901 Ry
     ewald contribution        =    -335.37658595 Ry
     smearing contrib. (-TS)   =      -0.00859854 Ry

     convergence has been achieved in  15 iterations

     Forces acting on atoms (Ry/au):

     negative rho (up, down):  4.553E-04 0.000E+00
     atom    1 type  1   force =     0.00000000    0.00000000    0.00000000
     atom    2 type  1   force =     0.00000000    0.00000000    0.00000000
     atom    3 type  1   force =     0.00000000    0.00000000    0.00000000
     atom    4 type  2   force =     0.00000000    0.00000000   -0.00000000

     Total force =     0.000000     Total SCF correction =     0.000000
 !ASE

     General routines

     Parallel routines

   This run was terminated on:   9:20:58  25Oct2017

   JOB DONE.