     Program PWSCF v.5.1rc2 (svn rev. ) starts on 25Oct2017 at  2:47: 2

     Current dimensions of program PWSCF are:
     Max number of different atomic species (ntypx) = 10
     Max number of k-points (npk) =  40000
     Max angular momentum in pseudopotentials (lmaxx) =  3

     IMPORTANT: XC functional enforced from input :
     Exchange-correlation      = BEEF-VDW ( 1  4 27 13 2)
     Any further DFT definition will be discarded
     Please, verify this is what you really want

     Subspace diagonalization in iterative solution of the eigenvalue problem:
     a serial algorithm will be used

     bravais-lattice index     =            0
     lattice parameter (alat)  =       1.8897  a.u.
     unit-cell volume          =     563.6700 (a.u.)^3
     number of atoms/cell      =            4
     number of atomic types    =            2
     number of electrons       =        46.00
     number of Kohn-Sham states=           43
     kinetic-energy cutoff     =      58.7989  Ry
     charge density cutoff     =     587.9892  Ry
     convergence threshold     =      7.3E-09
     mixing beta               =       0.1000
     number of iterations used =           10  local-TF  mixing
     Exchange-correlation      = BEEF-VDW ( 1  4 27 13 2)
     nstep                     =           50

     celldm(1)=   1.889726  celldm(2)=   0.000000  celldm(3)=   0.000000
     celldm(4)=   0.000000  celldm(5)=   0.000000  celldm(6)=   0.000000

     crystal axes: (cart. coord. in units of alat)
               a(1) = (   4.371288   0.000000   0.000000 )
               a(2) = (   0.000000   4.371288   0.000000 )
               a(3) = (   0.000000   0.000000   4.371288 )

     reciprocal axes: (cart. coord. in units 2 pi/alat)
               b(1) = (  0.228766  0.000000  0.000000 )
               b(2) = (  0.000000  0.228766  0.000000 )
               b(3) = (  0.000000  0.000000  0.228766 )

     PseudoPot. # 1 for Sc read from file:
     /home/vossj/suncat/psp/gbrv1.5pbe/Sc.UPF
     MD5 check sum: db30a2753ba66ef00f23801d899b7e7f
     Pseudo is Ultrasoft + core correction, Zval = 11.0
     Generated by new atomic code, or converted to UPF format
     Using radial grid of  849 points,  6 beta functions with:
                l(1) =   0
                l(2) =   0
                l(3) =   1
                l(4) =   1
                l(5) =   2
                l(6) =   2
     Q(r) pseudized with  6 coefficients,  rinner =    1.200   1.200   1.200
                                                       1.200   1.200

     PseudoPot. # 2 for V  read from file:
     /home/vossj/suncat/psp/gbrv1.5pbe/V.UPF
     MD5 check sum: 22b79981416ebb76fdaf5b1b8640f6fb
     Pseudo is Ultrasoft + core correction, Zval = 13.0
     Generated by new atomic code, or converted to UPF format
     Using radial grid of  853 points,  6 beta functions with:
                l(1) =   0
                l(2) =   0
                l(3) =   1
                l(4) =   1
                l(5) =   2
                l(6) =   2
     Q(r) pseudized with  8 coefficients,  rinner =    1.100   1.100   1.100
                                                       1.100   1.100

     vdW kernel table read from file vdW_kernel_table
     MD5 check sum: 095c7af220d748ca6e76c0b4c6cfb241

     atomic species   valence    mass     pseudopotential
        Sc1           11.00    44.95591     Sc( 1.00)
        V1            13.00    50.94150     V ( 1.00)

     48 Sym. Ops., with inversion, found (32 have fractional translation)

   Cartesian axes

     site n.     atom                  positions (alat units)
         1           Sc1 tau(   1) = (   0.0000000   0.0000000   0.0000000  )
         2           Sc1 tau(   2) = (   0.0000000   2.1856441   2.1856441  )
         3           Sc1 tau(   3) = (   2.1856441   0.0000000   2.1856441  )
         4           V1  tau(   4) = (   2.1856441   2.1856441   0.0000000  )

     number of k points=    84  Fermi-Dirac smearing, width (Ry)=  0.0073
                       cart. coord. in units 2pi/alat
        k(    1) = (   0.0000000   0.0000000   0.0000000), wk =   0.0011574
        k(    2) = (   0.0000000   0.0000000   0.0190638), wk =   0.0069444
        k(    3) = (   0.0000000   0.0000000   0.0381276), wk =   0.0069444
        k(    4) = (   0.0000000   0.0000000   0.0571914), wk =   0.0069444
        k(    5) = (   0.0000000   0.0000000   0.0762552), wk =   0.0069444
        k(    6) = (   0.0000000   0.0000000   0.0953190), wk =   0.0069444
        k(    7) = (   0.0000000   0.0000000  -0.1143828), wk =   0.0034722
        k(    8) = (   0.0000000   0.0190638   0.0190638), wk =   0.0138889
        k(    9) = (   0.0000000   0.0190638   0.0381276), wk =   0.0277778
        k(   10) = (   0.0000000   0.0190638   0.0571914), wk =   0.0277778
        k(   11) = (   0.0000000   0.0190638   0.0762552), wk =   0.0277778
        k(   12) = (   0.0000000   0.0190638   0.0953190), wk =   0.0277778
        k(   13) = (   0.0000000   0.0190638  -0.1143828), wk =   0.0138889
        k(   14) = (   0.0000000   0.0381276   0.0381276), wk =   0.0138889
        k(   15) = (   0.0000000   0.0381276   0.0571914), wk =   0.0277778
        k(   16) = (   0.0000000   0.0381276   0.0762552), wk =   0.0277778
        k(   17) = (   0.0000000   0.0381276   0.0953190), wk =   0.0277778
        k(   18) = (   0.0000000   0.0381276  -0.1143828), wk =   0.0138889
        k(   19) = (   0.0000000   0.0571914   0.0571914), wk =   0.0138889
        k(   20) = (   0.0000000   0.0571914   0.0762552), wk =   0.0277778
        k(   21) = (   0.0000000   0.0571914   0.0953190), wk =   0.0277778
        k(   22) = (   0.0000000   0.0571914  -0.1143828), wk =   0.0138889
        k(   23) = (   0.0000000   0.0762552   0.0762552), wk =   0.0138889
        k(   24) = (   0.0000000   0.0762552   0.0953190), wk =   0.0277778
        k(   25) = (   0.0000000   0.0762552  -0.1143828), wk =   0.0138889
        k(   26) = (   0.0000000   0.0953190   0.0953190), wk =   0.0138889
        k(   27) = (   0.0000000   0.0953190  -0.1143828), wk =   0.0138889
        k(   28) = (   0.0000000  -0.1143828  -0.1143828), wk =   0.0034722
        k(   29) = (   0.0190638   0.0190638   0.0190638), wk =   0.0092593
        k(   30) = (   0.0190638   0.0190638   0.0381276), wk =   0.0277778
        k(   31) = (   0.0190638   0.0190638   0.0571914), wk =   0.0277778
        k(   32) = (   0.0190638   0.0190638   0.0762552), wk =   0.0277778
        k(   33) = (   0.0190638   0.0190638   0.0953190), wk =   0.0277778
        k(   34) = (   0.0190638   0.0190638  -0.1143828), wk =   0.0138889
        k(   35) = (   0.0190638   0.0381276   0.0381276), wk =   0.0277778
        k(   36) = (   0.0190638   0.0381276   0.0571914), wk =   0.0555556
        k(   37) = (   0.0190638   0.0381276   0.0762552), wk =   0.0555556
        k(   38) = (   0.0190638   0.0381276   0.0953190), wk =   0.0555556
        k(   39) = (   0.0190638   0.0381276  -0.1143828), wk =   0.0277778
        k(   40) = (   0.0190638   0.0571914   0.0571914), wk =   0.0277778
        k(   41) = (   0.0190638   0.0571914   0.0762552), wk =   0.0555556
        k(   42) = (   0.0190638   0.0571914   0.0953190), wk =   0.0555556
        k(   43) = (   0.0190638   0.0571914  -0.1143828), wk =   0.0277778
        k(   44) = (   0.0190638   0.0762552   0.0762552), wk =   0.0277778
        k(   45) = (   0.0190638   0.0762552   0.0953190), wk =   0.0555556
        k(   46) = (   0.0190638   0.0762552  -0.1143828), wk =   0.0277778
        k(   47) = (   0.0190638   0.0953190   0.0953190), wk =   0.0277778
        k(   48) = (   0.0190638   0.0953190  -0.1143828), wk =   0.0277778
        k(   49) = (   0.0190638  -0.1143828  -0.1143828), wk =   0.0069444
        k(   50) = (   0.0381276   0.0381276   0.0381276), wk =   0.0092593
        k(   51) = (   0.0381276   0.0381276   0.0571914), wk =   0.0277778
        k(   52) = (   0.0381276   0.0381276   0.0762552), wk =   0.0277778
        k(   53) = (   0.0381276   0.0381276   0.0953190), wk =   0.0277778
        k(   54) = (   0.0381276   0.0381276  -0.1143828), wk =   0.0138889
        k(   55) = (   0.0381276   0.0571914   0.0571914), wk =   0.0277778
        k(   56) = (   0.0381276   0.0571914   0.0762552), wk =   0.0555556
        k(   57) = (   0.0381276   0.0571914   0.0953190), wk =   0.0555556
        k(   58) = (   0.0381276   0.0571914  -0.1143828), wk =   0.0277778
        k(   59) = (   0.0381276   0.0762552   0.0762552), wk =   0.0277778
        k(   60) = (   0.0381276   0.0762552   0.0953190), wk =   0.0555556
[...]
        k(   70) = (   0.0571914   0.0762552   0.0953190), wk =   0.0555556
        k(   71) = (   0.0571914   0.0762552  -0.1143828), wk =   0.0277778
        k(   72) = (   0.0571914   0.0953190   0.0953190), wk =   0.0277778
        k(   73) = (   0.0571914   0.0953190  -0.1143828), wk =   0.0277778
        k(   74) = (   0.0571914  -0.1143828  -0.1143828), wk =   0.0069444
        k(   75) = (   0.0762552   0.0762552   0.0762552), wk =   0.0092593
        k(   76) = (   0.0762552   0.0762552   0.0953190), wk =   0.0277778
        k(   77) = (   0.0762552   0.0762552  -0.1143828), wk =   0.0138889
        k(   78) = (   0.0762552   0.0953190   0.0953190), wk =   0.0277778
        k(   79) = (   0.0762552   0.0953190  -0.1143828), wk =   0.0277778
        k(   80) = (   0.0762552  -0.1143828  -0.1143828), wk =   0.0069444
        k(   81) = (   0.0953190   0.0953190   0.0953190), wk =   0.0092593
        k(   82) = (   0.0953190   0.0953190  -0.1143828), wk =   0.0138889
        k(   83) = (   0.0953190  -0.1143828  -0.1143828), wk =   0.0069444
        k(   84) = (  -0.1143828  -0.1143828  -0.1143828), wk =   0.0011574

     Largest allocated arrays     est. size (Mb)     dimensions
     Largest temporary arrays     est. size (Mb)     dimensions

     Check: negative/imaginary core charge=   -0.000001    0.000000

     Initial potential from superposition of free atoms
     Check: negative starting charge=   -0.000472

     starting charge   45.99157, renormalised to   46.00000

     negative rho (up, down):  4.725E-04 0.000E+00

     *
     * You are using vdW-DF for exchange-correlation in this calculation.
     * Please cite the following three references that made this development
     * possible:
     *
     *   M. Dion, H. Rydberg, E. Schroder, D. C. Langreth, and
     *   B. I. Lundqvist, Phys. Rev. Lett. 92, 246401 (2004).
     *
     *   T. Thonhauser, V. R. Cooper, S. Li, A. Puzder, P. Hyldgaard, and
     *   D. C. Langreth, Phys. Rev. B 76, 125112 (2007).
     *
     *   G. Roman-Perez and J. M. Soler, Phys. Rev. Lett. 103, 096102 (2009).
     *
     *
     * If you are using vdW-DF2, please also cite:
     *
     *   K. Lee, E. D. Murray, L. Kong, B. I. Lundqvist, and
     *   D. C. Langreth, Phys. Rev. B 82, 081101(R) (2010).
     *
     *
     * If you are calculating the stress with vdW-DF, please also cite:
     *
     *   R. Sabatini, E. Kucukbenli, B. Kolb, T. Thonhauser, and
     *   S. de Gironcoli, J. Phys.: Condens. Matter 24, 424209 (2012).
     *

     Carrying out vdW-DF run using the following parameters:

     Nqs =      20    Nr_points =    1024   r_max =   100.000
     q_mesh =
               0.00001000     0.04494208     0.09755937     0.15916263
               0.23128650     0.31572767     0.41458969     0.53033537
               0.66584808     0.82450364     1.01025438     1.22772762
               1.48234092     1.78043706     2.12944203     2.53805004
               3.01644009     3.57652955     4.23227104     5.00000000

     Gradients computed in reciprocal space

     Starting wfc are   49 randomized atomic wfcs

     Self-consistent Calculation

     iteration #  1     ecut=    58.80 Ry     beta=0.10
     Davidson diagonalization with overlap
     ethr =  1.00E-02,  avg # of iterations =  3.2

     Threshold (ethr) on eigenvalues was too large:
     Diagonalizing with lowered threshold

     Davidson diagonalization with overlap
     ethr =  8.32E-04,  avg # of iterations =  1.2

[...]

     total energy              =    -430.23106500 Ry
     Harris-Foulkes estimate   =    -430.24785029 Ry
     estimated scf accuracy    <       0.37955362 Ry

[...]

     total energy              =    -430.23167203 Ry
     Harris-Foulkes estimate   =    -430.23167107 Ry
     estimated scf accuracy    <       0.00000006 Ry

     iteration # 13     ecut=    58.80 Ry     beta=0.10
     Davidson diagonalization with overlap
     ethr =  1.25E-10,  avg # of iterations =  2.0

     negative rho (up, down):  5.133E-04 0.000E+00

     End of self-consistent calculation

          k = 0.0000 0.0000 0.0000 (  4337 PWs)   bands (ev):

   -53.4239 -38.7310 -38.6183 -38.6183 -27.2234 -27.2234 -27.2234 -17.5120
   -17.5120 -17.5120 -17.1972 -17.1972 -17.1972 -17.0827 -17.0827 -17.0827
     5.2538   8.6330   8.8744   8.8744   9.6251   9.6251   9.6251  11.8774
    11.8774  11.8774  13.0639  13.0639  13.1610  13.1610  13.1610  14.3233
    14.3233  14.3233  14.5396  14.5396  15.1363  15.3395  15.3395  15.3395
    20.0855  20.3813  20.3813

[...]

          k = 0.0953-0.1144-0.1144 (  4276 PWs)   bands (ev):

[...]

          k =-0.1144-0.1144-0.1144 (  4272 PWs)   bands (ev):

   -53.4238 -38.6550 -38.6550 -38.6550 -27.2253 -27.2253 -27.2253 -17.7092
   -17.4294 -17.4294 -17.4294 -17.1395 -17.1395 -17.0543 -17.0543 -17.0543
     8.4582   8.7608   8.7608   8.7608  11.2058  11.2058  11.2058  11.2532
    11.2532  11.3060  11.6658  11.6658  11.6658  12.3216  12.3216  12.3216
    14.1180  14.1180  14.1180  14.4462  14.4462  15.0937  15.0937  15.0937
    17.9433  18.3890  18.3890

     the Fermi energy is    10.6884 ev

!    total energy              =    -430.23168309 Ry
     Harris-Foulkes estimate   =    -430.23167204 Ry
     estimated scf accuracy    <          5.4E-09 Ry

     The total energy is the sum of the following terms:

     one-electron contribution =    -171.23172625 Ry
     hartree contribution      =      97.55660810 Ry
     xc contribution           =     -62.11012022 Ry
     ewald contribution        =    -294.43076601 Ry
     smearing contrib. (-TS)   =      -0.01567870 Ry

     convergence has been achieved in  13 iterations

     Forces acting on atoms (Ry/au):

     negative rho (up, down):  5.133E-04 0.000E+00
     atom    1 type  1   force =     0.00000000    0.00000000    0.00000000
     atom    2 type  1   force =     0.00000000    0.00000000   -0.00000000
     atom    3 type  1   force =     0.00000000    0.00000000    0.00000000
     atom    4 type  2   force =     0.00000000    0.00000000   -0.00000000

     Total force =     0.000000     Total SCF correction =     0.000000
 !ASE

     General routines

     Parallel routines

   This run was terminated on:   2:48: 3  25Oct2017

   JOB DONE.