     Program PWSCF v.5.1rc2 (svn rev. ) starts on 25Oct2017 at  7:16: 4

     Current dimensions of program PWSCF are:
     Max number of different atomic species (ntypx) = 10
     Max number of k-points (npk) =  40000
     Max angular momentum in pseudopotentials (lmaxx) =  3

     IMPORTANT: XC functional enforced from input :
     Exchange-correlation      = BEEF-VDW ( 1  4 27 13 2)
     Any further DFT definition will be discarded
     Please, verify this is what you really want

     Subspace diagonalization in iterative solution of the eigenvalue problem:
     a serial algorithm will be used

     bravais-lattice index     =            0
     lattice parameter (alat)  =       1.8897  a.u.
     unit-cell volume          =     715.0509 (a.u.)^3
     number of atoms/cell      =            4
     number of atomic types    =            2
     number of electrons       =        49.00
     number of Kohn-Sham states=           44
     kinetic-energy cutoff     =      58.7989  Ry
     charge density cutoff     =     587.9892  Ry
     convergence threshold     =      7.3E-09
     mixing beta               =       0.1000
     number of iterations used =           10  local-TF  mixing
     Exchange-correlation      = BEEF-VDW ( 1  4 27 13 2)
     nstep                     =           50

     celldm(1)=   1.889726  celldm(2)=   0.000000  celldm(3)=   0.000000
     celldm(4)=   0.000000  celldm(5)=   0.000000  celldm(6)=   0.000000

     crystal axes: (cart. coord. in units of alat)
               a(1) = (   4.732022   0.000000   0.000000 )
               a(2) = (   0.000000   4.732022   0.000000 )
               a(3) = (   0.000000   0.000000   4.732022 )

     reciprocal axes: (cart. coord. in units 2 pi/alat)
               b(1) = (  0.211326  0.000000  0.000000 )
               b(2) = (  0.000000  0.211326  0.000000 )
               b(3) = (  0.000000  0.000000  0.211326 )

     PseudoPot. # 1 for Y  read from file:
     /home/vossj/suncat/psp/gbrv1.5pbe/Y.UPF
     MD5 check sum: d034151ed7554c50b6e82763ed42c788
     Pseudo is Ultrasoft + core correction, Zval = 11.0
     Generated by new atomic code, or converted to UPF format
     Using radial grid of  885 points,  6 beta functions with:
                l(1) =   0
                l(2) =   0
                l(3) =   1
                l(4) =   1
                l(5) =   2
                l(6) =   2
     Q(r) pseudized with  8 coefficients,  rinner =    1.200   1.200   1.200
                                                       1.200   1.200

     PseudoPot. # 2 for Pd read from file:
     /home/vossj/suncat/psp/gbrv1.5pbe/Pd.UPF
     MD5 check sum: 2d733d2bc2cbfd217af676df1668a4bc
     Pseudo is Ultrasoft + core correction, Zval = 16.0
     Generated by new atomic code, or converted to UPF format
     Using radial grid of  887 points,  6 beta functions with:
                l(1) =   0
                l(2) =   0
                l(3) =   1
                l(4) =   1
                l(5) =   2
                l(6) =   2
     Q(r) pseudized with  8 coefficients,  rinner =    1.130   1.130   1.130
                                                       1.130   1.130

     vdW kernel table read from file vdW_kernel_table
     MD5 check sum: 095c7af220d748ca6e76c0b4c6cfb241

     atomic species   valence    mass     pseudopotential
        Y1            11.00    88.90584     Y ( 1.00)
        Pd1           16.00   106.42000     Pd( 1.00)

     48 Sym. Ops., with inversion, found (32 have fractional translation)

   Cartesian axes

     site n.     atom                  positions (alat units)
         1           Y1  tau(   1) = (   0.0000000   0.0000000   0.0000000  )
         2           Y1  tau(   2) = (   0.0000000   2.3660112   2.3660112  )
         3           Y1  tau(   3) = (   2.3660112   0.0000000   2.3660112  )
         4           Pd1 tau(   4) = (   2.3660112   2.3660112   0.0000000  )

     number of k points=    84  Fermi-Dirac smearing, width (Ry)=  0.0073
                       cart. coord. in units 2pi/alat
        k(    1) = (   0.0000000   0.0000000   0.0000000), wk =   0.0011574
        k(    2) = (   0.0000000   0.0000000   0.0176105), wk =   0.0069444
        k(    3) = (   0.0000000   0.0000000   0.0352210), wk =   0.0069444
        k(    4) = (   0.0000000   0.0000000   0.0528315), wk =   0.0069444
        k(    5) = (   0.0000000   0.0000000   0.0704420), wk =   0.0069444
        k(    6) = (   0.0000000   0.0000000   0.0880526), wk =   0.0069444
        k(    7) = (   0.0000000   0.0000000  -0.1056631), wk =   0.0034722
        k(    8) = (   0.0000000   0.0176105   0.0176105), wk =   0.0138889
        k(    9) = (   0.0000000   0.0176105   0.0352210), wk =   0.0277778
        k(   10) = (   0.0000000   0.0176105   0.0528315), wk =   0.0277778
        k(   11) = (   0.0000000   0.0176105   0.0704420), wk =   0.0277778
        k(   12) = (   0.0000000   0.0176105   0.0880526), wk =   0.0277778
        k(   13) = (   0.0000000   0.0176105  -0.1056631), wk =   0.0138889
        k(   14) = (   0.0000000   0.0352210   0.0352210), wk =   0.0138889
        k(   15) = (   0.0000000   0.0352210   0.0528315), wk =   0.0277778
        k(   16) = (   0.0000000   0.0352210   0.0704420), wk =   0.0277778
        k(   17) = (   0.0000000   0.0352210   0.0880526), wk =   0.0277778
        k(   18) = (   0.0000000   0.0352210  -0.1056631), wk =   0.0138889
        k(   19) = (   0.0000000   0.0528315   0.0528315), wk =   0.0138889
        k(   20) = (   0.0000000   0.0528315   0.0704420), wk =   0.0277778
        k(   21) = (   0.0000000   0.0528315   0.0880526), wk =   0.0277778
        k(   22) = (   0.0000000   0.0528315  -0.1056631), wk =   0.0138889
        k(   23) = (   0.0000000   0.0704420   0.0704420), wk =   0.0138889
        k(   24) = (   0.0000000   0.0704420   0.0880526), wk =   0.0277778
        k(   25) = (   0.0000000   0.0704420  -0.1056631), wk =   0.0138889
        k(   26) = (   0.0000000   0.0880526   0.0880526), wk =   0.0138889
        k(   27) = (   0.0000000   0.0880526  -0.1056631), wk =   0.0138889
        k(   28) = (   0.0000000  -0.1056631  -0.1056631), wk =   0.0034722
        k(   29) = (   0.0176105   0.0176105   0.0176105), wk =   0.0092593
        k(   30) = (   0.0176105   0.0176105   0.0352210), wk =   0.0277778
        k(   31) = (   0.0176105   0.0176105   0.0528315), wk =   0.0277778
        k(   32) = (   0.0176105   0.0176105   0.0704420), wk =   0.0277778
        k(   33) = (   0.0176105   0.0176105   0.0880526), wk =   0.0277778
        k(   34) = (   0.0176105   0.0176105  -0.1056631), wk =   0.0138889
        k(   35) = (   0.0176105   0.0352210   0.0352210), wk =   0.0277778
        k(   36) = (   0.0176105   0.0352210   0.0528315), wk =   0.0555556
        k(   37) = (   0.0176105   0.0352210   0.0704420), wk =   0.0555556
        k(   38) = (   0.0176105   0.0352210   0.0880526), wk =   0.0555556
        k(   39) = (   0.0176105   0.0352210  -0.1056631), wk =   0.0277778
        k(   40) = (   0.0176105   0.0528315   0.0528315), wk =   0.0277778
        k(   41) = (   0.0176105   0.0528315   0.0704420), wk =   0.0555556
        k(   42) = (   0.0176105   0.0528315   0.0880526), wk =   0.0555556
        k(   43) = (   0.0176105   0.0528315  -0.1056631), wk =   0.0277778
        k(   44) = (   0.0176105   0.0704420   0.0704420), wk =   0.0277778
        k(   45) = (   0.0176105   0.0704420   0.0880526), wk =   0.0555556
        k(   46) = (   0.0176105   0.0704420  -0.1056631), wk =   0.0277778
        k(   47) = (   0.0176105   0.0880526   0.0880526), wk =   0.0277778
        k(   48) = (   0.0176105   0.0880526  -0.1056631), wk =   0.0277778
        k(   49) = (   0.0176105  -0.1056631  -0.1056631), wk =   0.0069444
        k(   50) = (   0.0352210   0.0352210   0.0352210), wk =   0.0092593
        k(   51) = (   0.0352210   0.0352210   0.0528315), wk =   0.0277778
        k(   52) = (   0.0352210   0.0352210   0.0704420), wk =   0.0277778
        k(   53) = (   0.0352210   0.0352210   0.0880526), wk =   0.0277778
        k(   54) = (   0.0352210   0.0352210  -0.1056631), wk =   0.0138889
        k(   55) = (   0.0352210   0.0528315   0.0528315), wk =   0.0277778
        k(   56) = (   0.0352210   0.0528315   0.0704420), wk =   0.0555556
        k(   57) = (   0.0352210   0.0528315   0.0880526), wk =   0.0555556
        k(   58) = (   0.0352210   0.0528315  -0.1056631), wk =   0.0277778
        k(   59) = (   0.0352210   0.0704420   0.0704420), wk =   0.0277778
        k(   60) = (   0.0352210   0.0704420   0.0880526), wk =   0.0555556
[...]
        k(   70) = (   0.0528315   0.0704420   0.0880526), wk =   0.0555556
        k(   71) = (   0.0528315   0.0704420  -0.1056631), wk =   0.0277778
        k(   72) = (   0.0528315   0.0880526   0.0880526), wk =   0.0277778
        k(   73) = (   0.0528315   0.0880526  -0.1056631), wk =   0.0277778
        k(   74) = (   0.0528315  -0.1056631  -0.1056631), wk =   0.0069444
        k(   75) = (   0.0704420   0.0704420   0.0704420), wk =   0.0092593
        k(   76) = (   0.0704420   0.0704420   0.0880526), wk =   0.0277778
        k(   77) = (   0.0704420   0.0704420  -0.1056631), wk =   0.0138889
        k(   78) = (   0.0704420   0.0880526   0.0880526), wk =   0.0277778
        k(   79) = (   0.0704420   0.0880526  -0.1056631), wk =   0.0277778
        k(   80) = (   0.0704420  -0.1056631  -0.1056631), wk =   0.0069444
        k(   81) = (   0.0880526   0.0880526   0.0880526), wk =   0.0092593
        k(   82) = (   0.0880526   0.0880526  -0.1056631), wk =   0.0138889
        k(   83) = (   0.0880526  -0.1056631  -0.1056631), wk =   0.0069444
        k(   84) = (  -0.1056631  -0.1056631  -0.1056631), wk =   0.0011574

     Largest allocated arrays     est. size (Mb)     dimensions
     Largest temporary arrays     est. size (Mb)     dimensions

     Initial potential from superposition of free atoms
     Check: negative starting charge=   -0.077450

     starting charge   48.48659, renormalised to   49.00000

     negative rho (up, down):  7.827E-02 0.000E+00

     *
     * You are using vdW-DF for exchange-correlation in this calculation.
     * Please cite the following three references that made this development
     * possible:
     *
     *   M. Dion, H. Rydberg, E. Schroder, D. C. Langreth, and
     *   B. I. Lundqvist, Phys. Rev. Lett. 92, 246401 (2004).
     *
     *   T. Thonhauser, V. R. Cooper, S. Li, A. Puzder, P. Hyldgaard, and
     *   D. C. Langreth, Phys. Rev. B 76, 125112 (2007).
     *
     *   G. Roman-Perez and J. M. Soler, Phys. Rev. Lett. 103, 096102 (2009).
     *
     *
     * If you are using vdW-DF2, please also cite:
     *
     *   K. Lee, E. D. Murray, L. Kong, B. I. Lundqvist, and
     *   D. C. Langreth, Phys. Rev. B 82, 081101(R) (2010).
     *
     *
     * If you are calculating the stress with vdW-DF, please also cite:
     *
     *   R. Sabatini, E. Kucukbenli, B. Kolb, T. Thonhauser, and
     *   S. de Gironcoli, J. Phys.: Condens. Matter 24, 424209 (2012).
     *

     Carrying out vdW-DF run using the following parameters:

     Nqs =      20    Nr_points =    1024   r_max =   100.000
     q_mesh =
               0.00001000     0.04494208     0.09755937     0.15916263
               0.23128650     0.31572767     0.41458969     0.53033537
               0.66584808     0.82450364     1.01025438     1.22772762
               1.48234092     1.78043706     2.12944203     2.53805004
               3.01644009     3.57652955     4.23227104     5.00000000

     Gradients computed in reciprocal space

     Starting wfc are   51 randomized atomic wfcs

     Self-consistent Calculation

     iteration #  1     ecut=    58.80 Ry     beta=0.10
     Davidson diagonalization with overlap
     ethr =  1.00E-02,  avg # of iterations =  4.4

[...]

     total energy              =    -481.11848699 Ry
     Harris-Foulkes estimate   =    -481.28882296 Ry
     estimated scf accuracy    <       3.45651462 Ry

[...]

     total energy              =    -481.01835994 Ry
     Harris-Foulkes estimate   =    -481.01835646 Ry
     estimated scf accuracy    <       0.00000003 Ry

     iteration # 16     ecut=    58.80 Ry     beta=0.10
     Davidson diagonalization with overlap
     ethr =  6.00E-11,  avg # of iterations =  1.4

     negative rho (up, down):  8.120E-02 0.000E+00

     End of self-consistent calculation

          k = 0.0000 0.0000 0.0000 (  5449 PWs)   bands (ev):

   -38.6776 -38.6776 -38.6776 -31.5118 -31.3660 -31.3660 -11.7544 -11.7544
   -11.7544 -11.3215 -11.3215 -11.3215 -11.0817 -11.0817 -11.0817   6.3459
     8.2496   8.2496   8.6067   8.6067   8.6067   8.8547  11.4799  11.4799
    11.4799  12.0097  12.0097  14.0035  14.0035  14.0035  15.2368  15.2368
    15.2368  16.4375  16.4375  17.4857  17.9578  17.9578  17.9578  19.6569
    19.6569  19.6569  19.7034  21.5438

[...]

          k = 0.0881-0.1057-0.1057 (  5468 PWs)   bands (ev):

[...]

          k =-0.1057-0.1057-0.1057 (  5520 PWs)   bands (ev):

   -38.6777 -38.6777 -38.6777 -31.4136 -31.4136 -31.4136 -12.0030 -11.6899
   -11.6899 -11.6899 -11.1050 -11.1050 -11.0969 -11.0969 -11.0969   8.3163
     8.3163   8.3163   8.5524   9.1351   9.1351  10.8441  10.8441  10.8441
    12.2826  12.2826  12.2826  12.6946  13.0896  13.0896  13.0896  14.8616
    14.8616  14.8616  15.8360  15.8360  17.4491  17.4491  17.4491  18.5193
    20.3503  20.3503  20.3503  21.4586

     the Fermi energy is    11.5089 ev

!    total energy              =    -481.01837480 Ry
     Harris-Foulkes estimate   =    -481.01835996 Ry
     estimated scf accuracy    <          2.5E-10 Ry

     The total energy is the sum of the following terms:

     one-electron contribution =    -143.88566731 Ry
     hartree contribution      =      92.84732771 Ry
     xc contribution           =    -117.47685382 Ry
     ewald contribution        =    -312.48823505 Ry
     smearing contrib. (-TS)   =      -0.01494634 Ry

     convergence has been achieved in  16 iterations

     Forces acting on atoms (Ry/au):

     negative rho (up, down):  8.120E-02 0.000E+00
     atom    1 type  1   force =     0.00000000    0.00000000    0.00000000
     atom    2 type  1   force =     0.00000000    0.00000000    0.00000000
     atom    3 type  1   force =     0.00000000    0.00000000   -0.00000000
     atom    4 type  2   force =     0.00000000   -0.00000000    0.00000000

     Total force =     0.000000     Total SCF correction =     0.000000
 !ASE

     General routines

     Parallel routines

   This run was terminated on:   7:17:18  25Oct2017

   JOB DONE.