     Program PWSCF v.5.1rc2 (svn rev. ) starts on 25Oct2017 at 23: 1:29

     Current dimensions of program PWSCF are:
     Max number of different atomic species (ntypx) = 10
     Max number of k-points (npk) =  40000
     Max angular momentum in pseudopotentials (lmaxx) =  3

     IMPORTANT: XC functional enforced from input :
     Exchange-correlation      = BEEF-VDW ( 1  4 27 13 2)
     Any further DFT definition will be discarded
     Please, verify this is what you really want

     Subspace diagonalization in iterative solution of the eigenvalue problem:
     a serial algorithm will be used

     bravais-lattice index     =            0
     lattice parameter (alat)  =       1.8897  a.u.
     unit-cell volume          =     428.7961 (a.u.)^3
     number of atoms/cell      =            4
     number of atomic types    =            2
     number of electrons       =        58.00
     number of Kohn-Sham states=           49
     kinetic-energy cutoff     =      58.7989  Ry
     charge density cutoff     =     587.9892  Ry
     convergence threshold     =      7.3E-09
     mixing beta               =       0.1000
     number of iterations used =           10  local-TF  mixing
     Exchange-correlation      = BEEF-VDW ( 1  4 27 13 2)
     nstep                     =           50

     celldm(1)=   1.889726  celldm(2)=   0.000000  celldm(3)=   0.000000
     celldm(4)=   0.000000  celldm(5)=   0.000000  celldm(6)=   0.000000

     crystal axes: (cart. coord. in units of alat)
               a(1) = (   3.990415   0.000000   0.000000 )
               a(2) = (   0.000000   3.990415   0.000000 )
               a(3) = (   0.000000   0.000000   3.990415 )

     reciprocal axes: (cart. coord. in units 2 pi/alat)
               b(1) = (  0.250601  0.000000  0.000000 )
               b(2) = (  0.000000  0.250601  0.000000 )
               b(3) = (  0.000000  0.000000  0.250601 )

     PseudoPot. # 1 for W  read from file:
     /home/vossj/suncat/psp/gbrv1.5pbe/W.UPF
     MD5 check sum: 9c083fa34c2a2ea0f02f1f893e16e1c8
     Pseudo is Ultrasoft + core correction, Zval = 14.0
     Generated by new atomic code, or converted to UPF format
     Using radial grid of  923 points,  8 beta functions with:
                l(1) =   0
                l(2) =   0
                l(3) =   0
                l(4) =   1
                l(5) =   1
                l(6) =   2
                l(7) =   2
                l(8) =   3
     Q(r) pseudized with  6 coefficients,  rinner =    1.350   1.350   1.350
                                                       1.350   1.350   1.350
                                                       1.350

     PseudoPot. # 2 for Pd read from file:
     /home/vossj/suncat/psp/gbrv1.5pbe/Pd.UPF
     MD5 check sum: 2d733d2bc2cbfd217af676df1668a4bc
     Pseudo is Ultrasoft + core correction, Zval = 16.0
     Generated by new atomic code, or converted to UPF format
     Using radial grid of  887 points,  6 beta functions with:
                l(1) =   0
                l(2) =   0
                l(3) =   1
                l(4) =   1
                l(5) =   2
                l(6) =   2
     Q(r) pseudized with  8 coefficients,  rinner =    1.130   1.130   1.130
                                                       1.130   1.130

     vdW kernel table read from file vdW_kernel_table
     MD5 check sum: 095c7af220d748ca6e76c0b4c6cfb241

     atomic species   valence    mass     pseudopotential
        W1            14.00   183.84000     W ( 1.00)
        Pd1           16.00   106.42000     Pd( 1.00)

     48 Sym. Ops., with inversion, found (32 have fractional translation)

   Cartesian axes

     site n.     atom                  positions (alat units)
         1           W1  tau(   1) = (   0.0000000   0.0000000   0.0000000  )
         2           W1  tau(   2) = (   0.0000000   1.9952075   1.9952075  )
         3           W1  tau(   3) = (   1.9952075   0.0000000   1.9952075  )
         4           Pd1 tau(   4) = (   1.9952075   1.9952075   0.0000000  )

     number of k points=    84  Fermi-Dirac smearing, width (Ry)=  0.0073
                       cart. coord. in units 2pi/alat
        k(    1) = (   0.0000000   0.0000000   0.0000000), wk =   0.0011574
        k(    2) = (   0.0000000   0.0000000   0.0208834), wk =   0.0069444
        k(    3) = (   0.0000000   0.0000000   0.0417668), wk =   0.0069444
        k(    4) = (   0.0000000   0.0000000   0.0626501), wk =   0.0069444
        k(    5) = (   0.0000000   0.0000000   0.0835335), wk =   0.0069444
        k(    6) = (   0.0000000   0.0000000   0.1044169), wk =   0.0069444
        k(    7) = (   0.0000000   0.0000000  -0.1253003), wk =   0.0034722
        k(    8) = (   0.0000000   0.0208834   0.0208834), wk =   0.0138889
        k(    9) = (   0.0000000   0.0208834   0.0417668), wk =   0.0277778
        k(   10) = (   0.0000000   0.0208834   0.0626501), wk =   0.0277778
        k(   11) = (   0.0000000   0.0208834   0.0835335), wk =   0.0277778
        k(   12) = (   0.0000000   0.0208834   0.1044169), wk =   0.0277778
        k(   13) = (   0.0000000   0.0208834  -0.1253003), wk =   0.0138889
        k(   14) = (   0.0000000   0.0417668   0.0417668), wk =   0.0138889
        k(   15) = (   0.0000000   0.0417668   0.0626501), wk =   0.0277778
        k(   16) = (   0.0000000   0.0417668   0.0835335), wk =   0.0277778
        k(   17) = (   0.0000000   0.0417668   0.1044169), wk =   0.0277778
        k(   18) = (   0.0000000   0.0417668  -0.1253003), wk =   0.0138889
        k(   19) = (   0.0000000   0.0626501   0.0626501), wk =   0.0138889
        k(   20) = (   0.0000000   0.0626501   0.0835335), wk =   0.0277778
        k(   21) = (   0.0000000   0.0626501   0.1044169), wk =   0.0277778
        k(   22) = (   0.0000000   0.0626501  -0.1253003), wk =   0.0138889
        k(   23) = (   0.0000000   0.0835335   0.0835335), wk =   0.0138889
        k(   24) = (   0.0000000   0.0835335   0.1044169), wk =   0.0277778
        k(   25) = (   0.0000000   0.0835335  -0.1253003), wk =   0.0138889
        k(   26) = (   0.0000000   0.1044169   0.1044169), wk =   0.0138889
        k(   27) = (   0.0000000   0.1044169  -0.1253003), wk =   0.0138889
        k(   28) = (   0.0000000  -0.1253003  -0.1253003), wk =   0.0034722
        k(   29) = (   0.0208834   0.0208834   0.0208834), wk =   0.0092593
        k(   30) = (   0.0208834   0.0208834   0.0417668), wk =   0.0277778
        k(   31) = (   0.0208834   0.0208834   0.0626501), wk =   0.0277778
        k(   32) = (   0.0208834   0.0208834   0.0835335), wk =   0.0277778
        k(   33) = (   0.0208834   0.0208834   0.1044169), wk =   0.0277778
        k(   34) = (   0.0208834   0.0208834  -0.1253003), wk =   0.0138889
        k(   35) = (   0.0208834   0.0417668   0.0417668), wk =   0.0277778
        k(   36) = (   0.0208834   0.0417668   0.0626501), wk =   0.0555556
        k(   37) = (   0.0208834   0.0417668   0.0835335), wk =   0.0555556
        k(   38) = (   0.0208834   0.0417668   0.1044169), wk =   0.0555556
        k(   39) = (   0.0208834   0.0417668  -0.1253003), wk =   0.0277778
        k(   40) = (   0.0208834   0.0626501   0.0626501), wk =   0.0277778
        k(   41) = (   0.0208834   0.0626501   0.0835335), wk =   0.0555556
        k(   42) = (   0.0208834   0.0626501   0.1044169), wk =   0.0555556
        k(   43) = (   0.0208834   0.0626501  -0.1253003), wk =   0.0277778
        k(   44) = (   0.0208834   0.0835335   0.0835335), wk =   0.0277778
        k(   45) = (   0.0208834   0.0835335   0.1044169), wk =   0.0555556
        k(   46) = (   0.0208834   0.0835335  -0.1253003), wk =   0.0277778
        k(   47) = (   0.0208834   0.1044169   0.1044169), wk =   0.0277778
        k(   48) = (   0.0208834   0.1044169  -0.1253003), wk =   0.0277778
        k(   49) = (   0.0208834  -0.1253003  -0.1253003), wk =   0.0069444
        k(   50) = (   0.0417668   0.0417668   0.0417668), wk =   0.0092593
        k(   51) = (   0.0417668   0.0417668   0.0626501), wk =   0.0277778
        k(   52) = (   0.0417668   0.0417668   0.0835335), wk =   0.0277778
        k(   53) = (   0.0417668   0.0417668   0.1044169), wk =   0.0277778
        k(   54) = (   0.0417668   0.0417668  -0.1253003), wk =   0.0138889
        k(   55) = (   0.0417668   0.0626501   0.0626501), wk =   0.0277778
        k(   56) = (   0.0417668   0.0626501   0.0835335), wk =   0.0555556
        k(   57) = (   0.0417668   0.0626501   0.1044169), wk =   0.0555556
        k(   58) = (   0.0417668   0.0626501  -0.1253003), wk =   0.0277778
        k(   59) = (   0.0417668   0.0835335   0.0835335), wk =   0.0277778
        k(   60) = (   0.0417668   0.0835335   0.1044169), wk =   0.0555556
[...]
        k(   70) = (   0.0626501   0.0835335   0.1044169), wk =   0.0555556
        k(   71) = (   0.0626501   0.0835335  -0.1253003), wk =   0.0277778
        k(   72) = (   0.0626501   0.1044169   0.1044169), wk =   0.0277778
        k(   73) = (   0.0626501   0.1044169  -0.1253003), wk =   0.0277778
        k(   74) = (   0.0626501  -0.1253003  -0.1253003), wk =   0.0069444
        k(   75) = (   0.0835335   0.0835335   0.0835335), wk =   0.0092593
        k(   76) = (   0.0835335   0.0835335   0.1044169), wk =   0.0277778
        k(   77) = (   0.0835335   0.0835335  -0.1253003), wk =   0.0138889
        k(   78) = (   0.0835335   0.1044169   0.1044169), wk =   0.0277778
        k(   79) = (   0.0835335   0.1044169  -0.1253003), wk =   0.0277778
        k(   80) = (   0.0835335  -0.1253003  -0.1253003), wk =   0.0069444
        k(   81) = (   0.1044169   0.1044169   0.1044169), wk =   0.0092593
        k(   82) = (   0.1044169   0.1044169  -0.1253003), wk =   0.0138889
        k(   83) = (   0.1044169  -0.1253003  -0.1253003), wk =   0.0069444
        k(   84) = (  -0.1253003  -0.1253003  -0.1253003), wk =   0.0011574

     Largest allocated arrays     est. size (Mb)     dimensions
     Largest temporary arrays     est. size (Mb)     dimensions

     Initial potential from superposition of free atoms
     Check: negative starting charge=   -0.263704

     starting charge   57.19897, renormalised to   58.00000

     negative rho (up, down):  2.674E-01 0.000E+00

     *
     * You are using vdW-DF for exchange-correlation in this calculation.
     * Please cite the following three references that made this development
     * possible:
     *
     *   M. Dion, H. Rydberg, E. Schroder, D. C. Langreth, and
     *   B. I. Lundqvist, Phys. Rev. Lett. 92, 246401 (2004).
     *
     *   T. Thonhauser, V. R. Cooper, S. Li, A. Puzder, P. Hyldgaard, and
     *   D. C. Langreth, Phys. Rev. B 76, 125112 (2007).
     *
     *   G. Roman-Perez and J. M. Soler, Phys. Rev. Lett. 103, 096102 (2009).
     *
     *
     * If you are using vdW-DF2, please also cite:
     *
     *   K. Lee, E. D. Murray, L. Kong, B. I. Lundqvist, and
     *   D. C. Langreth, Phys. Rev. B 82, 081101(R) (2010).
     *
     *
     * If you are calculating the stress with vdW-DF, please also cite:
     *
     *   R. Sabatini, E. Kucukbenli, B. Kolb, T. Thonhauser, and
     *   S. de Gironcoli, J. Phys.: Condens. Matter 24, 424209 (2012).
     *

     Carrying out vdW-DF run using the following parameters:

     Nqs =      20    Nr_points =    1024   r_max =   100.000
     q_mesh =
               0.00001000     0.04494208     0.09755937     0.15916263
               0.23128650     0.31572767     0.41458969     0.53033537
               0.66584808     0.82450364     1.01025438     1.22772762
               1.48234092     1.78043706     2.12944203     2.53805004
               3.01644009     3.57652955     4.23227104     5.00000000

     Gradients computed in reciprocal space

     Starting wfc are   51 randomized atomic wfcs

     Self-consistent Calculation

     iteration #  1     ecut=    58.80 Ry     beta=0.10
     Davidson diagonalization with overlap
     ethr =  1.00E-02,  avg # of iterations =  4.4

[...]

     total energy              =    -681.49318249 Ry
     Harris-Foulkes estimate   =    -681.79114047 Ry
     estimated scf accuracy    <       5.76457745 Ry

[...]

     total energy              =    -681.22460115 Ry
     Harris-Foulkes estimate   =    -681.22460083 Ry
     estimated scf accuracy    <       0.00000002 Ry

     iteration # 14     ecut=    58.80 Ry     beta=0.10
     Davidson diagonalization with overlap
     ethr =  2.84E-11,  avg # of iterations =  2.0

     negative rho (up, down):  2.880E-01 0.000E+00

     End of self-consistent calculation

          k = 0.0000 0.0000 0.0000 (  3239 PWs)   bands (ev):

   -53.3816 -53.2641 -53.2641 -30.1540 -30.1540 -30.1540 -17.8234 -17.8234
   -17.8234 -17.3468 -17.3468 -17.3468 -17.0043 -17.0043 -17.0043  12.0766
    14.9539  14.9539  15.2604  15.6622  15.6622  15.6622  18.9342  18.9342
    18.9342  20.6278  20.6278  23.6784  23.6784  23.6784  23.7351  23.7351
    23.7351  24.6447  24.6447  25.8632  26.6639  26.6639  26.6639  32.1575
    32.1575  32.1575  33.4096  33.4096  33.4862  33.5791  33.5791  33.5791
    34.5624

[...]

          k = 0.1044-0.1253-0.1253 (  3256 PWs)   bands (ev):

[...]

          k =-0.1253-0.1253-0.1253 (  3184 PWs)   bands (ev):

   -53.3028 -53.3028 -53.3028 -30.1568 -30.1568 -30.1568 -18.0688 -17.7724
   -17.7724 -17.7724 -17.0709 -17.0709 -17.0709 -17.0056 -17.0056  14.9015
    14.9015  14.9015  15.4372  17.4935  17.4935  18.5962  18.5962  18.5962
    19.9955  19.9955  19.9955  21.2607  21.2607  21.2607  21.5913  23.3009
    23.3009  23.3009  24.1034  24.1034  25.9112  25.9112  25.9112  30.5524
    30.5524  30.5524  30.9083  33.9553  34.1649  34.1649  34.1649  39.0173
    39.0174

     the Fermi energy is    20.8177 ev

!    total energy              =    -681.22460258 Ry
     Harris-Foulkes estimate   =    -681.22460115 Ry
     estimated scf accuracy    <          3.4E-09 Ry

     The total energy is the sum of the following terms:

     one-electron contribution =     -95.41317565 Ry
     hartree contribution      =      86.82587318 Ry
     xc contribution           =    -160.39786516 Ry
     ewald contribution        =    -512.23182330 Ry
     smearing contrib. (-TS)   =      -0.00761166 Ry

     convergence has been achieved in  14 iterations

     Forces acting on atoms (Ry/au):

     negative rho (up, down):  2.880E-01 0.000E+00
     atom    1 type  1   force =     0.00000000    0.00000000    0.00000000
     atom    2 type  1   force =     0.00000000   -0.00000000    0.00000000
     atom    3 type  1   force =     0.00000000    0.00000000    0.00000000
     atom    4 type  2   force =     0.00000000    0.00000000    0.00000000

     Total force =     0.000000     Total SCF correction =     0.000000
 !ASE

     General routines

     Parallel routines

   This run was terminated on:  23: 2:35  25Oct2017

   JOB DONE.