     Program PWSCF v.5.1rc2 (svn rev. ) starts on 25Oct2017 at  6:16:33

     Current dimensions of program PWSCF are:
     Max number of different atomic species (ntypx) = 10
     Max number of k-points (npk) =  40000
     Max angular momentum in pseudopotentials (lmaxx) =  3

     IMPORTANT: XC functional enforced from input :
     Exchange-correlation      = BEEF-VDW ( 1  4 27 13 2)
     Any further DFT definition will be discarded
     Please, verify this is what you really want

     Subspace diagonalization in iterative solution of the eigenvalue problem:
     a serial algorithm will be used

     bravais-lattice index     =            0
     lattice parameter (alat)  =       1.8897  a.u.
     unit-cell volume          =     405.1034 (a.u.)^3
     number of atoms/cell      =            4
     number of atomic types    =            2
     number of electrons       =        61.00
     number of Kohn-Sham states=           50
     kinetic-energy cutoff     =      58.7989  Ry
     charge density cutoff     =     587.9892  Ry
     convergence threshold     =      7.3E-09
     mixing beta               =       0.1000
     number of iterations used =           10  local-TF  mixing
     Exchange-correlation      = BEEF-VDW ( 1  4 27 13 2)
     nstep                     =           50

     celldm(1)=   1.889726  celldm(2)=   0.000000  celldm(3)=   0.000000
     celldm(4)=   0.000000  celldm(5)=   0.000000  celldm(6)=   0.000000

     crystal axes: (cart. coord. in units of alat)
               a(1) = (   3.915523   0.000000   0.000000 )
               a(2) = (   0.000000   3.915523   0.000000 )
               a(3) = (   0.000000   0.000000   3.915523 )

     reciprocal axes: (cart. coord. in units 2 pi/alat)
               b(1) = (  0.255394  0.000000  0.000000 )
               b(2) = (  0.000000  0.255394  0.000000 )
               b(3) = (  0.000000  0.000000  0.255394 )

     PseudoPot. # 1 for Pd read from file:
     /home/vossj/suncat/psp/gbrv1.5pbe/Pd.UPF
     MD5 check sum: 2d733d2bc2cbfd217af676df1668a4bc
     Pseudo is Ultrasoft + core correction, Zval = 16.0
     Generated by new atomic code, or converted to UPF format
     Using radial grid of  887 points,  6 beta functions with:
                l(1) =   0
                l(2) =   0
                l(3) =   1
                l(4) =   1
                l(5) =   2
                l(6) =   2
     Q(r) pseudized with  8 coefficients,  rinner =    1.130   1.130   1.130
                                                       1.130   1.130

     PseudoPot. # 2 for V  read from file:
     /home/vossj/suncat/psp/gbrv1.5pbe/V.UPF
     MD5 check sum: 22b79981416ebb76fdaf5b1b8640f6fb
     Pseudo is Ultrasoft + core correction, Zval = 13.0
     Generated by new atomic code, or converted to UPF format
     Using radial grid of  853 points,  6 beta functions with:
                l(1) =   0
                l(2) =   0
                l(3) =   1
                l(4) =   1
                l(5) =   2
                l(6) =   2
     Q(r) pseudized with  8 coefficients,  rinner =    1.100   1.100   1.100
                                                       1.100   1.100

     vdW kernel table read from file vdW_kernel_table
     MD5 check sum: 095c7af220d748ca6e76c0b4c6cfb241

     atomic species   valence    mass     pseudopotential
        Pd1           16.00   106.42000     Pd( 1.00)
        V1            13.00    50.94150     V ( 1.00)

     48 Sym. Ops., with inversion, found (32 have fractional translation)

   Cartesian axes

     site n.     atom                  positions (alat units)
         1           Pd1 tau(   1) = (   0.0000000   0.0000000   0.0000000  )
         2           Pd1 tau(   2) = (   0.0000000   1.9577615   1.9577615  )
         3           Pd1 tau(   3) = (   1.9577615   0.0000000   1.9577615  )
         4           V1  tau(   4) = (   1.9577615   1.9577615   0.0000000  )

     number of k points=    84  Fermi-Dirac smearing, width (Ry)=  0.0073
                       cart. coord. in units 2pi/alat
        k(    1) = (   0.0000000   0.0000000   0.0000000), wk =   0.0011574
        k(    2) = (   0.0000000   0.0000000   0.0212828), wk =   0.0069444
        k(    3) = (   0.0000000   0.0000000   0.0425656), wk =   0.0069444
        k(    4) = (   0.0000000   0.0000000   0.0638484), wk =   0.0069444
        k(    5) = (   0.0000000   0.0000000   0.0851312), wk =   0.0069444
        k(    6) = (   0.0000000   0.0000000   0.1064141), wk =   0.0069444
        k(    7) = (   0.0000000   0.0000000  -0.1276969), wk =   0.0034722
        k(    8) = (   0.0000000   0.0212828   0.0212828), wk =   0.0138889
        k(    9) = (   0.0000000   0.0212828   0.0425656), wk =   0.0277778
        k(   10) = (   0.0000000   0.0212828   0.0638484), wk =   0.0277778
        k(   11) = (   0.0000000   0.0212828   0.0851312), wk =   0.0277778
        k(   12) = (   0.0000000   0.0212828   0.1064141), wk =   0.0277778
        k(   13) = (   0.0000000   0.0212828  -0.1276969), wk =   0.0138889
        k(   14) = (   0.0000000   0.0425656   0.0425656), wk =   0.0138889
        k(   15) = (   0.0000000   0.0425656   0.0638484), wk =   0.0277778
        k(   16) = (   0.0000000   0.0425656   0.0851312), wk =   0.0277778
        k(   17) = (   0.0000000   0.0425656   0.1064141), wk =   0.0277778
        k(   18) = (   0.0000000   0.0425656  -0.1276969), wk =   0.0138889
        k(   19) = (   0.0000000   0.0638484   0.0638484), wk =   0.0138889
        k(   20) = (   0.0000000   0.0638484   0.0851312), wk =   0.0277778
        k(   21) = (   0.0000000   0.0638484   0.1064141), wk =   0.0277778
        k(   22) = (   0.0000000   0.0638484  -0.1276969), wk =   0.0138889
        k(   23) = (   0.0000000   0.0851312   0.0851312), wk =   0.0138889
        k(   24) = (   0.0000000   0.0851312   0.1064141), wk =   0.0277778
        k(   25) = (   0.0000000   0.0851312  -0.1276969), wk =   0.0138889
        k(   26) = (   0.0000000   0.1064141   0.1064141), wk =   0.0138889
        k(   27) = (   0.0000000   0.1064141  -0.1276969), wk =   0.0138889
        k(   28) = (   0.0000000  -0.1276969  -0.1276969), wk =   0.0034722
        k(   29) = (   0.0212828   0.0212828   0.0212828), wk =   0.0092593
        k(   30) = (   0.0212828   0.0212828   0.0425656), wk =   0.0277778
        k(   31) = (   0.0212828   0.0212828   0.0638484), wk =   0.0277778
        k(   32) = (   0.0212828   0.0212828   0.0851312), wk =   0.0277778
        k(   33) = (   0.0212828   0.0212828   0.1064141), wk =   0.0277778
        k(   34) = (   0.0212828   0.0212828  -0.1276969), wk =   0.0138889
        k(   35) = (   0.0212828   0.0425656   0.0425656), wk =   0.0277778
        k(   36) = (   0.0212828   0.0425656   0.0638484), wk =   0.0555556
        k(   37) = (   0.0212828   0.0425656   0.0851312), wk =   0.0555556
        k(   38) = (   0.0212828   0.0425656   0.1064141), wk =   0.0555556
        k(   39) = (   0.0212828   0.0425656  -0.1276969), wk =   0.0277778
        k(   40) = (   0.0212828   0.0638484   0.0638484), wk =   0.0277778
        k(   41) = (   0.0212828   0.0638484   0.0851312), wk =   0.0555556
        k(   42) = (   0.0212828   0.0638484   0.1064141), wk =   0.0555556
        k(   43) = (   0.0212828   0.0638484  -0.1276969), wk =   0.0277778
        k(   44) = (   0.0212828   0.0851312   0.0851312), wk =   0.0277778
        k(   45) = (   0.0212828   0.0851312   0.1064141), wk =   0.0555556
        k(   46) = (   0.0212828   0.0851312  -0.1276969), wk =   0.0277778
        k(   47) = (   0.0212828   0.1064141   0.1064141), wk =   0.0277778
        k(   48) = (   0.0212828   0.1064141  -0.1276969), wk =   0.0277778
        k(   49) = (   0.0212828  -0.1276969  -0.1276969), wk =   0.0069444
        k(   50) = (   0.0425656   0.0425656   0.0425656), wk =   0.0092593
        k(   51) = (   0.0425656   0.0425656   0.0638484), wk =   0.0277778
        k(   52) = (   0.0425656   0.0425656   0.0851312), wk =   0.0277778
        k(   53) = (   0.0425656   0.0425656   0.1064141), wk =   0.0277778
        k(   54) = (   0.0425656   0.0425656  -0.1276969), wk =   0.0138889
        k(   55) = (   0.0425656   0.0638484   0.0638484), wk =   0.0277778
        k(   56) = (   0.0425656   0.0638484   0.0851312), wk =   0.0555556
        k(   57) = (   0.0425656   0.0638484   0.1064141), wk =   0.0555556
        k(   58) = (   0.0425656   0.0638484  -0.1276969), wk =   0.0277778
        k(   59) = (   0.0425656   0.0851312   0.0851312), wk =   0.0277778
        k(   60) = (   0.0425656   0.0851312   0.1064141), wk =   0.0555556
[...]
        k(   70) = (   0.0638484   0.0851312   0.1064141), wk =   0.0555556
        k(   71) = (   0.0638484   0.0851312  -0.1276969), wk =   0.0277778
        k(   72) = (   0.0638484   0.1064141   0.1064141), wk =   0.0277778
        k(   73) = (   0.0638484   0.1064141  -0.1276969), wk =   0.0277778
        k(   74) = (   0.0638484  -0.1276969  -0.1276969), wk =   0.0069444
        k(   75) = (   0.0851312   0.0851312   0.0851312), wk =   0.0092593
        k(   76) = (   0.0851312   0.0851312   0.1064141), wk =   0.0277778
        k(   77) = (   0.0851312   0.0851312  -0.1276969), wk =   0.0138889
        k(   78) = (   0.0851312   0.1064141   0.1064141), wk =   0.0277778
        k(   79) = (   0.0851312   0.1064141  -0.1276969), wk =   0.0277778
        k(   80) = (   0.0851312  -0.1276969  -0.1276969), wk =   0.0069444
        k(   81) = (   0.1064141   0.1064141   0.1064141), wk =   0.0092593
        k(   82) = (   0.1064141   0.1064141  -0.1276969), wk =   0.0138889
        k(   83) = (   0.1064141  -0.1276969  -0.1276969), wk =   0.0069444
        k(   84) = (  -0.1276969  -0.1276969  -0.1276969), wk =   0.0011574

     Largest allocated arrays     est. size (Mb)     dimensions
     Largest temporary arrays     est. size (Mb)     dimensions

     Initial potential from superposition of free atoms
     Check: negative starting charge=   -0.233221

     starting charge   59.49875, renormalised to   61.00000

     negative rho (up, down):  2.391E-01 0.000E+00

     *
     * You are using vdW-DF for exchange-correlation in this calculation.
     * Please cite the following three references that made this development
     * possible:
     *
     *   M. Dion, H. Rydberg, E. Schroder, D. C. Langreth, and
     *   B. I. Lundqvist, Phys. Rev. Lett. 92, 246401 (2004).
     *
     *   T. Thonhauser, V. R. Cooper, S. Li, A. Puzder, P. Hyldgaard, and
     *   D. C. Langreth, Phys. Rev. B 76, 125112 (2007).
     *
     *   G. Roman-Perez and J. M. Soler, Phys. Rev. Lett. 103, 096102 (2009).
     *
     *
     * If you are using vdW-DF2, please also cite:
     *
     *   K. Lee, E. D. Murray, L. Kong, B. I. Lundqvist, and
     *   D. C. Langreth, Phys. Rev. B 82, 081101(R) (2010).
     *
     *
     * If you are calculating the stress with vdW-DF, please also cite:
     *
     *   R. Sabatini, E. Kucukbenli, B. Kolb, T. Thonhauser, and
     *   S. de Gironcoli, J. Phys.: Condens. Matter 24, 424209 (2012).
     *

     Carrying out vdW-DF run using the following parameters:

     Nqs =      20    Nr_points =    1024   r_max =   100.000
     q_mesh =
               0.00001000     0.04494208     0.09755937     0.15916263
               0.23128650     0.31572767     0.41458969     0.53033537
               0.66584808     0.82450364     1.01025438     1.22772762
               1.48234092     1.78043706     2.12944203     2.53805004
               3.01644009     3.57652955     4.23227104     5.00000000

     Gradients computed in reciprocal space

     Starting wfc are   46 randomized atomic wfcs +    4 random wfc

     Self-consistent Calculation

     iteration #  1     ecut=    58.80 Ry     beta=0.10
     Davidson diagonalization with overlap
     ethr =  1.00E-02,  avg # of iterations =  4.5

[...]

     total energy              =    -745.77094034 Ry
     Harris-Foulkes estimate   =    -746.38760693 Ry
     estimated scf accuracy    <      11.21756854 Ry

[...]

     total energy              =    -745.26464240 Ry
     Harris-Foulkes estimate   =    -745.26464109 Ry
     estimated scf accuracy    <       0.00000004 Ry

     iteration # 14     ecut=    58.80 Ry     beta=0.10
     Davidson diagonalization with overlap
     ethr =  6.50E-11,  avg # of iterations =  1.0

     negative rho (up, down):  2.467E-01 0.000E+00

     End of self-consistent calculation

          k = 0.0000 0.0000 0.0000 (  3071 PWs)   bands (ev):

   -47.4116 -32.9479 -32.9479 -32.9479 -32.8384 -32.8384 -32.8384 -32.6533
   -32.6533 -32.6533 -21.1837 -21.1837 -21.1837  10.4051  12.0586  12.3917
    12.3917  12.5942  12.5942  12.5942  14.8539  14.8539  14.8539  16.2507
    16.2507  16.9527  17.4075  17.4075  17.4075  18.5642  18.5642  19.0037
    19.0037  19.0037  20.6042  20.6042  20.6042  27.5143  27.5143  28.5155
    30.4592  30.4592  30.4592  30.6556  30.6556  30.6556  35.0590  37.6479
    37.6479  38.0700

[...]

          k = 0.1064-0.1277-0.1277 (  3100 PWs)   bands (ev):

[...]

          k =-0.1277-0.1277-0.1277 (  3112 PWs)   bands (ev):

   -47.4108 -32.9690 -32.9690 -32.9690 -32.9399 -32.7515 -32.7515 -32.7515
   -32.6191 -32.6191 -21.1883 -21.1883 -21.1883  12.1142  12.4759  12.4759
    12.4759  14.2927  14.2927  14.2927  14.9150  14.9150  14.9150  15.2291
    15.2291  17.0566  17.0566  17.0566  18.1637  18.1637  18.1637  18.4550
    18.4550  18.4550  18.5037  18.6739  18.6739  24.4297  24.4297  24.4297
    25.2304  34.1679  34.1679  34.1679  34.3842  38.6219  38.6219  38.6219
    38.7816  38.7816

     the Fermi energy is    17.8043 ev

!    total energy              =    -745.26464805 Ry
     Harris-Foulkes estimate   =    -745.26464240 Ry
     estimated scf accuracy    <          6.2E-09 Ry

     The total energy is the sum of the following terms:

     one-electron contribution =    -191.01646144 Ry
     hartree contribution      =     142.24038006 Ry
     xc contribution           =    -117.99768470 Ry
     ewald contribution        =    -578.47462547 Ry
     smearing contrib. (-TS)   =      -0.01625649 Ry

     convergence has been achieved in  14 iterations

     Forces acting on atoms (Ry/au):

     negative rho (up, down):  2.467E-01 0.000E+00
     atom    1 type  1   force =     0.00000000   -0.00000000    0.00000000
     atom    2 type  1   force =     0.00000000    0.00000000   -0.00000000
     atom    3 type  1   force =     0.00000000    0.00000000    0.00000000
     atom    4 type  2   force =     0.00000000    0.00000000   -0.00000000

     Total force =     0.000000     Total SCF correction =     0.000000
 !ASE

     General routines

     Parallel routines

   This run was terminated on:   6:17:27  25Oct2017

   JOB DONE.