     Program PWSCF v.5.1rc2 (svn rev. ) starts on 25Oct2017 at 18: 2:10

     Current dimensions of program PWSCF are:
     Max number of different atomic species (ntypx) = 10
     Max number of k-points (npk) =  40000
     Max angular momentum in pseudopotentials (lmaxx) =  3

     IMPORTANT: XC functional enforced from input :
     Exchange-correlation      = BEEF-VDW ( 1  4 27 13 2)
     Any further DFT definition will be discarded
     Please, verify this is what you really want

     Subspace diagonalization in iterative solution of the eigenvalue problem:
     a serial algorithm will be used

     bravais-lattice index     =            0
     lattice parameter (alat)  =       1.8897  a.u.
     unit-cell volume          =     406.6620 (a.u.)^3
     number of atoms/cell      =            4
     number of atomic types    =            2
     number of electrons       =        59.00
     number of Kohn-Sham states=           49
     kinetic-energy cutoff     =      58.7989  Ry
     charge density cutoff     =     587.9892  Ry
     convergence threshold     =      7.3E-09
     mixing beta               =       0.1000
     number of iterations used =           10  local-TF  mixing
     Exchange-correlation      = BEEF-VDW ( 1  4 27 13 2)
     nstep                     =           50

     celldm(1)=   1.889726  celldm(2)=   0.000000  celldm(3)=   0.000000
     celldm(4)=   0.000000  celldm(5)=   0.000000  celldm(6)=   0.000000

     crystal axes: (cart. coord. in units of alat)
               a(1) = (   3.920538   0.000000   0.000000 )
               a(2) = (   0.000000   3.920538   0.000000 )
               a(3) = (   0.000000   0.000000   3.920538 )

     reciprocal axes: (cart. coord. in units 2 pi/alat)
               b(1) = (  0.255067  0.000000  0.000000 )
               b(2) = (  0.000000  0.255067  0.000000 )
               b(3) = (  0.000000  0.000000  0.255067 )

     PseudoPot. # 1 for Tc read from file:
     /home/vossj/suncat/psp/gbrv1.5pbe/Tc.UPF
     MD5 check sum: 9eb49e5b028550b2339a02317eb7b844
     Pseudo is Ultrasoft + core correction, Zval = 15.0
     Generated by new atomic code, or converted to UPF format
     Using radial grid of  965 points,  6 beta functions with:
                l(1) =   0
                l(2) =   0
                l(3) =   1
                l(4) =   1
                l(5) =   2
                l(6) =   2
     Q(r) pseudized with  8 coefficients,  rinner =    1.300   1.300   1.300
                                                       1.300   1.300

     PseudoPot. # 2 for W  read from file:
     /home/vossj/suncat/psp/gbrv1.5pbe/W.UPF
     MD5 check sum: 9c083fa34c2a2ea0f02f1f893e16e1c8
     Pseudo is Ultrasoft + core correction, Zval = 14.0
     Generated by new atomic code, or converted to UPF format
     Using radial grid of  923 points,  8 beta functions with:
                l(1) =   0
                l(2) =   0
                l(3) =   0
                l(4) =   1
                l(5) =   1
                l(6) =   2
                l(7) =   2
                l(8) =   3
     Q(r) pseudized with  6 coefficients,  rinner =    1.350   1.350   1.350
                                                       1.350   1.350   1.350
                                                       1.350

     vdW kernel table read from file vdW_kernel_table
     MD5 check sum: 095c7af220d748ca6e76c0b4c6cfb241

     atomic species   valence    mass     pseudopotential
        Tc1           15.00    97.90721     Tc( 1.00)
        W1            14.00   183.84000     W ( 1.00)

     48 Sym. Ops., with inversion, found (32 have fractional translation)

   Cartesian axes

     site n.     atom                  positions (alat units)
         1           Tc1 tau(   1) = (   0.0000000   0.0000000   0.0000000  )
         2           Tc1 tau(   2) = (   0.0000000   1.9602689   1.9602689  )
         3           Tc1 tau(   3) = (   1.9602689   0.0000000   1.9602689  )
         4           W1  tau(   4) = (   1.9602689   1.9602689   0.0000000  )

     number of k points=    84  Fermi-Dirac smearing, width (Ry)=  0.0073
                       cart. coord. in units 2pi/alat
        k(    1) = (   0.0000000   0.0000000   0.0000000), wk =   0.0011574
        k(    2) = (   0.0000000   0.0000000   0.0212556), wk =   0.0069444
        k(    3) = (   0.0000000   0.0000000   0.0425112), wk =   0.0069444
        k(    4) = (   0.0000000   0.0000000   0.0637668), wk =   0.0069444
        k(    5) = (   0.0000000   0.0000000   0.0850223), wk =   0.0069444
        k(    6) = (   0.0000000   0.0000000   0.1062779), wk =   0.0069444
        k(    7) = (   0.0000000   0.0000000  -0.1275335), wk =   0.0034722
        k(    8) = (   0.0000000   0.0212556   0.0212556), wk =   0.0138889
        k(    9) = (   0.0000000   0.0212556   0.0425112), wk =   0.0277778
        k(   10) = (   0.0000000   0.0212556   0.0637668), wk =   0.0277778
        k(   11) = (   0.0000000   0.0212556   0.0850223), wk =   0.0277778
        k(   12) = (   0.0000000   0.0212556   0.1062779), wk =   0.0277778
        k(   13) = (   0.0000000   0.0212556  -0.1275335), wk =   0.0138889
        k(   14) = (   0.0000000   0.0425112   0.0425112), wk =   0.0138889
        k(   15) = (   0.0000000   0.0425112   0.0637668), wk =   0.0277778
        k(   16) = (   0.0000000   0.0425112   0.0850223), wk =   0.0277778
        k(   17) = (   0.0000000   0.0425112   0.1062779), wk =   0.0277778
        k(   18) = (   0.0000000   0.0425112  -0.1275335), wk =   0.0138889
        k(   19) = (   0.0000000   0.0637668   0.0637668), wk =   0.0138889
        k(   20) = (   0.0000000   0.0637668   0.0850223), wk =   0.0277778
        k(   21) = (   0.0000000   0.0637668   0.1062779), wk =   0.0277778
        k(   22) = (   0.0000000   0.0637668  -0.1275335), wk =   0.0138889
        k(   23) = (   0.0000000   0.0850223   0.0850223), wk =   0.0138889
        k(   24) = (   0.0000000   0.0850223   0.1062779), wk =   0.0277778
        k(   25) = (   0.0000000   0.0850223  -0.1275335), wk =   0.0138889
        k(   26) = (   0.0000000   0.1062779   0.1062779), wk =   0.0138889
        k(   27) = (   0.0000000   0.1062779  -0.1275335), wk =   0.0138889
        k(   28) = (   0.0000000  -0.1275335  -0.1275335), wk =   0.0034722
        k(   29) = (   0.0212556   0.0212556   0.0212556), wk =   0.0092593
        k(   30) = (   0.0212556   0.0212556   0.0425112), wk =   0.0277778
        k(   31) = (   0.0212556   0.0212556   0.0637668), wk =   0.0277778
        k(   32) = (   0.0212556   0.0212556   0.0850223), wk =   0.0277778
        k(   33) = (   0.0212556   0.0212556   0.1062779), wk =   0.0277778
        k(   34) = (   0.0212556   0.0212556  -0.1275335), wk =   0.0138889
        k(   35) = (   0.0212556   0.0425112   0.0425112), wk =   0.0277778
        k(   36) = (   0.0212556   0.0425112   0.0637668), wk =   0.0555556
        k(   37) = (   0.0212556   0.0425112   0.0850223), wk =   0.0555556
        k(   38) = (   0.0212556   0.0425112   0.1062779), wk =   0.0555556
        k(   39) = (   0.0212556   0.0425112  -0.1275335), wk =   0.0277778
        k(   40) = (   0.0212556   0.0637668   0.0637668), wk =   0.0277778
        k(   41) = (   0.0212556   0.0637668   0.0850223), wk =   0.0555556
        k(   42) = (   0.0212556   0.0637668   0.1062779), wk =   0.0555556
        k(   43) = (   0.0212556   0.0637668  -0.1275335), wk =   0.0277778
        k(   44) = (   0.0212556   0.0850223   0.0850223), wk =   0.0277778
        k(   45) = (   0.0212556   0.0850223   0.1062779), wk =   0.0555556
        k(   46) = (   0.0212556   0.0850223  -0.1275335), wk =   0.0277778
        k(   47) = (   0.0212556   0.1062779   0.1062779), wk =   0.0277778
        k(   48) = (   0.0212556   0.1062779  -0.1275335), wk =   0.0277778
        k(   49) = (   0.0212556  -0.1275335  -0.1275335), wk =   0.0069444
        k(   50) = (   0.0425112   0.0425112   0.0425112), wk =   0.0092593
        k(   51) = (   0.0425112   0.0425112   0.0637668), wk =   0.0277778
        k(   52) = (   0.0425112   0.0425112   0.0850223), wk =   0.0277778
        k(   53) = (   0.0425112   0.0425112   0.1062779), wk =   0.0277778
        k(   54) = (   0.0425112   0.0425112  -0.1275335), wk =   0.0138889
        k(   55) = (   0.0425112   0.0637668   0.0637668), wk =   0.0277778
        k(   56) = (   0.0425112   0.0637668   0.0850223), wk =   0.0555556
        k(   57) = (   0.0425112   0.0637668   0.1062779), wk =   0.0555556
        k(   58) = (   0.0425112   0.0637668  -0.1275335), wk =   0.0277778
        k(   59) = (   0.0425112   0.0850223   0.0850223), wk =   0.0277778
        k(   60) = (   0.0425112   0.0850223   0.1062779), wk =   0.0555556
[...]
        k(   70) = (   0.0637668   0.0850223   0.1062779), wk =   0.0555556
        k(   71) = (   0.0637668   0.0850223  -0.1275335), wk =   0.0277778
        k(   72) = (   0.0637668   0.1062779   0.1062779), wk =   0.0277778
        k(   73) = (   0.0637668   0.1062779  -0.1275335), wk =   0.0277778
        k(   74) = (   0.0637668  -0.1275335  -0.1275335), wk =   0.0069444
        k(   75) = (   0.0850223   0.0850223   0.0850223), wk =   0.0092593
        k(   76) = (   0.0850223   0.0850223   0.1062779), wk =   0.0277778
        k(   77) = (   0.0850223   0.0850223  -0.1275335), wk =   0.0138889
        k(   78) = (   0.0850223   0.1062779   0.1062779), wk =   0.0277778
        k(   79) = (   0.0850223   0.1062779  -0.1275335), wk =   0.0277778
        k(   80) = (   0.0850223  -0.1275335  -0.1275335), wk =   0.0069444
        k(   81) = (   0.1062779   0.1062779   0.1062779), wk =   0.0092593
        k(   82) = (   0.1062779   0.1062779  -0.1275335), wk =   0.0138889
        k(   83) = (   0.1062779  -0.1275335  -0.1275335), wk =   0.0069444
        k(   84) = (  -0.1275335  -0.1275335  -0.1275335), wk =   0.0011574

     Largest allocated arrays     est. size (Mb)     dimensions
     Largest temporary arrays     est. size (Mb)     dimensions

     Check: negative/imaginary core charge=   -0.000007    0.000000

     Initial potential from superposition of free atoms
     Check: negative starting charge=   -0.434025

     starting charge   55.89958, renormalised to   59.00000

     negative rho (up, down):  4.581E-01 0.000E+00

     *
     * You are using vdW-DF for exchange-correlation in this calculation.
     * Please cite the following three references that made this development
     * possible:
     *
     *   M. Dion, H. Rydberg, E. Schroder, D. C. Langreth, and
     *   B. I. Lundqvist, Phys. Rev. Lett. 92, 246401 (2004).
     *
     *   T. Thonhauser, V. R. Cooper, S. Li, A. Puzder, P. Hyldgaard, and
     *   D. C. Langreth, Phys. Rev. B 76, 125112 (2007).
     *
     *   G. Roman-Perez and J. M. Soler, Phys. Rev. Lett. 103, 096102 (2009).
     *
     *
     * If you are using vdW-DF2, please also cite:
     *
     *   K. Lee, E. D. Murray, L. Kong, B. I. Lundqvist, and
     *   D. C. Langreth, Phys. Rev. B 82, 081101(R) (2010).
     *
     *
     * If you are calculating the stress with vdW-DF, please also cite:
     *
     *   R. Sabatini, E. Kucukbenli, B. Kolb, T. Thonhauser, and
     *   S. de Gironcoli, J. Phys.: Condens. Matter 24, 424209 (2012).
     *

     Carrying out vdW-DF run using the following parameters:

     Nqs =      20    Nr_points =    1024   r_max =   100.000
     q_mesh =
               0.00001000     0.04494208     0.09755937     0.15916263
               0.23128650     0.31572767     0.41458969     0.53033537
               0.66584808     0.82450364     1.01025438     1.22772762
               1.48234092     1.78043706     2.12944203     2.53805004
               3.01644009     3.57652955     4.23227104     5.00000000

     Gradients computed in reciprocal space

     Starting wfc are   52 randomized atomic wfcs

     Self-consistent Calculation

     iteration #  1     ecut=    58.80 Ry     beta=0.10
     Davidson diagonalization with overlap
     ethr =  1.00E-02,  avg # of iterations =  4.5

[...]

     total energy              =    -687.14564516 Ry
     Harris-Foulkes estimate   =    -687.30076263 Ry
     estimated scf accuracy    <       2.30331781 Ry

[...]

     total energy              =    -686.45445175 Ry
     Harris-Foulkes estimate   =    -686.45445162 Ry
     estimated scf accuracy    <          9.7E-09 Ry

     iteration # 15     ecut=    58.80 Ry     beta=0.10
     Davidson diagonalization with overlap
     ethr =  1.64E-11,  avg # of iterations =  2.3

     negative rho (up, down):  4.581E-01 0.000E+00

     End of self-consistent calculation

          k = 0.0000 0.0000 0.0000 (  3071 PWs)   bands (ev):

   -52.5884 -45.3358 -45.1599 -45.1599 -17.7263 -17.7263 -17.7263 -17.1621
   -17.1621 -17.1621 -17.0034 -17.0034 -17.0034 -16.4528 -16.4528 -16.4528
    13.9182  16.0789  16.0789  16.1561  16.7459  16.7459  16.7459  20.2476
    20.2476  20.2476  22.7897  22.7897  24.3566  24.9176  24.9176  24.9176
    25.3867  25.3867  25.3867  25.3975  25.3975  26.3327  26.3327  26.3327
    34.2539  34.2539  34.2539  34.5323  34.6075  34.6075  34.6075  36.3044
    36.3050

[...]

          k = 0.1063-0.1275-0.1275 (  3112 PWs)   bands (ev):

[...]

          k =-0.1275-0.1275-0.1275 (  3112 PWs)   bands (ev):

   -52.5867 -45.2181 -45.2181 -45.2181 -17.8518 -17.7709 -17.7709 -17.7709
   -16.9342 -16.9342 -16.9202 -16.9202 -16.9202 -16.4509 -16.4509 -16.4509
    15.9166  16.4852  16.4852  16.4852  19.9308  19.9308  19.9308  20.1146
    20.1146  20.1146  20.2996  20.2996  22.7922  22.7922  22.7922  22.9311
    24.3976  24.3976  24.3976  25.3763  25.3763  25.3763  25.4524  25.4524
    30.8703  32.8278  32.8278  32.8278  35.0500  35.0500  35.0500  35.1600
    41.2211

     the Fermi energy is    21.6877 ev

!    total energy              =    -686.45445234 Ry
     Harris-Foulkes estimate   =    -686.45445175 Ry
     estimated scf accuracy    <          2.1E-09 Ry

     The total energy is the sum of the following terms:

     one-electron contribution =     -91.15910022 Ry
     hartree contribution      =      85.60091756 Ry
     xc contribution           =    -142.10781675 Ry
     ewald contribution        =    -538.77795646 Ry
     smearing contrib. (-TS)   =      -0.01049648 Ry

     convergence has been achieved in  15 iterations

     Forces acting on atoms (Ry/au):

     negative rho (up, down):  4.581E-01 0.000E+00
     atom    1 type  1   force =     0.00000000   -0.00000000    0.00000000
     atom    2 type  1   force =     0.00000000    0.00000000    0.00000000
     atom    3 type  1   force =     0.00000000    0.00000000    0.00000000
     atom    4 type  2   force =     0.00000000    0.00000000    0.00000000

     Total force =     0.000000     Total SCF correction =     0.000000
 !ASE

     General routines

     Parallel routines

   This run was terminated on:  18: 3:19  25Oct2017

   JOB DONE.