     Program PWSCF v.5.1rc2 (svn rev. ) starts on 25Oct2017 at  5:18:33

     Current dimensions of program PWSCF are:
     Max number of different atomic species (ntypx) = 10
     Max number of k-points (npk) =  40000
     Max angular momentum in pseudopotentials (lmaxx) =  3

     IMPORTANT: XC functional enforced from input :
     Exchange-correlation      = BEEF-VDW ( 1  4 27 13 2)
     Any further DFT definition will be discarded
     Please, verify this is what you really want

     Subspace diagonalization in iterative solution of the eigenvalue problem:
     a serial algorithm will be used

     bravais-lattice index     =            0
     lattice parameter (alat)  =       1.8897  a.u.
     unit-cell volume          =     401.0076 (a.u.)^3
     number of atoms/cell      =            4
     number of atomic types    =            2
     number of electrons       =        59.00
     number of Kohn-Sham states=           49
     kinetic-energy cutoff     =      58.7989  Ry
     charge density cutoff     =     587.9892  Ry
     convergence threshold     =      7.3E-09
     mixing beta               =       0.1000
     number of iterations used =           10  local-TF  mixing
     Exchange-correlation      = BEEF-VDW ( 1  4 27 13 2)
     nstep                     =           50

     celldm(1)=   1.889726  celldm(2)=   0.000000  celldm(3)=   0.000000
     celldm(4)=   0.000000  celldm(5)=   0.000000  celldm(6)=   0.000000

     crystal axes: (cart. coord. in units of alat)
               a(1) = (   3.902282   0.000000   0.000000 )
               a(2) = (   0.000000   3.902282   0.000000 )
               a(3) = (   0.000000   0.000000   3.902282 )

     reciprocal axes: (cart. coord. in units 2 pi/alat)
               b(1) = (  0.256260  0.000000  0.000000 )
               b(2) = (  0.000000  0.256260  0.000000 )
               b(3) = (  0.000000  0.000000  0.256260 )

     PseudoPot. # 1 for Ir read from file:
     /home/vossj/suncat/psp/gbrv1.5pbe/Ir.UPF
     MD5 check sum: 8836f839c3459d2b385c504ce6d91f2c
     Pseudo is Ultrasoft + core correction, Zval = 15.0
     Generated by new atomic code, or converted to UPF format
     Using radial grid of  983 points,  7 beta functions with:
                l(1) =   0
                l(2) =   0
                l(3) =   1
                l(4) =   1
                l(5) =   1
                l(6) =   2
                l(7) =   2
     Q(r) pseudized with  8 coefficients,  rinner =    1.400   1.400   1.400
                                                       1.400   1.400

     PseudoPot. # 2 for W  read from file:
     /home/vossj/suncat/psp/gbrv1.5pbe/W.UPF
     MD5 check sum: 9c083fa34c2a2ea0f02f1f893e16e1c8
     Pseudo is Ultrasoft + core correction, Zval = 14.0
     Generated by new atomic code, or converted to UPF format
     Using radial grid of  923 points,  8 beta functions with:
                l(1) =   0
                l(2) =   0
                l(3) =   0
                l(4) =   1
                l(5) =   1
                l(6) =   2
                l(7) =   2
                l(8) =   3
     Q(r) pseudized with  6 coefficients,  rinner =    1.350   1.350   1.350
                                                       1.350   1.350   1.350
                                                       1.350

     vdW kernel table read from file vdW_kernel_table
     MD5 check sum: 095c7af220d748ca6e76c0b4c6cfb241

     atomic species   valence    mass     pseudopotential
        Ir1           15.00   192.21700     Ir( 1.00)
        W1            14.00   183.84000     W ( 1.00)

     48 Sym. Ops., with inversion, found (32 have fractional translation)

   Cartesian axes

     site n.     atom                  positions (alat units)
         1           Ir1 tau(   1) = (   0.0000000   0.0000000   0.0000000  )
         2           Ir1 tau(   2) = (   0.0000000   1.9511410   1.9511410  )
         3           Ir1 tau(   3) = (   1.9511410   0.0000000   1.9511410  )
         4           W1  tau(   4) = (   1.9511410   1.9511410   0.0000000  )

     number of k points=    84  Fermi-Dirac smearing, width (Ry)=  0.0073
                       cart. coord. in units 2pi/alat
        k(    1) = (   0.0000000   0.0000000   0.0000000), wk =   0.0011574
        k(    2) = (   0.0000000   0.0000000   0.0213550), wk =   0.0069444
        k(    3) = (   0.0000000   0.0000000   0.0427101), wk =   0.0069444
        k(    4) = (   0.0000000   0.0000000   0.0640651), wk =   0.0069444
        k(    5) = (   0.0000000   0.0000000   0.0854201), wk =   0.0069444
        k(    6) = (   0.0000000   0.0000000   0.1067751), wk =   0.0069444
        k(    7) = (   0.0000000   0.0000000  -0.1281302), wk =   0.0034722
        k(    8) = (   0.0000000   0.0213550   0.0213550), wk =   0.0138889
        k(    9) = (   0.0000000   0.0213550   0.0427101), wk =   0.0277778
        k(   10) = (   0.0000000   0.0213550   0.0640651), wk =   0.0277778
        k(   11) = (   0.0000000   0.0213550   0.0854201), wk =   0.0277778
        k(   12) = (   0.0000000   0.0213550   0.1067751), wk =   0.0277778
        k(   13) = (   0.0000000   0.0213550  -0.1281302), wk =   0.0138889
        k(   14) = (   0.0000000   0.0427101   0.0427101), wk =   0.0138889
        k(   15) = (   0.0000000   0.0427101   0.0640651), wk =   0.0277778
        k(   16) = (   0.0000000   0.0427101   0.0854201), wk =   0.0277778
        k(   17) = (   0.0000000   0.0427101   0.1067751), wk =   0.0277778
        k(   18) = (   0.0000000   0.0427101  -0.1281302), wk =   0.0138889
        k(   19) = (   0.0000000   0.0640651   0.0640651), wk =   0.0138889
        k(   20) = (   0.0000000   0.0640651   0.0854201), wk =   0.0277778
        k(   21) = (   0.0000000   0.0640651   0.1067751), wk =   0.0277778
        k(   22) = (   0.0000000   0.0640651  -0.1281302), wk =   0.0138889
        k(   23) = (   0.0000000   0.0854201   0.0854201), wk =   0.0138889
        k(   24) = (   0.0000000   0.0854201   0.1067751), wk =   0.0277778
        k(   25) = (   0.0000000   0.0854201  -0.1281302), wk =   0.0138889
        k(   26) = (   0.0000000   0.1067751   0.1067751), wk =   0.0138889
        k(   27) = (   0.0000000   0.1067751  -0.1281302), wk =   0.0138889
        k(   28) = (   0.0000000  -0.1281302  -0.1281302), wk =   0.0034722
        k(   29) = (   0.0213550   0.0213550   0.0213550), wk =   0.0092593
        k(   30) = (   0.0213550   0.0213550   0.0427101), wk =   0.0277778
        k(   31) = (   0.0213550   0.0213550   0.0640651), wk =   0.0277778
        k(   32) = (   0.0213550   0.0213550   0.0854201), wk =   0.0277778
        k(   33) = (   0.0213550   0.0213550   0.1067751), wk =   0.0277778
        k(   34) = (   0.0213550   0.0213550  -0.1281302), wk =   0.0138889
        k(   35) = (   0.0213550   0.0427101   0.0427101), wk =   0.0277778
        k(   36) = (   0.0213550   0.0427101   0.0640651), wk =   0.0555556
        k(   37) = (   0.0213550   0.0427101   0.0854201), wk =   0.0555556
        k(   38) = (   0.0213550   0.0427101   0.1067751), wk =   0.0555556
        k(   39) = (   0.0213550   0.0427101  -0.1281302), wk =   0.0277778
        k(   40) = (   0.0213550   0.0640651   0.0640651), wk =   0.0277778
        k(   41) = (   0.0213550   0.0640651   0.0854201), wk =   0.0555556
        k(   42) = (   0.0213550   0.0640651   0.1067751), wk =   0.0555556
        k(   43) = (   0.0213550   0.0640651  -0.1281302), wk =   0.0277778
        k(   44) = (   0.0213550   0.0854201   0.0854201), wk =   0.0277778
        k(   45) = (   0.0213550   0.0854201   0.1067751), wk =   0.0555556
        k(   46) = (   0.0213550   0.0854201  -0.1281302), wk =   0.0277778
        k(   47) = (   0.0213550   0.1067751   0.1067751), wk =   0.0277778
        k(   48) = (   0.0213550   0.1067751  -0.1281302), wk =   0.0277778
        k(   49) = (   0.0213550  -0.1281302  -0.1281302), wk =   0.0069444
        k(   50) = (   0.0427101   0.0427101   0.0427101), wk =   0.0092593
        k(   51) = (   0.0427101   0.0427101   0.0640651), wk =   0.0277778
        k(   52) = (   0.0427101   0.0427101   0.0854201), wk =   0.0277778
        k(   53) = (   0.0427101   0.0427101   0.1067751), wk =   0.0277778
        k(   54) = (   0.0427101   0.0427101  -0.1281302), wk =   0.0138889
        k(   55) = (   0.0427101   0.0640651   0.0640651), wk =   0.0277778
        k(   56) = (   0.0427101   0.0640651   0.0854201), wk =   0.0555556
        k(   57) = (   0.0427101   0.0640651   0.1067751), wk =   0.0555556
        k(   58) = (   0.0427101   0.0640651  -0.1281302), wk =   0.0277778
        k(   59) = (   0.0427101   0.0854201   0.0854201), wk =   0.0277778
        k(   60) = (   0.0427101   0.0854201   0.1067751), wk =   0.0555556
[...]
        k(   70) = (   0.0640651   0.0854201   0.1067751), wk =   0.0555556
        k(   71) = (   0.0640651   0.0854201  -0.1281302), wk =   0.0277778
        k(   72) = (   0.0640651   0.1067751   0.1067751), wk =   0.0277778
        k(   73) = (   0.0640651   0.1067751  -0.1281302), wk =   0.0277778
        k(   74) = (   0.0640651  -0.1281302  -0.1281302), wk =   0.0069444
        k(   75) = (   0.0854201   0.0854201   0.0854201), wk =   0.0092593
        k(   76) = (   0.0854201   0.0854201   0.1067751), wk =   0.0277778
        k(   77) = (   0.0854201   0.0854201  -0.1281302), wk =   0.0138889
        k(   78) = (   0.0854201   0.1067751   0.1067751), wk =   0.0277778
        k(   79) = (   0.0854201   0.1067751  -0.1281302), wk =   0.0277778
        k(   80) = (   0.0854201  -0.1281302  -0.1281302), wk =   0.0069444
        k(   81) = (   0.1067751   0.1067751   0.1067751), wk =   0.0092593
        k(   82) = (   0.1067751   0.1067751  -0.1281302), wk =   0.0138889
        k(   83) = (   0.1067751  -0.1281302  -0.1281302), wk =   0.0069444
        k(   84) = (  -0.1281302  -0.1281302  -0.1281302), wk =   0.0011574

     Largest allocated arrays     est. size (Mb)     dimensions
     Largest temporary arrays     est. size (Mb)     dimensions

     Initial potential from superposition of free atoms
     Check: negative starting charge=   -1.157184

     starting charge   57.39957, renormalised to   59.00000

     negative rho (up, down):  1.189E+00 0.000E+00

     *
     * You are using vdW-DF for exchange-correlation in this calculation.
     * Please cite the following three references that made this development
     * possible:
     *
     *   M. Dion, H. Rydberg, E. Schroder, D. C. Langreth, and
     *   B. I. Lundqvist, Phys. Rev. Lett. 92, 246401 (2004).
     *
     *   T. Thonhauser, V. R. Cooper, S. Li, A. Puzder, P. Hyldgaard, and
     *   D. C. Langreth, Phys. Rev. B 76, 125112 (2007).
     *
     *   G. Roman-Perez and J. M. Soler, Phys. Rev. Lett. 103, 096102 (2009).
     *
     *
     * If you are using vdW-DF2, please also cite:
     *
     *   K. Lee, E. D. Murray, L. Kong, B. I. Lundqvist, and
     *   D. C. Langreth, Phys. Rev. B 82, 081101(R) (2010).
     *
     *
     * If you are calculating the stress with vdW-DF, please also cite:
     *
     *   R. Sabatini, E. Kucukbenli, B. Kolb, T. Thonhauser, and
     *   S. de Gironcoli, J. Phys.: Condens. Matter 24, 424209 (2012).
     *

     Carrying out vdW-DF run using the following parameters:

     Nqs =      20    Nr_points =    1024   r_max =   100.000
     q_mesh =
               0.00001000     0.04494208     0.09755937     0.15916263
               0.23128650     0.31572767     0.41458969     0.53033537
               0.66584808     0.82450364     1.01025438     1.22772762
               1.48234092     1.78043706     2.12944203     2.53805004
               3.01644009     3.57652955     4.23227104     5.00000000

     Gradients computed in reciprocal space

     Starting wfc are   49 randomized atomic wfcs

     Self-consistent Calculation

     iteration #  1     ecut=    58.80 Ry     beta=0.10
     Davidson diagonalization with overlap
     ethr =  1.00E-02,  avg # of iterations =  4.9

[...]

     total energy              =    -711.20167189 Ry
     Harris-Foulkes estimate   =    -711.42658648 Ry
     estimated scf accuracy    <       3.89658335 Ry

[...]

     total energy              =    -710.65096438 Ry
     Harris-Foulkes estimate   =    -710.65096272 Ry
     estimated scf accuracy    <       0.00000003 Ry

     iteration # 15     ecut=    58.80 Ry     beta=0.10
     Davidson diagonalization with overlap
     ethr =  1.67E-11,  avg # of iterations =  2.0

     negative rho (up, down):  1.032E+00 0.000E+00

     End of self-consistent calculation

          k = 0.0000 0.0000 0.0000 (  2969 PWs)   bands (ev):

   -51.9083 -26.4508 -26.4508 -26.4508 -26.1946 -26.1946 -26.1946 -26.0059
   -26.0059 -26.0059 -15.9425 -15.9425 -15.9425  13.0712  16.1509  16.1509
    16.2516  16.8049  16.8049  16.8049  20.1971  20.1971  20.1971  22.6722
    22.6722  24.1483  24.7818  24.7818  24.7818  25.4821  25.4821  25.4821
    25.7952  25.7952  26.8587  26.8587  26.8587  34.1207  34.1207  34.3767
    34.4727  34.4727  34.4727  34.4956  34.4956  35.0351  35.5259  35.5259
    35.5259

[...]

          k = 0.1068-0.1281-0.1281 (  3064 PWs)   bands (ev):

[...]

          k =-0.1281-0.1281-0.1281 (  3112 PWs)   bands (ev):

   -51.9075 -26.5622 -26.4311 -26.4311 -26.4311 -26.0441 -26.0441 -26.0441
   -26.0062 -26.0062 -15.9515 -15.9515 -15.9515  16.0378  16.0378  16.0378
    16.1122  19.7114  19.7114  19.7114  20.1402  20.1402  20.1402  20.4961
    20.4961  22.9821  23.0960  23.0960  23.0960  24.2251  24.2251  24.2251
    25.6488  25.6488  25.6488  25.9297  25.9297  31.4096  31.4096  31.4096
    31.7768  34.3913  34.3913  34.3913  36.4706  36.4706  36.4706  36.7086
    41.8256

     the Fermi energy is    23.5891 ev

!    total energy              =    -710.65097153 Ry
     Harris-Foulkes estimate   =    -710.65096438 Ry
     estimated scf accuracy    <          7.0E-10 Ry

     The total energy is the sum of the following terms:

     one-electron contribution =     -41.99978111 Ry
     hartree contribution      =      71.48378383 Ry
     xc contribution           =    -198.82937814 Ry
     ewald contribution        =    -541.29848867 Ry
     smearing contrib. (-TS)   =      -0.00710743 Ry

     convergence has been achieved in  15 iterations

     Forces acting on atoms (Ry/au):

     negative rho (up, down):  1.032E+00 0.000E+00
     atom    1 type  1   force =     0.00000000    0.00000000    0.00000000
     atom    2 type  1   force =     0.00000000    0.00000000   -0.00000000
     atom    3 type  1   force =     0.00000000    0.00000000   -0.00000000
     atom    4 type  2   force =     0.00000000    0.00000000    0.00000000

     Total force =     0.000000     Total SCF correction =     0.000000
 !ASE

     General routines

     Parallel routines

   This run was terminated on:   5:19:35  25Oct2017

   JOB DONE.