     Program PWSCF v.5.1rc2 (svn rev. ) starts on 24Oct2017 at 20:55:20

     Current dimensions of program PWSCF are:
     Max number of different atomic species (ntypx) = 10
     Max number of k-points (npk) =  40000
     Max angular momentum in pseudopotentials (lmaxx) =  3

     IMPORTANT: XC functional enforced from input :
     Exchange-correlation      = BEEF-VDW ( 1  4 27 13 2)
     Any further DFT definition will be discarded
     Please, verify this is what you really want

     Subspace diagonalization in iterative solution of the eigenvalue problem:
     a serial algorithm will be used

     bravais-lattice index     =            0
     lattice parameter (alat)  =       1.8897  a.u.
     unit-cell volume          =     460.8471 (a.u.)^3
     number of atoms/cell      =            4
     number of atomic types    =            2
     number of electrons       =        55.00
     number of Kohn-Sham states=           47
     kinetic-energy cutoff     =      58.7989  Ry
     charge density cutoff     =     587.9892  Ry
     convergence threshold     =      7.3E-09
     mixing beta               =       0.1000
     number of iterations used =           10  local-TF  mixing
     Exchange-correlation      = BEEF-VDW ( 1  4 27 13 2)
     nstep                     =           50

     celldm(1)=   1.889726  celldm(2)=   0.000000  celldm(3)=   0.000000
     celldm(4)=   0.000000  celldm(5)=   0.000000  celldm(6)=   0.000000

     crystal axes: (cart. coord. in units of alat)
               a(1) = (   4.087459   0.000000   0.000000 )
               a(2) = (   0.000000   4.087459   0.000000 )
               a(3) = (   0.000000   0.000000   4.087459 )

     reciprocal axes: (cart. coord. in units 2 pi/alat)
               b(1) = (  0.244651  0.000000  0.000000 )
               b(2) = (  0.000000  0.244651  0.000000 )
               b(3) = (  0.000000  0.000000  0.244651 )

     PseudoPot. # 1 for W  read from file:
     /home/vossj/suncat/psp/gbrv1.5pbe/W.UPF
     MD5 check sum: 9c083fa34c2a2ea0f02f1f893e16e1c8
     Pseudo is Ultrasoft + core correction, Zval = 14.0
     Generated by new atomic code, or converted to UPF format
     Using radial grid of  923 points,  8 beta functions with:
                l(1) =   0
                l(2) =   0
                l(3) =   0
                l(4) =   1
                l(5) =   1
                l(6) =   2
                l(7) =   2
                l(8) =   3
     Q(r) pseudized with  6 coefficients,  rinner =    1.350   1.350   1.350
                                                       1.350   1.350   1.350
                                                       1.350

     PseudoPot. # 2 for Nb read from file:
     /home/vossj/suncat/psp/gbrv1.5pbe/Nb.UPF
     MD5 check sum: 573aab8a2fa660278ed4a62cd769473f
     Pseudo is Ultrasoft + core correction, Zval = 13.0
     Generated by new atomic code, or converted to UPF format
     Using radial grid of  887 points,  6 beta functions with:
                l(1) =   0
                l(2) =   0
                l(3) =   1
                l(4) =   1
                l(5) =   2
                l(6) =   2
     Q(r) pseudized with  6 coefficients,  rinner =    1.000   1.000   1.000
                                                       1.000   1.000

     vdW kernel table read from file vdW_kernel_table
     MD5 check sum: 095c7af220d748ca6e76c0b4c6cfb241

     atomic species   valence    mass     pseudopotential
        W1            14.00   183.84000     W ( 1.00)
        Nb1           13.00    92.90637     Nb( 1.00)

     48 Sym. Ops., with inversion, found (32 have fractional translation)

   Cartesian axes

     site n.     atom                  positions (alat units)
         1           W1  tau(   1) = (   0.0000000   0.0000000   0.0000000  )
         2           W1  tau(   2) = (   0.0000000   2.0437295   2.0437295  )
         3           W1  tau(   3) = (   2.0437295   0.0000000   2.0437295  )
         4           Nb1 tau(   4) = (   2.0437295   2.0437295   0.0000000  )

     number of k points=    84  Fermi-Dirac smearing, width (Ry)=  0.0073
                       cart. coord. in units 2pi/alat
        k(    1) = (   0.0000000   0.0000000   0.0000000), wk =   0.0011574
        k(    2) = (   0.0000000   0.0000000   0.0203876), wk =   0.0069444
        k(    3) = (   0.0000000   0.0000000   0.0407751), wk =   0.0069444
        k(    4) = (   0.0000000   0.0000000   0.0611627), wk =   0.0069444
        k(    5) = (   0.0000000   0.0000000   0.0815503), wk =   0.0069444
        k(    6) = (   0.0000000   0.0000000   0.1019378), wk =   0.0069444
        k(    7) = (   0.0000000   0.0000000  -0.1223254), wk =   0.0034722
        k(    8) = (   0.0000000   0.0203876   0.0203876), wk =   0.0138889
        k(    9) = (   0.0000000   0.0203876   0.0407751), wk =   0.0277778
        k(   10) = (   0.0000000   0.0203876   0.0611627), wk =   0.0277778
        k(   11) = (   0.0000000   0.0203876   0.0815503), wk =   0.0277778
        k(   12) = (   0.0000000   0.0203876   0.1019378), wk =   0.0277778
        k(   13) = (   0.0000000   0.0203876  -0.1223254), wk =   0.0138889
        k(   14) = (   0.0000000   0.0407751   0.0407751), wk =   0.0138889
        k(   15) = (   0.0000000   0.0407751   0.0611627), wk =   0.0277778
        k(   16) = (   0.0000000   0.0407751   0.0815503), wk =   0.0277778
        k(   17) = (   0.0000000   0.0407751   0.1019378), wk =   0.0277778
        k(   18) = (   0.0000000   0.0407751  -0.1223254), wk =   0.0138889
        k(   19) = (   0.0000000   0.0611627   0.0611627), wk =   0.0138889
        k(   20) = (   0.0000000   0.0611627   0.0815503), wk =   0.0277778
        k(   21) = (   0.0000000   0.0611627   0.1019378), wk =   0.0277778
        k(   22) = (   0.0000000   0.0611627  -0.1223254), wk =   0.0138889
        k(   23) = (   0.0000000   0.0815503   0.0815503), wk =   0.0138889
        k(   24) = (   0.0000000   0.0815503   0.1019378), wk =   0.0277778
        k(   25) = (   0.0000000   0.0815503  -0.1223254), wk =   0.0138889
        k(   26) = (   0.0000000   0.1019378   0.1019378), wk =   0.0138889
        k(   27) = (   0.0000000   0.1019378  -0.1223254), wk =   0.0138889
        k(   28) = (   0.0000000  -0.1223254  -0.1223254), wk =   0.0034722
        k(   29) = (   0.0203876   0.0203876   0.0203876), wk =   0.0092593
        k(   30) = (   0.0203876   0.0203876   0.0407751), wk =   0.0277778
        k(   31) = (   0.0203876   0.0203876   0.0611627), wk =   0.0277778
        k(   32) = (   0.0203876   0.0203876   0.0815503), wk =   0.0277778
        k(   33) = (   0.0203876   0.0203876   0.1019378), wk =   0.0277778
        k(   34) = (   0.0203876   0.0203876  -0.1223254), wk =   0.0138889
        k(   35) = (   0.0203876   0.0407751   0.0407751), wk =   0.0277778
        k(   36) = (   0.0203876   0.0407751   0.0611627), wk =   0.0555556
        k(   37) = (   0.0203876   0.0407751   0.0815503), wk =   0.0555556
        k(   38) = (   0.0203876   0.0407751   0.1019378), wk =   0.0555556
        k(   39) = (   0.0203876   0.0407751  -0.1223254), wk =   0.0277778
        k(   40) = (   0.0203876   0.0611627   0.0611627), wk =   0.0277778
        k(   41) = (   0.0203876   0.0611627   0.0815503), wk =   0.0555556
        k(   42) = (   0.0203876   0.0611627   0.1019378), wk =   0.0555556
        k(   43) = (   0.0203876   0.0611627  -0.1223254), wk =   0.0277778
        k(   44) = (   0.0203876   0.0815503   0.0815503), wk =   0.0277778
        k(   45) = (   0.0203876   0.0815503   0.1019378), wk =   0.0555556
        k(   46) = (   0.0203876   0.0815503  -0.1223254), wk =   0.0277778
        k(   47) = (   0.0203876   0.1019378   0.1019378), wk =   0.0277778
        k(   48) = (   0.0203876   0.1019378  -0.1223254), wk =   0.0277778
        k(   49) = (   0.0203876  -0.1223254  -0.1223254), wk =   0.0069444
        k(   50) = (   0.0407751   0.0407751   0.0407751), wk =   0.0092593
        k(   51) = (   0.0407751   0.0407751   0.0611627), wk =   0.0277778
        k(   52) = (   0.0407751   0.0407751   0.0815503), wk =   0.0277778
        k(   53) = (   0.0407751   0.0407751   0.1019378), wk =   0.0277778
        k(   54) = (   0.0407751   0.0407751  -0.1223254), wk =   0.0138889
        k(   55) = (   0.0407751   0.0611627   0.0611627), wk =   0.0277778
        k(   56) = (   0.0407751   0.0611627   0.0815503), wk =   0.0555556
        k(   57) = (   0.0407751   0.0611627   0.1019378), wk =   0.0555556
        k(   58) = (   0.0407751   0.0611627  -0.1223254), wk =   0.0277778
        k(   59) = (   0.0407751   0.0815503   0.0815503), wk =   0.0277778
        k(   60) = (   0.0407751   0.0815503   0.1019378), wk =   0.0555556
[...]
        k(   70) = (   0.0611627   0.0815503   0.1019378), wk =   0.0555556
        k(   71) = (   0.0611627   0.0815503  -0.1223254), wk =   0.0277778
        k(   72) = (   0.0611627   0.1019378   0.1019378), wk =   0.0277778
        k(   73) = (   0.0611627   0.1019378  -0.1223254), wk =   0.0277778
        k(   74) = (   0.0611627  -0.1223254  -0.1223254), wk =   0.0069444
        k(   75) = (   0.0815503   0.0815503   0.0815503), wk =   0.0092593
        k(   76) = (   0.0815503   0.0815503   0.1019378), wk =   0.0277778
        k(   77) = (   0.0815503   0.0815503  -0.1223254), wk =   0.0138889
        k(   78) = (   0.0815503   0.1019378   0.1019378), wk =   0.0277778
        k(   79) = (   0.0815503   0.1019378  -0.1223254), wk =   0.0277778
        k(   80) = (   0.0815503  -0.1223254  -0.1223254), wk =   0.0069444
        k(   81) = (   0.1019378   0.1019378   0.1019378), wk =   0.0092593
        k(   82) = (   0.1019378   0.1019378  -0.1223254), wk =   0.0138889
        k(   83) = (   0.1019378  -0.1223254  -0.1223254), wk =   0.0069444
        k(   84) = (  -0.1223254  -0.1223254  -0.1223254), wk =   0.0011574

     Largest allocated arrays     est. size (Mb)     dimensions
     Largest temporary arrays     est. size (Mb)     dimensions

     Initial potential from superposition of free atoms
     Check: negative starting charge=   -0.186466

     starting charge   54.69625, renormalised to   55.00000

     negative rho (up, down):  1.875E-01 0.000E+00

     *
     * You are using vdW-DF for exchange-correlation in this calculation.
     * Please cite the following three references that made this development
     * possible:
     *
     *   M. Dion, H. Rydberg, E. Schroder, D. C. Langreth, and
     *   B. I. Lundqvist, Phys. Rev. Lett. 92, 246401 (2004).
     *
     *   T. Thonhauser, V. R. Cooper, S. Li, A. Puzder, P. Hyldgaard, and
     *   D. C. Langreth, Phys. Rev. B 76, 125112 (2007).
     *
     *   G. Roman-Perez and J. M. Soler, Phys. Rev. Lett. 103, 096102 (2009).
     *
     *
     * If you are using vdW-DF2, please also cite:
     *
     *   K. Lee, E. D. Murray, L. Kong, B. I. Lundqvist, and
     *   D. C. Langreth, Phys. Rev. B 82, 081101(R) (2010).
     *
     *
     * If you are calculating the stress with vdW-DF, please also cite:
     *
     *   R. Sabatini, E. Kucukbenli, B. Kolb, T. Thonhauser, and
     *   S. de Gironcoli, J. Phys.: Condens. Matter 24, 424209 (2012).
     *

     Carrying out vdW-DF run using the following parameters:

     Nqs =      20    Nr_points =    1024   r_max =   100.000
     q_mesh =
               0.00001000     0.04494208     0.09755937     0.15916263
               0.23128650     0.31572767     0.41458969     0.53033537
               0.66584808     0.82450364     1.01025438     1.22772762
               1.48234092     1.78043706     2.12944203     2.53805004
               3.01644009     3.57652955     4.23227104     5.00000000

     Gradients computed in reciprocal space

     Starting wfc are   52 randomized atomic wfcs

     Self-consistent Calculation

     iteration #  1     ecut=    58.80 Ry     beta=0.10
     Davidson diagonalization with overlap
     ethr =  1.00E-02,  avg # of iterations =  4.6

     Threshold (ethr) on eigenvalues was too large:
     Diagonalizing with lowered threshold

     Davidson diagonalization with overlap
     ethr =  8.37E-04,  avg # of iterations =  1.1

[...]

     total energy              =    -600.00600366 Ry
     Harris-Foulkes estimate   =    -600.02656402 Ry
     estimated scf accuracy    <       0.46111231 Ry

[...]

     total energy              =    -599.92741625 Ry
     Harris-Foulkes estimate   =    -599.92741614 Ry
     estimated scf accuracy    <       0.00000001 Ry

     iteration # 16     ecut=    58.80 Ry     beta=0.10
     Davidson diagonalization with overlap
     ethr =  2.09E-11,  avg # of iterations =  1.0

     negative rho (up, down):  2.038E-01 0.000E+00

     End of self-consistent calculation

          k = 0.0000 0.0000 0.0000 (  3431 PWs)   bands (ev):

   -54.2500 -54.1640 -54.1640 -34.8382 -18.6398 -18.6398 -18.6398 -18.2256
   -18.2256 -18.2256 -17.9841 -17.9841 -17.9841 -10.8599 -10.8599 -10.8599
    11.6458  14.8304  14.8304  14.9601  15.7388  15.7388  15.7388  19.5079
    19.5079  19.5079  22.4282  22.4282  23.0138  23.0138  23.0138  24.5412
    24.7765  24.7765  25.2416  25.2416  25.2416  25.4916  25.4916  25.4916
    31.1322  31.1322  31.1322  31.8417  31.8417  31.8418  32.0830

[...]

          k = 0.1019-0.1223-0.1223 (  3496 PWs)   bands (ev):

[...]

          k =-0.1223-0.1223-0.1223 (  3544 PWs)   bands (ev):

   -54.1923 -54.1923 -54.1923 -34.8364 -18.8429 -18.5942 -18.5942 -18.5942
   -18.0037 -18.0037 -18.0037 -18.0019 -18.0019 -10.8671 -10.8671 -10.8671
    14.6125  14.6125  14.6125  15.4301  19.1294  19.1294  19.1294  19.3214
    19.3214  19.3214  19.5372  19.5372  20.3193  20.7978  20.7978  20.7978
    24.5709  24.5709  24.5709  24.7924  24.7924  24.8008  24.8008  24.8008
    29.5628  29.5628  29.5628  31.8860  32.0903  32.0903  32.1042

     the Fermi energy is    19.8819 ev

!    total energy              =    -599.92741675 Ry
     Harris-Foulkes estimate   =    -599.92741626 Ry
     estimated scf accuracy    <          1.4E-10 Ry

     The total energy is the sum of the following terms:

     one-electron contribution =     -69.32263645 Ry
     hartree contribution      =      65.43879813 Ry
     xc contribution           =    -146.92169972 Ry
     ewald contribution        =    -449.10836045 Ry
     smearing contrib. (-TS)   =      -0.01351826 Ry

     convergence has been achieved in  16 iterations

     Forces acting on atoms (Ry/au):

     negative rho (up, down):  2.038E-01 0.000E+00
     atom    1 type  1   force =     0.00000000    0.00000000    0.00000000
     atom    2 type  1   force =     0.00000000    0.00000000    0.00000000
     atom    3 type  1   force =     0.00000000    0.00000000    0.00000000
     atom    4 type  2   force =     0.00000000    0.00000000   -0.00000000

     Total force =     0.000000     Total SCF correction =     0.000000
 !ASE

     General routines

     Parallel routines

   This run was terminated on:  20:56:29  24Oct2017

   JOB DONE.