     Program PWSCF v.5.1rc2 (svn rev. ) starts on 25Oct2017 at  8: 0:13

     Current dimensions of program PWSCF are:
     Max number of different atomic species (ntypx) = 10
     Max number of k-points (npk) =  40000
     Max angular momentum in pseudopotentials (lmaxx) =  3

     IMPORTANT: XC functional enforced from input :
     Exchange-correlation      = BEEF-VDW ( 1  4 27 13 2)
     Any further DFT definition will be discarded
     Please, verify this is what you really want

     Subspace diagonalization in iterative solution of the eigenvalue problem:
     a serial algorithm will be used

     bravais-lattice index     =            0
     lattice parameter (alat)  =       1.8897  a.u.
     unit-cell volume          =     396.3543 (a.u.)^3
     number of atoms/cell      =            4
     number of atomic types    =            2
     number of electrons       =        22.00
     number of Kohn-Sham states=           31
     kinetic-energy cutoff     =      58.7989  Ry
     charge density cutoff     =     587.9892  Ry
     convergence threshold     =      7.3E-09
     mixing beta               =       0.1000
     number of iterations used =           10  local-TF  mixing
     Exchange-correlation      = BEEF-VDW ( 1  4 27 13 2)
     nstep                     =           50

     celldm(1)=   1.889726  celldm(2)=   0.000000  celldm(3)=   0.000000
     celldm(4)=   0.000000  celldm(5)=   0.000000  celldm(6)=   0.000000

     crystal axes: (cart. coord. in units of alat)
               a(1) = (   3.887129   0.000000   0.000000 )
               a(2) = (   0.000000   3.887129   0.000000 )
               a(3) = (   0.000000   0.000000   3.887129 )

     reciprocal axes: (cart. coord. in units 2 pi/alat)
               b(1) = (  0.257259  0.000000  0.000000 )
               b(2) = (  0.000000  0.257259  0.000000 )
               b(3) = (  0.000000  0.000000  0.257259 )

     PseudoPot. # 1 for Al read from file:
     /home/vossj/suncat/psp/gbrv1.5pbe/Al.UPF
     MD5 check sum: 0a6289f5291fc8f409219462bc851e1f
     Pseudo is Ultrasoft + core correction, Zval =  3.0
     Generated by new atomic code, or converted to UPF format
     Using radial grid of  893 points,  3 beta functions with:
                l(1) =   0
                l(2) =   1
                l(3) =   2
     Q(r) pseudized with  8 coefficients,  rinner =    0.900   0.900   0.900
                                                       0.900   0.900

     PseudoPot. # 2 for V  read from file:
     /home/vossj/suncat/psp/gbrv1.5pbe/V.UPF
     MD5 check sum: 22b79981416ebb76fdaf5b1b8640f6fb
     Pseudo is Ultrasoft + core correction, Zval = 13.0
     Generated by new atomic code, or converted to UPF format
     Using radial grid of  853 points,  6 beta functions with:
                l(1) =   0
                l(2) =   0
                l(3) =   1
                l(4) =   1
                l(5) =   2
                l(6) =   2
     Q(r) pseudized with  8 coefficients,  rinner =    1.100   1.100   1.100
                                                       1.100   1.100

     vdW kernel table read from file vdW_kernel_table
     MD5 check sum: 095c7af220d748ca6e76c0b4c6cfb241

     atomic species   valence    mass     pseudopotential
        Al1            3.00    26.98154     Al( 1.00)
        V1            13.00    50.94150     V ( 1.00)

     48 Sym. Ops., with inversion, found (32 have fractional translation)

   Cartesian axes

     site n.     atom                  positions (alat units)
         1           Al1 tau(   1) = (   0.0000000   0.0000000   0.0000000  )
         2           Al1 tau(   2) = (   0.0000000   1.9435646   1.9435646  )
         3           Al1 tau(   3) = (   1.9435646   0.0000000   1.9435646  )
         4           V1  tau(   4) = (   1.9435646   1.9435646   0.0000000  )

     number of k points=    84  Fermi-Dirac smearing, width (Ry)=  0.0073
                       cart. coord. in units 2pi/alat
        k(    1) = (   0.0000000   0.0000000   0.0000000), wk =   0.0011574
        k(    2) = (   0.0000000   0.0000000   0.0214383), wk =   0.0069444
        k(    3) = (   0.0000000   0.0000000   0.0428765), wk =   0.0069444
        k(    4) = (   0.0000000   0.0000000   0.0643148), wk =   0.0069444
        k(    5) = (   0.0000000   0.0000000   0.0857531), wk =   0.0069444
        k(    6) = (   0.0000000   0.0000000   0.1071914), wk =   0.0069444
        k(    7) = (   0.0000000   0.0000000  -0.1286296), wk =   0.0034722
        k(    8) = (   0.0000000   0.0214383   0.0214383), wk =   0.0138889
        k(    9) = (   0.0000000   0.0214383   0.0428765), wk =   0.0277778
        k(   10) = (   0.0000000   0.0214383   0.0643148), wk =   0.0277778
        k(   11) = (   0.0000000   0.0214383   0.0857531), wk =   0.0277778
        k(   12) = (   0.0000000   0.0214383   0.1071914), wk =   0.0277778
        k(   13) = (   0.0000000   0.0214383  -0.1286296), wk =   0.0138889
        k(   14) = (   0.0000000   0.0428765   0.0428765), wk =   0.0138889
        k(   15) = (   0.0000000   0.0428765   0.0643148), wk =   0.0277778
        k(   16) = (   0.0000000   0.0428765   0.0857531), wk =   0.0277778
        k(   17) = (   0.0000000   0.0428765   0.1071914), wk =   0.0277778
        k(   18) = (   0.0000000   0.0428765  -0.1286296), wk =   0.0138889
        k(   19) = (   0.0000000   0.0643148   0.0643148), wk =   0.0138889
        k(   20) = (   0.0000000   0.0643148   0.0857531), wk =   0.0277778
        k(   21) = (   0.0000000   0.0643148   0.1071914), wk =   0.0277778
        k(   22) = (   0.0000000   0.0643148  -0.1286296), wk =   0.0138889
        k(   23) = (   0.0000000   0.0857531   0.0857531), wk =   0.0138889
        k(   24) = (   0.0000000   0.0857531   0.1071914), wk =   0.0277778
        k(   25) = (   0.0000000   0.0857531  -0.1286296), wk =   0.0138889
        k(   26) = (   0.0000000   0.1071914   0.1071914), wk =   0.0138889
        k(   27) = (   0.0000000   0.1071914  -0.1286296), wk =   0.0138889
        k(   28) = (   0.0000000  -0.1286296  -0.1286296), wk =   0.0034722
        k(   29) = (   0.0214383   0.0214383   0.0214383), wk =   0.0092593
        k(   30) = (   0.0214383   0.0214383   0.0428765), wk =   0.0277778
        k(   31) = (   0.0214383   0.0214383   0.0643148), wk =   0.0277778
        k(   32) = (   0.0214383   0.0214383   0.0857531), wk =   0.0277778
        k(   33) = (   0.0214383   0.0214383   0.1071914), wk =   0.0277778
        k(   34) = (   0.0214383   0.0214383  -0.1286296), wk =   0.0138889
        k(   35) = (   0.0214383   0.0428765   0.0428765), wk =   0.0277778
        k(   36) = (   0.0214383   0.0428765   0.0643148), wk =   0.0555556
        k(   37) = (   0.0214383   0.0428765   0.0857531), wk =   0.0555556
        k(   38) = (   0.0214383   0.0428765   0.1071914), wk =   0.0555556
        k(   39) = (   0.0214383   0.0428765  -0.1286296), wk =   0.0277778
        k(   40) = (   0.0214383   0.0643148   0.0643148), wk =   0.0277778
        k(   41) = (   0.0214383   0.0643148   0.0857531), wk =   0.0555556
        k(   42) = (   0.0214383   0.0643148   0.1071914), wk =   0.0555556
        k(   43) = (   0.0214383   0.0643148  -0.1286296), wk =   0.0277778
        k(   44) = (   0.0214383   0.0857531   0.0857531), wk =   0.0277778
        k(   45) = (   0.0214383   0.0857531   0.1071914), wk =   0.0555556
        k(   46) = (   0.0214383   0.0857531  -0.1286296), wk =   0.0277778
        k(   47) = (   0.0214383   0.1071914   0.1071914), wk =   0.0277778
        k(   48) = (   0.0214383   0.1071914  -0.1286296), wk =   0.0277778
        k(   49) = (   0.0214383  -0.1286296  -0.1286296), wk =   0.0069444
        k(   50) = (   0.0428765   0.0428765   0.0428765), wk =   0.0092593
        k(   51) = (   0.0428765   0.0428765   0.0643148), wk =   0.0277778
        k(   52) = (   0.0428765   0.0428765   0.0857531), wk =   0.0277778
        k(   53) = (   0.0428765   0.0428765   0.1071914), wk =   0.0277778
        k(   54) = (   0.0428765   0.0428765  -0.1286296), wk =   0.0138889
        k(   55) = (   0.0428765   0.0643148   0.0643148), wk =   0.0277778
        k(   56) = (   0.0428765   0.0643148   0.0857531), wk =   0.0555556
        k(   57) = (   0.0428765   0.0643148   0.1071914), wk =   0.0555556
        k(   58) = (   0.0428765   0.0643148  -0.1286296), wk =   0.0277778
        k(   59) = (   0.0428765   0.0857531   0.0857531), wk =   0.0277778
        k(   60) = (   0.0428765   0.0857531   0.1071914), wk =   0.0555556
[...]
        k(   70) = (   0.0643148   0.0857531   0.1071914), wk =   0.0555556
        k(   71) = (   0.0643148   0.0857531  -0.1286296), wk =   0.0277778
        k(   72) = (   0.0643148   0.1071914   0.1071914), wk =   0.0277778
        k(   73) = (   0.0643148   0.1071914  -0.1286296), wk =   0.0277778
        k(   74) = (   0.0643148  -0.1286296  -0.1286296), wk =   0.0069444
        k(   75) = (   0.0857531   0.0857531   0.0857531), wk =   0.0092593
        k(   76) = (   0.0857531   0.0857531   0.1071914), wk =   0.0277778
        k(   77) = (   0.0857531   0.0857531  -0.1286296), wk =   0.0138889
        k(   78) = (   0.0857531   0.1071914   0.1071914), wk =   0.0277778
        k(   79) = (   0.0857531   0.1071914  -0.1286296), wk =   0.0277778
        k(   80) = (   0.0857531  -0.1286296  -0.1286296), wk =   0.0069444
        k(   81) = (   0.1071914   0.1071914   0.1071914), wk =   0.0092593
        k(   82) = (   0.1071914   0.1071914  -0.1286296), wk =   0.0138889
        k(   83) = (   0.1071914  -0.1286296  -0.1286296), wk =   0.0069444
        k(   84) = (  -0.1286296  -0.1286296  -0.1286296), wk =   0.0011574

     Largest allocated arrays     est. size (Mb)     dimensions
     Largest temporary arrays     est. size (Mb)     dimensions

     Initial potential from superposition of free atoms
     Check: negative starting charge=   -0.000401

     starting charge   21.99138, renormalised to   22.00000

     negative rho (up, down):  4.013E-04 0.000E+00

     *
     * You are using vdW-DF for exchange-correlation in this calculation.
     * Please cite the following three references that made this development
     * possible:
     *
     *   M. Dion, H. Rydberg, E. Schroder, D. C. Langreth, and
     *   B. I. Lundqvist, Phys. Rev. Lett. 92, 246401 (2004).
     *
     *   T. Thonhauser, V. R. Cooper, S. Li, A. Puzder, P. Hyldgaard, and
     *   D. C. Langreth, Phys. Rev. B 76, 125112 (2007).
     *
     *   G. Roman-Perez and J. M. Soler, Phys. Rev. Lett. 103, 096102 (2009).
     *
     *
     * If you are using vdW-DF2, please also cite:
     *
     *   K. Lee, E. D. Murray, L. Kong, B. I. Lundqvist, and
     *   D. C. Langreth, Phys. Rev. B 82, 081101(R) (2010).
     *
     *
     * If you are calculating the stress with vdW-DF, please also cite:
     *
     *   R. Sabatini, E. Kucukbenli, B. Kolb, T. Thonhauser, and
     *   S. de Gironcoli, J. Phys.: Condens. Matter 24, 424209 (2012).
     *

     Carrying out vdW-DF run using the following parameters:

     Nqs =      20    Nr_points =    1024   r_max =   100.000
     q_mesh =
               0.00001000     0.04494208     0.09755937     0.15916263
               0.23128650     0.31572767     0.41458969     0.53033537
               0.66584808     0.82450364     1.01025438     1.22772762
               1.48234092     1.78043706     2.12944203     2.53805004
               3.01644009     3.57652955     4.23227104     5.00000000

     Gradients computed in reciprocal space

     Starting wfc are   22 randomized atomic wfcs +    9 random wfc

     Self-consistent Calculation

     iteration #  1     ecut=    58.80 Ry     beta=0.10
     Davidson diagonalization with overlap
     ethr =  1.00E-02,  avg # of iterations =  5.0

     Threshold (ethr) on eigenvalues was too large:
     Diagonalizing with lowered threshold

     Davidson diagonalization with overlap
     ethr =  9.12E-04,  avg # of iterations =  1.0

[...]

     total energy              =    -166.51588556 Ry
     Harris-Foulkes estimate   =    -166.52593743 Ry
     estimated scf accuracy    <       0.20023593 Ry

[...]

     total energy              =    -166.50119310 Ry
     Harris-Foulkes estimate   =    -166.50119246 Ry
     estimated scf accuracy    <       0.00000001 Ry

     iteration # 11     ecut=    58.80 Ry     beta=0.10
     Davidson diagonalization with overlap
     ethr =  4.56E-11,  avg # of iterations =  1.0

     negative rho (up, down):  4.803E-04 0.000E+00

     End of self-consistent calculation

          k = 0.0000 0.0000 0.0000 (  2969 PWs)   bands (ev):

   -53.7994 -27.6386 -27.6386 -27.6386  -0.5278   7.4786   7.4786   8.3549
     8.3549   8.3549  10.2518  10.2518  10.2518  11.2432  14.2371  14.2371
    16.7259  16.7259  16.7259  18.5975  18.5975  18.5975  19.5298  19.5298
    19.5298  22.0732  22.0732  26.7043  27.0676  27.0676  27.0676

[...]

          k = 0.1072-0.1286-0.1286 (  3056 PWs)   bands (ev):

[...]

          k =-0.1286-0.1286-0.1286 (  3016 PWs)   bands (ev):

   -53.7981 -27.6474 -27.6474 -27.6474   5.4532   5.4532   5.4532   5.4562
     6.9080   6.9080   6.9080  10.5601  11.1664  11.1664  12.6821  12.6821
    12.6821  22.6513  22.6513  22.6513  23.1343  23.1343  23.1343  23.1718
    23.1718  24.1738  24.1738  24.1738  26.2819  26.2819  26.2819

     the Fermi energy is    10.6243 ev

!    total energy              =    -166.50119582 Ry
     Harris-Foulkes estimate   =    -166.50119310 Ry
     estimated scf accuracy    <          3.1E-10 Ry

     The total energy is the sum of the following terms:

     one-electron contribution =     -85.42605249 Ry
     hartree contribution      =      51.53364526 Ry
     xc contribution           =     -34.05525168 Ry
     ewald contribution        =     -98.54546454 Ry
     smearing contrib. (-TS)   =      -0.00807237 Ry

     convergence has been achieved in  11 iterations

     Forces acting on atoms (Ry/au):

     negative rho (up, down):  4.803E-04 0.000E+00
     atom    1 type  1   force =     0.00000000    0.00000000    0.00000000
     atom    2 type  1   force =     0.00000000    0.00000000    0.00000000
     atom    3 type  1   force =     0.00000000    0.00000000    0.00000000
     atom    4 type  2   force =     0.00000000    0.00000000    0.00000000

     Total force =     0.000000     Total SCF correction =     0.000000
 !ASE

     General routines

     Parallel routines

   This run was terminated on:   8: 0:37  25Oct2017

   JOB DONE.