     Program PWSCF v.5.1rc2 (svn rev. ) starts on 24Oct2017 at 20:38:22

     Current dimensions of program PWSCF are:
     Max number of different atomic species (ntypx) = 10
     Max number of k-points (npk) =  40000
     Max angular momentum in pseudopotentials (lmaxx) =  3

     IMPORTANT: XC functional enforced from input :
     Exchange-correlation      = BEEF-VDW ( 1  4 27 13 2)
     Any further DFT definition will be discarded
     Please, verify this is what you really want

     Subspace diagonalization in iterative solution of the eigenvalue problem:
     a serial algorithm will be used

     bravais-lattice index     =            0
     lattice parameter (alat)  =       1.8897  a.u.
     unit-cell volume          =     592.4161 (a.u.)^3
     number of atoms/cell      =            4
     number of atomic types    =            2
     number of electrons       =        68.00
     number of Kohn-Sham states=           54
     kinetic-energy cutoff     =      58.7989  Ry
     charge density cutoff     =     587.9892  Ry
     convergence threshold     =      7.3E-09
     mixing beta               =       0.1000
     number of iterations used =           10  local-TF  mixing
     Exchange-correlation      = BEEF-VDW ( 1  4 27 13 2)
     nstep                     =           50

     celldm(1)=   1.889726  celldm(2)=   0.000000  celldm(3)=   0.000000
     celldm(4)=   0.000000  celldm(5)=   0.000000  celldm(6)=   0.000000

     crystal axes: (cart. coord. in units of alat)
               a(1) = (   4.444369   0.000000   0.000000 )
               a(2) = (   0.000000   4.444369   0.000000 )
               a(3) = (   0.000000   0.000000   4.444369 )

     reciprocal axes: (cart. coord. in units 2 pi/alat)
               b(1) = (  0.225004  0.000000  0.000000 )
               b(2) = (  0.000000  0.225004  0.000000 )
               b(3) = (  0.000000  0.000000  0.225004 )

     PseudoPot. # 1 for Ag read from file:
     /home/vossj/suncat/psp/gbrv1.5pbe/Ag.UPF
     MD5 check sum: d66d668201baa78d5eb5b04ef7011058
     Pseudo is Ultrasoft + core correction, Zval = 19.0
     Generated by new atomic code, or converted to UPF format
     Using radial grid of  887 points,  6 beta functions with:
                l(1) =   0
                l(2) =   0
                l(3) =   1
                l(4) =   1
                l(5) =   2
                l(6) =   2
     Q(r) pseudized with  6 coefficients,  rinner =    1.300   1.300   1.300
                                                       1.300   1.300

     PseudoPot. # 2 for Y  read from file:
     /home/vossj/suncat/psp/gbrv1.5pbe/Y.UPF
     MD5 check sum: d034151ed7554c50b6e82763ed42c788
     Pseudo is Ultrasoft + core correction, Zval = 11.0
     Generated by new atomic code, or converted to UPF format
     Using radial grid of  885 points,  6 beta functions with:
                l(1) =   0
                l(2) =   0
                l(3) =   1
                l(4) =   1
                l(5) =   2
                l(6) =   2
     Q(r) pseudized with  8 coefficients,  rinner =    1.200   1.200   1.200
                                                       1.200   1.200

     vdW kernel table read from file vdW_kernel_table
     MD5 check sum: 095c7af220d748ca6e76c0b4c6cfb241

     atomic species   valence    mass     pseudopotential
        Ag1           19.00   107.86820     Ag( 1.00)
        Y1            11.00    88.90584     Y ( 1.00)

     48 Sym. Ops., with inversion, found (32 have fractional translation)

   Cartesian axes

     site n.     atom                  positions (alat units)
         1           Ag1 tau(   1) = (   0.0000000   0.0000000   0.0000000  )
         2           Ag1 tau(   2) = (   0.0000000   2.2221844   2.2221844  )
         3           Ag1 tau(   3) = (   2.2221844   0.0000000   2.2221844  )
         4           Y1  tau(   4) = (   2.2221844   2.2221844   0.0000000  )

     number of k points=    84  Fermi-Dirac smearing, width (Ry)=  0.0073
                       cart. coord. in units 2pi/alat
        k(    1) = (   0.0000000   0.0000000   0.0000000), wk =   0.0011574
        k(    2) = (   0.0000000   0.0000000   0.0187503), wk =   0.0069444
        k(    3) = (   0.0000000   0.0000000   0.0375006), wk =   0.0069444
        k(    4) = (   0.0000000   0.0000000   0.0562510), wk =   0.0069444
        k(    5) = (   0.0000000   0.0000000   0.0750013), wk =   0.0069444
        k(    6) = (   0.0000000   0.0000000   0.0937516), wk =   0.0069444
        k(    7) = (   0.0000000   0.0000000  -0.1125019), wk =   0.0034722
        k(    8) = (   0.0000000   0.0187503   0.0187503), wk =   0.0138889
        k(    9) = (   0.0000000   0.0187503   0.0375006), wk =   0.0277778
        k(   10) = (   0.0000000   0.0187503   0.0562510), wk =   0.0277778
        k(   11) = (   0.0000000   0.0187503   0.0750013), wk =   0.0277778
        k(   12) = (   0.0000000   0.0187503   0.0937516), wk =   0.0277778
        k(   13) = (   0.0000000   0.0187503  -0.1125019), wk =   0.0138889
        k(   14) = (   0.0000000   0.0375006   0.0375006), wk =   0.0138889
        k(   15) = (   0.0000000   0.0375006   0.0562510), wk =   0.0277778
        k(   16) = (   0.0000000   0.0375006   0.0750013), wk =   0.0277778
        k(   17) = (   0.0000000   0.0375006   0.0937516), wk =   0.0277778
        k(   18) = (   0.0000000   0.0375006  -0.1125019), wk =   0.0138889
        k(   19) = (   0.0000000   0.0562510   0.0562510), wk =   0.0138889
        k(   20) = (   0.0000000   0.0562510   0.0750013), wk =   0.0277778
        k(   21) = (   0.0000000   0.0562510   0.0937516), wk =   0.0277778
        k(   22) = (   0.0000000   0.0562510  -0.1125019), wk =   0.0138889
        k(   23) = (   0.0000000   0.0750013   0.0750013), wk =   0.0138889
        k(   24) = (   0.0000000   0.0750013   0.0937516), wk =   0.0277778
        k(   25) = (   0.0000000   0.0750013  -0.1125019), wk =   0.0138889
        k(   26) = (   0.0000000   0.0937516   0.0937516), wk =   0.0138889
        k(   27) = (   0.0000000   0.0937516  -0.1125019), wk =   0.0138889
        k(   28) = (   0.0000000  -0.1125019  -0.1125019), wk =   0.0034722
        k(   29) = (   0.0187503   0.0187503   0.0187503), wk =   0.0092593
        k(   30) = (   0.0187503   0.0187503   0.0375006), wk =   0.0277778
        k(   31) = (   0.0187503   0.0187503   0.0562510), wk =   0.0277778
        k(   32) = (   0.0187503   0.0187503   0.0750013), wk =   0.0277778
        k(   33) = (   0.0187503   0.0187503   0.0937516), wk =   0.0277778
        k(   34) = (   0.0187503   0.0187503  -0.1125019), wk =   0.0138889
        k(   35) = (   0.0187503   0.0375006   0.0375006), wk =   0.0277778
        k(   36) = (   0.0187503   0.0375006   0.0562510), wk =   0.0555556
        k(   37) = (   0.0187503   0.0375006   0.0750013), wk =   0.0555556
        k(   38) = (   0.0187503   0.0375006   0.0937516), wk =   0.0555556
        k(   39) = (   0.0187503   0.0375006  -0.1125019), wk =   0.0277778
        k(   40) = (   0.0187503   0.0562510   0.0562510), wk =   0.0277778
        k(   41) = (   0.0187503   0.0562510   0.0750013), wk =   0.0555556
        k(   42) = (   0.0187503   0.0562510   0.0937516), wk =   0.0555556
        k(   43) = (   0.0187503   0.0562510  -0.1125019), wk =   0.0277778
        k(   44) = (   0.0187503   0.0750013   0.0750013), wk =   0.0277778
        k(   45) = (   0.0187503   0.0750013   0.0937516), wk =   0.0555556
        k(   46) = (   0.0187503   0.0750013  -0.1125019), wk =   0.0277778
        k(   47) = (   0.0187503   0.0937516   0.0937516), wk =   0.0277778
        k(   48) = (   0.0187503   0.0937516  -0.1125019), wk =   0.0277778
        k(   49) = (   0.0187503  -0.1125019  -0.1125019), wk =   0.0069444
        k(   50) = (   0.0375006   0.0375006   0.0375006), wk =   0.0092593
        k(   51) = (   0.0375006   0.0375006   0.0562510), wk =   0.0277778
        k(   52) = (   0.0375006   0.0375006   0.0750013), wk =   0.0277778
        k(   53) = (   0.0375006   0.0375006   0.0937516), wk =   0.0277778
        k(   54) = (   0.0375006   0.0375006  -0.1125019), wk =   0.0138889
        k(   55) = (   0.0375006   0.0562510   0.0562510), wk =   0.0277778
        k(   56) = (   0.0375006   0.0562510   0.0750013), wk =   0.0555556
        k(   57) = (   0.0375006   0.0562510   0.0937516), wk =   0.0555556
        k(   58) = (   0.0375006   0.0562510  -0.1125019), wk =   0.0277778
        k(   59) = (   0.0375006   0.0750013   0.0750013), wk =   0.0277778
        k(   60) = (   0.0375006   0.0750013   0.0937516), wk =   0.0555556
[...]
        k(   70) = (   0.0562510   0.0750013   0.0937516), wk =   0.0555556
        k(   71) = (   0.0562510   0.0750013  -0.1125019), wk =   0.0277778
        k(   72) = (   0.0562510   0.0937516   0.0937516), wk =   0.0277778
        k(   73) = (   0.0562510   0.0937516  -0.1125019), wk =   0.0277778
        k(   74) = (   0.0562510  -0.1125019  -0.1125019), wk =   0.0069444
        k(   75) = (   0.0750013   0.0750013   0.0750013), wk =   0.0092593
        k(   76) = (   0.0750013   0.0750013   0.0937516), wk =   0.0277778
        k(   77) = (   0.0750013   0.0750013  -0.1125019), wk =   0.0138889
        k(   78) = (   0.0750013   0.0937516   0.0937516), wk =   0.0277778
        k(   79) = (   0.0750013   0.0937516  -0.1125019), wk =   0.0277778
        k(   80) = (   0.0750013  -0.1125019  -0.1125019), wk =   0.0069444
        k(   81) = (   0.0937516   0.0937516   0.0937516), wk =   0.0092593
        k(   82) = (   0.0937516   0.0937516  -0.1125019), wk =   0.0138889
        k(   83) = (   0.0937516  -0.1125019  -0.1125019), wk =   0.0069444
        k(   84) = (  -0.1125019  -0.1125019  -0.1125019), wk =   0.0011574

     Largest allocated arrays     est. size (Mb)     dimensions
     Largest temporary arrays     est. size (Mb)     dimensions

     Initial potential from superposition of free atoms

     starting charge   66.49539, renormalised to   68.00000

     *
     * You are using vdW-DF for exchange-correlation in this calculation.
     * Please cite the following three references that made this development
     * possible:
     *
     *   M. Dion, H. Rydberg, E. Schroder, D. C. Langreth, and
     *   B. I. Lundqvist, Phys. Rev. Lett. 92, 246401 (2004).
     *
     *   T. Thonhauser, V. R. Cooper, S. Li, A. Puzder, P. Hyldgaard, and
     *   D. C. Langreth, Phys. Rev. B 76, 125112 (2007).
     *
     *   G. Roman-Perez and J. M. Soler, Phys. Rev. Lett. 103, 096102 (2009).
     *
     *
     * If you are using vdW-DF2, please also cite:
     *
     *   K. Lee, E. D. Murray, L. Kong, B. I. Lundqvist, and
     *   D. C. Langreth, Phys. Rev. B 82, 081101(R) (2010).
     *
     *
     * If you are calculating the stress with vdW-DF, please also cite:
     *
     *   R. Sabatini, E. Kucukbenli, B. Kolb, T. Thonhauser, and
     *   S. de Gironcoli, J. Phys.: Condens. Matter 24, 424209 (2012).
     *

     Carrying out vdW-DF run using the following parameters:

     Nqs =      20    Nr_points =    1024   r_max =   100.000
     q_mesh =
               0.00001000     0.04494208     0.09755937     0.15916263
               0.23128650     0.31572767     0.41458969     0.53033537
               0.66584808     0.82450364     1.01025438     1.22772762
               1.48234092     1.78043706     2.12944203     2.53805004
               3.01644009     3.57652955     4.23227104     5.00000000

     Gradients computed in reciprocal space

     Starting wfc are   52 randomized atomic wfcs +    2 random wfc

     Self-consistent Calculation

     iteration #  1     ecut=    58.80 Ry     beta=0.10
     Davidson diagonalization with overlap
     ethr =  1.00E-02,  avg # of iterations =  4.8

     total energy              =    -984.37256930 Ry
     Harris-Foulkes estimate   =    -984.66063066 Ry
     estimated scf accuracy    <       4.75500728 Ry

[...]

     total energy              =    -983.77634246 Ry
     Harris-Foulkes estimate   =    -983.77633587 Ry
     estimated scf accuracy    <          9.9E-09 Ry

     iteration # 14     ecut=    58.80 Ry     beta=0.10
     Davidson diagonalization with overlap
     ethr =  1.45E-11,  avg # of iterations =  1.1

     End of self-consistent calculation

          k = 0.0000 0.0000 0.0000 (  4553 PWs)   bands (ev):

   -78.8240 -78.8194 -78.8194 -42.3520 -42.3520 -42.3520 -42.3446 -42.3446
   -42.3446 -42.2055 -42.2055 -42.2055 -30.1981 -10.1013 -10.1013 -10.1013
     7.0090   7.8276   7.8276   7.8943   7.9336   7.9336   7.9336   8.9095
     8.9095   8.9095   9.5479   9.5479   9.7373  10.0214  10.0214  10.0214
    14.2731  14.2731  15.1912  15.1912  15.1912  16.5571  16.5571  16.5571
    20.5684  20.7883  20.7883  21.3675  21.3675  21.3675  24.2590  24.2590
    24.2590  26.9321  28.2861  28.2861  29.2081  29.2081

[...]

          k = 0.0938-0.1125-0.1125 (  4540 PWs)   bands (ev):

[...]

          k =-0.1125-0.1125-0.1125 (  4632 PWs)   bands (ev):

   -78.8210 -78.8210 -78.8210 -42.3633 -42.3633 -42.3633 -42.3314 -42.3314
   -42.3314 -42.2396 -42.1927 -42.1927 -30.1950 -10.1279 -10.1279 -10.1279
     7.7874   7.9612   7.9612   7.9612   8.6251   8.6251   8.6251   9.0596
     9.0596   9.0698   9.0698   9.0698   9.8416   9.8416   9.8416  13.1529
    13.1529  13.1529  13.3585  13.6124  13.6124  13.6124  16.6794  16.6794
    18.5862  19.5915  19.5915  19.5915  26.0471  26.0471  26.0471  26.8354
    26.8354  26.8354  26.9511  28.2703  28.2703  31.5521

     the Fermi energy is    13.5348 ev

!    total energy              =    -983.77637567 Ry
     Harris-Foulkes estimate   =    -983.77634246 Ry
     estimated scf accuracy    <          1.9E-09 Ry

     The total energy is the sum of the following terms:

     one-electron contribution =    -496.03570088 Ry
     hartree contribution      =     274.74140957 Ry
     xc contribution           =    -118.52273957 Ry
     ewald contribution        =    -643.95305475 Ry
     smearing contrib. (-TS)   =      -0.00629004 Ry

     convergence has been achieved in  14 iterations

     Forces acting on atoms (Ry/au):

     atom    1 type  1   force =     0.00000000    0.00000000    0.00000000
     atom    2 type  1   force =     0.00000000    0.00000000    0.00000000
     atom    3 type  1   force =     0.00000000    0.00000000    0.00000000
     atom    4 type  2   force =     0.00000000    0.00000000    0.00000000

     Total force =     0.000000     Total SCF correction =     0.000000
 !ASE

     General routines

     Parallel routines

   This run was terminated on:  20:39:49  24Oct2017

   JOB DONE.