     Program PWSCF v.5.1rc2 (svn rev. ) starts on 25Oct2017 at 21:12: 8

     Current dimensions of program PWSCF are:
     Max number of different atomic species (ntypx) = 10
     Max number of k-points (npk) =  40000
     Max angular momentum in pseudopotentials (lmaxx) =  3

     IMPORTANT: XC functional enforced from input :
     Exchange-correlation      = BEEF-VDW ( 1  4 27 13 2)
     Any further DFT definition will be discarded
     Please, verify this is what you really want

     Subspace diagonalization in iterative solution of the eigenvalue problem:
     a serial algorithm will be used

     bravais-lattice index     =            0
     lattice parameter (alat)  =       1.8897  a.u.
     unit-cell volume          =     348.9985 (a.u.)^3
     number of atoms/cell      =            4
     number of atomic types    =            2
     number of electrons       =        70.00
     number of Kohn-Sham states=           55
     kinetic-energy cutoff     =      58.7989  Ry
     charge density cutoff     =     587.9892  Ry
     convergence threshold     =      7.3E-09
     mixing beta               =       0.1000
     number of iterations used =           10  local-TF  mixing
     Exchange-correlation      = BEEF-VDW ( 1  4 27 13 2)
     nstep                     =           50

     celldm(1)=   1.889726  celldm(2)=   0.000000  celldm(3)=   0.000000
     celldm(4)=   0.000000  celldm(5)=   0.000000  celldm(6)=   0.000000

     crystal axes: (cart. coord. in units of alat)
               a(1) = (   3.725709   0.000000   0.000000 )
               a(2) = (   0.000000   3.725709   0.000000 )
               a(3) = (   0.000000   0.000000   3.725709 )

     reciprocal axes: (cart. coord. in units 2 pi/alat)
               b(1) = (  0.268405  0.000000  0.000000 )
               b(2) = (  0.000000  0.268405  0.000000 )
               b(3) = (  0.000000  0.000000  0.268405 )

     PseudoPot. # 1 for Cu read from file:
     /home/vossj/suncat/psp/gbrv1.5pbe/Cu.UPF
     MD5 check sum: 6e991ff952a84172a2a52a1c1e996048
     Pseudo is Ultrasoft + core correction, Zval = 19.0
     Generated by new atomic code, or converted to UPF format
     Using radial grid of  867 points,  6 beta functions with:
                l(1) =   0
                l(2) =   0
                l(3) =   1
                l(4) =   1
                l(5) =   2
                l(6) =   2
     Q(r) pseudized with  8 coefficients,  rinner =    1.150   1.150   1.150
                                                       1.150   1.150

     PseudoPot. # 2 for V  read from file:
     /home/vossj/suncat/psp/gbrv1.5pbe/V.UPF
     MD5 check sum: 22b79981416ebb76fdaf5b1b8640f6fb
     Pseudo is Ultrasoft + core correction, Zval = 13.0
     Generated by new atomic code, or converted to UPF format
     Using radial grid of  853 points,  6 beta functions with:
                l(1) =   0
                l(2) =   0
                l(3) =   1
                l(4) =   1
                l(5) =   2
                l(6) =   2
     Q(r) pseudized with  8 coefficients,  rinner =    1.100   1.100   1.100
                                                       1.100   1.100

     vdW kernel table read from file vdW_kernel_table
     MD5 check sum: 095c7af220d748ca6e76c0b4c6cfb241

     atomic species   valence    mass     pseudopotential
        Cu1           19.00    63.54600     Cu( 1.00)
        V1            13.00    50.94150     V ( 1.00)

     48 Sym. Ops., with inversion, found (32 have fractional translation)

   Cartesian axes

     site n.     atom                  positions (alat units)
         1           Cu1 tau(   1) = (   0.0000000   0.0000000   0.0000000  )
         2           Cu1 tau(   2) = (   0.0000000   1.8628547   1.8628547  )
         3           Cu1 tau(   3) = (   1.8628547   0.0000000   1.8628547  )
         4           V1  tau(   4) = (   1.8628547   1.8628547   0.0000000  )

     number of k points=    84  Fermi-Dirac smearing, width (Ry)=  0.0073
                       cart. coord. in units 2pi/alat
        k(    1) = (   0.0000000   0.0000000   0.0000000), wk =   0.0011574
        k(    2) = (   0.0000000   0.0000000   0.0223671), wk =   0.0069444
        k(    3) = (   0.0000000   0.0000000   0.0447342), wk =   0.0069444
        k(    4) = (   0.0000000   0.0000000   0.0671013), wk =   0.0069444
        k(    5) = (   0.0000000   0.0000000   0.0894684), wk =   0.0069444
        k(    6) = (   0.0000000   0.0000000   0.1118355), wk =   0.0069444
        k(    7) = (   0.0000000   0.0000000  -0.1342026), wk =   0.0034722
        k(    8) = (   0.0000000   0.0223671   0.0223671), wk =   0.0138889
        k(    9) = (   0.0000000   0.0223671   0.0447342), wk =   0.0277778
        k(   10) = (   0.0000000   0.0223671   0.0671013), wk =   0.0277778
        k(   11) = (   0.0000000   0.0223671   0.0894684), wk =   0.0277778
        k(   12) = (   0.0000000   0.0223671   0.1118355), wk =   0.0277778
        k(   13) = (   0.0000000   0.0223671  -0.1342026), wk =   0.0138889
        k(   14) = (   0.0000000   0.0447342   0.0447342), wk =   0.0138889
        k(   15) = (   0.0000000   0.0447342   0.0671013), wk =   0.0277778
        k(   16) = (   0.0000000   0.0447342   0.0894684), wk =   0.0277778
        k(   17) = (   0.0000000   0.0447342   0.1118355), wk =   0.0277778
        k(   18) = (   0.0000000   0.0447342  -0.1342026), wk =   0.0138889
        k(   19) = (   0.0000000   0.0671013   0.0671013), wk =   0.0138889
        k(   20) = (   0.0000000   0.0671013   0.0894684), wk =   0.0277778
        k(   21) = (   0.0000000   0.0671013   0.1118355), wk =   0.0277778
        k(   22) = (   0.0000000   0.0671013  -0.1342026), wk =   0.0138889
        k(   23) = (   0.0000000   0.0894684   0.0894684), wk =   0.0138889
        k(   24) = (   0.0000000   0.0894684   0.1118355), wk =   0.0277778
        k(   25) = (   0.0000000   0.0894684  -0.1342026), wk =   0.0138889
        k(   26) = (   0.0000000   0.1118355   0.1118355), wk =   0.0138889
        k(   27) = (   0.0000000   0.1118355  -0.1342026), wk =   0.0138889
        k(   28) = (   0.0000000  -0.1342026  -0.1342026), wk =   0.0034722
        k(   29) = (   0.0223671   0.0223671   0.0223671), wk =   0.0092593
        k(   30) = (   0.0223671   0.0223671   0.0447342), wk =   0.0277778
        k(   31) = (   0.0223671   0.0223671   0.0671013), wk =   0.0277778
        k(   32) = (   0.0223671   0.0223671   0.0894684), wk =   0.0277778
        k(   33) = (   0.0223671   0.0223671   0.1118355), wk =   0.0277778
        k(   34) = (   0.0223671   0.0223671  -0.1342026), wk =   0.0138889
        k(   35) = (   0.0223671   0.0447342   0.0447342), wk =   0.0277778
        k(   36) = (   0.0223671   0.0447342   0.0671013), wk =   0.0555556
        k(   37) = (   0.0223671   0.0447342   0.0894684), wk =   0.0555556
        k(   38) = (   0.0223671   0.0447342   0.1118355), wk =   0.0555556
        k(   39) = (   0.0223671   0.0447342  -0.1342026), wk =   0.0277778
        k(   40) = (   0.0223671   0.0671013   0.0671013), wk =   0.0277778
        k(   41) = (   0.0223671   0.0671013   0.0894684), wk =   0.0555556
        k(   42) = (   0.0223671   0.0671013   0.1118355), wk =   0.0555556
        k(   43) = (   0.0223671   0.0671013  -0.1342026), wk =   0.0277778
        k(   44) = (   0.0223671   0.0894684   0.0894684), wk =   0.0277778
        k(   45) = (   0.0223671   0.0894684   0.1118355), wk =   0.0555556
        k(   46) = (   0.0223671   0.0894684  -0.1342026), wk =   0.0277778
        k(   47) = (   0.0223671   0.1118355   0.1118355), wk =   0.0277778
        k(   48) = (   0.0223671   0.1118355  -0.1342026), wk =   0.0277778
        k(   49) = (   0.0223671  -0.1342026  -0.1342026), wk =   0.0069444
        k(   50) = (   0.0447342   0.0447342   0.0447342), wk =   0.0092593
        k(   51) = (   0.0447342   0.0447342   0.0671013), wk =   0.0277778
        k(   52) = (   0.0447342   0.0447342   0.0894684), wk =   0.0277778
        k(   53) = (   0.0447342   0.0447342   0.1118355), wk =   0.0277778
        k(   54) = (   0.0447342   0.0447342  -0.1342026), wk =   0.0138889
        k(   55) = (   0.0447342   0.0671013   0.0671013), wk =   0.0277778
        k(   56) = (   0.0447342   0.0671013   0.0894684), wk =   0.0555556
        k(   57) = (   0.0447342   0.0671013   0.1118355), wk =   0.0555556
        k(   58) = (   0.0447342   0.0671013  -0.1342026), wk =   0.0277778
        k(   59) = (   0.0447342   0.0894684   0.0894684), wk =   0.0277778
        k(   60) = (   0.0447342   0.0894684   0.1118355), wk =   0.0555556
[...]
        k(   70) = (   0.0671013   0.0894684   0.1118355), wk =   0.0555556
        k(   71) = (   0.0671013   0.0894684  -0.1342026), wk =   0.0277778
        k(   72) = (   0.0671013   0.1118355   0.1118355), wk =   0.0277778
        k(   73) = (   0.0671013   0.1118355  -0.1342026), wk =   0.0277778
        k(   74) = (   0.0671013  -0.1342026  -0.1342026), wk =   0.0069444
        k(   75) = (   0.0894684   0.0894684   0.0894684), wk =   0.0092593
        k(   76) = (   0.0894684   0.0894684   0.1118355), wk =   0.0277778
        k(   77) = (   0.0894684   0.0894684  -0.1342026), wk =   0.0138889
        k(   78) = (   0.0894684   0.1118355   0.1118355), wk =   0.0277778
        k(   79) = (   0.0894684   0.1118355  -0.1342026), wk =   0.0277778
        k(   80) = (   0.0894684  -0.1342026  -0.1342026), wk =   0.0069444
        k(   81) = (   0.1118355   0.1118355   0.1118355), wk =   0.0092593
        k(   82) = (   0.1118355   0.1118355  -0.1342026), wk =   0.0138889
        k(   83) = (   0.1118355  -0.1342026  -0.1342026), wk =   0.0069444
        k(   84) = (  -0.1342026  -0.1342026  -0.1342026), wk =   0.0011574

     Largest allocated arrays     est. size (Mb)     dimensions
     Largest temporary arrays     est. size (Mb)     dimensions

     Check: negative/imaginary core charge=   -0.000002    0.000000

     Initial potential from superposition of free atoms
     Check: negative starting charge=   -0.000432

     starting charge   66.99877, renormalised to   70.00000

     negative rho (up, down):  4.510E-04 0.000E+00

     *
     * You are using vdW-DF for exchange-correlation in this calculation.
     * Please cite the following three references that made this development
     * possible:
     *
     *   M. Dion, H. Rydberg, E. Schroder, D. C. Langreth, and
     *   B. I. Lundqvist, Phys. Rev. Lett. 92, 246401 (2004).
     *
     *   T. Thonhauser, V. R. Cooper, S. Li, A. Puzder, P. Hyldgaard, and
     *   D. C. Langreth, Phys. Rev. B 76, 125112 (2007).
     *
     *   G. Roman-Perez and J. M. Soler, Phys. Rev. Lett. 103, 096102 (2009).
     *
     *
     * If you are using vdW-DF2, please also cite:
     *
     *   K. Lee, E. D. Murray, L. Kong, B. I. Lundqvist, and
     *   D. C. Langreth, Phys. Rev. B 82, 081101(R) (2010).
     *
     *
     * If you are calculating the stress with vdW-DF, please also cite:
     *
     *   R. Sabatini, E. Kucukbenli, B. Kolb, T. Thonhauser, and
     *   S. de Gironcoli, J. Phys.: Condens. Matter 24, 424209 (2012).
     *

     Carrying out vdW-DF run using the following parameters:

     Nqs =      20    Nr_points =    1024   r_max =   100.000
     q_mesh =
               0.00001000     0.04494208     0.09755937     0.15916263
               0.23128650     0.31572767     0.41458969     0.53033537
               0.66584808     0.82450364     1.01025438     1.22772762
               1.48234092     1.78043706     2.12944203     2.53805004
               3.01644009     3.57652955     4.23227104     5.00000000

     Gradients computed in reciprocal space

     Starting wfc are   49 randomized atomic wfcs +    6 random wfc

     Self-consistent Calculation

     iteration #  1     ecut=    58.80 Ry     beta=0.10
     Davidson diagonalization with overlap
     ethr =  1.00E-02,  avg # of iterations =  4.2

[...]

     total energy              =   -1361.55187293 Ry
     Harris-Foulkes estimate   =   -1362.31873912 Ry
     estimated scf accuracy    <       9.34203508 Ry

[...]

     total energy              =   -1360.57951335 Ry
     Harris-Foulkes estimate   =   -1360.57950485 Ry
     estimated scf accuracy    <       0.00000039 Ry

     iteration # 16     ecut=    58.80 Ry     beta=0.10
     Davidson diagonalization with overlap
     ethr =  1.06E-10,  avg # of iterations =  1.3

     negative rho (up, down):  6.706E-04 0.000E+00

     End of self-consistent calculation

          k = 0.0000 0.0000 0.0000 (  2601 PWs)   bands (ev):

   -97.8119 -97.8031 -97.8031 -55.2256 -55.2256 -55.2256 -55.2127 -55.2127
   -55.2127 -55.1191 -55.1191 -55.1191 -49.6143 -23.4031 -23.4031 -23.4031
     6.5613  10.3662  10.3662  10.5103  10.8278  10.8278  10.8278  12.1156
    12.1156  12.1156  12.7796  12.7796  13.0441  13.2564  13.2564  13.2564
    15.3379  15.3379  16.2028  16.2028  16.2028  16.9042  16.9042  16.9042
    22.7429  22.7429  23.4585  26.6979  26.6979  26.6979  29.0167  29.0167
    29.0167  32.5380  32.5380  32.5380  33.8477  33.8477  35.8428

[...]

          k = 0.1118-0.1342-0.1342 (  2628 PWs)   bands (ev):

[...]

          k =-0.1342-0.1342-0.1342 (  2608 PWs)   bands (ev):

   -97.8060 -97.8060 -97.8060 -55.2374 -55.2374 -55.2374 -55.1953 -55.1953
   -55.1953 -55.1672 -55.1047 -55.1047 -49.6122 -23.4151 -23.4151 -23.4151
    10.2060  10.2060  10.2060  10.5363  11.8456  11.8456  11.8456  12.1591
    12.1591  12.1591  12.2971  12.2971  13.1042  13.1042  13.1042  14.2219
    14.6526  14.6526  14.6526  14.8680  14.8680  14.8680  16.1272  16.1272
    19.9240  19.9240  19.9240  21.1000  34.3739  34.3739  34.3739  34.7767
    34.7767  34.7767  34.8935  35.5415  35.5415  38.2954  38.2954

     the Fermi energy is    14.9714 ev

!    total energy              =   -1360.57952413 Ry
     Harris-Foulkes estimate   =   -1360.57951338 Ry
     estimated scf accuracy    <          6.9E-10 Ry

     The total energy is the sum of the following terms:

     one-electron contribution =    -905.39180628 Ry
     hartree contribution      =     491.54820589 Ry
     xc contribution           =    -140.34028595 Ry
     ewald contribution        =    -806.37429230 Ry
     smearing contrib. (-TS)   =      -0.02134550 Ry

     convergence has been achieved in  16 iterations

     Forces acting on atoms (Ry/au):

     negative rho (up, down):  6.706E-04 0.000E+00
     atom    1 type  1   force =     0.00000000   -0.00000000   -0.00000000
     atom    2 type  1   force =     0.00000000   -0.00000000    0.00000000
     atom    3 type  1   force =     0.00000000    0.00000000    0.00000000
     atom    4 type  2   force =     0.00000000    0.00000000    0.00000000

     Total force =     0.000000     Total SCF correction =     0.000000
 !ASE

     General routines

     Parallel routines

   This run was terminated on:  21:13:16  25Oct2017

   JOB DONE.