     Program PWSCF v.5.1rc2 (svn rev. ) starts on 25Oct2017 at 10:36:59

     Current dimensions of program PWSCF are:
     Max number of different atomic species (ntypx) = 10
     Max number of k-points (npk) =  40000
     Max angular momentum in pseudopotentials (lmaxx) =  3

     IMPORTANT: XC functional enforced from input :
     Exchange-correlation      = BEEF-VDW ( 1  4 27 13 2)
     Any further DFT definition will be discarded
     Please, verify this is what you really want

     Subspace diagonalization in iterative solution of the eigenvalue problem:
     a serial algorithm will be used

     bravais-lattice index     =            0
     lattice parameter (alat)  =       1.8897  a.u.
     unit-cell volume          =     575.7837 (a.u.)^3
     number of atoms/cell      =            4
     number of atomic types    =            2
     number of electrons       =        53.00
     number of Kohn-Sham states=           46
     kinetic-energy cutoff     =      58.7989  Ry
     charge density cutoff     =     587.9892  Ry
     convergence threshold     =      7.3E-09
     mixing beta               =       0.1000
     number of iterations used =           10  local-TF  mixing
     Exchange-correlation      = BEEF-VDW ( 1  4 27 13 2)
     nstep                     =           50

     celldm(1)=   1.889726  celldm(2)=   0.000000  celldm(3)=   0.000000
     celldm(4)=   0.000000  celldm(5)=   0.000000  celldm(6)=   0.000000

     crystal axes: (cart. coord. in units of alat)
               a(1) = (   4.402381   0.000000   0.000000 )
               a(2) = (   0.000000   4.402381   0.000000 )
               a(3) = (   0.000000   0.000000   4.402381 )

     reciprocal axes: (cart. coord. in units 2 pi/alat)
               b(1) = (  0.227150  0.000000  0.000000 )
               b(2) = (  0.000000  0.227150  0.000000 )
               b(3) = (  0.000000  0.000000  0.227150 )

     PseudoPot. # 1 for In read from file:
     /home/vossj/suncat/psp/gbrv1.5pbe/In.UPF
     MD5 check sum: 90777abd96fbb83f2e67db2a40c566b9
     Pseudo is Ultrasoft + core correction, Zval = 13.0
     Generated by new atomic code, or converted to UPF format
     Using radial grid of  889 points,  6 beta functions with:
                l(1) =   0
                l(2) =   0
                l(3) =   1
                l(4) =   1
                l(5) =   2
                l(6) =   2
     Q(r) pseudized with  6 coefficients,  rinner =    1.400   1.400   1.400
                                                       1.400   1.400

     PseudoPot. # 2 for W  read from file:
     /home/vossj/suncat/psp/gbrv1.5pbe/W.UPF
     MD5 check sum: 9c083fa34c2a2ea0f02f1f893e16e1c8
     Pseudo is Ultrasoft + core correction, Zval = 14.0
     Generated by new atomic code, or converted to UPF format
     Using radial grid of  923 points,  8 beta functions with:
                l(1) =   0
                l(2) =   0
                l(3) =   0
                l(4) =   1
                l(5) =   1
                l(6) =   2
                l(7) =   2
                l(8) =   3
     Q(r) pseudized with  6 coefficients,  rinner =    1.350   1.350   1.350
                                                       1.350   1.350   1.350
                                                       1.350

     vdW kernel table read from file vdW_kernel_table
     MD5 check sum: 095c7af220d748ca6e76c0b4c6cfb241

     atomic species   valence    mass     pseudopotential
        In1           13.00   114.81800     In( 1.00)
        W1            14.00   183.84000     W ( 1.00)

     48 Sym. Ops., with inversion, found (32 have fractional translation)

   Cartesian axes

     site n.     atom                  positions (alat units)
         1           In1 tau(   1) = (   0.0000000   0.0000000   0.0000000  )
         2           In1 tau(   2) = (   0.0000000   2.2011903   2.2011903  )
         3           In1 tau(   3) = (   2.2011903   0.0000000   2.2011903  )
         4           W1  tau(   4) = (   2.2011903   2.2011903   0.0000000  )

     number of k points=    84  Fermi-Dirac smearing, width (Ry)=  0.0073
                       cart. coord. in units 2pi/alat
        k(    1) = (   0.0000000   0.0000000   0.0000000), wk =   0.0011574
        k(    2) = (   0.0000000   0.0000000   0.0189292), wk =   0.0069444
        k(    3) = (   0.0000000   0.0000000   0.0378583), wk =   0.0069444
        k(    4) = (   0.0000000   0.0000000   0.0567875), wk =   0.0069444
        k(    5) = (   0.0000000   0.0000000   0.0757166), wk =   0.0069444
        k(    6) = (   0.0000000   0.0000000   0.0946458), wk =   0.0069444
        k(    7) = (   0.0000000   0.0000000  -0.1135749), wk =   0.0034722
        k(    8) = (   0.0000000   0.0189292   0.0189292), wk =   0.0138889
        k(    9) = (   0.0000000   0.0189292   0.0378583), wk =   0.0277778
        k(   10) = (   0.0000000   0.0189292   0.0567875), wk =   0.0277778
        k(   11) = (   0.0000000   0.0189292   0.0757166), wk =   0.0277778
        k(   12) = (   0.0000000   0.0189292   0.0946458), wk =   0.0277778
        k(   13) = (   0.0000000   0.0189292  -0.1135749), wk =   0.0138889
        k(   14) = (   0.0000000   0.0378583   0.0378583), wk =   0.0138889
        k(   15) = (   0.0000000   0.0378583   0.0567875), wk =   0.0277778
        k(   16) = (   0.0000000   0.0378583   0.0757166), wk =   0.0277778
        k(   17) = (   0.0000000   0.0378583   0.0946458), wk =   0.0277778
        k(   18) = (   0.0000000   0.0378583  -0.1135749), wk =   0.0138889
        k(   19) = (   0.0000000   0.0567875   0.0567875), wk =   0.0138889
        k(   20) = (   0.0000000   0.0567875   0.0757166), wk =   0.0277778
        k(   21) = (   0.0000000   0.0567875   0.0946458), wk =   0.0277778
        k(   22) = (   0.0000000   0.0567875  -0.1135749), wk =   0.0138889
        k(   23) = (   0.0000000   0.0757166   0.0757166), wk =   0.0138889
        k(   24) = (   0.0000000   0.0757166   0.0946458), wk =   0.0277778
        k(   25) = (   0.0000000   0.0757166  -0.1135749), wk =   0.0138889
        k(   26) = (   0.0000000   0.0946458   0.0946458), wk =   0.0138889
        k(   27) = (   0.0000000   0.0946458  -0.1135749), wk =   0.0138889
        k(   28) = (   0.0000000  -0.1135749  -0.1135749), wk =   0.0034722
        k(   29) = (   0.0189292   0.0189292   0.0189292), wk =   0.0092593
        k(   30) = (   0.0189292   0.0189292   0.0378583), wk =   0.0277778
        k(   31) = (   0.0189292   0.0189292   0.0567875), wk =   0.0277778
        k(   32) = (   0.0189292   0.0189292   0.0757166), wk =   0.0277778
        k(   33) = (   0.0189292   0.0189292   0.0946458), wk =   0.0277778
        k(   34) = (   0.0189292   0.0189292  -0.1135749), wk =   0.0138889
        k(   35) = (   0.0189292   0.0378583   0.0378583), wk =   0.0277778
        k(   36) = (   0.0189292   0.0378583   0.0567875), wk =   0.0555556
        k(   37) = (   0.0189292   0.0378583   0.0757166), wk =   0.0555556
        k(   38) = (   0.0189292   0.0378583   0.0946458), wk =   0.0555556
        k(   39) = (   0.0189292   0.0378583  -0.1135749), wk =   0.0277778
        k(   40) = (   0.0189292   0.0567875   0.0567875), wk =   0.0277778
        k(   41) = (   0.0189292   0.0567875   0.0757166), wk =   0.0555556
        k(   42) = (   0.0189292   0.0567875   0.0946458), wk =   0.0555556
        k(   43) = (   0.0189292   0.0567875  -0.1135749), wk =   0.0277778
        k(   44) = (   0.0189292   0.0757166   0.0757166), wk =   0.0277778
        k(   45) = (   0.0189292   0.0757166   0.0946458), wk =   0.0555556
        k(   46) = (   0.0189292   0.0757166  -0.1135749), wk =   0.0277778
        k(   47) = (   0.0189292   0.0946458   0.0946458), wk =   0.0277778
        k(   48) = (   0.0189292   0.0946458  -0.1135749), wk =   0.0277778
        k(   49) = (   0.0189292  -0.1135749  -0.1135749), wk =   0.0069444
        k(   50) = (   0.0378583   0.0378583   0.0378583), wk =   0.0092593
        k(   51) = (   0.0378583   0.0378583   0.0567875), wk =   0.0277778
        k(   52) = (   0.0378583   0.0378583   0.0757166), wk =   0.0277778
        k(   53) = (   0.0378583   0.0378583   0.0946458), wk =   0.0277778
        k(   54) = (   0.0378583   0.0378583  -0.1135749), wk =   0.0138889
        k(   55) = (   0.0378583   0.0567875   0.0567875), wk =   0.0277778
        k(   56) = (   0.0378583   0.0567875   0.0757166), wk =   0.0555556
        k(   57) = (   0.0378583   0.0567875   0.0946458), wk =   0.0555556
        k(   58) = (   0.0378583   0.0567875  -0.1135749), wk =   0.0277778
        k(   59) = (   0.0378583   0.0757166   0.0757166), wk =   0.0277778
        k(   60) = (   0.0378583   0.0757166   0.0946458), wk =   0.0555556
[...]
        k(   70) = (   0.0567875   0.0757166   0.0946458), wk =   0.0555556
        k(   71) = (   0.0567875   0.0757166  -0.1135749), wk =   0.0277778
        k(   72) = (   0.0567875   0.0946458   0.0946458), wk =   0.0277778
        k(   73) = (   0.0567875   0.0946458  -0.1135749), wk =   0.0277778
        k(   74) = (   0.0567875  -0.1135749  -0.1135749), wk =   0.0069444
        k(   75) = (   0.0757166   0.0757166   0.0757166), wk =   0.0092593
        k(   76) = (   0.0757166   0.0757166   0.0946458), wk =   0.0277778
        k(   77) = (   0.0757166   0.0757166  -0.1135749), wk =   0.0138889
        k(   78) = (   0.0757166   0.0946458   0.0946458), wk =   0.0277778
        k(   79) = (   0.0757166   0.0946458  -0.1135749), wk =   0.0277778
        k(   80) = (   0.0757166  -0.1135749  -0.1135749), wk =   0.0069444
        k(   81) = (   0.0946458   0.0946458   0.0946458), wk =   0.0092593
        k(   82) = (   0.0946458   0.0946458  -0.1135749), wk =   0.0138889
        k(   83) = (   0.0946458  -0.1135749  -0.1135749), wk =   0.0069444
        k(   84) = (  -0.1135749  -0.1135749  -0.1135749), wk =   0.0011574

     Largest allocated arrays     est. size (Mb)     dimensions
     Largest temporary arrays     est. size (Mb)     dimensions

     Initial potential from superposition of free atoms
     Check: negative starting charge=   -0.063596

     starting charge   48.39966, renormalised to   53.00000

     negative rho (up, down):  6.964E-02 0.000E+00

     *
     * You are using vdW-DF for exchange-correlation in this calculation.
     * Please cite the following three references that made this development
     * possible:
     *
     *   M. Dion, H. Rydberg, E. Schroder, D. C. Langreth, and
     *   B. I. Lundqvist, Phys. Rev. Lett. 92, 246401 (2004).
     *
     *   T. Thonhauser, V. R. Cooper, S. Li, A. Puzder, P. Hyldgaard, and
     *   D. C. Langreth, Phys. Rev. B 76, 125112 (2007).
     *
     *   G. Roman-Perez and J. M. Soler, Phys. Rev. Lett. 103, 096102 (2009).
     *
     *
     * If you are using vdW-DF2, please also cite:
     *
     *   K. Lee, E. D. Murray, L. Kong, B. I. Lundqvist, and
     *   D. C. Langreth, Phys. Rev. B 82, 081101(R) (2010).
     *
     *
     * If you are calculating the stress with vdW-DF, please also cite:
     *
     *   R. Sabatini, E. Kucukbenli, B. Kolb, T. Thonhauser, and
     *   S. de Gironcoli, J. Phys.: Condens. Matter 24, 424209 (2012).
     *

     Carrying out vdW-DF run using the following parameters:

     Nqs =      20    Nr_points =    1024   r_max =   100.000
     q_mesh =
               0.00001000     0.04494208     0.09755937     0.15916263
               0.23128650     0.31572767     0.41458969     0.53033537
               0.66584808     0.82450364     1.01025438     1.22772762
               1.48234092     1.78043706     2.12944203     2.53805004
               3.01644009     3.57652955     4.23227104     5.00000000

     Gradients computed in reciprocal space

     Starting wfc are   40 randomized atomic wfcs +    6 random wfc

     Self-consistent Calculation

     iteration #  1     ecut=    58.80 Ry     beta=0.10
     Davidson diagonalization with overlap
     ethr =  1.00E-02,  avg # of iterations =  4.7

[...]

     total energy              =    -566.55810895 Ry
     Harris-Foulkes estimate   =    -567.05322270 Ry
     estimated scf accuracy    <       6.86600931 Ry

[...]

     total energy              =    -564.63366750 Ry
     Harris-Foulkes estimate   =    -564.63366655 Ry
     estimated scf accuracy    <       0.00000007 Ry

     iteration # 15     ecut=    58.80 Ry     beta=0.10
     Davidson diagonalization with overlap
     ethr =  1.31E-10,  avg # of iterations =  1.6

     negative rho (up, down):  6.901E-02 0.000E+00

     End of self-consistent calculation

          k = 0.0000 0.0000 0.0000 (  4385 PWs)   bands (ev):

   -60.6204 -24.6974 -24.6974 -24.6974  -1.6787  -1.6307  -1.6307  -1.6307
    -1.3442  -1.3442  -1.1051  -1.1051  -1.1051  -1.0453  -1.0453  -0.8097
    -0.8097  -0.8097  -0.8046   3.4395  10.7211  10.7211  11.8147  11.8147
    11.8147  13.7750  13.7750  13.7750  15.1625  16.3280  16.3280  18.5401
    18.5401  18.5401  20.4733  20.4733  20.4733  24.8940  24.8940  24.8940
    25.0870  25.2392  25.2392  25.7021  28.0323  28.0323

[...]

          k = 0.0946-0.1136-0.1136 (  4360 PWs)   bands (ev):

[...]

          k =-0.1136-0.1136-0.1136 (  4416 PWs)   bands (ev):

   -60.6203 -24.7008 -24.7008 -24.7008  -1.4919  -1.4919  -1.4919  -1.4382
    -1.3433  -1.3433  -1.3433  -1.1369  -1.1369  -1.1369  -1.0218  -1.0218
    -0.8333  -0.8333  -0.8333   8.6649   8.6649   8.6649   9.5200  10.7541
    10.7541  10.7541  13.2451  14.2879  14.2879  15.8929  15.8929  15.8929
    23.8318  23.8318  23.9222  23.9222  23.9222  24.9411  25.0719  25.0719
    25.0719  27.8980  27.8980  27.8980  28.1884  28.1884

     the Fermi energy is    13.9605 ev

!    total energy              =    -564.63367161 Ry
     Harris-Foulkes estimate   =    -564.63366750 Ry
     estimated scf accuracy    <          1.5E-09 Ry

     The total energy is the sum of the following terms:

     one-electron contribution =    -120.61608617 Ry
     hartree contribution      =     103.37243867 Ry
     xc contribution           =    -160.15680027 Ry
     ewald contribution        =    -387.22163463 Ry
     smearing contrib. (-TS)   =      -0.01158921 Ry

     convergence has been achieved in  15 iterations

     Forces acting on atoms (Ry/au):

     negative rho (up, down):  6.901E-02 0.000E+00
     atom    1 type  1   force =     0.00000000    0.00000000    0.00000000
     atom    2 type  1   force =     0.00000000    0.00000000    0.00000000
     atom    3 type  1   force =     0.00000000    0.00000000   -0.00000000
     atom    4 type  2   force =     0.00000000    0.00000000    0.00000000

     Total force =     0.000000     Total SCF correction =     0.000000
 !ASE

     General routines

     Parallel routines

   This run was terminated on:  10:38:15  25Oct2017

   JOB DONE.