     Program PWSCF v.5.1rc2 (svn rev. ) starts on 25Oct2017 at  7: 5:47

     Current dimensions of program PWSCF are:
     Max number of different atomic species (ntypx) = 10
     Max number of k-points (npk) =  40000
     Max angular momentum in pseudopotentials (lmaxx) =  3

     IMPORTANT: XC functional enforced from input :
     Exchange-correlation      = BEEF-VDW ( 1  4 27 13 2)
     Any further DFT definition will be discarded
     Please, verify this is what you really want

     Subspace diagonalization in iterative solution of the eigenvalue problem:
     a serial algorithm will be used

     bravais-lattice index     =            0
     lattice parameter (alat)  =       1.8897  a.u.
     unit-cell volume          =     781.5797 (a.u.)^3
     number of atoms/cell      =            4
     number of atomic types    =            2
     number of electrons       =        46.00
     number of Kohn-Sham states=           43
     kinetic-energy cutoff     =      58.7989  Ry
     charge density cutoff     =     587.9892  Ry
     convergence threshold     =      7.3E-09
     mixing beta               =       0.1000
     number of iterations used =           10  local-TF  mixing
     Exchange-correlation      = BEEF-VDW ( 1  4 27 13 2)
     nstep                     =           50

     celldm(1)=   1.889726  celldm(2)=   0.000000  celldm(3)=   0.000000
     celldm(4)=   0.000000  celldm(5)=   0.000000  celldm(6)=   0.000000

     crystal axes: (cart. coord. in units of alat)
               a(1) = (   4.874449   0.000000   0.000000 )
               a(2) = (   0.000000   4.874449   0.000000 )
               a(3) = (   0.000000   0.000000   4.874449 )

     reciprocal axes: (cart. coord. in units 2 pi/alat)
               b(1) = (  0.205151  0.000000  0.000000 )
               b(2) = (  0.000000  0.205151  0.000000 )
               b(3) = (  0.000000  0.000000  0.205151 )

     PseudoPot. # 1 for Y  read from file:
     /home/vossj/suncat/psp/gbrv1.5pbe/Y.UPF
     MD5 check sum: d034151ed7554c50b6e82763ed42c788
     Pseudo is Ultrasoft + core correction, Zval = 11.0
     Generated by new atomic code, or converted to UPF format
     Using radial grid of  885 points,  6 beta functions with:
                l(1) =   0
                l(2) =   0
                l(3) =   1
                l(4) =   1
                l(5) =   2
                l(6) =   2
     Q(r) pseudized with  8 coefficients,  rinner =    1.200   1.200   1.200
                                                       1.200   1.200

     PseudoPot. # 2 for In read from file:
     /home/vossj/suncat/psp/gbrv1.5pbe/In.UPF
     MD5 check sum: 90777abd96fbb83f2e67db2a40c566b9
     Pseudo is Ultrasoft + core correction, Zval = 13.0
     Generated by new atomic code, or converted to UPF format
     Using radial grid of  889 points,  6 beta functions with:
                l(1) =   0
                l(2) =   0
                l(3) =   1
                l(4) =   1
                l(5) =   2
                l(6) =   2
     Q(r) pseudized with  6 coefficients,  rinner =    1.400   1.400   1.400
                                                       1.400   1.400

     vdW kernel table read from file vdW_kernel_table
     MD5 check sum: 095c7af220d748ca6e76c0b4c6cfb241

     atomic species   valence    mass     pseudopotential
        Y1            11.00    88.90584     Y ( 1.00)
        In1           13.00   114.81800     In( 1.00)

     48 Sym. Ops., with inversion, found (32 have fractional translation)

   Cartesian axes

     site n.     atom                  positions (alat units)
         1           Y1  tau(   1) = (   0.0000000   0.0000000   0.0000000  )
         2           Y1  tau(   2) = (   0.0000000   2.4372246   2.4372246  )
         3           Y1  tau(   3) = (   2.4372246   0.0000000   2.4372246  )
         4           In1 tau(   4) = (   2.4372246   2.4372246   0.0000000  )

     number of k points=    84  Fermi-Dirac smearing, width (Ry)=  0.0073
                       cart. coord. in units 2pi/alat
        k(    1) = (   0.0000000   0.0000000   0.0000000), wk =   0.0011574
        k(    2) = (   0.0000000   0.0000000   0.0170959), wk =   0.0069444
        k(    3) = (   0.0000000   0.0000000   0.0341919), wk =   0.0069444
        k(    4) = (   0.0000000   0.0000000   0.0512878), wk =   0.0069444
        k(    5) = (   0.0000000   0.0000000   0.0683838), wk =   0.0069444
        k(    6) = (   0.0000000   0.0000000   0.0854797), wk =   0.0069444
        k(    7) = (   0.0000000   0.0000000  -0.1025757), wk =   0.0034722
        k(    8) = (   0.0000000   0.0170959   0.0170959), wk =   0.0138889
        k(    9) = (   0.0000000   0.0170959   0.0341919), wk =   0.0277778
        k(   10) = (   0.0000000   0.0170959   0.0512878), wk =   0.0277778
        k(   11) = (   0.0000000   0.0170959   0.0683838), wk =   0.0277778
        k(   12) = (   0.0000000   0.0170959   0.0854797), wk =   0.0277778
        k(   13) = (   0.0000000   0.0170959  -0.1025757), wk =   0.0138889
        k(   14) = (   0.0000000   0.0341919   0.0341919), wk =   0.0138889
        k(   15) = (   0.0000000   0.0341919   0.0512878), wk =   0.0277778
        k(   16) = (   0.0000000   0.0341919   0.0683838), wk =   0.0277778
        k(   17) = (   0.0000000   0.0341919   0.0854797), wk =   0.0277778
        k(   18) = (   0.0000000   0.0341919  -0.1025757), wk =   0.0138889
        k(   19) = (   0.0000000   0.0512878   0.0512878), wk =   0.0138889
        k(   20) = (   0.0000000   0.0512878   0.0683838), wk =   0.0277778
        k(   21) = (   0.0000000   0.0512878   0.0854797), wk =   0.0277778
        k(   22) = (   0.0000000   0.0512878  -0.1025757), wk =   0.0138889
        k(   23) = (   0.0000000   0.0683838   0.0683838), wk =   0.0138889
        k(   24) = (   0.0000000   0.0683838   0.0854797), wk =   0.0277778
        k(   25) = (   0.0000000   0.0683838  -0.1025757), wk =   0.0138889
        k(   26) = (   0.0000000   0.0854797   0.0854797), wk =   0.0138889
        k(   27) = (   0.0000000   0.0854797  -0.1025757), wk =   0.0138889
        k(   28) = (   0.0000000  -0.1025757  -0.1025757), wk =   0.0034722
        k(   29) = (   0.0170959   0.0170959   0.0170959), wk =   0.0092593
        k(   30) = (   0.0170959   0.0170959   0.0341919), wk =   0.0277778
        k(   31) = (   0.0170959   0.0170959   0.0512878), wk =   0.0277778
        k(   32) = (   0.0170959   0.0170959   0.0683838), wk =   0.0277778
        k(   33) = (   0.0170959   0.0170959   0.0854797), wk =   0.0277778
        k(   34) = (   0.0170959   0.0170959  -0.1025757), wk =   0.0138889
        k(   35) = (   0.0170959   0.0341919   0.0341919), wk =   0.0277778
        k(   36) = (   0.0170959   0.0341919   0.0512878), wk =   0.0555556
        k(   37) = (   0.0170959   0.0341919   0.0683838), wk =   0.0555556
        k(   38) = (   0.0170959   0.0341919   0.0854797), wk =   0.0555556
        k(   39) = (   0.0170959   0.0341919  -0.1025757), wk =   0.0277778
        k(   40) = (   0.0170959   0.0512878   0.0512878), wk =   0.0277778
        k(   41) = (   0.0170959   0.0512878   0.0683838), wk =   0.0555556
        k(   42) = (   0.0170959   0.0512878   0.0854797), wk =   0.0555556
        k(   43) = (   0.0170959   0.0512878  -0.1025757), wk =   0.0277778
        k(   44) = (   0.0170959   0.0683838   0.0683838), wk =   0.0277778
        k(   45) = (   0.0170959   0.0683838   0.0854797), wk =   0.0555556
        k(   46) = (   0.0170959   0.0683838  -0.1025757), wk =   0.0277778
        k(   47) = (   0.0170959   0.0854797   0.0854797), wk =   0.0277778
        k(   48) = (   0.0170959   0.0854797  -0.1025757), wk =   0.0277778
        k(   49) = (   0.0170959  -0.1025757  -0.1025757), wk =   0.0069444
        k(   50) = (   0.0341919   0.0341919   0.0341919), wk =   0.0092593
        k(   51) = (   0.0341919   0.0341919   0.0512878), wk =   0.0277778
        k(   52) = (   0.0341919   0.0341919   0.0683838), wk =   0.0277778
        k(   53) = (   0.0341919   0.0341919   0.0854797), wk =   0.0277778
        k(   54) = (   0.0341919   0.0341919  -0.1025757), wk =   0.0138889
        k(   55) = (   0.0341919   0.0512878   0.0512878), wk =   0.0277778
        k(   56) = (   0.0341919   0.0512878   0.0683838), wk =   0.0555556
        k(   57) = (   0.0341919   0.0512878   0.0854797), wk =   0.0555556
        k(   58) = (   0.0341919   0.0512878  -0.1025757), wk =   0.0277778
        k(   59) = (   0.0341919   0.0683838   0.0683838), wk =   0.0277778
        k(   60) = (   0.0341919   0.0683838   0.0854797), wk =   0.0555556
[...]
        k(   70) = (   0.0512878   0.0683838   0.0854797), wk =   0.0555556
        k(   71) = (   0.0512878   0.0683838  -0.1025757), wk =   0.0277778
        k(   72) = (   0.0512878   0.0854797   0.0854797), wk =   0.0277778
        k(   73) = (   0.0512878   0.0854797  -0.1025757), wk =   0.0277778
        k(   74) = (   0.0512878  -0.1025757  -0.1025757), wk =   0.0069444
        k(   75) = (   0.0683838   0.0683838   0.0683838), wk =   0.0092593
        k(   76) = (   0.0683838   0.0683838   0.0854797), wk =   0.0277778
        k(   77) = (   0.0683838   0.0683838  -0.1025757), wk =   0.0138889
        k(   78) = (   0.0683838   0.0854797   0.0854797), wk =   0.0277778
        k(   79) = (   0.0683838   0.0854797  -0.1025757), wk =   0.0277778
        k(   80) = (   0.0683838  -0.1025757  -0.1025757), wk =   0.0069444
        k(   81) = (   0.0854797   0.0854797   0.0854797), wk =   0.0092593
        k(   82) = (   0.0854797   0.0854797  -0.1025757), wk =   0.0138889
        k(   83) = (   0.0854797  -0.1025757  -0.1025757), wk =   0.0069444
        k(   84) = (  -0.1025757  -0.1025757  -0.1025757), wk =   0.0011574

     Largest allocated arrays     est. size (Mb)     dimensions
     Largest temporary arrays     est. size (Mb)     dimensions

     Initial potential from superposition of free atoms

     starting charge   44.48659, renormalised to   46.00000

     *
     * You are using vdW-DF for exchange-correlation in this calculation.
     * Please cite the following three references that made this development
     * possible:
     *
     *   M. Dion, H. Rydberg, E. Schroder, D. C. Langreth, and
     *   B. I. Lundqvist, Phys. Rev. Lett. 92, 246401 (2004).
     *
     *   T. Thonhauser, V. R. Cooper, S. Li, A. Puzder, P. Hyldgaard, and
     *   D. C. Langreth, Phys. Rev. B 76, 125112 (2007).
     *
     *   G. Roman-Perez and J. M. Soler, Phys. Rev. Lett. 103, 096102 (2009).
     *
     *
     * If you are using vdW-DF2, please also cite:
     *
     *   K. Lee, E. D. Murray, L. Kong, B. I. Lundqvist, and
     *   D. C. Langreth, Phys. Rev. B 82, 081101(R) (2010).
     *
     *
     * If you are calculating the stress with vdW-DF, please also cite:
     *
     *   R. Sabatini, E. Kucukbenli, B. Kolb, T. Thonhauser, and
     *   S. de Gironcoli, J. Phys.: Condens. Matter 24, 424209 (2012).
     *

     Carrying out vdW-DF run using the following parameters:

     Nqs =      20    Nr_points =    1024   r_max =   100.000
     q_mesh =
               0.00001000     0.04494208     0.09755937     0.15916263
               0.23128650     0.31572767     0.41458969     0.53033537
               0.66584808     0.82450364     1.01025438     1.22772762
               1.48234092     1.78043706     2.12944203     2.53805004
               3.01644009     3.57652955     4.23227104     5.00000000

     Gradients computed in reciprocal space

     Starting wfc are   48 randomized atomic wfcs

     Self-consistent Calculation

     iteration #  1     ecut=    58.80 Ry     beta=0.10
     Davidson diagonalization with overlap
     ethr =  1.00E-02,  avg # of iterations =  4.3

     total energy              =    -416.22879300 Ry
     Harris-Foulkes estimate   =    -416.26760212 Ry
     estimated scf accuracy    <       0.64190938 Ry

[...]

     total energy              =    -416.02418798 Ry
     Harris-Foulkes estimate   =    -416.02418547 Ry
     estimated scf accuracy    <       0.00000012 Ry

     iteration # 17     ecut=    58.80 Ry     beta=0.10
     Davidson diagonalization with overlap
     ethr =  2.67E-10,  avg # of iterations =  2.8

     End of self-consistent calculation

          k = 0.0000 0.0000 0.0000 (  6031 PWs)   bands (ev):

   -32.6225 -32.5202 -32.5202 -12.7997 -12.7997 -12.7997 -12.4751 -12.4751
   -12.4751 -12.2784 -12.2784 -12.2784  -3.7819  -3.7819  -3.7819  -3.7771
    -3.7771   3.8014   7.6583   9.5226   9.5226   9.9397   9.9397   9.9397
    11.0791  11.0791  11.0791  13.3430  13.3430  13.3430  14.1570  14.9213
    14.9213  15.9373  16.3794  16.3794  16.3794  16.8130  16.8130  16.8130
    19.3546  19.6370  19.6378

[...]

          k = 0.0855-0.1026-0.1026 (  5948 PWs)   bands (ev):

[...]

          k =-0.1026-0.1026-0.1026 (  5904 PWs)   bands (ev):

   -32.5536 -32.5536 -32.5536 -12.9742 -12.7605 -12.7605 -12.7605 -12.3010
   -12.3010 -12.3010 -12.2883 -12.2883  -3.7855  -3.7855  -3.7855  -3.7554
    -3.7554   5.1615   8.9259   8.9259   8.9259   9.6321   9.6321   9.6321
    11.2772  11.9373  11.9373  11.9373  13.0451  13.0451  13.0451  13.9942
    13.9942  14.2646  15.9175  15.9175  15.9175  18.1524  18.1524  18.1524
    19.5606  19.5606  19.5607

     the Fermi energy is    10.3819 ev

!    total energy              =    -416.02419767 Ry
     Harris-Foulkes estimate   =    -416.02418801 Ry
     estimated scf accuracy    <          1.9E-09 Ry

     The total energy is the sum of the following terms:

     one-electron contribution =     -98.05155153 Ry
     hartree contribution      =      70.19859157 Ry
     xc contribution           =    -124.11979205 Ry
     ewald contribution        =    -264.03838649 Ry
     smearing contrib. (-TS)   =      -0.01305918 Ry

     convergence has been achieved in  17 iterations

     Forces acting on atoms (Ry/au):

     atom    1 type  1   force =     0.00000000    0.00000000    0.00000000
     atom    2 type  1   force =     0.00000000    0.00000000    0.00000000
     atom    3 type  1   force =     0.00000000    0.00000000    0.00000000
     atom    4 type  2   force =     0.00000000   -0.00000000    0.00000000

     Total force =     0.000000     Total SCF correction =     0.000000
 !ASE

     General routines

     Parallel routines

   This run was terminated on:   7: 7: 8  25Oct2017

   JOB DONE.