     Program PWSCF v.5.1rc2 (svn rev. ) starts on 25Oct2017 at  1:28:42

     Current dimensions of program PWSCF are:
     Max number of different atomic species (ntypx) = 10
     Max number of k-points (npk) =  40000
     Max angular momentum in pseudopotentials (lmaxx) =  3

     IMPORTANT: XC functional enforced from input :
     Exchange-correlation      = BEEF-VDW ( 1  4 27 13 2)
     Any further DFT definition will be discarded
     Please, verify this is what you really want

     Subspace diagonalization in iterative solution of the eigenvalue problem:
     a serial algorithm will be used

     bravais-lattice index     =            0
     lattice parameter (alat)  =       1.8897  a.u.
     unit-cell volume          =     487.5536 (a.u.)^3
     number of atoms/cell      =            4
     number of atomic types    =            2
     number of electrons       =        50.00
     number of Kohn-Sham states=           45
     kinetic-energy cutoff     =      58.7989  Ry
     charge density cutoff     =     587.9892  Ry
     convergence threshold     =      7.3E-09
     mixing beta               =       0.1000
     number of iterations used =           10  local-TF  mixing
     Exchange-correlation      = BEEF-VDW ( 1  4 27 13 2)
     nstep                     =           50

     celldm(1)=   1.889726  celldm(2)=   0.000000  celldm(3)=   0.000000
     celldm(4)=   0.000000  celldm(5)=   0.000000  celldm(6)=   0.000000

     crystal axes: (cart. coord. in units of alat)
               a(1) = (   4.164939   0.000000   0.000000 )
               a(2) = (   0.000000   4.164939   0.000000 )
               a(3) = (   0.000000   0.000000   4.164939 )

     reciprocal axes: (cart. coord. in units 2 pi/alat)
               b(1) = (  0.240100  0.000000  0.000000 )
               b(2) = (  0.000000  0.240100  0.000000 )
               b(3) = (  0.000000  0.000000  0.240100 )

     PseudoPot. # 1 for V  read from file:
     /home/vossj/suncat/psp/gbrv1.5pbe/V.UPF
     MD5 check sum: 22b79981416ebb76fdaf5b1b8640f6fb
     Pseudo is Ultrasoft + core correction, Zval = 13.0
     Generated by new atomic code, or converted to UPF format
     Using radial grid of  853 points,  6 beta functions with:
                l(1) =   0
                l(2) =   0
                l(3) =   1
                l(4) =   1
                l(5) =   2
                l(6) =   2
     Q(r) pseudized with  8 coefficients,  rinner =    1.100   1.100   1.100
                                                       1.100   1.100

     PseudoPot. # 2 for La read from file:
     /home/vossj/suncat/psp/gbrv1.5pbe/La.UPF
     MD5 check sum: 5937b0c7494ba0601a847275249473aa
     Pseudo is Ultrasoft + core correction, Zval = 11.0
     Generated by new atomic code, or converted to UPF format
     Using radial grid of  995 points,  8 beta functions with:
                l(1) =   0
                l(2) =   0
                l(3) =   1
                l(4) =   1
                l(5) =   2
                l(6) =   2
                l(7) =   3
                l(8) =   3
     Q(r) pseudized with  8 coefficients,  rinner =    1.700   1.700   1.700
                                                       1.700   1.700   1.700
                                                       1.700

     vdW kernel table read from file vdW_kernel_table
     MD5 check sum: 095c7af220d748ca6e76c0b4c6cfb241

     atomic species   valence    mass     pseudopotential
        V1            13.00    50.94150     V ( 1.00)
        La1           11.00   138.90547     La( 1.00)

     48 Sym. Ops., with inversion, found (32 have fractional translation)

   Cartesian axes

     site n.     atom                  positions (alat units)
         1           V1  tau(   1) = (   0.0000000   0.0000000   0.0000000  )
         2           V1  tau(   2) = (   0.0000000   2.0824693   2.0824693  )
         3           V1  tau(   3) = (   2.0824693   0.0000000   2.0824693  )
         4           La1 tau(   4) = (   2.0824693   2.0824693   0.0000000  )

     number of k points=    84  Fermi-Dirac smearing, width (Ry)=  0.0073
                       cart. coord. in units 2pi/alat
        k(    1) = (   0.0000000   0.0000000   0.0000000), wk =   0.0011574
        k(    2) = (   0.0000000   0.0000000   0.0200083), wk =   0.0069444
        k(    3) = (   0.0000000   0.0000000   0.0400166), wk =   0.0069444
        k(    4) = (   0.0000000   0.0000000   0.0600249), wk =   0.0069444
        k(    5) = (   0.0000000   0.0000000   0.0800332), wk =   0.0069444
        k(    6) = (   0.0000000   0.0000000   0.1000415), wk =   0.0069444
        k(    7) = (   0.0000000   0.0000000  -0.1200498), wk =   0.0034722
        k(    8) = (   0.0000000   0.0200083   0.0200083), wk =   0.0138889
        k(    9) = (   0.0000000   0.0200083   0.0400166), wk =   0.0277778
        k(   10) = (   0.0000000   0.0200083   0.0600249), wk =   0.0277778
        k(   11) = (   0.0000000   0.0200083   0.0800332), wk =   0.0277778
        k(   12) = (   0.0000000   0.0200083   0.1000415), wk =   0.0277778
        k(   13) = (   0.0000000   0.0200083  -0.1200498), wk =   0.0138889
        k(   14) = (   0.0000000   0.0400166   0.0400166), wk =   0.0138889
        k(   15) = (   0.0000000   0.0400166   0.0600249), wk =   0.0277778
        k(   16) = (   0.0000000   0.0400166   0.0800332), wk =   0.0277778
        k(   17) = (   0.0000000   0.0400166   0.1000415), wk =   0.0277778
        k(   18) = (   0.0000000   0.0400166  -0.1200498), wk =   0.0138889
        k(   19) = (   0.0000000   0.0600249   0.0600249), wk =   0.0138889
        k(   20) = (   0.0000000   0.0600249   0.0800332), wk =   0.0277778
        k(   21) = (   0.0000000   0.0600249   0.1000415), wk =   0.0277778
        k(   22) = (   0.0000000   0.0600249  -0.1200498), wk =   0.0138889
        k(   23) = (   0.0000000   0.0800332   0.0800332), wk =   0.0138889
        k(   24) = (   0.0000000   0.0800332   0.1000415), wk =   0.0277778
        k(   25) = (   0.0000000   0.0800332  -0.1200498), wk =   0.0138889
        k(   26) = (   0.0000000   0.1000415   0.1000415), wk =   0.0138889
        k(   27) = (   0.0000000   0.1000415  -0.1200498), wk =   0.0138889
        k(   28) = (   0.0000000  -0.1200498  -0.1200498), wk =   0.0034722
        k(   29) = (   0.0200083   0.0200083   0.0200083), wk =   0.0092593
        k(   30) = (   0.0200083   0.0200083   0.0400166), wk =   0.0277778
        k(   31) = (   0.0200083   0.0200083   0.0600249), wk =   0.0277778
        k(   32) = (   0.0200083   0.0200083   0.0800332), wk =   0.0277778
        k(   33) = (   0.0200083   0.0200083   0.1000415), wk =   0.0277778
        k(   34) = (   0.0200083   0.0200083  -0.1200498), wk =   0.0138889
        k(   35) = (   0.0200083   0.0400166   0.0400166), wk =   0.0277778
        k(   36) = (   0.0200083   0.0400166   0.0600249), wk =   0.0555556
        k(   37) = (   0.0200083   0.0400166   0.0800332), wk =   0.0555556
        k(   38) = (   0.0200083   0.0400166   0.1000415), wk =   0.0555556
        k(   39) = (   0.0200083   0.0400166  -0.1200498), wk =   0.0277778
        k(   40) = (   0.0200083   0.0600249   0.0600249), wk =   0.0277778
        k(   41) = (   0.0200083   0.0600249   0.0800332), wk =   0.0555556
        k(   42) = (   0.0200083   0.0600249   0.1000415), wk =   0.0555556
        k(   43) = (   0.0200083   0.0600249  -0.1200498), wk =   0.0277778
        k(   44) = (   0.0200083   0.0800332   0.0800332), wk =   0.0277778
        k(   45) = (   0.0200083   0.0800332   0.1000415), wk =   0.0555556
        k(   46) = (   0.0200083   0.0800332  -0.1200498), wk =   0.0277778
        k(   47) = (   0.0200083   0.1000415   0.1000415), wk =   0.0277778
        k(   48) = (   0.0200083   0.1000415  -0.1200498), wk =   0.0277778
        k(   49) = (   0.0200083  -0.1200498  -0.1200498), wk =   0.0069444
        k(   50) = (   0.0400166   0.0400166   0.0400166), wk =   0.0092593
        k(   51) = (   0.0400166   0.0400166   0.0600249), wk =   0.0277778
        k(   52) = (   0.0400166   0.0400166   0.0800332), wk =   0.0277778
        k(   53) = (   0.0400166   0.0400166   0.1000415), wk =   0.0277778
        k(   54) = (   0.0400166   0.0400166  -0.1200498), wk =   0.0138889
        k(   55) = (   0.0400166   0.0600249   0.0600249), wk =   0.0277778
        k(   56) = (   0.0400166   0.0600249   0.0800332), wk =   0.0555556
        k(   57) = (   0.0400166   0.0600249   0.1000415), wk =   0.0555556
        k(   58) = (   0.0400166   0.0600249  -0.1200498), wk =   0.0277778
        k(   59) = (   0.0400166   0.0800332   0.0800332), wk =   0.0277778
        k(   60) = (   0.0400166   0.0800332   0.1000415), wk =   0.0555556
[...]
        k(   70) = (   0.0600249   0.0800332   0.1000415), wk =   0.0555556
        k(   71) = (   0.0600249   0.0800332  -0.1200498), wk =   0.0277778
        k(   72) = (   0.0600249   0.1000415   0.1000415), wk =   0.0277778
        k(   73) = (   0.0600249   0.1000415  -0.1200498), wk =   0.0277778
        k(   74) = (   0.0600249  -0.1200498  -0.1200498), wk =   0.0069444
        k(   75) = (   0.0800332   0.0800332   0.0800332), wk =   0.0092593
        k(   76) = (   0.0800332   0.0800332   0.1000415), wk =   0.0277778
        k(   77) = (   0.0800332   0.0800332  -0.1200498), wk =   0.0138889
        k(   78) = (   0.0800332   0.1000415   0.1000415), wk =   0.0277778
        k(   79) = (   0.0800332   0.1000415  -0.1200498), wk =   0.0277778
        k(   80) = (   0.0800332  -0.1200498  -0.1200498), wk =   0.0069444
        k(   81) = (   0.1000415   0.1000415   0.1000415), wk =   0.0092593
        k(   82) = (   0.1000415   0.1000415  -0.1200498), wk =   0.0138889
        k(   83) = (   0.1000415  -0.1200498  -0.1200498), wk =   0.0069444
        k(   84) = (  -0.1200498  -0.1200498  -0.1200498), wk =   0.0011574

     Largest allocated arrays     est. size (Mb)     dimensions
     Largest temporary arrays     est. size (Mb)     dimensions

     Check: negative/imaginary core charge=   -0.000002    0.000000

     Initial potential from superposition of free atoms
     Check: negative starting charge=   -0.068935

     starting charge   49.96425, renormalised to   50.00000

     negative rho (up, down):  6.898E-02 0.000E+00

     *
     * You are using vdW-DF for exchange-correlation in this calculation.
     * Please cite the following three references that made this development
     * possible:
     *
     *   M. Dion, H. Rydberg, E. Schroder, D. C. Langreth, and
     *   B. I. Lundqvist, Phys. Rev. Lett. 92, 246401 (2004).
     *
     *   T. Thonhauser, V. R. Cooper, S. Li, A. Puzder, P. Hyldgaard, and
     *   D. C. Langreth, Phys. Rev. B 76, 125112 (2007).
     *
     *   G. Roman-Perez and J. M. Soler, Phys. Rev. Lett. 103, 096102 (2009).
     *
     *
     * If you are using vdW-DF2, please also cite:
     *
     *   K. Lee, E. D. Murray, L. Kong, B. I. Lundqvist, and
     *   D. C. Langreth, Phys. Rev. B 82, 081101(R) (2010).
     *
     *
     * If you are calculating the stress with vdW-DF, please also cite:
     *
     *   R. Sabatini, E. Kucukbenli, B. Kolb, T. Thonhauser, and
     *   S. de Gironcoli, J. Phys.: Condens. Matter 24, 424209 (2012).
     *

     Carrying out vdW-DF run using the following parameters:

     Nqs =      20    Nr_points =    1024   r_max =   100.000
     q_mesh =
               0.00001000     0.04494208     0.09755937     0.15916263
               0.23128650     0.31572767     0.41458969     0.53033537
               0.66584808     0.82450364     1.01025438     1.22772762
               1.48234092     1.78043706     2.12944203     2.53805004
               3.01644009     3.57652955     4.23227104     5.00000000

     Gradients computed in reciprocal space

     Starting wfc are   50 randomized atomic wfcs

     Self-consistent Calculation

     iteration #  1     ecut=    58.80 Ry     beta=0.10
     Davidson diagonalization with overlap
     ethr =  1.00E-02,  avg # of iterations =  2.7

     Threshold (ethr) on eigenvalues was too large:
     Diagonalizing with lowered threshold

     Davidson diagonalization with overlap
     ethr =  4.39E-04,  avg # of iterations =  1.4

[...]

     total energy              =    -541.18993378 Ry
     Harris-Foulkes estimate   =    -541.20201314 Ry
     estimated scf accuracy    <       0.22578587 Ry

[...]

     total energy              =    -541.17337987 Ry
     Harris-Foulkes estimate   =    -541.17339279 Ry
     estimated scf accuracy    <       0.00000001 Ry

     iteration # 13     ecut=    58.80 Ry     beta=0.10
     Davidson diagonalization with overlap
     ethr =  2.33E-11,  avg # of iterations =  2.1

     negative rho (up, down):  3.767E-02 0.000E+00

     End of self-consistent calculation

          k = 0.0000 0.0000 0.0000 (  3743 PWs)   bands (ev):

   -49.4588 -49.4035 -49.4035 -23.3589 -23.3589 -23.3589 -23.2396 -23.2396
   -23.2396 -23.1063 -23.1063 -23.1063 -16.6708  -0.4108  -0.4108  -0.4108
     9.6530  11.4997  11.4997  12.7231  12.7231  12.7231  12.8967  15.0989
    15.0989  15.0989  16.4029  16.4029  16.8844  17.1986  17.1986  17.1986
    17.6911  17.6911  17.6911  18.2938  18.2938  18.2938  18.5376  19.4414
    19.4414  19.9756  19.9756  19.9756  21.7611

[...]

          k = 0.1000-0.1200-0.1200 (  3708 PWs)   bands (ev):

[...]

          k =-0.1200-0.1200-0.1200 (  3648 PWs)   bands (ev):

   -49.4215 -49.4215 -49.4215 -23.3831 -23.3698 -23.3698 -23.3698 -23.1593
   -23.1593 -23.1593 -23.0875 -23.0875 -16.6086  -0.6901  -0.6901  -0.6901
    11.6333  11.6333  11.6333  13.5729  14.6911  14.6911  14.6911  14.6970
    15.1426  15.1426  15.1426  15.3031  15.3031  16.9520  16.9520  16.9520
    17.6009  17.6009  17.6009  18.6249  18.6249  18.6249  18.7614  18.7614
    18.7614  18.9565  19.0418  19.0418  19.0418

     the Fermi energy is    14.9815 ev

!    total energy              =    -541.17342991 Ry
     Harris-Foulkes estimate   =    -541.17337988 Ry
     estimated scf accuracy    <          5.4E-09 Ry

     The total energy is the sum of the following terms:

     one-electron contribution =    -174.81601691 Ry
     hartree contribution      =     110.79232828 Ry
     xc contribution           =    -112.18629015 Ry
     ewald contribution        =    -364.94112026 Ry
     smearing contrib. (-TS)   =      -0.02233087 Ry

     convergence has been achieved in  13 iterations

     Forces acting on atoms (Ry/au):

     negative rho (up, down):  3.767E-02 0.000E+00
     atom    1 type  1   force =     0.00000000    0.00000000   -0.00000000
     atom    2 type  1   force =     0.00000000    0.00000000    0.00000000
     atom    3 type  1   force =     0.00000000    0.00000000    0.00000000
     atom    4 type  2   force =     0.00000000   -0.00000000    0.00000000

     Total force =     0.000000     Total SCF correction =     0.000000
 !ASE

     General routines

     Parallel routines

   This run was terminated on:   1:29:37  25Oct2017

   JOB DONE.