     Program PWSCF v.5.1rc2 (svn rev. ) starts on 26Oct2017 at  1:52:50

     Current dimensions of program PWSCF are:
     Max number of different atomic species (ntypx) = 10
     Max number of k-points (npk) =  40000
     Max angular momentum in pseudopotentials (lmaxx) =  3

     IMPORTANT: XC functional enforced from input :
     Exchange-correlation      = BEEF-VDW ( 1  4 27 13 2)
     Any further DFT definition will be discarded
     Please, verify this is what you really want

     Subspace diagonalization in iterative solution of the eigenvalue problem:
     a serial algorithm will be used

     bravais-lattice index     =            0
     lattice parameter (alat)  =       1.8897  a.u.
     unit-cell volume          =     439.7832 (a.u.)^3
     number of atoms/cell      =            4
     number of atomic types    =            2
     number of electrons       =        61.00
     number of Kohn-Sham states=           50
     kinetic-energy cutoff     =      58.7989  Ry
     charge density cutoff     =     587.9892  Ry
     convergence threshold     =      7.3E-09
     mixing beta               =       0.1000
     number of iterations used =           10  local-TF  mixing
     Exchange-correlation      = BEEF-VDW ( 1  4 27 13 2)
     nstep                     =           50

     celldm(1)=   1.889726  celldm(2)=   0.000000  celldm(3)=   0.000000
     celldm(4)=   0.000000  celldm(5)=   0.000000  celldm(6)=   0.000000

     crystal axes: (cart. coord. in units of alat)
               a(1) = (   4.024211   0.000000   0.000000 )
               a(2) = (   0.000000   4.024211   0.000000 )
               a(3) = (   0.000000   0.000000   4.024211 )

     reciprocal axes: (cart. coord. in units 2 pi/alat)
               b(1) = (  0.248496  0.000000  0.000000 )
               b(2) = (  0.000000  0.248496  0.000000 )
               b(3) = (  0.000000  0.000000  0.248496 )

     PseudoPot. # 1 for W  read from file:
     /home/vossj/suncat/psp/gbrv1.5pbe/W.UPF
     MD5 check sum: 9c083fa34c2a2ea0f02f1f893e16e1c8
     Pseudo is Ultrasoft + core correction, Zval = 14.0
     Generated by new atomic code, or converted to UPF format
     Using radial grid of  923 points,  8 beta functions with:
                l(1) =   0
                l(2) =   0
                l(3) =   0
                l(4) =   1
                l(5) =   1
                l(6) =   2
                l(7) =   2
                l(8) =   3
     Q(r) pseudized with  6 coefficients,  rinner =    1.350   1.350   1.350
                                                       1.350   1.350   1.350
                                                       1.350

     PseudoPot. # 2 for Ag read from file:
     /home/vossj/suncat/psp/gbrv1.5pbe/Ag.UPF
     MD5 check sum: d66d668201baa78d5eb5b04ef7011058
     Pseudo is Ultrasoft + core correction, Zval = 19.0
     Generated by new atomic code, or converted to UPF format
     Using radial grid of  887 points,  6 beta functions with:
                l(1) =   0
                l(2) =   0
                l(3) =   1
                l(4) =   1
                l(5) =   2
                l(6) =   2
     Q(r) pseudized with  6 coefficients,  rinner =    1.300   1.300   1.300
                                                       1.300   1.300

     vdW kernel table read from file vdW_kernel_table
     MD5 check sum: 095c7af220d748ca6e76c0b4c6cfb241

     atomic species   valence    mass     pseudopotential
        W1            14.00   183.84000     W ( 1.00)
        Ag1           19.00   107.86820     Ag( 1.00)

     48 Sym. Ops., with inversion, found (32 have fractional translation)

   Cartesian axes

     site n.     atom                  positions (alat units)
         1           W1  tau(   1) = (   0.0000000   0.0000000   0.0000000  )
         2           W1  tau(   2) = (   0.0000000   2.0121053   2.0121053  )
         3           W1  tau(   3) = (   2.0121053   0.0000000   2.0121053  )
         4           Ag1 tau(   4) = (   2.0121053   2.0121053   0.0000000  )

     number of k points=    84  Fermi-Dirac smearing, width (Ry)=  0.0073
                       cart. coord. in units 2pi/alat
        k(    1) = (   0.0000000   0.0000000   0.0000000), wk =   0.0011574
        k(    2) = (   0.0000000   0.0000000   0.0207080), wk =   0.0069444
        k(    3) = (   0.0000000   0.0000000   0.0414160), wk =   0.0069444
        k(    4) = (   0.0000000   0.0000000   0.0621240), wk =   0.0069444
        k(    5) = (   0.0000000   0.0000000   0.0828320), wk =   0.0069444
        k(    6) = (   0.0000000   0.0000000   0.1035400), wk =   0.0069444
        k(    7) = (   0.0000000   0.0000000  -0.1242480), wk =   0.0034722
        k(    8) = (   0.0000000   0.0207080   0.0207080), wk =   0.0138889
        k(    9) = (   0.0000000   0.0207080   0.0414160), wk =   0.0277778
        k(   10) = (   0.0000000   0.0207080   0.0621240), wk =   0.0277778
        k(   11) = (   0.0000000   0.0207080   0.0828320), wk =   0.0277778
        k(   12) = (   0.0000000   0.0207080   0.1035400), wk =   0.0277778
        k(   13) = (   0.0000000   0.0207080  -0.1242480), wk =   0.0138889
        k(   14) = (   0.0000000   0.0414160   0.0414160), wk =   0.0138889
        k(   15) = (   0.0000000   0.0414160   0.0621240), wk =   0.0277778
        k(   16) = (   0.0000000   0.0414160   0.0828320), wk =   0.0277778
        k(   17) = (   0.0000000   0.0414160   0.1035400), wk =   0.0277778
        k(   18) = (   0.0000000   0.0414160  -0.1242480), wk =   0.0138889
        k(   19) = (   0.0000000   0.0621240   0.0621240), wk =   0.0138889
        k(   20) = (   0.0000000   0.0621240   0.0828320), wk =   0.0277778
        k(   21) = (   0.0000000   0.0621240   0.1035400), wk =   0.0277778
        k(   22) = (   0.0000000   0.0621240  -0.1242480), wk =   0.0138889
        k(   23) = (   0.0000000   0.0828320   0.0828320), wk =   0.0138889
        k(   24) = (   0.0000000   0.0828320   0.1035400), wk =   0.0277778
        k(   25) = (   0.0000000   0.0828320  -0.1242480), wk =   0.0138889
        k(   26) = (   0.0000000   0.1035400   0.1035400), wk =   0.0138889
        k(   27) = (   0.0000000   0.1035400  -0.1242480), wk =   0.0138889
        k(   28) = (   0.0000000  -0.1242480  -0.1242480), wk =   0.0034722
        k(   29) = (   0.0207080   0.0207080   0.0207080), wk =   0.0092593
        k(   30) = (   0.0207080   0.0207080   0.0414160), wk =   0.0277778
        k(   31) = (   0.0207080   0.0207080   0.0621240), wk =   0.0277778
        k(   32) = (   0.0207080   0.0207080   0.0828320), wk =   0.0277778
        k(   33) = (   0.0207080   0.0207080   0.1035400), wk =   0.0277778
        k(   34) = (   0.0207080   0.0207080  -0.1242480), wk =   0.0138889
        k(   35) = (   0.0207080   0.0414160   0.0414160), wk =   0.0277778
        k(   36) = (   0.0207080   0.0414160   0.0621240), wk =   0.0555556
        k(   37) = (   0.0207080   0.0414160   0.0828320), wk =   0.0555556
        k(   38) = (   0.0207080   0.0414160   0.1035400), wk =   0.0555556
        k(   39) = (   0.0207080   0.0414160  -0.1242480), wk =   0.0277778
        k(   40) = (   0.0207080   0.0621240   0.0621240), wk =   0.0277778
        k(   41) = (   0.0207080   0.0621240   0.0828320), wk =   0.0555556
        k(   42) = (   0.0207080   0.0621240   0.1035400), wk =   0.0555556
        k(   43) = (   0.0207080   0.0621240  -0.1242480), wk =   0.0277778
        k(   44) = (   0.0207080   0.0828320   0.0828320), wk =   0.0277778
        k(   45) = (   0.0207080   0.0828320   0.1035400), wk =   0.0555556
        k(   46) = (   0.0207080   0.0828320  -0.1242480), wk =   0.0277778
        k(   47) = (   0.0207080   0.1035400   0.1035400), wk =   0.0277778
        k(   48) = (   0.0207080   0.1035400  -0.1242480), wk =   0.0277778
        k(   49) = (   0.0207080  -0.1242480  -0.1242480), wk =   0.0069444
        k(   50) = (   0.0414160   0.0414160   0.0414160), wk =   0.0092593
        k(   51) = (   0.0414160   0.0414160   0.0621240), wk =   0.0277778
        k(   52) = (   0.0414160   0.0414160   0.0828320), wk =   0.0277778
        k(   53) = (   0.0414160   0.0414160   0.1035400), wk =   0.0277778
        k(   54) = (   0.0414160   0.0414160  -0.1242480), wk =   0.0138889
        k(   55) = (   0.0414160   0.0621240   0.0621240), wk =   0.0277778
        k(   56) = (   0.0414160   0.0621240   0.0828320), wk =   0.0555556
        k(   57) = (   0.0414160   0.0621240   0.1035400), wk =   0.0555556
        k(   58) = (   0.0414160   0.0621240  -0.1242480), wk =   0.0277778
        k(   59) = (   0.0414160   0.0828320   0.0828320), wk =   0.0277778
        k(   60) = (   0.0414160   0.0828320   0.1035400), wk =   0.0555556
[...]
        k(   70) = (   0.0621240   0.0828320   0.1035400), wk =   0.0555556
        k(   71) = (   0.0621240   0.0828320  -0.1242480), wk =   0.0277778
        k(   72) = (   0.0621240   0.1035400   0.1035400), wk =   0.0277778
        k(   73) = (   0.0621240   0.1035400  -0.1242480), wk =   0.0277778
        k(   74) = (   0.0621240  -0.1242480  -0.1242480), wk =   0.0069444
        k(   75) = (   0.0828320   0.0828320   0.0828320), wk =   0.0092593
        k(   76) = (   0.0828320   0.0828320   0.1035400), wk =   0.0277778
        k(   77) = (   0.0828320   0.0828320  -0.1242480), wk =   0.0138889
        k(   78) = (   0.0828320   0.1035400   0.1035400), wk =   0.0277778
        k(   79) = (   0.0828320   0.1035400  -0.1242480), wk =   0.0277778
        k(   80) = (   0.0828320  -0.1242480  -0.1242480), wk =   0.0069444
        k(   81) = (   0.1035400   0.1035400   0.1035400), wk =   0.0092593
        k(   82) = (   0.1035400   0.1035400  -0.1242480), wk =   0.0138889
        k(   83) = (   0.1035400  -0.1242480  -0.1242480), wk =   0.0069444
        k(   84) = (  -0.1242480  -0.1242480  -0.1242480), wk =   0.0011574

     Largest allocated arrays     est. size (Mb)     dimensions
     Largest temporary arrays     est. size (Mb)     dimensions

     Initial potential from superposition of free atoms
     Check: negative starting charge=   -0.186341

     starting charge   60.19893, renormalised to   61.00000

     negative rho (up, down):  1.888E-01 0.000E+00

     *
     * You are using vdW-DF for exchange-correlation in this calculation.
     * Please cite the following three references that made this development
     * possible:
     *
     *   M. Dion, H. Rydberg, E. Schroder, D. C. Langreth, and
     *   B. I. Lundqvist, Phys. Rev. Lett. 92, 246401 (2004).
     *
     *   T. Thonhauser, V. R. Cooper, S. Li, A. Puzder, P. Hyldgaard, and
     *   D. C. Langreth, Phys. Rev. B 76, 125112 (2007).
     *
     *   G. Roman-Perez and J. M. Soler, Phys. Rev. Lett. 103, 096102 (2009).
     *
     *
     * If you are using vdW-DF2, please also cite:
     *
     *   K. Lee, E. D. Murray, L. Kong, B. I. Lundqvist, and
     *   D. C. Langreth, Phys. Rev. B 82, 081101(R) (2010).
     *
     *
     * If you are calculating the stress with vdW-DF, please also cite:
     *
     *   R. Sabatini, E. Kucukbenli, B. Kolb, T. Thonhauser, and
     *   S. de Gironcoli, J. Phys.: Condens. Matter 24, 424209 (2012).
     *

     Carrying out vdW-DF run using the following parameters:

     Nqs =      20    Nr_points =    1024   r_max =   100.000
     q_mesh =
               0.00001000     0.04494208     0.09755937     0.15916263
               0.23128650     0.31572767     0.41458969     0.53033537
               0.66584808     0.82450364     1.01025438     1.22772762
               1.48234092     1.78043706     2.12944203     2.53805004
               3.01644009     3.57652955     4.23227104     5.00000000

     Gradients computed in reciprocal space

     Starting wfc are   52 randomized atomic wfcs

     Self-consistent Calculation

     iteration #  1     ecut=    58.80 Ry     beta=0.10
     Davidson diagonalization with overlap
     ethr =  1.00E-02,  avg # of iterations =  4.0

[...]

     total energy              =    -778.24418723 Ry
     Harris-Foulkes estimate   =    -778.39643699 Ry
     estimated scf accuracy    <       2.96160960 Ry

[...]

     total energy              =    -777.98744929 Ry
     Harris-Foulkes estimate   =    -777.98744855 Ry
     estimated scf accuracy    <       0.00000002 Ry

     iteration # 13     ecut=    58.80 Ry     beta=0.10
     Davidson diagonalization with overlap
     ethr =  3.92E-11,  avg # of iterations =  1.8

     negative rho (up, down):  2.050E-01 0.000E+00

     End of self-consistent calculation

          k = 0.0000 0.0000 0.0000 (  3407 PWs)   bands (ev):

   -72.4206 -53.6466 -53.5417 -53.5417 -35.8839 -35.8839 -35.8839 -18.0557
   -18.0557 -18.0557 -17.6268 -17.6268 -17.6268 -17.2940 -17.2940 -17.2940
    11.7224  13.8926  13.8926  14.4219  14.4219  14.4219  15.1060  18.0866
    18.0866  18.0866  19.1137  19.1137  22.7857  22.7857  22.7857  23.0313
    23.0313  23.0313  24.1806  24.1806  25.4103  26.2172  26.2172  26.2172
    31.3303  31.3303  31.3303  31.8193  32.5216  32.5216  32.9772  32.9772
    32.9772  34.1425

[...]

          k = 0.1035-0.1242-0.1242 (  3348 PWs)   bands (ev):

[...]

          k =-0.1242-0.1242-0.1242 (  3328 PWs)   bands (ev):

   -72.4205 -53.5762 -53.5762 -53.5762 -35.8849 -35.8849 -35.8849 -18.2609
   -18.0227 -18.0227 -18.0227 -17.3719 -17.3719 -17.3719 -17.2834 -17.2834
    13.9369  13.9369  13.9369  14.9546  15.4068  15.4068  17.4933  17.4933
    17.4933  19.7510  19.7510  19.7510  20.5873  20.5873  20.5873  21.2759
    22.4548  22.4548  22.4548  23.4114  23.4114  25.4797  25.4797  25.4797
    29.4884  29.8040  29.8040  29.8040  33.5703  33.7114  33.7114  33.7114
    38.0174  38.0174

     the Fermi energy is    20.6684 ev

!    total energy              =    -777.98745249 Ry
     Harris-Foulkes estimate   =    -777.98744929 Ry
     estimated scf accuracy    <          4.9E-10 Ry

     The total energy is the sum of the following terms:

     one-electron contribution =    -178.87914714 Ry
     hartree contribution      =     125.21065879 Ry
     xc contribution           =    -157.90404555 Ry
     ewald contribution        =    -566.40893974 Ry
     smearing contrib. (-TS)   =      -0.00597885 Ry

     convergence has been achieved in  13 iterations

     Forces acting on atoms (Ry/au):

     negative rho (up, down):  2.050E-01 0.000E+00
     atom    1 type  1   force =     0.00000000    0.00000000    0.00000000
     atom    2 type  1   force =     0.00000000    0.00000000    0.00000000
     atom    3 type  1   force =     0.00000000    0.00000000    0.00000000
     atom    4 type  2   force =     0.00000000    0.00000000    0.00000000

     Total force =     0.000000     Total SCF correction =     0.000000
 !ASE

     General routines

     Parallel routines

   This run was terminated on:   1:53:53  26Oct2017

   JOB DONE.