     Program PWSCF v.5.1rc2 (svn rev. ) starts on 26Oct2017 at  1:43:20

     Current dimensions of program PWSCF are:
     Max number of different atomic species (ntypx) = 10
     Max number of k-points (npk) =  40000
     Max angular momentum in pseudopotentials (lmaxx) =  3

     IMPORTANT: XC functional enforced from input :
     Exchange-correlation      = BEEF-VDW ( 1  4 27 13 2)
     Any further DFT definition will be discarded
     Please, verify this is what you really want

     Subspace diagonalization in iterative solution of the eigenvalue problem:
     a serial algorithm will be used

     bravais-lattice index     =            0
     lattice parameter (alat)  =       1.8897  a.u.
     unit-cell volume          =     381.6606 (a.u.)^3
     number of atoms/cell      =            4
     number of atomic types    =            2
     number of electrons       =        54.00
     number of Kohn-Sham states=           47
     kinetic-energy cutoff     =      58.7989  Ry
     charge density cutoff     =     587.9892  Ry
     convergence threshold     =      7.3E-09
     mixing beta               =       0.1000
     number of iterations used =           10  local-TF  mixing
     Exchange-correlation      = BEEF-VDW ( 1  4 27 13 2)
     nstep                     =           50

     celldm(1)=   1.889726  celldm(2)=   0.000000  celldm(3)=   0.000000
     celldm(4)=   0.000000  celldm(5)=   0.000000  celldm(6)=   0.000000

     crystal axes: (cart. coord. in units of alat)
               a(1) = (   3.838488   0.000000   0.000000 )
               a(2) = (   0.000000   3.838488   0.000000 )
               a(3) = (   0.000000   0.000000   3.838488 )

     reciprocal axes: (cart. coord. in units 2 pi/alat)
               b(1) = (  0.260519  0.000000  0.000000 )
               b(2) = (  0.000000  0.260519  0.000000 )
               b(3) = (  0.000000  0.000000  0.260519 )

     PseudoPot. # 1 for V  read from file:
     /home/vossj/suncat/psp/gbrv1.5pbe/V.UPF
     MD5 check sum: 22b79981416ebb76fdaf5b1b8640f6fb
     Pseudo is Ultrasoft + core correction, Zval = 13.0
     Generated by new atomic code, or converted to UPF format
     Using radial grid of  853 points,  6 beta functions with:
                l(1) =   0
                l(2) =   0
                l(3) =   1
                l(4) =   1
                l(5) =   2
                l(6) =   2
     Q(r) pseudized with  8 coefficients,  rinner =    1.100   1.100   1.100
                                                       1.100   1.100

     PseudoPot. # 2 for Tc read from file:
     /home/vossj/suncat/psp/gbrv1.5pbe/Tc.UPF
     MD5 check sum: 9eb49e5b028550b2339a02317eb7b844
     Pseudo is Ultrasoft + core correction, Zval = 15.0
     Generated by new atomic code, or converted to UPF format
     Using radial grid of  965 points,  6 beta functions with:
                l(1) =   0
                l(2) =   0
                l(3) =   1
                l(4) =   1
                l(5) =   2
                l(6) =   2
     Q(r) pseudized with  8 coefficients,  rinner =    1.300   1.300   1.300
                                                       1.300   1.300

     vdW kernel table read from file vdW_kernel_table
     MD5 check sum: 095c7af220d748ca6e76c0b4c6cfb241

     atomic species   valence    mass     pseudopotential
        V1            13.00    50.94150     V ( 1.00)
        Tc1           15.00    97.90721     Tc( 1.00)

     48 Sym. Ops., with inversion, found (32 have fractional translation)

   Cartesian axes

     site n.     atom                  positions (alat units)
         1           V1  tau(   1) = (   0.0000000   0.0000000   0.0000000  )
         2           V1  tau(   2) = (   0.0000000   1.9192442   1.9192442  )
         3           V1  tau(   3) = (   1.9192442   0.0000000   1.9192442  )
         4           Tc1 tau(   4) = (   1.9192442   1.9192442   0.0000000  )

     number of k points=    84  Fermi-Dirac smearing, width (Ry)=  0.0073
                       cart. coord. in units 2pi/alat
        k(    1) = (   0.0000000   0.0000000   0.0000000), wk =   0.0011574
        k(    2) = (   0.0000000   0.0000000   0.0217099), wk =   0.0069444
        k(    3) = (   0.0000000   0.0000000   0.0434199), wk =   0.0069444
        k(    4) = (   0.0000000   0.0000000   0.0651298), wk =   0.0069444
        k(    5) = (   0.0000000   0.0000000   0.0868397), wk =   0.0069444
        k(    6) = (   0.0000000   0.0000000   0.1085497), wk =   0.0069444
        k(    7) = (   0.0000000   0.0000000  -0.1302596), wk =   0.0034722
        k(    8) = (   0.0000000   0.0217099   0.0217099), wk =   0.0138889
        k(    9) = (   0.0000000   0.0217099   0.0434199), wk =   0.0277778
        k(   10) = (   0.0000000   0.0217099   0.0651298), wk =   0.0277778
        k(   11) = (   0.0000000   0.0217099   0.0868397), wk =   0.0277778
        k(   12) = (   0.0000000   0.0217099   0.1085497), wk =   0.0277778
        k(   13) = (   0.0000000   0.0217099  -0.1302596), wk =   0.0138889
        k(   14) = (   0.0000000   0.0434199   0.0434199), wk =   0.0138889
        k(   15) = (   0.0000000   0.0434199   0.0651298), wk =   0.0277778
        k(   16) = (   0.0000000   0.0434199   0.0868397), wk =   0.0277778
        k(   17) = (   0.0000000   0.0434199   0.1085497), wk =   0.0277778
        k(   18) = (   0.0000000   0.0434199  -0.1302596), wk =   0.0138889
        k(   19) = (   0.0000000   0.0651298   0.0651298), wk =   0.0138889
        k(   20) = (   0.0000000   0.0651298   0.0868397), wk =   0.0277778
        k(   21) = (   0.0000000   0.0651298   0.1085497), wk =   0.0277778
        k(   22) = (   0.0000000   0.0651298  -0.1302596), wk =   0.0138889
        k(   23) = (   0.0000000   0.0868397   0.0868397), wk =   0.0138889
        k(   24) = (   0.0000000   0.0868397   0.1085497), wk =   0.0277778
        k(   25) = (   0.0000000   0.0868397  -0.1302596), wk =   0.0138889
        k(   26) = (   0.0000000   0.1085497   0.1085497), wk =   0.0138889
        k(   27) = (   0.0000000   0.1085497  -0.1302596), wk =   0.0138889
        k(   28) = (   0.0000000  -0.1302596  -0.1302596), wk =   0.0034722
        k(   29) = (   0.0217099   0.0217099   0.0217099), wk =   0.0092593
        k(   30) = (   0.0217099   0.0217099   0.0434199), wk =   0.0277778
        k(   31) = (   0.0217099   0.0217099   0.0651298), wk =   0.0277778
        k(   32) = (   0.0217099   0.0217099   0.0868397), wk =   0.0277778
        k(   33) = (   0.0217099   0.0217099   0.1085497), wk =   0.0277778
        k(   34) = (   0.0217099   0.0217099  -0.1302596), wk =   0.0138889
        k(   35) = (   0.0217099   0.0434199   0.0434199), wk =   0.0277778
        k(   36) = (   0.0217099   0.0434199   0.0651298), wk =   0.0555556
        k(   37) = (   0.0217099   0.0434199   0.0868397), wk =   0.0555556
        k(   38) = (   0.0217099   0.0434199   0.1085497), wk =   0.0555556
        k(   39) = (   0.0217099   0.0434199  -0.1302596), wk =   0.0277778
        k(   40) = (   0.0217099   0.0651298   0.0651298), wk =   0.0277778
        k(   41) = (   0.0217099   0.0651298   0.0868397), wk =   0.0555556
        k(   42) = (   0.0217099   0.0651298   0.1085497), wk =   0.0555556
        k(   43) = (   0.0217099   0.0651298  -0.1302596), wk =   0.0277778
        k(   44) = (   0.0217099   0.0868397   0.0868397), wk =   0.0277778
        k(   45) = (   0.0217099   0.0868397   0.1085497), wk =   0.0555556
        k(   46) = (   0.0217099   0.0868397  -0.1302596), wk =   0.0277778
        k(   47) = (   0.0217099   0.1085497   0.1085497), wk =   0.0277778
        k(   48) = (   0.0217099   0.1085497  -0.1302596), wk =   0.0277778
        k(   49) = (   0.0217099  -0.1302596  -0.1302596), wk =   0.0069444
        k(   50) = (   0.0434199   0.0434199   0.0434199), wk =   0.0092593
        k(   51) = (   0.0434199   0.0434199   0.0651298), wk =   0.0277778
        k(   52) = (   0.0434199   0.0434199   0.0868397), wk =   0.0277778
        k(   53) = (   0.0434199   0.0434199   0.1085497), wk =   0.0277778
        k(   54) = (   0.0434199   0.0434199  -0.1302596), wk =   0.0138889
        k(   55) = (   0.0434199   0.0651298   0.0651298), wk =   0.0277778
        k(   56) = (   0.0434199   0.0651298   0.0868397), wk =   0.0555556
        k(   57) = (   0.0434199   0.0651298   0.1085497), wk =   0.0555556
        k(   58) = (   0.0434199   0.0651298  -0.1302596), wk =   0.0277778
        k(   59) = (   0.0434199   0.0868397   0.0868397), wk =   0.0277778
        k(   60) = (   0.0434199   0.0868397   0.1085497), wk =   0.0555556
[...]
        k(   70) = (   0.0651298   0.0868397   0.1085497), wk =   0.0555556
        k(   71) = (   0.0651298   0.0868397  -0.1302596), wk =   0.0277778
        k(   72) = (   0.0651298   0.1085497   0.1085497), wk =   0.0277778
        k(   73) = (   0.0651298   0.1085497  -0.1302596), wk =   0.0277778
        k(   74) = (   0.0651298  -0.1302596  -0.1302596), wk =   0.0069444
        k(   75) = (   0.0868397   0.0868397   0.0868397), wk =   0.0092593
        k(   76) = (   0.0868397   0.0868397   0.1085497), wk =   0.0277778
        k(   77) = (   0.0868397   0.0868397  -0.1302596), wk =   0.0138889
        k(   78) = (   0.0868397   0.1085497   0.1085497), wk =   0.0277778
        k(   79) = (   0.0868397   0.1085497  -0.1302596), wk =   0.0277778
        k(   80) = (   0.0868397  -0.1302596  -0.1302596), wk =   0.0069444
        k(   81) = (   0.1085497   0.1085497   0.1085497), wk =   0.0092593
        k(   82) = (   0.1085497   0.1085497  -0.1302596), wk =   0.0138889
        k(   83) = (   0.1085497  -0.1302596  -0.1302596), wk =   0.0069444
        k(   84) = (  -0.1302596  -0.1302596  -0.1302596), wk =   0.0011574

     Largest allocated arrays     est. size (Mb)     dimensions
     Largest temporary arrays     est. size (Mb)     dimensions

     Check: negative/imaginary core charge=   -0.000006    0.000000

     Initial potential from superposition of free atoms
     Check: negative starting charge=   -0.124378

     starting charge   52.99629, renormalised to   54.00000

     negative rho (up, down):  1.267E-01 0.000E+00

     *
     * You are using vdW-DF for exchange-correlation in this calculation.
     * Please cite the following three references that made this development
     * possible:
     *
     *   M. Dion, H. Rydberg, E. Schroder, D. C. Langreth, and
     *   B. I. Lundqvist, Phys. Rev. Lett. 92, 246401 (2004).
     *
     *   T. Thonhauser, V. R. Cooper, S. Li, A. Puzder, P. Hyldgaard, and
     *   D. C. Langreth, Phys. Rev. B 76, 125112 (2007).
     *
     *   G. Roman-Perez and J. M. Soler, Phys. Rev. Lett. 103, 096102 (2009).
     *
     *
     * If you are using vdW-DF2, please also cite:
     *
     *   K. Lee, E. D. Murray, L. Kong, B. I. Lundqvist, and
     *   D. C. Langreth, Phys. Rev. B 82, 081101(R) (2010).
     *
     *
     * If you are calculating the stress with vdW-DF, please also cite:
     *
     *   R. Sabatini, E. Kucukbenli, B. Kolb, T. Thonhauser, and
     *   S. de Gironcoli, J. Phys.: Condens. Matter 24, 424209 (2012).
     *

     Carrying out vdW-DF run using the following parameters:

     Nqs =      20    Nr_points =    1024   r_max =   100.000
     q_mesh =
               0.00001000     0.04494208     0.09755937     0.15916263
               0.23128650     0.31572767     0.41458969     0.53033537
               0.66584808     0.82450364     1.01025438     1.22772762
               1.48234092     1.78043706     2.12944203     2.53805004
               3.01644009     3.57652955     4.23227104     5.00000000

     Gradients computed in reciprocal space

     Starting wfc are   43 randomized atomic wfcs +    4 random wfc

     Self-consistent Calculation

     iteration #  1     ecut=    58.80 Ry     beta=0.10
     Davidson diagonalization with overlap
     ethr =  1.00E-02,  avg # of iterations =  3.5

[...]

     total energy              =    -612.88494822 Ry
     Harris-Foulkes estimate   =    -612.96359323 Ry
     estimated scf accuracy    <       1.18316594 Ry

[...]

     total energy              =    -612.68175866 Ry
     Harris-Foulkes estimate   =    -612.68175847 Ry
     estimated scf accuracy    <       0.00000002 Ry

     iteration # 16     ecut=    58.80 Ry     beta=0.10
     Davidson diagonalization with overlap
     ethr =  3.21E-11,  avg # of iterations =  1.0

     negative rho (up, down):  1.321E-01 0.000E+00

     End of self-consistent calculation

          k = 0.0000 0.0000 0.0000 (  2945 PWs)   bands (ev):

   -49.2917 -46.8436 -46.7009 -46.7009 -21.4527 -21.4527 -21.4527 -20.6993
   -20.6993 -20.6993 -20.5233 -20.5233 -20.5233 -20.2843 -20.2843 -20.2843
    10.5939  13.0998  13.0998  14.0542  14.1152  14.1152  14.1152  17.2322
    17.2322  17.2322  19.0975  19.0975  20.2886  20.3880  20.3880  20.5937
    20.5937  20.5937  20.8040  20.8040  20.8040  20.9815  20.9815  20.9815
    28.9874  30.0185  30.0185  30.4089  30.4089  30.4089  31.6818

[...]

          k = 0.1085-0.1303-0.1303 (  2928 PWs)   bands (ev):

[...]

          k =-0.1303-0.1303-0.1303 (  2872 PWs)   bands (ev):

   -49.2856 -46.7490 -46.7490 -46.7490 -21.5335 -21.5335 -21.5335 -20.9725
   -20.5689 -20.5689 -20.5689 -20.3552 -20.3552 -20.3552 -20.3180 -20.3180
    13.4092  13.4092  13.4092  14.0913  16.4429  16.4429  17.1099  17.1099
    17.1099  17.3982  17.3982  17.3982  18.1695  18.4740  18.4740  18.4740
    20.3051  20.3051  20.3051  20.3609  20.3609  20.4228  20.4228  20.4228
    26.3721  26.9244  26.9244  26.9244  33.2898  33.2898  33.2902

     the Fermi energy is    17.4243 ev

!    total energy              =    -612.68175944 Ry
     Harris-Foulkes estimate   =    -612.68175866 Ry
     estimated scf accuracy    <          5.6E-11 Ry

     The total energy is the sum of the following terms:

     one-electron contribution =    -170.21488943 Ry
     hartree contribution      =     113.63047360 Ry
     xc contribution           =     -94.36485437 Ry
     ewald contribution        =    -461.71367957 Ry
     smearing contrib. (-TS)   =      -0.01880967 Ry

     convergence has been achieved in  16 iterations

     Forces acting on atoms (Ry/au):

     negative rho (up, down):  1.321E-01 0.000E+00
     atom    1 type  1   force =     0.00000000    0.00000000    0.00000000
     atom    2 type  1   force =     0.00000000    0.00000000    0.00000000
     atom    3 type  1   force =     0.00000000    0.00000000    0.00000000
     atom    4 type  2   force =     0.00000000    0.00000000    0.00000000

     Total force =     0.000000     Total SCF correction =     0.000000
 !ASE

     General routines

     Parallel routines

   This run was terminated on:   1:44:12  26Oct2017

   JOB DONE.