     Program PWSCF v.5.1rc2 (svn rev. ) starts on 25Oct2017 at  1:24:46

     Current dimensions of program PWSCF are:
     Max number of different atomic species (ntypx) = 10
     Max number of k-points (npk) =  40000
     Max angular momentum in pseudopotentials (lmaxx) =  3

     IMPORTANT: XC functional enforced from input :
     Exchange-correlation      = BEEF-VDW ( 1  4 27 13 2)
     Any further DFT definition will be discarded
     Please, verify this is what you really want

     Subspace diagonalization in iterative solution of the eigenvalue problem:
     a serial algorithm will be used

     bravais-lattice index     =            0
     lattice parameter (alat)  =       1.8897  a.u.
     unit-cell volume          =     397.6825 (a.u.)^3
     number of atoms/cell      =            4
     number of atomic types    =            2
     number of electrons       =        58.00
     number of Kohn-Sham states=           49
     kinetic-energy cutoff     =      58.7989  Ry
     charge density cutoff     =     587.9892  Ry
     convergence threshold     =      7.3E-09
     mixing beta               =       0.1000
     number of iterations used =           10  local-TF  mixing
     Exchange-correlation      = BEEF-VDW ( 1  4 27 13 2)
     nstep                     =           50

     celldm(1)=   1.889726  celldm(2)=   0.000000  celldm(3)=   0.000000
     celldm(4)=   0.000000  celldm(5)=   0.000000  celldm(6)=   0.000000

     crystal axes: (cart. coord. in units of alat)
               a(1) = (   3.891466   0.000000   0.000000 )
               a(2) = (   0.000000   3.891466   0.000000 )
               a(3) = (   0.000000   0.000000   3.891466 )

     reciprocal axes: (cart. coord. in units 2 pi/alat)
               b(1) = (  0.256973  0.000000  0.000000 )
               b(2) = (  0.000000  0.256973  0.000000 )
               b(3) = (  0.000000  0.000000  0.256973 )

     PseudoPot. # 1 for V  read from file:
     /home/vossj/suncat/psp/gbrv1.5pbe/V.UPF
     MD5 check sum: 22b79981416ebb76fdaf5b1b8640f6fb
     Pseudo is Ultrasoft + core correction, Zval = 13.0
     Generated by new atomic code, or converted to UPF format
     Using radial grid of  853 points,  6 beta functions with:
                l(1) =   0
                l(2) =   0
                l(3) =   1
                l(4) =   1
                l(5) =   2
                l(6) =   2
     Q(r) pseudized with  8 coefficients,  rinner =    1.100   1.100   1.100
                                                       1.100   1.100

     PseudoPot. # 2 for Ag read from file:
     /home/vossj/suncat/psp/gbrv1.5pbe/Ag.UPF
     MD5 check sum: d66d668201baa78d5eb5b04ef7011058
     Pseudo is Ultrasoft + core correction, Zval = 19.0
     Generated by new atomic code, or converted to UPF format
     Using radial grid of  887 points,  6 beta functions with:
                l(1) =   0
                l(2) =   0
                l(3) =   1
                l(4) =   1
                l(5) =   2
                l(6) =   2
     Q(r) pseudized with  6 coefficients,  rinner =    1.300   1.300   1.300
                                                       1.300   1.300

     vdW kernel table read from file vdW_kernel_table
     MD5 check sum: 095c7af220d748ca6e76c0b4c6cfb241

     atomic species   valence    mass     pseudopotential
        V1            13.00    50.94150     V ( 1.00)
        Ag1           19.00   107.86820     Ag( 1.00)

     48 Sym. Ops., with inversion, found (32 have fractional translation)

   Cartesian axes

     site n.     atom                  positions (alat units)
         1           V1  tau(   1) = (   0.0000000   0.0000000   0.0000000  )
         2           V1  tau(   2) = (   0.0000000   1.9457332   1.9457332  )
         3           V1  tau(   3) = (   1.9457332   0.0000000   1.9457332  )
         4           Ag1 tau(   4) = (   1.9457332   1.9457332   0.0000000  )

     number of k points=    84  Fermi-Dirac smearing, width (Ry)=  0.0073
                       cart. coord. in units 2pi/alat
        k(    1) = (   0.0000000   0.0000000   0.0000000), wk =   0.0011574
        k(    2) = (   0.0000000   0.0000000   0.0214144), wk =   0.0069444
        k(    3) = (   0.0000000   0.0000000   0.0428288), wk =   0.0069444
        k(    4) = (   0.0000000   0.0000000   0.0642431), wk =   0.0069444
        k(    5) = (   0.0000000   0.0000000   0.0856575), wk =   0.0069444
        k(    6) = (   0.0000000   0.0000000   0.1070719), wk =   0.0069444
        k(    7) = (   0.0000000   0.0000000  -0.1284863), wk =   0.0034722
        k(    8) = (   0.0000000   0.0214144   0.0214144), wk =   0.0138889
        k(    9) = (   0.0000000   0.0214144   0.0428288), wk =   0.0277778
        k(   10) = (   0.0000000   0.0214144   0.0642431), wk =   0.0277778
        k(   11) = (   0.0000000   0.0214144   0.0856575), wk =   0.0277778
        k(   12) = (   0.0000000   0.0214144   0.1070719), wk =   0.0277778
        k(   13) = (   0.0000000   0.0214144  -0.1284863), wk =   0.0138889
        k(   14) = (   0.0000000   0.0428288   0.0428288), wk =   0.0138889
        k(   15) = (   0.0000000   0.0428288   0.0642431), wk =   0.0277778
        k(   16) = (   0.0000000   0.0428288   0.0856575), wk =   0.0277778
        k(   17) = (   0.0000000   0.0428288   0.1070719), wk =   0.0277778
        k(   18) = (   0.0000000   0.0428288  -0.1284863), wk =   0.0138889
        k(   19) = (   0.0000000   0.0642431   0.0642431), wk =   0.0138889
        k(   20) = (   0.0000000   0.0642431   0.0856575), wk =   0.0277778
        k(   21) = (   0.0000000   0.0642431   0.1070719), wk =   0.0277778
        k(   22) = (   0.0000000   0.0642431  -0.1284863), wk =   0.0138889
        k(   23) = (   0.0000000   0.0856575   0.0856575), wk =   0.0138889
        k(   24) = (   0.0000000   0.0856575   0.1070719), wk =   0.0277778
        k(   25) = (   0.0000000   0.0856575  -0.1284863), wk =   0.0138889
        k(   26) = (   0.0000000   0.1070719   0.1070719), wk =   0.0138889
        k(   27) = (   0.0000000   0.1070719  -0.1284863), wk =   0.0138889
        k(   28) = (   0.0000000  -0.1284863  -0.1284863), wk =   0.0034722
        k(   29) = (   0.0214144   0.0214144   0.0214144), wk =   0.0092593
        k(   30) = (   0.0214144   0.0214144   0.0428288), wk =   0.0277778
        k(   31) = (   0.0214144   0.0214144   0.0642431), wk =   0.0277778
        k(   32) = (   0.0214144   0.0214144   0.0856575), wk =   0.0277778
        k(   33) = (   0.0214144   0.0214144   0.1070719), wk =   0.0277778
        k(   34) = (   0.0214144   0.0214144  -0.1284863), wk =   0.0138889
        k(   35) = (   0.0214144   0.0428288   0.0428288), wk =   0.0277778
        k(   36) = (   0.0214144   0.0428288   0.0642431), wk =   0.0555556
        k(   37) = (   0.0214144   0.0428288   0.0856575), wk =   0.0555556
        k(   38) = (   0.0214144   0.0428288   0.1070719), wk =   0.0555556
        k(   39) = (   0.0214144   0.0428288  -0.1284863), wk =   0.0277778
        k(   40) = (   0.0214144   0.0642431   0.0642431), wk =   0.0277778
        k(   41) = (   0.0214144   0.0642431   0.0856575), wk =   0.0555556
        k(   42) = (   0.0214144   0.0642431   0.1070719), wk =   0.0555556
        k(   43) = (   0.0214144   0.0642431  -0.1284863), wk =   0.0277778
        k(   44) = (   0.0214144   0.0856575   0.0856575), wk =   0.0277778
        k(   45) = (   0.0214144   0.0856575   0.1070719), wk =   0.0555556
        k(   46) = (   0.0214144   0.0856575  -0.1284863), wk =   0.0277778
        k(   47) = (   0.0214144   0.1070719   0.1070719), wk =   0.0277778
        k(   48) = (   0.0214144   0.1070719  -0.1284863), wk =   0.0277778
        k(   49) = (   0.0214144  -0.1284863  -0.1284863), wk =   0.0069444
        k(   50) = (   0.0428288   0.0428288   0.0428288), wk =   0.0092593
        k(   51) = (   0.0428288   0.0428288   0.0642431), wk =   0.0277778
        k(   52) = (   0.0428288   0.0428288   0.0856575), wk =   0.0277778
        k(   53) = (   0.0428288   0.0428288   0.1070719), wk =   0.0277778
        k(   54) = (   0.0428288   0.0428288  -0.1284863), wk =   0.0138889
        k(   55) = (   0.0428288   0.0642431   0.0642431), wk =   0.0277778
        k(   56) = (   0.0428288   0.0642431   0.0856575), wk =   0.0555556
        k(   57) = (   0.0428288   0.0642431   0.1070719), wk =   0.0555556
        k(   58) = (   0.0428288   0.0642431  -0.1284863), wk =   0.0277778
        k(   59) = (   0.0428288   0.0856575   0.0856575), wk =   0.0277778
        k(   60) = (   0.0428288   0.0856575   0.1070719), wk =   0.0555556
[...]
        k(   70) = (   0.0642431   0.0856575   0.1070719), wk =   0.0555556
        k(   71) = (   0.0642431   0.0856575  -0.1284863), wk =   0.0277778
        k(   72) = (   0.0642431   0.1070719   0.1070719), wk =   0.0277778
        k(   73) = (   0.0642431   0.1070719  -0.1284863), wk =   0.0277778
        k(   74) = (   0.0642431  -0.1284863  -0.1284863), wk =   0.0069444
        k(   75) = (   0.0856575   0.0856575   0.0856575), wk =   0.0092593
        k(   76) = (   0.0856575   0.0856575   0.1070719), wk =   0.0277778
        k(   77) = (   0.0856575   0.0856575  -0.1284863), wk =   0.0138889
        k(   78) = (   0.0856575   0.1070719   0.1070719), wk =   0.0277778
        k(   79) = (   0.0856575   0.1070719  -0.1284863), wk =   0.0277778
        k(   80) = (   0.0856575  -0.1284863  -0.1284863), wk =   0.0069444
        k(   81) = (   0.1070719   0.1070719   0.1070719), wk =   0.0092593
        k(   82) = (   0.1070719   0.1070719  -0.1284863), wk =   0.0138889
        k(   83) = (   0.1070719  -0.1284863  -0.1284863), wk =   0.0069444
        k(   84) = (  -0.1284863  -0.1284863  -0.1284863), wk =   0.0011574

     Largest allocated arrays     est. size (Mb)     dimensions
     Largest temporary arrays     est. size (Mb)     dimensions

     Check: negative/imaginary core charge=   -0.000003    0.000000

     Initial potential from superposition of free atoms
     Check: negative starting charge=   -0.001210

     starting charge   57.49627, renormalised to   58.00000

     negative rho (up, down):  1.221E-03 0.000E+00

     *
     * You are using vdW-DF for exchange-correlation in this calculation.
     * Please cite the following three references that made this development
     * possible:
     *
     *   M. Dion, H. Rydberg, E. Schroder, D. C. Langreth, and
     *   B. I. Lundqvist, Phys. Rev. Lett. 92, 246401 (2004).
     *
     *   T. Thonhauser, V. R. Cooper, S. Li, A. Puzder, P. Hyldgaard, and
     *   D. C. Langreth, Phys. Rev. B 76, 125112 (2007).
     *
     *   G. Roman-Perez and J. M. Soler, Phys. Rev. Lett. 103, 096102 (2009).
     *
     *
     * If you are using vdW-DF2, please also cite:
     *
     *   K. Lee, E. D. Murray, L. Kong, B. I. Lundqvist, and
     *   D. C. Langreth, Phys. Rev. B 82, 081101(R) (2010).
     *
     *
     * If you are calculating the stress with vdW-DF, please also cite:
     *
     *   R. Sabatini, E. Kucukbenli, B. Kolb, T. Thonhauser, and
     *   S. de Gironcoli, J. Phys.: Condens. Matter 24, 424209 (2012).
     *

     Carrying out vdW-DF run using the following parameters:

     Nqs =      20    Nr_points =    1024   r_max =   100.000
     q_mesh =
               0.00001000     0.04494208     0.09755937     0.15916263
               0.23128650     0.31572767     0.41458969     0.53033537
               0.66584808     0.82450364     1.01025438     1.22772762
               1.48234092     1.78043706     2.12944203     2.53805004
               3.01644009     3.57652955     4.23227104     5.00000000

     Gradients computed in reciprocal space

     Starting wfc are   43 randomized atomic wfcs +    6 random wfc

     Self-consistent Calculation

     iteration #  1     ecut=    58.80 Ry     beta=0.10
     Davidson diagonalization with overlap
     ethr =  1.00E-02,  avg # of iterations =  3.4

[...]

     total energy              =    -734.17955404 Ry
     Harris-Foulkes estimate   =    -734.32103103 Ry
     estimated scf accuracy    <       2.71418966 Ry

[...]

     total energy              =    -733.95096788 Ry
     Harris-Foulkes estimate   =    -733.95096649 Ry
     estimated scf accuracy    <       0.00000060 Ry

     iteration # 12     ecut=    58.80 Ry     beta=0.10
     Davidson diagonalization with overlap
     ethr =  6.90E-10,  avg # of iterations =  2.0

     negative rho (up, down):  1.873E-03 0.000E+00

     End of self-consistent calculation

          k = 0.0000 0.0000 0.0000 (  2969 PWs)   bands (ev):

   -76.5423 -47.8900 -47.7649 -47.7649 -40.0025 -40.0025 -40.0025 -21.8400
   -21.8400 -21.8400 -21.5994 -21.5994 -21.5994 -21.3879 -21.3879 -21.3879
     9.1677  10.3077  10.3077  10.7959  10.7959  10.7959  13.0919  15.2865
    15.2865  15.2865  15.9627  15.9627  18.0344  18.0344  18.0344  18.6434
    18.6434  19.0615  19.1405  19.1405  19.1405  19.3994  19.3994  19.3994
    26.2117  26.9136  26.9136  28.9374  28.9374  28.9374  29.4852  29.4852
    29.4852

[...]

          k = 0.1071-0.1285-0.1285 (  3064 PWs)   bands (ev):

[...]

          k =-0.1285-0.1285-0.1285 (  3016 PWs)   bands (ev):

   -76.5422 -47.8057 -47.8057 -47.8057 -40.0042 -40.0042 -40.0042 -21.9433
   -21.8342 -21.8342 -21.8342 -21.4518 -21.4518 -21.4518 -21.3691 -21.3691
    10.4728  10.4728  10.4728  11.4527  11.4527  12.4631  14.9286  14.9286
    14.9286  16.3683  16.3683  16.3683  16.6035  16.6035  16.6035  17.1106
    18.0204  18.0204  18.0204  18.2691  18.2691  19.1082  19.1082  19.1082
    23.0547  24.2422  24.2422  24.2422  32.7150  32.7150  32.7150  32.8078
    37.0388

     the Fermi energy is    16.3619 ev

!    total energy              =    -733.95097482 Ry
     Harris-Foulkes estimate   =    -733.95096796 Ry
     estimated scf accuracy    <          2.0E-09 Ry

     The total energy is the sum of the following terms:

     one-electron contribution =    -275.99854450 Ry
     hartree contribution      =     165.91285936 Ry
     xc contribution           =     -91.23413302 Ry
     ewald contribution        =    -532.61508959 Ry
     smearing contrib. (-TS)   =      -0.01606706 Ry

     convergence has been achieved in  12 iterations

     Forces acting on atoms (Ry/au):

     negative rho (up, down):  1.873E-03 0.000E+00
     atom    1 type  1   force =     0.00000000    0.00000000    0.00000000
     atom    2 type  1   force =     0.00000000    0.00000000    0.00000000
     atom    3 type  1   force =     0.00000000    0.00000000    0.00000000
     atom    4 type  2   force =     0.00000000    0.00000000    0.00000000

     Total force =     0.000000     Total SCF correction =     0.000000
 !ASE

     General routines

     Parallel routines

   This run was terminated on:   1:25:34  25Oct2017

   JOB DONE.