     Program PWSCF v.5.1rc2 (svn rev. ) starts on 25Oct2017 at  1:16:38

     Current dimensions of program PWSCF are:
     Max number of different atomic species (ntypx) = 10
     Max number of k-points (npk) =  40000
     Max angular momentum in pseudopotentials (lmaxx) =  3

     IMPORTANT: XC functional enforced from input :
     Exchange-correlation      = BEEF-VDW ( 1  4 27 13 2)
     Any further DFT definition will be discarded
     Please, verify this is what you really want

     Subspace diagonalization in iterative solution of the eigenvalue problem:
     a serial algorithm will be used

     bravais-lattice index     =            0
     lattice parameter (alat)  =       1.8897  a.u.
     unit-cell volume          =     376.5480 (a.u.)^3
     number of atoms/cell      =            4
     number of atomic types    =            2
     number of electrons       =        42.00
     number of Kohn-Sham states=           41
     kinetic-energy cutoff     =      58.7989  Ry
     charge density cutoff     =     587.9892  Ry
     convergence threshold     =      7.3E-09
     mixing beta               =       0.1000
     number of iterations used =           10  local-TF  mixing
     Exchange-correlation      = BEEF-VDW ( 1  4 27 13 2)
     nstep                     =           50

     celldm(1)=   1.889726  celldm(2)=   0.000000  celldm(3)=   0.000000
     celldm(4)=   0.000000  celldm(5)=   0.000000  celldm(6)=   0.000000

     crystal axes: (cart. coord. in units of alat)
               a(1) = (   3.821272   0.000000   0.000000 )
               a(2) = (   0.000000   3.821272   0.000000 )
               a(3) = (   0.000000   0.000000   3.821272 )

     reciprocal axes: (cart. coord. in units 2 pi/alat)
               b(1) = (  0.261693  0.000000  0.000000 )
               b(2) = (  0.000000  0.261693  0.000000 )
               b(3) = (  0.000000  0.000000  0.261693 )

     PseudoPot. # 1 for V  read from file:
     /home/vossj/suncat/psp/gbrv1.5pbe/V.UPF
     MD5 check sum: 22b79981416ebb76fdaf5b1b8640f6fb
     Pseudo is Ultrasoft + core correction, Zval = 13.0
     Generated by new atomic code, or converted to UPF format
     Using radial grid of  853 points,  6 beta functions with:
                l(1) =   0
                l(2) =   0
                l(3) =   1
                l(4) =   1
                l(5) =   2
                l(6) =   2
     Q(r) pseudized with  8 coefficients,  rinner =    1.100   1.100   1.100
                                                       1.100   1.100

     PseudoPot. # 2 for Al read from file:
     /home/vossj/suncat/psp/gbrv1.5pbe/Al.UPF
     MD5 check sum: 0a6289f5291fc8f409219462bc851e1f
     Pseudo is Ultrasoft + core correction, Zval =  3.0
     Generated by new atomic code, or converted to UPF format
     Using radial grid of  893 points,  3 beta functions with:
                l(1) =   0
                l(2) =   1
                l(3) =   2
     Q(r) pseudized with  8 coefficients,  rinner =    0.900   0.900   0.900
                                                       0.900   0.900

     vdW kernel table read from file vdW_kernel_table
     MD5 check sum: 095c7af220d748ca6e76c0b4c6cfb241

     atomic species   valence    mass     pseudopotential
        V1            13.00    50.94150     V ( 1.00)
        Al1            3.00    26.98154     Al( 1.00)

     48 Sym. Ops., with inversion, found (32 have fractional translation)

   Cartesian axes

     site n.     atom                  positions (alat units)
         1           V1  tau(   1) = (   0.0000000   0.0000000   0.0000000  )
         2           V1  tau(   2) = (   0.0000000   1.9106359   1.9106359  )
         3           V1  tau(   3) = (   1.9106359   0.0000000   1.9106359  )
         4           Al1 tau(   4) = (   1.9106359   1.9106359   0.0000000  )

     number of k points=    84  Fermi-Dirac smearing, width (Ry)=  0.0073
                       cart. coord. in units 2pi/alat
        k(    1) = (   0.0000000   0.0000000   0.0000000), wk =   0.0011574
        k(    2) = (   0.0000000   0.0000000   0.0218077), wk =   0.0069444
        k(    3) = (   0.0000000   0.0000000   0.0436155), wk =   0.0069444
        k(    4) = (   0.0000000   0.0000000   0.0654232), wk =   0.0069444
        k(    5) = (   0.0000000   0.0000000   0.0872310), wk =   0.0069444
        k(    6) = (   0.0000000   0.0000000   0.1090387), wk =   0.0069444
        k(    7) = (   0.0000000   0.0000000  -0.1308465), wk =   0.0034722
        k(    8) = (   0.0000000   0.0218077   0.0218077), wk =   0.0138889
        k(    9) = (   0.0000000   0.0218077   0.0436155), wk =   0.0277778
        k(   10) = (   0.0000000   0.0218077   0.0654232), wk =   0.0277778
        k(   11) = (   0.0000000   0.0218077   0.0872310), wk =   0.0277778
        k(   12) = (   0.0000000   0.0218077   0.1090387), wk =   0.0277778
        k(   13) = (   0.0000000   0.0218077  -0.1308465), wk =   0.0138889
        k(   14) = (   0.0000000   0.0436155   0.0436155), wk =   0.0138889
        k(   15) = (   0.0000000   0.0436155   0.0654232), wk =   0.0277778
        k(   16) = (   0.0000000   0.0436155   0.0872310), wk =   0.0277778
        k(   17) = (   0.0000000   0.0436155   0.1090387), wk =   0.0277778
        k(   18) = (   0.0000000   0.0436155  -0.1308465), wk =   0.0138889
        k(   19) = (   0.0000000   0.0654232   0.0654232), wk =   0.0138889
        k(   20) = (   0.0000000   0.0654232   0.0872310), wk =   0.0277778
        k(   21) = (   0.0000000   0.0654232   0.1090387), wk =   0.0277778
        k(   22) = (   0.0000000   0.0654232  -0.1308465), wk =   0.0138889
        k(   23) = (   0.0000000   0.0872310   0.0872310), wk =   0.0138889
        k(   24) = (   0.0000000   0.0872310   0.1090387), wk =   0.0277778
        k(   25) = (   0.0000000   0.0872310  -0.1308465), wk =   0.0138889
        k(   26) = (   0.0000000   0.1090387   0.1090387), wk =   0.0138889
        k(   27) = (   0.0000000   0.1090387  -0.1308465), wk =   0.0138889
        k(   28) = (   0.0000000  -0.1308465  -0.1308465), wk =   0.0034722
        k(   29) = (   0.0218077   0.0218077   0.0218077), wk =   0.0092593
        k(   30) = (   0.0218077   0.0218077   0.0436155), wk =   0.0277778
        k(   31) = (   0.0218077   0.0218077   0.0654232), wk =   0.0277778
        k(   32) = (   0.0218077   0.0218077   0.0872310), wk =   0.0277778
        k(   33) = (   0.0218077   0.0218077   0.1090387), wk =   0.0277778
        k(   34) = (   0.0218077   0.0218077  -0.1308465), wk =   0.0138889
        k(   35) = (   0.0218077   0.0436155   0.0436155), wk =   0.0277778
        k(   36) = (   0.0218077   0.0436155   0.0654232), wk =   0.0555556
        k(   37) = (   0.0218077   0.0436155   0.0872310), wk =   0.0555556
        k(   38) = (   0.0218077   0.0436155   0.1090387), wk =   0.0555556
        k(   39) = (   0.0218077   0.0436155  -0.1308465), wk =   0.0277778
        k(   40) = (   0.0218077   0.0654232   0.0654232), wk =   0.0277778
        k(   41) = (   0.0218077   0.0654232   0.0872310), wk =   0.0555556
        k(   42) = (   0.0218077   0.0654232   0.1090387), wk =   0.0555556
        k(   43) = (   0.0218077   0.0654232  -0.1308465), wk =   0.0277778
        k(   44) = (   0.0218077   0.0872310   0.0872310), wk =   0.0277778
        k(   45) = (   0.0218077   0.0872310   0.1090387), wk =   0.0555556
        k(   46) = (   0.0218077   0.0872310  -0.1308465), wk =   0.0277778
        k(   47) = (   0.0218077   0.1090387   0.1090387), wk =   0.0277778
        k(   48) = (   0.0218077   0.1090387  -0.1308465), wk =   0.0277778
        k(   49) = (   0.0218077  -0.1308465  -0.1308465), wk =   0.0069444
        k(   50) = (   0.0436155   0.0436155   0.0436155), wk =   0.0092593
        k(   51) = (   0.0436155   0.0436155   0.0654232), wk =   0.0277778
        k(   52) = (   0.0436155   0.0436155   0.0872310), wk =   0.0277778
        k(   53) = (   0.0436155   0.0436155   0.1090387), wk =   0.0277778
        k(   54) = (   0.0436155   0.0436155  -0.1308465), wk =   0.0138889
        k(   55) = (   0.0436155   0.0654232   0.0654232), wk =   0.0277778
        k(   56) = (   0.0436155   0.0654232   0.0872310), wk =   0.0555556
        k(   57) = (   0.0436155   0.0654232   0.1090387), wk =   0.0555556
        k(   58) = (   0.0436155   0.0654232  -0.1308465), wk =   0.0277778
        k(   59) = (   0.0436155   0.0872310   0.0872310), wk =   0.0277778
        k(   60) = (   0.0436155   0.0872310   0.1090387), wk =   0.0555556
[...]
        k(   70) = (   0.0654232   0.0872310   0.1090387), wk =   0.0555556
        k(   71) = (   0.0654232   0.0872310  -0.1308465), wk =   0.0277778
        k(   72) = (   0.0654232   0.1090387   0.1090387), wk =   0.0277778
        k(   73) = (   0.0654232   0.1090387  -0.1308465), wk =   0.0277778
        k(   74) = (   0.0654232  -0.1308465  -0.1308465), wk =   0.0069444
        k(   75) = (   0.0872310   0.0872310   0.0872310), wk =   0.0092593
        k(   76) = (   0.0872310   0.0872310   0.1090387), wk =   0.0277778
        k(   77) = (   0.0872310   0.0872310  -0.1308465), wk =   0.0138889
        k(   78) = (   0.0872310   0.1090387   0.1090387), wk =   0.0277778
        k(   79) = (   0.0872310   0.1090387  -0.1308465), wk =   0.0277778
        k(   80) = (   0.0872310  -0.1308465  -0.1308465), wk =   0.0069444
        k(   81) = (   0.1090387   0.1090387   0.1090387), wk =   0.0092593
        k(   82) = (   0.1090387   0.1090387  -0.1308465), wk =   0.0138889
        k(   83) = (   0.1090387  -0.1308465  -0.1308465), wk =   0.0069444
        k(   84) = (  -0.1308465  -0.1308465  -0.1308465), wk =   0.0011574

     Largest allocated arrays     est. size (Mb)     dimensions
     Largest temporary arrays     est. size (Mb)     dimensions

     Check: negative/imaginary core charge=   -0.000002    0.000000

     Initial potential from superposition of free atoms
     Check: negative starting charge=   -0.001134

     starting charge   41.99385, renormalised to   42.00000

     negative rho (up, down):  1.134E-03 0.000E+00

     *
     * You are using vdW-DF for exchange-correlation in this calculation.
     * Please cite the following three references that made this development
     * possible:
     *
     *   M. Dion, H. Rydberg, E. Schroder, D. C. Langreth, and
     *   B. I. Lundqvist, Phys. Rev. Lett. 92, 246401 (2004).
     *
     *   T. Thonhauser, V. R. Cooper, S. Li, A. Puzder, P. Hyldgaard, and
     *   D. C. Langreth, Phys. Rev. B 76, 125112 (2007).
     *
     *   G. Roman-Perez and J. M. Soler, Phys. Rev. Lett. 103, 096102 (2009).
     *
     *
     * If you are using vdW-DF2, please also cite:
     *
     *   K. Lee, E. D. Murray, L. Kong, B. I. Lundqvist, and
     *   D. C. Langreth, Phys. Rev. B 82, 081101(R) (2010).
     *
     *
     * If you are calculating the stress with vdW-DF, please also cite:
     *
     *   R. Sabatini, E. Kucukbenli, B. Kolb, T. Thonhauser, and
     *   S. de Gironcoli, J. Phys.: Condens. Matter 24, 424209 (2012).
     *

     Carrying out vdW-DF run using the following parameters:

     Nqs =      20    Nr_points =    1024   r_max =   100.000
     q_mesh =
               0.00001000     0.04494208     0.09755937     0.15916263
               0.23128650     0.31572767     0.41458969     0.53033537
               0.66584808     0.82450364     1.01025438     1.22772762
               1.48234092     1.78043706     2.12944203     2.53805004
               3.01644009     3.57652955     4.23227104     5.00000000

     Gradients computed in reciprocal space

     Starting wfc are   34 randomized atomic wfcs +    7 random wfc

     Self-consistent Calculation

     iteration #  1     ecut=    58.80 Ry     beta=0.10
     Davidson diagonalization with overlap
     ethr =  1.00E-02,  avg # of iterations =  3.8

     Threshold (ethr) on eigenvalues was too large:
     Diagonalizing with lowered threshold

     Davidson diagonalization with overlap
     ethr =  2.10E-04,  avg # of iterations =  1.3

[...]

     total energy              =    -444.32141723 Ry
     Harris-Foulkes estimate   =    -444.32553351 Ry
     estimated scf accuracy    <       0.08870877 Ry

[...]

     total energy              =    -444.30594789 Ry
     Harris-Foulkes estimate   =    -444.30593819 Ry
     estimated scf accuracy    <       0.00000002 Ry

     iteration # 10     ecut=    58.80 Ry     beta=0.10
     Davidson diagonalization with overlap
     ethr =  4.06E-11,  avg # of iterations =  2.2

     negative rho (up, down):  2.178E-03 0.000E+00

     End of self-consistent calculation

          k = 0.0000 0.0000 0.0000 (  2897 PWs)   bands (ev):

   -50.0399 -49.8835 -49.8835 -24.0260 -24.0260 -24.0260 -23.7399 -23.7399
   -23.7399 -23.4808 -23.4808 -23.4808   5.6457  10.5200  11.6719  11.6719
    12.2205  12.2205  12.2205  15.1764  15.1764  15.1764  15.2935  15.2935
    15.2935  16.4967  16.4967  17.0529  17.4341  17.4341  17.4341  22.0159
    22.8927  22.8927  24.8298  24.8298  24.8298  27.9580  27.9580  27.9580
    28.8153

[...]

          k = 0.1090-0.1308-0.1308 (  2876 PWs)   bands (ev):

[...]

          k =-0.1308-0.1308-0.1308 (  2872 PWs)   bands (ev):

   -49.9343 -49.9343 -49.9343 -24.1369 -24.0290 -24.0290 -24.0290 -23.5643
   -23.5643 -23.5643 -23.4518 -23.4518   8.5081  11.5686  11.5686  11.5686
    12.7163  12.7163  12.7163  14.1396  14.1396  14.1396  15.0970  15.1964
    15.1964  15.1964  15.6709  15.6709  17.1125  17.1125  17.1125  18.9213
    21.1986  21.1986  21.1986  30.2127  30.2127  30.2127  30.2323  30.2323
    31.1162

     the Fermi energy is    14.1154 ev

!    total energy              =    -444.30595156 Ry
     Harris-Foulkes estimate   =    -444.30594790 Ry
     estimated scf accuracy    <          7.2E-09 Ry

     The total energy is the sum of the following terms:

     one-electron contribution =    -185.97450828 Ry
     hartree contribution      =     110.93056531 Ry
     xc contribution           =     -65.82919116 Ry
     ewald contribution        =    -303.41846386 Ry
     smearing contrib. (-TS)   =      -0.01435357 Ry

     convergence has been achieved in  10 iterations

     Forces acting on atoms (Ry/au):

     negative rho (up, down):  2.178E-03 0.000E+00
     atom    1 type  1   force =     0.00000000    0.00000000    0.00000000
     atom    2 type  1   force =     0.00000000   -0.00000000    0.00000000
     atom    3 type  1   force =     0.00000000    0.00000000    0.00000000
     atom    4 type  2   force =     0.00000000    0.00000000   -0.00000000

     Total force =     0.000000     Total SCF correction =     0.000000
 !ASE

     General routines

     Parallel routines

   This run was terminated on:   1:17:13  25Oct2017

   JOB DONE.