     Program PWSCF v.5.1rc2 (svn rev. ) starts on 25Oct2017 at 19:46:48

     Current dimensions of program PWSCF are:
     Max number of different atomic species (ntypx) = 10
     Max number of k-points (npk) =  40000
     Max angular momentum in pseudopotentials (lmaxx) =  3

     IMPORTANT: XC functional enforced from input :
     Exchange-correlation      = BEEF-VDW ( 1  4 27 13 2)
     Any further DFT definition will be discarded
     Please, verify this is what you really want

     Subspace diagonalization in iterative solution of the eigenvalue problem:
     a serial algorithm will be used

     bravais-lattice index     =            0
     lattice parameter (alat)  =       1.8897  a.u.
     unit-cell volume          =     336.8945 (a.u.)^3
     number of atoms/cell      =            4
     number of atomic types    =            2
     number of electrons       =        55.00
     number of Kohn-Sham states=           47
     kinetic-energy cutoff     =      58.7989  Ry
     charge density cutoff     =     587.9892  Ry
     convergence threshold     =      7.3E-09
     mixing beta               =       0.1000
     number of iterations used =           10  local-TF  mixing
     Exchange-correlation      = BEEF-VDW ( 1  4 27 13 2)
     nstep                     =           50

     celldm(1)=   1.889726  celldm(2)=   0.000000  celldm(3)=   0.000000
     celldm(4)=   0.000000  celldm(5)=   0.000000  celldm(6)=   0.000000

     crystal axes: (cart. coord. in units of alat)
               a(1) = (   3.682130   0.000000   0.000000 )
               a(2) = (   0.000000   3.682130   0.000000 )
               a(3) = (   0.000000   0.000000   3.682130 )

     reciprocal axes: (cart. coord. in units 2 pi/alat)
               b(1) = (  0.271582  0.000000  0.000000 )
               b(2) = (  0.000000  0.271582  0.000000 )
               b(3) = (  0.000000  0.000000  0.271582 )

     PseudoPot. # 1 for Cr read from file:
     /home/vossj/suncat/psp/gbrv1.5pbe/Cr.UPF
     MD5 check sum: 0d52af634a40206e4dee301ad30da4bf
     Pseudo is Ultrasoft + core correction, Zval = 14.0
     Generated by new atomic code, or converted to UPF format
     Using radial grid of  857 points,  6 beta functions with:
                l(1) =   0
                l(2) =   0
                l(3) =   1
                l(4) =   1
                l(5) =   2
                l(6) =   2
     Q(r) pseudized with  8 coefficients,  rinner =    0.950   0.950   0.950
                                                       0.950   0.950

     PseudoPot. # 2 for V  read from file:
     /home/vossj/suncat/psp/gbrv1.5pbe/V.UPF
     MD5 check sum: 22b79981416ebb76fdaf5b1b8640f6fb
     Pseudo is Ultrasoft + core correction, Zval = 13.0
     Generated by new atomic code, or converted to UPF format
     Using radial grid of  853 points,  6 beta functions with:
                l(1) =   0
                l(2) =   0
                l(3) =   1
                l(4) =   1
                l(5) =   2
                l(6) =   2
     Q(r) pseudized with  8 coefficients,  rinner =    1.100   1.100   1.100
                                                       1.100   1.100

     vdW kernel table read from file vdW_kernel_table
     MD5 check sum: 095c7af220d748ca6e76c0b4c6cfb241

     atomic species   valence    mass     pseudopotential
        Cr1           14.00    51.99610     Cr( 1.00)
        V1            13.00    50.94150     V ( 1.00)

     48 Sym. Ops., with inversion, found (32 have fractional translation)

   Cartesian axes

     site n.     atom                  positions (alat units)
         1           Cr1 tau(   1) = (   0.0000000   0.0000000   0.0000000  )
         2           Cr1 tau(   2) = (   0.0000000   1.8410649   1.8410649  )
         3           Cr1 tau(   3) = (   1.8410649   0.0000000   1.8410649  )
         4           V1  tau(   4) = (   1.8410649   1.8410649   0.0000000  )

     number of k points=    84  Fermi-Dirac smearing, width (Ry)=  0.0073
                       cart. coord. in units 2pi/alat
        k(    1) = (   0.0000000   0.0000000   0.0000000), wk =   0.0011574
        k(    2) = (   0.0000000   0.0000000   0.0226318), wk =   0.0069444
        k(    3) = (   0.0000000   0.0000000   0.0452637), wk =   0.0069444
        k(    4) = (   0.0000000   0.0000000   0.0678955), wk =   0.0069444
        k(    5) = (   0.0000000   0.0000000   0.0905273), wk =   0.0069444
        k(    6) = (   0.0000000   0.0000000   0.1131591), wk =   0.0069444
        k(    7) = (   0.0000000   0.0000000  -0.1357910), wk =   0.0034722
        k(    8) = (   0.0000000   0.0226318   0.0226318), wk =   0.0138889
        k(    9) = (   0.0000000   0.0226318   0.0452637), wk =   0.0277778
        k(   10) = (   0.0000000   0.0226318   0.0678955), wk =   0.0277778
        k(   11) = (   0.0000000   0.0226318   0.0905273), wk =   0.0277778
        k(   12) = (   0.0000000   0.0226318   0.1131591), wk =   0.0277778
        k(   13) = (   0.0000000   0.0226318  -0.1357910), wk =   0.0138889
        k(   14) = (   0.0000000   0.0452637   0.0452637), wk =   0.0138889
        k(   15) = (   0.0000000   0.0452637   0.0678955), wk =   0.0277778
        k(   16) = (   0.0000000   0.0452637   0.0905273), wk =   0.0277778
        k(   17) = (   0.0000000   0.0452637   0.1131591), wk =   0.0277778
        k(   18) = (   0.0000000   0.0452637  -0.1357910), wk =   0.0138889
        k(   19) = (   0.0000000   0.0678955   0.0678955), wk =   0.0138889
        k(   20) = (   0.0000000   0.0678955   0.0905273), wk =   0.0277778
        k(   21) = (   0.0000000   0.0678955   0.1131591), wk =   0.0277778
        k(   22) = (   0.0000000   0.0678955  -0.1357910), wk =   0.0138889
        k(   23) = (   0.0000000   0.0905273   0.0905273), wk =   0.0138889
        k(   24) = (   0.0000000   0.0905273   0.1131591), wk =   0.0277778
        k(   25) = (   0.0000000   0.0905273  -0.1357910), wk =   0.0138889
        k(   26) = (   0.0000000   0.1131591   0.1131591), wk =   0.0138889
        k(   27) = (   0.0000000   0.1131591  -0.1357910), wk =   0.0138889
        k(   28) = (   0.0000000  -0.1357910  -0.1357910), wk =   0.0034722
        k(   29) = (   0.0226318   0.0226318   0.0226318), wk =   0.0092593
        k(   30) = (   0.0226318   0.0226318   0.0452637), wk =   0.0277778
        k(   31) = (   0.0226318   0.0226318   0.0678955), wk =   0.0277778
        k(   32) = (   0.0226318   0.0226318   0.0905273), wk =   0.0277778
        k(   33) = (   0.0226318   0.0226318   0.1131591), wk =   0.0277778
        k(   34) = (   0.0226318   0.0226318  -0.1357910), wk =   0.0138889
        k(   35) = (   0.0226318   0.0452637   0.0452637), wk =   0.0277778
        k(   36) = (   0.0226318   0.0452637   0.0678955), wk =   0.0555556
        k(   37) = (   0.0226318   0.0452637   0.0905273), wk =   0.0555556
        k(   38) = (   0.0226318   0.0452637   0.1131591), wk =   0.0555556
        k(   39) = (   0.0226318   0.0452637  -0.1357910), wk =   0.0277778
        k(   40) = (   0.0226318   0.0678955   0.0678955), wk =   0.0277778
        k(   41) = (   0.0226318   0.0678955   0.0905273), wk =   0.0555556
        k(   42) = (   0.0226318   0.0678955   0.1131591), wk =   0.0555556
        k(   43) = (   0.0226318   0.0678955  -0.1357910), wk =   0.0277778
        k(   44) = (   0.0226318   0.0905273   0.0905273), wk =   0.0277778
        k(   45) = (   0.0226318   0.0905273   0.1131591), wk =   0.0555556
        k(   46) = (   0.0226318   0.0905273  -0.1357910), wk =   0.0277778
        k(   47) = (   0.0226318   0.1131591   0.1131591), wk =   0.0277778
        k(   48) = (   0.0226318   0.1131591  -0.1357910), wk =   0.0277778
        k(   49) = (   0.0226318  -0.1357910  -0.1357910), wk =   0.0069444
        k(   50) = (   0.0452637   0.0452637   0.0452637), wk =   0.0092593
        k(   51) = (   0.0452637   0.0452637   0.0678955), wk =   0.0277778
        k(   52) = (   0.0452637   0.0452637   0.0905273), wk =   0.0277778
        k(   53) = (   0.0452637   0.0452637   0.1131591), wk =   0.0277778
        k(   54) = (   0.0452637   0.0452637  -0.1357910), wk =   0.0138889
        k(   55) = (   0.0452637   0.0678955   0.0678955), wk =   0.0277778
        k(   56) = (   0.0452637   0.0678955   0.0905273), wk =   0.0555556
        k(   57) = (   0.0452637   0.0678955   0.1131591), wk =   0.0555556
        k(   58) = (   0.0452637   0.0678955  -0.1357910), wk =   0.0277778
        k(   59) = (   0.0452637   0.0905273   0.0905273), wk =   0.0277778
        k(   60) = (   0.0452637   0.0905273   0.1131591), wk =   0.0555556
[...]
        k(   70) = (   0.0678955   0.0905273   0.1131591), wk =   0.0555556
        k(   71) = (   0.0678955   0.0905273  -0.1357910), wk =   0.0277778
        k(   72) = (   0.0678955   0.1131591   0.1131591), wk =   0.0277778
        k(   73) = (   0.0678955   0.1131591  -0.1357910), wk =   0.0277778
        k(   74) = (   0.0678955  -0.1357910  -0.1357910), wk =   0.0069444
        k(   75) = (   0.0905273   0.0905273   0.0905273), wk =   0.0092593
        k(   76) = (   0.0905273   0.0905273   0.1131591), wk =   0.0277778
        k(   77) = (   0.0905273   0.0905273  -0.1357910), wk =   0.0138889
        k(   78) = (   0.0905273   0.1131591   0.1131591), wk =   0.0277778
        k(   79) = (   0.0905273   0.1131591  -0.1357910), wk =   0.0277778
        k(   80) = (   0.0905273  -0.1357910  -0.1357910), wk =   0.0069444
        k(   81) = (   0.1131591   0.1131591   0.1131591), wk =   0.0092593
        k(   82) = (   0.1131591   0.1131591  -0.1357910), wk =   0.0138889
        k(   83) = (   0.1131591  -0.1357910  -0.1357910), wk =   0.0069444
        k(   84) = (  -0.1357910  -0.1357910  -0.1357910), wk =   0.0011574

     Largest allocated arrays     est. size (Mb)     dimensions
     Largest temporary arrays     est. size (Mb)     dimensions

     Check: negative/imaginary core charge=   -0.000009    0.000000

     Initial potential from superposition of free atoms
     Check: negative starting charge=   -0.002490

     starting charge   51.99873, renormalised to   55.00000

     negative rho (up, down):  2.633E-03 0.000E+00

     *
     * You are using vdW-DF for exchange-correlation in this calculation.
     * Please cite the following three references that made this development
     * possible:
     *
     *   M. Dion, H. Rydberg, E. Schroder, D. C. Langreth, and
     *   B. I. Lundqvist, Phys. Rev. Lett. 92, 246401 (2004).
     *
     *   T. Thonhauser, V. R. Cooper, S. Li, A. Puzder, P. Hyldgaard, and
     *   D. C. Langreth, Phys. Rev. B 76, 125112 (2007).
     *
     *   G. Roman-Perez and J. M. Soler, Phys. Rev. Lett. 103, 096102 (2009).
     *
     *
     * If you are using vdW-DF2, please also cite:
     *
     *   K. Lee, E. D. Murray, L. Kong, B. I. Lundqvist, and
     *   D. C. Langreth, Phys. Rev. B 82, 081101(R) (2010).
     *
     *
     * If you are calculating the stress with vdW-DF, please also cite:
     *
     *   R. Sabatini, E. Kucukbenli, B. Kolb, T. Thonhauser, and
     *   S. de Gironcoli, J. Phys.: Condens. Matter 24, 424209 (2012).
     *

     Carrying out vdW-DF run using the following parameters:

     Nqs =      20    Nr_points =    1024   r_max =   100.000
     q_mesh =
               0.00001000     0.04494208     0.09755937     0.15916263
               0.23128650     0.31572767     0.41458969     0.53033537
               0.66584808     0.82450364     1.01025438     1.22772762
               1.48234092     1.78043706     2.12944203     2.53805004
               3.01644009     3.57652955     4.23227104     5.00000000

     Gradients computed in reciprocal space

     Starting wfc are   40 randomized atomic wfcs +    7 random wfc

     Self-consistent Calculation

     iteration #  1     ecut=    58.80 Ry     beta=0.10
     Davidson diagonalization with overlap
     ethr =  1.00E-02,  avg # of iterations =  4.1

[...]

     total energy              =    -675.65787376 Ry
     Harris-Foulkes estimate   =    -676.00693696 Ry
     estimated scf accuracy    <       4.55529135 Ry

[...]

     total energy              =    -674.62818171 Ry
     Harris-Foulkes estimate   =    -674.62818121 Ry
     estimated scf accuracy    <       0.00000003 Ry

     iteration # 15     ecut=    58.80 Ry     beta=0.10
     Davidson diagonalization with overlap
     ethr =  4.64E-11,  avg # of iterations =  2.0

     negative rho (up, down):  2.700E-03 0.000E+00

     End of self-consistent calculation

          k = 0.0000 0.0000 0.0000 (  2553 PWs)   bands (ev):

   -54.1661 -54.0247 -54.0247 -46.5607 -25.6380 -25.6380 -25.6380 -25.3256
   -25.3256 -25.3256 -25.1618 -25.1618 -25.1618 -20.3567 -20.3567 -20.3567
    10.2654  13.6064  13.6064  13.6865  14.4369  14.4369  14.4369  17.1781
    17.1781  17.1781  18.8569  18.8569  19.7948  20.0798  20.0798  20.0798
    20.2462  20.2462  20.6665  20.6665  20.6665  21.1180  21.1180  21.1180
    29.4927  29.5052  29.5052  31.9707  31.9707  31.9707  32.5674

[...]

          k = 0.1132-0.1358-0.1358 (  2540 PWs)   bands (ev):

[...]

          k =-0.1358-0.1358-0.1358 (  2512 PWs)   bands (ev):

   -54.0704 -54.0704 -54.0704 -46.5600 -25.7958 -25.6028 -25.6028 -25.6028
   -25.1792 -25.1792 -25.1660 -25.1660 -25.1660 -20.3617 -20.3617 -20.3617
    13.7608  13.7608  13.7608  13.9395  16.9528  16.9528  16.9528  17.0893
    17.0893  17.0893  17.2407  17.2407  18.1727  18.3750  18.3750  18.3750
    19.8032  19.8032  19.8032  20.2359  20.2359  20.2359  20.2717  20.2717
    26.5588  26.5588  26.5588  26.8856  35.6849  35.6849  35.7617

     the Fermi energy is    17.4758 ev

!    total energy              =    -674.62818398 Ry
     Harris-Foulkes estimate   =    -674.62818172 Ry
     estimated scf accuracy    <          1.4E-09 Ry

     The total energy is the sum of the following terms:

     one-electron contribution =    -230.87012383 Ry
     hartree contribution      =     145.14919141 Ry
     xc contribution           =     -90.34172128 Ry
     ewald contribution        =    -498.54625037 Ry
     smearing contrib. (-TS)   =      -0.01927991 Ry

     convergence has been achieved in  15 iterations

     Forces acting on atoms (Ry/au):

     negative rho (up, down):  2.700E-03 0.000E+00
     atom    1 type  1   force =     0.00000000    0.00000000    0.00000000
     atom    2 type  1   force =     0.00000000    0.00000000    0.00000000
     atom    3 type  1   force =     0.00000000    0.00000000    0.00000000
     atom    4 type  2   force =     0.00000000    0.00000000    0.00000000

     Total force =     0.000000     Total SCF correction =     0.000000
 !ASE

     General routines

     Parallel routines

   This run was terminated on:  19:47:38  25Oct2017

   JOB DONE.