     Program PWSCF v.5.1rc2 (svn rev. ) starts on 25Oct2017 at  8:34:13

     Current dimensions of program PWSCF are:
     Max number of different atomic species (ntypx) = 10
     Max number of k-points (npk) =  40000
     Max angular momentum in pseudopotentials (lmaxx) =  3

     IMPORTANT: XC functional enforced from input :
     Exchange-correlation      = BEEF-VDW ( 1  4 27 13 2)
     Any further DFT definition will be discarded
     Please, verify this is what you really want

     Subspace diagonalization in iterative solution of the eigenvalue problem:
     a serial algorithm will be used

     bravais-lattice index     =            0
     lattice parameter (alat)  =       1.8897  a.u.
     unit-cell volume          =     573.7373 (a.u.)^3
     number of atoms/cell      =            4
     number of atomic types    =            2
     number of electrons       =        44.00
     number of Kohn-Sham states=           42
     kinetic-energy cutoff     =      58.7989  Ry
     charge density cutoff     =     587.9892  Ry
     convergence threshold     =      7.3E-09
     mixing beta               =       0.1000
     number of iterations used =           10  local-TF  mixing
     Exchange-correlation      = BEEF-VDW ( 1  4 27 13 2)
     nstep                     =           50

     celldm(1)=   1.889726  celldm(2)=   0.000000  celldm(3)=   0.000000
     celldm(4)=   0.000000  celldm(5)=   0.000000  celldm(6)=   0.000000

     crystal axes: (cart. coord. in units of alat)
               a(1) = (   4.397159   0.000000   0.000000 )
               a(2) = (   0.000000   4.397159   0.000000 )
               a(3) = (   0.000000   0.000000   4.397159 )

     reciprocal axes: (cart. coord. in units 2 pi/alat)
               b(1) = (  0.227420  0.000000  0.000000 )
               b(2) = (  0.000000  0.227420  0.000000 )
               b(3) = (  0.000000  0.000000  0.227420 )

     PseudoPot. # 1 for Au read from file:
     /home/vossj/suncat/psp/gbrv1.5pbe/Au.UPF
     MD5 check sum: 9d7f43293ad2c663164586bc4b293ffc
     Pseudo is Ultrasoft + core correction, Zval = 11.0
     Generated by new atomic code, or converted to UPF format
     Using radial grid of  985 points,  7 beta functions with:
                l(1) =   0
                l(2) =   0
                l(3) =   1
                l(4) =   1
                l(5) =   2
                l(6) =   2
                l(7) =   3
     Q(r) pseudized with  6 coefficients,  rinner =    1.900   1.900   1.900
                                                       1.900   1.900   1.900
                                                       1.900

     PseudoPot. # 2 for Y  read from file:
     /home/vossj/suncat/psp/gbrv1.5pbe/Y.UPF
     MD5 check sum: d034151ed7554c50b6e82763ed42c788
     Pseudo is Ultrasoft + core correction, Zval = 11.0
     Generated by new atomic code, or converted to UPF format
     Using radial grid of  885 points,  6 beta functions with:
                l(1) =   0
                l(2) =   0
                l(3) =   1
                l(4) =   1
                l(5) =   2
                l(6) =   2
     Q(r) pseudized with  8 coefficients,  rinner =    1.200   1.200   1.200
                                                       1.200   1.200

     vdW kernel table read from file vdW_kernel_table
     MD5 check sum: 095c7af220d748ca6e76c0b4c6cfb241

     atomic species   valence    mass     pseudopotential
        Au1           11.00   196.96657     Au( 1.00)
        Y1            11.00    88.90584     Y ( 1.00)

     48 Sym. Ops., with inversion, found (32 have fractional translation)

   Cartesian axes

     site n.     atom                  positions (alat units)
         1           Au1 tau(   1) = (   0.0000000   0.0000000   0.0000000  )
         2           Au1 tau(   2) = (   0.0000000   2.1985795   2.1985795  )
         3           Au1 tau(   3) = (   2.1985795   0.0000000   2.1985795  )
         4           Y1  tau(   4) = (   2.1985795   2.1985795   0.0000000  )

     number of k points=    84  Fermi-Dirac smearing, width (Ry)=  0.0073
                       cart. coord. in units 2pi/alat
        k(    1) = (   0.0000000   0.0000000   0.0000000), wk =   0.0011574
        k(    2) = (   0.0000000   0.0000000   0.0189516), wk =   0.0069444
        k(    3) = (   0.0000000   0.0000000   0.0379033), wk =   0.0069444
        k(    4) = (   0.0000000   0.0000000   0.0568549), wk =   0.0069444
        k(    5) = (   0.0000000   0.0000000   0.0758065), wk =   0.0069444
        k(    6) = (   0.0000000   0.0000000   0.0947582), wk =   0.0069444
        k(    7) = (   0.0000000   0.0000000  -0.1137098), wk =   0.0034722
        k(    8) = (   0.0000000   0.0189516   0.0189516), wk =   0.0138889
        k(    9) = (   0.0000000   0.0189516   0.0379033), wk =   0.0277778
        k(   10) = (   0.0000000   0.0189516   0.0568549), wk =   0.0277778
        k(   11) = (   0.0000000   0.0189516   0.0758065), wk =   0.0277778
        k(   12) = (   0.0000000   0.0189516   0.0947582), wk =   0.0277778
        k(   13) = (   0.0000000   0.0189516  -0.1137098), wk =   0.0138889
        k(   14) = (   0.0000000   0.0379033   0.0379033), wk =   0.0138889
        k(   15) = (   0.0000000   0.0379033   0.0568549), wk =   0.0277778
        k(   16) = (   0.0000000   0.0379033   0.0758065), wk =   0.0277778
        k(   17) = (   0.0000000   0.0379033   0.0947582), wk =   0.0277778
        k(   18) = (   0.0000000   0.0379033  -0.1137098), wk =   0.0138889
        k(   19) = (   0.0000000   0.0568549   0.0568549), wk =   0.0138889
        k(   20) = (   0.0000000   0.0568549   0.0758065), wk =   0.0277778
        k(   21) = (   0.0000000   0.0568549   0.0947582), wk =   0.0277778
        k(   22) = (   0.0000000   0.0568549  -0.1137098), wk =   0.0138889
        k(   23) = (   0.0000000   0.0758065   0.0758065), wk =   0.0138889
        k(   24) = (   0.0000000   0.0758065   0.0947582), wk =   0.0277778
        k(   25) = (   0.0000000   0.0758065  -0.1137098), wk =   0.0138889
        k(   26) = (   0.0000000   0.0947582   0.0947582), wk =   0.0138889
        k(   27) = (   0.0000000   0.0947582  -0.1137098), wk =   0.0138889
        k(   28) = (   0.0000000  -0.1137098  -0.1137098), wk =   0.0034722
        k(   29) = (   0.0189516   0.0189516   0.0189516), wk =   0.0092593
        k(   30) = (   0.0189516   0.0189516   0.0379033), wk =   0.0277778
        k(   31) = (   0.0189516   0.0189516   0.0568549), wk =   0.0277778
        k(   32) = (   0.0189516   0.0189516   0.0758065), wk =   0.0277778
        k(   33) = (   0.0189516   0.0189516   0.0947582), wk =   0.0277778
        k(   34) = (   0.0189516   0.0189516  -0.1137098), wk =   0.0138889
        k(   35) = (   0.0189516   0.0379033   0.0379033), wk =   0.0277778
        k(   36) = (   0.0189516   0.0379033   0.0568549), wk =   0.0555556
        k(   37) = (   0.0189516   0.0379033   0.0758065), wk =   0.0555556
        k(   38) = (   0.0189516   0.0379033   0.0947582), wk =   0.0555556
        k(   39) = (   0.0189516   0.0379033  -0.1137098), wk =   0.0277778
        k(   40) = (   0.0189516   0.0568549   0.0568549), wk =   0.0277778
        k(   41) = (   0.0189516   0.0568549   0.0758065), wk =   0.0555556
        k(   42) = (   0.0189516   0.0568549   0.0947582), wk =   0.0555556
        k(   43) = (   0.0189516   0.0568549  -0.1137098), wk =   0.0277778
        k(   44) = (   0.0189516   0.0758065   0.0758065), wk =   0.0277778
        k(   45) = (   0.0189516   0.0758065   0.0947582), wk =   0.0555556
        k(   46) = (   0.0189516   0.0758065  -0.1137098), wk =   0.0277778
        k(   47) = (   0.0189516   0.0947582   0.0947582), wk =   0.0277778
        k(   48) = (   0.0189516   0.0947582  -0.1137098), wk =   0.0277778
        k(   49) = (   0.0189516  -0.1137098  -0.1137098), wk =   0.0069444
        k(   50) = (   0.0379033   0.0379033   0.0379033), wk =   0.0092593
        k(   51) = (   0.0379033   0.0379033   0.0568549), wk =   0.0277778
        k(   52) = (   0.0379033   0.0379033   0.0758065), wk =   0.0277778
        k(   53) = (   0.0379033   0.0379033   0.0947582), wk =   0.0277778
        k(   54) = (   0.0379033   0.0379033  -0.1137098), wk =   0.0138889
        k(   55) = (   0.0379033   0.0568549   0.0568549), wk =   0.0277778
        k(   56) = (   0.0379033   0.0568549   0.0758065), wk =   0.0555556
        k(   57) = (   0.0379033   0.0568549   0.0947582), wk =   0.0555556
        k(   58) = (   0.0379033   0.0568549  -0.1137098), wk =   0.0277778
        k(   59) = (   0.0379033   0.0758065   0.0758065), wk =   0.0277778
        k(   60) = (   0.0379033   0.0758065   0.0947582), wk =   0.0555556
[...]
        k(   70) = (   0.0568549   0.0758065   0.0947582), wk =   0.0555556
        k(   71) = (   0.0568549   0.0758065  -0.1137098), wk =   0.0277778
        k(   72) = (   0.0568549   0.0947582   0.0947582), wk =   0.0277778
        k(   73) = (   0.0568549   0.0947582  -0.1137098), wk =   0.0277778
        k(   74) = (   0.0568549  -0.1137098  -0.1137098), wk =   0.0069444
        k(   75) = (   0.0758065   0.0758065   0.0758065), wk =   0.0092593
        k(   76) = (   0.0758065   0.0758065   0.0947582), wk =   0.0277778
        k(   77) = (   0.0758065   0.0758065  -0.1137098), wk =   0.0138889
        k(   78) = (   0.0758065   0.0947582   0.0947582), wk =   0.0277778
        k(   79) = (   0.0758065   0.0947582  -0.1137098), wk =   0.0277778
        k(   80) = (   0.0758065  -0.1137098  -0.1137098), wk =   0.0069444
        k(   81) = (   0.0947582   0.0947582   0.0947582), wk =   0.0092593
        k(   82) = (   0.0947582   0.0947582  -0.1137098), wk =   0.0138889
        k(   83) = (   0.0947582  -0.1137098  -0.1137098), wk =   0.0069444
        k(   84) = (  -0.1137098  -0.1137098  -0.1137098), wk =   0.0011574

     Largest allocated arrays     est. size (Mb)     dimensions
     Largest temporary arrays     est. size (Mb)     dimensions

     Initial potential from superposition of free atoms

     starting charge   43.99516, renormalised to   44.00000

     *
     * You are using vdW-DF for exchange-correlation in this calculation.
     * Please cite the following three references that made this development
     * possible:
     *
     *   M. Dion, H. Rydberg, E. Schroder, D. C. Langreth, and
     *   B. I. Lundqvist, Phys. Rev. Lett. 92, 246401 (2004).
     *
     *   T. Thonhauser, V. R. Cooper, S. Li, A. Puzder, P. Hyldgaard, and
     *   D. C. Langreth, Phys. Rev. B 76, 125112 (2007).
     *
     *   G. Roman-Perez and J. M. Soler, Phys. Rev. Lett. 103, 096102 (2009).
     *
     *
     * If you are using vdW-DF2, please also cite:
     *
     *   K. Lee, E. D. Murray, L. Kong, B. I. Lundqvist, and
     *   D. C. Langreth, Phys. Rev. B 82, 081101(R) (2010).
     *
     *
     * If you are calculating the stress with vdW-DF, please also cite:
     *
     *   R. Sabatini, E. Kucukbenli, B. Kolb, T. Thonhauser, and
     *   S. de Gironcoli, J. Phys.: Condens. Matter 24, 424209 (2012).
     *

     Carrying out vdW-DF run using the following parameters:

     Nqs =      20    Nr_points =    1024   r_max =   100.000
     q_mesh =
               0.00001000     0.04494208     0.09755937     0.15916263
               0.23128650     0.31572767     0.41458969     0.53033537
               0.66584808     0.82450364     1.01025438     1.22772762
               1.48234092     1.78043706     2.12944203     2.53805004
               3.01644009     3.57652955     4.23227104     5.00000000

     Gradients computed in reciprocal space

     Starting wfc are   40 randomized atomic wfcs +    2 random wfc

     Self-consistent Calculation

     iteration #  1     ecut=    58.80 Ry     beta=0.10
     Davidson diagonalization with overlap
     ethr =  1.00E-02,  avg # of iterations =  5.2

     Threshold (ethr) on eigenvalues was too large:
     Diagonalizing with lowered threshold

     Davidson diagonalization with overlap
     ethr =  4.74E-04,  avg # of iterations =  1.4

     total energy              =    -444.07927237 Ry
     Harris-Foulkes estimate   =    -444.09280421 Ry
     estimated scf accuracy    <       0.21276926 Ry

[...]

     total energy              =    -444.04469840 Ry
     Harris-Foulkes estimate   =    -444.04469632 Ry
     estimated scf accuracy    <       0.00000004 Ry

     iteration # 12     ecut=    58.80 Ry     beta=0.10
     Davidson diagonalization with overlap
     ethr =  5.11E-11,  avg # of iterations =  2.0

     End of self-consistent calculation

          k = 0.0000 0.0000 0.0000 (  4385 PWs)   bands (ev):

   -30.7963 -10.7013 -10.7013 -10.7013   4.9218   6.8930   6.8930   7.1174
     7.1951   7.1951   7.1951   8.6508   8.6508   8.6508   9.6208   9.6208
     9.9639  10.4070  10.4070  10.4070  13.8967  13.8967  14.3653  14.3653
    14.3653  16.5071  16.5071  16.5071  18.8646  18.8646  20.6335  20.6335
    20.6335  21.1970  23.5572  23.5572  23.5572  25.7342  28.3717  28.3717
    29.3147  29.3147

[...]

          k = 0.0948-0.1137-0.1137 (  4344 PWs)   bands (ev):

[...]

          k =-0.1137-0.1137-0.1137 (  4416 PWs)   bands (ev):

   -30.7924 -10.7322 -10.7322 -10.7322   6.7882   6.7882   6.7882   7.0279
     8.2142   8.2142   8.2142   8.8091   8.8091   8.8091   8.8881   8.8881
    10.1206  10.1206  10.1206  12.4480  12.5840  12.5840  12.5840  12.8112
    12.8112  12.8112  16.3461  16.3461  18.6083  18.6083  18.6083  19.3836
    25.0209  25.0209  25.0209  25.8117  26.2969  26.2969  26.2969  27.5578
    27.5578  30.6539

     the Fermi energy is    12.8779 ev

!    total energy              =    -444.04470602 Ry
     Harris-Foulkes estimate   =    -444.04469841 Ry
     estimated scf accuracy    <          9.2E-10 Ry

     The total energy is the sum of the following terms:

     one-electron contribution =       1.53899232 Ry
     hartree contribution      =      41.83422197 Ry
     xc contribution           =    -220.35805442 Ry
     ewald contribution        =    -267.05493385 Ry
     smearing contrib. (-TS)   =      -0.00493205 Ry

     convergence has been achieved in  12 iterations

     Forces acting on atoms (Ry/au):

     atom    1 type  1   force =     0.00000000    0.00000000    0.00000000
     atom    2 type  1   force =     0.00000000    0.00000000    0.00000000
     atom    3 type  1   force =     0.00000000    0.00000000   -0.00000000
     atom    4 type  2   force =     0.00000000    0.00000000    0.00000000

     Total force =     0.000000     Total SCF correction =     0.000000
 !ASE

     General routines

     Parallel routines

   This run was terminated on:   8:35:15  25Oct2017

   JOB DONE.