     Program PWSCF v.5.1rc2 (svn rev. ) starts on 25Oct2017 at 11:32:27

     Current dimensions of program PWSCF are:
     Max number of different atomic species (ntypx) = 10
     Max number of k-points (npk) =  40000
     Max angular momentum in pseudopotentials (lmaxx) =  3

     IMPORTANT: XC functional enforced from input :
     Exchange-correlation      = BEEF-VDW ( 1  4 27 13 2)
     Any further DFT definition will be discarded
     Please, verify this is what you really want

     Subspace diagonalization in iterative solution of the eigenvalue problem:
     a serial algorithm will be used

     bravais-lattice index     =            0
     lattice parameter (alat)  =       1.8897  a.u.
     unit-cell volume          =     576.3052 (a.u.)^3
     number of atoms/cell      =            4
     number of atomic types    =            2
     number of electrons       =        52.00
     number of Kohn-Sham states=           46
     kinetic-energy cutoff     =      58.7989  Ry
     charge density cutoff     =     587.9892  Ry
     convergence threshold     =      7.3E-09
     mixing beta               =       0.1000
     number of iterations used =           10  local-TF  mixing
     Exchange-correlation      = BEEF-VDW ( 1  4 27 13 2)
     nstep                     =           50

     celldm(1)=   1.889726  celldm(2)=   0.000000  celldm(3)=   0.000000
     celldm(4)=   0.000000  celldm(5)=   0.000000  celldm(6)=   0.000000

     crystal axes: (cart. coord. in units of alat)
               a(1) = (   4.403709   0.000000   0.000000 )
               a(2) = (   0.000000   4.403709   0.000000 )
               a(3) = (   0.000000   0.000000   4.403709 )

     reciprocal axes: (cart. coord. in units 2 pi/alat)
               b(1) = (  0.227081  0.000000  0.000000 )
               b(2) = (  0.000000  0.227081  0.000000 )
               b(3) = (  0.000000  0.000000  0.227081 )

     PseudoPot. # 1 for In read from file:
     /home/vossj/suncat/psp/gbrv1.5pbe/In.UPF
     MD5 check sum: 90777abd96fbb83f2e67db2a40c566b9
     Pseudo is Ultrasoft + core correction, Zval = 13.0
     Generated by new atomic code, or converted to UPF format
     Using radial grid of  889 points,  6 beta functions with:
                l(1) =   0
                l(2) =   0
                l(3) =   1
                l(4) =   1
                l(5) =   2
                l(6) =   2
     Q(r) pseudized with  6 coefficients,  rinner =    1.400   1.400   1.400
                                                       1.400   1.400

     PseudoPot. # 2 for V  read from file:
     /home/vossj/suncat/psp/gbrv1.5pbe/V.UPF
     MD5 check sum: 22b79981416ebb76fdaf5b1b8640f6fb
     Pseudo is Ultrasoft + core correction, Zval = 13.0
     Generated by new atomic code, or converted to UPF format
     Using radial grid of  853 points,  6 beta functions with:
                l(1) =   0
                l(2) =   0
                l(3) =   1
                l(4) =   1
                l(5) =   2
                l(6) =   2
     Q(r) pseudized with  8 coefficients,  rinner =    1.100   1.100   1.100
                                                       1.100   1.100

     vdW kernel table read from file vdW_kernel_table
     MD5 check sum: 095c7af220d748ca6e76c0b4c6cfb241

     atomic species   valence    mass     pseudopotential
        In1           13.00   114.81800     In( 1.00)
        V1            13.00    50.94150     V ( 1.00)

     48 Sym. Ops., with inversion, found (32 have fractional translation)

   Cartesian axes

     site n.     atom                  positions (alat units)
         1           In1 tau(   1) = (   0.0000000   0.0000000   0.0000000  )
         2           In1 tau(   2) = (   0.0000000   2.2018547   2.2018547  )
         3           In1 tau(   3) = (   2.2018547   0.0000000   2.2018547  )
         4           V1  tau(   4) = (   2.2018547   2.2018547   0.0000000  )

     number of k points=    84  Fermi-Dirac smearing, width (Ry)=  0.0073
                       cart. coord. in units 2pi/alat
        k(    1) = (   0.0000000   0.0000000   0.0000000), wk =   0.0011574
        k(    2) = (   0.0000000   0.0000000   0.0189234), wk =   0.0069444
        k(    3) = (   0.0000000   0.0000000   0.0378469), wk =   0.0069444
        k(    4) = (   0.0000000   0.0000000   0.0567703), wk =   0.0069444
        k(    5) = (   0.0000000   0.0000000   0.0756938), wk =   0.0069444
        k(    6) = (   0.0000000   0.0000000   0.0946172), wk =   0.0069444
        k(    7) = (   0.0000000   0.0000000  -0.1135406), wk =   0.0034722
        k(    8) = (   0.0000000   0.0189234   0.0189234), wk =   0.0138889
        k(    9) = (   0.0000000   0.0189234   0.0378469), wk =   0.0277778
        k(   10) = (   0.0000000   0.0189234   0.0567703), wk =   0.0277778
        k(   11) = (   0.0000000   0.0189234   0.0756938), wk =   0.0277778
        k(   12) = (   0.0000000   0.0189234   0.0946172), wk =   0.0277778
        k(   13) = (   0.0000000   0.0189234  -0.1135406), wk =   0.0138889
        k(   14) = (   0.0000000   0.0378469   0.0378469), wk =   0.0138889
        k(   15) = (   0.0000000   0.0378469   0.0567703), wk =   0.0277778
        k(   16) = (   0.0000000   0.0378469   0.0756938), wk =   0.0277778
        k(   17) = (   0.0000000   0.0378469   0.0946172), wk =   0.0277778
        k(   18) = (   0.0000000   0.0378469  -0.1135406), wk =   0.0138889
        k(   19) = (   0.0000000   0.0567703   0.0567703), wk =   0.0138889
        k(   20) = (   0.0000000   0.0567703   0.0756938), wk =   0.0277778
        k(   21) = (   0.0000000   0.0567703   0.0946172), wk =   0.0277778
        k(   22) = (   0.0000000   0.0567703  -0.1135406), wk =   0.0138889
        k(   23) = (   0.0000000   0.0756938   0.0756938), wk =   0.0138889
        k(   24) = (   0.0000000   0.0756938   0.0946172), wk =   0.0277778
        k(   25) = (   0.0000000   0.0756938  -0.1135406), wk =   0.0138889
        k(   26) = (   0.0000000   0.0946172   0.0946172), wk =   0.0138889
        k(   27) = (   0.0000000   0.0946172  -0.1135406), wk =   0.0138889
        k(   28) = (   0.0000000  -0.1135406  -0.1135406), wk =   0.0034722
        k(   29) = (   0.0189234   0.0189234   0.0189234), wk =   0.0092593
        k(   30) = (   0.0189234   0.0189234   0.0378469), wk =   0.0277778
        k(   31) = (   0.0189234   0.0189234   0.0567703), wk =   0.0277778
        k(   32) = (   0.0189234   0.0189234   0.0756938), wk =   0.0277778
        k(   33) = (   0.0189234   0.0189234   0.0946172), wk =   0.0277778
        k(   34) = (   0.0189234   0.0189234  -0.1135406), wk =   0.0138889
        k(   35) = (   0.0189234   0.0378469   0.0378469), wk =   0.0277778
        k(   36) = (   0.0189234   0.0378469   0.0567703), wk =   0.0555556
        k(   37) = (   0.0189234   0.0378469   0.0756938), wk =   0.0555556
        k(   38) = (   0.0189234   0.0378469   0.0946172), wk =   0.0555556
        k(   39) = (   0.0189234   0.0378469  -0.1135406), wk =   0.0277778
        k(   40) = (   0.0189234   0.0567703   0.0567703), wk =   0.0277778
        k(   41) = (   0.0189234   0.0567703   0.0756938), wk =   0.0555556
        k(   42) = (   0.0189234   0.0567703   0.0946172), wk =   0.0555556
        k(   43) = (   0.0189234   0.0567703  -0.1135406), wk =   0.0277778
        k(   44) = (   0.0189234   0.0756938   0.0756938), wk =   0.0277778
        k(   45) = (   0.0189234   0.0756938   0.0946172), wk =   0.0555556
        k(   46) = (   0.0189234   0.0756938  -0.1135406), wk =   0.0277778
        k(   47) = (   0.0189234   0.0946172   0.0946172), wk =   0.0277778
        k(   48) = (   0.0189234   0.0946172  -0.1135406), wk =   0.0277778
        k(   49) = (   0.0189234  -0.1135406  -0.1135406), wk =   0.0069444
        k(   50) = (   0.0378469   0.0378469   0.0378469), wk =   0.0092593
        k(   51) = (   0.0378469   0.0378469   0.0567703), wk =   0.0277778
        k(   52) = (   0.0378469   0.0378469   0.0756938), wk =   0.0277778
        k(   53) = (   0.0378469   0.0378469   0.0946172), wk =   0.0277778
        k(   54) = (   0.0378469   0.0378469  -0.1135406), wk =   0.0138889
        k(   55) = (   0.0378469   0.0567703   0.0567703), wk =   0.0277778
        k(   56) = (   0.0378469   0.0567703   0.0756938), wk =   0.0555556
        k(   57) = (   0.0378469   0.0567703   0.0946172), wk =   0.0555556
        k(   58) = (   0.0378469   0.0567703  -0.1135406), wk =   0.0277778
        k(   59) = (   0.0378469   0.0756938   0.0756938), wk =   0.0277778
        k(   60) = (   0.0378469   0.0756938   0.0946172), wk =   0.0555556
[...]
        k(   70) = (   0.0567703   0.0756938   0.0946172), wk =   0.0555556
        k(   71) = (   0.0567703   0.0756938  -0.1135406), wk =   0.0277778
        k(   72) = (   0.0567703   0.0946172   0.0946172), wk =   0.0277778
        k(   73) = (   0.0567703   0.0946172  -0.1135406), wk =   0.0277778
        k(   74) = (   0.0567703  -0.1135406  -0.1135406), wk =   0.0069444
        k(   75) = (   0.0756938   0.0756938   0.0756938), wk =   0.0092593
        k(   76) = (   0.0756938   0.0756938   0.0946172), wk =   0.0277778
        k(   77) = (   0.0756938   0.0756938  -0.1135406), wk =   0.0138889
        k(   78) = (   0.0756938   0.0946172   0.0946172), wk =   0.0277778
        k(   79) = (   0.0756938   0.0946172  -0.1135406), wk =   0.0277778
        k(   80) = (   0.0756938  -0.1135406  -0.1135406), wk =   0.0069444
        k(   81) = (   0.0946172   0.0946172   0.0946172), wk =   0.0092593
        k(   82) = (   0.0946172   0.0946172  -0.1135406), wk =   0.0138889
        k(   83) = (   0.0946172  -0.1135406  -0.1135406), wk =   0.0069444
        k(   84) = (  -0.1135406  -0.1135406  -0.1135406), wk =   0.0011574

     Largest allocated arrays     est. size (Mb)     dimensions
     Largest temporary arrays     est. size (Mb)     dimensions

     Initial potential from superposition of free atoms
     Check: negative starting charge=   -0.000485

     starting charge   47.49877, renormalised to   52.00000

     negative rho (up, down):  5.310E-04 0.000E+00

     *
     * You are using vdW-DF for exchange-correlation in this calculation.
     * Please cite the following three references that made this development
     * possible:
     *
     *   M. Dion, H. Rydberg, E. Schroder, D. C. Langreth, and
     *   B. I. Lundqvist, Phys. Rev. Lett. 92, 246401 (2004).
     *
     *   T. Thonhauser, V. R. Cooper, S. Li, A. Puzder, P. Hyldgaard, and
     *   D. C. Langreth, Phys. Rev. B 76, 125112 (2007).
     *
     *   G. Roman-Perez and J. M. Soler, Phys. Rev. Lett. 103, 096102 (2009).
     *
     *
     * If you are using vdW-DF2, please also cite:
     *
     *   K. Lee, E. D. Murray, L. Kong, B. I. Lundqvist, and
     *   D. C. Langreth, Phys. Rev. B 82, 081101(R) (2010).
     *
     *
     * If you are calculating the stress with vdW-DF, please also cite:
     *
     *   R. Sabatini, E. Kucukbenli, B. Kolb, T. Thonhauser, and
     *   S. de Gironcoli, J. Phys.: Condens. Matter 24, 424209 (2012).
     *

     Carrying out vdW-DF run using the following parameters:

     Nqs =      20    Nr_points =    1024   r_max =   100.000
     q_mesh =
               0.00001000     0.04494208     0.09755937     0.15916263
               0.23128650     0.31572767     0.41458969     0.53033537
               0.66584808     0.82450364     1.01025438     1.22772762
               1.48234092     1.78043706     2.12944203     2.53805004
               3.01644009     3.57652955     4.23227104     5.00000000

     Gradients computed in reciprocal space

     Starting wfc are   37 randomized atomic wfcs +    9 random wfc

     Self-consistent Calculation

     iteration #  1     ecut=    58.80 Ry     beta=0.10
     Davidson diagonalization with overlap
     ethr =  1.00E-02,  avg # of iterations =  4.9

[...]

     total energy              =    -552.64035600 Ry
     Harris-Foulkes estimate   =    -553.39285188 Ry
     estimated scf accuracy    <      10.97326907 Ry

[...]

     total energy              =    -550.04884380 Ry
     Harris-Foulkes estimate   =    -550.04884373 Ry
     estimated scf accuracy    <          9.7E-09 Ry

     iteration # 28     ecut=    58.80 Ry     beta=0.10
     Davidson diagonalization with overlap
     ethr =  1.87E-11,  avg # of iterations =  4.1

     negative rho (up, down):  4.204E-04 0.000E+00

     End of self-consistent calculation

          k = 0.0000 0.0000 0.0000 (  4385 PWs)   bands (ev):

   -52.1171 -25.9465 -25.9465 -25.9465  -3.1169  -3.0814  -3.0814  -3.0814
    -2.8131  -2.8131  -2.5723  -2.5723  -2.5723  -2.4958  -2.4958  -2.2890
    -2.2692  -2.2692  -2.2692   2.2828   9.9160   9.9160  10.3846  10.3846
    10.3846  12.4963  12.4963  12.4963  14.0188  14.0188  14.4368  17.3150
    17.3150  17.3150  18.7680  18.7680  18.7680  22.3008  22.3008  22.3008
    22.3307  22.3307  24.0390  24.8292  26.4314  26.4314

[...]

          k = 0.0946-0.1135-0.1135 (  4360 PWs)   bands (ev):

[...]

          k =-0.1135-0.1135-0.1135 (  4416 PWs)   bands (ev):

   -52.1169 -25.9479 -25.9479 -25.9479  -2.9431  -2.9431  -2.9431  -2.8878
    -2.8119  -2.8119  -2.8119  -2.5806  -2.5806  -2.5806  -2.4960  -2.4960
    -2.3049  -2.3049  -2.3049   7.6359   7.6359   7.6359   8.1518   9.2822
     9.2822   9.2822  12.7887  12.7887  12.9896  13.5570  13.5570  13.5570
    22.4087  22.4087  22.8282  22.8282  22.8282  23.8492  24.0798  24.0798
    24.0798  25.6948  25.6948  25.6948  26.8898  26.8898

     the Fermi energy is    12.5117 ev

!    total energy              =    -550.04884414 Ry
     Harris-Foulkes estimate   =    -550.04884380 Ry
     estimated scf accuracy    <          1.7E-09 Ry

     The total energy is the sum of the following terms:

     one-electron contribution =    -160.80753064 Ry
     hartree contribution      =     121.21117024 Ry
     xc contribution           =    -137.99794545 Ry
     ewald contribution        =    -372.43926021 Ry
     smearing contrib. (-TS)   =      -0.01527808 Ry

     convergence has been achieved in  28 iterations

     Forces acting on atoms (Ry/au):

     negative rho (up, down):  4.204E-04 0.000E+00
     atom    1 type  1   force =     0.00000000    0.00000000    0.00000000
     atom    2 type  1   force =     0.00000000    0.00000000    0.00000000
     atom    3 type  1   force =     0.00000000   -0.00000000    0.00000000
     atom    4 type  2   force =     0.00000000    0.00000000    0.00000000

     Total force =     0.000000     Total SCF correction =     0.000000
 !ASE

     General routines

     Parallel routines

   This run was terminated on:  11:35:26  25Oct2017

   JOB DONE.