     Program PWSCF v.5.1rc2 (svn rev. ) starts on 25Oct2017 at 23:19:34

     Current dimensions of program PWSCF are:
     Max number of different atomic species (ntypx) = 10
     Max number of k-points (npk) =  40000
     Max angular momentum in pseudopotentials (lmaxx) =  3

     IMPORTANT: XC functional enforced from input :
     Exchange-correlation      = BEEF-VDW ( 1  4 27 13 2)
     Any further DFT definition will be discarded
     Please, verify this is what you really want

     Subspace diagonalization in iterative solution of the eigenvalue problem:
     a serial algorithm will be used

     bravais-lattice index     =            0
     lattice parameter (alat)  =       1.8897  a.u.
     unit-cell volume          =     428.0876 (a.u.)^3
     number of atoms/cell      =            4
     number of atomic types    =            2
     number of electrons       =        50.00
     number of Kohn-Sham states=           45
     kinetic-energy cutoff     =      58.7989  Ry
     charge density cutoff     =     587.9892  Ry
     convergence threshold     =      7.3E-09
     mixing beta               =       0.1000
     number of iterations used =           10  local-TF  mixing
     Exchange-correlation      = BEEF-VDW ( 1  4 27 13 2)
     nstep                     =           50

     celldm(1)=   1.889726  celldm(2)=   0.000000  celldm(3)=   0.000000
     celldm(4)=   0.000000  celldm(5)=   0.000000  celldm(6)=   0.000000

     crystal axes: (cart. coord. in units of alat)
               a(1) = (   3.988216   0.000000   0.000000 )
               a(2) = (   0.000000   3.988216   0.000000 )
               a(3) = (   0.000000   0.000000   3.988216 )

     reciprocal axes: (cart. coord. in units 2 pi/alat)
               b(1) = (  0.250739  0.000000  0.000000 )
               b(2) = (  0.000000  0.250739  0.000000 )
               b(3) = (  0.000000  0.000000  0.250739 )

     PseudoPot. # 1 for V  read from file:
     /home/vossj/suncat/psp/gbrv1.5pbe/V.UPF
     MD5 check sum: 22b79981416ebb76fdaf5b1b8640f6fb
     Pseudo is Ultrasoft + core correction, Zval = 13.0
     Generated by new atomic code, or converted to UPF format
     Using radial grid of  853 points,  6 beta functions with:
                l(1) =   0
                l(2) =   0
                l(3) =   1
                l(4) =   1
                l(5) =   2
                l(6) =   2
     Q(r) pseudized with  8 coefficients,  rinner =    1.100   1.100   1.100
                                                       1.100   1.100

     PseudoPot. # 2 for Sc read from file:
     /home/vossj/suncat/psp/gbrv1.5pbe/Sc.UPF
     MD5 check sum: db30a2753ba66ef00f23801d899b7e7f
     Pseudo is Ultrasoft + core correction, Zval = 11.0
     Generated by new atomic code, or converted to UPF format
     Using radial grid of  849 points,  6 beta functions with:
                l(1) =   0
                l(2) =   0
                l(3) =   1
                l(4) =   1
                l(5) =   2
                l(6) =   2
     Q(r) pseudized with  6 coefficients,  rinner =    1.200   1.200   1.200
                                                       1.200   1.200

     vdW kernel table read from file vdW_kernel_table
     MD5 check sum: 095c7af220d748ca6e76c0b4c6cfb241

     atomic species   valence    mass     pseudopotential
        V1            13.00    50.94150     V ( 1.00)
        Sc1           11.00    44.95591     Sc( 1.00)

     48 Sym. Ops., with inversion, found (32 have fractional translation)

   Cartesian axes

     site n.     atom                  positions (alat units)
         1           V1  tau(   1) = (   0.0000000   0.0000000   0.0000000  )
         2           V1  tau(   2) = (   0.0000000   1.9941081   1.9941081  )
         3           V1  tau(   3) = (   1.9941081   0.0000000   1.9941081  )
         4           Sc1 tau(   4) = (   1.9941081   1.9941081   0.0000000  )

     number of k points=    84  Fermi-Dirac smearing, width (Ry)=  0.0073
                       cart. coord. in units 2pi/alat
        k(    1) = (   0.0000000   0.0000000   0.0000000), wk =   0.0011574
        k(    2) = (   0.0000000   0.0000000   0.0208949), wk =   0.0069444
        k(    3) = (   0.0000000   0.0000000   0.0417898), wk =   0.0069444
        k(    4) = (   0.0000000   0.0000000   0.0626847), wk =   0.0069444
        k(    5) = (   0.0000000   0.0000000   0.0835796), wk =   0.0069444
        k(    6) = (   0.0000000   0.0000000   0.1044744), wk =   0.0069444
        k(    7) = (   0.0000000   0.0000000  -0.1253693), wk =   0.0034722
        k(    8) = (   0.0000000   0.0208949   0.0208949), wk =   0.0138889
        k(    9) = (   0.0000000   0.0208949   0.0417898), wk =   0.0277778
        k(   10) = (   0.0000000   0.0208949   0.0626847), wk =   0.0277778
        k(   11) = (   0.0000000   0.0208949   0.0835796), wk =   0.0277778
        k(   12) = (   0.0000000   0.0208949   0.1044744), wk =   0.0277778
        k(   13) = (   0.0000000   0.0208949  -0.1253693), wk =   0.0138889
        k(   14) = (   0.0000000   0.0417898   0.0417898), wk =   0.0138889
        k(   15) = (   0.0000000   0.0417898   0.0626847), wk =   0.0277778
        k(   16) = (   0.0000000   0.0417898   0.0835796), wk =   0.0277778
        k(   17) = (   0.0000000   0.0417898   0.1044744), wk =   0.0277778
        k(   18) = (   0.0000000   0.0417898  -0.1253693), wk =   0.0138889
        k(   19) = (   0.0000000   0.0626847   0.0626847), wk =   0.0138889
        k(   20) = (   0.0000000   0.0626847   0.0835796), wk =   0.0277778
        k(   21) = (   0.0000000   0.0626847   0.1044744), wk =   0.0277778
        k(   22) = (   0.0000000   0.0626847  -0.1253693), wk =   0.0138889
        k(   23) = (   0.0000000   0.0835796   0.0835796), wk =   0.0138889
        k(   24) = (   0.0000000   0.0835796   0.1044744), wk =   0.0277778
        k(   25) = (   0.0000000   0.0835796  -0.1253693), wk =   0.0138889
        k(   26) = (   0.0000000   0.1044744   0.1044744), wk =   0.0138889
        k(   27) = (   0.0000000   0.1044744  -0.1253693), wk =   0.0138889
        k(   28) = (   0.0000000  -0.1253693  -0.1253693), wk =   0.0034722
        k(   29) = (   0.0208949   0.0208949   0.0208949), wk =   0.0092593
        k(   30) = (   0.0208949   0.0208949   0.0417898), wk =   0.0277778
        k(   31) = (   0.0208949   0.0208949   0.0626847), wk =   0.0277778
        k(   32) = (   0.0208949   0.0208949   0.0835796), wk =   0.0277778
        k(   33) = (   0.0208949   0.0208949   0.1044744), wk =   0.0277778
        k(   34) = (   0.0208949   0.0208949  -0.1253693), wk =   0.0138889
        k(   35) = (   0.0208949   0.0417898   0.0417898), wk =   0.0277778
        k(   36) = (   0.0208949   0.0417898   0.0626847), wk =   0.0555556
        k(   37) = (   0.0208949   0.0417898   0.0835796), wk =   0.0555556
        k(   38) = (   0.0208949   0.0417898   0.1044744), wk =   0.0555556
        k(   39) = (   0.0208949   0.0417898  -0.1253693), wk =   0.0277778
        k(   40) = (   0.0208949   0.0626847   0.0626847), wk =   0.0277778
        k(   41) = (   0.0208949   0.0626847   0.0835796), wk =   0.0555556
        k(   42) = (   0.0208949   0.0626847   0.1044744), wk =   0.0555556
        k(   43) = (   0.0208949   0.0626847  -0.1253693), wk =   0.0277778
        k(   44) = (   0.0208949   0.0835796   0.0835796), wk =   0.0277778
        k(   45) = (   0.0208949   0.0835796   0.1044744), wk =   0.0555556
        k(   46) = (   0.0208949   0.0835796  -0.1253693), wk =   0.0277778
        k(   47) = (   0.0208949   0.1044744   0.1044744), wk =   0.0277778
        k(   48) = (   0.0208949   0.1044744  -0.1253693), wk =   0.0277778
        k(   49) = (   0.0208949  -0.1253693  -0.1253693), wk =   0.0069444
        k(   50) = (   0.0417898   0.0417898   0.0417898), wk =   0.0092593
        k(   51) = (   0.0417898   0.0417898   0.0626847), wk =   0.0277778
        k(   52) = (   0.0417898   0.0417898   0.0835796), wk =   0.0277778
        k(   53) = (   0.0417898   0.0417898   0.1044744), wk =   0.0277778
        k(   54) = (   0.0417898   0.0417898  -0.1253693), wk =   0.0138889
        k(   55) = (   0.0417898   0.0626847   0.0626847), wk =   0.0277778
        k(   56) = (   0.0417898   0.0626847   0.0835796), wk =   0.0555556
        k(   57) = (   0.0417898   0.0626847   0.1044744), wk =   0.0555556
        k(   58) = (   0.0417898   0.0626847  -0.1253693), wk =   0.0277778
        k(   59) = (   0.0417898   0.0835796   0.0835796), wk =   0.0277778
        k(   60) = (   0.0417898   0.0835796   0.1044744), wk =   0.0555556
[...]
        k(   70) = (   0.0626847   0.0835796   0.1044744), wk =   0.0555556
        k(   71) = (   0.0626847   0.0835796  -0.1253693), wk =   0.0277778
        k(   72) = (   0.0626847   0.1044744   0.1044744), wk =   0.0277778
        k(   73) = (   0.0626847   0.1044744  -0.1253693), wk =   0.0277778
        k(   74) = (   0.0626847  -0.1253693  -0.1253693), wk =   0.0069444
        k(   75) = (   0.0835796   0.0835796   0.0835796), wk =   0.0092593
        k(   76) = (   0.0835796   0.0835796   0.1044744), wk =   0.0277778
        k(   77) = (   0.0835796   0.0835796  -0.1253693), wk =   0.0138889
        k(   78) = (   0.0835796   0.1044744   0.1044744), wk =   0.0277778
        k(   79) = (   0.0835796   0.1044744  -0.1253693), wk =   0.0277778
        k(   80) = (   0.0835796  -0.1253693  -0.1253693), wk =   0.0069444
        k(   81) = (   0.1044744   0.1044744   0.1044744), wk =   0.0092593
        k(   82) = (   0.1044744   0.1044744  -0.1253693), wk =   0.0138889
        k(   83) = (   0.1044744  -0.1253693  -0.1253693), wk =   0.0069444
        k(   84) = (  -0.1253693  -0.1253693  -0.1253693), wk =   0.0011574

     Largest allocated arrays     est. size (Mb)     dimensions
     Largest temporary arrays     est. size (Mb)     dimensions

     Check: negative/imaginary core charge=   -0.000003    0.000000

     Initial potential from superposition of free atoms
     Check: negative starting charge=   -0.001293

     starting charge   49.99392, renormalised to   50.00000

     negative rho (up, down):  1.293E-03 0.000E+00

     *
     * You are using vdW-DF for exchange-correlation in this calculation.
     * Please cite the following three references that made this development
     * possible:
     *
     *   M. Dion, H. Rydberg, E. Schroder, D. C. Langreth, and
     *   B. I. Lundqvist, Phys. Rev. Lett. 92, 246401 (2004).
     *
     *   T. Thonhauser, V. R. Cooper, S. Li, A. Puzder, P. Hyldgaard, and
     *   D. C. Langreth, Phys. Rev. B 76, 125112 (2007).
     *
     *   G. Roman-Perez and J. M. Soler, Phys. Rev. Lett. 103, 096102 (2009).
     *
     *
     * If you are using vdW-DF2, please also cite:
     *
     *   K. Lee, E. D. Murray, L. Kong, B. I. Lundqvist, and
     *   D. C. Langreth, Phys. Rev. B 82, 081101(R) (2010).
     *
     *
     * If you are calculating the stress with vdW-DF, please also cite:
     *
     *   R. Sabatini, E. Kucukbenli, B. Kolb, T. Thonhauser, and
     *   S. de Gironcoli, J. Phys.: Condens. Matter 24, 424209 (2012).
     *

     Carrying out vdW-DF run using the following parameters:

     Nqs =      20    Nr_points =    1024   r_max =   100.000
     q_mesh =
               0.00001000     0.04494208     0.09755937     0.15916263
               0.23128650     0.31572767     0.41458969     0.53033537
               0.66584808     0.82450364     1.01025438     1.22772762
               1.48234092     1.78043706     2.12944203     2.53805004
               3.01644009     3.57652955     4.23227104     5.00000000

     Gradients computed in reciprocal space

     Starting wfc are   43 randomized atomic wfcs +    2 random wfc

     Self-consistent Calculation

     iteration #  1     ecut=    58.80 Ry     beta=0.10
     Davidson diagonalization with overlap
     ethr =  1.00E-02,  avg # of iterations =  3.3

     Threshold (ethr) on eigenvalues was too large:
     Diagonalizing with lowered threshold

     Davidson diagonalization with overlap
     ethr =  1.47E-04,  avg # of iterations =  1.2

[...]

     total energy              =    -532.12403742 Ry
     Harris-Foulkes estimate   =    -532.12738203 Ry
     estimated scf accuracy    <       0.07372011 Ry

[...]

     total energy              =    -532.11559067 Ry
     Harris-Foulkes estimate   =    -532.11558923 Ry
     estimated scf accuracy    <       0.00000004 Ry

     iteration # 10     ecut=    58.80 Ry     beta=0.10
     Davidson diagonalization with overlap
     ethr =  7.11E-11,  avg # of iterations =  1.9

     negative rho (up, down):  1.637E-03 0.000E+00

     End of self-consistent calculation

          k = 0.0000 0.0000 0.0000 (  3239 PWs)   bands (ev):

   -50.1957 -50.1018 -50.1018 -34.6688 -24.1277 -24.1277 -24.1277 -23.9083
   -23.9083 -23.9083 -23.7755 -23.7755 -23.7755 -13.3132 -13.3132 -13.3132
     7.8087  11.1420  11.1420  11.2968  11.9893  11.9893  11.9893  14.4918
    14.4918  14.4918  15.9162  15.9162  16.5856  16.8393  16.8393  16.8393
    17.2056  17.2056  17.2056  18.0884  18.0884  18.7559  18.7559  18.7559
    24.9168  25.2683  25.2683  26.0702  26.0702

[...]

          k = 0.1045-0.1254-0.1254 (  3244 PWs)   bands (ev):

[...]

          k =-0.1254-0.1254-0.1254 (  3184 PWs)   bands (ev):

   -50.1324 -50.1324 -50.1324 -34.6654 -24.2364 -24.1045 -24.1045 -24.1045
   -23.7896 -23.7896 -23.7896 -23.7839 -23.7839 -13.3334 -13.3334 -13.3334
    11.1541  11.1541  11.1541  11.5337  14.0653  14.0653  14.0653  14.4614
    14.4614  14.4614  14.5125  14.7670  14.7670  14.9772  14.9772  14.9772
    16.5950  16.5950  16.5950  17.8693  17.8693  17.8693  18.3261  18.3261
    22.7074  22.7074  22.7074  23.0001  29.5363

     the Fermi energy is    14.0189 ev

!    total energy              =    -532.11559687 Ry
     Harris-Foulkes estimate   =    -532.11559068 Ry
     estimated scf accuracy    <          4.6E-09 Ry

     The total energy is the sum of the following terms:

     one-electron contribution =    -191.30894396 Ry
     hartree contribution      =     115.46222504 Ry
     xc contribution           =     -75.14057504 Ry
     ewald contribution        =    -381.11207102 Ry
     smearing contrib. (-TS)   =      -0.01623189 Ry

     convergence has been achieved in  10 iterations

     Forces acting on atoms (Ry/au):

     negative rho (up, down):  1.637E-03 0.000E+00
     atom    1 type  1   force =     0.00000000    0.00000000    0.00000000
     atom    2 type  1   force =     0.00000000    0.00000000    0.00000000
     atom    3 type  1   force =     0.00000000    0.00000000   -0.00000000
     atom    4 type  2   force =     0.00000000    0.00000000    0.00000000

     Total force =     0.000000     Total SCF correction =     0.000000
 !ASE

     General routines

     Parallel routines

   This run was terminated on:  23:20:12  25Oct2017

   JOB DONE.