     Program PWSCF v.5.1rc2 (svn rev. ) starts on 25Oct2017 at 23:51:32

     Current dimensions of program PWSCF are:
     Max number of different atomic species (ntypx) = 10
     Max number of k-points (npk) =  40000
     Max angular momentum in pseudopotentials (lmaxx) =  3

     IMPORTANT: XC functional enforced from input :
     Exchange-correlation      = BEEF-VDW ( 1  4 27 13 2)
     Any further DFT definition will be discarded
     Please, verify this is what you really want

     Subspace diagonalization in iterative solution of the eigenvalue problem:
     a serial algorithm will be used

     bravais-lattice index     =            0
     lattice parameter (alat)  =       1.8897  a.u.
     unit-cell volume          =     415.0327 (a.u.)^3
     number of atoms/cell      =            4
     number of atomic types    =            2
     number of electrons       =        59.00
     number of Kohn-Sham states=           49
     kinetic-energy cutoff     =      58.7989  Ry
     charge density cutoff     =     587.9892  Ry
     convergence threshold     =      7.3E-09
     mixing beta               =       0.1000
     number of iterations used =           10  local-TF  mixing
     Exchange-correlation      = BEEF-VDW ( 1  4 27 13 2)
     nstep                     =           50

     celldm(1)=   1.889726  celldm(2)=   0.000000  celldm(3)=   0.000000
     celldm(4)=   0.000000  celldm(5)=   0.000000  celldm(6)=   0.000000

     crystal axes: (cart. coord. in units of alat)
               a(1) = (   3.947256   0.000000   0.000000 )
               a(2) = (   0.000000   3.947256   0.000000 )
               a(3) = (   0.000000   0.000000   3.947256 )

     reciprocal axes: (cart. coord. in units 2 pi/alat)
               b(1) = (  0.253341  0.000000  0.000000 )
               b(2) = (  0.000000  0.253341  0.000000 )
               b(3) = (  0.000000  0.000000  0.253341 )

     PseudoPot. # 1 for Re read from file:
     /home/vossj/suncat/psp/gbrv1.5pbe/Re.UPF
     MD5 check sum: 85f993410f3e006da9d71c142b4ad953
     Pseudo is Ultrasoft + core correction, Zval = 15.0
     Generated by new atomic code, or converted to UPF format
     Using radial grid of  981 points,  8 beta functions with:
                l(1) =   0
                l(2) =   0
                l(3) =   1
                l(4) =   1
                l(5) =   2
                l(6) =   2
                l(7) =   3
                l(8) =   3
     Q(r) pseudized with  8 coefficients,  rinner =    1.150   1.150   1.150
                                                       1.150   1.150   1.150
                                                       1.150

     PseudoPot. # 2 for W  read from file:
     /home/vossj/suncat/psp/gbrv1.5pbe/W.UPF
     MD5 check sum: 9c083fa34c2a2ea0f02f1f893e16e1c8
     Pseudo is Ultrasoft + core correction, Zval = 14.0
     Generated by new atomic code, or converted to UPF format
     Using radial grid of  923 points,  8 beta functions with:
                l(1) =   0
                l(2) =   0
                l(3) =   0
                l(4) =   1
                l(5) =   1
                l(6) =   2
                l(7) =   2
                l(8) =   3
     Q(r) pseudized with  6 coefficients,  rinner =    1.350   1.350   1.350
                                                       1.350   1.350   1.350
                                                       1.350

     vdW kernel table read from file vdW_kernel_table
     MD5 check sum: 095c7af220d748ca6e76c0b4c6cfb241

     atomic species   valence    mass     pseudopotential
        Re1           15.00   186.20700     Re( 1.00)
        W1            14.00   183.84000     W ( 1.00)

     48 Sym. Ops., with inversion, found (32 have fractional translation)

   Cartesian axes

     site n.     atom                  positions (alat units)
         1           Re1 tau(   1) = (   0.0000000   0.0000000   0.0000000  )
         2           Re1 tau(   2) = (   0.0000000   1.9736278   1.9736278  )
         3           Re1 tau(   3) = (   1.9736278   0.0000000   1.9736278  )
         4           W1  tau(   4) = (   1.9736278   1.9736278   0.0000000  )

     number of k points=    84  Fermi-Dirac smearing, width (Ry)=  0.0073
                       cart. coord. in units 2pi/alat
        k(    1) = (   0.0000000   0.0000000   0.0000000), wk =   0.0011574
        k(    2) = (   0.0000000   0.0000000   0.0211117), wk =   0.0069444
        k(    3) = (   0.0000000   0.0000000   0.0422234), wk =   0.0069444
        k(    4) = (   0.0000000   0.0000000   0.0633351), wk =   0.0069444
        k(    5) = (   0.0000000   0.0000000   0.0844469), wk =   0.0069444
        k(    6) = (   0.0000000   0.0000000   0.1055586), wk =   0.0069444
        k(    7) = (   0.0000000   0.0000000  -0.1266703), wk =   0.0034722
        k(    8) = (   0.0000000   0.0211117   0.0211117), wk =   0.0138889
        k(    9) = (   0.0000000   0.0211117   0.0422234), wk =   0.0277778
        k(   10) = (   0.0000000   0.0211117   0.0633351), wk =   0.0277778
        k(   11) = (   0.0000000   0.0211117   0.0844469), wk =   0.0277778
        k(   12) = (   0.0000000   0.0211117   0.1055586), wk =   0.0277778
        k(   13) = (   0.0000000   0.0211117  -0.1266703), wk =   0.0138889
        k(   14) = (   0.0000000   0.0422234   0.0422234), wk =   0.0138889
        k(   15) = (   0.0000000   0.0422234   0.0633351), wk =   0.0277778
        k(   16) = (   0.0000000   0.0422234   0.0844469), wk =   0.0277778
        k(   17) = (   0.0000000   0.0422234   0.1055586), wk =   0.0277778
        k(   18) = (   0.0000000   0.0422234  -0.1266703), wk =   0.0138889
        k(   19) = (   0.0000000   0.0633351   0.0633351), wk =   0.0138889
        k(   20) = (   0.0000000   0.0633351   0.0844469), wk =   0.0277778
        k(   21) = (   0.0000000   0.0633351   0.1055586), wk =   0.0277778
        k(   22) = (   0.0000000   0.0633351  -0.1266703), wk =   0.0138889
        k(   23) = (   0.0000000   0.0844469   0.0844469), wk =   0.0138889
        k(   24) = (   0.0000000   0.0844469   0.1055586), wk =   0.0277778
        k(   25) = (   0.0000000   0.0844469  -0.1266703), wk =   0.0138889
        k(   26) = (   0.0000000   0.1055586   0.1055586), wk =   0.0138889
        k(   27) = (   0.0000000   0.1055586  -0.1266703), wk =   0.0138889
        k(   28) = (   0.0000000  -0.1266703  -0.1266703), wk =   0.0034722
        k(   29) = (   0.0211117   0.0211117   0.0211117), wk =   0.0092593
        k(   30) = (   0.0211117   0.0211117   0.0422234), wk =   0.0277778
        k(   31) = (   0.0211117   0.0211117   0.0633351), wk =   0.0277778
        k(   32) = (   0.0211117   0.0211117   0.0844469), wk =   0.0277778
        k(   33) = (   0.0211117   0.0211117   0.1055586), wk =   0.0277778
        k(   34) = (   0.0211117   0.0211117  -0.1266703), wk =   0.0138889
        k(   35) = (   0.0211117   0.0422234   0.0422234), wk =   0.0277778
        k(   36) = (   0.0211117   0.0422234   0.0633351), wk =   0.0555556
        k(   37) = (   0.0211117   0.0422234   0.0844469), wk =   0.0555556
        k(   38) = (   0.0211117   0.0422234   0.1055586), wk =   0.0555556
        k(   39) = (   0.0211117   0.0422234  -0.1266703), wk =   0.0277778
        k(   40) = (   0.0211117   0.0633351   0.0633351), wk =   0.0277778
        k(   41) = (   0.0211117   0.0633351   0.0844469), wk =   0.0555556
        k(   42) = (   0.0211117   0.0633351   0.1055586), wk =   0.0555556
        k(   43) = (   0.0211117   0.0633351  -0.1266703), wk =   0.0277778
        k(   44) = (   0.0211117   0.0844469   0.0844469), wk =   0.0277778
        k(   45) = (   0.0211117   0.0844469   0.1055586), wk =   0.0555556
        k(   46) = (   0.0211117   0.0844469  -0.1266703), wk =   0.0277778
        k(   47) = (   0.0211117   0.1055586   0.1055586), wk =   0.0277778
        k(   48) = (   0.0211117   0.1055586  -0.1266703), wk =   0.0277778
        k(   49) = (   0.0211117  -0.1266703  -0.1266703), wk =   0.0069444
        k(   50) = (   0.0422234   0.0422234   0.0422234), wk =   0.0092593
        k(   51) = (   0.0422234   0.0422234   0.0633351), wk =   0.0277778
        k(   52) = (   0.0422234   0.0422234   0.0844469), wk =   0.0277778
        k(   53) = (   0.0422234   0.0422234   0.1055586), wk =   0.0277778
        k(   54) = (   0.0422234   0.0422234  -0.1266703), wk =   0.0138889
        k(   55) = (   0.0422234   0.0633351   0.0633351), wk =   0.0277778
        k(   56) = (   0.0422234   0.0633351   0.0844469), wk =   0.0555556
        k(   57) = (   0.0422234   0.0633351   0.1055586), wk =   0.0555556
        k(   58) = (   0.0422234   0.0633351  -0.1266703), wk =   0.0277778
        k(   59) = (   0.0422234   0.0844469   0.0844469), wk =   0.0277778
        k(   60) = (   0.0422234   0.0844469   0.1055586), wk =   0.0555556
[...]
        k(   70) = (   0.0633351   0.0844469   0.1055586), wk =   0.0555556
        k(   71) = (   0.0633351   0.0844469  -0.1266703), wk =   0.0277778
        k(   72) = (   0.0633351   0.1055586   0.1055586), wk =   0.0277778
        k(   73) = (   0.0633351   0.1055586  -0.1266703), wk =   0.0277778
        k(   74) = (   0.0633351  -0.1266703  -0.1266703), wk =   0.0069444
        k(   75) = (   0.0844469   0.0844469   0.0844469), wk =   0.0092593
        k(   76) = (   0.0844469   0.0844469   0.1055586), wk =   0.0277778
        k(   77) = (   0.0844469   0.0844469  -0.1266703), wk =   0.0138889
        k(   78) = (   0.0844469   0.1055586   0.1055586), wk =   0.0277778
        k(   79) = (   0.0844469   0.1055586  -0.1266703), wk =   0.0277778
        k(   80) = (   0.0844469  -0.1266703  -0.1266703), wk =   0.0069444
        k(   81) = (   0.1055586   0.1055586   0.1055586), wk =   0.0092593
        k(   82) = (   0.1055586   0.1055586  -0.1266703), wk =   0.0138889
        k(   83) = (   0.1055586  -0.1266703  -0.1266703), wk =   0.0069444
        k(   84) = (  -0.1266703  -0.1266703  -0.1266703), wk =   0.0011574

     Largest allocated arrays     est. size (Mb)     dimensions
     Largest temporary arrays     est. size (Mb)     dimensions

     Initial potential from superposition of free atoms
     Check: negative starting charge=   -0.446658

     starting charge   57.39953, renormalised to   59.00000

     negative rho (up, down):  4.591E-01 0.000E+00

     *
     * You are using vdW-DF for exchange-correlation in this calculation.
     * Please cite the following three references that made this development
     * possible:
     *
     *   M. Dion, H. Rydberg, E. Schroder, D. C. Langreth, and
     *   B. I. Lundqvist, Phys. Rev. Lett. 92, 246401 (2004).
     *
     *   T. Thonhauser, V. R. Cooper, S. Li, A. Puzder, P. Hyldgaard, and
     *   D. C. Langreth, Phys. Rev. B 76, 125112 (2007).
     *
     *   G. Roman-Perez and J. M. Soler, Phys. Rev. Lett. 103, 096102 (2009).
     *
     *
     * If you are using vdW-DF2, please also cite:
     *
     *   K. Lee, E. D. Murray, L. Kong, B. I. Lundqvist, and
     *   D. C. Langreth, Phys. Rev. B 82, 081101(R) (2010).
     *
     *
     * If you are calculating the stress with vdW-DF, please also cite:
     *
     *   R. Sabatini, E. Kucukbenli, B. Kolb, T. Thonhauser, and
     *   S. de Gironcoli, J. Phys.: Condens. Matter 24, 424209 (2012).
     *

     Carrying out vdW-DF run using the following parameters:

     Nqs =      20    Nr_points =    1024   r_max =   100.000
     q_mesh =
               0.00001000     0.04494208     0.09755937     0.15916263
               0.23128650     0.31572767     0.41458969     0.53033537
               0.66584808     0.82450364     1.01025438     1.22772762
               1.48234092     1.78043706     2.12944203     2.53805004
               3.01644009     3.57652955     4.23227104     5.00000000

     Gradients computed in reciprocal space

     Starting wfc are   52 randomized atomic wfcs

     Self-consistent Calculation

     iteration #  1     ecut=    58.80 Ry     beta=0.10
     Davidson diagonalization with overlap
     ethr =  1.00E-02,  avg # of iterations =  4.1

     Threshold (ethr) on eigenvalues was too large:
     Diagonalizing with lowered threshold

     Davidson diagonalization with overlap
     ethr =  8.27E-04,  avg # of iterations =  1.2

[...]

     total energy              =    -737.25497282 Ry
     Harris-Foulkes estimate   =    -737.28484071 Ry
     estimated scf accuracy    <       0.49342952 Ry

[...]

     total energy              =    -737.09323007 Ry
     Harris-Foulkes estimate   =    -737.09322956 Ry
     estimated scf accuracy    <       0.00000001 Ry

     iteration # 13     ecut=    58.80 Ry     beta=0.10
     Davidson diagonalization with overlap
     ethr =  1.97E-11,  avg # of iterations =  2.2

     negative rho (up, down):  4.856E-01 0.000E+00

     End of self-consistent calculation

          k = 0.0000 0.0000 0.0000 (  3119 PWs)   bands (ev):

   -57.4676 -57.3745 -57.3745 -51.2605 -19.4924 -19.4924 -19.4924 -19.0369
   -19.0369 -19.0369 -18.8029 -18.8029 -18.8029 -15.3246 -15.3246 -15.3246
    13.3400  16.6928  16.7207  16.7207  17.5783  17.5783  17.5783  21.4906
    21.4906  21.4906  24.5232  24.5232  25.7636  25.7636  25.7636  26.6194
    27.2315  27.2315  27.3361  27.3361  27.3361  28.1607  28.1607  28.1607
    34.6665  34.6665  34.6665  35.0444  35.0444  35.0444  35.6240  35.6240
    36.0805

[...]

          k = 0.1056-0.1267-0.1267 (  3148 PWs)   bands (ev):

[...]

          k =-0.1267-0.1267-0.1267 (  3184 PWs)   bands (ev):

   -57.4051 -57.4051 -57.4051 -51.2606 -19.7051 -19.4467 -19.4467 -19.4467
   -18.8267 -18.8267 -18.8039 -18.8039 -18.8039 -15.3197 -15.3197 -15.3197
    16.5976  16.5976  16.5976  16.7012  21.1057  21.1057  21.1057  21.3068
    21.3068  21.3068  21.5523  21.5523  23.1371  23.3125  23.3125  23.3125
    26.6545  26.6545  26.6545  27.2569  27.2569  27.2569  27.2727  27.2727
    32.7858  32.7858  32.7858  33.0893  35.6574  35.6574  35.6574  35.6846
    41.9012

     the Fermi energy is    22.9662 ev

!    total energy              =    -737.09323226 Ry
     Harris-Foulkes estimate   =    -737.09323007 Ry
     estimated scf accuracy    <          1.8E-10 Ry

     The total energy is the sum of the following terms:

     one-electron contribution =     -70.56267768 Ry
     hartree contribution      =      73.77134809 Ry
     xc contribution           =    -205.16276486 Ry
     ewald contribution        =    -535.13112889 Ry
     smearing contrib. (-TS)   =      -0.00800892 Ry

     convergence has been achieved in  13 iterations

     Forces acting on atoms (Ry/au):

     negative rho (up, down):  4.856E-01 0.000E+00
     atom    1 type  1   force =     0.00000000    0.00000000    0.00000000
     atom    2 type  1   force =     0.00000000    0.00000000   -0.00000000
     atom    3 type  1   force =     0.00000000    0.00000000    0.00000000
     atom    4 type  2   force =     0.00000000    0.00000000    0.00000000

     Total force =     0.000000     Total SCF correction =     0.000000
 !ASE

     General routines

     Parallel routines

   This run was terminated on:  23:52:41  25Oct2017

   JOB DONE.