     Program PWSCF v.5.1rc2 (svn rev. ) starts on 25Oct2017 at 17:34: 2

     Current dimensions of program PWSCF are:
     Max number of different atomic species (ntypx) = 10
     Max number of k-points (npk) =  40000
     Max angular momentum in pseudopotentials (lmaxx) =  3

     IMPORTANT: XC functional enforced from input :
     Exchange-correlation      = BEEF-VDW ( 1  4 27 13 2)
     Any further DFT definition will be discarded
     Please, verify this is what you really want

     Subspace diagonalization in iterative solution of the eigenvalue problem:
     a serial algorithm will be used

     bravais-lattice index     =            0
     lattice parameter (alat)  =       1.8897  a.u.
     unit-cell volume          =     373.8091 (a.u.)^3
     number of atoms/cell      =            4
     number of atomic types    =            2
     number of electrons       =        61.00
     number of Kohn-Sham states=           50
     kinetic-energy cutoff     =      58.7989  Ry
     charge density cutoff     =     587.9892  Ry
     convergence threshold     =      7.3E-09
     mixing beta               =       0.1000
     number of iterations used =           10  local-TF  mixing
     Exchange-correlation      = BEEF-VDW ( 1  4 27 13 2)
     nstep                     =           50

     celldm(1)=   1.889726  celldm(2)=   0.000000  celldm(3)=   0.000000
     celldm(4)=   0.000000  celldm(5)=   0.000000  celldm(6)=   0.000000

     crystal axes: (cart. coord. in units of alat)
               a(1) = (   3.811984   0.000000   0.000000 )
               a(2) = (   0.000000   3.811984   0.000000 )
               a(3) = (   0.000000   0.000000   3.811984 )

     reciprocal axes: (cart. coord. in units 2 pi/alat)
               b(1) = (  0.262331  0.000000  0.000000 )
               b(2) = (  0.000000  0.262331  0.000000 )
               b(3) = (  0.000000  0.000000  0.262331 )

     PseudoPot. # 1 for Ru read from file:
     /home/vossj/suncat/psp/gbrv1.5pbe/Ru.UPF
     MD5 check sum: 7158a806dd851261a58e6920c40ebe78
     Pseudo is Ultrasoft + core correction, Zval = 16.0
     Generated by new atomic code, or converted to UPF format
     Using radial grid of  967 points,  6 beta functions with:
                l(1) =   0
                l(2) =   0
                l(3) =   1
                l(4) =   1
                l(5) =   2
                l(6) =   2
     Q(r) pseudized with  8 coefficients,  rinner =    1.300   1.300   1.300
                                                       1.300   1.300

     PseudoPot. # 2 for V  read from file:
     /home/vossj/suncat/psp/gbrv1.5pbe/V.UPF
     MD5 check sum: 22b79981416ebb76fdaf5b1b8640f6fb
     Pseudo is Ultrasoft + core correction, Zval = 13.0
     Generated by new atomic code, or converted to UPF format
     Using radial grid of  853 points,  6 beta functions with:
                l(1) =   0
                l(2) =   0
                l(3) =   1
                l(4) =   1
                l(5) =   2
                l(6) =   2
     Q(r) pseudized with  8 coefficients,  rinner =    1.100   1.100   1.100
                                                       1.100   1.100

     vdW kernel table read from file vdW_kernel_table
     MD5 check sum: 095c7af220d748ca6e76c0b4c6cfb241

     atomic species   valence    mass     pseudopotential
        Ru1           16.00   101.07000     Ru( 1.00)
        V1            13.00    50.94150     V ( 1.00)

     48 Sym. Ops., with inversion, found (32 have fractional translation)

   Cartesian axes

     site n.     atom                  positions (alat units)
         1           Ru1 tau(   1) = (   0.0000000   0.0000000   0.0000000  )
         2           Ru1 tau(   2) = (   0.0000000   1.9059920   1.9059920  )
         3           Ru1 tau(   3) = (   1.9059920   0.0000000   1.9059920  )
         4           V1  tau(   4) = (   1.9059920   1.9059920   0.0000000  )

     number of k points=    84  Fermi-Dirac smearing, width (Ry)=  0.0073
                       cart. coord. in units 2pi/alat
        k(    1) = (   0.0000000   0.0000000   0.0000000), wk =   0.0011574
        k(    2) = (   0.0000000   0.0000000   0.0218609), wk =   0.0069444
        k(    3) = (   0.0000000   0.0000000   0.0437218), wk =   0.0069444
        k(    4) = (   0.0000000   0.0000000   0.0655826), wk =   0.0069444
        k(    5) = (   0.0000000   0.0000000   0.0874435), wk =   0.0069444
        k(    6) = (   0.0000000   0.0000000   0.1093044), wk =   0.0069444
        k(    7) = (   0.0000000   0.0000000  -0.1311653), wk =   0.0034722
        k(    8) = (   0.0000000   0.0218609   0.0218609), wk =   0.0138889
        k(    9) = (   0.0000000   0.0218609   0.0437218), wk =   0.0277778
        k(   10) = (   0.0000000   0.0218609   0.0655826), wk =   0.0277778
        k(   11) = (   0.0000000   0.0218609   0.0874435), wk =   0.0277778
        k(   12) = (   0.0000000   0.0218609   0.1093044), wk =   0.0277778
        k(   13) = (   0.0000000   0.0218609  -0.1311653), wk =   0.0138889
        k(   14) = (   0.0000000   0.0437218   0.0437218), wk =   0.0138889
        k(   15) = (   0.0000000   0.0437218   0.0655826), wk =   0.0277778
        k(   16) = (   0.0000000   0.0437218   0.0874435), wk =   0.0277778
        k(   17) = (   0.0000000   0.0437218   0.1093044), wk =   0.0277778
        k(   18) = (   0.0000000   0.0437218  -0.1311653), wk =   0.0138889
        k(   19) = (   0.0000000   0.0655826   0.0655826), wk =   0.0138889
        k(   20) = (   0.0000000   0.0655826   0.0874435), wk =   0.0277778
        k(   21) = (   0.0000000   0.0655826   0.1093044), wk =   0.0277778
        k(   22) = (   0.0000000   0.0655826  -0.1311653), wk =   0.0138889
        k(   23) = (   0.0000000   0.0874435   0.0874435), wk =   0.0138889
        k(   24) = (   0.0000000   0.0874435   0.1093044), wk =   0.0277778
        k(   25) = (   0.0000000   0.0874435  -0.1311653), wk =   0.0138889
        k(   26) = (   0.0000000   0.1093044   0.1093044), wk =   0.0138889
        k(   27) = (   0.0000000   0.1093044  -0.1311653), wk =   0.0138889
        k(   28) = (   0.0000000  -0.1311653  -0.1311653), wk =   0.0034722
        k(   29) = (   0.0218609   0.0218609   0.0218609), wk =   0.0092593
        k(   30) = (   0.0218609   0.0218609   0.0437218), wk =   0.0277778
        k(   31) = (   0.0218609   0.0218609   0.0655826), wk =   0.0277778
        k(   32) = (   0.0218609   0.0218609   0.0874435), wk =   0.0277778
        k(   33) = (   0.0218609   0.0218609   0.1093044), wk =   0.0277778
        k(   34) = (   0.0218609   0.0218609  -0.1311653), wk =   0.0138889
        k(   35) = (   0.0218609   0.0437218   0.0437218), wk =   0.0277778
        k(   36) = (   0.0218609   0.0437218   0.0655826), wk =   0.0555556
        k(   37) = (   0.0218609   0.0437218   0.0874435), wk =   0.0555556
        k(   38) = (   0.0218609   0.0437218   0.1093044), wk =   0.0555556
        k(   39) = (   0.0218609   0.0437218  -0.1311653), wk =   0.0277778
        k(   40) = (   0.0218609   0.0655826   0.0655826), wk =   0.0277778
        k(   41) = (   0.0218609   0.0655826   0.0874435), wk =   0.0555556
        k(   42) = (   0.0218609   0.0655826   0.1093044), wk =   0.0555556
        k(   43) = (   0.0218609   0.0655826  -0.1311653), wk =   0.0277778
        k(   44) = (   0.0218609   0.0874435   0.0874435), wk =   0.0277778
        k(   45) = (   0.0218609   0.0874435   0.1093044), wk =   0.0555556
        k(   46) = (   0.0218609   0.0874435  -0.1311653), wk =   0.0277778
        k(   47) = (   0.0218609   0.1093044   0.1093044), wk =   0.0277778
        k(   48) = (   0.0218609   0.1093044  -0.1311653), wk =   0.0277778
        k(   49) = (   0.0218609  -0.1311653  -0.1311653), wk =   0.0069444
        k(   50) = (   0.0437218   0.0437218   0.0437218), wk =   0.0092593
        k(   51) = (   0.0437218   0.0437218   0.0655826), wk =   0.0277778
        k(   52) = (   0.0437218   0.0437218   0.0874435), wk =   0.0277778
        k(   53) = (   0.0437218   0.0437218   0.1093044), wk =   0.0277778
        k(   54) = (   0.0437218   0.0437218  -0.1311653), wk =   0.0138889
        k(   55) = (   0.0437218   0.0655826   0.0655826), wk =   0.0277778
        k(   56) = (   0.0437218   0.0655826   0.0874435), wk =   0.0555556
        k(   57) = (   0.0437218   0.0655826   0.1093044), wk =   0.0555556
        k(   58) = (   0.0437218   0.0655826  -0.1311653), wk =   0.0277778
        k(   59) = (   0.0437218   0.0874435   0.0874435), wk =   0.0277778
        k(   60) = (   0.0437218   0.0874435   0.1093044), wk =   0.0555556
[...]
        k(   70) = (   0.0655826   0.0874435   0.1093044), wk =   0.0555556
        k(   71) = (   0.0655826   0.0874435  -0.1311653), wk =   0.0277778
        k(   72) = (   0.0655826   0.1093044   0.1093044), wk =   0.0277778
        k(   73) = (   0.0655826   0.1093044  -0.1311653), wk =   0.0277778
        k(   74) = (   0.0655826  -0.1311653  -0.1311653), wk =   0.0069444
        k(   75) = (   0.0874435   0.0874435   0.0874435), wk =   0.0092593
        k(   76) = (   0.0874435   0.0874435   0.1093044), wk =   0.0277778
        k(   77) = (   0.0874435   0.0874435  -0.1311653), wk =   0.0138889
        k(   78) = (   0.0874435   0.1093044   0.1093044), wk =   0.0277778
        k(   79) = (   0.0874435   0.1093044  -0.1311653), wk =   0.0277778
        k(   80) = (   0.0874435  -0.1311653  -0.1311653), wk =   0.0069444
        k(   81) = (   0.1093044   0.1093044   0.1093044), wk =   0.0092593
        k(   82) = (   0.1093044   0.1093044  -0.1311653), wk =   0.0138889
        k(   83) = (   0.1093044  -0.1311653  -0.1311653), wk =   0.0069444
        k(   84) = (  -0.1311653  -0.1311653  -0.1311653), wk =   0.0011574

     Largest allocated arrays     est. size (Mb)     dimensions
     Largest temporary arrays     est. size (Mb)     dimensions

     Check: negative/imaginary core charge=   -0.000001    0.000000

     Initial potential from superposition of free atoms
     Check: negative starting charge=   -0.220780

     starting charge   57.99873, renormalised to   61.00000

     negative rho (up, down):  2.322E-01 0.000E+00

     *
     * You are using vdW-DF for exchange-correlation in this calculation.
     * Please cite the following three references that made this development
     * possible:
     *
     *   M. Dion, H. Rydberg, E. Schroder, D. C. Langreth, and
     *   B. I. Lundqvist, Phys. Rev. Lett. 92, 246401 (2004).
     *
     *   T. Thonhauser, V. R. Cooper, S. Li, A. Puzder, P. Hyldgaard, and
     *   D. C. Langreth, Phys. Rev. B 76, 125112 (2007).
     *
     *   G. Roman-Perez and J. M. Soler, Phys. Rev. Lett. 103, 096102 (2009).
     *
     *
     * If you are using vdW-DF2, please also cite:
     *
     *   K. Lee, E. D. Murray, L. Kong, B. I. Lundqvist, and
     *   D. C. Langreth, Phys. Rev. B 82, 081101(R) (2010).
     *
     *
     * If you are calculating the stress with vdW-DF, please also cite:
     *
     *   R. Sabatini, E. Kucukbenli, B. Kolb, T. Thonhauser, and
     *   S. de Gironcoli, J. Phys.: Condens. Matter 24, 424209 (2012).
     *

     Carrying out vdW-DF run using the following parameters:

     Nqs =      20    Nr_points =    1024   r_max =   100.000
     q_mesh =
               0.00001000     0.04494208     0.09755937     0.15916263
               0.23128650     0.31572767     0.41458969     0.53033537
               0.66584808     0.82450364     1.01025438     1.22772762
               1.48234092     1.78043706     2.12944203     2.53805004
               3.01644009     3.57652955     4.23227104     5.00000000

     Gradients computed in reciprocal space

     Starting wfc are   49 randomized atomic wfcs +    1 random wfc

     Self-consistent Calculation

     iteration #  1     ecut=    58.80 Ry     beta=0.10
     Davidson diagonalization with overlap
     ethr =  1.00E-02,  avg # of iterations =  4.3

[...]

     total energy              =    -732.12128168 Ry
     Harris-Foulkes estimate   =    -732.34858950 Ry
     estimated scf accuracy    <       3.14801332 Ry

[...]

     total energy              =    -731.28474197 Ry
     Harris-Foulkes estimate   =    -731.28474193 Ry
     estimated scf accuracy    <       0.00000005 Ry

     iteration # 17     ecut=    58.80 Ry     beta=0.10
     Davidson diagonalization with overlap
     ethr =  7.51E-11,  avg # of iterations =  2.0

     negative rho (up, down):  2.289E-01 0.000E+00

     End of self-consistent calculation

          k = 0.0000 0.0000 0.0000 (  2897 PWs)   bands (ev):

   -51.8946 -51.7310 -51.7310 -43.5404 -22.1179 -22.1179 -22.1179 -21.6703
   -21.6703 -21.6703 -21.4616 -21.4616 -21.4616 -17.3090 -17.3090 -17.3090
    13.6948  15.0660  15.7695  15.7695  16.0256  16.0256  16.0256  19.3040
    19.3040  19.3040  21.4047  21.4047  22.8478  23.2499  23.2499  23.3584
    23.3584  23.3584  23.7228  23.7228  23.7228  24.7655  24.7655  24.7655
    33.8092  33.8092  34.2706  34.2706  34.2706  34.7077  35.0380  35.0380
    35.0380  36.7730

[...]

          k = 0.1093-0.1312-0.1312 (  2852 PWs)   bands (ev):

[...]

          k =-0.1312-0.1312-0.1312 (  2872 PWs)   bands (ev):

   -51.7844 -51.7844 -51.7844 -43.5403 -22.3574 -22.0424 -22.0424 -22.0424
   -21.5091 -21.5091 -21.4468 -21.4468 -21.4468 -17.3080 -17.3080 -17.3080
    15.5429  15.8683  15.8683  15.8683  18.6343  18.6343  18.6343  19.1859
    19.1859  19.1859  19.7430  19.7430  22.0968  22.0968  22.0968  22.2837
    22.8765  22.8765  22.8765  23.2619  23.2619  23.2619  23.3171  23.3171
    30.5683  30.5683  30.5683  31.2856  36.1735  36.2897  36.2897  36.2897
    42.1036  42.1040

     the Fermi energy is    20.9736 ev

!    total energy              =    -731.28474217 Ry
     Harris-Foulkes estimate   =    -731.28474197 Ry
     estimated scf accuracy    <          9.9E-10 Ry

     The total energy is the sum of the following terms:

     one-electron contribution =    -154.27307126 Ry
     hartree contribution      =     118.30708290 Ry
     xc contribution           =    -101.12005286 Ry
     ewald contribution        =    -594.18682590 Ry
     smearing contrib. (-TS)   =      -0.01187505 Ry

     convergence has been achieved in  17 iterations

     Forces acting on atoms (Ry/au):

     negative rho (up, down):  2.289E-01 0.000E+00
     atom    1 type  1   force =     0.00000000    0.00000000    0.00000000
     atom    2 type  1   force =     0.00000000    0.00000000    0.00000000
     atom    3 type  1   force =     0.00000000    0.00000000    0.00000000
     atom    4 type  2   force =     0.00000000   -0.00000000    0.00000000

     Total force =     0.000000     Total SCF correction =     0.000000
 !ASE

     General routines

     Parallel routines

   This run was terminated on:  17:35: 7  25Oct2017

   JOB DONE.