     Program PWSCF v.5.1rc2 (svn rev. ) starts on 25Oct2017 at 21:53:24

     Current dimensions of program PWSCF are:
     Max number of different atomic species (ntypx) = 10
     Max number of k-points (npk) =  40000
     Max angular momentum in pseudopotentials (lmaxx) =  3

     IMPORTANT: XC functional enforced from input :
     Exchange-correlation      = BEEF-VDW ( 1  4 27 13 2)
     Any further DFT definition will be discarded
     Please, verify this is what you really want

     Subspace diagonalization in iterative solution of the eigenvalue problem:
     a serial algorithm will be used

     bravais-lattice index     =            0
     lattice parameter (alat)  =       1.8897  a.u.
     unit-cell volume          =     479.7071 (a.u.)^3
     number of atoms/cell      =            4
     number of atomic types    =            2
     number of electrons       =        52.00
     number of Kohn-Sham states=           46
     kinetic-energy cutoff     =      58.7989  Ry
     charge density cutoff     =     587.9892  Ry
     convergence threshold     =      7.3E-09
     mixing beta               =       0.1000
     number of iterations used =           10  local-TF  mixing
     Exchange-correlation      = BEEF-VDW ( 1  4 27 13 2)
     nstep                     =           50

     celldm(1)=   1.889726  celldm(2)=   0.000000  celldm(3)=   0.000000
     celldm(4)=   0.000000  celldm(5)=   0.000000  celldm(6)=   0.000000

     crystal axes: (cart. coord. in units of alat)
               a(1) = (   4.142475   0.000000   0.000000 )
               a(2) = (   0.000000   4.142475   0.000000 )
               a(3) = (   0.000000   0.000000   4.142475 )

     reciprocal axes: (cart. coord. in units 2 pi/alat)
               b(1) = (  0.241402  0.000000  0.000000 )
               b(2) = (  0.000000  0.241402  0.000000 )
               b(3) = (  0.000000  0.000000  0.241402 )

     PseudoPot. # 1 for Ta read from file:
     /home/vossj/suncat/psp/gbrv1.5pbe/Ta.UPF
     MD5 check sum: f8bbe9446314a3b8ea5d9f3e3836c939
     Pseudo is Ultrasoft + core correction, Zval = 13.0
     Generated by new atomic code, or converted to UPF format
     Using radial grid of  921 points,  7 beta functions with:
                l(1) =   0
                l(2) =   0
                l(3) =   1
                l(4) =   1
                l(5) =   2
                l(6) =   2
                l(7) =   3
     Q(r) pseudized with  6 coefficients,  rinner =    1.300   1.300   1.300
                                                       1.300   1.300   1.300
                                                       1.300

     PseudoPot. # 2 for V  read from file:
     /home/vossj/suncat/psp/gbrv1.5pbe/V.UPF
     MD5 check sum: 22b79981416ebb76fdaf5b1b8640f6fb
     Pseudo is Ultrasoft + core correction, Zval = 13.0
     Generated by new atomic code, or converted to UPF format
     Using radial grid of  853 points,  6 beta functions with:
                l(1) =   0
                l(2) =   0
                l(3) =   1
                l(4) =   1
                l(5) =   2
                l(6) =   2
     Q(r) pseudized with  8 coefficients,  rinner =    1.100   1.100   1.100
                                                       1.100   1.100

     vdW kernel table read from file vdW_kernel_table
     MD5 check sum: 095c7af220d748ca6e76c0b4c6cfb241

     atomic species   valence    mass     pseudopotential
        Ta1           13.00   180.94788     Ta( 1.00)
        V1            13.00    50.94150     V ( 1.00)

     48 Sym. Ops., with inversion, found (32 have fractional translation)

   Cartesian axes

     site n.     atom                  positions (alat units)
         1           Ta1 tau(   1) = (   0.0000000   0.0000000   0.0000000  )
         2           Ta1 tau(   2) = (   0.0000000   2.0712373   2.0712373  )
         3           Ta1 tau(   3) = (   2.0712373   0.0000000   2.0712373  )
         4           V1  tau(   4) = (   2.0712373   2.0712373   0.0000000  )

     number of k points=    84  Fermi-Dirac smearing, width (Ry)=  0.0073
                       cart. coord. in units 2pi/alat
        k(    1) = (   0.0000000   0.0000000   0.0000000), wk =   0.0011574
        k(    2) = (   0.0000000   0.0000000   0.0201168), wk =   0.0069444
        k(    3) = (   0.0000000   0.0000000   0.0402336), wk =   0.0069444
        k(    4) = (   0.0000000   0.0000000   0.0603504), wk =   0.0069444
        k(    5) = (   0.0000000   0.0000000   0.0804672), wk =   0.0069444
        k(    6) = (   0.0000000   0.0000000   0.1005840), wk =   0.0069444
        k(    7) = (   0.0000000   0.0000000  -0.1207008), wk =   0.0034722
        k(    8) = (   0.0000000   0.0201168   0.0201168), wk =   0.0138889
        k(    9) = (   0.0000000   0.0201168   0.0402336), wk =   0.0277778
        k(   10) = (   0.0000000   0.0201168   0.0603504), wk =   0.0277778
        k(   11) = (   0.0000000   0.0201168   0.0804672), wk =   0.0277778
        k(   12) = (   0.0000000   0.0201168   0.1005840), wk =   0.0277778
        k(   13) = (   0.0000000   0.0201168  -0.1207008), wk =   0.0138889
        k(   14) = (   0.0000000   0.0402336   0.0402336), wk =   0.0138889
        k(   15) = (   0.0000000   0.0402336   0.0603504), wk =   0.0277778
        k(   16) = (   0.0000000   0.0402336   0.0804672), wk =   0.0277778
        k(   17) = (   0.0000000   0.0402336   0.1005840), wk =   0.0277778
        k(   18) = (   0.0000000   0.0402336  -0.1207008), wk =   0.0138889
        k(   19) = (   0.0000000   0.0603504   0.0603504), wk =   0.0138889
        k(   20) = (   0.0000000   0.0603504   0.0804672), wk =   0.0277778
        k(   21) = (   0.0000000   0.0603504   0.1005840), wk =   0.0277778
        k(   22) = (   0.0000000   0.0603504  -0.1207008), wk =   0.0138889
        k(   23) = (   0.0000000   0.0804672   0.0804672), wk =   0.0138889
        k(   24) = (   0.0000000   0.0804672   0.1005840), wk =   0.0277778
        k(   25) = (   0.0000000   0.0804672  -0.1207008), wk =   0.0138889
        k(   26) = (   0.0000000   0.1005840   0.1005840), wk =   0.0138889
        k(   27) = (   0.0000000   0.1005840  -0.1207008), wk =   0.0138889
        k(   28) = (   0.0000000  -0.1207008  -0.1207008), wk =   0.0034722
        k(   29) = (   0.0201168   0.0201168   0.0201168), wk =   0.0092593
        k(   30) = (   0.0201168   0.0201168   0.0402336), wk =   0.0277778
        k(   31) = (   0.0201168   0.0201168   0.0603504), wk =   0.0277778
        k(   32) = (   0.0201168   0.0201168   0.0804672), wk =   0.0277778
        k(   33) = (   0.0201168   0.0201168   0.1005840), wk =   0.0277778
        k(   34) = (   0.0201168   0.0201168  -0.1207008), wk =   0.0138889
        k(   35) = (   0.0201168   0.0402336   0.0402336), wk =   0.0277778
        k(   36) = (   0.0201168   0.0402336   0.0603504), wk =   0.0555556
        k(   37) = (   0.0201168   0.0402336   0.0804672), wk =   0.0555556
        k(   38) = (   0.0201168   0.0402336   0.1005840), wk =   0.0555556
        k(   39) = (   0.0201168   0.0402336  -0.1207008), wk =   0.0277778
        k(   40) = (   0.0201168   0.0603504   0.0603504), wk =   0.0277778
        k(   41) = (   0.0201168   0.0603504   0.0804672), wk =   0.0555556
        k(   42) = (   0.0201168   0.0603504   0.1005840), wk =   0.0555556
        k(   43) = (   0.0201168   0.0603504  -0.1207008), wk =   0.0277778
        k(   44) = (   0.0201168   0.0804672   0.0804672), wk =   0.0277778
        k(   45) = (   0.0201168   0.0804672   0.1005840), wk =   0.0555556
        k(   46) = (   0.0201168   0.0804672  -0.1207008), wk =   0.0277778
        k(   47) = (   0.0201168   0.1005840   0.1005840), wk =   0.0277778
        k(   48) = (   0.0201168   0.1005840  -0.1207008), wk =   0.0277778
        k(   49) = (   0.0201168  -0.1207008  -0.1207008), wk =   0.0069444
        k(   50) = (   0.0402336   0.0402336   0.0402336), wk =   0.0092593
        k(   51) = (   0.0402336   0.0402336   0.0603504), wk =   0.0277778
        k(   52) = (   0.0402336   0.0402336   0.0804672), wk =   0.0277778
        k(   53) = (   0.0402336   0.0402336   0.1005840), wk =   0.0277778
        k(   54) = (   0.0402336   0.0402336  -0.1207008), wk =   0.0138889
        k(   55) = (   0.0402336   0.0603504   0.0603504), wk =   0.0277778
        k(   56) = (   0.0402336   0.0603504   0.0804672), wk =   0.0555556
        k(   57) = (   0.0402336   0.0603504   0.1005840), wk =   0.0555556
        k(   58) = (   0.0402336   0.0603504  -0.1207008), wk =   0.0277778
        k(   59) = (   0.0402336   0.0804672   0.0804672), wk =   0.0277778
        k(   60) = (   0.0402336   0.0804672   0.1005840), wk =   0.0555556
[...]
        k(   70) = (   0.0603504   0.0804672   0.1005840), wk =   0.0555556
        k(   71) = (   0.0603504   0.0804672  -0.1207008), wk =   0.0277778
        k(   72) = (   0.0603504   0.1005840   0.1005840), wk =   0.0277778
        k(   73) = (   0.0603504   0.1005840  -0.1207008), wk =   0.0277778
        k(   74) = (   0.0603504  -0.1207008  -0.1207008), wk =   0.0069444
        k(   75) = (   0.0804672   0.0804672   0.0804672), wk =   0.0092593
        k(   76) = (   0.0804672   0.0804672   0.1005840), wk =   0.0277778
        k(   77) = (   0.0804672   0.0804672  -0.1207008), wk =   0.0138889
        k(   78) = (   0.0804672   0.1005840   0.1005840), wk =   0.0277778
        k(   79) = (   0.0804672   0.1005840  -0.1207008), wk =   0.0277778
        k(   80) = (   0.0804672  -0.1207008  -0.1207008), wk =   0.0069444
        k(   81) = (   0.1005840   0.1005840   0.1005840), wk =   0.0092593
        k(   82) = (   0.1005840   0.1005840  -0.1207008), wk =   0.0138889
        k(   83) = (   0.1005840  -0.1207008  -0.1207008), wk =   0.0069444
        k(   84) = (  -0.1207008  -0.1207008  -0.1207008), wk =   0.0011574

     Largest allocated arrays     est. size (Mb)     dimensions
     Largest temporary arrays     est. size (Mb)     dimensions

     Initial potential from superposition of free atoms
     Check: negative starting charge=   -0.283177

     starting charge   51.99544, renormalised to   52.00000

     negative rho (up, down):  2.832E-01 0.000E+00

     *
     * You are using vdW-DF for exchange-correlation in this calculation.
     * Please cite the following three references that made this development
     * possible:
     *
     *   M. Dion, H. Rydberg, E. Schroder, D. C. Langreth, and
     *   B. I. Lundqvist, Phys. Rev. Lett. 92, 246401 (2004).
     *
     *   T. Thonhauser, V. R. Cooper, S. Li, A. Puzder, P. Hyldgaard, and
     *   D. C. Langreth, Phys. Rev. B 76, 125112 (2007).
     *
     *   G. Roman-Perez and J. M. Soler, Phys. Rev. Lett. 103, 096102 (2009).
     *
     *
     * If you are using vdW-DF2, please also cite:
     *
     *   K. Lee, E. D. Murray, L. Kong, B. I. Lundqvist, and
     *   D. C. Langreth, Phys. Rev. B 82, 081101(R) (2010).
     *
     *
     * If you are calculating the stress with vdW-DF, please also cite:
     *
     *   R. Sabatini, E. Kucukbenli, B. Kolb, T. Thonhauser, and
     *   S. de Gironcoli, J. Phys.: Condens. Matter 24, 424209 (2012).
     *

     Carrying out vdW-DF run using the following parameters:

     Nqs =      20    Nr_points =    1024   r_max =   100.000
     q_mesh =
               0.00001000     0.04494208     0.09755937     0.15916263
               0.23128650     0.31572767     0.41458969     0.53033537
               0.66584808     0.82450364     1.01025438     1.22772762
               1.48234092     1.78043706     2.12944203     2.53805004
               3.01644009     3.57652955     4.23227104     5.00000000

     Gradients computed in reciprocal space

     Starting wfc are   49 randomized atomic wfcs

     Self-consistent Calculation

     iteration #  1     ecut=    58.80 Ry     beta=0.10
     Davidson diagonalization with overlap
     ethr =  1.00E-02,  avg # of iterations =  4.0

     Threshold (ethr) on eigenvalues was too large:
     Diagonalizing with lowered threshold

     Davidson diagonalization with overlap
     ethr =  5.36E-04,  avg # of iterations =  1.0

[...]

     total energy              =    -575.53787358 Ry
     Harris-Foulkes estimate   =    -575.54874314 Ry
     estimated scf accuracy    <       0.27894127 Ry

[...]

     total energy              =    -575.51692105 Ry
     Harris-Foulkes estimate   =    -575.51692068 Ry
     estimated scf accuracy    <       0.00000037 Ry

     iteration # 12     ecut=    58.80 Ry     beta=0.10
     Davidson diagonalization with overlap
     ethr =  3.97E-11,  avg # of iterations =  2.0

     negative rho (up, down):  3.054E-01 0.000E+00

     End of self-consistent calculation

          k = 0.0000 0.0000 0.0000 (  3743 PWs)   bands (ev):

   -50.8054 -50.6974 -50.6974 -47.0244 -20.8258 -20.8258 -20.8258 -17.5007
   -17.5007 -17.5007 -17.0197 -17.0197 -17.0197 -16.7336 -16.7336 -16.7336
     9.4279  12.7536  13.3858  13.3858  14.1495  14.1495  14.1495  17.5464
    17.5464  17.5464  19.5054  19.5054  20.1321  20.1321  20.1321  21.5002
    21.5002  21.5002  22.1059  22.1059  23.3483  24.0431  24.0431  24.0431
    27.9684  27.9684  27.9684  29.4366  29.4366  29.4366

[...]

          k = 0.1006-0.1207-0.1207 (  3624 PWs)   bands (ev):

[...]

          k =-0.1207-0.1207-0.1207 (  3648 PWs)   bands (ev):

   -50.7327 -50.7327 -50.7327 -47.0246 -20.8352 -20.8352 -20.8352 -17.7846
   -17.4121 -17.4121 -17.4121 -16.7696 -16.7696 -16.7575 -16.7575 -16.7575
    12.9600  12.9600  12.9600  13.0815  17.3254  17.3254  17.3375  17.3375
    17.3375  17.5284  17.5284  17.5284  17.8227  17.8227  17.8227  18.1038
    21.1127  21.1127  21.1127  21.7568  21.7568  23.3329  23.3329  23.3329
    27.0606  27.0606  27.0606  28.0328  29.7575  29.9601

     the Fermi energy is    17.2354 ev

!    total energy              =    -575.51692283 Ry
     Harris-Foulkes estimate   =    -575.51692107 Ry
     estimated scf accuracy    <          1.6E-09 Ry

     The total energy is the sum of the following terms:

     one-electron contribution =    -105.08471029 Ry
     hartree contribution      =      76.83199791 Ry
     xc contribution           =    -151.32381501 Ry
     ewald contribution        =    -395.92621639 Ry
     smearing contrib. (-TS)   =      -0.01417905 Ry

     convergence has been achieved in  12 iterations

     Forces acting on atoms (Ry/au):

     negative rho (up, down):  3.054E-01 0.000E+00
     atom    1 type  1   force =     0.00000000    0.00000000    0.00000000
     atom    2 type  1   force =     0.00000000    0.00000000    0.00000000
     atom    3 type  1   force =     0.00000000    0.00000000   -0.00000000
     atom    4 type  2   force =     0.00000000    0.00000000    0.00000000

     Total force =     0.000000     Total SCF correction =     0.000000
 !ASE

     General routines

     Parallel routines

   This run was terminated on:  21:54:20  25Oct2017

   JOB DONE.