     Program PWSCF v.5.1rc2 (svn rev. 11289) starts on  1Jan2019 at 10:54:39

     Current dimensions of program PWSCF are:
     Max number of different atomic species (ntypx) = 10
     Max number of k-points (npk) =  40000
     Max angular momentum in pseudopotentials (lmaxx) =  3
     Presently stress not available with electric field

     IMPORTANT: XC functional enforced from input :
     Exchange-correlation      = BEEF-VDW ( 1  4 27 13 2)
     Any further DFT definition will be discarded
     Please, verify this is what you really want

     Subspace diagonalization in iterative solution of the eigenvalue problem:
     a serial algorithm will be used

     bravais-lattice index     =            0
     lattice parameter (alat)  =       1.8897  a.u.
     unit-cell volume          =    6289.0173 (a.u.)^3
     number of atoms/cell      =           12
     number of atomic types    =            2
     number of electrons       =       183.00
     number of Kohn-Sham states=          121
     kinetic-energy cutoff     =      36.7493  Ry
     charge density cutoff     =     367.4932  Ry
     convergence threshold     =      1.0E-06
     mixing beta               =       0.1000
     number of iterations used =           10  plain     mixing
     Exchange-correlation      = BEEF-VDW ( 1  4 27 13 2)
     nstep                     =           50

     celldm(1)=   1.889726  celldm(2)=   0.000000  celldm(3)=   0.000000
     celldm(4)=   0.000000  celldm(5)=   0.000000  celldm(6)=   0.000000

     crystal axes: (cart. coord. in units of alat)
               a(1) = (   6.518884   0.000000   0.000000 )
               a(2) = (  -3.259442   5.645519   0.000000 )
               a(3) = (   0.000000   0.000000  25.322646 )

     reciprocal axes: (cart. coord. in units 2 pi/alat)
               b(1) = (  0.153400  0.088566  0.000000 )
               b(2) = (  0.000000  0.177132  0.000000 )
               b(3) = (  0.000000  0.000000  0.039490 )

     PseudoPot. # 1 for Sn read from file:
     /afs/slac.stanford.edu/u/if/mamunm/psp/gbrv1.5pbe/Sn.UPF
     MD5 check sum: 469debedee59599fedebd795477fea03
     Pseudo is Ultrasoft + core correction, Zval = 14.0
     Generated by new atomic code, or converted to UPF format
     Using radial grid of  891 points,  6 beta functions with:
                l(1) =   0
                l(2) =   0
                l(3) =   1
                l(4) =   1
                l(5) =   2
                l(6) =   2
     Q(r) pseudized with  8 coefficients,  rinner =    1.350   1.350   1.350
                                                       1.350   1.350

     PseudoPot. # 2 for Cu read from file:
     /afs/slac.stanford.edu/u/if/mamunm/psp/gbrv1.5pbe/Cu.UPF
     MD5 check sum: 6e991ff952a84172a2a52a1c1e996048
     Pseudo is Ultrasoft + core correction, Zval = 19.0
     Generated by new atomic code, or converted to UPF format
     Using radial grid of  867 points,  6 beta functions with:
                l(1) =   0
                l(2) =   0
                l(3) =   1
                l(4) =   1
                l(5) =   2
                l(6) =   2
     Q(r) pseudized with  8 coefficients,  rinner =    1.150   1.150   1.150
                                                       1.150   1.150

     vdW kernel table read from file vdW_kernel_table
     MD5 check sum: 095c7af220d748ca6e76c0b4c6cfb241

     atomic species   valence    mass     pseudopotential
        Sn1           14.00   118.71000     Sn( 1.00)
        Cu1           19.00    63.54600     Cu( 1.00)

     No symmetry found

   Cartesian axes

     site n.     atom                  positions (alat units)
         1           Sn1 tau(   1) = (   0.0000000   0.0000000  10.0000000  )
         2           Sn1 tau(   2) = (  -1.6297209   2.8227594  10.0000000  )
         3           Sn1 tau(   3) = (   1.6297209   2.8227594  10.0000000  )
         4           Cu1 tau(   4) = (   3.2594418   0.0000000  10.0000000  )
         5           Sn1 tau(   5) = (   3.2594418   1.8818396  12.6613231  )
         6           Sn1 tau(   6) = (   1.6297209   4.7045991  12.6613231  )
         7           Sn1 tau(   7) = (  -1.6297209   4.7045991  12.6613231  )
         8           Cu1 tau(   8) = (   0.0000000   1.8818396  12.6613231  )
         9           Sn1 tau(   9) = (   0.0000000   3.7636793  15.3226463  )
        10           Sn1 tau(  10) = (   1.6297209   0.9409198  15.3226463  )
        11           Sn1 tau(  11) = (   4.8891628   0.9409198  15.3226463  )
        12           Cu1 tau(  12) = (   3.2594418   3.7636793  15.3226463  )

     number of k points=    20  Fermi-Dirac smearing, width (Ry)=  0.0110
                       cart. coord. in units 2pi/alat
        k(    1) = (   0.0000000   0.0000000   0.0000000), wk =   0.0555556
        k(    2) = (   0.0000000   0.0295219   0.0000000), wk =   0.1111111
        k(    3) = (   0.0000000   0.0590439   0.0000000), wk =   0.1111111
        k(    4) = (   0.0000000  -0.0885658   0.0000000), wk =   0.0555556
        k(    5) = (   0.0255667   0.0147610   0.0000000), wk =   0.1111111
        k(    6) = (   0.0255667   0.0442829   0.0000000), wk =   0.1111111
        k(    7) = (   0.0255667   0.0738048   0.0000000), wk =   0.1111111
        k(    8) = (   0.0255667  -0.0738048   0.0000000), wk =   0.1111111
        k(    9) = (   0.0255667  -0.0442829   0.0000000), wk =   0.1111111
        k(   10) = (   0.0255667  -0.0147610   0.0000000), wk =   0.1111111
        k(   11) = (   0.0511335   0.0295219   0.0000000), wk =   0.1111111
        k(   12) = (   0.0511335   0.0590439   0.0000000), wk =   0.1111111
        k(   13) = (   0.0511335   0.0885658   0.0000000), wk =   0.1111111
        k(   14) = (   0.0511335  -0.0590439   0.0000000), wk =   0.1111111
        k(   15) = (   0.0511335  -0.0295219   0.0000000), wk =   0.1111111
        k(   16) = (   0.0511335   0.0000000   0.0000000), wk =   0.1111111
        k(   17) = (  -0.0767002  -0.0442829   0.0000000), wk =   0.0555556
        k(   18) = (  -0.0767002  -0.0147610   0.0000000), wk =   0.1111111
        k(   19) = (  -0.0767002   0.0147610   0.0000000), wk =   0.1111111
        k(   20) = (  -0.0767002  -0.1328487   0.0000000), wk =   0.0555556

     Largest allocated arrays     est. size (Mb)     dimensions
     Largest temporary arrays     est. size (Mb)     dimensions

     Initial potential from superposition of free atoms
     Check: negative starting charge=   -0.001290

     starting charge  170.99959, renormalised to  183.00000

     negative rho (up, down):  1.380E-03 0.000E+00

     *
     * You are using vdW-DF for exchange-correlation in this calculation.
     * Please cite the following three references that made this development
     * possible:
     *
     *   M. Dion, H. Rydberg, E. Schroder, D. C. Langreth, and
     *   B. I. Lundqvist, Phys. Rev. Lett. 92, 246401 (2004).
     *
     *   T. Thonhauser, V. R. Cooper, S. Li, A. Puzder, P. Hyldgaard, and
     *   D. C. Langreth, Phys. Rev. B 76, 125112 (2007).
     *
     *   G. Roman-Perez and J. M. Soler, Phys. Rev. Lett. 103, 096102 (2009).
     *
     *
     * If you are using vdW-DF2, please also cite:
     *
     *   K. Lee, E. D. Murray, L. Kong, B. I. Lundqvist, and
     *   D. C. Langreth, Phys. Rev. B 82, 081101(R) (2010).
     *
     *
     * If you are calculating the stress with vdW-DF, please also cite:
     *
     *   R. Sabatini, E. Kucukbenli, B. Kolb, T. Thonhauser, and
     *   S. de Gironcoli, J. Phys.: Condens. Matter 24, 424209 (2012).
     *

     Carrying out vdW-DF run using the following parameters:

     Nqs =      20    Nr_points =    1024   r_max =   100.000
     q_mesh =
               0.00001000     0.04494208     0.09755937     0.15916263
               0.23128650     0.31572767     0.41458969     0.53033537
               0.66584808     0.82450364     1.01025438     1.22772762
               1.48234092     1.78043706     2.12944203     2.53805004
               3.01644009     3.57652955     4.23227104     5.00000000

     Gradients computed in reciprocal space

     Adding external electric field

     Computed dipole along edir(3) :
        Dipole               -0.0000 Ry au,         -0.0000 Debye
        Dipole field         -0.0000 Ry au

        Potential amp.        0.0000 Ry
        Total length         46.6565 bohr

     Starting wfc are  120 randomized atomic wfcs +    1 random wfc

     Self-consistent Calculation

     iteration #  1     ecut=    36.75 Ry     beta=0.10
     Davidson diagonalization with overlap
     ethr =  1.00E-02,  avg # of iterations = 10.9

[...]

     total energy              =   -2628.35271487 Ry
     Harris-Foulkes estimate   =   -2678.25608240 Ry
     estimated scf accuracy    <     275.45806651 Ry

[...]

     End of self-consistent calculation

          k = 0.0000 0.0000 0.0000 ( 23631 PWs)   bands (ev):

  -111.8196-111.4792-111.4788 -69.2523 -69.2186 -69.2186 -68.9137 -68.9137
   -68.9133 -68.9132 -68.8663 -68.8660 -21.5417 -21.5319 -21.5225 -21.5225
   -21.5038 -21.5038 -21.4980 -21.4651 -21.4639 -21.4624 -21.4624 -21.4493
   -21.4493 -21.4437 -21.4323 -21.4287 -21.4287 -21.4258 -21.4222 -21.4222
   -21.3859 -21.3819 -21.3819 -21.3805 -21.3805 -21.3778 -21.3778 -21.3643
   -21.3577 -21.3577 -21.3528 -21.3381 -21.3381 -21.3257 -21.3257 -21.3076
   -21.3076 -21.2937 -21.2918 -21.2918 -21.2853 -21.2765 -21.2535 -21.2535
   -21.2354  -9.8613  -8.6609  -7.0012  -6.0187  -6.0187  -5.4156  -5.4156
    -4.4672  -4.4672  -3.8763  -3.3659  -2.8654  -2.6008  -2.6008  -2.3349
    -2.0427  -2.0427  -1.8893  -1.8438  -1.8437  -1.6335  -1.6264  -1.6264
    -1.6137  -1.6137  -1.6089  -1.6089  -1.5332  -1.5332  -1.5124  -1.2639
    -1.2639  -1.0849  -0.8230  -0.8230   0.3792   0.4577   1.2431   2.1527
     2.1527   2.2866   2.2866   3.0980   3.6960   3.6967   3.8654   4.3114
     4.6381   4.6381   4.8056   4.9862   5.1058   5.1058   5.1906   5.9090
     6.0194   6.0194   6.4712   6.6953   6.7280   6.8342   6.8344   6.8369
     7.1130

[...]

          k =-0.0767-0.0443 0.0000 ( 23656 PWs)   bands (ev):

[...]

     the Fermi energy is     0.5554 ev

!    total energy              =   -2660.92163494 Ry
     Harris-Foulkes estimate   =   -2660.92318247 Ry
     estimated scf accuracy    <       0.00000061 Ry

     The total energy is the sum of the following terms:

     one-electron contribution =  -14007.64435413 Ry
     hartree contribution      =    7054.60828682 Ry
     xc contribution           =    -520.26650476 Ry
     ewald contribution        =    4812.41198412 Ry
     electric field correction =       0.00000000 Ry
     smearing contrib. (-TS)   =      -0.03104700 Ry

     convergence has been achieved in  21 iterations

 BEEF-vdW xc energy contributions
           1 :   -458.060144539561
           2 :    418.186460705695
           3 :   -350.727905143960
           4 :    274.615097100340
           5 :   -207.457701578802
           6 :    159.231986246870
           7 :   -130.304132342269
           8 :    114.043297320501
           9 :   -102.011661313683
          10 :    88.6829839657526
          11 :   -73.3827808127414
          12 :    59.0257050917186
[...]
     Pseudo is Ultrasoft + core correction, Zval = 14.0
     Generated by new atomic code, or converted to UPF format
     Using radial grid of  891 points,  6 beta functions with:
                l(1) =   0
                l(2) =   0
                l(3) =   1
                l(4) =   1
                l(5) =   2
                l(6) =   2
     Q(r) pseudized with  8 coefficients,  rinner =    1.350   1.350   1.350
                                                       1.350   1.350

     PseudoPot. # 2 for Cu read from file:
     /afs/slac.stanford.edu/u/if/mamunm/psp/gbrv1.5pbe/Cu.UPF
     MD5 check sum: 6e991ff952a84172a2a52a1c1e996048
     Pseudo is Ultrasoft + core correction, Zval = 19.0
     Generated by new atomic code, or converted to UPF format
     Using radial grid of  867 points,  6 beta functions with:
                l(1) =   0
                l(2) =   0
                l(3) =   1
                l(4) =   1
                l(5) =   2
                l(6) =   2
     Q(r) pseudized with  8 coefficients,  rinner =    1.150   1.150   1.150
                                                       1.150   1.150

     vdW kernel table read from file vdW_kernel_table
     MD5 check sum: 095c7af220d748ca6e76c0b4c6cfb241

     atomic species   valence    mass     pseudopotential
        Sn1           14.00   118.71000     Sn( 1.00)
        Cu1           19.00    63.54600     Cu( 1.00)

     No symmetry found

   Cartesian axes

     site n.     atom                  positions (alat units)
         1           Sn1 tau(   1) = (   0.0000000   0.0000000  10.0000000  )
         2           Sn1 tau(   2) = (  -1.6297209   2.8227594  10.0000000  )
         3           Sn1 tau(   3) = (   1.6297209   2.8227594  10.0000000  )
         4           Cu1 tau(   4) = (   3.2594418   0.0000000  10.0000000  )
         5           Sn1 tau(   5) = (   3.2594418   1.8818396  12.6613231  )
         6           Sn1 tau(   6) = (   1.6297209   4.7045991  12.6613231  )
         7           Sn1 tau(   7) = (  -1.6297209   4.7045991  12.6613231  )
         8           Cu1 tau(   8) = (   0.0000000   1.8818396  12.6613231  )
         9           Sn1 tau(   9) = (  -0.0000533   3.7142525  15.2593559  )
        10           Sn1 tau(  10) = (   1.5869704   0.9656637  15.2591965  )
        11           Sn1 tau(  11) = (   4.9320048   0.9655581  15.2593198  )
        12           Cu1 tau(  12) = (   3.2594376   3.7636145  14.7328032  )

     number of k points=    20  Fermi-Dirac smearing, width (Ry)=  0.0110
                       cart. coord. in units 2pi/alat
        k(    1) = (   0.0000000   0.0000000   0.0000000), wk =   0.0555556
        k(    2) = (   0.0000000   0.0295219   0.0000000), wk =   0.1111111
        k(    3) = (   0.0000000   0.0590439   0.0000000), wk =   0.1111111
        k(    4) = (   0.0000000  -0.0885658   0.0000000), wk =   0.0555556
        k(    5) = (   0.0255667   0.0147610   0.0000000), wk =   0.1111111
        k(    6) = (   0.0255667   0.0442829   0.0000000), wk =   0.1111111
        k(    7) = (   0.0255667   0.0738048   0.0000000), wk =   0.1111111
        k(    8) = (   0.0255667  -0.0738048   0.0000000), wk =   0.1111111
        k(    9) = (   0.0255667  -0.0442829   0.0000000), wk =   0.1111111
        k(   10) = (   0.0255667  -0.0147610   0.0000000), wk =   0.1111111
        k(   11) = (   0.0511335   0.0295219   0.0000000), wk =   0.1111111
        k(   12) = (   0.0511335   0.0590439   0.0000000), wk =   0.1111111
        k(   13) = (   0.0511335   0.0885658   0.0000000), wk =   0.1111111
        k(   14) = (   0.0511335  -0.0590439   0.0000000), wk =   0.1111111
        k(   15) = (   0.0511335  -0.0295219   0.0000000), wk =   0.1111111
        k(   16) = (   0.0511335   0.0000000   0.0000000), wk =   0.1111111
        k(   17) = (  -0.0767002  -0.0442829   0.0000000), wk =   0.0555556
        k(   18) = (  -0.0767002  -0.0147610   0.0000000), wk =   0.1111111
        k(   19) = (  -0.0767002   0.0147610   0.0000000), wk =   0.1111111
        k(   20) = (  -0.0767002  -0.1328487   0.0000000), wk =   0.0555556

     Largest allocated arrays     est. size (Mb)     dimensions
     Largest temporary arrays     est. size (Mb)     dimensions

     Initial potential from superposition of free atoms
     Check: negative starting charge=   -0.001319

     starting charge  170.99959, renormalised to  183.00000

[...]

     *
     * You are using vdW-DF for exchange-correlation in this calculation.
     * Please cite the following three references that made this development
     * possible:
     *
     *   M. Dion, H. Rydberg, E. Schroder, D. C. Langreth, and
     *   B. I. Lundqvist, Phys. Rev. Lett. 92, 246401 (2004).
     *
     *   T. Thonhauser, V. R. Cooper, S. Li, A. Puzder, P. Hyldgaard, and
     *   D. C. Langreth, Phys. Rev. B 76, 125112 (2007).
     *
     *   G. Roman-Perez and J. M. Soler, Phys. Rev. Lett. 103, 096102 (2009).
     *
     *
     * If you are using vdW-DF2, please also cite:
     *
     *   K. Lee, E. D. Murray, L. Kong, B. I. Lundqvist, and
     *   D. C. Langreth, Phys. Rev. B 82, 081101(R) (2010).
     *
     *
     * If you are calculating the stress with vdW-DF, please also cite:
     *
     *   R. Sabatini, E. Kucukbenli, B. Kolb, T. Thonhauser, and
     *   S. de Gironcoli, J. Phys.: Condens. Matter 24, 424209 (2012).
     *

     Carrying out vdW-DF run using the following parameters:

     Nqs =      20    Nr_points =    1024   r_max =   100.000
     q_mesh =
               0.00001000     0.04494208     0.09755937     0.15916263
               0.23128650     0.31572767     0.41458969     0.53033537
               0.66584808     0.82450364     1.01025438     1.22772762
               1.48234092     1.78043706     2.12944203     2.53805004
               3.01644009     3.57652955     4.23227104     5.00000000

     Gradients computed in reciprocal space

[...]

     Starting wfc are  120 randomized atomic wfcs +    1 random wfc

     Self-consistent Calculation

[...]

     total energy              =   -2660.94130983 Ry
     Harris-Foulkes estimate   =   -2660.94130929 Ry
     estimated scf accuracy    <       0.00000139 Ry

     iteration # 20     ecut=    36.75 Ry     beta=0.10
     Davidson diagonalization with overlap
     ethr =  7.59E-10,  avg # of iterations =  1.8

[...]

     negative rho (up, down):  6.831E-04 0.000E+00

     Adding external electric field

     Computed dipole along edir(3) :
        Dipole                0.0070 Ry au,          0.0178 Debye
        Dipole field          0.0000 Ry au

        Potential amp.       -0.0013 Ry
        Total length         46.6565 bohr

     End of self-consistent calculation

[...]

          k = 0.0511 0.0000 0.0000 ( 23622 PWs)   bands (ev):

[...]

          k =-0.0767-0.1328 0.0000 ( 23656 PWs)   bands (ev):

  -111.9977-111.8383-111.4553 -69.4270 -69.4004 -69.4004 -69.2761 -69.2334
   -69.2333 -68.8912 -68.8912 -68.8407 -21.5158 -21.4971 -21.4744 -21.4661
   -21.4599 -21.4516 -21.4475 -21.4446 -21.4366 -21.4313 -21.4299 -21.4249
   -21.4111 -21.4100 -21.4079 -21.4068 -21.4010 -21.4009 -21.3991 -21.3989
   -21.3953 -21.3939 -21.3856 -21.3835 -21.3766 -21.3735 -21.3698 -21.3658
   -21.3624 -21.3545 -21.3545 -21.3432 -21.3421 -21.3330 -21.3283 -21.3249
   -21.3232 -21.3192 -21.3126 -21.3113 -21.3065 -21.3012 -21.2789 -21.2734
   -21.2429  -9.0197  -8.7045  -7.6702  -7.2820  -6.6750  -6.5036  -5.8302
    -5.4830  -4.1126  -3.7942  -3.2796  -2.5666  -2.4122  -2.3147  -2.2738
    -2.2339  -2.1442  -2.0833  -2.0563  -2.0087  -1.9186  -1.8457  -1.7593
    -1.6322  -1.6024  -1.5812  -1.4004  -0.8522  -0.6943  -0.4149  -0.3116
    -0.1865  -0.1057   0.2968   0.8378   0.9539   1.1102   1.5202   1.7259
     1.8146   1.8646   2.1498   2.4730   2.7602   3.1930   3.2867   3.6498
     3.6928   4.0306   4.2360   4.5724   4.8895   5.0181   5.0836   5.2468
     5.2820   5.3966   5.5394   5.7558   5.8214   5.9258   5.9645   6.1945
     6.2252

     the Fermi energy is     0.5724 ev

!    total energy              =   -2660.94131264 Ry
     Harris-Foulkes estimate   =   -2660.94130992 Ry
     estimated scf accuracy    <       0.00000060 Ry

     The total energy is the sum of the following terms:

     one-electron contribution =  -14412.56296458 Ry
     hartree contribution      =    7256.77323917 Ry
     xc contribution           =    -520.37141199 Ry
     ewald contribution        =    5015.24949522 Ry
     electric field correction =       0.00000010 Ry
     smearing contrib. (-TS)   =      -0.02967057 Ry

     convergence has been achieved in  20 iterations

 BEEF-vdW xc energy contributions
           1 :   -458.221493125519
           2 :    418.432290574952
           3 :   -351.071291356700
           4 :    274.980010483546
           5 :   -207.731937715554
           6 :    159.349494141763
           7 :   -130.292080183119
           8 :    113.999082898212
           9 :   -102.030231590975
          10 :    88.7905043402945
          11 :   -73.5254932436951
          12 :    59.1186567704556
          13 :   -49.0741951922183
          14 :    44.8188562088268
          15 :   -44.8659462180005
          16 :    45.9861984797112
          17 :   -45.3115902734589
          18 :    41.9212468315933
          19 :   -37.0214518972512
          20 :    32.8181700147342
          21 :   -30.9609389614963
          22 :    31.5624128020045
          23 :   -33.3068833711393
          24 :    34.4245486747940
          25 :   -33.8185908991125
          26 :    31.6362042837625
          27 :   -29.0113006687718
          28 :    27.2399327619155
          29 :   -26.9606899948956
          30 :    27.8371111992086
          31 :   -39.1606918626283
          32 :   -28.0912966984130

     Forces acting on atoms (Ry/au):

     negative rho (up, down):  6.831E-04 0.000E+00
     atom    1 type  1   force =    -0.00000353    0.00597147    0.00207393
     atom    2 type  1   force =     0.00516665   -0.00298211    0.00207641
     atom    3 type  1   force =    -0.00516455   -0.00297646    0.00206176
     atom    4 type  2   force =    -0.00000048    0.00000567    0.01601368
     atom    5 type  1   force =     0.00000248   -0.00816684   -0.00727384
     atom    6 type  1   force =    -0.00706812    0.00408171   -0.00728797
     atom    7 type  1   force =     0.00707005    0.00407953   -0.00728760
     atom    8 type  2   force =    -0.00000051    0.00000204    0.00009660
     atom    9 type  1   force =    -0.00000297   -0.00005804   -0.00010772
     atom   10 type  1   force =    -0.00006357    0.00002528   -0.00008933
     atom   11 type  1   force =     0.00006336    0.00001697   -0.00009867
     atom   12 type  2   force =     0.00000119    0.00000079   -0.00017724

     Total force =     0.027115     Total SCF correction =     0.002792
     SCF correction compared to forces is large: reduce conv_thr to get better values

     entering subroutine stress ...

     negative rho (up, down):  6.831E-04 0.000E+00
          total   stress  (Ry/bohr**3)                   (kbar)     P=   -8.56
  -0.00006179   0.00000000  -0.00000000         -9.09      0.00     -0.00
   0.00000000  -0.00006179   0.00000000          0.00     -9.09      0.00
  -0.00000000   0.00000000  -0.00005106         -0.00      0.00     -7.51

 !ASE

     Writing output data file calc.save

     General routines

     Parallel routines

   This run was terminated on:  13:21:53   1Jan2019

   JOB DONE.
Job  /afs/slac/g/suncat/bin/suncat-tsmpirun -x LD_LIBRARY_PATH -wdir /scratch/qe649001_0J4fj pw.x -in pw.inp

TID   HOST_NAME   COMMAND_LINE            STATUS            TERMINATION_TIME
00000 suncat0031 pw.x -in pw.inp   Done                     01/01/2019 13:21:53
00001 suncat0031 pw.x -in pw.inp   Done                     01/01/2019 13:21:53
00002 suncat0031 pw.x -in pw.inp   Done                     01/01/2019 13:21:53
00003 suncat0031 pw.x -in pw.inp   Done                     01/01/2019 13:21:53
00004 suncat0031 pw.x -in pw.inp   Done                     01/01/2019 13:21:53
00005 suncat0031 pw.x -in pw.inp   Done                     01/01/2019 13:21:53
00006 suncat0031 pw.x -in pw.inp   Done                     01/01/2019 13:21:53
00007 suncat0031 pw.x -in pw.inp   Done                     01/01/2019 13:21:53
00008 suncat0030 pw.x -in pw.inp   Done                     01/01/2019 13:21:53
00009 suncat0030 pw.x -in pw.inp   Done                     01/01/2019 13:21:53
00010 suncat0030 pw.x -in pw.inp   Done                     01/01/2019 13:21:53
00011 suncat0030 pw.x -in pw.inp   Done                     01/01/2019 13:21:53
00012 suncat0030 pw.x -in pw.inp   Done                     01/01/2019 13:21:53
00013 suncat0030 pw.x -in pw.inp   Done                     01/01/2019 13:21:53
00014 suncat0030 pw.x -in pw.inp   Done                     01/01/2019 13:21:53
00015 suncat0030 pw.x -in pw.inp   Done                     01/01/2019 13:21:53
00016 suncat0132 pw.x -in pw.inp   Done                     01/01/2019 13:21:53
00017 suncat0132 pw.x -in pw.inp   Done                     01/01/2019 13:21:53
00018 suncat0132 pw.x -in pw.inp   Done                     01/01/2019 13:21:53
00019 suncat0132 pw.x -in pw.inp   Done                     01/01/2019 13:21:53
00020 suncat0132 pw.x -in pw.inp   Done                     01/01/2019 13:21:53
00021 suncat0132 pw.x -in pw.inp   Done                     01/01/2019 13:21:53
00022 suncat0132 pw.x -in pw.inp   Done                     01/01/2019 13:21:53
00023 suncat0132 pw.x -in pw.inp   Done                     01/01/2019 13:21:53
00024 suncat0131 pw.x -in pw.inp   Done                     01/01/2019 13:21:53
00025 suncat0131 pw.x -in pw.inp   Done                     01/01/2019 13:21:53
00026 suncat0131 pw.x -in pw.inp   Done                     01/01/2019 13:21:53
00027 suncat0131 pw.x -in pw.inp   Done                     01/01/2019 13:21:53
00028 suncat0131 pw.x -in pw.inp   Done                     01/01/2019 13:21:53
00029 suncat0131 pw.x -in pw.inp   Done                     01/01/2019 13:21:53
00030 suncat0131 pw.x -in pw.inp   Done                     01/01/2019 13:21:53
00031 suncat0131 pw.x -in pw.inp   Done                     01/01/2019 13:21:53
00032 suncat0130 pw.x -in pw.inp   Done                     01/01/2019 13:21:53
00033 suncat0130 pw.x -in pw.inp   Done                     01/01/2019 13:21:53
00034 suncat0130 pw.x -in pw.inp   Done                     01/01/2019 13:21:53
00035 suncat0130 pw.x -in pw.inp   Done                     01/01/2019 13:21:53
00036 suncat0130 pw.x -in pw.inp   Done                     01/01/2019 13:21:53
00037 suncat0130 pw.x -in pw.inp   Done                     01/01/2019 13:21:53
00038 suncat0130 pw.x -in pw.inp   Done                     01/01/2019 13:21:53
00039 suncat0130 pw.x -in pw.inp   Done                     01/01/2019 13:21:53
00040 suncat0124 pw.x -in pw.inp   Done                     01/01/2019 13:21:53
00041 suncat0124 pw.x -in pw.inp   Done                     01/01/2019 13:21:53
00042 suncat0124 pw.x -in pw.inp   Done                     01/01/2019 13:21:53
00043 suncat0124 pw.x -in pw.inp   Done                     01/01/2019 13:21:53
00044 suncat0124 pw.x -in pw.inp   Done                     01/01/2019 13:21:53
00045 suncat0124 pw.x -in pw.inp   Done                     01/01/2019 13:21:53
00046 suncat0124 pw.x -in pw.inp   Done                     01/01/2019 13:21:53
00047 suncat0124 pw.x -in pw.inp   Done                     01/01/2019 13:21:53
00048 suncat0280 pw.x -in pw.inp   Done                     01/01/2019 13:21:53
00049 suncat0280 pw.x -in pw.inp   Done                     01/01/2019 13:21:53
00050 suncat0280 pw.x -in pw.inp   Done                     01/01/2019 13:21:53
00051 suncat0280 pw.x -in pw.inp   Done                     01/01/2019 13:21:53
00052 suncat0280 pw.x -in pw.inp   Done                     01/01/2019 13:21:53
00053 suncat0280 pw.x -in pw.inp   Done                     01/01/2019 13:21:53
00054 suncat0280 pw.x -in pw.inp   Done                     01/01/2019 13:21:53
00055 suncat0280 pw.x -in pw.inp   Done                     01/01/2019 13:21:53
00056 suncat0279 pw.x -in pw.inp   Done                     01/01/2019 13:21:53
00057 suncat0279 pw.x -in pw.inp   Done                     01/01/2019 13:21:53
00058 suncat0279 pw.x -in pw.inp   Done                     01/01/2019 13:21:53
00059 suncat0279 pw.x -in pw.inp   Done                     01/01/2019 13:21:53
00060 suncat0279 pw.x -in pw.inp   Done                     01/01/2019 13:21:53
00061 suncat0279 pw.x -in pw.inp   Done                     01/01/2019 13:21:53
00062 suncat0279 pw.x -in pw.inp   Done                     01/01/2019 13:21:53
00063 suncat0279 pw.x -in pw.inp   Done                     01/01/2019 13:21:53