     Program PWSCF v.5.1rc2 (svn rev. 11289) starts on 19Dec2018 at  9:56: 8

     Current dimensions of program PWSCF are:
     Max number of different atomic species (ntypx) = 10
     Max number of k-points (npk) =  40000
     Max angular momentum in pseudopotentials (lmaxx) =  3
     Presently stress not available with electric field

     IMPORTANT: XC functional enforced from input :
     Exchange-correlation      = BEEF-VDW ( 1  4 27 13 2)
     Any further DFT definition will be discarded
     Please, verify this is what you really want

     Subspace diagonalization in iterative solution of the eigenvalue problem:
     a serial algorithm will be used

     Found symmetry operation: I + ( -0.5000 -0.5000  0.0000)
     This is a supercell, fractional translations are disabled

     bravais-lattice index     =            0
     lattice parameter (alat)  =       1.8897  a.u.
     unit-cell volume          =    4274.8316 (a.u.)^3
     number of atoms/cell      =           12
     number of atomic types    =            2
     number of electrons       =       168.00
     number of Kohn-Sham states=          114
     kinetic-energy cutoff     =      36.7493  Ry
     charge density cutoff     =     367.4932  Ry
     convergence threshold     =      1.0E-06
     mixing beta               =       0.1000
     number of iterations used =           10  plain     mixing
     Exchange-correlation      = BEEF-VDW ( 1  4 27 13 2)
     nstep                     =           50

     celldm(1)=   1.889726  celldm(2)=   0.000000  celldm(3)=   0.000000
     celldm(4)=   0.000000  celldm(5)=   0.000000  celldm(6)=   0.000000

     crystal axes: (cart. coord. in units of alat)
               a(1) = (   5.259707   0.000000   0.000000 )
               a(2) = (   1.758431   4.957059   0.000000 )
               a(3) = (   0.000000   0.000000  24.296113 )

     reciprocal axes: (cart. coord. in units 2 pi/alat)
               b(1) = (  0.190125 -0.067443  0.000000 )
               b(2) = (  0.000000  0.201733  0.000000 )
               b(3) = (  0.000000  0.000000  0.041159 )

     PseudoPot. # 1 for V  read from file:
     /afs/slac.stanford.edu/u/if/mamunm/psp/gbrv1.5pbe/V.UPF
     MD5 check sum: 22b79981416ebb76fdaf5b1b8640f6fb
     Pseudo is Ultrasoft + core correction, Zval = 13.0
     Generated by new atomic code, or converted to UPF format
     Using radial grid of  853 points,  6 beta functions with:
                l(1) =   0
                l(2) =   0
                l(3) =   1
                l(4) =   1
                l(5) =   2
                l(6) =   2
     Q(r) pseudized with  8 coefficients,  rinner =    1.100   1.100   1.100
                                                       1.100   1.100

     PseudoPot. # 2 for Re read from file:
     /afs/slac.stanford.edu/u/if/mamunm/psp/gbrv1.5pbe/Re.UPF
     MD5 check sum: 85f993410f3e006da9d71c142b4ad953
     Pseudo is Ultrasoft + core correction, Zval = 15.0
     Generated by new atomic code, or converted to UPF format
     Using radial grid of  981 points,  8 beta functions with:
                l(1) =   0
                l(2) =   0
                l(3) =   1
                l(4) =   1
                l(5) =   2
                l(6) =   2
                l(7) =   3
                l(8) =   3
     Q(r) pseudized with  8 coefficients,  rinner =    1.150   1.150   1.150
                                                       1.150   1.150   1.150
                                                       1.150

     vdW kernel table read from file vdW_kernel_table
     MD5 check sum: 095c7af220d748ca6e76c0b4c6cfb241

     atomic species   valence    mass     pseudopotential
        V1            13.00    50.94150     V ( 1.00)
        Re1           15.00   186.20700     Re( 1.00)

     No symmetry found

   Cartesian axes

     site n.     atom                  positions (alat units)
         1           V1  tau(   1) = (   0.0000000   0.0000000  10.0000000  )
         2           V1  tau(   2) = (   3.5090691   2.4785295  10.0000000  )
         3           Re1 tau(   3) = (   2.6298534   0.0000000  10.0000000  )
         4           Re1 tau(   4) = (   0.8792157   2.4785295  10.0000000  )
         5           V1  tau(   5) = (   5.2597067   3.7150418  12.1480563  )
         6           V1  tau(   6) = (   1.7506377   1.2365123  12.1480563  )
         7           Re1 tau(   7) = (   2.6298534   3.7150418  12.1480563  )
         8           Re1 tau(   8) = (   4.3804910   1.2365123  12.1480563  )
         9           V1  tau(   9) = (   3.5012753   2.4730246  14.2961126  )
        10           V1  tau(  10) = (   7.0103444   4.9515541  14.2961126  )
        11           Re1 tau(  11) = (   6.1311287   2.4730246  14.2961126  )
        12           Re1 tau(  12) = (   4.3804910   4.9515541  14.2961126  )

     number of k points=    20  Fermi-Dirac smearing, width (Ry)=  0.0110
                       cart. coord. in units 2pi/alat
        k(    1) = (   0.0000000   0.0000000   0.0000000), wk =   0.0555556
        k(    2) = (   0.0000000   0.0336221   0.0000000), wk =   0.1111111
        k(    3) = (   0.0000000   0.0672442   0.0000000), wk =   0.1111111
        k(    4) = (   0.0000000  -0.1008663   0.0000000), wk =   0.0555556
        k(    5) = (   0.0316874  -0.0112406   0.0000000), wk =   0.1111111
        k(    6) = (   0.0316874   0.0223815   0.0000000), wk =   0.1111111
        k(    7) = (   0.0316874   0.0560036   0.0000000), wk =   0.1111111
        k(    8) = (   0.0316874  -0.1121068   0.0000000), wk =   0.1111111
        k(    9) = (   0.0316874  -0.0784847   0.0000000), wk =   0.1111111
        k(   10) = (   0.0316874  -0.0448627   0.0000000), wk =   0.1111111
        k(   11) = (   0.0633749  -0.0224812   0.0000000), wk =   0.1111111
        k(   12) = (   0.0633749   0.0111409   0.0000000), wk =   0.1111111
        k(   13) = (   0.0633749   0.0447630   0.0000000), wk =   0.1111111
        k(   14) = (   0.0633749  -0.1233474   0.0000000), wk =   0.1111111
        k(   15) = (   0.0633749  -0.0897253   0.0000000), wk =   0.1111111
        k(   16) = (   0.0633749  -0.0561032   0.0000000), wk =   0.1111111
        k(   17) = (  -0.0950623   0.0337217   0.0000000), wk =   0.0555556
        k(   18) = (  -0.0950623   0.0673438   0.0000000), wk =   0.1111111
        k(   19) = (  -0.0950623   0.1009659   0.0000000), wk =   0.1111111
        k(   20) = (  -0.0950623  -0.0671445   0.0000000), wk =   0.0555556

     Largest allocated arrays     est. size (Mb)     dimensions
     Largest temporary arrays     est. size (Mb)     dimensions

     Initial potential from superposition of free atoms
     Check: negative starting charge=   -0.779991

     starting charge  164.99237, renormalised to  168.00000

     negative rho (up, down):  7.942E-01 0.000E+00

     *
     * You are using vdW-DF for exchange-correlation in this calculation.
     * Please cite the following three references that made this development
     * possible:
     *
     *   M. Dion, H. Rydberg, E. Schroder, D. C. Langreth, and
     *   B. I. Lundqvist, Phys. Rev. Lett. 92, 246401 (2004).
     *
     *   T. Thonhauser, V. R. Cooper, S. Li, A. Puzder, P. Hyldgaard, and
     *   D. C. Langreth, Phys. Rev. B 76, 125112 (2007).
     *
     *   G. Roman-Perez and J. M. Soler, Phys. Rev. Lett. 103, 096102 (2009).
     *
     *
     * If you are using vdW-DF2, please also cite:
     *
     *   K. Lee, E. D. Murray, L. Kong, B. I. Lundqvist, and
     *   D. C. Langreth, Phys. Rev. B 82, 081101(R) (2010).
     *
     *
     * If you are calculating the stress with vdW-DF, please also cite:
     *
     *   R. Sabatini, E. Kucukbenli, B. Kolb, T. Thonhauser, and
     *   S. de Gironcoli, J. Phys.: Condens. Matter 24, 424209 (2012).
     *

     Carrying out vdW-DF run using the following parameters:

     Nqs =      20    Nr_points =    1024   r_max =   100.000
     q_mesh =
               0.00001000     0.04494208     0.09755937     0.15916263
               0.23128650     0.31572767     0.41458969     0.53033537
               0.66584808     0.82450364     1.01025438     1.22772762
               1.48234092     1.78043706     2.12944203     2.53805004
               3.01644009     3.57652955     4.23227104     5.00000000

     Gradients computed in reciprocal space

     Adding external electric field

     Computed dipole along edir(3) :
        Dipole               -0.0000 Ry au,         -0.0000 Debye
        Dipole field         -0.0000 Ry au

        Potential amp.        0.0000 Ry
        Total length         44.7652 bohr

     Starting wfc are  138 randomized atomic wfcs

     Self-consistent Calculation

     iteration #  1     ecut=    36.75 Ry     beta=0.10
     Davidson diagonalization with overlap
     ethr =  1.00E-02,  avg # of iterations =  2.0

[...]

     total energy              =   -2027.51514525 Ry
     Harris-Foulkes estimate   =   -2028.27779221 Ry
     estimated scf accuracy    <       4.56130412 Ry

[...]

     End of self-consistent calculation

          k = 0.0000 0.0000 0.0000 ( 16177 PWs)   bands (ev):

   -78.6845 -78.6742 -78.3542 -78.3541 -78.3443 -78.3442 -62.7636 -62.7505
   -62.5863 -62.5854 -62.5738 -62.5737 -40.5492 -40.4924 -40.4760 -40.4200
   -40.3965 -40.2836 -40.1691 -40.1530 -40.1256 -40.1203 -40.1033 -40.0838
   -40.0685 -40.0516 -40.0359 -40.0012 -39.9040 -39.9019 -36.6104 -36.5585
   -36.5476 -36.5141 -36.5128 -36.5095 -36.4980 -36.4879 -36.4675 -36.4515
   -36.3393 -36.3201 -36.2957 -36.2919 -36.2893 -36.2846 -36.2317 -36.2261
    -5.9537  -3.9998  -3.3565  -3.0243  -2.9888  -2.9635  -2.8065  -2.6804
    -2.6390  -2.5622  -1.8483  -1.8420  -1.5022  -1.0183  -0.9124  -0.8862
    -0.8038  -0.7961  -0.7664  -0.6620  -0.3650  -0.3283   0.0978   0.0990
     0.4014   0.6425   0.7736   1.1130   1.3269   1.5224   1.7662   1.7727
     2.0401   2.1076   2.5370   2.6832   2.9112   2.9936   3.1348   3.1599
     3.3083   3.3630   3.4196   3.4265   3.4648   3.4747   3.4781   3.5318
     3.5429   3.5874   3.6456   3.7984   3.8374   4.0082   4.0163   4.0966
     4.1627   4.2618   4.3450   4.6607   4.7448   4.8018   5.0761   5.1668
     5.2882   5.5386

[...]

          k =-0.0951 0.0337 0.0000 ( 16120 PWs)   bands (ev):

[...]

     the Fermi energy is     1.8849 ev

!    total energy              =   -2027.54486129 Ry
     Harris-Foulkes estimate   =   -2027.54486064 Ry
     estimated scf accuracy    <       0.00000018 Ry

     The total energy is the sum of the following terms:

     one-electron contribution =  -16515.71291681 Ry
     hartree contribution      =    8242.04336908 Ry
     xc contribution           =    -446.65438456 Ry
     ewald contribution        =    6692.85083705 Ry
     electric field correction =       0.00000000 Ry
     smearing contrib. (-TS)   =      -0.07176605 Ry

     convergence has been achieved in  20 iterations

 BEEF-vdW xc energy contributions
           1 :   -393.892613530242
           2 :    362.853806868283
           3 :   -308.605256309397
           4 :    243.593904247558
           5 :   -180.332548529083
           6 :    127.606442456898
           7 :   -88.8367872673543
           8 :    62.7546792698383
[...]
00030 suncat2042 pw.x -in pw.inp   Done                     12/19/2018 10:01:39
00031 suncat2042 pw.x -in pw.inp   Done                     12/19/2018 10:01:39

     Program PWSCF v.5.1rc2 (svn rev. 11289) starts on 19Dec2018 at 10: 1:45

[...]

   This run was terminated on:  10: 7: 9  19Dec2018

[...]

     Program PWSCF v.5.1rc2 (svn rev. 11289) starts on 19Dec2018 at 10: 7:14

     Current dimensions of program PWSCF are:
     Max number of different atomic species (ntypx) = 10
     Max number of k-points (npk) =  40000
     Max angular momentum in pseudopotentials (lmaxx) =  3
     Presently stress not available with electric field

     IMPORTANT: XC functional enforced from input :
     Exchange-correlation      = BEEF-VDW ( 1  4 27 13 2)
     Any further DFT definition will be discarded
     Please, verify this is what you really want

     Subspace diagonalization in iterative solution of the eigenvalue problem:
     a serial algorithm will be used

     Found symmetry operation: I + ( -0.5000 -0.5000  0.0000)
     This is a supercell, fractional translations are disabled

     bravais-lattice index     =            0
     lattice parameter (alat)  =       1.8897  a.u.
     unit-cell volume          =    4274.8316 (a.u.)^3
     number of atoms/cell      =           12
     number of atomic types    =            2
     number of electrons       =       168.00
     number of Kohn-Sham states=          114
     kinetic-energy cutoff     =      36.7493  Ry
     charge density cutoff     =     367.4932  Ry
     convergence threshold     =      1.0E-06
     mixing beta               =       0.1000
     number of iterations used =           10  plain     mixing
     Exchange-correlation      = BEEF-VDW ( 1  4 27 13 2)
     nstep                     =           50

     celldm(1)=   1.889726  celldm(2)=   0.000000  celldm(3)=   0.000000
     celldm(4)=   0.000000  celldm(5)=   0.000000  celldm(6)=   0.000000

     crystal axes: (cart. coord. in units of alat)
               a(1) = (   5.259707   0.000000   0.000000 )
               a(2) = (   1.758431   4.957059   0.000000 )
               a(3) = (   0.000000   0.000000  24.296113 )

     reciprocal axes: (cart. coord. in units 2 pi/alat)
               b(1) = (  0.190125 -0.067443  0.000000 )
               b(2) = (  0.000000  0.201733  0.000000 )
               b(3) = (  0.000000  0.000000  0.041159 )

     PseudoPot. # 1 for V  read from file:
     /afs/slac.stanford.edu/u/if/mamunm/psp/gbrv1.5pbe/V.UPF
     MD5 check sum: 22b79981416ebb76fdaf5b1b8640f6fb
     Pseudo is Ultrasoft + core correction, Zval = 13.0
     Generated by new atomic code, or converted to UPF format
     Using radial grid of  853 points,  6 beta functions with:
                l(1) =   0
                l(2) =   0
                l(3) =   1
                l(4) =   1
                l(5) =   2
                l(6) =   2
     Q(r) pseudized with  8 coefficients,  rinner =    1.100   1.100   1.100
                                                       1.100   1.100

     PseudoPot. # 2 for Re read from file:
     /afs/slac.stanford.edu/u/if/mamunm/psp/gbrv1.5pbe/Re.UPF
     MD5 check sum: 85f993410f3e006da9d71c142b4ad953
     Pseudo is Ultrasoft + core correction, Zval = 15.0
     Generated by new atomic code, or converted to UPF format
     Using radial grid of  981 points,  8 beta functions with:
                l(1) =   0
                l(2) =   0
                l(3) =   1
                l(4) =   1
                l(5) =   2
                l(6) =   2
                l(7) =   3
                l(8) =   3
     Q(r) pseudized with  8 coefficients,  rinner =    1.150   1.150   1.150
                                                       1.150   1.150   1.150
                                                       1.150

     vdW kernel table read from file vdW_kernel_table
     MD5 check sum: 095c7af220d748ca6e76c0b4c6cfb241

     atomic species   valence    mass     pseudopotential
        V1            13.00    50.94150     V ( 1.00)
        Re1           15.00   186.20700     Re( 1.00)

     No symmetry found

   Cartesian axes

     site n.     atom                  positions (alat units)
         1           V1  tau(   1) = (   0.0000000   0.0000000  10.0000000  )
         2           V1  tau(   2) = (   3.5090691   2.4785295  10.0000000  )
         3           Re1 tau(   3) = (   2.6298534   0.0000000  10.0000000  )
         4           Re1 tau(   4) = (   0.8792157   2.4785295  10.0000000  )
         5           V1  tau(   5) = (   5.2597067   3.7150418  12.1480563  )
         6           V1  tau(   6) = (   1.7506377   1.2365123  12.1480563  )
         7           Re1 tau(   7) = (   2.6298534   3.7150418  12.1480563  )
         8           Re1 tau(   8) = (   4.3804910   1.2365123  12.1480563  )
         9           V1  tau(   9) = (   3.5031840   2.4743720  14.2647785  )
        10           V1  tau(  10) = (   7.0122542   4.9529014  14.2647855  )
        11           Re1 tau(  11) = (   6.1330808   2.4744119  14.1942575  )
        12           Re1 tau(  12) = (   4.3824561   4.9529404  14.1942576  )

     number of k points=    20  Fermi-Dirac smearing, width (Ry)=  0.0110
                       cart. coord. in units 2pi/alat
        k(    1) = (   0.0000000   0.0000000   0.0000000), wk =   0.0555556
        k(    2) = (   0.0000000   0.0336221   0.0000000), wk =   0.1111111
        k(    3) = (   0.0000000   0.0672442   0.0000000), wk =   0.1111111
        k(    4) = (   0.0000000  -0.1008663   0.0000000), wk =   0.0555556
        k(    5) = (   0.0316874  -0.0112406   0.0000000), wk =   0.1111111
        k(    6) = (   0.0316874   0.0223815   0.0000000), wk =   0.1111111
        k(    7) = (   0.0316874   0.0560036   0.0000000), wk =   0.1111111
        k(    8) = (   0.0316874  -0.1121068   0.0000000), wk =   0.1111111
        k(    9) = (   0.0316874  -0.0784847   0.0000000), wk =   0.1111111
        k(   10) = (   0.0316874  -0.0448627   0.0000000), wk =   0.1111111
        k(   11) = (   0.0633749  -0.0224812   0.0000000), wk =   0.1111111
        k(   12) = (   0.0633749   0.0111409   0.0000000), wk =   0.1111111
        k(   13) = (   0.0633749   0.0447630   0.0000000), wk =   0.1111111
        k(   14) = (   0.0633749  -0.1233474   0.0000000), wk =   0.1111111
        k(   15) = (   0.0633749  -0.0897253   0.0000000), wk =   0.1111111
        k(   16) = (   0.0633749  -0.0561032   0.0000000), wk =   0.1111111
        k(   17) = (  -0.0950623   0.0337217   0.0000000), wk =   0.0555556
        k(   18) = (  -0.0950623   0.0673438   0.0000000), wk =   0.1111111
        k(   19) = (  -0.0950623   0.1009659   0.0000000), wk =   0.1111111
        k(   20) = (  -0.0950623  -0.0671445   0.0000000), wk =   0.0555556

     Largest allocated arrays     est. size (Mb)     dimensions
     Largest temporary arrays     est. size (Mb)     dimensions

     Initial potential from superposition of free atoms
     Check: negative starting charge=   -0.779879

     starting charge  164.99237, renormalised to  168.00000

[...]

     *
     * You are using vdW-DF for exchange-correlation in this calculation.
     * Please cite the following three references that made this development
     * possible:
     *
     *   M. Dion, H. Rydberg, E. Schroder, D. C. Langreth, and
     *   B. I. Lundqvist, Phys. Rev. Lett. 92, 246401 (2004).
     *
     *   T. Thonhauser, V. R. Cooper, S. Li, A. Puzder, P. Hyldgaard, and
     *   D. C. Langreth, Phys. Rev. B 76, 125112 (2007).
     *
     *   G. Roman-Perez and J. M. Soler, Phys. Rev. Lett. 103, 096102 (2009).
     *
     *
     * If you are using vdW-DF2, please also cite:
     *
     *   K. Lee, E. D. Murray, L. Kong, B. I. Lundqvist, and
     *   D. C. Langreth, Phys. Rev. B 82, 081101(R) (2010).
     *
     *
     * If you are calculating the stress with vdW-DF, please also cite:
     *
     *   R. Sabatini, E. Kucukbenli, B. Kolb, T. Thonhauser, and
     *   S. de Gironcoli, J. Phys.: Condens. Matter 24, 424209 (2012).
     *

     Carrying out vdW-DF run using the following parameters:

     Nqs =      20    Nr_points =    1024   r_max =   100.000
     q_mesh =
               0.00001000     0.04494208     0.09755937     0.15916263
               0.23128650     0.31572767     0.41458969     0.53033537
               0.66584808     0.82450364     1.01025438     1.22772762
               1.48234092     1.78043706     2.12944203     2.53805004
               3.01644009     3.57652955     4.23227104     5.00000000

     Gradients computed in reciprocal space

[...]

     Starting wfc are  138 randomized atomic wfcs

     Self-consistent Calculation

[...]

     total energy              =   -2027.55184811 Ry
     Harris-Foulkes estimate   =   -2027.55185020 Ry
     estimated scf accuracy    <       0.00000532 Ry

     iteration # 18     ecut=    36.75 Ry     beta=0.10
     Davidson diagonalization with overlap
     ethr =  3.17E-09,  avg # of iterations =  2.0

[...]

     negative rho (up, down):  8.129E-01 0.000E+00

     Adding external electric field

     Computed dipole along edir(3) :
        Dipole                0.0337 Ry au,          0.0858 Debye
        Dipole field          0.0001 Ry au

        Potential amp.       -0.0089 Ry
        Total length         44.7652 bohr

     End of self-consistent calculation

[...]

          k = 0.0634-0.0561 0.0000 ( 16089 PWs)   bands (ev):

[...]

          k =-0.0951-0.0671 0.0000 ( 15996 PWs)   bands (ev):

   -78.6488 -78.6390 -78.3263 -78.3164 -78.2845 -78.2745 -62.6974 -62.6845
   -62.5606 -62.5472 -62.5461 -62.5326 -40.4923 -40.4345 -40.4015 -40.3900
   -40.3584 -40.2451 -40.1110 -40.1106 -40.0864 -40.0846 -40.0420 -40.0287
   -39.9954 -39.9745 -39.9571 -39.9430 -39.8701 -39.8525 -36.5850 -36.5787
   -36.5410 -36.4987 -36.4610 -36.4537 -36.4531 -36.4462 -36.4433 -36.3947
   -36.3490 -36.3248 -36.3216 -36.3134 -36.2970 -36.2957 -36.2114 -36.1961
    -4.1036  -3.6127  -3.0043  -2.9739  -1.9512  -1.8536  -1.8483  -1.8406
    -1.6109  -1.3676  -1.3469  -1.2749  -1.0546  -1.0409  -0.8074  -0.6450
    -0.4116  -0.1274  -0.1272  -0.0646   0.2400   0.2763   0.3096   0.4230
     0.5490   0.6472   0.7751   0.9591   1.0401   1.0859   1.0950   1.1479
     1.2082   1.2912   1.3699   1.4685   1.4722   1.4744   1.6515   2.0442
     2.3180   2.3687   2.4061   2.4974   2.5934   2.6150   2.6731   2.7114
     2.8045   2.8864   2.9046   2.9500   2.9833   3.1786   3.6896   3.7266
     3.8485   3.9461   4.2456   4.3193   4.3279   4.4928   4.7631   4.8005
     4.9449   5.1218

     the Fermi energy is     1.9056 ev

!    total energy              =   -2027.55184912 Ry
     Harris-Foulkes estimate   =   -2027.55184797 Ry
     estimated scf accuracy    <       0.00000078 Ry

     The total energy is the sum of the following terms:

     one-electron contribution =  -16676.60653621 Ry
     hartree contribution      =    8322.73189780 Ry
     xc contribution           =    -446.83009919 Ry
     ewald contribution        =    6773.22288039 Ry
     electric field correction =       0.00000335 Ry
     smearing contrib. (-TS)   =      -0.06999525 Ry

     convergence has been achieved in  18 iterations

 BEEF-vdW xc energy contributions
           1 :   -394.069531149908
           2 :    363.086064796408
           3 :   -308.907837527487
           4 :    243.924491814604
           5 :   -180.610117979987
           6 :    127.758263287751
           7 :   -88.8456886633617
           8 :    62.6736487102085
           9 :   -45.4705310928582
          10 :    33.2290608187742
          11 :   -23.2888431934767
          12 :    14.7449831886128
          13 :   -7.89639684743150
          14 :    3.31838910520116
          15 :   -1.15934924214696
          16 :   0.951209370449646
          17 :   -1.85195265499533
          18 :    3.01925482723777
          19 :   -3.86138268600973
          20 :    4.08999770606249
          21 :   -3.65722615453831
          22 :    2.68261024935640
          23 :   -1.41658579190181
          24 :   0.208418947270388
          25 :   0.569523684286025
          26 :  -0.653215489680349
          27 :   1.846662728610227E-002
          28 :    1.07323904926636
          29 :   -2.17141592401867
          30 :    2.84458177748616
          31 :   -34.8373910239349
          32 :   -25.6221317455937

     Forces acting on atoms (Ry/au):

     negative rho (up, down):  8.129E-01 0.000E+00
     atom    1 type  1   force =    -0.00037889   -0.00026780    0.00594291
     atom    2 type  1   force =    -0.00037805   -0.00026732    0.00594185
     atom    3 type  2   force =    -0.00031421   -0.00022665    0.02770978
     atom    4 type  2   force =    -0.00032035   -0.00022089    0.02770942
     atom    5 type  1   force =     0.00012593    0.00008932   -0.01577586
     atom    6 type  1   force =     0.00012384    0.00008792   -0.01577458
     atom    7 type  2   force =     0.00012319    0.00010560   -0.01749863
     atom    8 type  2   force =     0.00014064    0.00008110   -0.01749833
     atom    9 type  1   force =     0.00022627    0.00015974   -0.00123331
     atom   10 type  1   force =     0.00022648    0.00016092   -0.00123715
     atom   11 type  2   force =     0.00021326    0.00014790    0.00085649
     atom   12 type  2   force =     0.00021189    0.00015018    0.00085740

     Total force =     0.052173     Total SCF correction =     0.004769

     entering subroutine stress ...

     negative rho (up, down):  8.129E-01 0.000E+00
          total   stress  (Ry/bohr**3)                   (kbar)     P=  -26.49
  -0.00022133   0.00001967   0.00000211        -32.56      2.89      0.31
   0.00001967  -0.00023528   0.00000149          2.89    -34.61      0.22
   0.00000211   0.00000149  -0.00008361          0.31      0.22    -12.30

 !ASE

     Writing output data file calc.save

     General routines

     Parallel routines

   This run was terminated on:  10:12:17  19Dec2018

   JOB DONE.
Job  /afs/slac/g/suncat/bin/suncat-tsmpirun -x LD_LIBRARY_PATH -wdir /scratch/qe530770_r7uvS pw.x -in pw.inp

TID   HOST_NAME   COMMAND_LINE            STATUS            TERMINATION_TIME
00000 suncat2063 pw.x -in pw.inp   Done                     12/19/2018 10:12:17
00001 suncat2063 pw.x -in pw.inp   Done                     12/19/2018 10:12:17
00002 suncat2063 pw.x -in pw.inp   Done                     12/19/2018 10:12:17
00003 suncat2063 pw.x -in pw.inp   Done                     12/19/2018 10:12:17
00004 suncat2063 pw.x -in pw.inp   Done                     12/19/2018 10:12:17
00005 suncat2063 pw.x -in pw.inp   Done                     12/19/2018 10:12:17
00006 suncat2063 pw.x -in pw.inp   Done                     12/19/2018 10:12:17
00007 suncat2063 pw.x -in pw.inp   Done                     12/19/2018 10:12:17
00008 suncat2063 pw.x -in pw.inp   Done                     12/19/2018 10:12:17
00009 suncat2063 pw.x -in pw.inp   Done                     12/19/2018 10:12:17
00010 suncat2063 pw.x -in pw.inp   Done                     12/19/2018 10:12:17
00011 suncat2063 pw.x -in pw.inp   Done                     12/19/2018 10:12:17
00012 suncat2063 pw.x -in pw.inp   Done                     12/19/2018 10:12:17
00013 suncat2063 pw.x -in pw.inp   Done                     12/19/2018 10:12:17
00014 suncat2063 pw.x -in pw.inp   Done                     12/19/2018 10:12:17
00015 suncat2063 pw.x -in pw.inp   Done                     12/19/2018 10:12:17
00016 suncat2042 pw.x -in pw.inp   Done                     12/19/2018 10:12:17
00017 suncat2042 pw.x -in pw.inp   Done                     12/19/2018 10:12:17
00018 suncat2042 pw.x -in pw.inp   Done                     12/19/2018 10:12:17
00019 suncat2042 pw.x -in pw.inp   Done                     12/19/2018 10:12:17
00020 suncat2042 pw.x -in pw.inp   Done                     12/19/2018 10:12:17
00021 suncat2042 pw.x -in pw.inp   Done                     12/19/2018 10:12:17
00022 suncat2042 pw.x -in pw.inp   Done                     12/19/2018 10:12:17
00023 suncat2042 pw.x -in pw.inp   Done                     12/19/2018 10:12:17
00024 suncat2042 pw.x -in pw.inp   Done                     12/19/2018 10:12:17
00025 suncat2042 pw.x -in pw.inp   Done                     12/19/2018 10:12:17
00026 suncat2042 pw.x -in pw.inp   Done                     12/19/2018 10:12:17
00027 suncat2042 pw.x -in pw.inp   Done                     12/19/2018 10:12:17
00028 suncat2042 pw.x -in pw.inp   Done                     12/19/2018 10:12:17
00029 suncat2042 pw.x -in pw.inp   Done                     12/19/2018 10:12:17
00030 suncat2042 pw.x -in pw.inp   Done                     12/19/2018 10:12:17
00031 suncat2042 pw.x -in pw.inp   Done                     12/19/2018 10:12:17