     Program PWSCF v.5.1rc2 (svn rev. 11289) starts on 24Dec2018 at 21:16: 6

     Current dimensions of program PWSCF are:
     Max number of different atomic species (ntypx) = 10
     Max number of k-points (npk) =  40000
     Max angular momentum in pseudopotentials (lmaxx) =  3
     Presently stress not available with electric field

     IMPORTANT: XC functional enforced from input :
     Exchange-correlation      = BEEF-VDW ( 1  4 27 13 2)
     Any further DFT definition will be discarded
     Please, verify this is what you really want

     Subspace diagonalization in iterative solution of the eigenvalue problem:
     a serial algorithm will be used

     Found symmetry operation: I + (  0.5000  0.0000  0.0000)
     This is a supercell, fractional translations are disabled

     bravais-lattice index     =            0
     lattice parameter (alat)  =       1.8897  a.u.
     unit-cell volume          =    5191.3144 (a.u.)^3
     number of atoms/cell      =           12
     number of atomic types    =            2
     number of electrons       =       156.00
     number of Kohn-Sham states=          108
     kinetic-energy cutoff     =      36.7493  Ry
     charge density cutoff     =     367.4932  Ry
     convergence threshold     =      1.0E-06
     mixing beta               =       0.1000
     number of iterations used =           10  plain     mixing
     Exchange-correlation      = BEEF-VDW ( 1  4 27 13 2)
     nstep                     =           50

     celldm(1)=   1.889726  celldm(2)=   0.000000  celldm(3)=   0.000000
     celldm(4)=   0.000000  celldm(5)=   0.000000  celldm(6)=   0.000000

     crystal axes: (cart. coord. in units of alat)
               a(1) = (   5.663236   0.000000   0.000000 )
               a(2) = (  -2.831618   5.467451   0.000000 )
               a(3) = (   0.000000   0.000000  24.844550 )

     reciprocal axes: (cart. coord. in units 2 pi/alat)
               b(1) = (  0.176577  0.091450  0.000000 )
               b(2) = (  0.000000  0.182901  0.000000 )
               b(3) = (  0.000000  0.000000  0.040250 )

     PseudoPot. # 1 for Hf read from file:
     /afs/slac.stanford.edu/u/if/mamunm/psp/gbrv1.5pbe/Hf.UPF
     MD5 check sum: 8ee9378dfe14276e333edf04c5e4aa26
     Pseudo is Ultrasoft + core correction, Zval = 12.0
     Generated by new atomic code, or converted to UPF format
     Using radial grid of  921 points,  8 beta functions with:
                l(1) =   0
                l(2) =   0
                l(3) =   0
                l(4) =   1
                l(5) =   1
                l(6) =   2
                l(7) =   2
                l(8) =   3
     Q(r) pseudized with  6 coefficients,  rinner =    1.200   1.200   1.200
                                                       1.200   1.200   1.200
                                                       1.200

     PseudoPot. # 2 for W  read from file:
     /afs/slac.stanford.edu/u/if/mamunm/psp/gbrv1.5pbe/W.UPF
     MD5 check sum: 9c083fa34c2a2ea0f02f1f893e16e1c8
     Pseudo is Ultrasoft + core correction, Zval = 14.0
     Generated by new atomic code, or converted to UPF format
     Using radial grid of  923 points,  8 beta functions with:
                l(1) =   0
                l(2) =   0
                l(3) =   0
                l(4) =   1
                l(5) =   1
                l(6) =   2
                l(7) =   2
                l(8) =   3
     Q(r) pseudized with  6 coefficients,  rinner =    1.350   1.350   1.350
                                                       1.350   1.350   1.350
                                                       1.350

     vdW kernel table read from file vdW_kernel_table
     MD5 check sum: 095c7af220d748ca6e76c0b4c6cfb241

     atomic species   valence    mass     pseudopotential
        Hf1           12.00   178.49000     Hf( 1.00)
        W1            14.00   183.84000     W ( 1.00)

     No symmetry found

   Cartesian axes

     site n.     atom                  positions (alat units)
         1           Hf1 tau(   1) = (   0.0000000   0.0000000  10.0000000  )
         2           Hf1 tau(   2) = (   2.8316181   0.0000000  10.0000000  )
         3           W1  tau(   3) = (   1.4158091   2.7337256  10.0000000  )
         4           W1  tau(   4) = (  -1.4158091   2.7337256  10.0000000  )
         5           Hf1 tau(   5) = (   2.8316181   1.4665081  12.4222748  )
         6           Hf1 tau(   6) = (   0.0000000   1.4665081  12.4222748  )
         7           W1  tau(   7) = (  -1.4158091   4.2002337  12.4222748  )
         8           W1  tau(   8) = (   1.4158091   4.2002337  12.4222748  )
         9           Hf1 tau(   9) = (   0.0000000   2.9330162  14.8445497  )
        10           Hf1 tau(  10) = (   2.8316181   2.9330162  14.8445497  )
        11           W1  tau(  11) = (   4.2474272   0.1992905  14.8445497  )
        12           W1  tau(  12) = (   1.4158091   0.1992905  14.8445497  )

     number of k points=    20  Fermi-Dirac smearing, width (Ry)=  0.0110
                       cart. coord. in units 2pi/alat
        k(    1) = (   0.0000000   0.0000000   0.0000000), wk =   0.0555556
        k(    2) = (   0.0000000   0.0304834   0.0000000), wk =   0.1111111
        k(    3) = (   0.0000000   0.0609669   0.0000000), wk =   0.1111111
        k(    4) = (   0.0000000  -0.0914503   0.0000000), wk =   0.0555556
        k(    5) = (   0.0294296   0.0152417   0.0000000), wk =   0.1111111
        k(    6) = (   0.0294296   0.0457251   0.0000000), wk =   0.1111111
        k(    7) = (   0.0294296   0.0762086   0.0000000), wk =   0.1111111
        k(    8) = (   0.0294296  -0.0762086   0.0000000), wk =   0.1111111
        k(    9) = (   0.0294296  -0.0457251   0.0000000), wk =   0.1111111
        k(   10) = (   0.0294296  -0.0152417   0.0000000), wk =   0.1111111
        k(   11) = (   0.0588592   0.0304834   0.0000000), wk =   0.1111111
        k(   12) = (   0.0588592   0.0609669   0.0000000), wk =   0.1111111
        k(   13) = (   0.0588592   0.0914503   0.0000000), wk =   0.1111111
        k(   14) = (   0.0588592  -0.0609669   0.0000000), wk =   0.1111111
        k(   15) = (   0.0588592  -0.0304834   0.0000000), wk =   0.1111111
        k(   16) = (   0.0588592   0.0000000   0.0000000), wk =   0.1111111
        k(   17) = (  -0.0882887  -0.0457251   0.0000000), wk =   0.0555556
        k(   18) = (  -0.0882887  -0.0152417   0.0000000), wk =   0.1111111
        k(   19) = (  -0.0882887   0.0152417   0.0000000), wk =   0.1111111
        k(   20) = (  -0.0882887  -0.1371754   0.0000000), wk =   0.0555556

     Largest allocated arrays     est. size (Mb)     dimensions
     Largest temporary arrays     est. size (Mb)     dimensions

     Check: negative/imaginary core charge=   -0.000002    0.000000

     Initial potential from superposition of free atoms
     Check: negative starting charge=   -1.027187

     starting charge  143.39795, renormalised to  156.00000

     negative rho (up, down):  1.117E+00 0.000E+00

     *
     * You are using vdW-DF for exchange-correlation in this calculation.
     * Please cite the following three references that made this development
     * possible:
     *
     *   M. Dion, H. Rydberg, E. Schroder, D. C. Langreth, and
     *   B. I. Lundqvist, Phys. Rev. Lett. 92, 246401 (2004).
     *
     *   T. Thonhauser, V. R. Cooper, S. Li, A. Puzder, P. Hyldgaard, and
     *   D. C. Langreth, Phys. Rev. B 76, 125112 (2007).
     *
     *   G. Roman-Perez and J. M. Soler, Phys. Rev. Lett. 103, 096102 (2009).
     *
     *
     * If you are using vdW-DF2, please also cite:
     *
     *   K. Lee, E. D. Murray, L. Kong, B. I. Lundqvist, and
     *   D. C. Langreth, Phys. Rev. B 82, 081101(R) (2010).
     *
     *
     * If you are calculating the stress with vdW-DF, please also cite:
     *
     *   R. Sabatini, E. Kucukbenli, B. Kolb, T. Thonhauser, and
     *   S. de Gironcoli, J. Phys.: Condens. Matter 24, 424209 (2012).
     *

     Carrying out vdW-DF run using the following parameters:

     Nqs =      20    Nr_points =    1024   r_max =   100.000
     q_mesh =
               0.00001000     0.04494208     0.09755937     0.15916263
               0.23128650     0.31572767     0.41458969     0.53033537
               0.66584808     0.82450364     1.01025438     1.22772762
               1.48234092     1.78043706     2.12944203     2.53805004
               3.01644009     3.57652955     4.23227104     5.00000000

     Gradients computed in reciprocal space

     Adding external electric field

     Computed dipole along edir(3) :
        Dipole                0.0000 Ry au,          0.0000 Debye
        Dipole field          0.0000 Ry au

        Potential amp.       -0.0000 Ry
        Total length         45.7757 bohr

     Starting wfc are  156 randomized atomic wfcs

     Self-consistent Calculation

     iteration #  1     ecut=    36.75 Ry     beta=0.10
     Davidson diagonalization with overlap
     ethr =  1.00E-02,  avg # of iterations =  8.6

[...]

     total energy              =   -1926.92376060 Ry
     Harris-Foulkes estimate   =   -1932.55928374 Ry
     estimated scf accuracy    <      34.50783804 Ry

[...]

     End of self-consistent calculation

          k = 0.0000 0.0000 0.0000 ( 19635 PWs)   bands (ev):

   -72.3968 -72.3598 -72.2348 -72.2337 -72.1982 -72.1971 -60.3173 -60.3153
   -60.2376 -60.2356 -59.9261 -59.8453 -36.7541 -36.6465 -36.5715 -36.5379
   -36.5352 -36.4483 -36.3755 -36.3579 -36.3102 -36.2976 -36.2936 -36.2402
   -36.2264 -36.1770 -36.1364 -36.1175 -35.9252 -35.9237 -29.4025 -29.3973
   -29.2428 -29.1006 -29.0833 -29.0139 -28.8832 -28.8198 -28.8013 -28.6964
   -28.6760 -28.4604 -28.3673 -28.3323 -28.3009 -28.2970 -28.2529 -27.9759
    -5.4124  -3.8124  -2.8011  -2.1852  -2.1096  -2.0541  -1.9873  -1.9242
    -1.7836  -1.3805  -1.1725  -1.0941  -1.0191  -0.9463  -0.9336  -0.0951
     0.3015   0.3274   0.4571   0.9050   0.9535   1.4253   1.5106   1.6181
     1.6601   1.9935   2.0028   2.0202   2.3395   2.5248   2.5357   2.7134
     2.7134   2.7354   2.9935   3.0930   3.1802   3.2413   3.4357   3.5649
     3.5967   3.7786   3.7804   4.0612   4.0950   4.3473   4.6708   4.8560
     4.9595   5.1496   5.2454   5.3658   5.4162   5.7052   5.7784   5.9881
     6.4530   6.6950   6.8008   6.8096

[...]

          k =-0.0883-0.0457 0.0000 ( 19530 PWs)   bands (ev):

[...]

     the Fermi energy is     1.9365 ev

!    total energy              =   -1925.57868931 Ry
     Harris-Foulkes estimate   =   -1925.57868887 Ry
     estimated scf accuracy    <       0.00000013 Ry

     The total energy is the sum of the following terms:

     one-electron contribution =  -11377.36986103 Ry
     hartree contribution      =    5672.31284341 Ry
     xc contribution           =    -719.32667970 Ry
     ewald contribution        =    4498.90390146 Ry
     electric field correction =       0.00000000 Ry
     smearing contrib. (-TS)   =      -0.09889345 Ry

     convergence has been achieved in  19 iterations

 BEEF-vdW xc energy contributions
           1 :   -644.418487014648
           2 :    598.218288305262
           3 :   -516.309369896586
           4 :    415.759850079564
[...]
     Using radial grid of  921 points,  8 beta functions with:
                l(1) =   0
                l(2) =   0
                l(3) =   0
                l(4) =   1
                l(5) =   1
                l(6) =   2
                l(7) =   2
                l(8) =   3
     Q(r) pseudized with  6 coefficients,  rinner =    1.200   1.200   1.200
                                                       1.200   1.200   1.200
                                                       1.200

     PseudoPot. # 2 for W  read from file:
     /afs/slac.stanford.edu/u/if/mamunm/psp/gbrv1.5pbe/W.UPF
     MD5 check sum: 9c083fa34c2a2ea0f02f1f893e16e1c8
     Pseudo is Ultrasoft + core correction, Zval = 14.0
     Generated by new atomic code, or converted to UPF format
     Using radial grid of  923 points,  8 beta functions with:
                l(1) =   0
                l(2) =   0
                l(3) =   0
                l(4) =   1
                l(5) =   1
                l(6) =   2
                l(7) =   2
                l(8) =   3
     Q(r) pseudized with  6 coefficients,  rinner =    1.350   1.350   1.350
                                                       1.350   1.350   1.350
                                                       1.350

     vdW kernel table read from file vdW_kernel_table
     MD5 check sum: 095c7af220d748ca6e76c0b4c6cfb241

     atomic species   valence    mass     pseudopotential
        Hf1           12.00   178.49000     Hf( 1.00)
        W1            14.00   183.84000     W ( 1.00)

     No symmetry found

   Cartesian axes

     site n.     atom                  positions (alat units)
         1           Hf1 tau(   1) = (   0.0000000   0.0000000  10.0000000  )
         2           Hf1 tau(   2) = (   2.8316181   0.0000000  10.0000000  )
         3           W1  tau(   3) = (   1.4158091   2.7337256  10.0000000  )
         4           W1  tau(   4) = (  -1.4158091   2.7337256  10.0000000  )
         5           Hf1 tau(   5) = (   2.8316181   1.4665081  12.4222748  )
         6           Hf1 tau(   6) = (   0.0000000   1.4665081  12.4222748  )
         7           W1  tau(   7) = (  -1.4158091   4.2002337  12.4222748  )
         8           W1  tau(   8) = (   1.4158091   4.2002337  12.4222748  )
         9           Hf1 tau(   9) = (  -0.0000012   3.0082879  14.9697706  )
        10           Hf1 tau(  10) = (   2.8316210   3.0082932  14.9697723  )
        11           W1  tau(  11) = (   4.2474259   0.1349403  14.6238757  )
        12           W1  tau(  12) = (   1.4158068   0.1349385  14.6238759  )

     number of k points=    20  Fermi-Dirac smearing, width (Ry)=  0.0110
                       cart. coord. in units 2pi/alat
        k(    1) = (   0.0000000   0.0000000   0.0000000), wk =   0.0555556
        k(    2) = (   0.0000000   0.0304834   0.0000000), wk =   0.1111111
        k(    3) = (   0.0000000   0.0609669   0.0000000), wk =   0.1111111
        k(    4) = (   0.0000000  -0.0914503   0.0000000), wk =   0.0555556
        k(    5) = (   0.0294296   0.0152417   0.0000000), wk =   0.1111111
        k(    6) = (   0.0294296   0.0457251   0.0000000), wk =   0.1111111
        k(    7) = (   0.0294296   0.0762086   0.0000000), wk =   0.1111111
        k(    8) = (   0.0294296  -0.0762086   0.0000000), wk =   0.1111111
        k(    9) = (   0.0294296  -0.0457251   0.0000000), wk =   0.1111111
        k(   10) = (   0.0294296  -0.0152417   0.0000000), wk =   0.1111111
        k(   11) = (   0.0588592   0.0304834   0.0000000), wk =   0.1111111
        k(   12) = (   0.0588592   0.0609669   0.0000000), wk =   0.1111111
        k(   13) = (   0.0588592   0.0914503   0.0000000), wk =   0.1111111
        k(   14) = (   0.0588592  -0.0609669   0.0000000), wk =   0.1111111
        k(   15) = (   0.0588592  -0.0304834   0.0000000), wk =   0.1111111
        k(   16) = (   0.0588592   0.0000000   0.0000000), wk =   0.1111111
        k(   17) = (  -0.0882887  -0.0457251   0.0000000), wk =   0.0555556
        k(   18) = (  -0.0882887  -0.0152417   0.0000000), wk =   0.1111111
        k(   19) = (  -0.0882887   0.0152417   0.0000000), wk =   0.1111111
        k(   20) = (  -0.0882887  -0.1371754   0.0000000), wk =   0.0555556

     Largest allocated arrays     est. size (Mb)     dimensions
     Largest temporary arrays     est. size (Mb)     dimensions

     Check: negative/imaginary core charge=   -0.000002    0.000000

     Initial potential from superposition of free atoms
     Check: negative starting charge=   -1.025359

     starting charge  143.39795, renormalised to  156.00000

[...]

     *
     * You are using vdW-DF for exchange-correlation in this calculation.
     * Please cite the following three references that made this development
     * possible:
     *
     *   M. Dion, H. Rydberg, E. Schroder, D. C. Langreth, and
     *   B. I. Lundqvist, Phys. Rev. Lett. 92, 246401 (2004).
     *
     *   T. Thonhauser, V. R. Cooper, S. Li, A. Puzder, P. Hyldgaard, and
     *   D. C. Langreth, Phys. Rev. B 76, 125112 (2007).
     *
     *   G. Roman-Perez and J. M. Soler, Phys. Rev. Lett. 103, 096102 (2009).
     *
     *
     * If you are using vdW-DF2, please also cite:
     *
     *   K. Lee, E. D. Murray, L. Kong, B. I. Lundqvist, and
     *   D. C. Langreth, Phys. Rev. B 82, 081101(R) (2010).
     *
     *
     * If you are calculating the stress with vdW-DF, please also cite:
     *
     *   R. Sabatini, E. Kucukbenli, B. Kolb, T. Thonhauser, and
     *   S. de Gironcoli, J. Phys.: Condens. Matter 24, 424209 (2012).
     *

     Carrying out vdW-DF run using the following parameters:

     Nqs =      20    Nr_points =    1024   r_max =   100.000
     q_mesh =
               0.00001000     0.04494208     0.09755937     0.15916263
               0.23128650     0.31572767     0.41458969     0.53033537
               0.66584808     0.82450364     1.01025438     1.22772762
               1.48234092     1.78043706     2.12944203     2.53805004
               3.01644009     3.57652955     4.23227104     5.00000000

     Gradients computed in reciprocal space

[...]

     Starting wfc are  156 randomized atomic wfcs

     Self-consistent Calculation

[...]

     total energy              =   -1925.61529927 Ry
     Harris-Foulkes estimate   =   -1925.61529879 Ry
     estimated scf accuracy    <       0.00000245 Ry

     iteration # 21     ecut=    36.75 Ry     beta=0.10
     Davidson diagonalization with overlap
     ethr =  1.57E-09,  avg # of iterations =  2.0

[...]

     negative rho (up, down):  1.076E+00 0.000E+00

     Adding external electric field

     Computed dipole along edir(3) :
        Dipole                0.1185 Ry au,          0.3012 Debye
        Dipole field          0.0003 Ry au

        Potential amp.       -0.0263 Ry
        Total length         45.7757 bohr

     End of self-consistent calculation

[...]

          k = 0.0589 0.0000 0.0000 ( 19502 PWs)   bands (ev):

[...]

          k =-0.0883-0.1372 0.0000 ( 19530 PWs)   bands (ev):

   -72.2138 -72.2138 -72.0925 -72.0925 -71.9563 -71.9563 -60.3070 -60.3070
   -60.1348 -60.1348 -59.7407 -59.7407 -36.5859 -36.5859 -36.2986 -36.2986
   -36.2564 -36.2564 -36.1944 -36.1944 -36.1262 -36.1262 -36.1127 -36.1127
   -36.0293 -36.0293 -36.0238 -36.0238 -35.8379 -35.8379 -29.0535 -29.0535
   -28.9029 -28.9029 -28.8458 -28.8458 -28.7712 -28.7712 -28.7339 -28.7339
   -28.6180 -28.6180 -28.4295 -28.4295 -28.2713 -28.2713 -28.2127 -28.2127
    -3.4214  -3.4214  -1.9778  -1.9778  -1.3430  -1.3430  -1.0498  -1.0498
    -0.8312  -0.8312  -0.2663  -0.2663   0.1446   0.1446   0.2905   0.2905
     0.4520   0.4520   0.7099   0.7099   1.0201   1.0201   1.1843   1.1843
     1.3827   1.3827   1.4149   1.4149   1.7742   1.7742   1.9831   1.9831
     2.1788   2.1788   2.3436   2.3436   2.7211   2.7211   3.2912   3.2912
     3.6122   3.6122   3.8278   3.8278   4.1212   4.1212   4.3384   4.3384
     4.6288   4.6288   4.7354   4.7354   4.8486   4.8486   5.4062   5.4062
     5.6868   5.6868   5.9572   5.9572

     the Fermi energy is     2.0662 ev

!    total energy              =   -1925.61529967 Ry
     Harris-Foulkes estimate   =   -1925.61529836 Ry
     estimated scf accuracy    <       0.00000056 Ry

     The total energy is the sum of the following terms:

     one-electron contribution =  -11474.76095008 Ry
     hartree contribution      =    5721.70426439 Ry
     xc contribution           =    -719.48032944 Ry
     ewald contribution        =    4547.01747740 Ry
     electric field correction =       0.00003400 Ry
     smearing contrib. (-TS)   =      -0.09579594 Ry

     convergence has been achieved in  21 iterations

 BEEF-vdW xc energy contributions
           1 :   -644.573858927076
           2 :    598.416988629961
           3 :   -516.567815615978
           4 :    416.049894779112
           5 :   -314.778420848203
           6 :    226.474830181866
           7 :   -158.063224390930
           8 :    109.947120304997
           9 :   -78.3296984288351
          10 :    58.0501052612535
          11 :   -44.6741482394046
          12 :    35.2709497950239
          13 :   -28.1288742152469
          14 :    22.0691212819867
          15 :   -16.0135654256688
          16 :    9.06106371725696
          17 :  -0.906118001172217
          18 :   -7.83153562360599
          19 :    15.7045355081971
          20 :   -21.0129529736314
          21 :    22.5716430069697
          22 :   -20.2727391255280
          23 :    15.1603427415926
          24 :   -9.02111678984375
          25 :    3.72404066036120
          26 :  -0.627629440121609
          27 :   0.267685545666836
          28 :   -2.37061370632807
          29 :    6.08471050195408
          30 :   -10.2854702770928
          31 :   -50.3966614600072
          32 :   -36.8641072112622

     Forces acting on atoms (Ry/au):

     negative rho (up, down):  1.076E+00 0.000E+00
     atom    1 type  1   force =    -0.00000019   -0.02130083   -0.03397997
     atom    2 type  1   force =    -0.00000008   -0.02130107   -0.03397970
     atom    3 type  2   force =    -0.00000054    0.01015107    0.04620740
     atom    4 type  2   force =     0.00000041    0.01015108    0.04620706
     atom    5 type  1   force =    -0.00000068    0.02283482    0.00278435
     atom    6 type  1   force =    -0.00000006    0.02283508    0.00278347
     atom    7 type  2   force =     0.00000101   -0.00958009   -0.01285771
     atom    8 type  2   force =    -0.00000072   -0.00957978   -0.01285666
     atom    9 type  1   force =     0.00000152   -0.00090785   -0.00098824
     atom   10 type  1   force =    -0.00000201   -0.00090828   -0.00098844
     atom   11 type  2   force =     0.00000097   -0.00119807   -0.00116609
     atom   12 type  2   force =     0.00000036   -0.00119608   -0.00116547

     Total force =     0.096305     Total SCF correction =     0.004126

     entering subroutine stress ...

     negative rho (up, down):  1.076E+00 0.000E+00
          total   stress  (Ry/bohr**3)                   (kbar)     P=  -23.49
  -0.00017048  -0.00000000  -0.00000000        -25.08     -0.00     -0.00
  -0.00000000  -0.00022931   0.00001604         -0.00    -33.73      2.36
  -0.00000000   0.00001604  -0.00007925         -0.00      2.36    -11.66

 !ASE

     Writing output data file calc.save

     General routines

     Parallel routines

   This run was terminated on:  22:56:47  24Dec2018

   JOB DONE.
Job  /afs/slac/g/suncat/bin/suncat-tsmpirun -x LD_LIBRARY_PATH -wdir /scratch/qe109008_9SeYb pw.x -in pw.inp

TID   HOST_NAME   COMMAND_LINE            STATUS            TERMINATION_TIME
00000 suncat0081 pw.x -in pw.inp   Done                     12/24/2018 22:56:47
00001 suncat0081 pw.x -in pw.inp   Done                     12/24/2018 22:56:47
00002 suncat0081 pw.x -in pw.inp   Done                     12/24/2018 22:56:47
00003 suncat0081 pw.x -in pw.inp   Done                     12/24/2018 22:56:47
00004 suncat0081 pw.x -in pw.inp   Done                     12/24/2018 22:56:47
00005 suncat0081 pw.x -in pw.inp   Done                     12/24/2018 22:56:47
00006 suncat0081 pw.x -in pw.inp   Done                     12/24/2018 22:56:47
00007 suncat0081 pw.x -in pw.inp   Done                     12/24/2018 22:56:47
00008 suncat0080 pw.x -in pw.inp   Done                     12/24/2018 22:56:47
00009 suncat0080 pw.x -in pw.inp   Done                     12/24/2018 22:56:47
00010 suncat0080 pw.x -in pw.inp   Done                     12/24/2018 22:56:47
00011 suncat0080 pw.x -in pw.inp   Done                     12/24/2018 22:56:47
00012 suncat0080 pw.x -in pw.inp   Done                     12/24/2018 22:56:47
00013 suncat0080 pw.x -in pw.inp   Done                     12/24/2018 22:56:47
00014 suncat0080 pw.x -in pw.inp   Done                     12/24/2018 22:56:47
00015 suncat0080 pw.x -in pw.inp   Done                     12/24/2018 22:56:47
00016 suncat0172 pw.x -in pw.inp   Done                     12/24/2018 22:56:47
00017 suncat0172 pw.x -in pw.inp   Done                     12/24/2018 22:56:47
00018 suncat0172 pw.x -in pw.inp   Done                     12/24/2018 22:56:47
00019 suncat0172 pw.x -in pw.inp   Done                     12/24/2018 22:56:47
00020 suncat0172 pw.x -in pw.inp   Done                     12/24/2018 22:56:47
00021 suncat0172 pw.x -in pw.inp   Done                     12/24/2018 22:56:47
00022 suncat0172 pw.x -in pw.inp   Done                     12/24/2018 22:56:47
00023 suncat0172 pw.x -in pw.inp   Done                     12/24/2018 22:56:47
00024 suncat0171 pw.x -in pw.inp   Done                     12/24/2018 22:56:47
00025 suncat0171 pw.x -in pw.inp   Done                     12/24/2018 22:56:47
00026 suncat0171 pw.x -in pw.inp   Done                     12/24/2018 22:56:47
00027 suncat0171 pw.x -in pw.inp   Done                     12/24/2018 22:56:47
00028 suncat0171 pw.x -in pw.inp   Done                     12/24/2018 22:56:47
00029 suncat0171 pw.x -in pw.inp   Done                     12/24/2018 22:56:47
00030 suncat0171 pw.x -in pw.inp   Done                     12/24/2018 22:56:47
00031 suncat0171 pw.x -in pw.inp   Done                     12/24/2018 22:56:47
00032 suncat0270 pw.x -in pw.inp   Done                     12/24/2018 22:56:47
00033 suncat0270 pw.x -in pw.inp   Done                     12/24/2018 22:56:47
00034 suncat0270 pw.x -in pw.inp   Done                     12/24/2018 22:56:47
00035 suncat0270 pw.x -in pw.inp   Done                     12/24/2018 22:56:47
00036 suncat0270 pw.x -in pw.inp   Done                     12/24/2018 22:56:47
00037 suncat0270 pw.x -in pw.inp   Done                     12/24/2018 22:56:47
00038 suncat0270 pw.x -in pw.inp   Done                     12/24/2018 22:56:47
00039 suncat0270 pw.x -in pw.inp   Done                     12/24/2018 22:56:47
00040 suncat0268 pw.x -in pw.inp   Done                     12/24/2018 22:56:47
00041 suncat0268 pw.x -in pw.inp   Done                     12/24/2018 22:56:47
00042 suncat0268 pw.x -in pw.inp   Done                     12/24/2018 22:56:47
00043 suncat0268 pw.x -in pw.inp   Done                     12/24/2018 22:56:47
00044 suncat0268 pw.x -in pw.inp   Done                     12/24/2018 22:56:47
00045 suncat0268 pw.x -in pw.inp   Done                     12/24/2018 22:56:47
00046 suncat0268 pw.x -in pw.inp   Done                     12/24/2018 22:56:47
00047 suncat0268 pw.x -in pw.inp   Done                     12/24/2018 22:56:47
00048 suncat0207 pw.x -in pw.inp   Done                     12/24/2018 22:56:47
00049 suncat0207 pw.x -in pw.inp   Done                     12/24/2018 22:56:47
00050 suncat0207 pw.x -in pw.inp   Done                     12/24/2018 22:56:47
00051 suncat0207 pw.x -in pw.inp   Done                     12/24/2018 22:56:47
00052 suncat0207 pw.x -in pw.inp   Done                     12/24/2018 22:56:47
00053 suncat0207 pw.x -in pw.inp   Done                     12/24/2018 22:56:47
00054 suncat0207 pw.x -in pw.inp   Done                     12/24/2018 22:56:47
00055 suncat0207 pw.x -in pw.inp   Done                     12/24/2018 22:56:47
00056 suncat0206 pw.x -in pw.inp   Done                     12/24/2018 22:56:47
00057 suncat0206 pw.x -in pw.inp   Done                     12/24/2018 22:56:47
00058 suncat0206 pw.x -in pw.inp   Done                     12/24/2018 22:56:47
00059 suncat0206 pw.x -in pw.inp   Done                     12/24/2018 22:56:47
00060 suncat0206 pw.x -in pw.inp   Done                     12/24/2018 22:56:47
00061 suncat0206 pw.x -in pw.inp   Done                     12/24/2018 22:56:47
00062 suncat0206 pw.x -in pw.inp   Done                     12/24/2018 22:56:47
00063 suncat0206 pw.x -in pw.inp   Done                     12/24/2018 22:56:47