     Program PWSCF v.5.1rc2 (svn rev. 11289) starts on 26Dec2018 at  9:31:18

     Current dimensions of program PWSCF are:
     Max number of different atomic species (ntypx) = 10
     Max number of k-points (npk) =  40000
     Max angular momentum in pseudopotentials (lmaxx) =  3
     Presently stress not available with electric field

     IMPORTANT: XC functional enforced from input :
     Exchange-correlation      = BEEF-VDW ( 1  4 27 13 2)
     Any further DFT definition will be discarded
     Please, verify this is what you really want

     Subspace diagonalization in iterative solution of the eigenvalue problem:
     a serial algorithm will be used

     bravais-lattice index     =            0
     lattice parameter (alat)  =       1.8897  a.u.
     unit-cell volume          =    5520.2271 (a.u.)^3
     number of atoms/cell      =           12
     number of atomic types    =            2
     number of electrons       =       150.00
     number of Kohn-Sham states=          105
     kinetic-energy cutoff     =      36.7493  Ry
     charge density cutoff     =     367.4932  Ry
     convergence threshold     =      1.0E-06
     mixing beta               =       0.1000
     number of iterations used =           10  plain     mixing
     Exchange-correlation      = BEEF-VDW ( 1  4 27 13 2)
     nstep                     =           50

     celldm(1)=   1.889726  celldm(2)=   0.000000  celldm(3)=   0.000000
     celldm(4)=   0.000000  celldm(5)=   0.000000  celldm(6)=   0.000000

     crystal axes: (cart. coord. in units of alat)
               a(1) = (   6.144642   0.000000   0.000000 )
               a(2) = (  -3.072321   5.321416   0.000000 )
               a(3) = (   0.000000   0.000000  25.017079 )

     reciprocal axes: (cart. coord. in units 2 pi/alat)
               b(1) = (  0.162743  0.093960  0.000000 )
               b(2) = (  0.000000  0.187920  0.000000 )
               b(3) = (  0.000000  0.000000  0.039973 )

     PseudoPot. # 1 for Hg read from file:
     /afs/slac.stanford.edu/u/if/mamunm/psp/gbrv1.5pbe/Hg.UPF
     MD5 check sum: 8f42caffe07f7fd9c0a564347f8c5498
     Pseudo is Ultrasoft + core correction, Zval = 12.0
     Generated by new atomic code, or converted to UPF format
     Using radial grid of  985 points,  6 beta functions with:
                l(1) =   0
                l(2) =   0
                l(3) =   1
                l(4) =   1
                l(5) =   2
                l(6) =   2
     Q(r) pseudized with  8 coefficients,  rinner =    2.000   2.000   2.000
                                                       2.000   2.000

     PseudoPot. # 2 for Mo read from file:
     /afs/slac.stanford.edu/u/if/mamunm/psp/gbrv1.5pbe/Mo.UPF
     MD5 check sum: 30c4dcd161f5d35cd49bb5239c51a633
     Pseudo is Ultrasoft + core correction, Zval = 14.0
     Generated by new atomic code, or converted to UPF format
     Using radial grid of  889 points,  6 beta functions with:
                l(1) =   0
                l(2) =   0
                l(3) =   1
                l(4) =   1
                l(5) =   2
                l(6) =   2
     Q(r) pseudized with  6 coefficients,  rinner =    1.000   1.000   1.000
                                                       1.000   1.000

     vdW kernel table read from file vdW_kernel_table
     MD5 check sum: 095c7af220d748ca6e76c0b4c6cfb241

     atomic species   valence    mass     pseudopotential
        Hg1           12.00   200.59200     Hg( 1.00)
        Mo1           14.00    95.95000     Mo( 1.00)

     No symmetry found

   Cartesian axes

     site n.     atom                  positions (alat units)
         1           Hg1 tau(   1) = (   0.0000000   0.0000000  10.0000000  )
         2           Hg1 tau(   2) = (  -1.5361604   2.6607079  10.0000000  )
         3           Hg1 tau(   3) = (   1.5361604   2.6607079  10.0000000  )
         4           Mo1 tau(   4) = (   3.0723208   0.0000000  10.0000000  )
         5           Hg1 tau(   5) = (   3.0723208   1.7738052  12.5085394  )
         6           Hg1 tau(   6) = (   1.5361604   4.4345131  12.5085394  )
         7           Hg1 tau(   7) = (  -1.5361604   4.4345131  12.5085394  )
         8           Mo1 tau(   8) = (   0.0000000   1.7738052  12.5085394  )
         9           Hg1 tau(   9) = (  -0.0000000   3.5476105  15.0170788  )
        10           Hg1 tau(  10) = (   1.5361604   0.8869026  15.0170788  )
        11           Hg1 tau(  11) = (   4.6084812   0.8869026  15.0170788  )
        12           Mo1 tau(  12) = (   3.0723208   3.5476105  15.0170788  )

     number of k points=    20  Fermi-Dirac smearing, width (Ry)=  0.0110
                       cart. coord. in units 2pi/alat
        k(    1) = (   0.0000000   0.0000000   0.0000000), wk =   0.0555556
        k(    2) = (   0.0000000   0.0313200   0.0000000), wk =   0.1111111
        k(    3) = (   0.0000000   0.0626400   0.0000000), wk =   0.1111111
        k(    4) = (   0.0000000  -0.0939600   0.0000000), wk =   0.0555556
        k(    5) = (   0.0271239   0.0156600   0.0000000), wk =   0.1111111
        k(    6) = (   0.0271239   0.0469800   0.0000000), wk =   0.1111111
        k(    7) = (   0.0271239   0.0783000   0.0000000), wk =   0.1111111
        k(    8) = (   0.0271239  -0.0783000   0.0000000), wk =   0.1111111
        k(    9) = (   0.0271239  -0.0469800   0.0000000), wk =   0.1111111
        k(   10) = (   0.0271239  -0.0156600   0.0000000), wk =   0.1111111
        k(   11) = (   0.0542478   0.0313200   0.0000000), wk =   0.1111111
        k(   12) = (   0.0542478   0.0626400   0.0000000), wk =   0.1111111
        k(   13) = (   0.0542478   0.0939600   0.0000000), wk =   0.1111111
        k(   14) = (   0.0542478  -0.0626400   0.0000000), wk =   0.1111111
        k(   15) = (   0.0542478  -0.0313200   0.0000000), wk =   0.1111111
        k(   16) = (   0.0542478   0.0000000   0.0000000), wk =   0.1111111
        k(   17) = (  -0.0813717  -0.0469800   0.0000000), wk =   0.0555556
        k(   18) = (  -0.0813717  -0.0156600   0.0000000), wk =   0.1111111
        k(   19) = (  -0.0813717   0.0156600   0.0000000), wk =   0.1111111
        k(   20) = (  -0.0813717  -0.1409399   0.0000000), wk =   0.0555556

     Largest allocated arrays     est. size (Mb)     dimensions
     Largest temporary arrays     est. size (Mb)     dimensions

     Initial potential from superposition of free atoms
     Check: negative starting charge=   -0.002871

     starting charge  149.99629, renormalised to  150.00000

     negative rho (up, down):  2.871E-03 0.000E+00

     *
     * You are using vdW-DF for exchange-correlation in this calculation.
     * Please cite the following three references that made this development
     * possible:
     *
     *   M. Dion, H. Rydberg, E. Schroder, D. C. Langreth, and
     *   B. I. Lundqvist, Phys. Rev. Lett. 92, 246401 (2004).
     *
     *   T. Thonhauser, V. R. Cooper, S. Li, A. Puzder, P. Hyldgaard, and
     *   D. C. Langreth, Phys. Rev. B 76, 125112 (2007).
     *
     *   G. Roman-Perez and J. M. Soler, Phys. Rev. Lett. 103, 096102 (2009).
     *
     *
     * If you are using vdW-DF2, please also cite:
     *
     *   K. Lee, E. D. Murray, L. Kong, B. I. Lundqvist, and
     *   D. C. Langreth, Phys. Rev. B 82, 081101(R) (2010).
     *
     *
     * If you are calculating the stress with vdW-DF, please also cite:
     *
     *   R. Sabatini, E. Kucukbenli, B. Kolb, T. Thonhauser, and
     *   S. de Gironcoli, J. Phys.: Condens. Matter 24, 424209 (2012).
     *

     Carrying out vdW-DF run using the following parameters:

     Nqs =      20    Nr_points =    1024   r_max =   100.000
     q_mesh =
               0.00001000     0.04494208     0.09755937     0.15916263
               0.23128650     0.31572767     0.41458969     0.53033537
               0.66584808     0.82450364     1.01025438     1.22772762
               1.48234092     1.78043706     2.12944203     2.53805004
               3.01644009     3.57652955     4.23227104     5.00000000

     Gradients computed in reciprocal space

     Adding external electric field

     Computed dipole along edir(3) :
        Dipole               -0.0000 Ry au,         -0.0000 Debye
        Dipole field         -0.0000 Ry au

        Potential amp.        0.0000 Ry
        Total length         46.0935 bohr

     Starting wfc are  120 randomized atomic wfcs

     Self-consistent Calculation

     iteration #  1     ecut=    36.75 Ry     beta=0.10
     Davidson diagonalization with overlap
     ethr =  1.00E-02,  avg # of iterations =  8.8

[...]

     total energy              =   -1400.91326591 Ry
     Harris-Foulkes estimate   =   -1401.71195313 Ry
     estimated scf accuracy    <       4.51825998 Ry

[...]

     End of self-consistent calculation

          k = 0.0000 0.0000 0.0000 ( 20827 PWs)   bands (ev):

   -60.0167 -59.8997 -59.8996 -34.1013 -34.0566 -34.0565 -34.0313 -34.0305
   -33.8960 -33.8960 -33.8958 -33.8958  -7.9094  -7.3322  -7.2145  -7.2143
    -7.2102  -7.1802  -7.1051  -6.9918  -6.9917  -6.9600  -6.8520  -6.8518
    -6.7168  -6.7167  -6.5297  -6.4364  -6.3981  -6.3980  -6.2344  -6.1186
    -6.1186  -6.0550  -5.9970  -5.9654  -5.9651  -5.8724  -5.8721  -5.6784
    -5.6784  -5.6094  -5.6093  -5.5053  -5.4807  -5.4806  -5.3983  -5.3983
    -5.3962  -5.3962  -5.3507  -5.1647  -5.1646  -5.0821  -4.9940  -4.9445
    -4.9445  -4.7171  -4.7034  -3.0156  -1.5538  -1.5537  -1.1809  -1.1809
    -0.6896  -0.4258  -0.4258  -0.1386   0.3995   0.4246   0.4246   0.9106
     1.1009   1.1009   1.3076   1.3681   1.3681   1.3821   1.3821   2.1748
     2.1748   2.2637   2.2637   2.2725   2.3610   3.2809   3.2809   3.4845
     3.4845   4.0905   4.1978   4.1979   4.6886   4.8535   5.3117   5.3836
     5.7589   6.2462   6.7018   7.3649   7.3649   7.6316   7.6316   7.8647
     8.1133

[...]

          k =-0.0814-0.0470 0.0000 ( 20740 PWs)   bands (ev):

[...]

     the Fermi energy is     1.1056 ev

!    total energy              =   -1401.18006185 Ry
     Harris-Foulkes estimate   =   -1401.18006276 Ry
     estimated scf accuracy    <       0.00000045 Ry

     The total energy is the sum of the following terms:

     one-electron contribution =   -9765.93755533 Ry
     hartree contribution      =    4950.03961690 Ry
     xc contribution           =    -423.89758626 Ry
     ewald contribution        =    3838.69288776 Ry
     electric field correction =       0.00000000 Ry
     smearing contrib. (-TS)   =      -0.07742491 Ry

     convergence has been achieved in  16 iterations

 BEEF-vdW xc energy contributions
           1 :   -370.471200816565
           2 :    340.719912014936
           3 :   -288.997064594206
           4 :    227.680415424128
           5 :   -169.285137885636
           6 :    122.651323744593
           7 :   -91.0763367584689
           8 :    72.6885112514236
           9 :   -62.5405884561308
          10 :    55.3131665791805
          11 :   -47.4596094391974
          12 :    38.0274289055267
          13 :   -28.1207306451792
          14 :    19.5727953425665
          15 :   -13.6505431692893
          16 :    10.4039570981199
          17 :   -8.83099814110079
[...]
               b(3) = (  0.000000  0.000000  0.039973 )

     PseudoPot. # 1 for Hg read from file:
     /afs/slac.stanford.edu/u/if/mamunm/psp/gbrv1.5pbe/Hg.UPF
     MD5 check sum: 8f42caffe07f7fd9c0a564347f8c5498
     Pseudo is Ultrasoft + core correction, Zval = 12.0
     Generated by new atomic code, or converted to UPF format
     Using radial grid of  985 points,  6 beta functions with:
                l(1) =   0
                l(2) =   0
                l(3) =   1
                l(4) =   1
                l(5) =   2
                l(6) =   2
     Q(r) pseudized with  8 coefficients,  rinner =    2.000   2.000   2.000
                                                       2.000   2.000

     PseudoPot. # 2 for Mo read from file:
     /afs/slac.stanford.edu/u/if/mamunm/psp/gbrv1.5pbe/Mo.UPF
     MD5 check sum: 30c4dcd161f5d35cd49bb5239c51a633
     Pseudo is Ultrasoft + core correction, Zval = 14.0
     Generated by new atomic code, or converted to UPF format
     Using radial grid of  889 points,  6 beta functions with:
                l(1) =   0
                l(2) =   0
                l(3) =   1
                l(4) =   1
                l(5) =   2
                l(6) =   2
     Q(r) pseudized with  6 coefficients,  rinner =    1.000   1.000   1.000
                                                       1.000   1.000

     vdW kernel table read from file vdW_kernel_table
     MD5 check sum: 095c7af220d748ca6e76c0b4c6cfb241

     atomic species   valence    mass     pseudopotential
        Hg1           12.00   200.59200     Hg( 1.00)
        Mo1           14.00    95.95000     Mo( 1.00)

     No symmetry found

   Cartesian axes

     site n.     atom                  positions (alat units)
         1           Hg1 tau(   1) = (   0.0000000   0.0000000  10.0000000  )
         2           Hg1 tau(   2) = (  -1.5361604   2.6607079  10.0000000  )
         3           Hg1 tau(   3) = (   1.5361604   2.6607079  10.0000000  )
         4           Mo1 tau(   4) = (   3.0723208   0.0000000  10.0000000  )
         5           Hg1 tau(   5) = (   3.0723208   1.7738052  12.5085394  )
         6           Hg1 tau(   6) = (   1.5361604   4.4345131  12.5085394  )
         7           Hg1 tau(   7) = (  -1.5361604   4.4345131  12.5085394  )
         8           Mo1 tau(   8) = (   0.0000000   1.7738052  12.5085394  )
         9           Hg1 tau(   9) = (  -0.0000055   3.5488232  15.2683014  )
        10           Hg1 tau(  10) = (   1.5373182   0.8862352  15.2683549  )
        11           Hg1 tau(  11) = (   4.6074198   0.8862860  15.2682933  )
        12           Mo1 tau(  12) = (   3.0723626   3.5475818  14.7415488  )

     number of k points=    20  Fermi-Dirac smearing, width (Ry)=  0.0110
                       cart. coord. in units 2pi/alat
        k(    1) = (   0.0000000   0.0000000   0.0000000), wk =   0.0555556
        k(    2) = (   0.0000000   0.0313200   0.0000000), wk =   0.1111111
        k(    3) = (   0.0000000   0.0626400   0.0000000), wk =   0.1111111
        k(    4) = (   0.0000000  -0.0939600   0.0000000), wk =   0.0555556
        k(    5) = (   0.0271239   0.0156600   0.0000000), wk =   0.1111111
        k(    6) = (   0.0271239   0.0469800   0.0000000), wk =   0.1111111
        k(    7) = (   0.0271239   0.0783000   0.0000000), wk =   0.1111111
        k(    8) = (   0.0271239  -0.0783000   0.0000000), wk =   0.1111111
        k(    9) = (   0.0271239  -0.0469800   0.0000000), wk =   0.1111111
        k(   10) = (   0.0271239  -0.0156600   0.0000000), wk =   0.1111111
        k(   11) = (   0.0542478   0.0313200   0.0000000), wk =   0.1111111
        k(   12) = (   0.0542478   0.0626400   0.0000000), wk =   0.1111111
        k(   13) = (   0.0542478   0.0939600   0.0000000), wk =   0.1111111
        k(   14) = (   0.0542478  -0.0626400   0.0000000), wk =   0.1111111
        k(   15) = (   0.0542478  -0.0313200   0.0000000), wk =   0.1111111
        k(   16) = (   0.0542478   0.0000000   0.0000000), wk =   0.1111111
        k(   17) = (  -0.0813717  -0.0469800   0.0000000), wk =   0.0555556
        k(   18) = (  -0.0813717  -0.0156600   0.0000000), wk =   0.1111111
        k(   19) = (  -0.0813717   0.0156600   0.0000000), wk =   0.1111111
        k(   20) = (  -0.0813717  -0.1409399   0.0000000), wk =   0.0555556

     Largest allocated arrays     est. size (Mb)     dimensions
     Largest temporary arrays     est. size (Mb)     dimensions

     Initial potential from superposition of free atoms
     Check: negative starting charge=   -0.002806

     starting charge  149.99629, renormalised to  150.00000

[...]

     *
     * You are using vdW-DF for exchange-correlation in this calculation.
     * Please cite the following three references that made this development
     * possible:
     *
     *   M. Dion, H. Rydberg, E. Schroder, D. C. Langreth, and
     *   B. I. Lundqvist, Phys. Rev. Lett. 92, 246401 (2004).
     *
     *   T. Thonhauser, V. R. Cooper, S. Li, A. Puzder, P. Hyldgaard, and
     *   D. C. Langreth, Phys. Rev. B 76, 125112 (2007).
     *
     *   G. Roman-Perez and J. M. Soler, Phys. Rev. Lett. 103, 096102 (2009).
     *
     *
     * If you are using vdW-DF2, please also cite:
     *
     *   K. Lee, E. D. Murray, L. Kong, B. I. Lundqvist, and
     *   D. C. Langreth, Phys. Rev. B 82, 081101(R) (2010).
     *
     *
     * If you are calculating the stress with vdW-DF, please also cite:
     *
     *   R. Sabatini, E. Kucukbenli, B. Kolb, T. Thonhauser, and
     *   S. de Gironcoli, J. Phys.: Condens. Matter 24, 424209 (2012).
     *

     Carrying out vdW-DF run using the following parameters:

     Nqs =      20    Nr_points =    1024   r_max =   100.000
     q_mesh =
               0.00001000     0.04494208     0.09755937     0.15916263
               0.23128650     0.31572767     0.41458969     0.53033537
               0.66584808     0.82450364     1.01025438     1.22772762
               1.48234092     1.78043706     2.12944203     2.53805004
               3.01644009     3.57652955     4.23227104     5.00000000

     Gradients computed in reciprocal space

[...]

     Starting wfc are  120 randomized atomic wfcs

     Self-consistent Calculation

[...]

     total energy              =   -1401.22484721 Ry
     Harris-Foulkes estimate   =   -1401.22484675 Ry
     estimated scf accuracy    <       0.00000109 Ry

     iteration # 16     ecut=    36.75 Ry     beta=0.10
     Davidson diagonalization with overlap
     ethr =  7.30E-10,  avg # of iterations =  2.2

[...]

     negative rho (up, down):  2.556E-03 0.000E+00

     Adding external electric field

     Computed dipole along edir(3) :
        Dipole               -0.0538 Ry au,         -0.1369 Debye
        Dipole field         -0.0001 Ry au

        Potential amp.        0.0113 Ry
        Total length         46.0935 bohr

     End of self-consistent calculation

[...]

          k = 0.0542 0.0000 0.0000 ( 20741 PWs)   bands (ev):

[...]

          k =-0.0814-0.1409 0.0000 ( 20740 PWs)   bands (ev):

   -60.0849 -59.9646 -59.9046 -34.1482 -34.1233 -34.1223 -34.1025 -34.0159
   -33.9535 -33.9530 -33.9130 -33.9122  -7.1761  -6.9543  -6.8766  -6.7427
    -6.6861  -6.6546  -6.5966  -6.5716  -6.5547  -6.5341  -6.4512  -6.4333
    -6.4298  -6.2662  -6.2657  -6.1777  -6.1388  -6.1309  -6.0638  -6.0158
    -5.9868  -5.9706  -5.8849  -5.8609  -5.8471  -5.8205  -5.8168  -5.8069
    -5.7762  -5.7431  -5.7191  -5.7010  -5.6855  -5.6680  -5.6341  -5.6088
    -5.6004  -5.5048  -5.4940  -5.4243  -5.4003  -5.3258  -5.2706  -5.2275
    -5.1982  -5.0240  -4.9042  -4.1884  -3.8153  -2.9323  -2.0779  -2.0365
    -1.1047  -1.0977  -0.4502  -0.0463   0.0682   0.2599   0.4595   0.5503
     0.5798   0.6988   0.8449   0.9998   1.3615   1.5050   1.6266   1.8426
     2.4705   2.6080   2.6746   3.1751   3.3831   3.6059   4.6580   5.0262
     5.1423   5.1893   5.6337   5.8575   5.9352   5.9462   6.1246   6.1462
     6.4050   6.4446   6.4579   6.7730   7.3700   7.4291   7.4586   7.4707
     7.5643

     the Fermi energy is     1.0497 ev

!    total energy              =   -1401.22484807 Ry
     Harris-Foulkes estimate   =   -1401.22484831 Ry
     estimated scf accuracy    <       0.00000043 Ry

     The total energy is the sum of the following terms:

     one-electron contribution =   -9609.87270994 Ry
     hartree contribution      =    4872.10980373 Ry
     xc contribution           =    -423.81926121 Ry
     ewald contribution        =    3760.43306977 Ry
     electric field correction =       0.00000660 Ry
     smearing contrib. (-TS)   =      -0.07575703 Ry

     convergence has been achieved in  16 iterations

 BEEF-vdW xc energy contributions
           1 :   -370.533949006568
           2 :    340.702596741621
           3 :   -288.890878369658
           4 :    227.558983889558
           5 :   -169.252462916423
           6 :    122.769377223805
           7 :   -91.3185949656817
           8 :    72.9501268613107
           9 :   -62.7020973749858
          10 :    55.3183060129361
          11 :   -47.3552597953043
          12 :    37.9384363035454
          13 :   -28.1749451260699
          14 :    19.8227634307394
          15 :   -14.0401235361059
          16 :    10.7998750600771
          17 :   -9.10103285610205
          18 :    7.67477366148398
          19 :   -5.70475773315792
          20 :    3.16177304053065
          21 :  -0.635707083580144
          22 :   -1.16360289916247
          23 :    1.89865412312918
          24 :   -1.80799861991687
          25 :    1.53610840174713
          26 :   -1.73338692742550
          27 :    2.68100051541910
          28 :   -4.15568915760701
          29 :    5.59026153289471
          30 :   -6.41803240902095
          31 :   -35.5194932709480
          32 :   -26.3352563691872

     Forces acting on atoms (Ry/au):

     negative rho (up, down):  2.556E-03 0.000E+00
     atom    1 type  1   force =     0.00000029    0.00343297   -0.02582618
     atom    2 type  1   force =     0.00297384   -0.00171641   -0.02582642
     atom    3 type  1   force =    -0.00297308   -0.00171704   -0.02582619
     atom    4 type  2   force =     0.00000057   -0.00000030    0.06185719
     atom    5 type  1   force =    -0.00000157   -0.01776815    0.00253465
     atom    6 type  1   force =    -0.01538589    0.00888222    0.00253991
     atom    7 type  1   force =     0.01538659    0.00888549    0.00253546
     atom    8 type  2   force =     0.00000083   -0.00000001    0.00529384
     atom    9 type  1   force =     0.00000816   -0.00073055    0.00029133
     atom   10 type  1   force =    -0.00064123    0.00036957    0.00029062
     atom   11 type  1   force =     0.00063805    0.00035778    0.00029196
     atom   12 type  2   force =    -0.00000655    0.00000444    0.00184383

     Total force =     0.082839     Total SCF correction =     0.002809

     entering subroutine stress ...

     negative rho (up, down):  2.556E-03 0.000E+00
          total   stress  (Ry/bohr**3)                   (kbar)     P=   -5.16
  -0.00006002   0.00000000  -0.00000000         -8.83      0.00     -0.00
   0.00000000  -0.00006001   0.00000000          0.00     -8.83      0.00
  -0.00000000   0.00000000   0.00001488         -0.00      0.00      2.19

 !ASE

     Writing output data file calc.save

     General routines

     Parallel routines

   This run was terminated on:  11:32:58  26Dec2018

   JOB DONE.
Job  /afs/slac/g/suncat/bin/suncat-tsmpirun -x LD_LIBRARY_PATH -wdir /scratch/qe109813_3y3Ss pw.x -in pw.inp

TID   HOST_NAME   COMMAND_LINE            STATUS            TERMINATION_TIME
00000 suncat0108 pw.x -in pw.inp   Done                     12/26/2018 11:32:58
00001 suncat0108 pw.x -in pw.inp   Done                     12/26/2018 11:32:58
00002 suncat0108 pw.x -in pw.inp   Done                     12/26/2018 11:32:58
00003 suncat0108 pw.x -in pw.inp   Done                     12/26/2018 11:32:58
00004 suncat0108 pw.x -in pw.inp   Done                     12/26/2018 11:32:58
00005 suncat0108 pw.x -in pw.inp   Done                     12/26/2018 11:32:58
00006 suncat0108 pw.x -in pw.inp   Done                     12/26/2018 11:32:58
00007 suncat0108 pw.x -in pw.inp   Done                     12/26/2018 11:32:58
00008 suncat0107 pw.x -in pw.inp   Done                     12/26/2018 11:32:58
00009 suncat0107 pw.x -in pw.inp   Done                     12/26/2018 11:32:58
00010 suncat0107 pw.x -in pw.inp   Done                     12/26/2018 11:32:58
00011 suncat0107 pw.x -in pw.inp   Done                     12/26/2018 11:32:58
00012 suncat0107 pw.x -in pw.inp   Done                     12/26/2018 11:32:58
00013 suncat0107 pw.x -in pw.inp   Done                     12/26/2018 11:32:58
00014 suncat0107 pw.x -in pw.inp   Done                     12/26/2018 11:32:58
00015 suncat0107 pw.x -in pw.inp   Done                     12/26/2018 11:32:58
00016 suncat0106 pw.x -in pw.inp   Done                     12/26/2018 11:32:58
00017 suncat0106 pw.x -in pw.inp   Done                     12/26/2018 11:32:58
00018 suncat0106 pw.x -in pw.inp   Done                     12/26/2018 11:32:58
00019 suncat0106 pw.x -in pw.inp   Done                     12/26/2018 11:32:58
00020 suncat0106 pw.x -in pw.inp   Done                     12/26/2018 11:32:58
00021 suncat0106 pw.x -in pw.inp   Done                     12/26/2018 11:32:58
00022 suncat0106 pw.x -in pw.inp   Done                     12/26/2018 11:32:58
00023 suncat0106 pw.x -in pw.inp   Done                     12/26/2018 11:32:58
00024 suncat0105 pw.x -in pw.inp   Done                     12/26/2018 11:32:58
00025 suncat0105 pw.x -in pw.inp   Done                     12/26/2018 11:32:58
00026 suncat0105 pw.x -in pw.inp   Done                     12/26/2018 11:32:58
00027 suncat0105 pw.x -in pw.inp   Done                     12/26/2018 11:32:58
00028 suncat0105 pw.x -in pw.inp   Done                     12/26/2018 11:32:58
00029 suncat0105 pw.x -in pw.inp   Done                     12/26/2018 11:32:58
00030 suncat0105 pw.x -in pw.inp   Done                     12/26/2018 11:32:58
00031 suncat0105 pw.x -in pw.inp   Done                     12/26/2018 11:32:58
00032 suncat0238 pw.x -in pw.inp   Done                     12/26/2018 11:32:58
00033 suncat0238 pw.x -in pw.inp   Done                     12/26/2018 11:32:58
00034 suncat0238 pw.x -in pw.inp   Done                     12/26/2018 11:32:58
00035 suncat0238 pw.x -in pw.inp   Done                     12/26/2018 11:32:58
00036 suncat0238 pw.x -in pw.inp   Done                     12/26/2018 11:32:58
00037 suncat0238 pw.x -in pw.inp   Done                     12/26/2018 11:32:58
00038 suncat0238 pw.x -in pw.inp   Done                     12/26/2018 11:32:58
00039 suncat0238 pw.x -in pw.inp   Done                     12/26/2018 11:32:58
00040 suncat0237 pw.x -in pw.inp   Done                     12/26/2018 11:32:58
00041 suncat0237 pw.x -in pw.inp   Done                     12/26/2018 11:32:58
00042 suncat0237 pw.x -in pw.inp   Done                     12/26/2018 11:32:58
00043 suncat0237 pw.x -in pw.inp   Done                     12/26/2018 11:32:58
00044 suncat0237 pw.x -in pw.inp   Done                     12/26/2018 11:32:58
00045 suncat0237 pw.x -in pw.inp   Done                     12/26/2018 11:32:58
00046 suncat0237 pw.x -in pw.inp   Done                     12/26/2018 11:32:58
00047 suncat0237 pw.x -in pw.inp   Done                     12/26/2018 11:32:58
00048 suncat0236 pw.x -in pw.inp   Done                     12/26/2018 11:32:58
00049 suncat0236 pw.x -in pw.inp   Done                     12/26/2018 11:32:58
00050 suncat0236 pw.x -in pw.inp   Done                     12/26/2018 11:32:58
00051 suncat0236 pw.x -in pw.inp   Done                     12/26/2018 11:32:58
00052 suncat0236 pw.x -in pw.inp   Done                     12/26/2018 11:32:58
00053 suncat0236 pw.x -in pw.inp   Done                     12/26/2018 11:32:58
00054 suncat0236 pw.x -in pw.inp   Done                     12/26/2018 11:32:58
00055 suncat0236 pw.x -in pw.inp   Done                     12/26/2018 11:32:58
00056 suncat0235 pw.x -in pw.inp   Done                     12/26/2018 11:32:58
00057 suncat0235 pw.x -in pw.inp   Done                     12/26/2018 11:32:58
00058 suncat0235 pw.x -in pw.inp   Done                     12/26/2018 11:32:58
00059 suncat0235 pw.x -in pw.inp   Done                     12/26/2018 11:32:58
00060 suncat0235 pw.x -in pw.inp   Done                     12/26/2018 11:32:58
00061 suncat0235 pw.x -in pw.inp   Done                     12/26/2018 11:32:58
00062 suncat0235 pw.x -in pw.inp   Done                     12/26/2018 11:32:58
00063 suncat0235 pw.x -in pw.inp   Done                     12/26/2018 11:32:58