     Program PWSCF v.5.1rc2 (svn rev. 11289) starts on 28Dec2018 at  0:26:12

     Current dimensions of program PWSCF are:
     Max number of different atomic species (ntypx) = 10
     Max number of k-points (npk) =  40000
     Max angular momentum in pseudopotentials (lmaxx) =  3
     Presently stress not available with electric field

     IMPORTANT: XC functional enforced from input :
     Exchange-correlation      = BEEF-VDW ( 1  4 27 13 2)
     Any further DFT definition will be discarded
     Please, verify this is what you really want

     Subspace diagonalization in iterative solution of the eigenvalue problem:
     a serial algorithm will be used

     bravais-lattice index     =            0
     lattice parameter (alat)  =       1.8897  a.u.
     unit-cell volume          =    5110.8966 (a.u.)^3
     number of atoms/cell      =           12
     number of atomic types    =            2
     number of electrons       =       153.00
     number of Kohn-Sham states=          106
     kinetic-energy cutoff     =      36.7493  Ry
     charge density cutoff     =     367.4932  Ry
     convergence threshold     =      1.0E-06
     mixing beta               =       0.1000
     number of iterations used =           10  plain     mixing
     Exchange-correlation      = BEEF-VDW ( 1  4 27 13 2)
     nstep                     =           50

     celldm(1)=   1.889726  celldm(2)=   0.000000  celldm(3)=   0.000000
     celldm(4)=   0.000000  celldm(5)=   0.000000  celldm(6)=   0.000000

     crystal axes: (cart. coord. in units of alat)
               a(1) = (   5.932968   0.000000   0.000000 )
               a(2) = (  -2.966484   5.138101   0.000000 )
               a(3) = (   0.000000   0.000000  24.844248 )

     reciprocal axes: (cart. coord. in units 2 pi/alat)
               b(1) = (  0.168550  0.097312  0.000000 )
               b(2) = (  0.000000  0.194624  0.000000 )
               b(3) = (  0.000000  0.000000  0.040251 )

     PseudoPot. # 1 for Ta read from file:
     /afs/slac.stanford.edu/u/if/mamunm/psp/gbrv1.5pbe/Ta.UPF
     MD5 check sum: f8bbe9446314a3b8ea5d9f3e3836c939
     Pseudo is Ultrasoft + core correction, Zval = 13.0
     Generated by new atomic code, or converted to UPF format
     Using radial grid of  921 points,  7 beta functions with:
                l(1) =   0
                l(2) =   0
                l(3) =   1
                l(4) =   1
                l(5) =   2
                l(6) =   2
                l(7) =   3
     Q(r) pseudized with  6 coefficients,  rinner =    1.300   1.300   1.300
                                                       1.300   1.300   1.300
                                                       1.300

     PseudoPot. # 2 for Ti read from file:
     /afs/slac.stanford.edu/u/if/mamunm/psp/gbrv1.5pbe/Ti.UPF
     MD5 check sum: 88a00a6731bd790ddea75d31a80cb452
     Pseudo is Ultrasoft + core correction, Zval = 12.0
     Generated by new atomic code, or converted to UPF format
     Using radial grid of  851 points,  6 beta functions with:
                l(1) =   0
                l(2) =   0
                l(3) =   1
                l(4) =   1
                l(5) =   2
                l(6) =   2
     Q(r) pseudized with  6 coefficients,  rinner =    1.000   1.000   1.000
                                                       1.000   1.000

     vdW kernel table read from file vdW_kernel_table
     MD5 check sum: 095c7af220d748ca6e76c0b4c6cfb241

     atomic species   valence    mass     pseudopotential
        Ta1           13.00   180.94788     Ta( 1.00)
        Ti1           12.00    47.86700     Ti( 1.00)

     No symmetry found

   Cartesian axes

     site n.     atom                  positions (alat units)
         1           Ta1 tau(   1) = (   0.0000000   0.0000000  10.0000000  )
         2           Ta1 tau(   2) = (  -1.4832420   2.5690505  10.0000000  )
         3           Ta1 tau(   3) = (   1.4832420   2.5690505  10.0000000  )
         4           Ti1 tau(   4) = (   2.9664840   0.0000000  10.0000000  )
         5           Ta1 tau(   5) = (   2.9664840   1.7127003  12.4221240  )
         6           Ta1 tau(   6) = (   1.4832420   4.2817508  12.4221240  )
         7           Ta1 tau(   7) = (  -1.4832420   4.2817508  12.4221240  )
         8           Ti1 tau(   8) = (   0.0000000   1.7127003  12.4221240  )
         9           Ta1 tau(   9) = (  -0.0000000   3.4254006  14.8442480  )
        10           Ta1 tau(  10) = (   1.4832420   0.8563502  14.8442480  )
        11           Ta1 tau(  11) = (   4.4497259   0.8563502  14.8442480  )
        12           Ti1 tau(  12) = (   2.9664840   3.4254006  14.8442480  )

     number of k points=    20  Fermi-Dirac smearing, width (Ry)=  0.0110
                       cart. coord. in units 2pi/alat
        k(    1) = (   0.0000000   0.0000000   0.0000000), wk =   0.0555556
        k(    2) = (   0.0000000   0.0324374   0.0000000), wk =   0.1111111
        k(    3) = (   0.0000000   0.0648748   0.0000000), wk =   0.1111111
        k(    4) = (   0.0000000  -0.0973122   0.0000000), wk =   0.0555556
        k(    5) = (   0.0280916   0.0162187   0.0000000), wk =   0.1111111
        k(    6) = (   0.0280916   0.0486561   0.0000000), wk =   0.1111111
        k(    7) = (   0.0280916   0.0810935   0.0000000), wk =   0.1111111
        k(    8) = (   0.0280916  -0.0810935   0.0000000), wk =   0.1111111
        k(    9) = (   0.0280916  -0.0486561   0.0000000), wk =   0.1111111
        k(   10) = (   0.0280916  -0.0162187   0.0000000), wk =   0.1111111
        k(   11) = (   0.0561832   0.0324374   0.0000000), wk =   0.1111111
        k(   12) = (   0.0561832   0.0648748   0.0000000), wk =   0.1111111
        k(   13) = (   0.0561832   0.0973122   0.0000000), wk =   0.1111111
        k(   14) = (   0.0561832  -0.0648748   0.0000000), wk =   0.1111111
        k(   15) = (   0.0561832  -0.0324374   0.0000000), wk =   0.1111111
        k(   16) = (   0.0561832   0.0000000   0.0000000), wk =   0.1111111
        k(   17) = (  -0.0842749  -0.0486561   0.0000000), wk =   0.0555556
        k(   18) = (  -0.0842749  -0.0162187   0.0000000), wk =   0.1111111
        k(   19) = (  -0.0842749   0.0162187   0.0000000), wk =   0.1111111
        k(   20) = (  -0.0842749  -0.1459683   0.0000000), wk =   0.0555556

     Largest allocated arrays     est. size (Mb)     dimensions
     Largest temporary arrays     est. size (Mb)     dimensions

     Check: negative/imaginary core charge=   -0.000002    0.000000

     Initial potential from superposition of free atoms
     Check: negative starting charge=   -0.846356

     starting charge  149.98986, renormalised to  153.00000

     negative rho (up, down):  8.633E-01 0.000E+00

     *
     * You are using vdW-DF for exchange-correlation in this calculation.
     * Please cite the following three references that made this development
     * possible:
     *
     *   M. Dion, H. Rydberg, E. Schroder, D. C. Langreth, and
     *   B. I. Lundqvist, Phys. Rev. Lett. 92, 246401 (2004).
     *
     *   T. Thonhauser, V. R. Cooper, S. Li, A. Puzder, P. Hyldgaard, and
     *   D. C. Langreth, Phys. Rev. B 76, 125112 (2007).
     *
     *   G. Roman-Perez and J. M. Soler, Phys. Rev. Lett. 103, 096102 (2009).
     *
     *
     * If you are using vdW-DF2, please also cite:
     *
     *   K. Lee, E. D. Murray, L. Kong, B. I. Lundqvist, and
     *   D. C. Langreth, Phys. Rev. B 82, 081101(R) (2010).
     *
     *
     * If you are calculating the stress with vdW-DF, please also cite:
     *
     *   R. Sabatini, E. Kucukbenli, B. Kolb, T. Thonhauser, and
     *   S. de Gironcoli, J. Phys.: Condens. Matter 24, 424209 (2012).
     *

     Carrying out vdW-DF run using the following parameters:

     Nqs =      20    Nr_points =    1024   r_max =   100.000
     q_mesh =
               0.00001000     0.04494208     0.09755937     0.15916263
               0.23128650     0.31572767     0.41458969     0.53033537
               0.66584808     0.82450364     1.01025438     1.22772762
               1.48234092     1.78043706     2.12944203     2.53805004
               3.01644009     3.57652955     4.23227104     5.00000000

     Gradients computed in reciprocal space

     Adding external electric field

     Computed dipole along edir(3) :
        Dipole                0.0000 Ry au,          0.0000 Debye
        Dipole field          0.0000 Ry au

        Potential amp.       -0.0000 Ry
        Total length         45.7751 bohr

     Starting wfc are  147 randomized atomic wfcs

     Self-consistent Calculation

     iteration #  1     ecut=    36.75 Ry     beta=0.10
     Davidson diagonalization with overlap
     ethr =  1.00E-02,  avg # of iterations =  2.0

[...]

     total energy              =   -1642.26280951 Ry
     Harris-Foulkes estimate   =   -1651.90001068 Ry
     estimated scf accuracy    <      53.58897043 Ry

[...]

     iteration # 13     ecut=    36.75 Ry     beta=0.10
     Davidson diagonalization with overlap
     c_bands:  1 eigenvalues not converged
     c_bands:  1 eigenvalues not converged
     ethr =  2.87E-06,  avg # of iterations =  7.8

[...]

     End of self-consistent calculation

          k = 0.0000 0.0000 0.0000 ( 19267 PWs)   bands (ev):

   -66.6705 -66.6651 -66.6216 -66.6216 -66.6202 -66.6202 -66.5807 -66.5395
   -66.5394 -55.4591 -55.4590 -55.3761 -33.4257 -33.3251 -33.2931 -33.2415
   -33.2415 -33.2349 -33.2237 -33.2237 -33.1417 -33.1416 -33.0858 -32.9995
   -32.9995 -32.9185 -32.9185 -32.8250 -32.7625 -32.7507 -32.7307 -32.7307
   -32.6572 -32.6281 -32.6281 -32.6245 -32.6245 -32.5963 -32.5963 -31.7314
   -31.7018 -31.6073 -31.6073 -31.6017 -31.6017 -31.5575 -31.5447 -31.5447
    -5.4172  -3.8939  -2.8039  -2.1620  -2.0385  -2.0385  -1.8453  -1.7634
    -1.7634  -1.2750  -1.1810  -1.1809  -1.0504  -0.9467  -0.9467  -0.1507
     0.2018   0.2019   1.0539   1.2478   1.3523   1.3523   1.4735   1.7127
     1.7216   1.7216   1.9938   2.1017   2.1208   2.1208   2.3547   2.3547
     2.4188   2.4407   2.4407   2.4854   2.4854   2.5860   2.5860   2.6924
     3.2807   3.2807   3.3855   3.6167   3.6167   4.0936   4.2067   4.2067
     4.3637   4.7336   4.7336   4.9214   4.9214   5.5272   5.6175   5.6176
     5.7360   5.7852

[...]

          k =-0.0843-0.0487 0.0000 ( 19236 PWs)   bands (ev):

[...]

     the Fermi energy is     1.6183 ev

!    total energy              =   -1648.30339382 Ry
     Harris-Foulkes estimate   =   -1648.30339421 Ry
     estimated scf accuracy    <       0.00000026 Ry

     The total energy is the sum of the following terms:

     one-electron contribution =  -11181.52082544 Ry
     hartree contribution      =    5572.93676358 Ry
     xc contribution           =    -448.05952866 Ry
     ewald contribution        =    4408.45720923 Ry
     electric field correction =       0.00000000 Ry
     smearing contrib. (-TS)   =      -0.11701254 Ry

     convergence has been achieved in  21 iterations

 BEEF-vdW xc energy contributions
           1 :   -393.159257002174
           2 :    361.555016750101
           3 :   -306.858953260907
           4 :    242.415045582212
           5 :   -181.191391007692
[...]
     Using radial grid of  921 points,  7 beta functions with:
                l(1) =   0
                l(2) =   0
                l(3) =   1
                l(4) =   1
                l(5) =   2
                l(6) =   2
                l(7) =   3
     Q(r) pseudized with  6 coefficients,  rinner =    1.300   1.300   1.300
                                                       1.300   1.300   1.300
                                                       1.300

     PseudoPot. # 2 for Ti read from file:
     /afs/slac.stanford.edu/u/if/mamunm/psp/gbrv1.5pbe/Ti.UPF
     MD5 check sum: 88a00a6731bd790ddea75d31a80cb452
     Pseudo is Ultrasoft + core correction, Zval = 12.0
     Generated by new atomic code, or converted to UPF format
     Using radial grid of  851 points,  6 beta functions with:
                l(1) =   0
                l(2) =   0
                l(3) =   1
                l(4) =   1
                l(5) =   2
                l(6) =   2
     Q(r) pseudized with  6 coefficients,  rinner =    1.000   1.000   1.000
                                                       1.000   1.000

     vdW kernel table read from file vdW_kernel_table
     MD5 check sum: 095c7af220d748ca6e76c0b4c6cfb241

     atomic species   valence    mass     pseudopotential
        Ta1           13.00   180.94788     Ta( 1.00)
        Ti1           12.00    47.86700     Ti( 1.00)

     No symmetry found

   Cartesian axes

     site n.     atom                  positions (alat units)
         1           Ta1 tau(   1) = (   0.0000000   0.0000000  10.0000000  )
         2           Ta1 tau(   2) = (  -1.4832420   2.5690505  10.0000000  )
         3           Ta1 tau(   3) = (   1.4832420   2.5690505  10.0000000  )
         4           Ti1 tau(   4) = (   2.9664840   0.0000000  10.0000000  )
         5           Ta1 tau(   5) = (   2.9664840   1.7127003  12.4221240  )
         6           Ta1 tau(   6) = (   1.4832420   4.2817508  12.4221240  )
         7           Ta1 tau(   7) = (  -1.4832420   4.2817508  12.4221240  )
         8           Ti1 tau(   8) = (   0.0000000   1.7127003  12.4221240  )
         9           Ta1 tau(   9) = (  -0.0000071   3.4173262  14.7592483  )
        10           Ta1 tau(  10) = (   1.4762430   0.8603953  14.7592413  )
        11           Ta1 tau(  11) = (   4.4567286   0.8604047  14.7592498  )
        12           Ti1 tau(  12) = (   2.9664859   3.4254151  14.8828198  )

     number of k points=    20  Fermi-Dirac smearing, width (Ry)=  0.0110
                       cart. coord. in units 2pi/alat
        k(    1) = (   0.0000000   0.0000000   0.0000000), wk =   0.0555556
        k(    2) = (   0.0000000   0.0324374   0.0000000), wk =   0.1111111
        k(    3) = (   0.0000000   0.0648748   0.0000000), wk =   0.1111111
        k(    4) = (   0.0000000  -0.0973122   0.0000000), wk =   0.0555556
        k(    5) = (   0.0280916   0.0162187   0.0000000), wk =   0.1111111
        k(    6) = (   0.0280916   0.0486561   0.0000000), wk =   0.1111111
        k(    7) = (   0.0280916   0.0810935   0.0000000), wk =   0.1111111
        k(    8) = (   0.0280916  -0.0810935   0.0000000), wk =   0.1111111
        k(    9) = (   0.0280916  -0.0486561   0.0000000), wk =   0.1111111
        k(   10) = (   0.0280916  -0.0162187   0.0000000), wk =   0.1111111
        k(   11) = (   0.0561832   0.0324374   0.0000000), wk =   0.1111111
        k(   12) = (   0.0561832   0.0648748   0.0000000), wk =   0.1111111
        k(   13) = (   0.0561832   0.0973122   0.0000000), wk =   0.1111111
        k(   14) = (   0.0561832  -0.0648748   0.0000000), wk =   0.1111111
        k(   15) = (   0.0561832  -0.0324374   0.0000000), wk =   0.1111111
        k(   16) = (   0.0561832   0.0000000   0.0000000), wk =   0.1111111
        k(   17) = (  -0.0842749  -0.0486561   0.0000000), wk =   0.0555556
        k(   18) = (  -0.0842749  -0.0162187   0.0000000), wk =   0.1111111
        k(   19) = (  -0.0842749   0.0162187   0.0000000), wk =   0.1111111
        k(   20) = (  -0.0842749  -0.1459683   0.0000000), wk =   0.0555556

     Largest allocated arrays     est. size (Mb)     dimensions
     Largest temporary arrays     est. size (Mb)     dimensions

     Check: negative/imaginary core charge=   -0.000002    0.000000

     Initial potential from superposition of free atoms
     Check: negative starting charge=   -0.846412

     starting charge  149.98986, renormalised to  153.00000

[...]

     *
     * You are using vdW-DF for exchange-correlation in this calculation.
     * Please cite the following three references that made this development
     * possible:
     *
     *   M. Dion, H. Rydberg, E. Schroder, D. C. Langreth, and
     *   B. I. Lundqvist, Phys. Rev. Lett. 92, 246401 (2004).
     *
     *   T. Thonhauser, V. R. Cooper, S. Li, A. Puzder, P. Hyldgaard, and
     *   D. C. Langreth, Phys. Rev. B 76, 125112 (2007).
     *
     *   G. Roman-Perez and J. M. Soler, Phys. Rev. Lett. 103, 096102 (2009).
     *
     *
     * If you are using vdW-DF2, please also cite:
     *
     *   K. Lee, E. D. Murray, L. Kong, B. I. Lundqvist, and
     *   D. C. Langreth, Phys. Rev. B 82, 081101(R) (2010).
     *
     *
     * If you are calculating the stress with vdW-DF, please also cite:
     *
     *   R. Sabatini, E. Kucukbenli, B. Kolb, T. Thonhauser, and
     *   S. de Gironcoli, J. Phys.: Condens. Matter 24, 424209 (2012).
     *

     Carrying out vdW-DF run using the following parameters:

     Nqs =      20    Nr_points =    1024   r_max =   100.000
     q_mesh =
               0.00001000     0.04494208     0.09755937     0.15916263
               0.23128650     0.31572767     0.41458969     0.53033537
               0.66584808     0.82450364     1.01025438     1.22772762
               1.48234092     1.78043706     2.12944203     2.53805004
               3.01644009     3.57652955     4.23227104     5.00000000

     Gradients computed in reciprocal space

[...]

     Starting wfc are  147 randomized atomic wfcs

     Self-consistent Calculation

[...]

     iteration # 17     ecut=    36.75 Ry     beta=0.10
     Davidson diagonalization with overlap
     c_bands:  1 eigenvalues not converged
     ethr =  1.03E-06,  avg # of iterations =  7.1

[...]

     total energy              =   -1648.31627081 Ry
     Harris-Foulkes estimate   =   -1648.31627043 Ry
     estimated scf accuracy    <       0.00000101 Ry

     iteration # 21     ecut=    36.75 Ry     beta=0.10
     Davidson diagonalization with overlap
     ethr =  6.61E-10,  avg # of iterations =  2.6

[...]

     negative rho (up, down):  8.830E-01 0.000E+00

     Adding external electric field

     Computed dipole along edir(3) :
        Dipole                0.0242 Ry au,          0.0615 Debye
        Dipole field          0.0001 Ry au

        Potential amp.       -0.0054 Ry
        Total length         45.7751 bohr

     End of self-consistent calculation

[...]

          k = 0.0562 0.0000 0.0000 ( 19229 PWs)   bands (ev):

[...]

          k =-0.0843-0.1460 0.0000 ( 19236 PWs)   bands (ev):

   -66.6266 -66.6117 -66.6010 -66.5954 -66.5856 -66.5683 -66.5352 -66.5242
   -66.5106 -55.4929 -55.4354 -55.3430 -33.2809 -33.2611 -33.1822 -33.1527
   -33.1311 -33.1165 -33.0966 -33.0530 -33.0252 -33.0056 -32.9585 -32.9547
   -32.9388 -32.9024 -32.8997 -32.8946 -32.8884 -32.8678 -32.7880 -32.7795
   -32.7676 -32.6850 -32.6498 -32.6485 -32.6297 -32.6105 -32.5742 -31.7839
   -31.6910 -31.6610 -31.6319 -31.6241 -31.5937 -31.5523 -31.5285 -31.5229
    -3.8257  -3.5735  -2.4308  -2.0995  -1.5768  -1.2866  -1.2253  -1.1811
    -1.0083  -0.9127  -0.4312  -0.1569  -0.0824  -0.0654   0.0585   0.1962
     0.3520   0.3672   0.4956   0.4980   0.6726   0.8043   0.8718   1.0365
     1.0732   1.0789   1.1351   1.3008   1.3275   1.3895   1.5307   1.6059
     1.8306   2.0327   2.0423   2.1331   2.1594   2.2340   2.7579   2.7988
     3.0060   3.1400   3.3040   3.3826   3.5675   3.5852   3.6816   3.8168
     3.8307   3.8568   3.9699   4.1353   4.2339   4.3057   4.4502   4.6896
     4.7795   4.9505

     the Fermi energy is     1.6356 ev

!    total energy              =   -1648.31627012 Ry
     Harris-Foulkes estimate   =   -1648.31627123 Ry
     estimated scf accuracy    <       0.00000074 Ry

     The total energy is the sum of the following terms:

     one-electron contribution =  -11270.41428099 Ry
     hartree contribution      =    5617.50935343 Ry
     xc contribution           =    -448.18571415 Ry
     ewald contribution        =    4452.89054039 Ry
     electric field correction =       0.00000144 Ry
     smearing contrib. (-TS)   =      -0.11617025 Ry

     convergence has been achieved in  21 iterations

 BEEF-vdW xc energy contributions
           1 :   -393.529345154874
           2 :    361.960654574831
           3 :   -307.307460953349
           4 :    242.874396333467
           5 :   -181.606086799322
           6 :    131.894087529575
           7 :   -96.0428320315308
           8 :    71.5107321763172
           9 :   -53.7475472519300
          10 :    38.9414190534338
          11 :   -25.4352774145250
          12 :    13.5210719131911
          13 :   -4.22993682283868
          14 :   -1.90253322092315
          15 :    5.35848625143194
          16 :   -7.32508037372065
          17 :    8.95134559064218
          18 :   -10.7473131343018
          19 :    12.4707410759634
          20 :   -13.4795013525030
          21 :    13.2552278039560
          22 :   -11.7702971819609
          23 :    9.51759932367719
          24 :   -7.24106986357219
          25 :    5.55609862017207
          26 :   -4.68067881382160
          27 :    4.40223129555335
          28 :   -4.26433832101418
          29 :    3.84390820634781
          30 :   -2.96804648117472
          31 :   -35.8834330453004
          32 :   -26.4850514800964

     Forces acting on atoms (Ry/au):

     negative rho (up, down):  8.830E-01 0.000E+00
     atom    1 type  1   force =     0.00000107    0.00093420    0.01582726
     atom    2 type  1   force =     0.00080886   -0.00046644    0.01582567
     atom    3 type  1   force =    -0.00080861   -0.00046772    0.01582577
     atom    4 type  2   force =     0.00000014    0.00000038   -0.00116947
     atom    5 type  1   force =    -0.00000020    0.00690396   -0.00899022
     atom    6 type  1   force =     0.00597928   -0.00345239   -0.00898890
     atom    7 type  1   force =    -0.00597942   -0.00345279   -0.00899177
     atom    8 type  2   force =    -0.00000003    0.00000059   -0.01638145
     atom    9 type  1   force =     0.00000054    0.00032697   -0.00154664
     atom   10 type  1   force =     0.00028348   -0.00016287   -0.00154526
     atom   11 type  1   force =    -0.00028421   -0.00016329   -0.00154724
     atom   12 type  2   force =    -0.00000088   -0.00000058    0.00168225

     Total force =     0.037677     Total SCF correction =     0.002689

     entering subroutine stress ...

     negative rho (up, down):  8.830E-01 0.000E+00
          total   stress  (Ry/bohr**3)                   (kbar)     P=  -24.05
  -0.00020519  -0.00000000   0.00000000        -30.18     -0.00      0.00
  -0.00000000  -0.00020519   0.00000000         -0.00    -30.18      0.00
   0.00000000   0.00000000  -0.00008012          0.00      0.00    -11.79

 !ASE

     Writing output data file calc.save

     General routines

     Parallel routines

   This run was terminated on:   1:44:18  28Dec2018

   JOB DONE.
Job  /afs/slac/g/suncat/bin/suncat-tsmpirun -x LD_LIBRARY_PATH -wdir /scratch/qe111025_tDqMf pw.x -in pw.inp

TID   HOST_NAME   COMMAND_LINE            STATUS            TERMINATION_TIME
00000 suncat0193 pw.x -in pw.inp   Done                     12/28/2018 01:44:18
00001 suncat0193 pw.x -in pw.inp   Done                     12/28/2018 01:44:18
00002 suncat0193 pw.x -in pw.inp   Done                     12/28/2018 01:44:18
00003 suncat0193 pw.x -in pw.inp   Done                     12/28/2018 01:44:18
00004 suncat0193 pw.x -in pw.inp   Done                     12/28/2018 01:44:18
00005 suncat0193 pw.x -in pw.inp   Done                     12/28/2018 01:44:18
00006 suncat0193 pw.x -in pw.inp   Done                     12/28/2018 01:44:18
00007 suncat0193 pw.x -in pw.inp   Done                     12/28/2018 01:44:18
00008 suncat0192 pw.x -in pw.inp   Done                     12/28/2018 01:44:18
00009 suncat0192 pw.x -in pw.inp   Done                     12/28/2018 01:44:18
00010 suncat0192 pw.x -in pw.inp   Done                     12/28/2018 01:44:18
00011 suncat0192 pw.x -in pw.inp   Done                     12/28/2018 01:44:18
00012 suncat0192 pw.x -in pw.inp   Done                     12/28/2018 01:44:18
00013 suncat0192 pw.x -in pw.inp   Done                     12/28/2018 01:44:18
00014 suncat0192 pw.x -in pw.inp   Done                     12/28/2018 01:44:18
00015 suncat0192 pw.x -in pw.inp   Done                     12/28/2018 01:44:18
00016 suncat0163 pw.x -in pw.inp   Done                     12/28/2018 01:44:18
00017 suncat0163 pw.x -in pw.inp   Done                     12/28/2018 01:44:18
00018 suncat0163 pw.x -in pw.inp   Done                     12/28/2018 01:44:18
00019 suncat0163 pw.x -in pw.inp   Done                     12/28/2018 01:44:18
00020 suncat0163 pw.x -in pw.inp   Done                     12/28/2018 01:44:18
00021 suncat0163 pw.x -in pw.inp   Done                     12/28/2018 01:44:18
00022 suncat0163 pw.x -in pw.inp   Done                     12/28/2018 01:44:18
00023 suncat0163 pw.x -in pw.inp   Done                     12/28/2018 01:44:18
00024 suncat0162 pw.x -in pw.inp   Done                     12/28/2018 01:44:18
00025 suncat0162 pw.x -in pw.inp   Done                     12/28/2018 01:44:18
00026 suncat0162 pw.x -in pw.inp   Done                     12/28/2018 01:44:18
00027 suncat0162 pw.x -in pw.inp   Done                     12/28/2018 01:44:18
00028 suncat0162 pw.x -in pw.inp   Done                     12/28/2018 01:44:18
00029 suncat0162 pw.x -in pw.inp   Done                     12/28/2018 01:44:18
00030 suncat0162 pw.x -in pw.inp   Done                     12/28/2018 01:44:18
00031 suncat0162 pw.x -in pw.inp   Done                     12/28/2018 01:44:18
00032 suncat0159 pw.x -in pw.inp   Done                     12/28/2018 01:44:18
00033 suncat0159 pw.x -in pw.inp   Done                     12/28/2018 01:44:18
00034 suncat0159 pw.x -in pw.inp   Done                     12/28/2018 01:44:18
00035 suncat0159 pw.x -in pw.inp   Done                     12/28/2018 01:44:18
00036 suncat0159 pw.x -in pw.inp   Done                     12/28/2018 01:44:18
00037 suncat0159 pw.x -in pw.inp   Done                     12/28/2018 01:44:18
00038 suncat0159 pw.x -in pw.inp   Done                     12/28/2018 01:44:18
00039 suncat0159 pw.x -in pw.inp   Done                     12/28/2018 01:44:18
00040 suncat0155 pw.x -in pw.inp   Done                     12/28/2018 01:44:18
00041 suncat0155 pw.x -in pw.inp   Done                     12/28/2018 01:44:18
00042 suncat0155 pw.x -in pw.inp   Done                     12/28/2018 01:44:18
00043 suncat0155 pw.x -in pw.inp   Done                     12/28/2018 01:44:18
00044 suncat0155 pw.x -in pw.inp   Done                     12/28/2018 01:44:18
00045 suncat0155 pw.x -in pw.inp   Done                     12/28/2018 01:44:18
00046 suncat0155 pw.x -in pw.inp   Done                     12/28/2018 01:44:18
00047 suncat0155 pw.x -in pw.inp   Done                     12/28/2018 01:44:18
00048 suncat0141 pw.x -in pw.inp   Done                     12/28/2018 01:44:18
00049 suncat0141 pw.x -in pw.inp   Done                     12/28/2018 01:44:18
00050 suncat0141 pw.x -in pw.inp   Done                     12/28/2018 01:44:18
00051 suncat0141 pw.x -in pw.inp   Done                     12/28/2018 01:44:18
00052 suncat0141 pw.x -in pw.inp   Done                     12/28/2018 01:44:18
00053 suncat0141 pw.x -in pw.inp   Done                     12/28/2018 01:44:18
00054 suncat0141 pw.x -in pw.inp   Done                     12/28/2018 01:44:18
00055 suncat0141 pw.x -in pw.inp   Done                     12/28/2018 01:44:18
00056 suncat0140 pw.x -in pw.inp   Done                     12/28/2018 01:44:18
00057 suncat0140 pw.x -in pw.inp   Done                     12/28/2018 01:44:18
00058 suncat0140 pw.x -in pw.inp   Done                     12/28/2018 01:44:18
00059 suncat0140 pw.x -in pw.inp   Done                     12/28/2018 01:44:18
00060 suncat0140 pw.x -in pw.inp   Done                     12/28/2018 01:44:18
00061 suncat0140 pw.x -in pw.inp   Done                     12/28/2018 01:44:18
00062 suncat0140 pw.x -in pw.inp   Done                     12/28/2018 01:44:18
00063 suncat0140 pw.x -in pw.inp   Done                     12/28/2018 01:44:18