     Program PWSCF v.5.1rc2 (svn rev. 11289) starts on 30Dec2018 at 11:10:22

     Current dimensions of program PWSCF are:
     Max number of different atomic species (ntypx) = 10
     Max number of k-points (npk) =  40000
     Max angular momentum in pseudopotentials (lmaxx) =  3
     Presently stress not available with electric field

     IMPORTANT: XC functional enforced from input :
     Exchange-correlation      = BEEF-VDW ( 1  4 27 13 2)
     Any further DFT definition will be discarded
     Please, verify this is what you really want

     Subspace diagonalization in iterative solution of the eigenvalue problem:
     a serial algorithm will be used

     Generating pointlists ...
     new r_m :   0.4125 (alat units)  0.7795 (a.u.) for type    1
     new r_m :   0.4125 (alat units)  0.7795 (a.u.) for type    2

     bravais-lattice index     =            0
     lattice parameter (alat)  =       1.8897  a.u.
     unit-cell volume          =    4163.4465 (a.u.)^3
     number of atoms/cell      =           12
     number of atomic types    =            2
     number of electrons       =       183.00
     number of Kohn-Sham states=          121
     kinetic-energy cutoff     =      36.7493  Ry
     charge density cutoff     =     367.4932  Ry
     convergence threshold     =      1.0E-06
     mixing beta               =       0.1000
     number of iterations used =           10  plain     mixing
     Exchange-correlation      = BEEF-VDW ( 1  4 27 13 2)
     nstep                     =           50

     celldm(1)=   1.889726  celldm(2)=   0.000000  celldm(3)=   0.000000
     celldm(4)=   0.000000  celldm(5)=   0.000000  celldm(6)=   0.000000

     crystal axes: (cart. coord. in units of alat)
               a(1) = (   5.402206   0.000000   0.000000 )
               a(2) = (  -2.701103   4.678448   0.000000 )
               a(3) = (   0.000000   0.000000  24.410883 )

     reciprocal axes: (cart. coord. in units 2 pi/alat)
               b(1) = (  0.185110  0.106873  0.000000 )
               b(2) = (  0.000000  0.213746  0.000000 )
               b(3) = (  0.000000  0.000000  0.040965 )

     PseudoPot. # 1 for Ir read from file:
     /afs/slac.stanford.edu/u/if/mamunm/psp/gbrv1.5pbe/Ir.UPF
     MD5 check sum: 8836f839c3459d2b385c504ce6d91f2c
     Pseudo is Ultrasoft + core correction, Zval = 15.0
     Generated by new atomic code, or converted to UPF format
     Using radial grid of  983 points,  7 beta functions with:
                l(1) =   0
                l(2) =   0
                l(3) =   1
                l(4) =   1
                l(5) =   1
                l(6) =   2
                l(7) =   2
     Q(r) pseudized with  8 coefficients,  rinner =    1.400   1.400   1.400
                                                       1.400   1.400

     PseudoPot. # 2 for Fe read from file:
     /afs/slac.stanford.edu/u/if/mamunm/psp/gbrv1.5pbe/Fe.UPF
     MD5 check sum: a130daea23fe5165f5d574ae7f82ed95
     Pseudo is Ultrasoft + core correction, Zval = 16.0
     Generated by new atomic code, or converted to UPF format
     Using radial grid of  861 points,  6 beta functions with:
                l(1) =   0
                l(2) =   0
                l(3) =   1
                l(4) =   1
                l(5) =   2
                l(6) =   2
     Q(r) pseudized with  8 coefficients,  rinner =    1.000   1.000   1.000
                                                       1.000   1.000

     vdW kernel table read from file vdW_kernel_table
     MD5 check sum: 095c7af220d748ca6e76c0b4c6cfb241

     atomic species   valence    mass     pseudopotential
        Ir1           15.00   192.21700     Ir( 1.00)
        Fe1           16.00    55.84500     Fe( 1.00)

     Starting magnetic structure
     atomic species   magnetization
        Ir1          0.133
        Fe1          0.125

     No symmetry found

   Cartesian axes

     site n.     atom                  positions (alat units)
         1           Ir1 tau(   1) = (   0.0000000   0.0000000  10.0000000  )
         2           Ir1 tau(   2) = (  -1.3505515   2.3392238  10.0000000  )
         3           Ir1 tau(   3) = (   1.3505515   2.3392238  10.0000000  )
         4           Fe1 tau(   4) = (   2.7011030   0.0000000  10.0000000  )
         5           Ir1 tau(   5) = (   2.7011030   1.5594825  12.2054413  )
         6           Ir1 tau(   6) = (   1.3505515   3.8987063  12.2054413  )
         7           Ir1 tau(   7) = (  -1.3505515   3.8987063  12.2054413  )
         8           Fe1 tau(   8) = (   0.0000000   1.5594825  12.2054413  )
         9           Ir1 tau(   9) = (  -0.0000000   3.1189651  14.4108827  )
        10           Ir1 tau(  10) = (   1.3505515   0.7797413  14.4108827  )
        11           Ir1 tau(  11) = (   4.0516545   0.7797413  14.4108827  )
        12           Fe1 tau(  12) = (   2.7011030   3.1189651  14.4108827  )

     number of k points=    40  Fermi-Dirac smearing, width (Ry)=  0.0110
                       cart. coord. in units 2pi/alat
        k(    1) = (   0.0000000   0.0000000   0.0000000), wk =   0.0277778
        k(    2) = (   0.0000000   0.0356244   0.0000000), wk =   0.0555556
        k(    3) = (   0.0000000   0.0712487   0.0000000), wk =   0.0555556
        k(    4) = (   0.0000000  -0.1068731   0.0000000), wk =   0.0277778
        k(    5) = (   0.0308516   0.0178122   0.0000000), wk =   0.0555556
        k(    6) = (   0.0308516   0.0534365   0.0000000), wk =   0.0555556
        k(    7) = (   0.0308516   0.0890609   0.0000000), wk =   0.0555556
        k(    8) = (   0.0308516  -0.0890609   0.0000000), wk =   0.0555556
        k(    9) = (   0.0308516  -0.0534365   0.0000000), wk =   0.0555556
        k(   10) = (   0.0308516  -0.0178122   0.0000000), wk =   0.0555556
        k(   11) = (   0.0617032   0.0356244   0.0000000), wk =   0.0555556
        k(   12) = (   0.0617032   0.0712487   0.0000000), wk =   0.0555556
        k(   13) = (   0.0617032   0.1068731   0.0000000), wk =   0.0555556
        k(   14) = (   0.0617032  -0.0712487   0.0000000), wk =   0.0555556
        k(   15) = (   0.0617032  -0.0356244   0.0000000), wk =   0.0555556
        k(   16) = (   0.0617032   0.0000000   0.0000000), wk =   0.0555556
        k(   17) = (  -0.0925548  -0.0534365   0.0000000), wk =   0.0277778
        k(   18) = (  -0.0925548  -0.0178122   0.0000000), wk =   0.0555556
        k(   19) = (  -0.0925548   0.0178122   0.0000000), wk =   0.0555556
        k(   20) = (  -0.0925548  -0.1603096   0.0000000), wk =   0.0277778
        k(   21) = (   0.0000000   0.0000000   0.0000000), wk =   0.0277778
        k(   22) = (   0.0000000   0.0356244   0.0000000), wk =   0.0555556
        k(   23) = (   0.0000000   0.0712487   0.0000000), wk =   0.0555556
        k(   24) = (   0.0000000  -0.1068731   0.0000000), wk =   0.0277778
        k(   25) = (   0.0308516   0.0178122   0.0000000), wk =   0.0555556
        k(   26) = (   0.0308516   0.0534365   0.0000000), wk =   0.0555556
        k(   27) = (   0.0308516   0.0890609   0.0000000), wk =   0.0555556
        k(   28) = (   0.0308516  -0.0890609   0.0000000), wk =   0.0555556
        k(   29) = (   0.0308516  -0.0534365   0.0000000), wk =   0.0555556
        k(   30) = (   0.0308516  -0.0178122   0.0000000), wk =   0.0555556
        k(   31) = (   0.0617032   0.0356244   0.0000000), wk =   0.0555556
        k(   32) = (   0.0617032   0.0712487   0.0000000), wk =   0.0555556
        k(   33) = (   0.0617032   0.1068731   0.0000000), wk =   0.0555556
        k(   34) = (   0.0617032  -0.0712487   0.0000000), wk =   0.0555556
        k(   35) = (   0.0617032  -0.0356244   0.0000000), wk =   0.0555556
        k(   36) = (   0.0617032   0.0000000   0.0000000), wk =   0.0555556
        k(   37) = (  -0.0925548  -0.0534365   0.0000000), wk =   0.0277778
        k(   38) = (  -0.0925548  -0.0178122   0.0000000), wk =   0.0555556
        k(   39) = (  -0.0925548   0.0178122   0.0000000), wk =   0.0555556
        k(   40) = (  -0.0925548  -0.1603096   0.0000000), wk =   0.0277778

     Largest allocated arrays     est. size (Mb)     dimensions
     Largest temporary arrays     est. size (Mb)     dimensions

     Check: negative/imaginary core charge=   -0.000002    0.000000

     Initial potential from superposition of free atoms
     Check: negative starting charge=(component1):   -1.856821
     Check: negative starting charge=(component2):   -1.419907

     starting charge  175.49970, renormalised to  183.00000

     negative rho (up, down):  1.936E+00 1.481E+00

     *
     * You are using vdW-DF for exchange-correlation in this calculation.
     * Please cite the following three references that made this development
     * possible:
     *
     *   M. Dion, H. Rydberg, E. Schroder, D. C. Langreth, and
     *   B. I. Lundqvist, Phys. Rev. Lett. 92, 246401 (2004).
     *
     *   T. Thonhauser, V. R. Cooper, S. Li, A. Puzder, P. Hyldgaard, and
     *   D. C. Langreth, Phys. Rev. B 76, 125112 (2007).
     *
     *   G. Roman-Perez and J. M. Soler, Phys. Rev. Lett. 103, 096102 (2009).
     *
     *
     * If you are using vdW-DF2, please also cite:
     *
     *   K. Lee, E. D. Murray, L. Kong, B. I. Lundqvist, and
     *   D. C. Langreth, Phys. Rev. B 82, 081101(R) (2010).
     *
     *
     * If you are calculating the stress with vdW-DF, please also cite:
     *
     *   R. Sabatini, E. Kucukbenli, B. Kolb, T. Thonhauser, and
     *   S. de Gironcoli, J. Phys.: Condens. Matter 24, 424209 (2012).
     *

     Carrying out vdW-DF run using the following parameters:

     Nqs =      20    Nr_points =    1024   r_max =   100.000
     q_mesh =
               0.00001000     0.04494208     0.09755937     0.15916263
               0.23128650     0.31572767     0.41458969     0.53033537
               0.66584808     0.82450364     1.01025438     1.22772762
               1.48234092     1.78043706     2.12944203     2.53805004
               3.01644009     3.57652955     4.23227104     5.00000000

     Gradients computed in reciprocal space

     Adding external electric field

     Computed dipole along edir(3) :
        Dipole               -0.0000 Ry au,         -0.0000 Debye
        Dipole field         -0.0000 Ry au

        Potential amp.        0.0000 Ry
        Total length         44.9766 bohr

[...]

     Starting wfc are  147 randomized atomic wfcs

     Self-consistent Calculation

     iteration #  1     ecut=    36.75 Ry     beta=0.10
     Davidson diagonalization with overlap
     ethr =  1.00E-02,  avg # of iterations =  7.7

[...]

     Magnetic moment per site:
     atom:    1    charge:    1.6035    magn:    0.1972    constr:    0.0000
     atom:    2    charge:    1.6035    magn:    0.1972    constr:    0.0000
     atom:    3    charge:    1.6035    magn:    0.1972    constr:    0.0000
     atom:    4    charge:    7.3544    magn:    0.8367    constr:    0.0000
     atom:    5    charge:    1.5945    magn:    0.1960    constr:    0.0000
     atom:    6    charge:    1.5945    magn:    0.1960    constr:    0.0000
     atom:    7    charge:    1.5945    magn:    0.1960    constr:    0.0000
[...]
        k(    3) = (   0.0000000   0.0712487   0.0000000), wk =   0.0555556
        k(    4) = (   0.0000000  -0.1068731   0.0000000), wk =   0.0277778
        k(    5) = (   0.0308516   0.0178122   0.0000000), wk =   0.0555556
        k(    6) = (   0.0308516   0.0534365   0.0000000), wk =   0.0555556
        k(    7) = (   0.0308516   0.0890609   0.0000000), wk =   0.0555556
        k(    8) = (   0.0308516  -0.0890609   0.0000000), wk =   0.0555556
        k(    9) = (   0.0308516  -0.0534365   0.0000000), wk =   0.0555556
        k(   10) = (   0.0308516  -0.0178122   0.0000000), wk =   0.0555556
        k(   11) = (   0.0617032   0.0356244   0.0000000), wk =   0.0555556
        k(   12) = (   0.0617032   0.0712487   0.0000000), wk =   0.0555556
        k(   13) = (   0.0617032   0.1068731   0.0000000), wk =   0.0555556
        k(   14) = (   0.0617032  -0.0712487   0.0000000), wk =   0.0555556
        k(   15) = (   0.0617032  -0.0356244   0.0000000), wk =   0.0555556
        k(   16) = (   0.0617032   0.0000000   0.0000000), wk =   0.0555556
        k(   17) = (  -0.0925548  -0.0534365   0.0000000), wk =   0.0277778
        k(   18) = (  -0.0925548  -0.0178122   0.0000000), wk =   0.0555556
        k(   19) = (  -0.0925548   0.0178122   0.0000000), wk =   0.0555556
        k(   20) = (  -0.0925548  -0.1603096   0.0000000), wk =   0.0277778
        k(   21) = (   0.0000000   0.0000000   0.0000000), wk =   0.0277778
        k(   22) = (   0.0000000   0.0356244   0.0000000), wk =   0.0555556
        k(   23) = (   0.0000000   0.0712487   0.0000000), wk =   0.0555556
        k(   24) = (   0.0000000  -0.1068731   0.0000000), wk =   0.0277778
        k(   25) = (   0.0308516   0.0178122   0.0000000), wk =   0.0555556
        k(   26) = (   0.0308516   0.0534365   0.0000000), wk =   0.0555556
        k(   27) = (   0.0308516   0.0890609   0.0000000), wk =   0.0555556
        k(   28) = (   0.0308516  -0.0890609   0.0000000), wk =   0.0555556
        k(   29) = (   0.0308516  -0.0534365   0.0000000), wk =   0.0555556
        k(   30) = (   0.0308516  -0.0178122   0.0000000), wk =   0.0555556
        k(   31) = (   0.0617032   0.0356244   0.0000000), wk =   0.0555556
        k(   32) = (   0.0617032   0.0712487   0.0000000), wk =   0.0555556
        k(   33) = (   0.0617032   0.1068731   0.0000000), wk =   0.0555556
        k(   34) = (   0.0617032  -0.0712487   0.0000000), wk =   0.0555556
        k(   35) = (   0.0617032  -0.0356244   0.0000000), wk =   0.0555556
        k(   36) = (   0.0617032   0.0000000   0.0000000), wk =   0.0555556
        k(   37) = (  -0.0925548  -0.0534365   0.0000000), wk =   0.0277778
        k(   38) = (  -0.0925548  -0.0178122   0.0000000), wk =   0.0555556
        k(   39) = (  -0.0925548   0.0178122   0.0000000), wk =   0.0555556
        k(   40) = (  -0.0925548  -0.1603096   0.0000000), wk =   0.0277778

     Largest allocated arrays     est. size (Mb)     dimensions
     Largest temporary arrays     est. size (Mb)     dimensions

     Check: negative/imaginary core charge=   -0.000002    0.000000

     Initial potential from superposition of free atoms
     Check: negative starting charge=(component1):   -1.856444
     Check: negative starting charge=(component2):   -1.419617

     starting charge  175.49970, renormalised to  183.00000

[...]

     *
     * You are using vdW-DF for exchange-correlation in this calculation.
     * Please cite the following three references that made this development
     * possible:
     *
     *   M. Dion, H. Rydberg, E. Schroder, D. C. Langreth, and
     *   B. I. Lundqvist, Phys. Rev. Lett. 92, 246401 (2004).
     *
     *   T. Thonhauser, V. R. Cooper, S. Li, A. Puzder, P. Hyldgaard, and
     *   D. C. Langreth, Phys. Rev. B 76, 125112 (2007).
     *
     *   G. Roman-Perez and J. M. Soler, Phys. Rev. Lett. 103, 096102 (2009).
     *
     *
     * If you are using vdW-DF2, please also cite:
     *
     *   K. Lee, E. D. Murray, L. Kong, B. I. Lundqvist, and
     *   D. C. Langreth, Phys. Rev. B 82, 081101(R) (2010).
     *
     *
     * If you are calculating the stress with vdW-DF, please also cite:
     *
     *   R. Sabatini, E. Kucukbenli, B. Kolb, T. Thonhauser, and
     *   S. de Gironcoli, J. Phys.: Condens. Matter 24, 424209 (2012).
     *

     Carrying out vdW-DF run using the following parameters:

     Nqs =      20    Nr_points =    1024   r_max =   100.000
     q_mesh =
               0.00001000     0.04494208     0.09755937     0.15916263
               0.23128650     0.31572767     0.41458969     0.53033537
               0.66584808     0.82450364     1.01025438     1.22772762
               1.48234092     1.78043706     2.12944203     2.53805004
               3.01644009     3.57652955     4.23227104     5.00000000

     Gradients computed in reciprocal space

[...]

     Starting wfc are  147 randomized atomic wfcs

     Self-consistent Calculation

[...]

     total energy              =   -2403.88446288 Ry
     Harris-Foulkes estimate   =   -2403.88446125 Ry
     estimated scf accuracy    <       0.00000167 Ry

[...]

     iteration # 31     ecut=    36.75 Ry     beta=0.10
     Davidson diagonalization with overlap
     ethr =  9.14E-10,  avg # of iterations =  2.0

[...]

     negative rho (up, down):  1.492E+00 1.418E+00

[...]

     Adding external electric field

     Computed dipole along edir(3) :
        Dipole                0.0035 Ry au,          0.0089 Debye
        Dipole field          0.0000 Ry au

        Potential amp.       -0.0010 Ry
        Total length         44.9766 bohr

     Magnetic moment per site:
     atom:    1    charge:    1.6138    magn:    0.0057    constr:    0.0000
     atom:    2    charge:    1.6138    magn:    0.0057    constr:    0.0000
     atom:    3    charge:    1.6138    magn:    0.0057    constr:    0.0000
     atom:    4    charge:    7.0883    magn:    1.4251    constr:    0.0000
     atom:    5    charge:    1.6097    magn:    0.0091    constr:    0.0000
     atom:    6    charge:    1.6097    magn:    0.0091    constr:    0.0000
     atom:    7    charge:    1.6097    magn:    0.0091    constr:    0.0000
     atom:    8    charge:    7.0761    magn:    1.4192    constr:    0.0000
     atom:    9    charge:    1.6099    magn:    0.0055    constr:    0.0000
     atom:   10    charge:    1.6099    magn:    0.0055    constr:    0.0000
     atom:   11    charge:    1.6099    magn:    0.0055    constr:    0.0000
     atom:   12    charge:    7.0821    magn:    1.4181    constr:    0.0000

     End of self-consistent calculation

 ------ SPIN UP ------------

[...]

 ------ SPIN DOWN ----------

[...]

          k = 0.0617 0.0000 0.0000 ( 15636 PWs)   bands (ev):

[...]

          k =-0.0926-0.1603 0.0000 ( 15704 PWs)   bands (ev):

   -83.7110 -83.6301 -83.6280 -49.8258 -49.8213 -49.8050 -49.7446 -49.7431
   -49.7405 -49.7396 -49.6885 -49.6855 -47.6208 -47.5138 -47.4467 -47.4441
   -47.3664 -47.3445 -47.3199 -47.2751 -47.2162 -47.1620 -47.1015 -47.0414
   -46.9957 -46.9586 -46.9514 -46.9214 -46.9152 -46.8980 -46.8657 -46.8531
   -46.8360 -46.8333 -46.8012 -46.7871 -46.7771 -46.7600 -46.7215  -5.3631
    -4.9846  -3.8332  -3.6044  -3.5465  -3.2431  -3.2353  -3.0583  -2.8597
    -2.7447  -2.6967  -2.6116  -2.2828  -2.1251  -2.0503  -2.0130  -1.9324
    -1.8255  -1.4775  -1.4188  -0.9149  -0.9060  -0.8456  -0.8308  -0.7386
    -0.6977  -0.6215  -0.5431  -0.4696  -0.4431  -0.3781  -0.1310  -0.1183
    -0.0298   0.3570   0.4282   0.4293   0.6726   0.7483   0.8725   0.8743
     1.1362   1.2591   1.2918   1.4823   1.5450   1.7539   1.7622   2.0937
     2.1803   2.1884   2.2703   2.3895   2.5106   2.6023   2.6124   2.7920
     2.7945   3.0407   3.2390   3.3878   3.4268   3.6263   3.6402   4.3782
     4.5357   5.1208   5.6990   5.7673   6.2198   6.7143   6.8870   7.7793
     7.8283   8.2097   8.2132   8.8131   8.8327   8.9411   8.9516  10.0297
    10.0414

     the Fermi energy is     2.0559 ev

!    total energy              =   -2403.88446790 Ry
     Harris-Foulkes estimate   =   -2403.88446378 Ry
     estimated scf accuracy    <       0.00000057 Ry

     The total energy is the sum of the following terms:

     one-electron contribution =  -20129.89937100 Ry
     hartree contribution      =   10087.12664024 Ry
     xc contribution           =    -558.82090806 Ry
     ewald contribution        =    8197.79662730 Ry
     electric field correction =       0.00000004 Ry
     smearing contrib. (-TS)   =      -0.08745643 Ry

     total magnetization       =    10.35 Bohr mag/cell
     absolute magnetization    =    11.29 Bohr mag/cell

     convergence has been achieved in  31 iterations

 BEEF-vdW xc energy contributions
           1 :   -494.157241211860
           2 :    457.751987017698
           3 :   -393.516444273616
           4 :    315.299715942519
           5 :   -237.525999297653
           6 :    171.110495029058
           7 :   -121.330521241397
           8 :    87.9297064886557
           9 :   -66.9019200990447
          10 :    52.9181984005983
          11 :   -41.4192398366498
          12 :    29.7704972006422
          13 :   -17.4166022866468
          14 :    5.32242564796400
          15 :    4.88533784257220
          16 :   -11.7640984464701
          17 :    14.6705148089097
          18 :   -14.0226347215339
          19 :    11.1533016035181
          20 :   -7.83048367272579
          21 :    5.62020986862103
          22 :   -5.34700015657222
          23 :    6.86314149370855
          24 :   -9.22485998965749
          25 :    11.1785428447531
          26 :   -11.7315095465236
          27 :    10.5509824382615
          28 :   -8.05111566668165
          29 :    5.16593423309996
          30 :   -2.93641360194351
          31 :   -42.4294864964415
          32 :   -31.5026237025655

     Forces acting on atoms (Ry/au):

     negative rho (up, down):  1.492E+00 1.418E+00
     atom    1 type  1   force =    -0.00000037    0.01352449    0.01239078
     atom    2 type  1   force =     0.01171280   -0.00676228    0.01239051
     atom    3 type  1   force =    -0.01171248   -0.00676218    0.01239078
     atom    4 type  2   force =     0.00000016    0.00000003    0.00085010
     atom    5 type  1   force =    -0.00000018    0.00266287   -0.00878275
     atom    6 type  1   force =     0.00230623   -0.00133155   -0.00878263
     atom    7 type  1   force =    -0.00230632   -0.00133139   -0.00878263
     atom    8 type  2   force =     0.00000022   -0.00000033   -0.01004646
     atom    9 type  1   force =     0.00000049   -0.00023198   -0.00040219
     atom   10 type  1   force =    -0.00020097    0.00011605   -0.00040217
     atom   11 type  1   force =     0.00020100    0.00011580   -0.00040214
     atom   12 type  2   force =    -0.00000059    0.00000047   -0.00042120

     Total force =     0.036939     Total SCF correction =     0.003403

     entering subroutine stress ...

     negative rho (up, down):  1.492E+00 1.418E+00
          total   stress  (Ry/bohr**3)                   (kbar)     P=  -19.46
  -0.00015980   0.00000000  -0.00000000        -23.51      0.00     -0.00
   0.00000000  -0.00015980   0.00000000          0.00    -23.51      0.00
  -0.00000000   0.00000000  -0.00007725         -0.00      0.00    -11.36

 !ASE

     Writing output data file calc.save

     General routines

     Parallel routines

   This run was terminated on:  15:45:55  30Dec2018

   JOB DONE.
Job  /afs/slac/g/suncat/bin/suncat-tsmpirun -x LD_LIBRARY_PATH -wdir /scratch/qe648529_RVdnz pw.x -in pw.inp

TID   HOST_NAME   COMMAND_LINE            STATUS            TERMINATION_TIME
00000 suncat0238 pw.x -in pw.inp   Done                     12/30/2018 15:45:55
00001 suncat0238 pw.x -in pw.inp   Done                     12/30/2018 15:45:55
00002 suncat0238 pw.x -in pw.inp   Done                     12/30/2018 15:45:55
00003 suncat0238 pw.x -in pw.inp   Done                     12/30/2018 15:45:55
00004 suncat0238 pw.x -in pw.inp   Done                     12/30/2018 15:45:55
00005 suncat0238 pw.x -in pw.inp   Done                     12/30/2018 15:45:55
00006 suncat0238 pw.x -in pw.inp   Done                     12/30/2018 15:45:55
00007 suncat0238 pw.x -in pw.inp   Done                     12/30/2018 15:45:55
00008 suncat0237 pw.x -in pw.inp   Done                     12/30/2018 15:45:55
00009 suncat0237 pw.x -in pw.inp   Done                     12/30/2018 15:45:55
00010 suncat0237 pw.x -in pw.inp   Done                     12/30/2018 15:45:55
00011 suncat0237 pw.x -in pw.inp   Done                     12/30/2018 15:45:55
00012 suncat0237 pw.x -in pw.inp   Done                     12/30/2018 15:45:55
00013 suncat0237 pw.x -in pw.inp   Done                     12/30/2018 15:45:55
00014 suncat0237 pw.x -in pw.inp   Done                     12/30/2018 15:45:55
00015 suncat0237 pw.x -in pw.inp   Done                     12/30/2018 15:45:55
00016 suncat0236 pw.x -in pw.inp   Done                     12/30/2018 15:45:55
00017 suncat0236 pw.x -in pw.inp   Done                     12/30/2018 15:45:55
00018 suncat0236 pw.x -in pw.inp   Done                     12/30/2018 15:45:55
00019 suncat0236 pw.x -in pw.inp   Done                     12/30/2018 15:45:55
00020 suncat0236 pw.x -in pw.inp   Done                     12/30/2018 15:45:55
00021 suncat0236 pw.x -in pw.inp   Done                     12/30/2018 15:45:55
00022 suncat0236 pw.x -in pw.inp   Done                     12/30/2018 15:45:55
00023 suncat0236 pw.x -in pw.inp   Done                     12/30/2018 15:45:55
00024 suncat0235 pw.x -in pw.inp   Done                     12/30/2018 15:45:55
00025 suncat0235 pw.x -in pw.inp   Done                     12/30/2018 15:45:55
00026 suncat0235 pw.x -in pw.inp   Done                     12/30/2018 15:45:55
00027 suncat0235 pw.x -in pw.inp   Done                     12/30/2018 15:45:55
00028 suncat0235 pw.x -in pw.inp   Done                     12/30/2018 15:45:55
00029 suncat0235 pw.x -in pw.inp   Done                     12/30/2018 15:45:55
00030 suncat0235 pw.x -in pw.inp   Done                     12/30/2018 15:45:55
00031 suncat0235 pw.x -in pw.inp   Done                     12/30/2018 15:45:55
00032 suncat0218 pw.x -in pw.inp   Done                     12/30/2018 15:45:55
00033 suncat0218 pw.x -in pw.inp   Done                     12/30/2018 15:45:55
00034 suncat0218 pw.x -in pw.inp   Done                     12/30/2018 15:45:55
00035 suncat0218 pw.x -in pw.inp   Done                     12/30/2018 15:45:55
00036 suncat0218 pw.x -in pw.inp   Done                     12/30/2018 15:45:55
00037 suncat0218 pw.x -in pw.inp   Done                     12/30/2018 15:45:55
00038 suncat0218 pw.x -in pw.inp   Done                     12/30/2018 15:45:55
00039 suncat0218 pw.x -in pw.inp   Done                     12/30/2018 15:45:55
00040 suncat0212 pw.x -in pw.inp   Done                     12/30/2018 15:45:55
00041 suncat0212 pw.x -in pw.inp   Done                     12/30/2018 15:45:55
00042 suncat0212 pw.x -in pw.inp   Done                     12/30/2018 15:45:55
00043 suncat0212 pw.x -in pw.inp   Done                     12/30/2018 15:45:55
00044 suncat0212 pw.x -in pw.inp   Done                     12/30/2018 15:45:55
00045 suncat0212 pw.x -in pw.inp   Done                     12/30/2018 15:45:55
00046 suncat0212 pw.x -in pw.inp   Done                     12/30/2018 15:45:55
00047 suncat0212 pw.x -in pw.inp   Done                     12/30/2018 15:45:55
00048 suncat0211 pw.x -in pw.inp   Done                     12/30/2018 15:45:55
00049 suncat0211 pw.x -in pw.inp   Done                     12/30/2018 15:45:55
00050 suncat0211 pw.x -in pw.inp   Done                     12/30/2018 15:45:55
00051 suncat0211 pw.x -in pw.inp   Done                     12/30/2018 15:45:55
00052 suncat0211 pw.x -in pw.inp   Done                     12/30/2018 15:45:55
00053 suncat0211 pw.x -in pw.inp   Done                     12/30/2018 15:45:55
00054 suncat0211 pw.x -in pw.inp   Done                     12/30/2018 15:45:55
00055 suncat0211 pw.x -in pw.inp   Done                     12/30/2018 15:45:55
00056 suncat0208 pw.x -in pw.inp   Done                     12/30/2018 15:45:55
00057 suncat0208 pw.x -in pw.inp   Done                     12/30/2018 15:45:55
00058 suncat0208 pw.x -in pw.inp   Done                     12/30/2018 15:45:55
00059 suncat0208 pw.x -in pw.inp   Done                     12/30/2018 15:45:55
00060 suncat0208 pw.x -in pw.inp   Done                     12/30/2018 15:45:55
00061 suncat0208 pw.x -in pw.inp   Done                     12/30/2018 15:45:55
00062 suncat0208 pw.x -in pw.inp   Done                     12/30/2018 15:45:55
00063 suncat0208 pw.x -in pw.inp   Done                     12/30/2018 15:45:55