     Program PWSCF v.5.1rc2 (svn rev. 11289) starts on 31Dec2018 at 12:41:19

     Current dimensions of program PWSCF are:
     Max number of different atomic species (ntypx) = 10
     Max number of k-points (npk) =  40000
     Max angular momentum in pseudopotentials (lmaxx) =  3
     Presently stress not available with electric field

     IMPORTANT: XC functional enforced from input :
     Exchange-correlation      = BEEF-VDW ( 1  4 27 13 2)
     Any further DFT definition will be discarded
     Please, verify this is what you really want

     Subspace diagonalization in iterative solution of the eigenvalue problem:
     a serial algorithm will be used

     bravais-lattice index     =            0
     lattice parameter (alat)  =       1.8897  a.u.
     unit-cell volume          =    4780.1656 (a.u.)^3
     number of atoms/cell      =           12
     number of atomic types    =            2
     number of electrons       =       183.00
     number of Kohn-Sham states=          121
     kinetic-energy cutoff     =      36.7493  Ry
     charge density cutoff     =     367.4932  Ry
     convergence threshold     =      1.0E-06
     mixing beta               =       0.1000
     number of iterations used =           10  plain     mixing
     Exchange-correlation      = BEEF-VDW ( 1  4 27 13 2)
     nstep                     =           50

     celldm(1)=   1.889726  celldm(2)=   0.000000  celldm(3)=   0.000000
     celldm(4)=   0.000000  celldm(5)=   0.000000  celldm(6)=   0.000000

     crystal axes: (cart. coord. in units of alat)
               a(1) = (   5.754678   0.000000   0.000000 )
               a(2) = (  -2.877339   4.983697   0.000000 )
               a(3) = (   0.000000   0.000000  24.698675 )

     reciprocal axes: (cart. coord. in units 2 pi/alat)
               b(1) = (  0.173772  0.100327  0.000000 )
               b(2) = (  0.000000  0.200654  0.000000 )
               b(3) = (  0.000000  0.000000  0.040488 )

     PseudoPot. # 1 for Pd read from file:
     /afs/slac.stanford.edu/u/if/mamunm/psp/gbrv1.5pbe/Pd.UPF
     MD5 check sum: 2d733d2bc2cbfd217af676df1668a4bc
     Pseudo is Ultrasoft + core correction, Zval = 16.0
     Generated by new atomic code, or converted to UPF format
     Using radial grid of  887 points,  6 beta functions with:
                l(1) =   0
                l(2) =   0
                l(3) =   1
                l(4) =   1
                l(5) =   2
                l(6) =   2
     Q(r) pseudized with  8 coefficients,  rinner =    1.130   1.130   1.130
                                                       1.130   1.130

     PseudoPot. # 2 for In read from file:
     /afs/slac.stanford.edu/u/if/mamunm/psp/gbrv1.5pbe/In.UPF
     MD5 check sum: 90777abd96fbb83f2e67db2a40c566b9
     Pseudo is Ultrasoft + core correction, Zval = 13.0
     Generated by new atomic code, or converted to UPF format
     Using radial grid of  889 points,  6 beta functions with:
                l(1) =   0
                l(2) =   0
                l(3) =   1
                l(4) =   1
                l(5) =   2
                l(6) =   2
     Q(r) pseudized with  6 coefficients,  rinner =    1.400   1.400   1.400
                                                       1.400   1.400

     vdW kernel table read from file vdW_kernel_table
     MD5 check sum: 095c7af220d748ca6e76c0b4c6cfb241

     atomic species   valence    mass     pseudopotential
        Pd1           16.00   106.42000     Pd( 1.00)
        In1           13.00   114.81800     In( 1.00)

     No symmetry found

   Cartesian axes

     site n.     atom                  positions (alat units)
         1           Pd1 tau(   1) = (   0.0000000   0.0000000  10.0000000  )
         2           Pd1 tau(   2) = (  -1.4386695   2.4918487  10.0000000  )
         3           Pd1 tau(   3) = (   1.4386695   2.4918487  10.0000000  )
         4           In1 tau(   4) = (   2.8773390   0.0000000  10.0000000  )
         5           Pd1 tau(   5) = (   2.8773390   1.6612325  12.3493375  )
         6           Pd1 tau(   6) = (   1.4386695   4.1530811  12.3493375  )
         7           Pd1 tau(   7) = (  -1.4386695   4.1530811  12.3493375  )
         8           In1 tau(   8) = (   0.0000000   1.6612325  12.3493375  )
         9           Pd1 tau(   9) = (  -0.0000000   3.3224649  14.6986749  )
        10           Pd1 tau(  10) = (   1.4386695   0.8306162  14.6986749  )
        11           Pd1 tau(  11) = (   4.3160085   0.8306162  14.6986749  )
        12           In1 tau(  12) = (   2.8773390   3.3224649  14.6986749  )

     number of k points=    20  Fermi-Dirac smearing, width (Ry)=  0.0110
                       cart. coord. in units 2pi/alat
        k(    1) = (   0.0000000   0.0000000   0.0000000), wk =   0.0555556
        k(    2) = (   0.0000000   0.0334424   0.0000000), wk =   0.1111111
        k(    3) = (   0.0000000   0.0668847   0.0000000), wk =   0.1111111
        k(    4) = (   0.0000000  -0.1003271   0.0000000), wk =   0.0555556
        k(    5) = (   0.0289619   0.0167212   0.0000000), wk =   0.1111111
        k(    6) = (   0.0289619   0.0501636   0.0000000), wk =   0.1111111
        k(    7) = (   0.0289619   0.0836059   0.0000000), wk =   0.1111111
        k(    8) = (   0.0289619  -0.0836059   0.0000000), wk =   0.1111111
        k(    9) = (   0.0289619  -0.0501636   0.0000000), wk =   0.1111111
        k(   10) = (   0.0289619  -0.0167212   0.0000000), wk =   0.1111111
        k(   11) = (   0.0579239   0.0334424   0.0000000), wk =   0.1111111
        k(   12) = (   0.0579239   0.0668847   0.0000000), wk =   0.1111111
        k(   13) = (   0.0579239   0.1003271   0.0000000), wk =   0.1111111
        k(   14) = (   0.0579239  -0.0668847   0.0000000), wk =   0.1111111
        k(   15) = (   0.0579239  -0.0334424   0.0000000), wk =   0.1111111
        k(   16) = (   0.0579239   0.0000000   0.0000000), wk =   0.1111111
        k(   17) = (  -0.0868858  -0.0501636   0.0000000), wk =   0.0555556
        k(   18) = (  -0.0868858  -0.0167212   0.0000000), wk =   0.1111111
        k(   19) = (  -0.0868858   0.0167212   0.0000000), wk =   0.1111111
        k(   20) = (  -0.0868858  -0.1504907   0.0000000), wk =   0.0555556

     Largest allocated arrays     est. size (Mb)     dimensions
     Largest temporary arrays     est. size (Mb)     dimensions

     Initial potential from superposition of free atoms
     Check: negative starting charge=   -0.689025

     starting charge  173.99994, renormalised to  183.00000

     negative rho (up, down):  7.247E-01 0.000E+00

     *
     * You are using vdW-DF for exchange-correlation in this calculation.
     * Please cite the following three references that made this development
     * possible:
     *
     *   M. Dion, H. Rydberg, E. Schroder, D. C. Langreth, and
     *   B. I. Lundqvist, Phys. Rev. Lett. 92, 246401 (2004).
     *
     *   T. Thonhauser, V. R. Cooper, S. Li, A. Puzder, P. Hyldgaard, and
     *   D. C. Langreth, Phys. Rev. B 76, 125112 (2007).
     *
     *   G. Roman-Perez and J. M. Soler, Phys. Rev. Lett. 103, 096102 (2009).
     *
     *
     * If you are using vdW-DF2, please also cite:
     *
     *   K. Lee, E. D. Murray, L. Kong, B. I. Lundqvist, and
     *   D. C. Langreth, Phys. Rev. B 82, 081101(R) (2010).
     *
     *
     * If you are calculating the stress with vdW-DF, please also cite:
     *
     *   R. Sabatini, E. Kucukbenli, B. Kolb, T. Thonhauser, and
     *   S. de Gironcoli, J. Phys.: Condens. Matter 24, 424209 (2012).
     *

     Carrying out vdW-DF run using the following parameters:

     Nqs =      20    Nr_points =    1024   r_max =   100.000
     q_mesh =
               0.00001000     0.04494208     0.09755937     0.15916263
               0.23128650     0.31572767     0.41458969     0.53033537
               0.66584808     0.82450364     1.01025438     1.22772762
               1.48234092     1.78043706     2.12944203     2.53805004
               3.01644009     3.57652955     4.23227104     5.00000000

     Gradients computed in reciprocal space

     Adding external electric field

     Computed dipole along edir(3) :
        Dipole               -0.0000 Ry au,         -0.0000 Debye
        Dipole field         -0.0000 Ry au

        Potential amp.        0.0000 Ry
        Total length         45.5069 bohr

     Starting wfc are  135 randomized atomic wfcs

     Self-consistent Calculation

     iteration #  1     ecut=    36.75 Ry     beta=0.10
     Davidson diagonalization with overlap
     ethr =  1.00E-02,  avg # of iterations =  7.0

[...]

     total energy              =   -2189.11208983 Ry
     Harris-Foulkes estimate   =   -2211.79578589 Ry
     estimated scf accuracy    <     133.76612500 Ry

[...]

     End of self-consistent calculation

          k = 0.0000 0.0000 0.0000 ( 18043 PWs)   bands (ev):

   -48.7613 -48.7336 -48.7336 -48.6985 -48.6985 -48.6751 -48.6517 -48.5595
   -48.5595 -48.5380 -48.5380 -48.5196 -48.5172 -48.5170 -48.5170 -48.4632
   -48.4610 -48.3649 -48.3649 -48.3641 -48.3641 -48.3525 -48.3387 -48.3269
   -48.3269 -48.3208 -48.3208 -13.4892 -13.4892 -13.4757 -13.4603 -13.4603
   -13.4082 -13.3982 -13.3699 -13.3699 -13.3591 -13.3591 -13.3501 -13.3501
   -13.3381 -13.3381  -6.6496  -5.2636  -4.9957  -3.1927  -2.8986  -2.8671
    -2.4546  -2.4546  -2.4118  -2.3401  -2.3401  -2.2699  -2.2699  -2.0528
    -2.0528  -1.9810  -1.5163  -1.5163  -1.4760  -1.4760  -1.2129  -1.1563
    -1.1405  -0.8006  -0.7937  -0.7937  -0.7314  -0.7314  -0.3832  -0.3832
    -0.2574  -0.2574  -0.2110  -0.1516  -0.1516   0.1022   0.1022   0.1976
     0.1976   0.2289   0.2903   0.2903   0.5278   0.7260   0.7260   0.8650
     1.0321   1.0628   1.0770   1.1865   1.1865   2.1728   2.5528   2.5528
     2.6131   2.8065   2.8065   3.0317   4.2037   4.7289   5.0716   5.5254
     5.6352   5.9811   6.3851   6.3851   6.7054   6.8621   6.8621   7.4038
     7.5732   7.5732   8.6859   8.8406   9.1517   9.4247   9.4247   9.4614
     9.7841

[...]

          k =-0.0869-0.0502 0.0000 ( 17948 PWs)   bands (ev):

[...]

     the Fermi energy is     1.0514 ev

!    total energy              =   -2202.70479651 Ry
     Harris-Foulkes estimate   =   -2202.70648326 Ry
     estimated scf accuracy    <       0.00000036 Ry

     The total energy is the sum of the following terms:

     one-electron contribution =  -17416.45846972 Ry
     hartree contribution      =    8767.00100547 Ry
     xc contribution           =    -410.61762266 Ry
     ewald contribution        =    6857.41551684 Ry
     electric field correction =       0.00000000 Ry
     smearing contrib. (-TS)   =      -0.04522644 Ry

     convergence has been achieved in  18 iterations

 BEEF-vdW xc energy contributions
           1 :   -358.173300266050
           2 :    327.534486328896
           3 :   -275.368051337929
           4 :    215.848988702218
           5 :   -162.514986147772
           6 :    123.638939606972
           7 :   -100.486335086123
           8 :    88.7204985025012
           9 :   -81.8009432312498
          10 :    74.4766960294546
          11 :   -64.7563296976568
          12 :    53.7586840805619
          13 :   -44.0265650055621
[...]
     Pseudo is Ultrasoft + core correction, Zval = 16.0
     Generated by new atomic code, or converted to UPF format
     Using radial grid of  887 points,  6 beta functions with:
                l(1) =   0
                l(2) =   0
                l(3) =   1
                l(4) =   1
                l(5) =   2
                l(6) =   2
     Q(r) pseudized with  8 coefficients,  rinner =    1.130   1.130   1.130
                                                       1.130   1.130

     PseudoPot. # 2 for In read from file:
     /afs/slac.stanford.edu/u/if/mamunm/psp/gbrv1.5pbe/In.UPF
     MD5 check sum: 90777abd96fbb83f2e67db2a40c566b9
     Pseudo is Ultrasoft + core correction, Zval = 13.0
     Generated by new atomic code, or converted to UPF format
     Using radial grid of  889 points,  6 beta functions with:
                l(1) =   0
                l(2) =   0
                l(3) =   1
                l(4) =   1
                l(5) =   2
                l(6) =   2
     Q(r) pseudized with  6 coefficients,  rinner =    1.400   1.400   1.400
                                                       1.400   1.400

     vdW kernel table read from file vdW_kernel_table
     MD5 check sum: 095c7af220d748ca6e76c0b4c6cfb241

     atomic species   valence    mass     pseudopotential
        Pd1           16.00   106.42000     Pd( 1.00)
        In1           13.00   114.81800     In( 1.00)

     No symmetry found

   Cartesian axes

     site n.     atom                  positions (alat units)
         1           Pd1 tau(   1) = (   0.0000000   0.0000000  10.0000000  )
         2           Pd1 tau(   2) = (  -1.4386695   2.4918487  10.0000000  )
         3           Pd1 tau(   3) = (   1.4386695   2.4918487  10.0000000  )
         4           In1 tau(   4) = (   2.8773390   0.0000000  10.0000000  )
         5           Pd1 tau(   5) = (   2.8773390   1.6612325  12.3493375  )
         6           Pd1 tau(   6) = (   1.4386695   4.1530811  12.3493375  )
         7           Pd1 tau(   7) = (  -1.4386695   4.1530811  12.3493375  )
         8           In1 tau(   8) = (   0.0000000   1.6612325  12.3493375  )
         9           Pd1 tau(   9) = (   0.0000008   3.3291639  14.6527383  )
        10           Pd1 tau(  10) = (   1.4444698   0.8272686  14.6527407  )
        11           Pd1 tau(  11) = (   4.3102063   0.8272665  14.6527381  )
        12           In1 tau(  12) = (   2.8773410   3.3224633  14.7354943  )

     number of k points=    20  Fermi-Dirac smearing, width (Ry)=  0.0110
                       cart. coord. in units 2pi/alat
        k(    1) = (   0.0000000   0.0000000   0.0000000), wk =   0.0555556
        k(    2) = (   0.0000000   0.0334424   0.0000000), wk =   0.1111111
        k(    3) = (   0.0000000   0.0668847   0.0000000), wk =   0.1111111
        k(    4) = (   0.0000000  -0.1003271   0.0000000), wk =   0.0555556
        k(    5) = (   0.0289619   0.0167212   0.0000000), wk =   0.1111111
        k(    6) = (   0.0289619   0.0501636   0.0000000), wk =   0.1111111
        k(    7) = (   0.0289619   0.0836059   0.0000000), wk =   0.1111111
        k(    8) = (   0.0289619  -0.0836059   0.0000000), wk =   0.1111111
        k(    9) = (   0.0289619  -0.0501636   0.0000000), wk =   0.1111111
        k(   10) = (   0.0289619  -0.0167212   0.0000000), wk =   0.1111111
        k(   11) = (   0.0579239   0.0334424   0.0000000), wk =   0.1111111
        k(   12) = (   0.0579239   0.0668847   0.0000000), wk =   0.1111111
        k(   13) = (   0.0579239   0.1003271   0.0000000), wk =   0.1111111
        k(   14) = (   0.0579239  -0.0668847   0.0000000), wk =   0.1111111
        k(   15) = (   0.0579239  -0.0334424   0.0000000), wk =   0.1111111
        k(   16) = (   0.0579239   0.0000000   0.0000000), wk =   0.1111111
        k(   17) = (  -0.0868858  -0.0501636   0.0000000), wk =   0.0555556
        k(   18) = (  -0.0868858  -0.0167212   0.0000000), wk =   0.1111111
        k(   19) = (  -0.0868858   0.0167212   0.0000000), wk =   0.1111111
        k(   20) = (  -0.0868858  -0.1504907   0.0000000), wk =   0.0555556

     Largest allocated arrays     est. size (Mb)     dimensions
     Largest temporary arrays     est. size (Mb)     dimensions

     Initial potential from superposition of free atoms
     Check: negative starting charge=   -0.682048

     starting charge  173.99994, renormalised to  183.00000

[...]

     *
     * You are using vdW-DF for exchange-correlation in this calculation.
     * Please cite the following three references that made this development
     * possible:
     *
     *   M. Dion, H. Rydberg, E. Schroder, D. C. Langreth, and
     *   B. I. Lundqvist, Phys. Rev. Lett. 92, 246401 (2004).
     *
     *   T. Thonhauser, V. R. Cooper, S. Li, A. Puzder, P. Hyldgaard, and
     *   D. C. Langreth, Phys. Rev. B 76, 125112 (2007).
     *
     *   G. Roman-Perez and J. M. Soler, Phys. Rev. Lett. 103, 096102 (2009).
     *
     *
     * If you are using vdW-DF2, please also cite:
     *
     *   K. Lee, E. D. Murray, L. Kong, B. I. Lundqvist, and
     *   D. C. Langreth, Phys. Rev. B 82, 081101(R) (2010).
     *
     *
     * If you are calculating the stress with vdW-DF, please also cite:
     *
     *   R. Sabatini, E. Kucukbenli, B. Kolb, T. Thonhauser, and
     *   S. de Gironcoli, J. Phys.: Condens. Matter 24, 424209 (2012).
     *

     Carrying out vdW-DF run using the following parameters:

     Nqs =      20    Nr_points =    1024   r_max =   100.000
     q_mesh =
               0.00001000     0.04494208     0.09755937     0.15916263
               0.23128650     0.31572767     0.41458969     0.53033537
               0.66584808     0.82450364     1.01025438     1.22772762
               1.48234092     1.78043706     2.12944203     2.53805004
               3.01644009     3.57652955     4.23227104     5.00000000

     Gradients computed in reciprocal space

[...]

     Starting wfc are  135 randomized atomic wfcs

     Self-consistent Calculation

[...]

     total energy              =   -2202.70896117 Ry
     Harris-Foulkes estimate   =   -2202.70896083 Ry
     estimated scf accuracy    <       0.00000186 Ry

     iteration # 19     ecut=    36.75 Ry     beta=0.10
     Davidson diagonalization with overlap
     ethr =  1.02E-09,  avg # of iterations =  1.9

[...]

     negative rho (up, down):  7.087E-01 0.000E+00

     Adding external electric field

     Computed dipole along edir(3) :
        Dipole                0.0134 Ry au,          0.0339 Debye
        Dipole field          0.0000 Ry au

        Potential amp.       -0.0032 Ry
        Total length         45.5069 bohr

     End of self-consistent calculation

[...]

          k = 0.0579 0.0000 0.0000 ( 18003 PWs)   bands (ev):

[...]

          k =-0.0869-0.1505 0.0000 ( 17948 PWs)   bands (ev):

   -48.7306 -48.7054 -48.7035 -48.6951 -48.6854 -48.6678 -48.6341 -48.6022
   -48.5504 -48.5398 -48.5154 -48.5102 -48.4982 -48.4845 -48.4735 -48.4715
   -48.4451 -48.4355 -48.4065 -48.3858 -48.3606 -48.3552 -48.3547 -48.3440
   -48.3244 -48.3172 -48.3093 -13.4605 -13.4431 -13.4370 -13.4342 -13.4229
   -13.3901 -13.3760 -13.3574 -13.3529 -13.3410 -13.3348 -13.3340 -13.3215
   -13.3193 -13.3048  -5.4500  -5.0720  -4.4444  -3.3291  -2.9473  -2.8962
    -2.5600  -2.5057  -2.2135  -2.1857  -2.0889  -2.0811  -2.0310  -1.9626
    -1.9244  -1.8364  -1.7209  -1.6472  -1.5548  -1.5157  -1.3498  -1.2598
    -1.1431  -1.0587  -1.0350  -0.9709  -0.9020  -0.8854  -0.8469  -0.8400
    -0.7958  -0.6693  -0.6523  -0.4993  -0.4519  -0.4242  -0.3864  -0.3754
    -0.3277  -0.2053  -0.1324  -0.1081  -0.0751   0.0198   0.1901   0.2517
     0.3965   0.6549   0.9237   0.9917   1.7213   1.8731   2.4216   2.7173
     2.9485   3.6413   4.2243   4.6189   4.6929   6.1832   6.2333   6.7065
     6.9051   6.9213   7.0893   7.1690   7.2877   7.6491   7.6648   8.0012
     8.1489   8.1582   8.1703   8.3986   8.5762   8.9504   9.0043   9.0194
     9.2899

     the Fermi energy is     1.0677 ev

!    total energy              =   -2202.70896082 Ry
     Harris-Foulkes estimate   =   -2202.70896108 Ry
     estimated scf accuracy    <       0.00000034 Ry

     The total energy is the sum of the following terms:

     one-electron contribution =  -17485.46563253 Ry
     hartree contribution      =    8801.52547100 Ry
     xc contribution           =    -410.63741838 Ry
     ewald contribution        =    6891.91413233 Ry
     electric field correction =       0.00000047 Ry
     smearing contrib. (-TS)   =      -0.04551370 Ry

     convergence has been achieved in  19 iterations

 BEEF-vdW xc energy contributions
           1 :   -358.283485909579
           2 :    327.664859584161
           3 :   -275.520979533592
           4 :    216.005124958146
           5 :   -162.645662051169
           6 :    123.725001081233
           7 :   -100.531181249136
           8 :    88.7492115816240
           9 :   -81.8462735813725
          10 :    74.5602133895064
          11 :   -64.8761564231494
          12 :    53.8913555361694
          13 :   -44.1414510915550
          14 :    37.6185502372612
          15 :   -34.6130316351681
          16 :    33.8125574814445
          17 :   -33.3125707181501
          18 :    31.7621144254352
          19 :   -28.9635527067863
          20 :    25.6924292762238
          21 :   -23.0027033656224
          22 :    21.5217042981199
          23 :   -21.1447574572733
          24 :    21.2207163287762
          25 :   -21.0217426143786
          26 :    20.1704197438575
          27 :   -18.7893149491167
          28 :    17.3361613295442
          29 :   -16.2733052689990
          30 :    15.7870377280061
          31 :   -34.1322827489847
          32 :   -25.1473711303636

     Forces acting on atoms (Ry/au):

     negative rho (up, down):  7.087E-01 0.000E+00
     atom    1 type  1   force =     0.00000001   -0.00116539    0.00701951
     atom    2 type  1   force =    -0.00100933    0.00058272    0.00701938
     atom    3 type  1   force =     0.00100927    0.00058271    0.00701939
     atom    4 type  2   force =     0.00000009   -0.00000004   -0.00576689
     atom    5 type  1   force =    -0.00000013    0.00269387   -0.00361815
     atom    6 type  1   force =     0.00233306   -0.00134703   -0.00361816
     atom    7 type  1   force =    -0.00233297   -0.00134686   -0.00361801
     atom    8 type  2   force =     0.00000015   -0.00000005   -0.00561462
     atom    9 type  1   force =    -0.00000010   -0.00161686    0.00009820
     atom   10 type  1   force =    -0.00140029    0.00080809    0.00009771
     atom   11 type  1   force =     0.00140059    0.00080834    0.00009819
     atom   12 type  2   force =    -0.00000036    0.00000050    0.00088345

     Total force =     0.016922     Total SCF correction =     0.003547
     SCF correction compared to forces is large: reduce conv_thr to get better values

     entering subroutine stress ...

     negative rho (up, down):  7.087E-01 0.000E+00
          total   stress  (Ry/bohr**3)                   (kbar)     P=   -9.27
  -0.00008030   0.00000000  -0.00000000        -11.81      0.00     -0.00
   0.00000000  -0.00008030  -0.00000000          0.00    -11.81     -0.00
  -0.00000000  -0.00000000  -0.00002841         -0.00     -0.00     -4.18

 !ASE

     Writing output data file calc.save

     General routines

     Parallel routines

   This run was terminated on:  13:47:39  31Dec2018

   JOB DONE.
Job  /afs/slac/g/suncat/bin/suncat-tsmpirun -x LD_LIBRARY_PATH -wdir /scratch/qe648769_WYOUt pw.x -in pw.inp

TID   HOST_NAME   COMMAND_LINE            STATUS            TERMINATION_TIME
00000 suncat0146 pw.x -in pw.inp   Done                     12/31/2018 13:47:39
00001 suncat0146 pw.x -in pw.inp   Done                     12/31/2018 13:47:39
00002 suncat0146 pw.x -in pw.inp   Done                     12/31/2018 13:47:39
00003 suncat0146 pw.x -in pw.inp   Done                     12/31/2018 13:47:39
00004 suncat0146 pw.x -in pw.inp   Done                     12/31/2018 13:47:39
00005 suncat0146 pw.x -in pw.inp   Done                     12/31/2018 13:47:39
00006 suncat0146 pw.x -in pw.inp   Done                     12/31/2018 13:47:39
00007 suncat0146 pw.x -in pw.inp   Done                     12/31/2018 13:47:39
00008 suncat0136 pw.x -in pw.inp   Done                     12/31/2018 13:47:39
00009 suncat0136 pw.x -in pw.inp   Done                     12/31/2018 13:47:39
00010 suncat0136 pw.x -in pw.inp   Done                     12/31/2018 13:47:39
00011 suncat0136 pw.x -in pw.inp   Done                     12/31/2018 13:47:39
00012 suncat0136 pw.x -in pw.inp   Done                     12/31/2018 13:47:39
00013 suncat0136 pw.x -in pw.inp   Done                     12/31/2018 13:47:39
00014 suncat0136 pw.x -in pw.inp   Done                     12/31/2018 13:47:39
00015 suncat0136 pw.x -in pw.inp   Done                     12/31/2018 13:47:39
00016 suncat0248 pw.x -in pw.inp   Done                     12/31/2018 13:47:39
00017 suncat0248 pw.x -in pw.inp   Done                     12/31/2018 13:47:39
00018 suncat0248 pw.x -in pw.inp   Done                     12/31/2018 13:47:39
00019 suncat0248 pw.x -in pw.inp   Done                     12/31/2018 13:47:39
00020 suncat0248 pw.x -in pw.inp   Done                     12/31/2018 13:47:39
00021 suncat0248 pw.x -in pw.inp   Done                     12/31/2018 13:47:39
00022 suncat0248 pw.x -in pw.inp   Done                     12/31/2018 13:47:39
00023 suncat0248 pw.x -in pw.inp   Done                     12/31/2018 13:47:39
00024 suncat0247 pw.x -in pw.inp   Done                     12/31/2018 13:47:39
00025 suncat0247 pw.x -in pw.inp   Done                     12/31/2018 13:47:39
00026 suncat0247 pw.x -in pw.inp   Done                     12/31/2018 13:47:39
00027 suncat0247 pw.x -in pw.inp   Done                     12/31/2018 13:47:39
00028 suncat0247 pw.x -in pw.inp   Done                     12/31/2018 13:47:39
00029 suncat0247 pw.x -in pw.inp   Done                     12/31/2018 13:47:39
00030 suncat0247 pw.x -in pw.inp   Done                     12/31/2018 13:47:39
00031 suncat0247 pw.x -in pw.inp   Done                     12/31/2018 13:47:39
00032 suncat0246 pw.x -in pw.inp   Done                     12/31/2018 13:47:39
00033 suncat0246 pw.x -in pw.inp   Done                     12/31/2018 13:47:39
00034 suncat0246 pw.x -in pw.inp   Done                     12/31/2018 13:47:39
00035 suncat0246 pw.x -in pw.inp   Done                     12/31/2018 13:47:39
00036 suncat0246 pw.x -in pw.inp   Done                     12/31/2018 13:47:39
00037 suncat0246 pw.x -in pw.inp   Done                     12/31/2018 13:47:39
00038 suncat0246 pw.x -in pw.inp   Done                     12/31/2018 13:47:39
00039 suncat0246 pw.x -in pw.inp   Done                     12/31/2018 13:47:39
00040 suncat0245 pw.x -in pw.inp   Done                     12/31/2018 13:47:39
00041 suncat0245 pw.x -in pw.inp   Done                     12/31/2018 13:47:39
00042 suncat0245 pw.x -in pw.inp   Done                     12/31/2018 13:47:39
00043 suncat0245 pw.x -in pw.inp   Done                     12/31/2018 13:47:39
00044 suncat0245 pw.x -in pw.inp   Done                     12/31/2018 13:47:39
00045 suncat0245 pw.x -in pw.inp   Done                     12/31/2018 13:47:39
00046 suncat0245 pw.x -in pw.inp   Done                     12/31/2018 13:47:39
00047 suncat0245 pw.x -in pw.inp   Done                     12/31/2018 13:47:39
00048 suncat0214 pw.x -in pw.inp   Done                     12/31/2018 13:47:39
00049 suncat0214 pw.x -in pw.inp   Done                     12/31/2018 13:47:39
00050 suncat0214 pw.x -in pw.inp   Done                     12/31/2018 13:47:39
00051 suncat0214 pw.x -in pw.inp   Done                     12/31/2018 13:47:39
00052 suncat0214 pw.x -in pw.inp   Done                     12/31/2018 13:47:39
00053 suncat0214 pw.x -in pw.inp   Done                     12/31/2018 13:47:39
00054 suncat0214 pw.x -in pw.inp   Done                     12/31/2018 13:47:39
00055 suncat0214 pw.x -in pw.inp   Done                     12/31/2018 13:47:39
00056 suncat0213 pw.x -in pw.inp   Done                     12/31/2018 13:47:39
00057 suncat0213 pw.x -in pw.inp   Done                     12/31/2018 13:47:39
00058 suncat0213 pw.x -in pw.inp   Done                     12/31/2018 13:47:39
00059 suncat0213 pw.x -in pw.inp   Done                     12/31/2018 13:47:39
00060 suncat0213 pw.x -in pw.inp   Done                     12/31/2018 13:47:39
00061 suncat0213 pw.x -in pw.inp   Done                     12/31/2018 13:47:39
00062 suncat0213 pw.x -in pw.inp   Done                     12/31/2018 13:47:39
00063 suncat0213 pw.x -in pw.inp   Done                     12/31/2018 13:47:39