     Program PWSCF v.5.1rc2 (svn rev. 11289) starts on 27Dec2018 at 18:55:17

     Current dimensions of program PWSCF are:
     Max number of different atomic species (ntypx) = 10
     Max number of k-points (npk) =  40000
     Max angular momentum in pseudopotentials (lmaxx) =  3
     Presently stress not available with electric field

     IMPORTANT: XC functional enforced from input :
     Exchange-correlation      = BEEF-VDW ( 1  4 27 13 2)
     Any further DFT definition will be discarded
     Please, verify this is what you really want

     Subspace diagonalization in iterative solution of the eigenvalue problem:
     a serial algorithm will be used

     bravais-lattice index     =            0
     lattice parameter (alat)  =       1.8897  a.u.
     unit-cell volume          =    4624.4077 (a.u.)^3
     number of atoms/cell      =           12
     number of atomic types    =            2
     number of electrons       =       183.00
     number of Kohn-Sham states=          121
     kinetic-energy cutoff     =      36.7493  Ry
     charge density cutoff     =     367.4932  Ry
     convergence threshold     =      1.0E-06
     mixing beta               =       0.1000
     number of iterations used =           10  plain     mixing
     Exchange-correlation      = BEEF-VDW ( 1  4 27 13 2)
     nstep                     =           50

     celldm(1)=   1.889726  celldm(2)=   0.000000  celldm(3)=   0.000000
     celldm(4)=   0.000000  celldm(5)=   0.000000  celldm(6)=   0.000000

     crystal axes: (cart. coord. in units of alat)
               a(1) = (   5.668249   0.000000   0.000000 )
               a(2) = (  -2.834125   4.908848   0.000000 )
               a(3) = (   0.000000   0.000000  24.628106 )

     reciprocal axes: (cart. coord. in units 2 pi/alat)
               b(1) = (  0.176421  0.101857  0.000000 )
               b(2) = (  0.000000  0.203714  0.000000 )
               b(3) = (  0.000000  0.000000  0.040604 )

     PseudoPot. # 1 for Pt read from file:
     /afs/slac.stanford.edu/u/if/mamunm/psp/gbrv1.5pbe/Pt.UPF
     MD5 check sum: f09d6de1a584b5a045c4fc126da2d0c4
     Pseudo is Ultrasoft + core correction, Zval = 16.0
     Generated by new atomic code, or converted to UPF format
     Using radial grid of  985 points,  6 beta functions with:
                l(1) =   0
                l(2) =   0
                l(3) =   1
                l(4) =   1
                l(5) =   2
                l(6) =   2
     Q(r) pseudized with  8 coefficients,  rinner =    1.300   1.300   1.300
                                                       1.300   1.300

     PseudoPot. # 2 for Ta read from file:
     /afs/slac.stanford.edu/u/if/mamunm/psp/gbrv1.5pbe/Ta.UPF
     MD5 check sum: f8bbe9446314a3b8ea5d9f3e3836c939
     Pseudo is Ultrasoft + core correction, Zval = 13.0
     Generated by new atomic code, or converted to UPF format
     Using radial grid of  921 points,  7 beta functions with:
                l(1) =   0
                l(2) =   0
                l(3) =   1
                l(4) =   1
                l(5) =   2
                l(6) =   2
                l(7) =   3
     Q(r) pseudized with  6 coefficients,  rinner =    1.300   1.300   1.300
                                                       1.300   1.300   1.300
                                                       1.300

     vdW kernel table read from file vdW_kernel_table
     MD5 check sum: 095c7af220d748ca6e76c0b4c6cfb241

     atomic species   valence    mass     pseudopotential
        Pt1           16.00   195.08400     Pt( 1.00)
        Ta1           13.00   180.94788     Ta( 1.00)

     No symmetry found

   Cartesian axes

     site n.     atom                  positions (alat units)
         1           Pt1 tau(   1) = (   0.0000000   0.0000000  10.0000000  )
         2           Pt1 tau(   2) = (  -1.4170623   2.4544239  10.0000000  )
         3           Pt1 tau(   3) = (   1.4170623   2.4544239  10.0000000  )
         4           Ta1 tau(   4) = (   2.8341246   0.0000000  10.0000000  )
         5           Pt1 tau(   5) = (   2.8341246   1.6362826  12.3140530  )
         6           Pt1 tau(   6) = (   1.4170623   4.0907065  12.3140530  )
         7           Pt1 tau(   7) = (  -1.4170623   4.0907065  12.3140530  )
         8           Ta1 tau(   8) = (   0.0000000   1.6362826  12.3140530  )
         9           Pt1 tau(   9) = (  -0.0000000   3.2725652  14.6281061  )
        10           Pt1 tau(  10) = (   1.4170623   0.8181413  14.6281061  )
        11           Pt1 tau(  11) = (   4.2511869   0.8181413  14.6281061  )
        12           Ta1 tau(  12) = (   2.8341246   3.2725652  14.6281061  )

     number of k points=    20  Fermi-Dirac smearing, width (Ry)=  0.0110
                       cart. coord. in units 2pi/alat
        k(    1) = (   0.0000000   0.0000000   0.0000000), wk =   0.0555556
        k(    2) = (   0.0000000   0.0339523   0.0000000), wk =   0.1111111
        k(    3) = (   0.0000000   0.0679046   0.0000000), wk =   0.1111111
        k(    4) = (   0.0000000  -0.1018569   0.0000000), wk =   0.0555556
        k(    5) = (   0.0294036   0.0169761   0.0000000), wk =   0.1111111
        k(    6) = (   0.0294036   0.0509284   0.0000000), wk =   0.1111111
        k(    7) = (   0.0294036   0.0848807   0.0000000), wk =   0.1111111
        k(    8) = (   0.0294036  -0.0848807   0.0000000), wk =   0.1111111
        k(    9) = (   0.0294036  -0.0509284   0.0000000), wk =   0.1111111
        k(   10) = (   0.0294036  -0.0169761   0.0000000), wk =   0.1111111
        k(   11) = (   0.0588071   0.0339523   0.0000000), wk =   0.1111111
        k(   12) = (   0.0588071   0.0679046   0.0000000), wk =   0.1111111
        k(   13) = (   0.0588071   0.1018569   0.0000000), wk =   0.1111111
        k(   14) = (   0.0588071  -0.0679046   0.0000000), wk =   0.1111111
        k(   15) = (   0.0588071  -0.0339523   0.0000000), wk =   0.1111111
        k(   16) = (   0.0588071   0.0000000   0.0000000), wk =   0.1111111
        k(   17) = (  -0.0882107  -0.0509284   0.0000000), wk =   0.0555556
        k(   18) = (  -0.0882107  -0.0169761   0.0000000), wk =   0.1111111
        k(   19) = (  -0.0882107   0.0169761   0.0000000), wk =   0.1111111
        k(   20) = (  -0.0882107  -0.1527853   0.0000000), wk =   0.0555556

     Largest allocated arrays     est. size (Mb)     dimensions
     Largest temporary arrays     est. size (Mb)     dimensions

     Initial potential from superposition of free atoms
     Check: negative starting charge=   -1.907787

     starting charge  178.49656, renormalised to  183.00000

     negative rho (up, down):  1.956E+00 0.000E+00

     *
     * You are using vdW-DF for exchange-correlation in this calculation.
     * Please cite the following three references that made this development
     * possible:
     *
     *   M. Dion, H. Rydberg, E. Schroder, D. C. Langreth, and
     *   B. I. Lundqvist, Phys. Rev. Lett. 92, 246401 (2004).
     *
     *   T. Thonhauser, V. R. Cooper, S. Li, A. Puzder, P. Hyldgaard, and
     *   D. C. Langreth, Phys. Rev. B 76, 125112 (2007).
     *
     *   G. Roman-Perez and J. M. Soler, Phys. Rev. Lett. 103, 096102 (2009).
     *
     *
     * If you are using vdW-DF2, please also cite:
     *
     *   K. Lee, E. D. Murray, L. Kong, B. I. Lundqvist, and
     *   D. C. Langreth, Phys. Rev. B 82, 081101(R) (2010).
     *
     *
     * If you are calculating the stress with vdW-DF, please also cite:
     *
     *   R. Sabatini, E. Kucukbenli, B. Kolb, T. Thonhauser, and
     *   S. de Gironcoli, J. Phys.: Condens. Matter 24, 424209 (2012).
     *

     Carrying out vdW-DF run using the following parameters:

     Nqs =      20    Nr_points =    1024   r_max =   100.000
     q_mesh =
               0.00001000     0.04494208     0.09755937     0.15916263
               0.23128650     0.31572767     0.41458969     0.53033537
               0.66584808     0.82450364     1.01025438     1.22772762
               1.48234092     1.78043706     2.12944203     2.53805004
               3.01644009     3.57652955     4.23227104     5.00000000

     Gradients computed in reciprocal space

     Adding external electric field

     Computed dipole along edir(3) :
        Dipole                0.0000 Ry au,          0.0000 Debye
        Dipole field          0.0000 Ry au

        Potential amp.       -0.0000 Ry
        Total length         45.3769 bohr

     Starting wfc are  147 randomized atomic wfcs

     Self-consistent Calculation

     iteration #  1     ecut=    36.75 Ry     beta=0.10
     Davidson diagonalization with overlap
     ethr =  1.00E-02,  avg # of iterations =  7.7

[...]

     total energy              =   -2341.41614660 Ry
     Harris-Foulkes estimate   =   -2343.59030358 Ry
     estimated scf accuracy    <      13.39421818 Ry

[...]

     End of self-consistent calculation

          k = 0.0000 0.0000 0.0000 ( 17471 PWs)   bands (ev):

   -67.6597 -67.6155 -67.6154 -51.3356 -51.2308 -51.2308 -51.1454 -51.1454
   -51.0958 -51.0902 -50.9939 -50.9939 -50.7916 -50.7916 -50.7788 -50.7788
   -50.7354 -50.7343 -50.6845 -50.6822 -50.5188 -50.5188 -50.5179 -50.5179
   -50.4863 -50.4707 -50.4458 -50.4458 -50.4390 -50.4389 -33.9795 -33.9721
   -33.9436 -33.9436 -33.8167 -33.7816 -33.7816 -33.7794 -33.7794  -6.8669
    -5.0349  -4.6064  -4.3046  -4.3046  -4.2884  -3.9832  -3.9832  -3.9488
    -3.5137  -3.5137  -3.4378  -3.2846  -3.2846  -3.2801  -2.0096  -1.9577
    -1.9577  -1.7919  -1.7919  -1.5372  -1.2643  -1.2519  -1.2068  -1.2068
    -1.1261  -0.9218  -0.9218  -0.6021  -0.6021  -0.5214  -0.5214  -0.5101
    -0.5101   0.2284   0.6202   0.6202   0.6760   0.6760   0.7337   0.7337
     0.7432   0.9725   1.3010   1.5739   1.5739   1.6811   2.0342   2.1423
     2.1933   2.5568   2.7540   2.7540   3.3218   3.3218   3.4042   3.4249
     3.4249   3.5914   3.5914   3.7224   3.9424   3.9424   3.9838   3.9838
     4.6503   4.6503   5.3619   5.3619   5.5632   5.7552   5.7552   6.2769
     6.5871   6.7772   7.1826   8.0807   8.3652   8.3652   8.4306   8.4306
     8.9476

[...]

          k =-0.0882-0.0509 0.0000 ( 17388 PWs)   bands (ev):

[...]

     the Fermi energy is     2.2120 ev

!    total energy              =   -2341.20174048 Ry
     Harris-Foulkes estimate   =   -2341.20172209 Ry
     estimated scf accuracy    <       0.00000070 Ry

     The total energy is the sum of the following terms:

     one-electron contribution =  -17704.32096063 Ry
     hartree contribution      =    8873.23377944 Ry
     xc contribution           =    -658.06564438 Ry
     ewald contribution        =    7147.99390411 Ry
     electric field correction =       0.00000000 Ry
     smearing contrib. (-TS)   =      -0.04281903 Ry

     convergence has been achieved in  16 iterations

 BEEF-vdW xc energy contributions
           1 :   -584.336675056478
           2 :    543.164276341804
           3 :   -469.608423322082
           4 :    378.134798951646
           5 :   -284.362465353944
           6 :    200.878735899835
           7 :   -134.741579489006
           8 :    87.1458871018666
           9 :   -54.9430739830411
          10 :    33.0851382167438
[...]
     Pseudo is Ultrasoft + core correction, Zval = 16.0
     Generated by new atomic code, or converted to UPF format
     Using radial grid of  985 points,  6 beta functions with:
                l(1) =   0
                l(2) =   0
                l(3) =   1
                l(4) =   1
                l(5) =   2
                l(6) =   2
     Q(r) pseudized with  8 coefficients,  rinner =    1.300   1.300   1.300
                                                       1.300   1.300

     PseudoPot. # 2 for Ta read from file:
     /afs/slac.stanford.edu/u/if/mamunm/psp/gbrv1.5pbe/Ta.UPF
     MD5 check sum: f8bbe9446314a3b8ea5d9f3e3836c939
     Pseudo is Ultrasoft + core correction, Zval = 13.0
     Generated by new atomic code, or converted to UPF format
     Using radial grid of  921 points,  7 beta functions with:
                l(1) =   0
                l(2) =   0
                l(3) =   1
                l(4) =   1
                l(5) =   2
                l(6) =   2
                l(7) =   3
     Q(r) pseudized with  6 coefficients,  rinner =    1.300   1.300   1.300
                                                       1.300   1.300   1.300
                                                       1.300

     vdW kernel table read from file vdW_kernel_table
     MD5 check sum: 095c7af220d748ca6e76c0b4c6cfb241

     atomic species   valence    mass     pseudopotential
        Pt1           16.00   195.08400     Pt( 1.00)
        Ta1           13.00   180.94788     Ta( 1.00)

     No symmetry found

   Cartesian axes

     site n.     atom                  positions (alat units)
         1           Pt1 tau(   1) = (   0.0000000   0.0000000  10.0000000  )
         2           Pt1 tau(   2) = (  -1.4170623   2.4544239  10.0000000  )
         3           Pt1 tau(   3) = (   1.4170623   2.4544239  10.0000000  )
         4           Ta1 tau(   4) = (   2.8341246   0.0000000  10.0000000  )
         5           Pt1 tau(   5) = (   2.8341246   1.6362826  12.3140530  )
         6           Pt1 tau(   6) = (   1.4170623   4.0907065  12.3140530  )
         7           Pt1 tau(   7) = (  -1.4170623   4.0907065  12.3140530  )
         8           Ta1 tau(   8) = (   0.0000000   1.6362826  12.3140530  )
         9           Pt1 tau(   9) = (  -0.0000002   3.2345449  14.6110776  )
        10           Pt1 tau(  10) = (   1.3841354   0.8371524  14.6110762  )
        11           Pt1 tau(  11) = (   4.2841129   0.8371522  14.6110752  )
        12           Ta1 tau(  12) = (   2.8341237   3.2725591  14.5160576  )

     number of k points=    20  Fermi-Dirac smearing, width (Ry)=  0.0110
                       cart. coord. in units 2pi/alat
        k(    1) = (   0.0000000   0.0000000   0.0000000), wk =   0.0555556
        k(    2) = (   0.0000000   0.0339523   0.0000000), wk =   0.1111111
        k(    3) = (   0.0000000   0.0679046   0.0000000), wk =   0.1111111
        k(    4) = (   0.0000000  -0.1018569   0.0000000), wk =   0.0555556
        k(    5) = (   0.0294036   0.0169761   0.0000000), wk =   0.1111111
        k(    6) = (   0.0294036   0.0509284   0.0000000), wk =   0.1111111
        k(    7) = (   0.0294036   0.0848807   0.0000000), wk =   0.1111111
        k(    8) = (   0.0294036  -0.0848807   0.0000000), wk =   0.1111111
        k(    9) = (   0.0294036  -0.0509284   0.0000000), wk =   0.1111111
        k(   10) = (   0.0294036  -0.0169761   0.0000000), wk =   0.1111111
        k(   11) = (   0.0588071   0.0339523   0.0000000), wk =   0.1111111
        k(   12) = (   0.0588071   0.0679046   0.0000000), wk =   0.1111111
        k(   13) = (   0.0588071   0.1018569   0.0000000), wk =   0.1111111
        k(   14) = (   0.0588071  -0.0679046   0.0000000), wk =   0.1111111
        k(   15) = (   0.0588071  -0.0339523   0.0000000), wk =   0.1111111
        k(   16) = (   0.0588071   0.0000000   0.0000000), wk =   0.1111111
        k(   17) = (  -0.0882107  -0.0509284   0.0000000), wk =   0.0555556
        k(   18) = (  -0.0882107  -0.0169761   0.0000000), wk =   0.1111111
        k(   19) = (  -0.0882107   0.0169761   0.0000000), wk =   0.1111111
        k(   20) = (  -0.0882107  -0.1527853   0.0000000), wk =   0.0555556

     Largest allocated arrays     est. size (Mb)     dimensions
     Largest temporary arrays     est. size (Mb)     dimensions

     Initial potential from superposition of free atoms
     Check: negative starting charge=   -1.921779

     starting charge  178.49656, renormalised to  183.00000

[...]

     *
     * You are using vdW-DF for exchange-correlation in this calculation.
     * Please cite the following three references that made this development
     * possible:
     *
     *   M. Dion, H. Rydberg, E. Schroder, D. C. Langreth, and
     *   B. I. Lundqvist, Phys. Rev. Lett. 92, 246401 (2004).
     *
     *   T. Thonhauser, V. R. Cooper, S. Li, A. Puzder, P. Hyldgaard, and
     *   D. C. Langreth, Phys. Rev. B 76, 125112 (2007).
     *
     *   G. Roman-Perez and J. M. Soler, Phys. Rev. Lett. 103, 096102 (2009).
     *
     *
     * If you are using vdW-DF2, please also cite:
     *
     *   K. Lee, E. D. Murray, L. Kong, B. I. Lundqvist, and
     *   D. C. Langreth, Phys. Rev. B 82, 081101(R) (2010).
     *
     *
     * If you are calculating the stress with vdW-DF, please also cite:
     *
     *   R. Sabatini, E. Kucukbenli, B. Kolb, T. Thonhauser, and
     *   S. de Gironcoli, J. Phys.: Condens. Matter 24, 424209 (2012).
     *

     Carrying out vdW-DF run using the following parameters:

     Nqs =      20    Nr_points =    1024   r_max =   100.000
     q_mesh =
               0.00001000     0.04494208     0.09755937     0.15916263
               0.23128650     0.31572767     0.41458969     0.53033537
               0.66584808     0.82450364     1.01025438     1.22772762
               1.48234092     1.78043706     2.12944203     2.53805004
               3.01644009     3.57652955     4.23227104     5.00000000

     Gradients computed in reciprocal space

[...]

     Starting wfc are  147 randomized atomic wfcs

     Self-consistent Calculation

[...]

     total energy              =   -2341.22281543 Ry
     Harris-Foulkes estimate   =   -2341.22281249 Ry
     estimated scf accuracy    <       0.00000110 Ry

     iteration # 17     ecut=    36.75 Ry     beta=0.10
     Davidson diagonalization with overlap
     ethr =  6.03E-10,  avg # of iterations =  2.0

[...]

     negative rho (up, down):  1.871E+00 0.000E+00

     Adding external electric field

     Computed dipole along edir(3) :
        Dipole                0.0083 Ry au,          0.0212 Debye
        Dipole field          0.0000 Ry au

        Potential amp.       -0.0021 Ry
        Total length         45.3769 bohr

     End of self-consistent calculation

[...]

          k = 0.0588 0.0000 0.0000 ( 17419 PWs)   bands (ev):

[...]

          k =-0.0882-0.1528 0.0000 ( 17388 PWs)   bands (ev):

   -67.6550 -67.6060 -67.5953 -51.3723 -51.3116 -51.2754 -51.2438 -51.2185
   -51.1856 -51.1340 -51.1081 -51.0597 -50.8163 -50.7822 -50.7810 -50.7457
   -50.7401 -50.7189 -50.7124 -50.6530 -50.6286 -50.5948 -50.5672 -50.5237
   -50.5187 -50.5029 -50.4878 -50.4685 -50.4576 -50.4425 -33.9724 -33.9626
   -33.9525 -33.9505 -33.8205 -33.7911 -33.7850 -33.7833 -33.7767  -5.2204
    -5.1181  -3.7961  -3.6736  -3.4657  -3.4319  -3.4244  -3.3347  -3.2728
    -3.1167  -3.0091  -2.6778  -2.6547  -2.4602  -2.4133  -2.3295  -2.2996
    -2.2886  -2.0919  -1.9205  -1.5852  -1.4958  -1.4438  -1.2611  -1.2264
    -1.1765  -1.1193  -1.0350  -1.0106  -0.9320  -0.9082  -0.8377  -0.8002
    -0.7797  -0.7015  -0.5827  -0.4418  -0.4019  -0.2477  -0.1564  -0.0635
     0.0301   0.1890   0.3134   0.3790   0.4650   0.8243   0.9061   1.0857
     1.1614   1.4225   1.7662   2.0533   2.2416   2.5175   2.6019   2.7663
     2.8294   3.0001   3.1870   3.3574   3.3863   3.5439   3.9838   4.0651
     4.4815   4.7760   5.2151   6.3317   6.5905   6.7737   7.0885   7.2358
     7.6441   7.9698   8.0297   8.5559   8.6004   8.6394   8.6532   9.0376
     9.6994

     the Fermi energy is     2.2285 ev

!    total energy              =   -2341.22282319 Ry
     Harris-Foulkes estimate   =   -2341.22281551 Ry
     estimated scf accuracy    <       0.00000063 Ry

     The total energy is the sum of the following terms:

     one-electron contribution =  -17798.47191837 Ry
     hartree contribution      =    8920.11388914 Ry
     xc contribution           =    -658.18283340 Ry
     ewald contribution        =    7195.36007260 Ry
     electric field correction =       0.00000019 Ry
     smearing contrib. (-TS)   =      -0.04203334 Ry

     convergence has been achieved in  17 iterations

 BEEF-vdW xc energy contributions
           1 :   -584.901692362597
           2 :    543.765422047381
           3 :   -470.258531478599
           4 :    378.812044204021
           5 :   -285.018889770145
           6 :    201.464947952659
           7 :   -135.232665783290
           8 :    87.5543707924454
           9 :   -55.3131160785813
          10 :    33.4718244500300
          11 :   -17.3808951083211
          12 :    4.17089543129919
          13 :    7.00751996923827
          14 :   -15.6424629097401
          15 :    20.8716938005093
          16 :   -22.3280274878066
          17 :    20.5080287028866
          18 :   -16.6440344383195
          19 :    12.2589292230055
          20 :   -8.67080212619305
          21 :    6.64781482094793
          22 :   -6.30215322185461
          23 :    7.19524864604557
          24 :   -8.58002653632150
          25 :    9.68872003496608
          26 :   -9.98720406369091
          27 :    9.32761818255744
          28 :   -7.96002257852740
          29 :    6.39906473001565
          30 :   -5.19530679220611
          31 :   -48.7116535411327
          32 :   -36.0902516015243

     Forces acting on atoms (Ry/au):

     negative rho (up, down):  1.871E+00 0.000E+00
     atom    1 type  1   force =    -0.00000005    0.02122004    0.00180609
     atom    2 type  1   force =     0.01837707   -0.01061024    0.00180630
     atom    3 type  1   force =    -0.01837696   -0.01061010    0.00180655
     atom    4 type  2   force =    -0.00000021   -0.00000005    0.01822691
     atom    5 type  1   force =    -0.00000008   -0.00479195   -0.00406139
     atom    6 type  1   force =    -0.00414972    0.00239592   -0.00406115
     atom    7 type  1   force =     0.00414955    0.00239597   -0.00406109
     atom    8 type  2   force =     0.00000013   -0.00000002   -0.00699697
     atom    9 type  1   force =     0.00000011    0.00043034   -0.00154933
     atom   10 type  1   force =     0.00037274   -0.00021537   -0.00154949
     atom   11 type  1   force =    -0.00037264   -0.00021556   -0.00154934
     atom   12 type  2   force =     0.00000006    0.00000101    0.00018292

     Total force =     0.043220     Total SCF correction =     0.001924

     entering subroutine stress ...

     negative rho (up, down):  1.871E+00 0.000E+00
          total   stress  (Ry/bohr**3)                   (kbar)     P=  -28.62
  -0.00026630  -0.00000000   0.00000000        -39.17     -0.00      0.00
  -0.00000000  -0.00026630   0.00000000         -0.00    -39.17      0.00
   0.00000000   0.00000000  -0.00005098          0.00      0.00     -7.50

 !ASE

     Writing output data file calc.save

     General routines

     Parallel routines

   This run was terminated on:  19:42:23  27Dec2018

   JOB DONE.
Job  /afs/slac/g/suncat/bin/suncat-tsmpirun -x LD_LIBRARY_PATH -wdir /scratch/qe110564_TpVWC pw.x -in pw.inp

TID   HOST_NAME   COMMAND_LINE            STATUS            TERMINATION_TIME
00000 suncat0085 pw.x -in pw.inp   Done                     12/27/2018 19:42:23
00001 suncat0085 pw.x -in pw.inp   Done                     12/27/2018 19:42:23
00002 suncat0085 pw.x -in pw.inp   Done                     12/27/2018 19:42:23
00003 suncat0085 pw.x -in pw.inp   Done                     12/27/2018 19:42:23
00004 suncat0085 pw.x -in pw.inp   Done                     12/27/2018 19:42:23
00005 suncat0085 pw.x -in pw.inp   Done                     12/27/2018 19:42:23
00006 suncat0085 pw.x -in pw.inp   Done                     12/27/2018 19:42:23
00007 suncat0085 pw.x -in pw.inp   Done                     12/27/2018 19:42:23
00008 suncat0084 pw.x -in pw.inp   Done                     12/27/2018 19:42:23
00009 suncat0084 pw.x -in pw.inp   Done                     12/27/2018 19:42:23
00010 suncat0084 pw.x -in pw.inp   Done                     12/27/2018 19:42:23
00011 suncat0084 pw.x -in pw.inp   Done                     12/27/2018 19:42:23
00012 suncat0084 pw.x -in pw.inp   Done                     12/27/2018 19:42:23
00013 suncat0084 pw.x -in pw.inp   Done                     12/27/2018 19:42:23
00014 suncat0084 pw.x -in pw.inp   Done                     12/27/2018 19:42:23
00015 suncat0084 pw.x -in pw.inp   Done                     12/27/2018 19:42:23
00016 suncat0083 pw.x -in pw.inp   Done                     12/27/2018 19:42:23
00017 suncat0083 pw.x -in pw.inp   Done                     12/27/2018 19:42:23
00018 suncat0083 pw.x -in pw.inp   Done                     12/27/2018 19:42:23
00019 suncat0083 pw.x -in pw.inp   Done                     12/27/2018 19:42:23
00020 suncat0083 pw.x -in pw.inp   Done                     12/27/2018 19:42:23
00021 suncat0083 pw.x -in pw.inp   Done                     12/27/2018 19:42:23
00022 suncat0083 pw.x -in pw.inp   Done                     12/27/2018 19:42:23
00023 suncat0083 pw.x -in pw.inp   Done                     12/27/2018 19:42:23
00024 suncat0081 pw.x -in pw.inp   Done                     12/27/2018 19:42:23
00025 suncat0081 pw.x -in pw.inp   Done                     12/27/2018 19:42:23
00026 suncat0081 pw.x -in pw.inp   Done                     12/27/2018 19:42:23
00027 suncat0081 pw.x -in pw.inp   Done                     12/27/2018 19:42:23
00028 suncat0081 pw.x -in pw.inp   Done                     12/27/2018 19:42:23
00029 suncat0081 pw.x -in pw.inp   Done                     12/27/2018 19:42:23
00030 suncat0081 pw.x -in pw.inp   Done                     12/27/2018 19:42:23
00031 suncat0081 pw.x -in pw.inp   Done                     12/27/2018 19:42:23
00032 suncat0073 pw.x -in pw.inp   Done                     12/27/2018 19:42:23
00033 suncat0073 pw.x -in pw.inp   Done                     12/27/2018 19:42:23
00034 suncat0073 pw.x -in pw.inp   Done                     12/27/2018 19:42:23
00035 suncat0073 pw.x -in pw.inp   Done                     12/27/2018 19:42:23
00036 suncat0073 pw.x -in pw.inp   Done                     12/27/2018 19:42:23
00037 suncat0073 pw.x -in pw.inp   Done                     12/27/2018 19:42:23
00038 suncat0073 pw.x -in pw.inp   Done                     12/27/2018 19:42:23
00039 suncat0073 pw.x -in pw.inp   Done                     12/27/2018 19:42:23
00040 suncat0244 pw.x -in pw.inp   Done                     12/27/2018 19:42:23
00041 suncat0244 pw.x -in pw.inp   Done                     12/27/2018 19:42:23
00042 suncat0244 pw.x -in pw.inp   Done                     12/27/2018 19:42:23
00043 suncat0244 pw.x -in pw.inp   Done                     12/27/2018 19:42:23
00044 suncat0244 pw.x -in pw.inp   Done                     12/27/2018 19:42:23
00045 suncat0244 pw.x -in pw.inp   Done                     12/27/2018 19:42:23
00046 suncat0244 pw.x -in pw.inp   Done                     12/27/2018 19:42:23
00047 suncat0244 pw.x -in pw.inp   Done                     12/27/2018 19:42:23
00048 suncat0243 pw.x -in pw.inp   Done                     12/27/2018 19:42:23
00049 suncat0243 pw.x -in pw.inp   Done                     12/27/2018 19:42:23
00050 suncat0243 pw.x -in pw.inp   Done                     12/27/2018 19:42:23
00051 suncat0243 pw.x -in pw.inp   Done                     12/27/2018 19:42:23
00052 suncat0243 pw.x -in pw.inp   Done                     12/27/2018 19:42:23
00053 suncat0243 pw.x -in pw.inp   Done                     12/27/2018 19:42:23
00054 suncat0243 pw.x -in pw.inp   Done                     12/27/2018 19:42:23
00055 suncat0243 pw.x -in pw.inp   Done                     12/27/2018 19:42:23
00056 suncat0242 pw.x -in pw.inp   Done                     12/27/2018 19:42:23
00057 suncat0242 pw.x -in pw.inp   Done                     12/27/2018 19:42:23
00058 suncat0242 pw.x -in pw.inp   Done                     12/27/2018 19:42:23
00059 suncat0242 pw.x -in pw.inp   Done                     12/27/2018 19:42:23
00060 suncat0242 pw.x -in pw.inp   Done                     12/27/2018 19:42:23
00061 suncat0242 pw.x -in pw.inp   Done                     12/27/2018 19:42:23
00062 suncat0242 pw.x -in pw.inp   Done                     12/27/2018 19:42:23
00063 suncat0242 pw.x -in pw.inp   Done                     12/27/2018 19:42:23