     Program PWSCF v.5.1rc2 (svn rev. 11289) starts on 25Dec2018 at 10: 4:49

     Current dimensions of program PWSCF are:
     Max number of different atomic species (ntypx) = 10
     Max number of k-points (npk) =  40000
     Max angular momentum in pseudopotentials (lmaxx) =  3
     Presently stress not available with electric field

     IMPORTANT: XC functional enforced from input :
     Exchange-correlation      = BEEF-VDW ( 1  4 27 13 2)
     Any further DFT definition will be discarded
     Please, verify this is what you really want

     Subspace diagonalization in iterative solution of the eigenvalue problem:
     a serial algorithm will be used

     bravais-lattice index     =            0
     lattice parameter (alat)  =       1.8897  a.u.
     unit-cell volume          =    3818.8117 (a.u.)^3
     number of atoms/cell      =           12
     number of atomic types    =            2
     number of electrons       =       183.00
     number of Kohn-Sham states=          121
     kinetic-energy cutoff     =      36.7493  Ry
     charge density cutoff     =     367.4932  Ry
     convergence threshold     =      1.0E-06
     mixing beta               =       0.1000
     number of iterations used =           10  plain     mixing
     Exchange-correlation      = BEEF-VDW ( 1  4 27 13 2)
     nstep                     =           50

     celldm(1)=   1.889726  celldm(2)=   0.000000  celldm(3)=   0.000000
     celldm(4)=   0.000000  celldm(5)=   0.000000  celldm(6)=   0.000000

     crystal axes: (cart. coord. in units of alat)
               a(1) = (   5.192068   0.000000   0.000000 )
               a(2) = (  -2.596034   4.496463   0.000000 )
               a(3) = (   0.000000   0.000000  24.239306 )

     reciprocal axes: (cart. coord. in units 2 pi/alat)
               b(1) = (  0.192601  0.111199  0.000000 )
               b(2) = (  0.000000  0.222397  0.000000 )
               b(3) = (  0.000000  0.000000  0.041255 )

     PseudoPot. # 1 for Cr read from file:
     /afs/slac.stanford.edu/u/if/mamunm/psp/gbrv1.5pbe/Cr.UPF
     MD5 check sum: 0d52af634a40206e4dee301ad30da4bf
     Pseudo is Ultrasoft + core correction, Zval = 14.0
     Generated by new atomic code, or converted to UPF format
     Using radial grid of  857 points,  6 beta functions with:
                l(1) =   0
                l(2) =   0
                l(3) =   1
                l(4) =   1
                l(5) =   2
                l(6) =   2
     Q(r) pseudized with  8 coefficients,  rinner =    0.950   0.950   0.950
                                                       0.950   0.950

     PseudoPot. # 2 for Ga read from file:
     /afs/slac.stanford.edu/u/if/mamunm/psp/gbrv1.5pbe/Ga.UPF
     MD5 check sum: ccd671392a58a050fbb373893b4fcd66
     Pseudo is Ultrasoft + core correction, Zval = 19.0
     Generated by new atomic code, or converted to UPF format
     Using radial grid of  871 points,  6 beta functions with:
                l(1) =   0
                l(2) =   0
                l(3) =   1
                l(4) =   1
                l(5) =   2
                l(6) =   2
     Q(r) pseudized with  8 coefficients,  rinner =    1.250   1.250   1.250
                                                       1.250   1.250

     vdW kernel table read from file vdW_kernel_table
     MD5 check sum: 095c7af220d748ca6e76c0b4c6cfb241

     atomic species   valence    mass     pseudopotential
        Cr1           14.00    51.99610     Cr( 1.00)
        Ga1           19.00    69.72300     Ga( 1.00)

     No symmetry found

   Cartesian axes

     site n.     atom                  positions (alat units)
         1           Cr1 tau(   1) = (   0.0000000   0.0000000  10.0000000  )
         2           Cr1 tau(   2) = (  -1.2980171   2.2482316  10.0000000  )
         3           Cr1 tau(   3) = (   1.2980171   2.2482316  10.0000000  )
         4           Ga1 tau(   4) = (   2.5960342   0.0000000  10.0000000  )
         5           Cr1 tau(   5) = (   2.5960342   1.4988211  12.1196531  )
         6           Cr1 tau(   6) = (   1.2980171   3.7470527  12.1196531  )
         7           Cr1 tau(   7) = (  -1.2980171   3.7470527  12.1196531  )
         8           Ga1 tau(   8) = (   0.0000000   1.4988211  12.1196531  )
         9           Cr1 tau(   9) = (  -0.0000000   2.9976421  14.2393062  )
        10           Cr1 tau(  10) = (   1.2980171   0.7494105  14.2393062  )
        11           Cr1 tau(  11) = (   3.8940514   0.7494105  14.2393062  )
        12           Ga1 tau(  12) = (   2.5960342   2.9976421  14.2393062  )

     number of k points=    20  Fermi-Dirac smearing, width (Ry)=  0.0110
                       cart. coord. in units 2pi/alat
        k(    1) = (   0.0000000   0.0000000   0.0000000), wk =   0.0555556
        k(    2) = (   0.0000000   0.0370662   0.0000000), wk =   0.1111111
        k(    3) = (   0.0000000   0.0741323   0.0000000), wk =   0.1111111
        k(    4) = (   0.0000000  -0.1111985   0.0000000), wk =   0.0555556
        k(    5) = (   0.0321002   0.0185331   0.0000000), wk =   0.1111111
        k(    6) = (   0.0321002   0.0555993   0.0000000), wk =   0.1111111
        k(    7) = (   0.0321002   0.0926654   0.0000000), wk =   0.1111111
        k(    8) = (   0.0321002  -0.0926654   0.0000000), wk =   0.1111111
        k(    9) = (   0.0321002  -0.0555993   0.0000000), wk =   0.1111111
        k(   10) = (   0.0321002  -0.0185331   0.0000000), wk =   0.1111111
        k(   11) = (   0.0642005   0.0370662   0.0000000), wk =   0.1111111
        k(   12) = (   0.0642005   0.0741323   0.0000000), wk =   0.1111111
        k(   13) = (   0.0642005   0.1111985   0.0000000), wk =   0.1111111
        k(   14) = (   0.0642005  -0.0741323   0.0000000), wk =   0.1111111
        k(   15) = (   0.0642005  -0.0370662   0.0000000), wk =   0.1111111
        k(   16) = (   0.0642005   0.0000000   0.0000000), wk =   0.1111111
        k(   17) = (  -0.0963007  -0.0555993   0.0000000), wk =   0.0555556
        k(   18) = (  -0.0963007  -0.0185331   0.0000000), wk =   0.1111111
        k(   19) = (  -0.0963007   0.0185331   0.0000000), wk =   0.1111111
        k(   20) = (  -0.0963007  -0.1667978   0.0000000), wk =   0.0555556

     Largest allocated arrays     est. size (Mb)     dimensions
     Largest temporary arrays     est. size (Mb)     dimensions

     Check: negative/imaginary core charge=   -0.000004    0.000000

     Initial potential from superposition of free atoms
     Check: negative starting charge=   -0.011569

     starting charge  170.99986, renormalised to  183.00000

     negative rho (up, down):  1.238E-02 0.000E+00

     *
     * You are using vdW-DF for exchange-correlation in this calculation.
     * Please cite the following three references that made this development
     * possible:
     *
     *   M. Dion, H. Rydberg, E. Schroder, D. C. Langreth, and
     *   B. I. Lundqvist, Phys. Rev. Lett. 92, 246401 (2004).
     *
     *   T. Thonhauser, V. R. Cooper, S. Li, A. Puzder, P. Hyldgaard, and
     *   D. C. Langreth, Phys. Rev. B 76, 125112 (2007).
     *
     *   G. Roman-Perez and J. M. Soler, Phys. Rev. Lett. 103, 096102 (2009).
     *
     *
     * If you are using vdW-DF2, please also cite:
     *
     *   K. Lee, E. D. Murray, L. Kong, B. I. Lundqvist, and
     *   D. C. Langreth, Phys. Rev. B 82, 081101(R) (2010).
     *
     *
     * If you are calculating the stress with vdW-DF, please also cite:
     *
     *   R. Sabatini, E. Kucukbenli, B. Kolb, T. Thonhauser, and
     *   S. de Gironcoli, J. Phys.: Condens. Matter 24, 424209 (2012).
     *

     Carrying out vdW-DF run using the following parameters:

     Nqs =      20    Nr_points =    1024   r_max =   100.000
     q_mesh =
               0.00001000     0.04494208     0.09755937     0.15916263
               0.23128650     0.31572767     0.41458969     0.53033537
               0.66584808     0.82450364     1.01025438     1.22772762
               1.48234092     1.78043706     2.12944203     2.53805004
               3.01644009     3.57652955     4.23227104     5.00000000

     Gradients computed in reciprocal space

     Adding external electric field

     Computed dipole along edir(3) :
        Dipole                0.0000 Ry au,          0.0000 Debye
        Dipole field          0.0000 Ry au

        Potential amp.       -0.0000 Ry
        Total length         44.6605 bohr

     Starting wfc are  126 randomized atomic wfcs

     Self-consistent Calculation

     iteration #  1     ecut=    36.75 Ry     beta=0.10
     Davidson diagonalization with overlap
     ethr =  1.00E-02,  avg # of iterations =  7.3

[...]

     total energy              =   -2799.97100489 Ry
     Harris-Foulkes estimate   =   -2858.24059093 Ry
     estimated scf accuracy    <     319.60196412 Ry

[...]

     End of self-consistent calculation

          k = 0.0000 0.0000 0.0000 ( 14465 PWs)   bands (ev):

   -93.2664 -93.2664 -93.2608 -92.9467 -92.9466 -92.9146 -92.9146 -92.9145
   -92.9145 -70.8626 -70.7851 -70.7849 -70.6688 -70.6625 -70.5966 -70.5965
   -70.5950 -70.5949 -42.4302 -42.3150 -42.3149 -42.2497 -42.1892 -42.1890
   -42.1554 -42.1519 -42.0641 -42.0640 -42.0435 -42.0176 -41.9955 -41.9954
   -41.9658 -41.9657 -41.8979 -41.8978 -41.8756 -41.8756 -41.8708 -41.8253
   -41.8096 -41.6524 -41.6523 -41.6495 -41.6494 -13.7014 -13.7014 -13.6939
   -13.6710 -13.6710 -13.3382 -13.3275 -13.3247 -13.3247 -13.3197 -13.3197
   -13.3001 -13.3001 -13.2942 -13.2942  -8.2395  -6.4287  -5.7283  -2.9653
    -2.5836  -2.4449  -1.8603  -1.8603  -1.5281  -1.5281  -1.3859  -1.3858
    -1.3761  -1.2995  -1.1927  -1.1926  -0.5966  -0.5965  -0.1512  -0.1297
     0.1603   0.1603   0.4267   0.4267   0.4289   0.6089   0.6090   0.6365
     0.7140   0.9940   1.1106   1.1106   1.5057   1.5058   1.7166   1.7166
     1.7330   1.8944   1.8945   2.1071   2.1072   2.1195   2.1196   2.3689
     2.3892   2.3892   2.7295   2.7725   2.7726   2.9345   3.1194   3.2245
     3.3720   3.4101   3.5359   3.5359   3.7767   3.7767   4.7429   4.9620
     5.4903

[...]

          k =-0.0963-0.0556 0.0000 ( 14318 PWs)   bands (ev):

[...]

     the Fermi energy is     0.9566 ev

!    total energy              =   -2835.98585584 Ry
     Harris-Foulkes estimate   =   -2835.98586190 Ry
     estimated scf accuracy    <       0.00000075 Ry

     The total energy is the sum of the following terms:

     one-electron contribution =  -23026.22339311 Ry
     hartree contribution      =   11509.11421702 Ry
     xc contribution           =    -358.92680056 Ry
     ewald contribution        =    9040.14314354 Ry
     electric field correction =       0.00000000 Ry
     smearing contrib. (-TS)   =      -0.09302272 Ry

     convergence has been achieved in  28 iterations

 BEEF-vdW xc energy contributions
           1 :   -314.821867716537
           2 :    284.740518387539
           3 :   -234.339756870495
           4 :    178.490991908095
           5 :   -130.643312765265
           6 :    97.8268777610126
           7 :   -79.4246534866844
           8 :    69.6986054755430
           9 :   -62.1192986366002
          10 :    52.9143584727821
          11 :   -42.1518844253675
[...]
     Pseudo is Ultrasoft + core correction, Zval = 14.0
     Generated by new atomic code, or converted to UPF format
     Using radial grid of  857 points,  6 beta functions with:
                l(1) =   0
                l(2) =   0
                l(3) =   1
                l(4) =   1
                l(5) =   2
                l(6) =   2
     Q(r) pseudized with  8 coefficients,  rinner =    0.950   0.950   0.950
                                                       0.950   0.950

     PseudoPot. # 2 for Ga read from file:
     /afs/slac.stanford.edu/u/if/mamunm/psp/gbrv1.5pbe/Ga.UPF
     MD5 check sum: ccd671392a58a050fbb373893b4fcd66
     Pseudo is Ultrasoft + core correction, Zval = 19.0
     Generated by new atomic code, or converted to UPF format
     Using radial grid of  871 points,  6 beta functions with:
                l(1) =   0
                l(2) =   0
                l(3) =   1
                l(4) =   1
                l(5) =   2
                l(6) =   2
     Q(r) pseudized with  8 coefficients,  rinner =    1.250   1.250   1.250
                                                       1.250   1.250

     vdW kernel table read from file vdW_kernel_table
     MD5 check sum: 095c7af220d748ca6e76c0b4c6cfb241

     atomic species   valence    mass     pseudopotential
        Cr1           14.00    51.99610     Cr( 1.00)
        Ga1           19.00    69.72300     Ga( 1.00)

     No symmetry found

   Cartesian axes

     site n.     atom                  positions (alat units)
         1           Cr1 tau(   1) = (   0.0000000   0.0000000  10.0000000  )
         2           Cr1 tau(   2) = (  -1.2980171   2.2482316  10.0000000  )
         3           Cr1 tau(   3) = (   1.2980171   2.2482316  10.0000000  )
         4           Ga1 tau(   4) = (   2.5960342   0.0000000  10.0000000  )
         5           Cr1 tau(   5) = (   2.5960342   1.4988211  12.1196531  )
         6           Cr1 tau(   6) = (   1.2980171   3.7470527  12.1196531  )
         7           Cr1 tau(   7) = (  -1.2980171   3.7470527  12.1196531  )
         8           Ga1 tau(   8) = (   0.0000000   1.4988211  12.1196531  )
         9           Cr1 tau(   9) = (   0.0001711   3.1421128  14.1336224  )
        10           Cr1 tau(  10) = (   1.4233252   0.6769213  14.1335561  )
        11           Cr1 tau(  11) = (   3.7689825   0.6768601  14.1336028  )
        12           Ga1 tau(  12) = (   2.5961126   2.9974125  14.5815096  )

     number of k points=    20  Fermi-Dirac smearing, width (Ry)=  0.0110
                       cart. coord. in units 2pi/alat
        k(    1) = (   0.0000000   0.0000000   0.0000000), wk =   0.0555556
        k(    2) = (   0.0000000   0.0370662   0.0000000), wk =   0.1111111
        k(    3) = (   0.0000000   0.0741323   0.0000000), wk =   0.1111111
        k(    4) = (   0.0000000  -0.1111985   0.0000000), wk =   0.0555556
        k(    5) = (   0.0321002   0.0185331   0.0000000), wk =   0.1111111
        k(    6) = (   0.0321002   0.0555993   0.0000000), wk =   0.1111111
        k(    7) = (   0.0321002   0.0926654   0.0000000), wk =   0.1111111
        k(    8) = (   0.0321002  -0.0926654   0.0000000), wk =   0.1111111
        k(    9) = (   0.0321002  -0.0555993   0.0000000), wk =   0.1111111
        k(   10) = (   0.0321002  -0.0185331   0.0000000), wk =   0.1111111
        k(   11) = (   0.0642005   0.0370662   0.0000000), wk =   0.1111111
        k(   12) = (   0.0642005   0.0741323   0.0000000), wk =   0.1111111
        k(   13) = (   0.0642005   0.1111985   0.0000000), wk =   0.1111111
        k(   14) = (   0.0642005  -0.0741323   0.0000000), wk =   0.1111111
        k(   15) = (   0.0642005  -0.0370662   0.0000000), wk =   0.1111111
        k(   16) = (   0.0642005   0.0000000   0.0000000), wk =   0.1111111
        k(   17) = (  -0.0963007  -0.0555993   0.0000000), wk =   0.0555556
        k(   18) = (  -0.0963007  -0.0185331   0.0000000), wk =   0.1111111
        k(   19) = (  -0.0963007   0.0185331   0.0000000), wk =   0.1111111
        k(   20) = (  -0.0963007  -0.1667978   0.0000000), wk =   0.0555556

     Largest allocated arrays     est. size (Mb)     dimensions
     Largest temporary arrays     est. size (Mb)     dimensions

     Check: negative/imaginary core charge=   -0.000004    0.000000

     Initial potential from superposition of free atoms
     Check: negative starting charge=   -0.011790

     starting charge  170.99986, renormalised to  183.00000

[...]

     *
     * You are using vdW-DF for exchange-correlation in this calculation.
     * Please cite the following three references that made this development
     * possible:
     *
     *   M. Dion, H. Rydberg, E. Schroder, D. C. Langreth, and
     *   B. I. Lundqvist, Phys. Rev. Lett. 92, 246401 (2004).
     *
     *   T. Thonhauser, V. R. Cooper, S. Li, A. Puzder, P. Hyldgaard, and
     *   D. C. Langreth, Phys. Rev. B 76, 125112 (2007).
     *
     *   G. Roman-Perez and J. M. Soler, Phys. Rev. Lett. 103, 096102 (2009).
     *
     *
     * If you are using vdW-DF2, please also cite:
     *
     *   K. Lee, E. D. Murray, L. Kong, B. I. Lundqvist, and
     *   D. C. Langreth, Phys. Rev. B 82, 081101(R) (2010).
     *
     *
     * If you are calculating the stress with vdW-DF, please also cite:
     *
     *   R. Sabatini, E. Kucukbenli, B. Kolb, T. Thonhauser, and
     *   S. de Gironcoli, J. Phys.: Condens. Matter 24, 424209 (2012).
     *

     Carrying out vdW-DF run using the following parameters:

     Nqs =      20    Nr_points =    1024   r_max =   100.000
     q_mesh =
               0.00001000     0.04494208     0.09755937     0.15916263
               0.23128650     0.31572767     0.41458969     0.53033537
               0.66584808     0.82450364     1.01025438     1.22772762
               1.48234092     1.78043706     2.12944203     2.53805004
               3.01644009     3.57652955     4.23227104     5.00000000

     Gradients computed in reciprocal space

[...]

     Starting wfc are  126 randomized atomic wfcs

     Self-consistent Calculation

[...]

     total energy              =   -2836.03362410 Ry
     Harris-Foulkes estimate   =   -2836.03362586 Ry
     estimated scf accuracy    <       0.00000201 Ry

     iteration # 30     ecut=    36.75 Ry     beta=0.10
     Davidson diagonalization with overlap
     ethr =  1.01E-09,  avg # of iterations =  1.8

[...]

     negative rho (up, down):  1.119E-02 0.000E+00

     Adding external electric field

     Computed dipole along edir(3) :
        Dipole               -0.0013 Ry au,         -0.0034 Debye
        Dipole field         -0.0000 Ry au

        Potential amp.        0.0004 Ry
        Total length         44.6605 bohr

     End of self-consistent calculation

[...]

          k = 0.0642 0.0000 0.0000 ( 14355 PWs)   bands (ev):

[...]

          k =-0.0963-0.1668 0.0000 ( 14318 PWs)   bands (ev):

   -93.2658 -93.2657 -93.2628 -92.9745 -92.9443 -92.9192 -92.9192 -92.9127
   -92.9127 -70.8305 -70.8026 -70.7740 -70.6523 -70.6331 -70.6100 -70.5866
   -70.5566 -70.5462 -42.3919 -42.3107 -42.2664 -42.2335 -42.2013 -42.1729
   -42.1629 -42.1464 -42.0960 -42.0674 -42.0306 -41.9864 -41.9839 -41.9456
   -41.9385 -41.9266 -41.9015 -41.8902 -41.8889 -41.8551 -41.8271 -41.8067
   -41.7825 -41.7553 -41.6545 -41.6543 -41.5748 -13.6944 -13.6819 -13.6738
   -13.6599 -13.6597 -13.3243 -13.3177 -13.3047 -13.3031 -13.2948 -13.2930
   -13.2912 -13.2876 -13.2817 -13.2745  -6.8500  -6.0852  -5.3020  -3.7976
    -2.9041  -2.7590  -2.7223  -2.1844  -1.5891  -1.3721  -1.3641  -1.2242
    -1.1651  -1.1133  -0.9874  -0.7002  -0.5891  -0.5527  -0.4839  -0.3542
    -0.2005  -0.1403   0.0667   0.1067   0.1722   0.2963   0.3803   0.4229
     0.5728   0.6686   0.7718   0.8456   0.8585   1.3134   1.4368   1.4381
     1.5867   1.6146   1.7221   1.7557   1.8277   1.9623   1.9713   2.0684
     2.1307   2.3316   2.3957   2.5879   2.7536   2.7873   2.8554   3.2062
     3.6131   4.0706   4.2266   4.3437   4.8171   5.2168   5.3480   6.4654
     6.5949

     the Fermi energy is     0.9714 ev

!    total energy              =   -2836.03361814 Ry
     Harris-Foulkes estimate   =   -2836.03362415 Ry
     estimated scf accuracy    <       0.00000021 Ry

     The total energy is the sum of the following terms:

     one-electron contribution =  -22909.02010810 Ry
     hartree contribution      =   11450.56620295 Ry
     xc contribution           =    -359.01944561 Ry
     ewald contribution        =    8981.52334136 Ry
     electric field correction =       0.00000001 Ry
     smearing contrib. (-TS)   =      -0.08360874 Ry

     convergence has been achieved in  30 iterations

 BEEF-vdW xc energy contributions
           1 :   -315.204265867119
           2 :    285.132829611460
           3 :   -234.731500245459
           4 :    178.842955068822
           5 :   -130.901318189284
           6 :    97.9509999539769
           7 :   -79.4155852007135
           8 :    69.6064718672156
           9 :   -62.0292980850134
          10 :    52.9111969286721
          11 :   -42.2744324752322
          12 :    32.5547139688322
          13 :   -26.1496213827155
          14 :    23.6047249223706
          15 :   -23.4197149078199
          16 :    23.2705609245269
          17 :   -21.5989553848059
          18 :    18.4602914431467
          19 :   -15.1790721817256
          20 :    13.2072411801688
          21 :   -13.0621197165825
          22 :    14.0533868004557
          23 :   -14.8866063873062
          24 :    14.6155396283094
          25 :   -13.2390134546951
          26 :    11.5680714118964
          27 :   -10.5452426216199
          28 :    10.5575576815919
          29 :   -11.2258364691513
          30 :    11.7594428661305
          31 :   -27.7271191900772
          32 :   -19.6144272311867

     Forces acting on atoms (Ry/au):

     negative rho (up, down):  1.119E-02 0.000E+00
     atom    1 type  1   force =    -0.00000412   -0.01598751    0.02643679
     atom    2 type  1   force =    -0.01384950    0.00798514    0.02643700
     atom    3 type  1   force =     0.01383609    0.00798186    0.02643321
     atom    4 type  2   force =     0.00001856    0.00002767   -0.05956773
     atom    5 type  1   force =    -0.00000301    0.01869501   -0.00613248
     atom    6 type  1   force =     0.01619502   -0.00936317   -0.00613129
     atom    7 type  1   force =    -0.01620185   -0.00936363   -0.00613329
     atom    8 type  2   force =     0.00006599    0.00003331   -0.00414167
     atom    9 type  1   force =    -0.00002795   -0.00081763    0.00119396
     atom   10 type  1   force =    -0.00071227    0.00040100    0.00120067
     atom   11 type  1   force =     0.00068956    0.00042106    0.00119610
     atom   12 type  2   force =    -0.00000651   -0.00001310   -0.00079128

     Total force =     0.087165     Total SCF correction =     0.001603

     entering subroutine stress ...

     negative rho (up, down):  1.119E-02 0.000E+00
          total   stress  (Ry/bohr**3)                   (kbar)     P=  -19.88
  -0.00018571   0.00000001  -0.00000001        -27.32      0.00     -0.00
   0.00000001  -0.00018567   0.00000002          0.00    -27.31      0.00
  -0.00000001   0.00000002  -0.00003394         -0.00      0.00     -4.99

 !ASE

     Writing output data file calc.save

     General routines

     Parallel routines

   This run was terminated on:  12:30:59  25Dec2018

   JOB DONE.
Job  /afs/slac/g/suncat/bin/suncat-tsmpirun -x LD_LIBRARY_PATH -wdir /scratch/qe109504_DEwDr pw.x -in pw.inp

TID   HOST_NAME   COMMAND_LINE            STATUS            TERMINATION_TIME
00000 suncat0024 pw.x -in pw.inp   Done                     12/25/2018 12:30:59
00001 suncat0024 pw.x -in pw.inp   Done                     12/25/2018 12:30:59
00002 suncat0024 pw.x -in pw.inp   Done                     12/25/2018 12:30:59
00003 suncat0024 pw.x -in pw.inp   Done                     12/25/2018 12:30:59
00004 suncat0024 pw.x -in pw.inp   Done                     12/25/2018 12:30:59
00005 suncat0024 pw.x -in pw.inp   Done                     12/25/2018 12:30:59
00006 suncat0024 pw.x -in pw.inp   Done                     12/25/2018 12:30:59
00007 suncat0024 pw.x -in pw.inp   Done                     12/25/2018 12:30:59
00008 suncat0023 pw.x -in pw.inp   Done                     12/25/2018 12:30:59
00009 suncat0023 pw.x -in pw.inp   Done                     12/25/2018 12:30:59
00010 suncat0023 pw.x -in pw.inp   Done                     12/25/2018 12:30:59
00011 suncat0023 pw.x -in pw.inp   Done                     12/25/2018 12:30:59
00012 suncat0023 pw.x -in pw.inp   Done                     12/25/2018 12:30:59
00013 suncat0023 pw.x -in pw.inp   Done                     12/25/2018 12:30:59
00014 suncat0023 pw.x -in pw.inp   Done                     12/25/2018 12:30:59
00015 suncat0023 pw.x -in pw.inp   Done                     12/25/2018 12:30:59
00016 suncat0022 pw.x -in pw.inp   Done                     12/25/2018 12:30:59
00017 suncat0022 pw.x -in pw.inp   Done                     12/25/2018 12:30:59
00018 suncat0022 pw.x -in pw.inp   Done                     12/25/2018 12:30:59
00019 suncat0022 pw.x -in pw.inp   Done                     12/25/2018 12:30:59
00020 suncat0022 pw.x -in pw.inp   Done                     12/25/2018 12:30:59
00021 suncat0022 pw.x -in pw.inp   Done                     12/25/2018 12:30:59
00022 suncat0022 pw.x -in pw.inp   Done                     12/25/2018 12:30:59
00023 suncat0022 pw.x -in pw.inp   Done                     12/25/2018 12:30:59
00024 suncat0018 pw.x -in pw.inp   Done                     12/25/2018 12:30:59
00025 suncat0018 pw.x -in pw.inp   Done                     12/25/2018 12:30:59
00026 suncat0018 pw.x -in pw.inp   Done                     12/25/2018 12:30:59
00027 suncat0018 pw.x -in pw.inp   Done                     12/25/2018 12:30:59
00028 suncat0018 pw.x -in pw.inp   Done                     12/25/2018 12:30:59
00029 suncat0018 pw.x -in pw.inp   Done                     12/25/2018 12:30:59
00030 suncat0018 pw.x -in pw.inp   Done                     12/25/2018 12:30:59
00031 suncat0018 pw.x -in pw.inp   Done                     12/25/2018 12:30:59
00032 suncat0017 pw.x -in pw.inp   Done                     12/25/2018 12:30:59
00033 suncat0017 pw.x -in pw.inp   Done                     12/25/2018 12:30:59
00034 suncat0017 pw.x -in pw.inp   Done                     12/25/2018 12:30:59
00035 suncat0017 pw.x -in pw.inp   Done                     12/25/2018 12:30:59
00036 suncat0017 pw.x -in pw.inp   Done                     12/25/2018 12:30:59
00037 suncat0017 pw.x -in pw.inp   Done                     12/25/2018 12:30:59
00038 suncat0017 pw.x -in pw.inp   Done                     12/25/2018 12:30:59
00039 suncat0017 pw.x -in pw.inp   Done                     12/25/2018 12:30:59
00040 suncat0016 pw.x -in pw.inp   Done                     12/25/2018 12:30:59
00041 suncat0016 pw.x -in pw.inp   Done                     12/25/2018 12:30:59
00042 suncat0016 pw.x -in pw.inp   Done                     12/25/2018 12:30:59
00043 suncat0016 pw.x -in pw.inp   Done                     12/25/2018 12:30:59
00044 suncat0016 pw.x -in pw.inp   Done                     12/25/2018 12:30:59
00045 suncat0016 pw.x -in pw.inp   Done                     12/25/2018 12:30:59
00046 suncat0016 pw.x -in pw.inp   Done                     12/25/2018 12:30:59
00047 suncat0016 pw.x -in pw.inp   Done                     12/25/2018 12:30:59
00048 suncat0014 pw.x -in pw.inp   Done                     12/25/2018 12:30:59
00049 suncat0014 pw.x -in pw.inp   Done                     12/25/2018 12:30:59
00050 suncat0014 pw.x -in pw.inp   Done                     12/25/2018 12:30:59
00051 suncat0014 pw.x -in pw.inp   Done                     12/25/2018 12:30:59
00052 suncat0014 pw.x -in pw.inp   Done                     12/25/2018 12:30:59
00053 suncat0014 pw.x -in pw.inp   Done                     12/25/2018 12:30:59
00054 suncat0014 pw.x -in pw.inp   Done                     12/25/2018 12:30:59
00055 suncat0014 pw.x -in pw.inp   Done                     12/25/2018 12:30:59
00056 suncat0198 pw.x -in pw.inp   Done                     12/25/2018 12:30:59
00057 suncat0198 pw.x -in pw.inp   Done                     12/25/2018 12:30:59
00058 suncat0198 pw.x -in pw.inp   Done                     12/25/2018 12:30:59
00059 suncat0198 pw.x -in pw.inp   Done                     12/25/2018 12:30:59
00060 suncat0198 pw.x -in pw.inp   Done                     12/25/2018 12:30:59
00061 suncat0198 pw.x -in pw.inp   Done                     12/25/2018 12:30:59
00062 suncat0198 pw.x -in pw.inp   Done                     12/25/2018 12:30:59
00063 suncat0198 pw.x -in pw.inp   Done                     12/25/2018 12:30:59