     Program PWSCF v.5.1rc2 (svn rev. 11289) starts on  2Jan2019 at  1:50:25

     Current dimensions of program PWSCF are:
     Max number of different atomic species (ntypx) = 10
     Max number of k-points (npk) =  40000
     Max angular momentum in pseudopotentials (lmaxx) =  3
     Presently stress not available with electric field

     IMPORTANT: XC functional enforced from input :
     Exchange-correlation      = BEEF-VDW ( 1  4 27 13 2)
     Any further DFT definition will be discarded
     Please, verify this is what you really want

     Subspace diagonalization in iterative solution of the eigenvalue problem:
     a serial algorithm will be used

     bravais-lattice index     =            0
     lattice parameter (alat)  =       1.8897  a.u.
     unit-cell volume          =    6177.7793 (a.u.)^3
     number of atoms/cell      =           12
     number of atomic types    =            2
     number of electrons       =       165.00
     number of Kohn-Sham states=          112
     kinetic-energy cutoff     =      36.7493  Ry
     charge density cutoff     =     367.4932  Ry
     convergence threshold     =      1.0E-06
     mixing beta               =       0.1000
     number of iterations used =           10  plain     mixing
     Exchange-correlation      = BEEF-VDW ( 1  4 27 13 2)
     nstep                     =           50

     celldm(1)=   1.889726  celldm(2)=   0.000000  celldm(3)=   0.000000
     celldm(4)=   0.000000  celldm(5)=   0.000000  celldm(6)=   0.000000

     crystal axes: (cart. coord. in units of alat)
               a(1) = (   6.466444   0.000000   0.000000 )
               a(2) = (  -3.233222   5.600105   0.000000 )
               a(3) = (   0.000000   0.000000  25.279829 )

     reciprocal axes: (cart. coord. in units 2 pi/alat)
               b(1) = (  0.154645  0.089284  0.000000 )
               b(2) = (  0.000000  0.178568  0.000000 )
               b(3) = (  0.000000  0.000000  0.039557 )

     PseudoPot. # 1 for Tl read from file:
     /afs/slac.stanford.edu/u/if/mamunm/psp/gbrv1.5pbe/Tl.UPF
     MD5 check sum: b76cf1f7e72655a2b2c53cf6385d7059
     Pseudo is Ultrasoft + core correction, Zval = 13.0
     Generated by new atomic code, or converted to UPF format
     Using radial grid of  899 points,  6 beta functions with:
                l(1) =   0
                l(2) =   0
                l(3) =   1
                l(4) =   1
                l(5) =   2
                l(6) =   2
     Q(r) pseudized with  6 coefficients,  rinner =    1.100   1.100   1.100
                                                       1.100   1.100

     PseudoPot. # 2 for Os read from file:
     /afs/slac.stanford.edu/u/if/mamunm/psp/gbrv1.5pbe/Os.UPF
     MD5 check sum: a3fb40a04f0c37c25c34bbc47164c9a8
     Pseudo is Ultrasoft + core correction, Zval = 16.0
     Generated by new atomic code, or converted to UPF format
     Using radial grid of  983 points,  8 beta functions with:
                l(1) =   0
                l(2) =   0
                l(3) =   1
                l(4) =   1
                l(5) =   2
                l(6) =   2
                l(7) =   3
                l(8) =   3
     Q(r) pseudized with  8 coefficients,  rinner =    1.150   1.150   1.150
                                                       1.150   1.150   1.150
                                                       1.150

     vdW kernel table read from file vdW_kernel_table
     MD5 check sum: 095c7af220d748ca6e76c0b4c6cfb241

     atomic species   valence    mass     pseudopotential
        Tl1           13.00   204.38000     Tl( 1.00)
        Os1           16.00   190.23000     Os( 1.00)

     No symmetry found

   Cartesian axes

     site n.     atom                  positions (alat units)
         1           Tl1 tau(   1) = (   0.0000000   0.0000000  10.0000000  )
         2           Tl1 tau(   2) = (  -1.6166110   2.8000523  10.0000000  )
         3           Tl1 tau(   3) = (   1.6166110   2.8000523  10.0000000  )
         4           Os1 tau(   4) = (   3.2332219   0.0000000  10.0000000  )
         5           Tl1 tau(   5) = (   3.2332219   1.8667015  12.6399146  )
         6           Tl1 tau(   6) = (   1.6166110   4.6667539  12.6399146  )
         7           Tl1 tau(   7) = (  -1.6166110   4.6667539  12.6399146  )
         8           Os1 tau(   8) = (   0.0000000   1.8667015  12.6399146  )
         9           Tl1 tau(   9) = (  -0.0000000   3.7334031  15.2798293  )
        10           Tl1 tau(  10) = (   1.6166110   0.9333508  15.2798293  )
        11           Tl1 tau(  11) = (   4.8498329   0.9333508  15.2798293  )
        12           Os1 tau(  12) = (   3.2332219   3.7334031  15.2798293  )

     number of k points=    20  Fermi-Dirac smearing, width (Ry)=  0.0110
                       cart. coord. in units 2pi/alat
        k(    1) = (   0.0000000   0.0000000   0.0000000), wk =   0.0555556
        k(    2) = (   0.0000000   0.0297613   0.0000000), wk =   0.1111111
        k(    3) = (   0.0000000   0.0595227   0.0000000), wk =   0.1111111
        k(    4) = (   0.0000000  -0.0892840   0.0000000), wk =   0.0555556
        k(    5) = (   0.0257741   0.0148807   0.0000000), wk =   0.1111111
        k(    6) = (   0.0257741   0.0446420   0.0000000), wk =   0.1111111
        k(    7) = (   0.0257741   0.0744034   0.0000000), wk =   0.1111111
        k(    8) = (   0.0257741  -0.0744034   0.0000000), wk =   0.1111111
        k(    9) = (   0.0257741  -0.0446420   0.0000000), wk =   0.1111111
        k(   10) = (   0.0257741  -0.0148807   0.0000000), wk =   0.1111111
        k(   11) = (   0.0515482   0.0297613   0.0000000), wk =   0.1111111
        k(   12) = (   0.0515482   0.0595227   0.0000000), wk =   0.1111111
        k(   13) = (   0.0515482   0.0892840   0.0000000), wk =   0.1111111
        k(   14) = (   0.0515482  -0.0595227   0.0000000), wk =   0.1111111
        k(   15) = (   0.0515482  -0.0297613   0.0000000), wk =   0.1111111
        k(   16) = (   0.0515482   0.0000000   0.0000000), wk =   0.1111111
        k(   17) = (  -0.0773223  -0.0446420   0.0000000), wk =   0.0555556
        k(   18) = (  -0.0773223  -0.0148807   0.0000000), wk =   0.1111111
        k(   19) = (  -0.0773223   0.0148807   0.0000000), wk =   0.1111111
        k(   20) = (  -0.0773223  -0.1339261   0.0000000), wk =   0.0555556

     Largest allocated arrays     est. size (Mb)     dimensions
     Largest temporary arrays     est. size (Mb)     dimensions

     Check: negative/imaginary core charge=   -0.000001    0.000000

     Initial potential from superposition of free atoms
     Check: negative starting charge=   -0.830973

     starting charge  163.45610, renormalised to  165.00000

     negative rho (up, down):  8.388E-01 0.000E+00

     *
     * You are using vdW-DF for exchange-correlation in this calculation.
     * Please cite the following three references that made this development
     * possible:
     *
     *   M. Dion, H. Rydberg, E. Schroder, D. C. Langreth, and
     *   B. I. Lundqvist, Phys. Rev. Lett. 92, 246401 (2004).
     *
     *   T. Thonhauser, V. R. Cooper, S. Li, A. Puzder, P. Hyldgaard, and
     *   D. C. Langreth, Phys. Rev. B 76, 125112 (2007).
     *
     *   G. Roman-Perez and J. M. Soler, Phys. Rev. Lett. 103, 096102 (2009).
     *
     *
     * If you are using vdW-DF2, please also cite:
     *
     *   K. Lee, E. D. Murray, L. Kong, B. I. Lundqvist, and
     *   D. C. Langreth, Phys. Rev. B 82, 081101(R) (2010).
     *
     *
     * If you are calculating the stress with vdW-DF, please also cite:
     *
     *   R. Sabatini, E. Kucukbenli, B. Kolb, T. Thonhauser, and
     *   S. de Gironcoli, J. Phys.: Condens. Matter 24, 424209 (2012).
     *

     Carrying out vdW-DF run using the following parameters:

     Nqs =      20    Nr_points =    1024   r_max =   100.000
     q_mesh =
               0.00001000     0.04494208     0.09755937     0.15916263
               0.23128650     0.31572767     0.41458969     0.53033537
               0.66584808     0.82450364     1.01025438     1.22772762
               1.48234092     1.78043706     2.12944203     2.53805004
               3.01644009     3.57652955     4.23227104     5.00000000

     Gradients computed in reciprocal space

     Adding external electric field

     Computed dipole along edir(3) :
        Dipole                0.0000 Ry au,          0.0000 Debye
        Dipole field          0.0000 Ry au

        Potential amp.       -0.0000 Ry
        Total length         46.5777 bohr

     Starting wfc are  120 randomized atomic wfcs

     Self-consistent Calculation

     iteration #  1     ecut=    36.75 Ry     beta=0.10
     Davidson diagonalization with overlap
     ethr =  1.00E-02,  avg # of iterations =  8.2

[...]

     total energy              =   -1919.30408552 Ry
     Harris-Foulkes estimate   =   -1920.61243629 Ry
     estimated scf accuracy    <       7.32299349 Ry

[...]

     End of self-consistent calculation

          k = 0.0000 0.0000 0.0000 ( 23319 PWs)   bands (ev):

   -84.3467 -84.3467 -84.3199 -43.7095 -43.7095 -43.7095 -43.7095 -43.6793
   -43.6793 -43.5665 -43.5664 -43.5546 -11.3161 -11.1943 -11.1792 -11.1790
   -11.1594 -11.1398 -11.0172 -11.0172 -10.9536 -10.9536 -10.9244 -10.8567
   -10.8565 -10.8489 -10.7984 -10.7984 -10.7325 -10.6690 -10.6272 -10.6272
   -10.6259 -10.5404 -10.5402 -10.5330 -10.4802 -10.4799 -10.4343 -10.4343
   -10.4007 -10.4006 -10.3869 -10.3709 -10.3709 -10.3653 -10.3652 -10.3256
   -10.3256 -10.2067 -10.2067 -10.1598 -10.1515 -10.1515 -10.1310 -10.0365
   -10.0334  -8.7155  -7.2827  -5.3635  -4.2921  -4.2919  -3.6889  -3.6889
    -2.7977  -2.7976  -1.9930  -1.5274  -0.9729  -0.7118  -0.7118  -0.2652
     0.1353   0.1353   0.3835   0.5297   0.5297   0.5641   0.5642   0.7284
     0.7284   0.8406   0.9914   0.9914   1.0823   1.2072   1.2072   1.2991
     1.2991   1.3594   1.9544   1.9545   2.2448   2.5062   3.5511   4.5793
     4.8289   5.3289   5.3289   5.3831   5.3832   5.5788   5.7404   6.0786
     6.5000   6.7818   7.4599   7.4636   7.4637   7.7519   8.0825   8.0825

[...]

          k =-0.0773-0.0446 0.0000 ( 23236 PWs)   bands (ev):

[...]

     the Fermi energy is     0.9994 ev

!    total energy              =   -1919.72526587 Ry
     Harris-Foulkes estimate   =   -1919.72527218 Ry
     estimated scf accuracy    <       0.00000066 Ry

     The total energy is the sum of the following terms:

     one-electron contribution =  -10592.14777963 Ry
     hartree contribution      =    5353.03812481 Ry
     xc contribution           =    -692.03937953 Ry
     ewald contribution        =    4011.50954024 Ry
     electric field correction =       0.00000000 Ry
     smearing contrib. (-TS)   =      -0.08577175 Ry

     convergence has been achieved in  15 iterations

 BEEF-vdW xc energy contributions
           1 :   -614.773591909599
           2 :    570.378125027067
           3 :   -492.244460986594
           4 :    397.543403512078
           5 :   -304.012045318310
           6 :    224.660152589455
           7 :   -165.019178761188
           8 :    123.510966591899
           9 :   -94.2960963598632
          10 :    71.0111927011466
[...]
                l(2) =   0
                l(3) =   1
                l(4) =   1
                l(5) =   2
                l(6) =   2
     Q(r) pseudized with  6 coefficients,  rinner =    1.100   1.100   1.100
                                                       1.100   1.100

     PseudoPot. # 2 for Os read from file:
     /afs/slac.stanford.edu/u/if/mamunm/psp/gbrv1.5pbe/Os.UPF
     MD5 check sum: a3fb40a04f0c37c25c34bbc47164c9a8
     Pseudo is Ultrasoft + core correction, Zval = 16.0
     Generated by new atomic code, or converted to UPF format
     Using radial grid of  983 points,  8 beta functions with:
                l(1) =   0
                l(2) =   0
                l(3) =   1
                l(4) =   1
                l(5) =   2
                l(6) =   2
                l(7) =   3
                l(8) =   3
     Q(r) pseudized with  8 coefficients,  rinner =    1.150   1.150   1.150
                                                       1.150   1.150   1.150
                                                       1.150

     vdW kernel table read from file vdW_kernel_table
     MD5 check sum: 095c7af220d748ca6e76c0b4c6cfb241

     atomic species   valence    mass     pseudopotential
        Tl1           13.00   204.38000     Tl( 1.00)
        Os1           16.00   190.23000     Os( 1.00)

     No symmetry found

   Cartesian axes

     site n.     atom                  positions (alat units)
         1           Tl1 tau(   1) = (   0.0000000   0.0000000  10.0000000  )
         2           Tl1 tau(   2) = (  -1.6166110   2.8000523  10.0000000  )
         3           Tl1 tau(   3) = (   1.6166110   2.8000523  10.0000000  )
         4           Os1 tau(   4) = (   3.2332219   0.0000000  10.0000000  )
         5           Tl1 tau(   5) = (   3.2332219   1.8667015  12.6399146  )
         6           Tl1 tau(   6) = (   1.6166110   4.6667539  12.6399146  )
         7           Tl1 tau(   7) = (  -1.6166110   4.6667539  12.6399146  )
         8           Os1 tau(   8) = (   0.0000000   1.8667015  12.6399146  )
         9           Tl1 tau(   9) = (   0.0000021   3.7013902  15.5290207  )
        10           Tl1 tau(  10) = (   1.5890273   0.9493607  15.5296577  )
        11           Tl1 tau(  11) = (   4.8774991   0.9493401  15.5296205  )
        12           Os1 tau(  12) = (   3.2332342   3.7333994  14.7319178  )

     number of k points=    20  Fermi-Dirac smearing, width (Ry)=  0.0110
                       cart. coord. in units 2pi/alat
        k(    1) = (   0.0000000   0.0000000   0.0000000), wk =   0.0555556
        k(    2) = (   0.0000000   0.0297613   0.0000000), wk =   0.1111111
        k(    3) = (   0.0000000   0.0595227   0.0000000), wk =   0.1111111
        k(    4) = (   0.0000000  -0.0892840   0.0000000), wk =   0.0555556
        k(    5) = (   0.0257741   0.0148807   0.0000000), wk =   0.1111111
        k(    6) = (   0.0257741   0.0446420   0.0000000), wk =   0.1111111
        k(    7) = (   0.0257741   0.0744034   0.0000000), wk =   0.1111111
        k(    8) = (   0.0257741  -0.0744034   0.0000000), wk =   0.1111111
        k(    9) = (   0.0257741  -0.0446420   0.0000000), wk =   0.1111111
        k(   10) = (   0.0257741  -0.0148807   0.0000000), wk =   0.1111111
        k(   11) = (   0.0515482   0.0297613   0.0000000), wk =   0.1111111
        k(   12) = (   0.0515482   0.0595227   0.0000000), wk =   0.1111111
        k(   13) = (   0.0515482   0.0892840   0.0000000), wk =   0.1111111
        k(   14) = (   0.0515482  -0.0595227   0.0000000), wk =   0.1111111
        k(   15) = (   0.0515482  -0.0297613   0.0000000), wk =   0.1111111
        k(   16) = (   0.0515482   0.0000000   0.0000000), wk =   0.1111111
        k(   17) = (  -0.0773223  -0.0446420   0.0000000), wk =   0.0555556
        k(   18) = (  -0.0773223  -0.0148807   0.0000000), wk =   0.1111111
        k(   19) = (  -0.0773223   0.0148807   0.0000000), wk =   0.1111111
        k(   20) = (  -0.0773223  -0.1339261   0.0000000), wk =   0.0555556

     Largest allocated arrays     est. size (Mb)     dimensions
     Largest temporary arrays     est. size (Mb)     dimensions

     Check: negative/imaginary core charge=   -0.000001    0.000000

     Initial potential from superposition of free atoms
     Check: negative starting charge=   -0.830264

     starting charge  163.45610, renormalised to  165.00000

[...]

     *
     * You are using vdW-DF for exchange-correlation in this calculation.
     * Please cite the following three references that made this development
     * possible:
     *
     *   M. Dion, H. Rydberg, E. Schroder, D. C. Langreth, and
     *   B. I. Lundqvist, Phys. Rev. Lett. 92, 246401 (2004).
     *
     *   T. Thonhauser, V. R. Cooper, S. Li, A. Puzder, P. Hyldgaard, and
     *   D. C. Langreth, Phys. Rev. B 76, 125112 (2007).
     *
     *   G. Roman-Perez and J. M. Soler, Phys. Rev. Lett. 103, 096102 (2009).
     *
     *
     * If you are using vdW-DF2, please also cite:
     *
     *   K. Lee, E. D. Murray, L. Kong, B. I. Lundqvist, and
     *   D. C. Langreth, Phys. Rev. B 82, 081101(R) (2010).
     *
     *
     * If you are calculating the stress with vdW-DF, please also cite:
     *
     *   R. Sabatini, E. Kucukbenli, B. Kolb, T. Thonhauser, and
     *   S. de Gironcoli, J. Phys.: Condens. Matter 24, 424209 (2012).
     *

     Carrying out vdW-DF run using the following parameters:

     Nqs =      20    Nr_points =    1024   r_max =   100.000
     q_mesh =
               0.00001000     0.04494208     0.09755937     0.15916263
               0.23128650     0.31572767     0.41458969     0.53033537
               0.66584808     0.82450364     1.01025438     1.22772762
               1.48234092     1.78043706     2.12944203     2.53805004
               3.01644009     3.57652955     4.23227104     5.00000000

     Gradients computed in reciprocal space

[...]

     Starting wfc are  120 randomized atomic wfcs

     Self-consistent Calculation

[...]

     iteration # 14     ecut=    36.75 Ry     beta=0.10
     Davidson diagonalization with overlap
     c_bands:  1 eigenvalues not converged
     ethr =  1.41E-06,  avg # of iterations =  3.0

[...]

     total energy              =   -1919.77516836 Ry
     Harris-Foulkes estimate   =   -1919.77516768 Ry
     estimated scf accuracy    <       0.00000189 Ry

     iteration # 19     ecut=    36.75 Ry     beta=0.10
     Davidson diagonalization with overlap
     ethr =  1.14E-09,  avg # of iterations =  3.0

[...]

     negative rho (up, down):  8.258E-01 0.000E+00

     Adding external electric field

     Computed dipole along edir(3) :
        Dipole                0.1670 Ry au,          0.4246 Debye
        Dipole field          0.0003 Ry au

        Potential amp.       -0.0317 Ry
        Total length         46.5777 bohr

     End of self-consistent calculation

[...]

          k = 0.0515 0.0000 0.0000 ( 23228 PWs)   bands (ev):

[...]

          k =-0.0773-0.1339 0.0000 ( 23236 PWs)   bands (ev):

   -84.2798 -84.2490 -84.1223 -43.6280 -43.6279 -43.5948 -43.5834 -43.5834
   -43.5200 -43.4799 -43.4798 -43.3581 -11.0275 -10.9165 -10.8904 -10.8572
   -10.8307 -10.7876 -10.7440 -10.7161 -10.7046 -10.6777 -10.6471 -10.6276
   -10.5957 -10.5756 -10.5689 -10.5347 -10.5314 -10.4868 -10.4716 -10.4710
   -10.4649 -10.4569 -10.4147 -10.4110 -10.4037 -10.3951 -10.3668 -10.3617
   -10.3547 -10.3545 -10.3449 -10.3447 -10.3230 -10.3222 -10.2987 -10.2966
   -10.2661 -10.2583 -10.2314 -10.2156 -10.1991 -10.1586 -10.0997 -10.0412
   -10.0013  -7.3759  -6.9487  -5.8733  -5.6668  -4.8916  -4.6061  -4.2680
    -3.4834  -2.4888  -2.2516  -1.5585  -0.7598  -0.4123  -0.2870  -0.2264
    -0.1192  -0.0637   0.1792   0.3305   0.5170   0.5635   0.8346   0.8741
     1.0026   1.1369   1.1683   1.5166   1.6665   1.9766   2.6261   2.7830
     2.8450   3.0143   3.5963   3.7309   3.8297   4.2192   4.2211   4.4237
     4.8722   5.2628   5.4502   5.5840   5.6949   5.7338   5.7741   5.9386
     6.0145   6.5250   6.5305   6.6015   6.7731   6.9575   6.9595   7.1401

     the Fermi energy is     1.1376 ev

!    total energy              =   -1919.77516178 Ry
     Harris-Foulkes estimate   =   -1919.77516933 Ry
     estimated scf accuracy    <       0.00000048 Ry

     The total energy is the sum of the following terms:

     one-electron contribution =  -10542.14031462 Ry
     hartree contribution      =    5328.74259060 Ry
     xc contribution           =    -692.05925983 Ry
     ewald contribution        =    3985.76086482 Ry
     electric field correction =       0.00005676 Ry
     smearing contrib. (-TS)   =      -0.07909951 Ry

     convergence has been achieved in  19 iterations

 BEEF-vdW xc energy contributions
           1 :   -614.942887341049
           2 :    570.531280992644
           3 :   -492.389037428892
           4 :    397.707818308911
           5 :   -304.215052905749
           6 :    224.879361834648
           7 :   -165.189164497246
           8 :    123.560101563167
           9 :   -94.2011933600004
          10 :    70.8323485059741
          11 :   -49.5495902473185
          12 :    29.7516990196704
          13 :   -13.1596139400906
          14 :    1.84914775454854
          15 :    3.46114794318567
          16 :   -4.02071493126959
          17 :    2.42401170246490
          18 :   -1.29702779986417
          19 :    2.09375423018162
          20 :   -4.64234788294186
          21 :    7.59222155200428
          22 :   -9.42065420517883
          23 :    9.37682993276837
          24 :   -7.84972821157487
          25 :    6.01795280064061
          26 :   -5.06946580228157
          27 :    5.48725570204942
          28 :   -6.81616560179737
          29 :    8.00549560682464
          30 :   -8.08554395922647
          31 :   -50.7632370878624
          32 :   -37.3476648124184

     Forces acting on atoms (Ry/au):

     negative rho (up, down):  8.258E-01 0.000E+00
     atom    1 type  1   force =     0.00000546    0.01904242   -0.02150444
     atom    2 type  1   force =     0.01651500   -0.00951456   -0.02144366
     atom    3 type  1   force =    -0.01651221   -0.00952318   -0.02144108
     atom    4 type  2   force =     0.00000284    0.00000350    0.06022563
     atom    5 type  1   force =    -0.00000945   -0.02373246    0.00131803
     atom    6 type  1   force =    -0.02056748    0.01185731    0.00129298
     atom    7 type  1   force =     0.02056689    0.01187209    0.00129518
     atom    8 type  2   force =    -0.00000656   -0.00000986   -0.00121201
     atom    9 type  1   force =     0.00000412   -0.00067251    0.00004971
     atom   10 type  1   force =    -0.00061265    0.00034100    0.00000481
     atom   11 type  1   force =     0.00061417    0.00032926    0.00000540
     atom   12 type  2   force =    -0.00000012    0.00000699    0.00140945

     Total force =     0.088313     Total SCF correction =     0.002417

     entering subroutine stress ...

     negative rho (up, down):  8.258E-01 0.000E+00
          total   stress  (Ry/bohr**3)                   (kbar)     P=   -9.77
  -0.00008153  -0.00000000  -0.00000000        -11.99     -0.00     -0.00
  -0.00000000  -0.00008153  -0.00000001         -0.00    -11.99     -0.00
  -0.00000000  -0.00000001  -0.00003619         -0.00     -0.00     -5.32

 !ASE

     Writing output data file calc.save

     General routines

     Parallel routines

   This run was terminated on:  17:47:47   2Jan2019

   JOB DONE.
Job  /afs/slac/g/suncat/bin/suncat-tsmpirun -x LD_LIBRARY_PATH -wdir /scratch/qe649265_vgWVg pw.x -in pw.inp

TID   HOST_NAME   COMMAND_LINE            STATUS            TERMINATION_TIME
00000 suncat0010 pw.x -in pw.inp   Done                     01/02/2019 17:47:47
00001 suncat0010 pw.x -in pw.inp   Done                     01/02/2019 17:47:47
00002 suncat0010 pw.x -in pw.inp   Done                     01/02/2019 17:47:47
00003 suncat0010 pw.x -in pw.inp   Done                     01/02/2019 17:47:47
00004 suncat0010 pw.x -in pw.inp   Done                     01/02/2019 17:47:47
00005 suncat0010 pw.x -in pw.inp   Done                     01/02/2019 17:47:47
00006 suncat0010 pw.x -in pw.inp   Done                     01/02/2019 17:47:47
00007 suncat0010 pw.x -in pw.inp   Done                     01/02/2019 17:47:47
00008 suncat0191 pw.x -in pw.inp   Done                     01/02/2019 17:47:47
00009 suncat0191 pw.x -in pw.inp   Done                     01/02/2019 17:47:47
00010 suncat0191 pw.x -in pw.inp   Done                     01/02/2019 17:47:47
00011 suncat0191 pw.x -in pw.inp   Done                     01/02/2019 17:47:47
00012 suncat0191 pw.x -in pw.inp   Done                     01/02/2019 17:47:47
00013 suncat0191 pw.x -in pw.inp   Done                     01/02/2019 17:47:47
00014 suncat0191 pw.x -in pw.inp   Done                     01/02/2019 17:47:47
00015 suncat0191 pw.x -in pw.inp   Done                     01/02/2019 17:47:47
00016 suncat0007 pw.x -in pw.inp   Done                     01/02/2019 17:47:47
00017 suncat0007 pw.x -in pw.inp   Done                     01/02/2019 17:47:47
00018 suncat0007 pw.x -in pw.inp   Done                     01/02/2019 17:47:47
00019 suncat0007 pw.x -in pw.inp   Done                     01/02/2019 17:47:47
00020 suncat0007 pw.x -in pw.inp   Done                     01/02/2019 17:47:47
00021 suncat0007 pw.x -in pw.inp   Done                     01/02/2019 17:47:47
00022 suncat0007 pw.x -in pw.inp   Done                     01/02/2019 17:47:47
00023 suncat0007 pw.x -in pw.inp   Done                     01/02/2019 17:47:47
00024 suncat0180 pw.x -in pw.inp   Done                     01/02/2019 17:47:47
00025 suncat0180 pw.x -in pw.inp   Done                     01/02/2019 17:47:47
00026 suncat0180 pw.x -in pw.inp   Done                     01/02/2019 17:47:47
00027 suncat0180 pw.x -in pw.inp   Done                     01/02/2019 17:47:47
00028 suncat0180 pw.x -in pw.inp   Done                     01/02/2019 17:47:47
00029 suncat0180 pw.x -in pw.inp   Done                     01/02/2019 17:47:47
00030 suncat0180 pw.x -in pw.inp   Done                     01/02/2019 17:47:47
00031 suncat0180 pw.x -in pw.inp   Done                     01/02/2019 17:47:47
00032 suncat0167 pw.x -in pw.inp   Done                     01/02/2019 17:47:47
00033 suncat0167 pw.x -in pw.inp   Done                     01/02/2019 17:47:47
00034 suncat0167 pw.x -in pw.inp   Done                     01/02/2019 17:47:47
00035 suncat0167 pw.x -in pw.inp   Done                     01/02/2019 17:47:47
00036 suncat0167 pw.x -in pw.inp   Done                     01/02/2019 17:47:47
00037 suncat0167 pw.x -in pw.inp   Done                     01/02/2019 17:47:47
00038 suncat0167 pw.x -in pw.inp   Done                     01/02/2019 17:47:47
00039 suncat0167 pw.x -in pw.inp   Done                     01/02/2019 17:47:47
00040 suncat0161 pw.x -in pw.inp   Done                     01/02/2019 17:47:47
00041 suncat0161 pw.x -in pw.inp   Done                     01/02/2019 17:47:47
00042 suncat0161 pw.x -in pw.inp   Done                     01/02/2019 17:47:47
00043 suncat0161 pw.x -in pw.inp   Done                     01/02/2019 17:47:47
00044 suncat0161 pw.x -in pw.inp   Done                     01/02/2019 17:47:47
00045 suncat0161 pw.x -in pw.inp   Done                     01/02/2019 17:47:47
00046 suncat0161 pw.x -in pw.inp   Done                     01/02/2019 17:47:47
00047 suncat0161 pw.x -in pw.inp   Done                     01/02/2019 17:47:47
00048 suncat0137 pw.x -in pw.inp   Done                     01/02/2019 17:47:47
00049 suncat0137 pw.x -in pw.inp   Done                     01/02/2019 17:47:47
00050 suncat0137 pw.x -in pw.inp   Done                     01/02/2019 17:47:47
00051 suncat0137 pw.x -in pw.inp   Done                     01/02/2019 17:47:47
00052 suncat0137 pw.x -in pw.inp   Done                     01/02/2019 17:47:47
00053 suncat0137 pw.x -in pw.inp   Done                     01/02/2019 17:47:47
00054 suncat0137 pw.x -in pw.inp   Done                     01/02/2019 17:47:47
00055 suncat0137 pw.x -in pw.inp   Done                     01/02/2019 17:47:47
00056 suncat0100 pw.x -in pw.inp   Done                     01/02/2019 17:47:47
00057 suncat0100 pw.x -in pw.inp   Done                     01/02/2019 17:47:47
00058 suncat0100 pw.x -in pw.inp   Done                     01/02/2019 17:47:47
00059 suncat0100 pw.x -in pw.inp   Done                     01/02/2019 17:47:47
00060 suncat0100 pw.x -in pw.inp   Done                     01/02/2019 17:47:47
00061 suncat0100 pw.x -in pw.inp   Done                     01/02/2019 17:47:47
00062 suncat0100 pw.x -in pw.inp   Done                     01/02/2019 17:47:47
00063 suncat0100 pw.x -in pw.inp   Done                     01/02/2019 17:47:47