     Program PWSCF v.5.1rc2 (svn rev. 11289) starts on 27Dec2018 at  4:18:49

     Current dimensions of program PWSCF are:
     Max number of different atomic species (ntypx) = 10
     Max number of k-points (npk) =  40000
     Max angular momentum in pseudopotentials (lmaxx) =  3
     Presently stress not available with electric field

     IMPORTANT: XC functional enforced from input :
     Exchange-correlation      = BEEF-VDW ( 1  4 27 13 2)
     Any further DFT definition will be discarded
     Please, verify this is what you really want

     Subspace diagonalization in iterative solution of the eigenvalue problem:
     a serial algorithm will be used

     bravais-lattice index     =            0
     lattice parameter (alat)  =       1.8897  a.u.
     unit-cell volume          =    4778.3177 (a.u.)^3
     number of atoms/cell      =           12
     number of atomic types    =            2
     number of electrons       =       165.00
     number of Kohn-Sham states=          112
     kinetic-energy cutoff     =      36.7493  Ry
     charge density cutoff     =     367.4932  Ry
     convergence threshold     =      1.0E-06
     mixing beta               =       0.1000
     number of iterations used =           10  plain     mixing
     Exchange-correlation      = BEEF-VDW ( 1  4 27 13 2)
     nstep                     =           50

     celldm(1)=   1.889726  celldm(2)=   0.000000  celldm(3)=   0.000000
     celldm(4)=   0.000000  celldm(5)=   0.000000  celldm(6)=   0.000000

     crystal axes: (cart. coord. in units of alat)
               a(1) = (   5.753662   0.000000   0.000000 )
               a(2) = (  -2.876831   4.982818   0.000000 )
               a(3) = (   0.000000   0.000000  24.697845 )

     reciprocal axes: (cart. coord. in units 2 pi/alat)
               b(1) = (  0.173802  0.100345  0.000000 )
               b(2) = (  0.000000  0.200690  0.000000 )
               b(3) = (  0.000000  0.000000  0.040489 )

     PseudoPot. # 1 for Mo read from file:
     /afs/slac.stanford.edu/u/if/mamunm/psp/gbrv1.5pbe/Mo.UPF
     MD5 check sum: 30c4dcd161f5d35cd49bb5239c51a633
     Pseudo is Ultrasoft + core correction, Zval = 14.0
     Generated by new atomic code, or converted to UPF format
     Using radial grid of  889 points,  6 beta functions with:
                l(1) =   0
                l(2) =   0
                l(3) =   1
                l(4) =   1
                l(5) =   2
                l(6) =   2
     Q(r) pseudized with  6 coefficients,  rinner =    1.000   1.000   1.000
                                                       1.000   1.000

     PseudoPot. # 2 for Ta read from file:
     /afs/slac.stanford.edu/u/if/mamunm/psp/gbrv1.5pbe/Ta.UPF
     MD5 check sum: f8bbe9446314a3b8ea5d9f3e3836c939
     Pseudo is Ultrasoft + core correction, Zval = 13.0
     Generated by new atomic code, or converted to UPF format
     Using radial grid of  921 points,  7 beta functions with:
                l(1) =   0
                l(2) =   0
                l(3) =   1
                l(4) =   1
                l(5) =   2
                l(6) =   2
                l(7) =   3
     Q(r) pseudized with  6 coefficients,  rinner =    1.300   1.300   1.300
                                                       1.300   1.300   1.300
                                                       1.300

     vdW kernel table read from file vdW_kernel_table
     MD5 check sum: 095c7af220d748ca6e76c0b4c6cfb241

     atomic species   valence    mass     pseudopotential
        Mo1           14.00    95.95000     Mo( 1.00)
        Ta1           13.00   180.94788     Ta( 1.00)

     No symmetry found

   Cartesian axes

     site n.     atom                  positions (alat units)
         1           Mo1 tau(   1) = (   0.0000000   0.0000000  10.0000000  )
         2           Mo1 tau(   2) = (  -1.4384155   2.4914088  10.0000000  )
         3           Mo1 tau(   3) = (   1.4384155   2.4914088  10.0000000  )
         4           Ta1 tau(   4) = (   2.8768311   0.0000000  10.0000000  )
         5           Mo1 tau(   5) = (   2.8768311   1.6609392  12.3489227  )
         6           Mo1 tau(   6) = (   1.4384155   4.1523480  12.3489227  )
         7           Mo1 tau(   7) = (  -1.4384155   4.1523480  12.3489227  )
         8           Ta1 tau(   8) = (   0.0000000   1.6609392  12.3489227  )
         9           Mo1 tau(   9) = (  -0.0000000   3.3218784  14.6978455  )
        10           Mo1 tau(  10) = (   1.4384155   0.8304696  14.6978455  )
        11           Mo1 tau(  11) = (   4.3152466   0.8304696  14.6978455  )
        12           Ta1 tau(  12) = (   2.8768311   3.3218784  14.6978455  )

     number of k points=    20  Fermi-Dirac smearing, width (Ry)=  0.0110
                       cart. coord. in units 2pi/alat
        k(    1) = (   0.0000000   0.0000000   0.0000000), wk =   0.0555556
        k(    2) = (   0.0000000   0.0334483   0.0000000), wk =   0.1111111
        k(    3) = (   0.0000000   0.0668966   0.0000000), wk =   0.1111111
        k(    4) = (   0.0000000  -0.1003448   0.0000000), wk =   0.0555556
        k(    5) = (   0.0289671   0.0167241   0.0000000), wk =   0.1111111
        k(    6) = (   0.0289671   0.0501724   0.0000000), wk =   0.1111111
        k(    7) = (   0.0289671   0.0836207   0.0000000), wk =   0.1111111
        k(    8) = (   0.0289671  -0.0836207   0.0000000), wk =   0.1111111
        k(    9) = (   0.0289671  -0.0501724   0.0000000), wk =   0.1111111
        k(   10) = (   0.0289671  -0.0167241   0.0000000), wk =   0.1111111
        k(   11) = (   0.0579341   0.0334483   0.0000000), wk =   0.1111111
        k(   12) = (   0.0579341   0.0668966   0.0000000), wk =   0.1111111
        k(   13) = (   0.0579341   0.1003448   0.0000000), wk =   0.1111111
        k(   14) = (   0.0579341  -0.0668966   0.0000000), wk =   0.1111111
        k(   15) = (   0.0579341  -0.0334483   0.0000000), wk =   0.1111111
        k(   16) = (   0.0579341   0.0000000   0.0000000), wk =   0.1111111
        k(   17) = (  -0.0869012  -0.0501724   0.0000000), wk =   0.0555556
        k(   18) = (  -0.0869012  -0.0167241   0.0000000), wk =   0.1111111
        k(   19) = (  -0.0869012   0.0167241   0.0000000), wk =   0.1111111
        k(   20) = (  -0.0869012  -0.1505172   0.0000000), wk =   0.0555556

     Largest allocated arrays     est. size (Mb)     dimensions
     Largest temporary arrays     est. size (Mb)     dimensions

     Initial potential from superposition of free atoms
     Check: negative starting charge=   -0.283371

     starting charge  164.98709, renormalised to  165.00000

     negative rho (up, down):  2.834E-01 0.000E+00

     *
     * You are using vdW-DF for exchange-correlation in this calculation.
     * Please cite the following three references that made this development
     * possible:
     *
     *   M. Dion, H. Rydberg, E. Schroder, D. C. Langreth, and
     *   B. I. Lundqvist, Phys. Rev. Lett. 92, 246401 (2004).
     *
     *   T. Thonhauser, V. R. Cooper, S. Li, A. Puzder, P. Hyldgaard, and
     *   D. C. Langreth, Phys. Rev. B 76, 125112 (2007).
     *
     *   G. Roman-Perez and J. M. Soler, Phys. Rev. Lett. 103, 096102 (2009).
     *
     *
     * If you are using vdW-DF2, please also cite:
     *
     *   K. Lee, E. D. Murray, L. Kong, B. I. Lundqvist, and
     *   D. C. Langreth, Phys. Rev. B 82, 081101(R) (2010).
     *
     *
     * If you are calculating the stress with vdW-DF, please also cite:
     *
     *   R. Sabatini, E. Kucukbenli, B. Kolb, T. Thonhauser, and
     *   S. de Gironcoli, J. Phys.: Condens. Matter 24, 424209 (2012).
     *

     Carrying out vdW-DF run using the following parameters:

     Nqs =      20    Nr_points =    1024   r_max =   100.000
     q_mesh =
               0.00001000     0.04494208     0.09755937     0.15916263
               0.23128650     0.31572767     0.41458969     0.53033537
               0.66584808     0.82450364     1.01025438     1.22772762
               1.48234092     1.78043706     2.12944203     2.53805004
               3.01644009     3.57652955     4.23227104     5.00000000

     Gradients computed in reciprocal space

     Adding external electric field

     Computed dipole along edir(3) :
        Dipole               -0.0000 Ry au,         -0.0000 Debye
        Dipole field         -0.0000 Ry au

        Potential amp.        0.0000 Ry
        Total length         45.5054 bohr

     Starting wfc are  156 randomized atomic wfcs

     Self-consistent Calculation

     iteration #  1     ecut=    36.75 Ry     beta=0.10
     Davidson diagonalization with overlap
     ethr =  1.00E-02,  avg # of iterations =  2.0

[...]

     total energy              =   -1688.31947189 Ry
     Harris-Foulkes estimate   =   -1689.61160772 Ry
     estimated scf accuracy    <       7.23925106 Ry

[...]

     End of self-consistent calculation

          k = 0.0000 0.0000 0.0000 ( 18043 PWs)   bands (ev):

   -66.1864 -66.1863 -65.9620 -58.8680 -58.7684 -58.7684 -58.7528 -58.7373
   -58.6645 -58.6645 -58.6604 -58.6604 -33.3588 -33.2792 -33.2792 -33.2540
   -33.1992 -33.1992 -33.1942 -33.1508 -33.0922 -33.0922 -32.8592 -32.7604
   -32.7604 -32.7527 -32.7527 -32.6768 -32.6634 -32.6061 -32.5882 -32.5882
   -32.5685 -32.5685 -32.4964 -32.4582 -32.4582 -32.4543 -32.4479 -32.4479
   -32.4226 -32.1924 -32.1811 -32.1811 -32.1704 -32.1704 -32.0951 -32.0951
    -4.2819  -2.8558  -2.4895  -2.1198  -2.0704  -2.0704  -1.8885  -1.6589
    -1.6589  -1.3836  -1.3727  -1.3727  -1.3042  -1.1584  -1.1584  -0.0650
    -0.0070  -0.0070   0.9444   0.9444   0.9793   0.9848   1.2864   1.6970
     1.6970   1.8080   1.9335   1.9335   1.9559   2.0191   2.0191   2.1455
     2.1455   2.1602   2.1602   2.3038   3.0151   3.0797   3.0797   3.3215
     3.3956   3.6210   3.6210   4.0260   4.0260   4.4046   4.4046   4.5744
     4.6184   4.6184   4.8566   4.8566   5.0299   5.1660   5.8039   5.8145
     5.8145   6.0016   6.0268   6.0268   6.0934   6.1096   6.2974   6.6428

[...]

          k =-0.0869-0.0502 0.0000 ( 17948 PWs)   bands (ev):

[...]

     the Fermi energy is     2.1172 ev

!    total energy              =   -1688.94705506 Ry
     Harris-Foulkes estimate   =   -1688.94705500 Ry
     estimated scf accuracy    <       0.00000034 Ry

     The total energy is the sum of the following terms:

     one-electron contribution =  -13900.62636314 Ry
     hartree contribution      =    6940.81996288 Ry
     xc contribution           =    -310.49305585 Ry
     ewald contribution        =    5581.46298732 Ry
     electric field correction =       0.00000000 Ry
     smearing contrib. (-TS)   =      -0.11058626 Ry

     convergence has been achieved in  17 iterations

 BEEF-vdW xc energy contributions
           1 :   -269.419207136822
           2 :    247.180646738422
           3 :   -208.791196152745
           4 :    163.928064688510
           5 :   -122.311912528416
           6 :    90.5919281122690
           7 :   -70.8609713689041
           8 :    61.0870876398856
           9 :   -56.9611770292657
          10 :    54.1304062872196
          11 :   -49.8605822124984
          12 :    43.5828312501546
[...]
     MD5 check sum: 30c4dcd161f5d35cd49bb5239c51a633
     Pseudo is Ultrasoft + core correction, Zval = 14.0
     Generated by new atomic code, or converted to UPF format
     Using radial grid of  889 points,  6 beta functions with:
                l(1) =   0
                l(2) =   0
                l(3) =   1
                l(4) =   1
                l(5) =   2
                l(6) =   2
     Q(r) pseudized with  6 coefficients,  rinner =    1.000   1.000   1.000
                                                       1.000   1.000

     PseudoPot. # 2 for Ta read from file:
     /afs/slac.stanford.edu/u/if/mamunm/psp/gbrv1.5pbe/Ta.UPF
     MD5 check sum: f8bbe9446314a3b8ea5d9f3e3836c939
     Pseudo is Ultrasoft + core correction, Zval = 13.0
     Generated by new atomic code, or converted to UPF format
     Using radial grid of  921 points,  7 beta functions with:
                l(1) =   0
                l(2) =   0
                l(3) =   1
                l(4) =   1
                l(5) =   2
                l(6) =   2
                l(7) =   3
     Q(r) pseudized with  6 coefficients,  rinner =    1.300   1.300   1.300
                                                       1.300   1.300   1.300
                                                       1.300

     vdW kernel table read from file vdW_kernel_table
     MD5 check sum: 095c7af220d748ca6e76c0b4c6cfb241

     atomic species   valence    mass     pseudopotential
        Mo1           14.00    95.95000     Mo( 1.00)
        Ta1           13.00   180.94788     Ta( 1.00)

     No symmetry found

   Cartesian axes

     site n.     atom                  positions (alat units)
         1           Mo1 tau(   1) = (   0.0000000   0.0000000  10.0000000  )
         2           Mo1 tau(   2) = (  -1.4384155   2.4914088  10.0000000  )
         3           Mo1 tau(   3) = (   1.4384155   2.4914088  10.0000000  )
         4           Ta1 tau(   4) = (   2.8768311   0.0000000  10.0000000  )
         5           Mo1 tau(   5) = (   2.8768311   1.6609392  12.3489227  )
         6           Mo1 tau(   6) = (   1.4384155   4.1523480  12.3489227  )
         7           Mo1 tau(   7) = (  -1.4384155   4.1523480  12.3489227  )
         8           Ta1 tau(   8) = (   0.0000000   1.6609392  12.3489227  )
         9           Mo1 tau(   9) = (   0.0000009   3.3610199  14.6910232  )
        10           Mo1 tau(  10) = (   1.4723105   0.8108987  14.6910209  )
        11           Mo1 tau(  11) = (   4.2813494   0.8108969  14.6910235  )
        12           Ta1 tau(  12) = (   2.8768308   3.3218783  14.7605570  )

     number of k points=    20  Fermi-Dirac smearing, width (Ry)=  0.0110
                       cart. coord. in units 2pi/alat
        k(    1) = (   0.0000000   0.0000000   0.0000000), wk =   0.0555556
        k(    2) = (   0.0000000   0.0334483   0.0000000), wk =   0.1111111
        k(    3) = (   0.0000000   0.0668966   0.0000000), wk =   0.1111111
        k(    4) = (   0.0000000  -0.1003448   0.0000000), wk =   0.0555556
        k(    5) = (   0.0289671   0.0167241   0.0000000), wk =   0.1111111
        k(    6) = (   0.0289671   0.0501724   0.0000000), wk =   0.1111111
        k(    7) = (   0.0289671   0.0836207   0.0000000), wk =   0.1111111
        k(    8) = (   0.0289671  -0.0836207   0.0000000), wk =   0.1111111
        k(    9) = (   0.0289671  -0.0501724   0.0000000), wk =   0.1111111
        k(   10) = (   0.0289671  -0.0167241   0.0000000), wk =   0.1111111
        k(   11) = (   0.0579341   0.0334483   0.0000000), wk =   0.1111111
        k(   12) = (   0.0579341   0.0668966   0.0000000), wk =   0.1111111
        k(   13) = (   0.0579341   0.1003448   0.0000000), wk =   0.1111111
        k(   14) = (   0.0579341  -0.0668966   0.0000000), wk =   0.1111111
        k(   15) = (   0.0579341  -0.0334483   0.0000000), wk =   0.1111111
        k(   16) = (   0.0579341   0.0000000   0.0000000), wk =   0.1111111
        k(   17) = (  -0.0869012  -0.0501724   0.0000000), wk =   0.0555556
        k(   18) = (  -0.0869012  -0.0167241   0.0000000), wk =   0.1111111
        k(   19) = (  -0.0869012   0.0167241   0.0000000), wk =   0.1111111
        k(   20) = (  -0.0869012  -0.1505172   0.0000000), wk =   0.0555556

     Largest allocated arrays     est. size (Mb)     dimensions
     Largest temporary arrays     est. size (Mb)     dimensions

     Initial potential from superposition of free atoms
     Check: negative starting charge=   -0.283190

     starting charge  164.98709, renormalised to  165.00000

[...]

     *
     * You are using vdW-DF for exchange-correlation in this calculation.
     * Please cite the following three references that made this development
     * possible:
     *
     *   M. Dion, H. Rydberg, E. Schroder, D. C. Langreth, and
     *   B. I. Lundqvist, Phys. Rev. Lett. 92, 246401 (2004).
     *
     *   T. Thonhauser, V. R. Cooper, S. Li, A. Puzder, P. Hyldgaard, and
     *   D. C. Langreth, Phys. Rev. B 76, 125112 (2007).
     *
     *   G. Roman-Perez and J. M. Soler, Phys. Rev. Lett. 103, 096102 (2009).
     *
     *
     * If you are using vdW-DF2, please also cite:
     *
     *   K. Lee, E. D. Murray, L. Kong, B. I. Lundqvist, and
     *   D. C. Langreth, Phys. Rev. B 82, 081101(R) (2010).
     *
     *
     * If you are calculating the stress with vdW-DF, please also cite:
     *
     *   R. Sabatini, E. Kucukbenli, B. Kolb, T. Thonhauser, and
     *   S. de Gironcoli, J. Phys.: Condens. Matter 24, 424209 (2012).
     *

     Carrying out vdW-DF run using the following parameters:

     Nqs =      20    Nr_points =    1024   r_max =   100.000
     q_mesh =
               0.00001000     0.04494208     0.09755937     0.15916263
               0.23128650     0.31572767     0.41458969     0.53033537
               0.66584808     0.82450364     1.01025438     1.22772762
               1.48234092     1.78043706     2.12944203     2.53805004
               3.01644009     3.57652955     4.23227104     5.00000000

     Gradients computed in reciprocal space

[...]

     Starting wfc are  156 randomized atomic wfcs

     Self-consistent Calculation

[...]

     total energy              =   -1688.95198302 Ry
     Harris-Foulkes estimate   =   -1688.95198315 Ry
     estimated scf accuracy    <       0.00000288 Ry

     iteration # 18     ecut=    36.75 Ry     beta=0.10
     Davidson diagonalization with overlap
     ethr =  1.75E-09,  avg # of iterations =  1.1

[...]

     negative rho (up, down):  2.972E-01 0.000E+00

     Adding external electric field

     Computed dipole along edir(3) :
        Dipole               -0.0017 Ry au,         -0.0043 Debye
        Dipole field         -0.0000 Ry au

        Potential amp.        0.0004 Ry
        Total length         45.5054 bohr

     End of self-consistent calculation

[...]

          k = 0.0579 0.0000 0.0000 ( 17995 PWs)   bands (ev):

[...]

          k =-0.0869-0.1505 0.0000 ( 17948 PWs)   bands (ev):

   -66.2577 -66.1822 -65.9730 -58.8405 -58.8103 -58.7742 -58.7190 -58.7113
   -58.6881 -58.6830 -58.6607 -58.6561 -33.2044 -33.1453 -33.1337 -33.0911
   -33.0864 -33.0346 -32.9972 -32.9911 -32.9467 -32.9313 -32.9184 -32.8433
   -32.7896 -32.7429 -32.7305 -32.6989 -32.6903 -32.6870 -32.6817 -32.6540
   -32.6443 -32.6293 -32.6114 -32.5703 -32.5644 -32.5296 -32.5243 -32.4322
   -32.4251 -32.4160 -32.4096 -32.2774 -32.2668 -32.2222 -32.1801 -32.1380
    -2.6993  -2.5035  -1.5414  -1.4841  -1.1535  -1.1318  -1.0047  -0.9136
    -0.8165  -0.8025  -0.4247  -0.2651  -0.2362  -0.1888  -0.0468  -0.0392
     0.3215   0.4315   0.4617   0.4877   0.5257   0.6909   0.8754   1.1544
     1.2468   1.2551   1.3584   1.3769   1.3860   1.4440   1.5096   1.5509
     1.6068   1.8029   1.8295   1.8398   1.9599   2.1407   2.4286   2.5683
     2.7371   2.9806   3.0024   3.2018   3.2768   3.3614   3.4941   3.6093
     3.6425   3.8688   3.9436   4.0331   4.1781   4.2031   4.4248   4.6565
     4.7635   4.9206   5.0836   5.2371   5.5626   5.8545   5.9303   6.0306

     the Fermi energy is     2.1220 ev

!    total energy              =   -1688.95198336 Ry
     Harris-Foulkes estimate   =   -1688.95198321 Ry
     estimated scf accuracy    <       0.00000029 Ry

     The total energy is the sum of the following terms:

     one-electron contribution =  -13881.75032648 Ry
     hartree contribution      =    6931.34559521 Ry
     xc contribution           =    -310.47085246 Ry
     ewald contribution        =    5572.03233918 Ry
     electric field correction =       0.00000001 Ry
     smearing contrib. (-TS)   =      -0.10873881 Ry

     convergence has been achieved in  18 iterations

 BEEF-vdW xc energy contributions
           1 :   -269.491944737764
           2 :    247.247791817270
           3 :   -208.851650456697
           4 :    163.986874911044
           5 :   -122.377470640121
           6 :    90.6701329297359
           7 :   -70.9503157621663
           8 :    61.1787535000884
           9 :   -57.0443490494231
          10 :    54.1996215920334
          11 :   -49.9195783465535
          12 :    43.6419290402914
          13 :   -36.4589365024360
          14 :    30.0331639561313
          15 :   -25.5552273029688
          16 :    23.1847624949860
          17 :   -22.1250273246648
          18 :    21.1637528846932
          19 :   -19.3441807059805
          20 :    16.4095349682535
          21 :   -12.8327765505485
          22 :    9.46435022413982
          23 :   -7.03078652192096
          24 :    5.75978504175140
          25 :   -5.31332809868150
          26 :    5.02003932458274
          27 :   -4.24942777980164
          28 :    2.71513295307136
          29 :  -0.568496798197032
          30 :   -1.73444978708409
          31 :   -27.8544540609632
          32 :   -21.0899196207070

     Forces acting on atoms (Ry/au):

     negative rho (up, down):  2.972E-01 0.000E+00
     atom    1 type  1   force =     0.00000017   -0.00910982   -0.00000668
     atom    2 type  1   force =    -0.00788922    0.00455479   -0.00000655
     atom    3 type  1   force =     0.00788913    0.00455480   -0.00000609
     atom    4 type  2   force =     0.00000001    0.00000053   -0.01317858
     atom    5 type  1   force =    -0.00000004    0.00558397    0.00354866
     atom    6 type  1   force =     0.00483609   -0.00279216    0.00354840
     atom    7 type  1   force =    -0.00483604   -0.00279207    0.00354830
     atom    8 type  2   force =    -0.00000101    0.00000012    0.00514901
     atom    9 type  1   force =    -0.00000012   -0.00100051   -0.00134517
     atom   10 type  1   force =    -0.00086613    0.00050006   -0.00134505
     atom   11 type  1   force =     0.00086609    0.00050036   -0.00134550
     atom   12 type  2   force =     0.00000108   -0.00000006    0.00143926

     Total force =     0.024310     Total SCF correction =     0.002244

     entering subroutine stress ...

     negative rho (up, down):  2.972E-01 0.000E+00
          total   stress  (Ry/bohr**3)                   (kbar)     P=  -34.18
  -0.00034674  -0.00000000   0.00000000        -51.01     -0.00      0.00
  -0.00000000  -0.00034674   0.00000000         -0.00    -51.01      0.00
   0.00000000   0.00000000  -0.00000357          0.00      0.00     -0.52

 !ASE

     Writing output data file calc.save

     General routines

     Parallel routines

   This run was terminated on:   4:50:40  27Dec2018

   JOB DONE.
Job  /afs/slac/g/suncat/bin/suncat-tsmpirun -x LD_LIBRARY_PATH -wdir /scratch/qe110153_2E0ea pw.x -in pw.inp

TID   HOST_NAME   COMMAND_LINE            STATUS            TERMINATION_TIME
00000 suncat0277 pw.x -in pw.inp   Done                     12/27/2018 04:50:40
00001 suncat0277 pw.x -in pw.inp   Done                     12/27/2018 04:50:40
00002 suncat0277 pw.x -in pw.inp   Done                     12/27/2018 04:50:40
00003 suncat0277 pw.x -in pw.inp   Done                     12/27/2018 04:50:40
00004 suncat0277 pw.x -in pw.inp   Done                     12/27/2018 04:50:40
00005 suncat0277 pw.x -in pw.inp   Done                     12/27/2018 04:50:40
00006 suncat0277 pw.x -in pw.inp   Done                     12/27/2018 04:50:40
00007 suncat0277 pw.x -in pw.inp   Done                     12/27/2018 04:50:40
00008 suncat0276 pw.x -in pw.inp   Done                     12/27/2018 04:50:40
00009 suncat0276 pw.x -in pw.inp   Done                     12/27/2018 04:50:40
00010 suncat0276 pw.x -in pw.inp   Done                     12/27/2018 04:50:40
00011 suncat0276 pw.x -in pw.inp   Done                     12/27/2018 04:50:40
00012 suncat0276 pw.x -in pw.inp   Done                     12/27/2018 04:50:40
00013 suncat0276 pw.x -in pw.inp   Done                     12/27/2018 04:50:40
00014 suncat0276 pw.x -in pw.inp   Done                     12/27/2018 04:50:40
00015 suncat0276 pw.x -in pw.inp   Done                     12/27/2018 04:50:40
00016 suncat0274 pw.x -in pw.inp   Done                     12/27/2018 04:50:40
00017 suncat0274 pw.x -in pw.inp   Done                     12/27/2018 04:50:40
00018 suncat0274 pw.x -in pw.inp   Done                     12/27/2018 04:50:40
00019 suncat0274 pw.x -in pw.inp   Done                     12/27/2018 04:50:40
00020 suncat0274 pw.x -in pw.inp   Done                     12/27/2018 04:50:40
00021 suncat0274 pw.x -in pw.inp   Done                     12/27/2018 04:50:40
00022 suncat0274 pw.x -in pw.inp   Done                     12/27/2018 04:50:40
00023 suncat0274 pw.x -in pw.inp   Done                     12/27/2018 04:50:40
00024 suncat0273 pw.x -in pw.inp   Done                     12/27/2018 04:50:40
00025 suncat0273 pw.x -in pw.inp   Done                     12/27/2018 04:50:40
00026 suncat0273 pw.x -in pw.inp   Done                     12/27/2018 04:50:40
00027 suncat0273 pw.x -in pw.inp   Done                     12/27/2018 04:50:40
00028 suncat0273 pw.x -in pw.inp   Done                     12/27/2018 04:50:40
00029 suncat0273 pw.x -in pw.inp   Done                     12/27/2018 04:50:40
00030 suncat0273 pw.x -in pw.inp   Done                     12/27/2018 04:50:40
00031 suncat0273 pw.x -in pw.inp   Done                     12/27/2018 04:50:40
00032 suncat0230 pw.x -in pw.inp   Done                     12/27/2018 04:50:40
00033 suncat0230 pw.x -in pw.inp   Done                     12/27/2018 04:50:40
00034 suncat0230 pw.x -in pw.inp   Done                     12/27/2018 04:50:40
00035 suncat0230 pw.x -in pw.inp   Done                     12/27/2018 04:50:40
00036 suncat0230 pw.x -in pw.inp   Done                     12/27/2018 04:50:40
00037 suncat0230 pw.x -in pw.inp   Done                     12/27/2018 04:50:40
00038 suncat0230 pw.x -in pw.inp   Done                     12/27/2018 04:50:40
00039 suncat0230 pw.x -in pw.inp   Done                     12/27/2018 04:50:40
00040 suncat0229 pw.x -in pw.inp   Done                     12/27/2018 04:50:40
00041 suncat0229 pw.x -in pw.inp   Done                     12/27/2018 04:50:40
00042 suncat0229 pw.x -in pw.inp   Done                     12/27/2018 04:50:40
00043 suncat0229 pw.x -in pw.inp   Done                     12/27/2018 04:50:40
00044 suncat0229 pw.x -in pw.inp   Done                     12/27/2018 04:50:40
00045 suncat0229 pw.x -in pw.inp   Done                     12/27/2018 04:50:40
00046 suncat0229 pw.x -in pw.inp   Done                     12/27/2018 04:50:40
00047 suncat0229 pw.x -in pw.inp   Done                     12/27/2018 04:50:40
00048 suncat0205 pw.x -in pw.inp   Done                     12/27/2018 04:50:40
00049 suncat0205 pw.x -in pw.inp   Done                     12/27/2018 04:50:40
00050 suncat0205 pw.x -in pw.inp   Done                     12/27/2018 04:50:40
00051 suncat0205 pw.x -in pw.inp   Done                     12/27/2018 04:50:40
00052 suncat0205 pw.x -in pw.inp   Done                     12/27/2018 04:50:40
00053 suncat0205 pw.x -in pw.inp   Done                     12/27/2018 04:50:40
00054 suncat0205 pw.x -in pw.inp   Done                     12/27/2018 04:50:40
00055 suncat0205 pw.x -in pw.inp   Done                     12/27/2018 04:50:40
00056 suncat0204 pw.x -in pw.inp   Done                     12/27/2018 04:50:40
00057 suncat0204 pw.x -in pw.inp   Done                     12/27/2018 04:50:40
00058 suncat0204 pw.x -in pw.inp   Done                     12/27/2018 04:50:40
00059 suncat0204 pw.x -in pw.inp   Done                     12/27/2018 04:50:40
00060 suncat0204 pw.x -in pw.inp   Done                     12/27/2018 04:50:40
00061 suncat0204 pw.x -in pw.inp   Done                     12/27/2018 04:50:40
00062 suncat0204 pw.x -in pw.inp   Done                     12/27/2018 04:50:40
00063 suncat0204 pw.x -in pw.inp   Done                     12/27/2018 04:50:40