     Program PWSCF v.5.1rc2 (svn rev. 11289) starts on 25Dec2018 at 13:52: 7

     Current dimensions of program PWSCF are:
     Max number of different atomic species (ntypx) = 10
     Max number of k-points (npk) =  40000
     Max angular momentum in pseudopotentials (lmaxx) =  3
     Presently stress not available with electric field

     IMPORTANT: XC functional enforced from input :
     Exchange-correlation      = BEEF-VDW ( 1  4 27 13 2)
     Any further DFT definition will be discarded
     Please, verify this is what you really want

     Subspace diagonalization in iterative solution of the eigenvalue problem:
     a serial algorithm will be used

     bravais-lattice index     =            0
     lattice parameter (alat)  =       1.8897  a.u.
     unit-cell volume          =    3888.3193 (a.u.)^3
     number of atoms/cell      =           12
     number of atomic types    =            2
     number of electrons       =       171.00
     number of Kohn-Sham states=          115
     kinetic-energy cutoff     =      36.7493  Ry
     charge density cutoff     =     367.4932  Ry
     convergence threshold     =      1.0E-06
     mixing beta               =       0.1000
     number of iterations used =           10  plain     mixing
     Exchange-correlation      = BEEF-VDW ( 1  4 27 13 2)
     nstep                     =           50

     celldm(1)=   1.889726  celldm(2)=   0.000000  celldm(3)=   0.000000
     celldm(4)=   0.000000  celldm(5)=   0.000000  celldm(6)=   0.000000

     crystal axes: (cart. coord. in units of alat)
               a(1) = (   5.235297   0.000000   0.000000 )
               a(2) = (  -2.617648   4.533900   0.000000 )
               a(3) = (   0.000000   0.000000  24.274602 )

     reciprocal axes: (cart. coord. in units 2 pi/alat)
               b(1) = (  0.191011  0.110280  0.000000 )
               b(2) = (  0.000000  0.220561  0.000000 )
               b(3) = (  0.000000  0.000000  0.041195 )

     PseudoPot. # 1 for Cr read from file:
     /afs/slac.stanford.edu/u/if/mamunm/psp/gbrv1.5pbe/Cr.UPF
     MD5 check sum: 0d52af634a40206e4dee301ad30da4bf
     Pseudo is Ultrasoft + core correction, Zval = 14.0
     Generated by new atomic code, or converted to UPF format
     Using radial grid of  857 points,  6 beta functions with:
                l(1) =   0
                l(2) =   0
                l(3) =   1
                l(4) =   1
                l(5) =   2
                l(6) =   2
     Q(r) pseudized with  8 coefficients,  rinner =    0.950   0.950   0.950
                                                       0.950   0.950

     PseudoPot. # 2 for Tc read from file:
     /afs/slac.stanford.edu/u/if/mamunm/psp/gbrv1.5pbe/Tc.UPF
     MD5 check sum: 9eb49e5b028550b2339a02317eb7b844
     Pseudo is Ultrasoft + core correction, Zval = 15.0
     Generated by new atomic code, or converted to UPF format
     Using radial grid of  965 points,  6 beta functions with:
                l(1) =   0
                l(2) =   0
                l(3) =   1
                l(4) =   1
                l(5) =   2
                l(6) =   2
     Q(r) pseudized with  8 coefficients,  rinner =    1.300   1.300   1.300
                                                       1.300   1.300

     vdW kernel table read from file vdW_kernel_table
     MD5 check sum: 095c7af220d748ca6e76c0b4c6cfb241

     atomic species   valence    mass     pseudopotential
        Cr1           14.00    51.99610     Cr( 1.00)
        Tc1           15.00    97.90721     Tc( 1.00)

     No symmetry found

   Cartesian axes

     site n.     atom                  positions (alat units)
         1           Cr1 tau(   1) = (   0.0000000   0.0000000  10.0000000  )
         2           Cr1 tau(   2) = (  -1.3088241   2.2669499  10.0000000  )
         3           Cr1 tau(   3) = (   1.3088241   2.2669499  10.0000000  )
         4           Tc1 tau(   4) = (   2.6176483   0.0000000  10.0000000  )
         5           Cr1 tau(   5) = (   2.6176483   1.5112999  12.1373009  )
         6           Cr1 tau(   6) = (   1.3088241   3.7782498  12.1373009  )
         7           Cr1 tau(   7) = (  -1.3088241   3.7782498  12.1373009  )
         8           Tc1 tau(   8) = (   0.0000000   1.5112999  12.1373009  )
         9           Cr1 tau(   9) = (  -0.0000000   3.0225999  14.2746017  )
        10           Cr1 tau(  10) = (   1.3088241   0.7556500  14.2746017  )
        11           Cr1 tau(  11) = (   3.9264724   0.7556500  14.2746017  )
        12           Tc1 tau(  12) = (   2.6176483   3.0225999  14.2746017  )

     number of k points=    20  Fermi-Dirac smearing, width (Ry)=  0.0110
                       cart. coord. in units 2pi/alat
        k(    1) = (   0.0000000   0.0000000   0.0000000), wk =   0.0555556
        k(    2) = (   0.0000000   0.0367601   0.0000000), wk =   0.1111111
        k(    3) = (   0.0000000   0.0735202   0.0000000), wk =   0.1111111
        k(    4) = (   0.0000000  -0.1102803   0.0000000), wk =   0.0555556
        k(    5) = (   0.0318352   0.0183801   0.0000000), wk =   0.1111111
        k(    6) = (   0.0318352   0.0551402   0.0000000), wk =   0.1111111
        k(    7) = (   0.0318352   0.0919003   0.0000000), wk =   0.1111111
        k(    8) = (   0.0318352  -0.0919003   0.0000000), wk =   0.1111111
        k(    9) = (   0.0318352  -0.0551402   0.0000000), wk =   0.1111111
        k(   10) = (   0.0318352  -0.0183801   0.0000000), wk =   0.1111111
        k(   11) = (   0.0636704   0.0367601   0.0000000), wk =   0.1111111
        k(   12) = (   0.0636704   0.0735202   0.0000000), wk =   0.1111111
        k(   13) = (   0.0636704   0.1102803   0.0000000), wk =   0.1111111
        k(   14) = (   0.0636704  -0.0735202   0.0000000), wk =   0.1111111
        k(   15) = (   0.0636704  -0.0367601   0.0000000), wk =   0.1111111
        k(   16) = (   0.0636704   0.0000000   0.0000000), wk =   0.1111111
        k(   17) = (  -0.0955056  -0.0551402   0.0000000), wk =   0.0555556
        k(   18) = (  -0.0955056  -0.0183801   0.0000000), wk =   0.1111111
        k(   19) = (  -0.0955056   0.0183801   0.0000000), wk =   0.1111111
        k(   20) = (  -0.0955056  -0.1654205   0.0000000), wk =   0.0555556

     Largest allocated arrays     est. size (Mb)     dimensions
     Largest temporary arrays     est. size (Mb)     dimensions

     Check: negative/imaginary core charge=   -0.000012    0.000000

     Initial potential from superposition of free atoms
     Check: negative starting charge=   -0.384639

     starting charge  158.99978, renormalised to  171.00000

     negative rho (up, down):  4.137E-01 0.000E+00

     *
     * You are using vdW-DF for exchange-correlation in this calculation.
     * Please cite the following three references that made this development
     * possible:
     *
     *   M. Dion, H. Rydberg, E. Schroder, D. C. Langreth, and
     *   B. I. Lundqvist, Phys. Rev. Lett. 92, 246401 (2004).
     *
     *   T. Thonhauser, V. R. Cooper, S. Li, A. Puzder, P. Hyldgaard, and
     *   D. C. Langreth, Phys. Rev. B 76, 125112 (2007).
     *
     *   G. Roman-Perez and J. M. Soler, Phys. Rev. Lett. 103, 096102 (2009).
     *
     *
     * If you are using vdW-DF2, please also cite:
     *
     *   K. Lee, E. D. Murray, L. Kong, B. I. Lundqvist, and
     *   D. C. Langreth, Phys. Rev. B 82, 081101(R) (2010).
     *
     *
     * If you are calculating the stress with vdW-DF, please also cite:
     *
     *   R. Sabatini, E. Kucukbenli, B. Kolb, T. Thonhauser, and
     *   S. de Gironcoli, J. Phys.: Condens. Matter 24, 424209 (2012).
     *

     Carrying out vdW-DF run using the following parameters:

     Nqs =      20    Nr_points =    1024   r_max =   100.000
     q_mesh =
               0.00001000     0.04494208     0.09755937     0.15916263
               0.23128650     0.31572767     0.41458969     0.53033537
               0.66584808     0.82450364     1.01025438     1.22772762
               1.48234092     1.78043706     2.12944203     2.53805004
               3.01644009     3.57652955     4.23227104     5.00000000

     Gradients computed in reciprocal space

     Adding external electric field

     Computed dipole along edir(3) :
        Dipole                0.0000 Ry au,          0.0000 Debye
        Dipole field          0.0000 Ry au

        Potential amp.       -0.0000 Ry
        Total length         44.7255 bohr

     Starting wfc are  129 randomized atomic wfcs

     Self-consistent Calculation

     iteration #  1     ecut=    36.75 Ry     beta=0.10
     Davidson diagonalization with overlap
     ethr =  1.00E-02,  avg # of iterations =  9.7

[...]

     total energy              =   -2113.36878959 Ry
     Harris-Foulkes estimate   =   -2118.78390534 Ry
     estimated scf accuracy    <      33.01559807 Ry

[...]

     End of self-consistent calculation

          k = 0.0000 0.0000 0.0000 ( 14693 PWs)   bands (ev):

   -70.2953 -70.2202 -70.2201 -70.1985 -70.1878 -70.1323 -70.1323 -70.1296
   -70.1296 -65.4749 -65.2614 -65.2607 -41.8439 -41.7523 -41.7514 -41.7513
   -41.6715 -41.6715 -41.6671 -41.6641 -41.5821 -41.5698 -41.5698 -41.5257
   -41.5257 -41.4998 -41.4998 -41.4564 -41.3965 -41.3940 -41.3940 -41.3366
   -41.3365 -41.3213 -41.2997 -41.2069 -41.2069 -41.2059 -41.2059 -37.4770
   -37.4690 -37.4690 -37.3102 -37.2863 -37.2435 -37.2435 -37.2377 -37.2377
    -5.1835  -3.5413  -2.9491  -2.9491  -2.8988  -2.5861  -2.5861  -2.0300
    -2.0032  -2.0032  -1.9831  -1.9830  -1.8370  -1.7140  -1.2355  -1.0028
    -1.0028  -0.3815   0.0233   0.0233   0.0820   0.3180   0.5021   0.8280
     0.8280   0.9958   1.0212   1.0212   1.0429   1.0429   1.1361   1.1931
     1.2057   1.2057   1.2677   1.2677   1.9105   2.0756   2.0757   2.1340
     2.1989   2.2521   2.2521   2.5244   2.5245   2.8490   2.8490   3.0892
     3.0892   3.2180   3.4184   3.4271   3.5257   3.5257   3.5945   3.5946
     3.6511   3.7477   3.7477   3.8109   3.8546   4.0549   4.0549   4.2446
     4.2446   4.3381   4.3381

[...]

          k =-0.0955-0.0551 0.0000 ( 14606 PWs)   bands (ev):

[...]

     the Fermi energy is     1.4274 ev

!    total energy              =   -2111.98395671 Ry
     Harris-Foulkes estimate   =   -2111.98395583 Ry
     estimated scf accuracy    <       0.00000078 Ry

     The total energy is the sum of the following terms:

     one-electron contribution =  -19063.73095003 Ry
     hartree contribution      =    9524.31082988 Ry
     xc contribution           =    -308.49419552 Ry
     ewald contribution        =    7736.05219441 Ry
     electric field correction =       0.00000001 Ry
     smearing contrib. (-TS)   =      -0.12183547 Ry

     convergence has been achieved in  26 iterations

 BEEF-vdW xc energy contributions
           1 :   -268.183010682440
           2 :    243.128194750911
           3 :   -200.530914112078
           4 :    151.982900748476
           5 :   -108.430641926180
           6 :    76.3463159503414
           7 :   -56.5076509721597
           8 :    45.4329617530126
           9 :   -38.2915339385257
          10 :    31.5535688042958
          11 :   -24.2107728369972
          12 :    17.3366053912332
[...]
     Using radial grid of  857 points,  6 beta functions with:
                l(1) =   0
                l(2) =   0
                l(3) =   1
                l(4) =   1
                l(5) =   2
                l(6) =   2
     Q(r) pseudized with  8 coefficients,  rinner =    0.950   0.950   0.950
                                                       0.950   0.950

     PseudoPot. # 2 for Tc read from file:
     /afs/slac.stanford.edu/u/if/mamunm/psp/gbrv1.5pbe/Tc.UPF
     MD5 check sum: 9eb49e5b028550b2339a02317eb7b844
     Pseudo is Ultrasoft + core correction, Zval = 15.0
     Generated by new atomic code, or converted to UPF format
     Using radial grid of  965 points,  6 beta functions with:
                l(1) =   0
                l(2) =   0
                l(3) =   1
                l(4) =   1
                l(5) =   2
                l(6) =   2
     Q(r) pseudized with  8 coefficients,  rinner =    1.300   1.300   1.300
                                                       1.300   1.300

     vdW kernel table read from file vdW_kernel_table
     MD5 check sum: 095c7af220d748ca6e76c0b4c6cfb241

     atomic species   valence    mass     pseudopotential
        Cr1           14.00    51.99610     Cr( 1.00)
        Tc1           15.00    97.90721     Tc( 1.00)

     No symmetry found

   Cartesian axes

     site n.     atom                  positions (alat units)
         1           Cr1 tau(   1) = (   0.0000000   0.0000000  10.0000000  )
         2           Cr1 tau(   2) = (  -1.3088241   2.2669499  10.0000000  )
         3           Cr1 tau(   3) = (   1.3088241   2.2669499  10.0000000  )
         4           Tc1 tau(   4) = (   2.6176483   0.0000000  10.0000000  )
         5           Cr1 tau(   5) = (   2.6176483   1.5112999  12.1373009  )
         6           Cr1 tau(   6) = (   1.3088241   3.7782498  12.1373009  )
         7           Cr1 tau(   7) = (  -1.3088241   3.7782498  12.1373009  )
         8           Tc1 tau(   8) = (   0.0000000   1.5112999  12.1373009  )
         9           Cr1 tau(   9) = (  -0.0000209   3.0556472  14.2096772  )
        10           Cr1 tau(  10) = (   1.3374112   0.7391518  14.2096920  )
        11           Cr1 tau(  11) = (   3.8978576   0.7391639  14.2096620  )
        12           Tc1 tau(  12) = (   2.6176378   3.0226091  14.2427384  )

     number of k points=    20  Fermi-Dirac smearing, width (Ry)=  0.0110
                       cart. coord. in units 2pi/alat
        k(    1) = (   0.0000000   0.0000000   0.0000000), wk =   0.0555556
        k(    2) = (   0.0000000   0.0367601   0.0000000), wk =   0.1111111
        k(    3) = (   0.0000000   0.0735202   0.0000000), wk =   0.1111111
        k(    4) = (   0.0000000  -0.1102803   0.0000000), wk =   0.0555556
        k(    5) = (   0.0318352   0.0183801   0.0000000), wk =   0.1111111
        k(    6) = (   0.0318352   0.0551402   0.0000000), wk =   0.1111111
        k(    7) = (   0.0318352   0.0919003   0.0000000), wk =   0.1111111
        k(    8) = (   0.0318352  -0.0919003   0.0000000), wk =   0.1111111
        k(    9) = (   0.0318352  -0.0551402   0.0000000), wk =   0.1111111
        k(   10) = (   0.0318352  -0.0183801   0.0000000), wk =   0.1111111
        k(   11) = (   0.0636704   0.0367601   0.0000000), wk =   0.1111111
        k(   12) = (   0.0636704   0.0735202   0.0000000), wk =   0.1111111
        k(   13) = (   0.0636704   0.1102803   0.0000000), wk =   0.1111111
        k(   14) = (   0.0636704  -0.0735202   0.0000000), wk =   0.1111111
        k(   15) = (   0.0636704  -0.0367601   0.0000000), wk =   0.1111111
        k(   16) = (   0.0636704   0.0000000   0.0000000), wk =   0.1111111
        k(   17) = (  -0.0955056  -0.0551402   0.0000000), wk =   0.0555556
        k(   18) = (  -0.0955056  -0.0183801   0.0000000), wk =   0.1111111
        k(   19) = (  -0.0955056   0.0183801   0.0000000), wk =   0.1111111
        k(   20) = (  -0.0955056  -0.1654205   0.0000000), wk =   0.0555556

     Largest allocated arrays     est. size (Mb)     dimensions
     Largest temporary arrays     est. size (Mb)     dimensions

     Check: negative/imaginary core charge=   -0.000012    0.000000

     Initial potential from superposition of free atoms
     Check: negative starting charge=   -0.383224

     starting charge  158.99978, renormalised to  171.00000

[...]

     *
     * You are using vdW-DF for exchange-correlation in this calculation.
     * Please cite the following three references that made this development
     * possible:
     *
     *   M. Dion, H. Rydberg, E. Schroder, D. C. Langreth, and
     *   B. I. Lundqvist, Phys. Rev. Lett. 92, 246401 (2004).
     *
     *   T. Thonhauser, V. R. Cooper, S. Li, A. Puzder, P. Hyldgaard, and
     *   D. C. Langreth, Phys. Rev. B 76, 125112 (2007).
     *
     *   G. Roman-Perez and J. M. Soler, Phys. Rev. Lett. 103, 096102 (2009).
     *
     *
     * If you are using vdW-DF2, please also cite:
     *
     *   K. Lee, E. D. Murray, L. Kong, B. I. Lundqvist, and
     *   D. C. Langreth, Phys. Rev. B 82, 081101(R) (2010).
     *
     *
     * If you are calculating the stress with vdW-DF, please also cite:
     *
     *   R. Sabatini, E. Kucukbenli, B. Kolb, T. Thonhauser, and
     *   S. de Gironcoli, J. Phys.: Condens. Matter 24, 424209 (2012).
     *

     Carrying out vdW-DF run using the following parameters:

     Nqs =      20    Nr_points =    1024   r_max =   100.000
     q_mesh =
               0.00001000     0.04494208     0.09755937     0.15916263
               0.23128650     0.31572767     0.41458969     0.53033537
               0.66584808     0.82450364     1.01025438     1.22772762
               1.48234092     1.78043706     2.12944203     2.53805004
               3.01644009     3.57652955     4.23227104     5.00000000

     Gradients computed in reciprocal space

[...]

     Starting wfc are  129 randomized atomic wfcs

     Self-consistent Calculation

[...]

     iteration #  7     ecut=    36.75 Ry     beta=0.10
     Davidson diagonalization with overlap
     c_bands:  1 eigenvalues not converged
     ethr =  2.44E-04,  avg # of iterations =  5.8

[...]

     total energy              =   -2111.98695566 Ry
     Harris-Foulkes estimate   =   -2111.98695500 Ry
     estimated scf accuracy    <       0.00000104 Ry

     iteration # 27     ecut=    36.75 Ry     beta=0.10
     Davidson diagonalization with overlap
     ethr =  6.06E-10,  avg # of iterations =  2.0

[...]

     negative rho (up, down):  4.007E-01 0.000E+00

     Adding external electric field

     Computed dipole along edir(3) :
        Dipole                0.0139 Ry au,          0.0353 Debye
        Dipole field          0.0000 Ry au

        Potential amp.       -0.0040 Ry
        Total length         44.7255 bohr

     End of self-consistent calculation

[...]

          k = 0.0637 0.0000 0.0000 ( 14619 PWs)   bands (ev):

[...]

          k =-0.0955-0.1654 0.0000 ( 14606 PWs)   bands (ev):

   -70.2304 -70.2089 -70.1796 -70.1586 -70.1413 -70.1198 -70.1154 -70.0941
   -70.0741 -65.4379 -65.2505 -65.2089 -41.7407 -41.6828 -41.6744 -41.6213
   -41.6188 -41.6127 -41.5716 -41.5575 -41.5487 -41.5356 -41.5192 -41.4667
   -41.4474 -41.4360 -41.4300 -41.4137 -41.4075 -41.3874 -41.3869 -41.3563
   -41.3315 -41.3223 -41.3189 -41.2930 -41.2754 -41.2115 -41.1751 -37.4736
   -37.4484 -37.4418 -37.2878 -37.2671 -37.2457 -37.2412 -37.2296 -37.2058
    -3.4770  -3.3420  -2.3528  -2.1972  -2.1235  -2.0580  -1.7878  -1.5018
    -1.4763  -1.4077  -1.3017  -1.0526  -1.0459  -0.9959  -0.7829  -0.5955
    -0.5710  -0.5159  -0.4197  -0.2327  -0.0489   0.0455   0.1010   0.2871
     0.3416   0.3511   0.4743   0.6503   0.6915   0.6949   0.7612   0.8536
     0.9368   0.9682   1.0098   1.0597   1.1067   1.1741   1.3590   1.3913
     1.8667   1.9063   1.9086   1.9685   2.0258   2.0521   2.3173   2.4058
     2.4214   2.4635   2.5524   2.6216   2.6333   2.6820   2.7376   2.8908
     2.9137   3.0600   3.2832   3.4109   3.6094   3.7546   3.8084   4.1756
     4.4684   4.6343   5.4057

     the Fermi energy is     1.4430 ev

!    total energy              =   -2111.98695779 Ry
     Harris-Foulkes estimate   =   -2111.98695568 Ry
     estimated scf accuracy    <       0.00000039 Ry

     The total energy is the sum of the following terms:

     one-electron contribution =  -19214.40898215 Ry
     hartree contribution      =    9599.86078342 Ry
     xc contribution           =    -308.61206882 Ry
     ewald contribution        =    7811.29433325 Ry
     electric field correction =       0.00000062 Ry
     smearing contrib. (-TS)   =      -0.12102411 Ry

     convergence has been achieved in  27 iterations

 BEEF-vdW xc energy contributions
           1 :   -268.303459800554
           2 :    243.287798165571
           3 :   -200.734444143488
           4 :    152.190491499420
           5 :   -108.581061955482
           6 :    76.3981406930777
           7 :   -56.4698381543762
           8 :    45.3629299072849
           9 :   -38.2608574843142
          10 :    31.6039111058649
          11 :   -24.3288967618473
          12 :    17.4653241185042
          13 :   -12.7572691718499
          14 :    11.2697957011777
          15 :   -12.7418157948687
          16 :    15.8497257539874
          17 :   -19.0391625705041
          18 :    21.3141959053583
          19 :   -22.5291255867756
          20 :    23.0962709717575
          21 :   -23.4206119760700
          22 :    23.4901997678742
          23 :   -22.8943019967559
          24 :    21.1975028399945
          25 :   -18.3613851708857
          26 :    14.8893259191263
          27 :   -11.5989632420279
          28 :    9.18727884907042
          29 :   -7.88939865325409
          30 :    7.44308288007778
          31 :   -26.1309722896132
          32 :   -18.9084289081198

     Forces acting on atoms (Ry/au):

     negative rho (up, down):  4.007E-01 0.000E+00
     atom    1 type  1   force =     0.00000039   -0.00726838    0.01275098
     atom    2 type  1   force =    -0.00628190    0.00362857    0.01273545
     atom    3 type  1   force =     0.00628556    0.00363012    0.01274661
     atom    4 type  2   force =     0.00001050   -0.00001113    0.00719786
     atom    5 type  1   force =     0.00000148    0.00159038   -0.01129692
     atom    6 type  1   force =     0.00137758   -0.00079419   -0.01129715
     atom    7 type  1   force =    -0.00137613   -0.00079445   -0.01129482
     atom    8 type  2   force =    -0.00001557    0.00001004   -0.01121065
     atom    9 type  1   force =     0.00000260   -0.00031519   -0.00053658
     atom   10 type  1   force =    -0.00026709    0.00015440   -0.00053965
     atom   11 type  1   force =     0.00027484    0.00015606   -0.00053353
     atom   12 type  2   force =    -0.00001224    0.00001377    0.00127839

     Total force =     0.034872     Total SCF correction =     0.001260

     entering subroutine stress ...

     negative rho (up, down):  4.007E-01 0.000E+00
          total   stress  (Ry/bohr**3)                   (kbar)     P=  -26.01
  -0.00023538  -0.00000001  -0.00000001        -34.63     -0.00     -0.00
  -0.00000001  -0.00023540   0.00000002         -0.00    -34.63      0.00
  -0.00000001   0.00000002  -0.00005964         -0.00      0.00     -8.77

 !ASE

     Writing output data file calc.save

     General routines

     Parallel routines

   This run was terminated on:  15:44:33  25Dec2018

   JOB DONE.
Job  /afs/slac/g/suncat/bin/suncat-tsmpirun -x LD_LIBRARY_PATH -wdir /scratch/qe109538_rEQ9C pw.x -in pw.inp

TID   HOST_NAME   COMMAND_LINE            STATUS            TERMINATION_TIME
00000 suncat0070 pw.x -in pw.inp   Done                     12/25/2018 15:44:33
00001 suncat0070 pw.x -in pw.inp   Done                     12/25/2018 15:44:33
00002 suncat0070 pw.x -in pw.inp   Done                     12/25/2018 15:44:33
00003 suncat0070 pw.x -in pw.inp   Done                     12/25/2018 15:44:33
00004 suncat0070 pw.x -in pw.inp   Done                     12/25/2018 15:44:33
00005 suncat0070 pw.x -in pw.inp   Done                     12/25/2018 15:44:33
00006 suncat0070 pw.x -in pw.inp   Done                     12/25/2018 15:44:33
00007 suncat0070 pw.x -in pw.inp   Done                     12/25/2018 15:44:33
00008 suncat0039 pw.x -in pw.inp   Done                     12/25/2018 15:44:33
00009 suncat0039 pw.x -in pw.inp   Done                     12/25/2018 15:44:33
00010 suncat0039 pw.x -in pw.inp   Done                     12/25/2018 15:44:33
00011 suncat0039 pw.x -in pw.inp   Done                     12/25/2018 15:44:33
00012 suncat0039 pw.x -in pw.inp   Done                     12/25/2018 15:44:33
00013 suncat0039 pw.x -in pw.inp   Done                     12/25/2018 15:44:33
00014 suncat0039 pw.x -in pw.inp   Done                     12/25/2018 15:44:33
00015 suncat0039 pw.x -in pw.inp   Done                     12/25/2018 15:44:33
00016 suncat0008 pw.x -in pw.inp   Done                     12/25/2018 15:44:33
00017 suncat0008 pw.x -in pw.inp   Done                     12/25/2018 15:44:33
00018 suncat0008 pw.x -in pw.inp   Done                     12/25/2018 15:44:33
00019 suncat0008 pw.x -in pw.inp   Done                     12/25/2018 15:44:33
00020 suncat0008 pw.x -in pw.inp   Done                     12/25/2018 15:44:33
00021 suncat0008 pw.x -in pw.inp   Done                     12/25/2018 15:44:33
00022 suncat0008 pw.x -in pw.inp   Done                     12/25/2018 15:44:33
00023 suncat0008 pw.x -in pw.inp   Done                     12/25/2018 15:44:33
00024 suncat0184 pw.x -in pw.inp   Done                     12/25/2018 15:44:33
00025 suncat0184 pw.x -in pw.inp   Done                     12/25/2018 15:44:33
00026 suncat0184 pw.x -in pw.inp   Done                     12/25/2018 15:44:33
00027 suncat0184 pw.x -in pw.inp   Done                     12/25/2018 15:44:33
00028 suncat0184 pw.x -in pw.inp   Done                     12/25/2018 15:44:33
00029 suncat0184 pw.x -in pw.inp   Done                     12/25/2018 15:44:33
00030 suncat0184 pw.x -in pw.inp   Done                     12/25/2018 15:44:33
00031 suncat0184 pw.x -in pw.inp   Done                     12/25/2018 15:44:33
00032 suncat0256 pw.x -in pw.inp   Done                     12/25/2018 15:44:33
00033 suncat0256 pw.x -in pw.inp   Done                     12/25/2018 15:44:33
00034 suncat0256 pw.x -in pw.inp   Done                     12/25/2018 15:44:33
00035 suncat0256 pw.x -in pw.inp   Done                     12/25/2018 15:44:33
00036 suncat0256 pw.x -in pw.inp   Done                     12/25/2018 15:44:33
00037 suncat0256 pw.x -in pw.inp   Done                     12/25/2018 15:44:33
00038 suncat0256 pw.x -in pw.inp   Done                     12/25/2018 15:44:33
00039 suncat0256 pw.x -in pw.inp   Done                     12/25/2018 15:44:33
00040 suncat0255 pw.x -in pw.inp   Done                     12/25/2018 15:44:33
00041 suncat0255 pw.x -in pw.inp   Done                     12/25/2018 15:44:33
00042 suncat0255 pw.x -in pw.inp   Done                     12/25/2018 15:44:33
00043 suncat0255 pw.x -in pw.inp   Done                     12/25/2018 15:44:33
00044 suncat0255 pw.x -in pw.inp   Done                     12/25/2018 15:44:33
00045 suncat0255 pw.x -in pw.inp   Done                     12/25/2018 15:44:33
00046 suncat0255 pw.x -in pw.inp   Done                     12/25/2018 15:44:33
00047 suncat0255 pw.x -in pw.inp   Done                     12/25/2018 15:44:33
00048 suncat0222 pw.x -in pw.inp   Done                     12/25/2018 15:44:33
00049 suncat0222 pw.x -in pw.inp   Done                     12/25/2018 15:44:33
00050 suncat0222 pw.x -in pw.inp   Done                     12/25/2018 15:44:33
00051 suncat0222 pw.x -in pw.inp   Done                     12/25/2018 15:44:33
00052 suncat0222 pw.x -in pw.inp   Done                     12/25/2018 15:44:33
00053 suncat0222 pw.x -in pw.inp   Done                     12/25/2018 15:44:33
00054 suncat0222 pw.x -in pw.inp   Done                     12/25/2018 15:44:33
00055 suncat0222 pw.x -in pw.inp   Done                     12/25/2018 15:44:33
00056 suncat0221 pw.x -in pw.inp   Done                     12/25/2018 15:44:33
00057 suncat0221 pw.x -in pw.inp   Done                     12/25/2018 15:44:33
00058 suncat0221 pw.x -in pw.inp   Done                     12/25/2018 15:44:33
00059 suncat0221 pw.x -in pw.inp   Done                     12/25/2018 15:44:33
00060 suncat0221 pw.x -in pw.inp   Done                     12/25/2018 15:44:33
00061 suncat0221 pw.x -in pw.inp   Done                     12/25/2018 15:44:33
00062 suncat0221 pw.x -in pw.inp   Done                     12/25/2018 15:44:33
00063 suncat0221 pw.x -in pw.inp   Done                     12/25/2018 15:44:33