     Program PWSCF v.5.1rc2 (svn rev. 11289) starts on 31Dec2018 at 17:19:11

     Current dimensions of program PWSCF are:
     Max number of different atomic species (ntypx) = 10
     Max number of k-points (npk) =  40000
     Max angular momentum in pseudopotentials (lmaxx) =  3
     Presently stress not available with electric field

     IMPORTANT: XC functional enforced from input :
     Exchange-correlation      = BEEF-VDW ( 1  4 27 13 2)
     Any further DFT definition will be discarded
     Please, verify this is what you really want

     Subspace diagonalization in iterative solution of the eigenvalue problem:
     a serial algorithm will be used

     bravais-lattice index     =            0
     lattice parameter (alat)  =       1.8897  a.u.
     unit-cell volume          =    4364.8320 (a.u.)^3
     number of atoms/cell      =           12
     number of atomic types    =            2
     number of electrons       =       144.00
     number of Kohn-Sham states=          102
     kinetic-energy cutoff     =      36.7493  Ry
     charge density cutoff     =     367.4932  Ry
     convergence threshold     =      1.0E-06
     mixing beta               =       0.1000
     number of iterations used =           10  plain     mixing
     Exchange-correlation      = BEEF-VDW ( 1  4 27 13 2)
     nstep                     =           50

     celldm(1)=   1.889726  celldm(2)=   0.000000  celldm(3)=   0.000000
     celldm(4)=   0.000000  celldm(5)=   0.000000  celldm(6)=   0.000000

     crystal axes: (cart. coord. in units of alat)
               a(1) = (   5.520413   0.000000   0.000000 )
               a(2) = (  -2.760206   4.780818   0.000000 )
               a(3) = (   0.000000   0.000000  24.507398 )

     reciprocal axes: (cart. coord. in units 2 pi/alat)
               b(1) = (  0.181146  0.104585  0.000000 )
               b(2) = (  0.000000  0.209169  0.000000 )
               b(3) = (  0.000000  0.000000  0.040804 )

     PseudoPot. # 1 for Re read from file:
     /afs/slac.stanford.edu/u/if/mamunm/psp/gbrv1.5pbe/Re.UPF
     MD5 check sum: 85f993410f3e006da9d71c142b4ad953
     Pseudo is Ultrasoft + core correction, Zval = 15.0
     Generated by new atomic code, or converted to UPF format
     Using radial grid of  981 points,  8 beta functions with:
                l(1) =   0
                l(2) =   0
                l(3) =   1
                l(4) =   1
                l(5) =   2
                l(6) =   2
                l(7) =   3
                l(8) =   3
     Q(r) pseudized with  8 coefficients,  rinner =    1.150   1.150   1.150
                                                       1.150   1.150   1.150
                                                       1.150

     PseudoPot. # 2 for Al read from file:
     /afs/slac.stanford.edu/u/if/mamunm/psp/gbrv1.5pbe/Al.UPF
     MD5 check sum: 0a6289f5291fc8f409219462bc851e1f
     Pseudo is Ultrasoft + core correction, Zval =  3.0
     Generated by new atomic code, or converted to UPF format
     Using radial grid of  893 points,  3 beta functions with:
                l(1) =   0
                l(2) =   1
                l(3) =   2
     Q(r) pseudized with  8 coefficients,  rinner =    0.900   0.900   0.900
                                                       0.900   0.900

     vdW kernel table read from file vdW_kernel_table
     MD5 check sum: 095c7af220d748ca6e76c0b4c6cfb241

     atomic species   valence    mass     pseudopotential
        Re1           15.00   186.20700     Re( 1.00)
        Al1            3.00    26.98154     Al( 1.00)

     No symmetry found

   Cartesian axes

     site n.     atom                  positions (alat units)
         1           Re1 tau(   1) = (   0.0000000   0.0000000  10.0000000  )
         2           Re1 tau(   2) = (  -1.3801032   2.3904088  10.0000000  )
         3           Re1 tau(   3) = (   1.3801032   2.3904088  10.0000000  )
         4           Al1 tau(   4) = (   2.7602064   0.0000000  10.0000000  )
         5           Re1 tau(   5) = (   2.7602064   1.5936059  12.2536990  )
         6           Re1 tau(   6) = (   1.3801032   3.9840147  12.2536990  )
         7           Re1 tau(   7) = (  -1.3801032   3.9840147  12.2536990  )
         8           Al1 tau(   8) = (   0.0000000   1.5936059  12.2536990  )
         9           Re1 tau(   9) = (  -0.0000000   3.1872118  14.5073981  )
        10           Re1 tau(  10) = (   1.3801032   0.7968029  14.5073981  )
        11           Re1 tau(  11) = (   4.1403095   0.7968029  14.5073981  )
        12           Al1 tau(  12) = (   2.7602064   3.1872118  14.5073981  )

     number of k points=    20  Fermi-Dirac smearing, width (Ry)=  0.0110
                       cart. coord. in units 2pi/alat
        k(    1) = (   0.0000000   0.0000000   0.0000000), wk =   0.0555556
        k(    2) = (   0.0000000   0.0348615   0.0000000), wk =   0.1111111
        k(    3) = (   0.0000000   0.0697231   0.0000000), wk =   0.1111111
        k(    4) = (   0.0000000  -0.1045846   0.0000000), wk =   0.0555556
        k(    5) = (   0.0301910   0.0174308   0.0000000), wk =   0.1111111
        k(    6) = (   0.0301910   0.0522923   0.0000000), wk =   0.1111111
        k(    7) = (   0.0301910   0.0871539   0.0000000), wk =   0.1111111
        k(    8) = (   0.0301910  -0.0871539   0.0000000), wk =   0.1111111
        k(    9) = (   0.0301910  -0.0522923   0.0000000), wk =   0.1111111
        k(   10) = (   0.0301910  -0.0174308   0.0000000), wk =   0.1111111
        k(   11) = (   0.0603820   0.0348615   0.0000000), wk =   0.1111111
        k(   12) = (   0.0603820   0.0697231   0.0000000), wk =   0.1111111
        k(   13) = (   0.0603820   0.1045846   0.0000000), wk =   0.1111111
        k(   14) = (   0.0603820  -0.0697231   0.0000000), wk =   0.1111111
        k(   15) = (   0.0603820  -0.0348615   0.0000000), wk =   0.1111111
        k(   16) = (   0.0603820   0.0000000   0.0000000), wk =   0.1111111
        k(   17) = (  -0.0905729  -0.0522923   0.0000000), wk =   0.0555556
        k(   18) = (  -0.0905729  -0.0174308   0.0000000), wk =   0.1111111
        k(   19) = (  -0.0905729   0.0174308   0.0000000), wk =   0.1111111
        k(   20) = (  -0.0905729  -0.1568769   0.0000000), wk =   0.0555556

     Largest allocated arrays     est. size (Mb)     dimensions
     Largest temporary arrays     est. size (Mb)     dimensions

     Initial potential from superposition of free atoms
     Check: negative starting charge=   -1.150136

     starting charge  139.49220, renormalised to  144.00000

     negative rho (up, down):  1.187E+00 0.000E+00

     *
     * You are using vdW-DF for exchange-correlation in this calculation.
     * Please cite the following three references that made this development
     * possible:
     *
     *   M. Dion, H. Rydberg, E. Schroder, D. C. Langreth, and
     *   B. I. Lundqvist, Phys. Rev. Lett. 92, 246401 (2004).
     *
     *   T. Thonhauser, V. R. Cooper, S. Li, A. Puzder, P. Hyldgaard, and
     *   D. C. Langreth, Phys. Rev. B 76, 125112 (2007).
     *
     *   G. Roman-Perez and J. M. Soler, Phys. Rev. Lett. 103, 096102 (2009).
     *
     *
     * If you are using vdW-DF2, please also cite:
     *
     *   K. Lee, E. D. Murray, L. Kong, B. I. Lundqvist, and
     *   D. C. Langreth, Phys. Rev. B 82, 081101(R) (2010).
     *
     *
     * If you are calculating the stress with vdW-DF, please also cite:
     *
     *   R. Sabatini, E. Kucukbenli, B. Kolb, T. Thonhauser, and
     *   S. de Gironcoli, J. Phys.: Condens. Matter 24, 424209 (2012).
     *

     Carrying out vdW-DF run using the following parameters:

     Nqs =      20    Nr_points =    1024   r_max =   100.000
     q_mesh =
               0.00001000     0.04494208     0.09755937     0.15916263
               0.23128650     0.31572767     0.41458969     0.53033537
               0.66584808     0.82450364     1.01025438     1.22772762
               1.48234092     1.78043706     2.12944203     2.53805004
               3.01644009     3.57652955     4.23227104     5.00000000

     Gradients computed in reciprocal space

     Adding external electric field

     Computed dipole along edir(3) :
        Dipole                0.0000 Ry au,          0.0000 Debye
        Dipole field          0.0000 Ry au

        Potential amp.       -0.0000 Ry
        Total length         45.1545 bohr

     Starting wfc are  129 randomized atomic wfcs

     Self-consistent Calculation

     iteration #  1     ecut=    36.75 Ry     beta=0.10
     Davidson diagonalization with overlap
     ethr =  1.00E-02,  avg # of iterations =  6.7

[...]

     total energy              =   -1750.24709898 Ry
     Harris-Foulkes estimate   =   -1750.53841854 Ry
     estimated scf accuracy    <       1.97244752 Ry

[...]

     End of self-consistent calculation

          k = 0.0000 0.0000 0.0000 ( 16355 PWs)   bands (ev):

   -78.8407 -78.7846 -78.7846 -78.6434 -78.6401 -78.5905 -78.5905 -78.5897
   -78.5896 -41.0083 -40.7945 -40.7702 -40.7702 -40.7172 -40.6661 -40.6661
   -40.6594 -40.4782 -40.4782 -40.3723 -40.3598 -40.3598 -40.3444 -40.2800
   -40.2800 -40.1671 -40.1671 -40.1590 -40.1512 -40.1512 -40.0974 -40.0634
   -39.9447 -39.9447 -39.9401 -39.9401  -7.8642  -5.9097  -5.3980  -4.4304
    -4.0213  -3.6073  -3.2613  -3.2613  -2.7657  -2.7657  -2.6507  -2.4134
    -2.4134  -2.2110  -2.2110  -2.0106  -1.1295  -1.1295  -0.4750  -0.2823
    -0.2689  -0.2689   0.2523   0.2523   0.5444   0.7255   0.7869   0.7869
     1.1122   1.2948   1.6045   1.6045   1.7603   1.7603   2.2070   2.2070
     2.4076   2.4076   2.5235   2.8657   2.9880   2.9880   3.1237   3.1237
     3.4457   3.7028   3.7028   3.8262   4.2659   4.2659   4.6396   4.6396
     4.6679   5.6186   5.9222   5.9222   5.9603   6.0643   6.0833   6.0886
     6.2543   6.3853   6.8766   7.7553   8.1176   8.7954

[...]

          k =-0.0906-0.0523 0.0000 ( 16436 PWs)   bands (ev):

[...]

     the Fermi energy is     1.9300 ev

!    total energy              =   -1749.92218023 Ry
     Harris-Foulkes estimate   =   -1749.92218317 Ry
     estimated scf accuracy    <       0.00000077 Ry

     The total energy is the sum of the following terms:

     one-electron contribution =  -11800.07891949 Ry
     hartree contribution      =    5885.70997423 Ry
     xc contribution           =    -500.12922036 Ry
     ewald contribution        =    4664.63967513 Ry
     electric field correction =       0.00000000 Ry
     smearing contrib. (-TS)   =      -0.06368973 Ry

     convergence has been achieved in  15 iterations

 BEEF-vdW xc energy contributions
           1 :   -443.839333489793
           2 :    411.741402185897
           3 :   -354.513774852236
           4 :    283.554252640740
           5 :   -211.044930706312
           6 :    146.709447189997
           7 :   -95.9701534634197
           8 :    59.7957861497582
           9 :   -35.8806097061479
          10 :    20.4210677308564
          11 :   -9.76782903765024
          12 :    1.48072472032095
          13 :    5.36729405193728
          14 :   -10.5372462935213
          15 :    13.3477732880350
          16 :   -13.4305717546208
          17 :    11.1953119635879
[...]
               b(3) = (  0.000000  0.000000  0.040804 )

     PseudoPot. # 1 for Re read from file:
     /afs/slac.stanford.edu/u/if/mamunm/psp/gbrv1.5pbe/Re.UPF
     MD5 check sum: 85f993410f3e006da9d71c142b4ad953
     Pseudo is Ultrasoft + core correction, Zval = 15.0
     Generated by new atomic code, or converted to UPF format
     Using radial grid of  981 points,  8 beta functions with:
                l(1) =   0
                l(2) =   0
                l(3) =   1
                l(4) =   1
                l(5) =   2
                l(6) =   2
                l(7) =   3
                l(8) =   3
     Q(r) pseudized with  8 coefficients,  rinner =    1.150   1.150   1.150
                                                       1.150   1.150   1.150
                                                       1.150

     PseudoPot. # 2 for Al read from file:
     /afs/slac.stanford.edu/u/if/mamunm/psp/gbrv1.5pbe/Al.UPF
     MD5 check sum: 0a6289f5291fc8f409219462bc851e1f
     Pseudo is Ultrasoft + core correction, Zval =  3.0
     Generated by new atomic code, or converted to UPF format
     Using radial grid of  893 points,  3 beta functions with:
                l(1) =   0
                l(2) =   1
                l(3) =   2
     Q(r) pseudized with  8 coefficients,  rinner =    0.900   0.900   0.900
                                                       0.900   0.900

     vdW kernel table read from file vdW_kernel_table
     MD5 check sum: 095c7af220d748ca6e76c0b4c6cfb241

     atomic species   valence    mass     pseudopotential
        Re1           15.00   186.20700     Re( 1.00)
        Al1            3.00    26.98154     Al( 1.00)

     No symmetry found

   Cartesian axes

     site n.     atom                  positions (alat units)
         1           Re1 tau(   1) = (   0.0000000   0.0000000  10.0000000  )
         2           Re1 tau(   2) = (  -1.3801032   2.3904088  10.0000000  )
         3           Re1 tau(   3) = (   1.3801032   2.3904088  10.0000000  )
         4           Al1 tau(   4) = (   2.7602064   0.0000000  10.0000000  )
         5           Re1 tau(   5) = (   2.7602064   1.5936059  12.2536990  )
         6           Re1 tau(   6) = (   1.3801032   3.9840147  12.2536990  )
         7           Re1 tau(   7) = (  -1.3801032   3.9840147  12.2536990  )
         8           Al1 tau(   8) = (   0.0000000   1.5936059  12.2536990  )
         9           Re1 tau(   9) = (  -0.0000016   3.2528196  14.4478176  )
        10           Re1 tau(  10) = (   1.4369066   0.7640128  14.4478061  )
        11           Re1 tau(  11) = (   4.0834751   0.7639915  14.4478088  )
        12           Al1 tau(  12) = (   2.7601884   3.1872092  14.6418537  )

     number of k points=    20  Fermi-Dirac smearing, width (Ry)=  0.0110
                       cart. coord. in units 2pi/alat
        k(    1) = (   0.0000000   0.0000000   0.0000000), wk =   0.0555556
        k(    2) = (   0.0000000   0.0348615   0.0000000), wk =   0.1111111
        k(    3) = (   0.0000000   0.0697231   0.0000000), wk =   0.1111111
        k(    4) = (   0.0000000  -0.1045846   0.0000000), wk =   0.0555556
        k(    5) = (   0.0301910   0.0174308   0.0000000), wk =   0.1111111
        k(    6) = (   0.0301910   0.0522923   0.0000000), wk =   0.1111111
        k(    7) = (   0.0301910   0.0871539   0.0000000), wk =   0.1111111
        k(    8) = (   0.0301910  -0.0871539   0.0000000), wk =   0.1111111
        k(    9) = (   0.0301910  -0.0522923   0.0000000), wk =   0.1111111
        k(   10) = (   0.0301910  -0.0174308   0.0000000), wk =   0.1111111
        k(   11) = (   0.0603820   0.0348615   0.0000000), wk =   0.1111111
        k(   12) = (   0.0603820   0.0697231   0.0000000), wk =   0.1111111
        k(   13) = (   0.0603820   0.1045846   0.0000000), wk =   0.1111111
        k(   14) = (   0.0603820  -0.0697231   0.0000000), wk =   0.1111111
        k(   15) = (   0.0603820  -0.0348615   0.0000000), wk =   0.1111111
        k(   16) = (   0.0603820   0.0000000   0.0000000), wk =   0.1111111
        k(   17) = (  -0.0905729  -0.0522923   0.0000000), wk =   0.0555556
        k(   18) = (  -0.0905729  -0.0174308   0.0000000), wk =   0.1111111
        k(   19) = (  -0.0905729   0.0174308   0.0000000), wk =   0.1111111
        k(   20) = (  -0.0905729  -0.1568769   0.0000000), wk =   0.0555556

     Largest allocated arrays     est. size (Mb)     dimensions
     Largest temporary arrays     est. size (Mb)     dimensions

     Initial potential from superposition of free atoms
     Check: negative starting charge=   -1.154373

     starting charge  139.49220, renormalised to  144.00000

[...]

     *
     * You are using vdW-DF for exchange-correlation in this calculation.
     * Please cite the following three references that made this development
     * possible:
     *
     *   M. Dion, H. Rydberg, E. Schroder, D. C. Langreth, and
     *   B. I. Lundqvist, Phys. Rev. Lett. 92, 246401 (2004).
     *
     *   T. Thonhauser, V. R. Cooper, S. Li, A. Puzder, P. Hyldgaard, and
     *   D. C. Langreth, Phys. Rev. B 76, 125112 (2007).
     *
     *   G. Roman-Perez and J. M. Soler, Phys. Rev. Lett. 103, 096102 (2009).
     *
     *
     * If you are using vdW-DF2, please also cite:
     *
     *   K. Lee, E. D. Murray, L. Kong, B. I. Lundqvist, and
     *   D. C. Langreth, Phys. Rev. B 82, 081101(R) (2010).
     *
     *
     * If you are calculating the stress with vdW-DF, please also cite:
     *
     *   R. Sabatini, E. Kucukbenli, B. Kolb, T. Thonhauser, and
     *   S. de Gironcoli, J. Phys.: Condens. Matter 24, 424209 (2012).
     *

     Carrying out vdW-DF run using the following parameters:

     Nqs =      20    Nr_points =    1024   r_max =   100.000
     q_mesh =
               0.00001000     0.04494208     0.09755937     0.15916263
               0.23128650     0.31572767     0.41458969     0.53033537
               0.66584808     0.82450364     1.01025438     1.22772762
               1.48234092     1.78043706     2.12944203     2.53805004
               3.01644009     3.57652955     4.23227104     5.00000000

     Gradients computed in reciprocal space

[...]

     Starting wfc are  129 randomized atomic wfcs

     Self-consistent Calculation

[...]

     total energy              =   -1749.93443695 Ry
     Harris-Foulkes estimate   =   -1749.93443973 Ry
     estimated scf accuracy    <       0.00000591 Ry

     iteration # 15     ecut=    36.75 Ry     beta=0.10
     Davidson diagonalization with overlap
     ethr =  4.10E-09,  avg # of iterations =  2.2

[...]

     negative rho (up, down):  1.200E+00 0.000E+00

     Adding external electric field

     Computed dipole along edir(3) :
        Dipole                0.0515 Ry au,          0.1308 Debye
        Dipole field          0.0001 Ry au

        Potential amp.       -0.0134 Ry
        Total length         45.1545 bohr

     End of self-consistent calculation

[...]

          k = 0.0604 0.0000 0.0000 ( 16440 PWs)   bands (ev):

[...]

          k =-0.0906-0.1569 0.0000 ( 16436 PWs)   bands (ev):

   -78.7724 -78.7535 -78.7340 -78.6082 -78.5763 -78.5671 -78.5631 -78.5500
   -78.5327 -40.8388 -40.7469 -40.6996 -40.6368 -40.5715 -40.5567 -40.5513
   -40.4925 -40.4789 -40.4757 -40.3720 -40.3109 -40.2783 -40.2656 -40.2257
   -40.2165 -40.2145 -40.2029 -40.1867 -40.1557 -40.1343 -40.1157 -40.1019
   -40.0618 -40.0535 -39.9303 -39.9094  -6.0002  -5.8665  -4.3288  -4.2893
    -3.7563  -3.6344  -3.3191  -3.0533  -2.3583  -2.2308  -2.0406  -1.9616
    -1.8698  -1.8471  -1.7067  -1.3317  -1.1101  -1.0302  -0.9109  -0.8461
    -0.7219  -0.3653  -0.2975  -0.1512  -0.1166   0.0683   0.1829   0.2876
     0.4928   0.5022   0.6611   0.7589   0.9471   1.5603   1.6797   1.8859
     1.9771   2.1260   2.1697   2.2644   2.4058   2.5145   2.6589   2.7962
     2.9306   3.0438   3.3949   3.5743   3.6208   4.0364   4.3725   4.7174
     5.2812   5.4188   5.8347   6.5581   6.5627   6.7631   7.2877   7.4948
     7.5330   7.7660   7.9893   8.0747   8.3367   8.4111

     the Fermi energy is     1.9918 ev

!    total energy              =   -1749.93443676 Ry
     Harris-Foulkes estimate   =   -1749.93443775 Ry
     estimated scf accuracy    <       0.00000034 Ry

     The total energy is the sum of the following terms:

     one-electron contribution =  -11883.28157886 Ry
     hartree contribution      =    5927.49183443 Ry
     xc contribution           =    -500.22344813 Ry
     ewald contribution        =    4706.14072666 Ry
     electric field correction =       0.00000762 Ry
     smearing contrib. (-TS)   =      -0.06197849 Ry

     convergence has been achieved in  15 iterations

 BEEF-vdW xc energy contributions
           1 :   -443.936515798379
           2 :    411.872618184434
           3 :   -354.691165277303
           4 :    283.756700782374
           5 :   -211.223203399756
           6 :    146.806940774994
           7 :   -95.9508192930784
           8 :    59.6649162442618
           9 :   -35.6859286212207
          10 :    20.2317190541440
          11 :   -9.64282157184789
          12 :    1.44336361572664
          13 :    5.33701778086026
          14 :   -10.4903326382384
          15 :    13.3428490208722
          16 :   -13.5105377251573
          17 :    11.3711102556304
          18 :   -8.06601805988851
          19 :    5.06377832075771
          20 :   -3.53545881032443
          21 :    3.87888175497903
          22 :   -5.63030083180479
          23 :    7.77710102358782
          24 :   -9.27901329794031
          25 :    9.52312756004960
          26 :   -8.51274855463225
          27 :    6.75258982556431
          28 :   -4.94398754504232
          29 :    3.66224293656728
          30 :   -3.15295795651792
          31 :   -37.5615144301568
          32 :   -27.8064846553671

     Forces acting on atoms (Ry/au):

     negative rho (up, down):  1.200E+00 0.000E+00
     atom    1 type  1   force =     0.00000029   -0.02829599    0.01383797
     atom    2 type  1   force =    -0.02450744    0.01414976    0.01384067
     atom    3 type  1   force =     0.02450475    0.01414565    0.01383871
     atom    4 type  2   force =     0.00000008   -0.00000075   -0.02945660
     atom    5 type  1   force =    -0.00000165    0.00990034   -0.00345930
     atom    6 type  1   force =     0.00857552   -0.00494653   -0.00345547
     atom    7 type  1   force =    -0.00857793   -0.00494814   -0.00345537
     atom    8 type  2   force =    -0.00000101   -0.00000027   -0.00493637
     atom    9 type  1   force =    -0.00000038    0.00015279    0.00070589
     atom   10 type  1   force =     0.00013471   -0.00008014    0.00070982
     atom   11 type  1   force =    -0.00013249   -0.00007792    0.00070939
     atom   12 type  2   force =     0.00000554    0.00000119    0.00112065

     Total force =     0.064819     Total SCF correction =     0.000951

     entering subroutine stress ...

     negative rho (up, down):  1.200E+00 0.000E+00
          total   stress  (Ry/bohr**3)                   (kbar)     P=  -37.98
  -0.00037132  -0.00000000   0.00000000        -54.62     -0.00      0.00
  -0.00000000  -0.00037132  -0.00000000         -0.00    -54.62     -0.00
   0.00000000  -0.00000000  -0.00003187          0.00     -0.00     -4.69

 !ASE

     Writing output data file calc.save

     General routines

     Parallel routines

   This run was terminated on:  18:26:40  31Dec2018

   JOB DONE.
Job  /afs/slac/g/suncat/bin/suncat-tsmpirun -x LD_LIBRARY_PATH -wdir /scratch/qe648824_VG8GO pw.x -in pw.inp

TID   HOST_NAME   COMMAND_LINE            STATUS            TERMINATION_TIME
00000 suncat0146 pw.x -in pw.inp   Done                     12/31/2018 18:26:40
00001 suncat0146 pw.x -in pw.inp   Done                     12/31/2018 18:26:40
00002 suncat0146 pw.x -in pw.inp   Done                     12/31/2018 18:26:40
00003 suncat0146 pw.x -in pw.inp   Done                     12/31/2018 18:26:40
00004 suncat0146 pw.x -in pw.inp   Done                     12/31/2018 18:26:40
00005 suncat0146 pw.x -in pw.inp   Done                     12/31/2018 18:26:40
00006 suncat0146 pw.x -in pw.inp   Done                     12/31/2018 18:26:40
00007 suncat0146 pw.x -in pw.inp   Done                     12/31/2018 18:26:40
00008 suncat0136 pw.x -in pw.inp   Done                     12/31/2018 18:26:40
00009 suncat0136 pw.x -in pw.inp   Done                     12/31/2018 18:26:40
00010 suncat0136 pw.x -in pw.inp   Done                     12/31/2018 18:26:40
00011 suncat0136 pw.x -in pw.inp   Done                     12/31/2018 18:26:40
00012 suncat0136 pw.x -in pw.inp   Done                     12/31/2018 18:26:40
00013 suncat0136 pw.x -in pw.inp   Done                     12/31/2018 18:26:40
00014 suncat0136 pw.x -in pw.inp   Done                     12/31/2018 18:26:40
00015 suncat0136 pw.x -in pw.inp   Done                     12/31/2018 18:26:40
00016 suncat0248 pw.x -in pw.inp   Done                     12/31/2018 18:26:40
00017 suncat0248 pw.x -in pw.inp   Done                     12/31/2018 18:26:40
00018 suncat0248 pw.x -in pw.inp   Done                     12/31/2018 18:26:40
00019 suncat0248 pw.x -in pw.inp   Done                     12/31/2018 18:26:40
00020 suncat0248 pw.x -in pw.inp   Done                     12/31/2018 18:26:40
00021 suncat0248 pw.x -in pw.inp   Done                     12/31/2018 18:26:40
00022 suncat0248 pw.x -in pw.inp   Done                     12/31/2018 18:26:40
00023 suncat0248 pw.x -in pw.inp   Done                     12/31/2018 18:26:40
00024 suncat0247 pw.x -in pw.inp   Done                     12/31/2018 18:26:40
00025 suncat0247 pw.x -in pw.inp   Done                     12/31/2018 18:26:40
00026 suncat0247 pw.x -in pw.inp   Done                     12/31/2018 18:26:40
00027 suncat0247 pw.x -in pw.inp   Done                     12/31/2018 18:26:40
00028 suncat0247 pw.x -in pw.inp   Done                     12/31/2018 18:26:40
00029 suncat0247 pw.x -in pw.inp   Done                     12/31/2018 18:26:40
00030 suncat0247 pw.x -in pw.inp   Done                     12/31/2018 18:26:40
00031 suncat0247 pw.x -in pw.inp   Done                     12/31/2018 18:26:40
00032 suncat0246 pw.x -in pw.inp   Done                     12/31/2018 18:26:40
00033 suncat0246 pw.x -in pw.inp   Done                     12/31/2018 18:26:40
00034 suncat0246 pw.x -in pw.inp   Done                     12/31/2018 18:26:40
00035 suncat0246 pw.x -in pw.inp   Done                     12/31/2018 18:26:40
00036 suncat0246 pw.x -in pw.inp   Done                     12/31/2018 18:26:40
00037 suncat0246 pw.x -in pw.inp   Done                     12/31/2018 18:26:40
00038 suncat0246 pw.x -in pw.inp   Done                     12/31/2018 18:26:40
00039 suncat0246 pw.x -in pw.inp   Done                     12/31/2018 18:26:40
00040 suncat0245 pw.x -in pw.inp   Done                     12/31/2018 18:26:40
00041 suncat0245 pw.x -in pw.inp   Done                     12/31/2018 18:26:40
00042 suncat0245 pw.x -in pw.inp   Done                     12/31/2018 18:26:40
00043 suncat0245 pw.x -in pw.inp   Done                     12/31/2018 18:26:40
00044 suncat0245 pw.x -in pw.inp   Done                     12/31/2018 18:26:40
00045 suncat0245 pw.x -in pw.inp   Done                     12/31/2018 18:26:40
00046 suncat0245 pw.x -in pw.inp   Done                     12/31/2018 18:26:40
00047 suncat0245 pw.x -in pw.inp   Done                     12/31/2018 18:26:40
00048 suncat0214 pw.x -in pw.inp   Done                     12/31/2018 18:26:40
00049 suncat0214 pw.x -in pw.inp   Done                     12/31/2018 18:26:40
00050 suncat0214 pw.x -in pw.inp   Done                     12/31/2018 18:26:40
00051 suncat0214 pw.x -in pw.inp   Done                     12/31/2018 18:26:40
00052 suncat0214 pw.x -in pw.inp   Done                     12/31/2018 18:26:40
00053 suncat0214 pw.x -in pw.inp   Done                     12/31/2018 18:26:40
00054 suncat0214 pw.x -in pw.inp   Done                     12/31/2018 18:26:40
00055 suncat0214 pw.x -in pw.inp   Done                     12/31/2018 18:26:40
00056 suncat0213 pw.x -in pw.inp   Done                     12/31/2018 18:26:40
00057 suncat0213 pw.x -in pw.inp   Done                     12/31/2018 18:26:40
00058 suncat0213 pw.x -in pw.inp   Done                     12/31/2018 18:26:40
00059 suncat0213 pw.x -in pw.inp   Done                     12/31/2018 18:26:40
00060 suncat0213 pw.x -in pw.inp   Done                     12/31/2018 18:26:40
00061 suncat0213 pw.x -in pw.inp   Done                     12/31/2018 18:26:40
00062 suncat0213 pw.x -in pw.inp   Done                     12/31/2018 18:26:40
00063 suncat0213 pw.x -in pw.inp   Done                     12/31/2018 18:26:40