     Program PWSCF v.5.1rc2 (svn rev. 11289) starts on  1Jan2019 at  8:49:44

     Current dimensions of program PWSCF are:
     Max number of different atomic species (ntypx) = 10
     Max number of k-points (npk) =  40000
     Max angular momentum in pseudopotentials (lmaxx) =  3
     Presently stress not available with electric field

     IMPORTANT: XC functional enforced from input :
     Exchange-correlation      = BEEF-VDW ( 1  4 27 13 2)
     Any further DFT definition will be discarded
     Please, verify this is what you really want

     Subspace diagonalization in iterative solution of the eigenvalue problem:
     a serial algorithm will be used

     bravais-lattice index     =            0
     lattice parameter (alat)  =       1.8897  a.u.
     unit-cell volume          =    5323.2240 (a.u.)^3
     number of atoms/cell      =           12
     number of atomic types    =            2
     number of electrons       =       147.00
     number of Kohn-Sham states=          103
     kinetic-energy cutoff     =      36.7493  Ry
     charge density cutoff     =     367.4932  Ry
     convergence threshold     =      1.0E-06
     mixing beta               =       0.1000
     number of iterations used =           10  plain     mixing
     Exchange-correlation      = BEEF-VDW ( 1  4 27 13 2)
     nstep                     =           50

     celldm(1)=   1.889726  celldm(2)=   0.000000  celldm(3)=   0.000000
     celldm(4)=   0.000000  celldm(5)=   0.000000  celldm(6)=   0.000000

     crystal axes: (cart. coord. in units of alat)
               a(1) = (   6.043942   0.000000   0.000000 )
               a(2) = (  -3.021971   5.234207   0.000000 )
               a(3) = (   0.000000   0.000000  24.934858 )

     reciprocal axes: (cart. coord. in units 2 pi/alat)
               b(1) = (  0.165455  0.095525  0.000000 )
               b(2) = (  0.000000  0.191051  0.000000 )
               b(3) = (  0.000000  0.000000  0.040104 )

     PseudoPot. # 1 for Sc read from file:
     /afs/slac.stanford.edu/u/if/mamunm/psp/gbrv1.5pbe/Sc.UPF
     MD5 check sum: db30a2753ba66ef00f23801d899b7e7f
     Pseudo is Ultrasoft + core correction, Zval = 11.0
     Generated by new atomic code, or converted to UPF format
     Using radial grid of  849 points,  6 beta functions with:
                l(1) =   0
                l(2) =   0
                l(3) =   1
                l(4) =   1
                l(5) =   2
                l(6) =   2
     Q(r) pseudized with  6 coefficients,  rinner =    1.200   1.200   1.200
                                                       1.200   1.200

     PseudoPot. # 2 for Os read from file:
     /afs/slac.stanford.edu/u/if/mamunm/psp/gbrv1.5pbe/Os.UPF
     MD5 check sum: a3fb40a04f0c37c25c34bbc47164c9a8
     Pseudo is Ultrasoft + core correction, Zval = 16.0
     Generated by new atomic code, or converted to UPF format
     Using radial grid of  983 points,  8 beta functions with:
                l(1) =   0
                l(2) =   0
                l(3) =   1
                l(4) =   1
                l(5) =   2
                l(6) =   2
                l(7) =   3
                l(8) =   3
     Q(r) pseudized with  8 coefficients,  rinner =    1.150   1.150   1.150
                                                       1.150   1.150   1.150
                                                       1.150

     vdW kernel table read from file vdW_kernel_table
     MD5 check sum: 095c7af220d748ca6e76c0b4c6cfb241

     atomic species   valence    mass     pseudopotential
        Sc1           11.00    44.95591     Sc( 1.00)
        Os1           16.00   190.23000     Os( 1.00)

     No symmetry found

   Cartesian axes

     site n.     atom                  positions (alat units)
         1           Sc1 tau(   1) = (   0.0000000   0.0000000  10.0000000  )
         2           Sc1 tau(   2) = (  -1.5109856   2.6171037  10.0000000  )
         3           Sc1 tau(   3) = (   1.5109856   2.6171037  10.0000000  )
         4           Os1 tau(   4) = (   3.0219711   0.0000000  10.0000000  )
         5           Sc1 tau(   5) = (   3.0219711   1.7447358  12.4674291  )
         6           Sc1 tau(   6) = (   1.5109856   4.3618396  12.4674291  )
         7           Sc1 tau(   7) = (  -1.5109856   4.3618396  12.4674291  )
         8           Os1 tau(   8) = (   0.0000000   1.7447358  12.4674291  )
         9           Sc1 tau(   9) = (  -0.0000000   3.4894717  14.9348581  )
        10           Sc1 tau(  10) = (   1.5109856   0.8723679  14.9348581  )
        11           Sc1 tau(  11) = (   4.5329567   0.8723679  14.9348581  )
        12           Os1 tau(  12) = (   3.0219711   3.4894717  14.9348581  )

     number of k points=    20  Fermi-Dirac smearing, width (Ry)=  0.0110
                       cart. coord. in units 2pi/alat
        k(    1) = (   0.0000000   0.0000000   0.0000000), wk =   0.0555556
        k(    2) = (   0.0000000   0.0318418   0.0000000), wk =   0.1111111
        k(    3) = (   0.0000000   0.0636836   0.0000000), wk =   0.1111111
        k(    4) = (   0.0000000  -0.0955254   0.0000000), wk =   0.0555556
        k(    5) = (   0.0275758   0.0159209   0.0000000), wk =   0.1111111
        k(    6) = (   0.0275758   0.0477627   0.0000000), wk =   0.1111111
        k(    7) = (   0.0275758   0.0796045   0.0000000), wk =   0.1111111
        k(    8) = (   0.0275758  -0.0796045   0.0000000), wk =   0.1111111
        k(    9) = (   0.0275758  -0.0477627   0.0000000), wk =   0.1111111
        k(   10) = (   0.0275758  -0.0159209   0.0000000), wk =   0.1111111
        k(   11) = (   0.0551516   0.0318418   0.0000000), wk =   0.1111111
        k(   12) = (   0.0551516   0.0636836   0.0000000), wk =   0.1111111
        k(   13) = (   0.0551516   0.0955254   0.0000000), wk =   0.1111111
        k(   14) = (   0.0551516  -0.0636836   0.0000000), wk =   0.1111111
        k(   15) = (   0.0551516  -0.0318418   0.0000000), wk =   0.1111111
        k(   16) = (   0.0551516   0.0000000   0.0000000), wk =   0.1111111
        k(   17) = (  -0.0827275  -0.0477627   0.0000000), wk =   0.0555556
        k(   18) = (  -0.0827275  -0.0159209   0.0000000), wk =   0.1111111
        k(   19) = (  -0.0827275   0.0159209   0.0000000), wk =   0.1111111
        k(   20) = (  -0.0827275  -0.1432882   0.0000000), wk =   0.0555556

     Largest allocated arrays     est. size (Mb)     dimensions
     Largest temporary arrays     est. size (Mb)     dimensions

     Initial potential from superposition of free atoms
     Check: negative starting charge=   -0.375926

     starting charge  145.47827, renormalised to  147.00000

     negative rho (up, down):  3.799E-01 0.000E+00

     *
     * You are using vdW-DF for exchange-correlation in this calculation.
     * Please cite the following three references that made this development
     * possible:
     *
     *   M. Dion, H. Rydberg, E. Schroder, D. C. Langreth, and
     *   B. I. Lundqvist, Phys. Rev. Lett. 92, 246401 (2004).
     *
     *   T. Thonhauser, V. R. Cooper, S. Li, A. Puzder, P. Hyldgaard, and
     *   D. C. Langreth, Phys. Rev. B 76, 125112 (2007).
     *
     *   G. Roman-Perez and J. M. Soler, Phys. Rev. Lett. 103, 096102 (2009).
     *
     *
     * If you are using vdW-DF2, please also cite:
     *
     *   K. Lee, E. D. Murray, L. Kong, B. I. Lundqvist, and
     *   D. C. Langreth, Phys. Rev. B 82, 081101(R) (2010).
     *
     *
     * If you are calculating the stress with vdW-DF, please also cite:
     *
     *   R. Sabatini, E. Kucukbenli, B. Kolb, T. Thonhauser, and
     *   S. de Gironcoli, J. Phys.: Condens. Matter 24, 424209 (2012).
     *

     Carrying out vdW-DF run using the following parameters:

     Nqs =      20    Nr_points =    1024   r_max =   100.000
     q_mesh =
               0.00001000     0.04494208     0.09755937     0.15916263
               0.23128650     0.31572767     0.41458969     0.53033537
               0.66584808     0.82450364     1.01025438     1.22772762
               1.48234092     1.78043706     2.12944203     2.53805004
               3.01644009     3.57652955     4.23227104     5.00000000

     Gradients computed in reciprocal space

     Adding external electric field

     Computed dipole along edir(3) :
        Dipole                0.0000 Ry au,          0.0000 Debye
        Dipole field          0.0000 Ry au

        Potential amp.       -0.0000 Ry
        Total length         45.9421 bohr

     Starting wfc are  156 randomized atomic wfcs

     Self-consistent Calculation

     iteration #  1     ecut=    36.75 Ry     beta=0.10
     Davidson diagonalization with overlap
     ethr =  1.00E-02,  avg # of iterations =  2.0

[...]

     total energy              =   -1452.22548285 Ry
     Harris-Foulkes estimate   =   -1453.50043162 Ry
     estimated scf accuracy    <       7.22541160 Ry

[...]

     End of self-consistent calculation

          k = 0.0000 0.0000 0.0000 ( 19903 PWs)   bands (ev):

   -84.5460 -84.2604 -84.2603 -48.7266 -48.7240 -48.6519 -48.6518 -48.6513
   -48.6512 -48.3359 -48.2650 -48.2650 -43.8255 -43.8066 -43.8066 -43.5717
   -43.5716 -43.5714 -43.5714 -43.5061 -43.5052 -27.6404 -27.6146 -27.4502
   -27.4136 -27.4136 -27.3759 -27.3759 -27.3677 -27.3445 -27.3445 -27.2978
   -27.2978 -27.2167 -27.1044 -27.0951 -27.0613 -27.0613 -27.0528 -27.0528
   -26.9603 -26.9603 -26.8872 -26.8531 -26.8531 -26.7126 -26.6810 -26.6810
    -4.5744  -3.3341  -2.3590  -1.6584  -1.6584  -1.5354  -1.5150  -1.5150
    -1.1566  -1.1365  -1.1365  -0.9512  -0.9512  -0.7576  -0.7380  -0.3314
    -0.3314   0.0625   0.2771   0.2771   0.6416   0.6688   1.4304   1.5017
     1.6155   1.7105   1.7105   1.7473   1.8290   1.8290   2.0799   2.0799
     2.1256   2.1831   2.1831   2.3398   2.3398   2.5262   2.5262   2.6181
     2.8617   2.8617   2.9225   2.9268   2.9268   3.4020   3.4020   3.5207
     3.7719   4.1046   4.1046   4.1770   4.1770   4.5850   4.5851

[...]

          k =-0.0827-0.0478 0.0000 ( 20048 PWs)   bands (ev):

[...]

     the Fermi energy is     1.1705 ev

!    total energy              =   -1452.66918890 Ry
     Harris-Foulkes estimate   =   -1452.66919136 Ry
     estimated scf accuracy    <       0.00000048 Ry

     The total energy is the sum of the following terms:

     one-electron contribution =  -10088.98856427 Ry
     hartree contribution      =    5027.94011131 Ry
     xc contribution           =    -241.10505488 Ry
     ewald contribution        =    3849.58274302 Ry
     electric field correction =       0.00000005 Ry
     smearing contrib. (-TS)   =      -0.09842413 Ry

     convergence has been achieved in  19 iterations

 BEEF-vdW xc energy contributions
           1 :   -207.669511647661
           2 :    187.387243724963
           3 :   -154.018782357811
           4 :    118.034062828690
           5 :   -88.1270323494301
           6 :    68.0816946285033
           7 :   -56.8642592653384
           8 :    50.9947200733815
           9 :   -47.1888697786600
          10 :    43.7272969798598
          11 :   -40.2952725797844
          12 :    37.0539111682672
          13 :   -33.9337627786650
          14 :    30.6285801570767
[...]

     PseudoPot. # 1 for Sc read from file:
     /afs/slac.stanford.edu/u/if/mamunm/psp/gbrv1.5pbe/Sc.UPF
     MD5 check sum: db30a2753ba66ef00f23801d899b7e7f
     Pseudo is Ultrasoft + core correction, Zval = 11.0
     Generated by new atomic code, or converted to UPF format
     Using radial grid of  849 points,  6 beta functions with:
                l(1) =   0
                l(2) =   0
                l(3) =   1
                l(4) =   1
                l(5) =   2
                l(6) =   2
     Q(r) pseudized with  6 coefficients,  rinner =    1.200   1.200   1.200
                                                       1.200   1.200

     PseudoPot. # 2 for Os read from file:
     /afs/slac.stanford.edu/u/if/mamunm/psp/gbrv1.5pbe/Os.UPF
     MD5 check sum: a3fb40a04f0c37c25c34bbc47164c9a8
     Pseudo is Ultrasoft + core correction, Zval = 16.0
     Generated by new atomic code, or converted to UPF format
     Using radial grid of  983 points,  8 beta functions with:
                l(1) =   0
                l(2) =   0
                l(3) =   1
                l(4) =   1
                l(5) =   2
                l(6) =   2
                l(7) =   3
                l(8) =   3
     Q(r) pseudized with  8 coefficients,  rinner =    1.150   1.150   1.150
                                                       1.150   1.150   1.150
                                                       1.150

     vdW kernel table read from file vdW_kernel_table
     MD5 check sum: 095c7af220d748ca6e76c0b4c6cfb241

     atomic species   valence    mass     pseudopotential
        Sc1           11.00    44.95591     Sc( 1.00)
        Os1           16.00   190.23000     Os( 1.00)

     No symmetry found

   Cartesian axes

     site n.     atom                  positions (alat units)
         1           Sc1 tau(   1) = (   0.0000000   0.0000000  10.0000000  )
         2           Sc1 tau(   2) = (  -1.5109856   2.6171037  10.0000000  )
         3           Sc1 tau(   3) = (   1.5109856   2.6171037  10.0000000  )
         4           Os1 tau(   4) = (   3.0219711   0.0000000  10.0000000  )
         5           Sc1 tau(   5) = (   3.0219711   1.7447358  12.4674291  )
         6           Sc1 tau(   6) = (   1.5109856   4.3618396  12.4674291  )
         7           Sc1 tau(   7) = (  -1.5109856   4.3618396  12.4674291  )
         8           Os1 tau(   8) = (   0.0000000   1.7447358  12.4674291  )
         9           Sc1 tau(   9) = (   0.0000050   3.4509492  14.9504448  )
        10           Sc1 tau(  10) = (   1.4776301   0.8916466  14.9504356  )
        11           Sc1 tau(  11) = (   4.5663360   0.8916542  14.9504188  )
        12           Os1 tau(  12) = (   3.0219764   3.4894854  14.5404993  )

     number of k points=    20  Fermi-Dirac smearing, width (Ry)=  0.0110
                       cart. coord. in units 2pi/alat
        k(    1) = (   0.0000000   0.0000000   0.0000000), wk =   0.0555556
        k(    2) = (   0.0000000   0.0318418   0.0000000), wk =   0.1111111
        k(    3) = (   0.0000000   0.0636836   0.0000000), wk =   0.1111111
        k(    4) = (   0.0000000  -0.0955254   0.0000000), wk =   0.0555556
        k(    5) = (   0.0275758   0.0159209   0.0000000), wk =   0.1111111
        k(    6) = (   0.0275758   0.0477627   0.0000000), wk =   0.1111111
        k(    7) = (   0.0275758   0.0796045   0.0000000), wk =   0.1111111
        k(    8) = (   0.0275758  -0.0796045   0.0000000), wk =   0.1111111
        k(    9) = (   0.0275758  -0.0477627   0.0000000), wk =   0.1111111
        k(   10) = (   0.0275758  -0.0159209   0.0000000), wk =   0.1111111
        k(   11) = (   0.0551516   0.0318418   0.0000000), wk =   0.1111111
        k(   12) = (   0.0551516   0.0636836   0.0000000), wk =   0.1111111
        k(   13) = (   0.0551516   0.0955254   0.0000000), wk =   0.1111111
        k(   14) = (   0.0551516  -0.0636836   0.0000000), wk =   0.1111111
        k(   15) = (   0.0551516  -0.0318418   0.0000000), wk =   0.1111111
        k(   16) = (   0.0551516   0.0000000   0.0000000), wk =   0.1111111
        k(   17) = (  -0.0827275  -0.0477627   0.0000000), wk =   0.0555556
        k(   18) = (  -0.0827275  -0.0159209   0.0000000), wk =   0.1111111
        k(   19) = (  -0.0827275   0.0159209   0.0000000), wk =   0.1111111
        k(   20) = (  -0.0827275  -0.1432882   0.0000000), wk =   0.0555556

     Largest allocated arrays     est. size (Mb)     dimensions
     Largest temporary arrays     est. size (Mb)     dimensions

     Initial potential from superposition of free atoms
     Check: negative starting charge=   -0.377981

     starting charge  145.47827, renormalised to  147.00000

[...]

     *
     * You are using vdW-DF for exchange-correlation in this calculation.
     * Please cite the following three references that made this development
     * possible:
     *
     *   M. Dion, H. Rydberg, E. Schroder, D. C. Langreth, and
     *   B. I. Lundqvist, Phys. Rev. Lett. 92, 246401 (2004).
     *
     *   T. Thonhauser, V. R. Cooper, S. Li, A. Puzder, P. Hyldgaard, and
     *   D. C. Langreth, Phys. Rev. B 76, 125112 (2007).
     *
     *   G. Roman-Perez and J. M. Soler, Phys. Rev. Lett. 103, 096102 (2009).
     *
     *
     * If you are using vdW-DF2, please also cite:
     *
     *   K. Lee, E. D. Murray, L. Kong, B. I. Lundqvist, and
     *   D. C. Langreth, Phys. Rev. B 82, 081101(R) (2010).
     *
     *
     * If you are calculating the stress with vdW-DF, please also cite:
     *
     *   R. Sabatini, E. Kucukbenli, B. Kolb, T. Thonhauser, and
     *   S. de Gironcoli, J. Phys.: Condens. Matter 24, 424209 (2012).
     *

     Carrying out vdW-DF run using the following parameters:

     Nqs =      20    Nr_points =    1024   r_max =   100.000
     q_mesh =
               0.00001000     0.04494208     0.09755937     0.15916263
               0.23128650     0.31572767     0.41458969     0.53033537
               0.66584808     0.82450364     1.01025438     1.22772762
               1.48234092     1.78043706     2.12944203     2.53805004
               3.01644009     3.57652955     4.23227104     5.00000000

     Gradients computed in reciprocal space

[...]

     Starting wfc are  156 randomized atomic wfcs

     Self-consistent Calculation

[...]

     total energy              =   -1452.69966486 Ry
     Harris-Foulkes estimate   =   -1452.69966460 Ry
     estimated scf accuracy    <       0.00000127 Ry

     iteration # 19     ecut=    36.75 Ry     beta=0.10
     Davidson diagonalization with overlap
     ethr =  8.62E-10,  avg # of iterations =  2.7

[...]

     negative rho (up, down):  3.661E-01 0.000E+00

     Adding external electric field

     Computed dipole along edir(3) :
        Dipole                0.0806 Ry au,          0.2048 Debye
        Dipole field          0.0002 Ry au

        Potential amp.       -0.0175 Ry
        Total length         45.9421 bohr

     End of self-consistent calculation

[...]

          k = 0.0552 0.0000 0.0000 ( 20017 PWs)   bands (ev):

[...]

          k =-0.0827-0.1433 0.0000 ( 20048 PWs)   bands (ev):

   -84.4888 -84.2021 -84.1141 -48.6588 -48.6284 -48.6061 -48.6059 -48.5813
   -48.5568 -48.0685 -48.0435 -48.0190 -43.7729 -43.7505 -43.7496 -43.5269
   -43.5262 -43.4834 -43.4354 -43.4346 -43.3479 -27.4289 -27.4050 -27.3449
   -27.3324 -27.2893 -27.2815 -27.2616 -27.2569 -27.2333 -27.2235 -27.1914
   -27.1859 -27.1789 -27.1727 -27.1434 -27.1344 -26.9959 -26.9719 -26.8679
   -26.7023 -26.6736 -26.6417 -26.6342 -26.6269 -26.6154 -26.6044 -26.4532
    -3.2650  -2.9193  -2.1580  -1.5341  -1.3320  -1.2061  -1.0331  -0.8773
    -0.7939  -0.6628  -0.6475  -0.4804  -0.4456  -0.3387  -0.3133  -0.1263
    -0.1145  -0.0013   0.1317   0.2816   0.4075   0.5548   0.6258   0.9395
     1.0203   1.1446   1.2509   1.3895   1.4314   1.5576   1.6482   1.6834
     1.7179   1.7576   1.9029   2.0142   2.3923   2.4307   2.5113   2.6197
     2.6784   2.8934   3.0029   3.1073   3.1701   3.2363   3.2628   3.4771
     3.4946   3.7220   3.7942   3.8650   3.8934   3.9437   4.0152

     the Fermi energy is     1.2634 ev

!    total energy              =   -1452.69966373 Ry
     Harris-Foulkes estimate   =   -1452.69966638 Ry
     estimated scf accuracy    <       0.00000070 Ry

     The total energy is the sum of the following terms:

     one-electron contribution =  -10249.51591481 Ry
     hartree contribution      =    5108.76697270 Ry
     xc contribution           =    -241.24789616 Ry
     ewald contribution        =    3929.39416062 Ry
     electric field correction =       0.00001533 Ry
     smearing contrib. (-TS)   =      -0.09700141 Ry

     convergence has been achieved in  19 iterations

 BEEF-vdW xc energy contributions
           1 :   -207.869930855185
           2 :    187.639233521236
           3 :   -154.327854733162
           4 :    118.343113039389
           5 :   -88.3428436913088
           6 :    68.1341658756901
           7 :   -56.7584087069012
           8 :    50.8103909265115
           9 :   -47.0250906945559
          10 :    43.6402059594872
          11 :   -40.2818322783468
          12 :    37.0844585485272
          13 :   -33.9909028308483
          14 :    30.7144471824364
          15 :   -27.1677132867533
          16 :    23.7708430723695
          17 :   -21.2433749496337
          18 :    20.0245352063049
          19 :   -19.8523609354728
          20 :    19.8929440423711
          21 :   -19.3235101010358
          22 :    17.8905288998852
          23 :   -16.0170455281555
          24 :    14.4159841537472
          25 :   -13.5466346230684
          26 :    13.3283398213288
          27 :   -13.2872098815609
          28 :    12.9627235607054
          29 :   -12.2302675239523
          30 :    11.3120389093610
          31 :   -22.1086485226482
          32 :   -16.2233076300851

     Forces acting on atoms (Ry/au):

     negative rho (up, down):  3.661E-01 0.000E+00
     atom    1 type  1   force =     0.00000119    0.01920521   -0.00716276
     atom    2 type  1   force =     0.01663131   -0.00960324   -0.00716342
     atom    3 type  1   force =    -0.01663320   -0.00960569   -0.00716358
     atom    4 type  2   force =    -0.00000041   -0.00000085    0.05082114
     atom    5 type  1   force =     0.00000087   -0.00910958   -0.01112847
     atom    6 type  1   force =    -0.00789269    0.00455517   -0.01112865
     atom    7 type  1   force =     0.00789127    0.00455345   -0.01112797
     atom    8 type  2   force =     0.00000665   -0.00000210    0.00690003
     atom    9 type  1   force =    -0.00000193   -0.00014332   -0.00111001
     atom   10 type  1   force =    -0.00012347    0.00007305   -0.00110751
     atom   11 type  1   force =     0.00012092    0.00007397   -0.00110983
     atom   12 type  2   force =    -0.00000050    0.00000393    0.00048103

     Total force =     0.067197     Total SCF correction =     0.004109

     entering subroutine stress ...

     negative rho (up, down):  3.661E-01 0.000E+00
          total   stress  (Ry/bohr**3)                   (kbar)     P=   -7.16
  -0.00005641   0.00000000   0.00000000         -8.30      0.00      0.00
   0.00000000  -0.00005641  -0.00000000          0.00     -8.30     -0.00
   0.00000000  -0.00000000  -0.00003318          0.00     -0.00     -4.88

 !ASE

     Writing output data file calc.save

     General routines

     Parallel routines

   This run was terminated on:  10:13:14   1Jan2019

   JOB DONE.
Job  /afs/slac/g/suncat/bin/suncat-tsmpirun -x LD_LIBRARY_PATH -wdir /scratch/qe648977_lASrp pw.x -in pw.inp

TID   HOST_NAME   COMMAND_LINE            STATUS            TERMINATION_TIME
00000 suncat0043 pw.x -in pw.inp   Done                     01/01/2019 10:13:14
00001 suncat0043 pw.x -in pw.inp   Done                     01/01/2019 10:13:14
00002 suncat0043 pw.x -in pw.inp   Done                     01/01/2019 10:13:14
00003 suncat0043 pw.x -in pw.inp   Done                     01/01/2019 10:13:14
00004 suncat0043 pw.x -in pw.inp   Done                     01/01/2019 10:13:14
00005 suncat0043 pw.x -in pw.inp   Done                     01/01/2019 10:13:14
00006 suncat0043 pw.x -in pw.inp   Done                     01/01/2019 10:13:14
00007 suncat0043 pw.x -in pw.inp   Done                     01/01/2019 10:13:14
00008 suncat0041 pw.x -in pw.inp   Done                     01/01/2019 10:13:14
00009 suncat0041 pw.x -in pw.inp   Done                     01/01/2019 10:13:14
00010 suncat0041 pw.x -in pw.inp   Done                     01/01/2019 10:13:14
00011 suncat0041 pw.x -in pw.inp   Done                     01/01/2019 10:13:14
00012 suncat0041 pw.x -in pw.inp   Done                     01/01/2019 10:13:14
00013 suncat0041 pw.x -in pw.inp   Done                     01/01/2019 10:13:14
00014 suncat0041 pw.x -in pw.inp   Done                     01/01/2019 10:13:14
00015 suncat0041 pw.x -in pw.inp   Done                     01/01/2019 10:13:14
00016 suncat0039 pw.x -in pw.inp   Done                     01/01/2019 10:13:14
00017 suncat0039 pw.x -in pw.inp   Done                     01/01/2019 10:13:14
00018 suncat0039 pw.x -in pw.inp   Done                     01/01/2019 10:13:14
00019 suncat0039 pw.x -in pw.inp   Done                     01/01/2019 10:13:14
00020 suncat0039 pw.x -in pw.inp   Done                     01/01/2019 10:13:14
00021 suncat0039 pw.x -in pw.inp   Done                     01/01/2019 10:13:14
00022 suncat0039 pw.x -in pw.inp   Done                     01/01/2019 10:13:14
00023 suncat0039 pw.x -in pw.inp   Done                     01/01/2019 10:13:14
00024 suncat0025 pw.x -in pw.inp   Done                     01/01/2019 10:13:14
00025 suncat0025 pw.x -in pw.inp   Done                     01/01/2019 10:13:14
00026 suncat0025 pw.x -in pw.inp   Done                     01/01/2019 10:13:14
00027 suncat0025 pw.x -in pw.inp   Done                     01/01/2019 10:13:14
00028 suncat0025 pw.x -in pw.inp   Done                     01/01/2019 10:13:14
00029 suncat0025 pw.x -in pw.inp   Done                     01/01/2019 10:13:14
00030 suncat0025 pw.x -in pw.inp   Done                     01/01/2019 10:13:14
00031 suncat0025 pw.x -in pw.inp   Done                     01/01/2019 10:13:14
00032 suncat0013 pw.x -in pw.inp   Done                     01/01/2019 10:13:14
00033 suncat0013 pw.x -in pw.inp   Done                     01/01/2019 10:13:14
00034 suncat0013 pw.x -in pw.inp   Done                     01/01/2019 10:13:14
00035 suncat0013 pw.x -in pw.inp   Done                     01/01/2019 10:13:14
00036 suncat0013 pw.x -in pw.inp   Done                     01/01/2019 10:13:14
00037 suncat0013 pw.x -in pw.inp   Done                     01/01/2019 10:13:14
00038 suncat0013 pw.x -in pw.inp   Done                     01/01/2019 10:13:14
00039 suncat0013 pw.x -in pw.inp   Done                     01/01/2019 10:13:14
00040 suncat0008 pw.x -in pw.inp   Done                     01/01/2019 10:13:14
00041 suncat0008 pw.x -in pw.inp   Done                     01/01/2019 10:13:14
00042 suncat0008 pw.x -in pw.inp   Done                     01/01/2019 10:13:14
00043 suncat0008 pw.x -in pw.inp   Done                     01/01/2019 10:13:14
00044 suncat0008 pw.x -in pw.inp   Done                     01/01/2019 10:13:14
00045 suncat0008 pw.x -in pw.inp   Done                     01/01/2019 10:13:14
00046 suncat0008 pw.x -in pw.inp   Done                     01/01/2019 10:13:14
00047 suncat0008 pw.x -in pw.inp   Done                     01/01/2019 10:13:14
00048 suncat0117 pw.x -in pw.inp   Done                     01/01/2019 10:13:14
00049 suncat0117 pw.x -in pw.inp   Done                     01/01/2019 10:13:14
00050 suncat0117 pw.x -in pw.inp   Done                     01/01/2019 10:13:14
00051 suncat0117 pw.x -in pw.inp   Done                     01/01/2019 10:13:14
00052 suncat0117 pw.x -in pw.inp   Done                     01/01/2019 10:13:14
00053 suncat0117 pw.x -in pw.inp   Done                     01/01/2019 10:13:14
00054 suncat0117 pw.x -in pw.inp   Done                     01/01/2019 10:13:14
00055 suncat0117 pw.x -in pw.inp   Done                     01/01/2019 10:13:14
00056 suncat0250 pw.x -in pw.inp   Done                     01/01/2019 10:13:14
00057 suncat0250 pw.x -in pw.inp   Done                     01/01/2019 10:13:14
00058 suncat0250 pw.x -in pw.inp   Done                     01/01/2019 10:13:14
00059 suncat0250 pw.x -in pw.inp   Done                     01/01/2019 10:13:14
00060 suncat0250 pw.x -in pw.inp   Done                     01/01/2019 10:13:14
00061 suncat0250 pw.x -in pw.inp   Done                     01/01/2019 10:13:14
00062 suncat0250 pw.x -in pw.inp   Done                     01/01/2019 10:13:14
00063 suncat0250 pw.x -in pw.inp   Done                     01/01/2019 10:13:14