     Program PWSCF v.5.1rc2 (svn rev. 11289) starts on 27Dec2018 at 17:48:50

     Current dimensions of program PWSCF are:
     Max number of different atomic species (ntypx) = 10
     Max number of k-points (npk) =  40000
     Max angular momentum in pseudopotentials (lmaxx) =  3
     Presently stress not available with electric field

     IMPORTANT: XC functional enforced from input :
     Exchange-correlation      = BEEF-VDW ( 1  4 27 13 2)
     Any further DFT definition will be discarded
     Please, verify this is what you really want

     Subspace diagonalization in iterative solution of the eigenvalue problem:
     a serial algorithm will be used

     bravais-lattice index     =            0
     lattice parameter (alat)  =       1.8897  a.u.
     unit-cell volume          =    4784.5607 (a.u.)^3
     number of atoms/cell      =           12
     number of atomic types    =            2
     number of electrons       =       186.00
     number of Kohn-Sham states=          123
     kinetic-energy cutoff     =      36.7493  Ry
     charge density cutoff     =     367.4932  Ry
     convergence threshold     =      1.0E-06
     mixing beta               =       0.1000
     number of iterations used =           10  plain     mixing
     Exchange-correlation      = BEEF-VDW ( 1  4 27 13 2)
     nstep                     =           50

     celldm(1)=   1.889726  celldm(2)=   0.000000  celldm(3)=   0.000000
     celldm(4)=   0.000000  celldm(5)=   0.000000  celldm(6)=   0.000000

     crystal axes: (cart. coord. in units of alat)
               a(1) = (   5.757093   0.000000   0.000000 )
               a(2) = (  -2.878547   4.985789   0.000000 )
               a(3) = (   0.000000   0.000000  24.700647 )

     reciprocal axes: (cart. coord. in units 2 pi/alat)
               b(1) = (  0.173699  0.100285  0.000000 )
               b(2) = (  0.000000  0.200570  0.000000 )
               b(3) = (  0.000000  0.000000  0.040485 )

     PseudoPot. # 1 for Pd read from file:
     /afs/slac.stanford.edu/u/if/mamunm/psp/gbrv1.5pbe/Pd.UPF
     MD5 check sum: 2d733d2bc2cbfd217af676df1668a4bc
     Pseudo is Ultrasoft + core correction, Zval = 16.0
     Generated by new atomic code, or converted to UPF format
     Using radial grid of  887 points,  6 beta functions with:
                l(1) =   0
                l(2) =   0
                l(3) =   1
                l(4) =   1
                l(5) =   2
                l(6) =   2
     Q(r) pseudized with  8 coefficients,  rinner =    1.130   1.130   1.130
                                                       1.130   1.130

     PseudoPot. # 2 for Sn read from file:
     /afs/slac.stanford.edu/u/if/mamunm/psp/gbrv1.5pbe/Sn.UPF
     MD5 check sum: 469debedee59599fedebd795477fea03
     Pseudo is Ultrasoft + core correction, Zval = 14.0
     Generated by new atomic code, or converted to UPF format
     Using radial grid of  891 points,  6 beta functions with:
                l(1) =   0
                l(2) =   0
                l(3) =   1
                l(4) =   1
                l(5) =   2
                l(6) =   2
     Q(r) pseudized with  8 coefficients,  rinner =    1.350   1.350   1.350
                                                       1.350   1.350

     vdW kernel table read from file vdW_kernel_table
     MD5 check sum: 095c7af220d748ca6e76c0b4c6cfb241

     atomic species   valence    mass     pseudopotential
        Pd1           16.00   106.42000     Pd( 1.00)
        Sn1           14.00   118.71000     Sn( 1.00)

     No symmetry found

   Cartesian axes

     site n.     atom                  positions (alat units)
         1           Pd1 tau(   1) = (   0.0000000   0.0000000  10.0000000  )
         2           Pd1 tau(   2) = (  -1.4392733   2.4928944  10.0000000  )
         3           Pd1 tau(   3) = (   1.4392733   2.4928944  10.0000000  )
         4           Sn1 tau(   4) = (   2.8785466   0.0000000  10.0000000  )
         5           Pd1 tau(   5) = (   2.8785466   1.6619296  12.3503234  )
         6           Pd1 tau(   6) = (   1.4392733   4.1548241  12.3503234  )
         7           Pd1 tau(   7) = (  -1.4392733   4.1548241  12.3503234  )
         8           Sn1 tau(   8) = (   0.0000000   1.6619296  12.3503234  )
         9           Pd1 tau(   9) = (  -0.0000000   3.3238593  14.7006468  )
        10           Pd1 tau(  10) = (   1.4392733   0.8309648  14.7006468  )
        11           Pd1 tau(  11) = (   4.3178198   0.8309648  14.7006468  )
        12           Sn1 tau(  12) = (   2.8785466   3.3238593  14.7006468  )

     number of k points=    20  Fermi-Dirac smearing, width (Ry)=  0.0110
                       cart. coord. in units 2pi/alat
        k(    1) = (   0.0000000   0.0000000   0.0000000), wk =   0.0555556
        k(    2) = (   0.0000000   0.0334283   0.0000000), wk =   0.1111111
        k(    3) = (   0.0000000   0.0668567   0.0000000), wk =   0.1111111
        k(    4) = (   0.0000000  -0.1002850   0.0000000), wk =   0.0555556
        k(    5) = (   0.0289498   0.0167142   0.0000000), wk =   0.1111111
        k(    6) = (   0.0289498   0.0501425   0.0000000), wk =   0.1111111
        k(    7) = (   0.0289498   0.0835709   0.0000000), wk =   0.1111111
        k(    8) = (   0.0289498  -0.0835709   0.0000000), wk =   0.1111111
        k(    9) = (   0.0289498  -0.0501425   0.0000000), wk =   0.1111111
        k(   10) = (   0.0289498  -0.0167142   0.0000000), wk =   0.1111111
        k(   11) = (   0.0578996   0.0334283   0.0000000), wk =   0.1111111
        k(   12) = (   0.0578996   0.0668567   0.0000000), wk =   0.1111111
        k(   13) = (   0.0578996   0.1002850   0.0000000), wk =   0.1111111
        k(   14) = (   0.0578996  -0.0668567   0.0000000), wk =   0.1111111
        k(   15) = (   0.0578996  -0.0334283   0.0000000), wk =   0.1111111
        k(   16) = (   0.0578996   0.0000000   0.0000000), wk =   0.1111111
        k(   17) = (  -0.0868494  -0.0501425   0.0000000), wk =   0.0555556
        k(   18) = (  -0.0868494  -0.0167142   0.0000000), wk =   0.1111111
        k(   19) = (  -0.0868494   0.0167142   0.0000000), wk =   0.1111111
        k(   20) = (  -0.0868494  -0.1504275   0.0000000), wk =   0.0555556

     Largest allocated arrays     est. size (Mb)     dimensions
     Largest temporary arrays     est. size (Mb)     dimensions

     Initial potential from superposition of free atoms
     Check: negative starting charge=   -0.689188

     starting charge  178.49980, renormalised to  186.00000

     negative rho (up, down):  7.181E-01 0.000E+00

     *
     * You are using vdW-DF for exchange-correlation in this calculation.
     * Please cite the following three references that made this development
     * possible:
     *
     *   M. Dion, H. Rydberg, E. Schroder, D. C. Langreth, and
     *   B. I. Lundqvist, Phys. Rev. Lett. 92, 246401 (2004).
     *
     *   T. Thonhauser, V. R. Cooper, S. Li, A. Puzder, P. Hyldgaard, and
     *   D. C. Langreth, Phys. Rev. B 76, 125112 (2007).
     *
     *   G. Roman-Perez and J. M. Soler, Phys. Rev. Lett. 103, 096102 (2009).
     *
     *
     * If you are using vdW-DF2, please also cite:
     *
     *   K. Lee, E. D. Murray, L. Kong, B. I. Lundqvist, and
     *   D. C. Langreth, Phys. Rev. B 82, 081101(R) (2010).
     *
     *
     * If you are calculating the stress with vdW-DF, please also cite:
     *
     *   R. Sabatini, E. Kucukbenli, B. Kolb, T. Thonhauser, and
     *   S. de Gironcoli, J. Phys.: Condens. Matter 24, 424209 (2012).
     *

     Carrying out vdW-DF run using the following parameters:

     Nqs =      20    Nr_points =    1024   r_max =   100.000
     q_mesh =
               0.00001000     0.04494208     0.09755937     0.15916263
               0.23128650     0.31572767     0.41458969     0.53033537
               0.66584808     0.82450364     1.01025438     1.22772762
               1.48234092     1.78043706     2.12944203     2.53805004
               3.01644009     3.57652955     4.23227104     5.00000000

     Gradients computed in reciprocal space

     Adding external electric field

     Computed dipole along edir(3) :
        Dipole               -0.0000 Ry au,         -0.0000 Debye
        Dipole field         -0.0000 Ry au

        Potential amp.        0.0000 Ry
        Total length         45.5105 bohr

     Starting wfc are  135 randomized atomic wfcs

     Self-consistent Calculation

     iteration #  1     ecut=    36.75 Ry     beta=0.10
     Davidson diagonalization with overlap
     ethr =  1.00E-02,  avg # of iterations =  7.2

[...]

     total energy              =   -2275.45448529 Ry
     Harris-Foulkes estimate   =   -2286.26349974 Ry
     estimated scf accuracy    <      61.73724363 Ry

[...]

     End of self-consistent calculation

          k = 0.0000 0.0000 0.0000 ( 18043 PWs)   bands (ev):

   -48.8826 -48.8253 -48.8253 -48.7821 -48.7821 -48.7276 -48.7273 -48.6292
   -48.6292 -48.5683 -48.5683 -48.5548 -48.5548 -48.5217 -48.5208 -48.4955
   -48.4937 -48.3806 -48.3806 -48.3793 -48.3793 -48.3506 -48.3383 -48.3139
   -48.3139 -48.3093 -48.3093 -20.7476 -20.7476 -20.7206 -20.7163 -20.7163
   -20.5401 -20.5369 -20.5107 -20.5107 -20.5073 -20.5073 -20.4667 -20.4667
   -20.4665 -20.4665  -8.0216  -6.7690  -6.5132  -3.3044  -3.1228  -3.0652
    -2.7367  -2.7367  -2.4933  -2.4930  -2.4930  -2.4380  -2.4380  -2.2408
    -2.2408  -2.1155  -1.8051  -1.8051  -1.5471  -1.5365  -1.5365  -1.2281
    -1.2154  -0.9722  -0.9722  -0.9572  -0.9572  -0.8822  -0.5441  -0.5441
    -0.3749  -0.3749  -0.2767  -0.2767  -0.2331  -0.0576   0.0824   0.0824
     0.0953   0.0953   0.2285   0.2285   0.2983   0.3386   0.3386   0.4748
     0.7102   0.7102   0.7898   1.0166   1.0573   1.2922   1.7111   1.8452
     1.8452   1.9750   1.9750   2.7695   3.1634   3.9486   4.7297   5.3430
     5.5569   5.9067   6.0877   6.0877   6.6861   6.6861   6.7838   7.3419
     7.3419   7.3475   7.8687   7.9982   9.1270   9.1573   9.1573   9.2644
     9.4871   9.4871  10.0536

[...]

          k =-0.0868-0.0501 0.0000 ( 17964 PWs)   bands (ev):

[...]

     the Fermi energy is     1.2000 ev

!    total energy              =   -2280.51164912 Ry
     Harris-Foulkes estimate   =   -2280.51297724 Ry
     estimated scf accuracy    <       0.00000087 Ry

     The total energy is the sum of the following terms:

     one-electron contribution =  -17974.35714257 Ry
     hartree contribution      =    9041.35686727 Ry
     xc contribution           =    -426.74334285 Ry
     ewald contribution        =    7079.26850765 Ry
     electric field correction =       0.00000000 Ry
     smearing contrib. (-TS)   =      -0.03653862 Ry

     convergence has been achieved in  15 iterations

 BEEF-vdW xc energy contributions
           1 :   -372.687867783925
           2 :    341.053308349895
           3 :   -287.118727741247
           4 :    225.487420939572
           5 :   -170.256776640092
           6 :    130.236002183067
           7 :   -107.012515549542
           8 :    96.2246815494774
           9 :   -90.9734524813345
          10 :    85.4851276698403
          11 :   -77.3209778544666
          12 :    67.4039733135356
[...]
     Pseudo is Ultrasoft + core correction, Zval = 16.0
     Generated by new atomic code, or converted to UPF format
     Using radial grid of  887 points,  6 beta functions with:
                l(1) =   0
                l(2) =   0
                l(3) =   1
                l(4) =   1
                l(5) =   2
                l(6) =   2
     Q(r) pseudized with  8 coefficients,  rinner =    1.130   1.130   1.130
                                                       1.130   1.130

     PseudoPot. # 2 for Sn read from file:
     /afs/slac.stanford.edu/u/if/mamunm/psp/gbrv1.5pbe/Sn.UPF
     MD5 check sum: 469debedee59599fedebd795477fea03
     Pseudo is Ultrasoft + core correction, Zval = 14.0
     Generated by new atomic code, or converted to UPF format
     Using radial grid of  891 points,  6 beta functions with:
                l(1) =   0
                l(2) =   0
                l(3) =   1
                l(4) =   1
                l(5) =   2
                l(6) =   2
     Q(r) pseudized with  8 coefficients,  rinner =    1.350   1.350   1.350
                                                       1.350   1.350

     vdW kernel table read from file vdW_kernel_table
     MD5 check sum: 095c7af220d748ca6e76c0b4c6cfb241

     atomic species   valence    mass     pseudopotential
        Pd1           16.00   106.42000     Pd( 1.00)
        Sn1           14.00   118.71000     Sn( 1.00)

     No symmetry found

   Cartesian axes

     site n.     atom                  positions (alat units)
         1           Pd1 tau(   1) = (   0.0000000   0.0000000  10.0000000  )
         2           Pd1 tau(   2) = (  -1.4392733   2.4928944  10.0000000  )
         3           Pd1 tau(   3) = (   1.4392733   2.4928944  10.0000000  )
         4           Sn1 tau(   4) = (   2.8785466   0.0000000  10.0000000  )
         5           Pd1 tau(   5) = (   2.8785466   1.6619296  12.3503234  )
         6           Pd1 tau(   6) = (   1.4392733   4.1548241  12.3503234  )
         7           Pd1 tau(   7) = (  -1.4392733   4.1548241  12.3503234  )
         8           Sn1 tau(   8) = (   0.0000000   1.6619296  12.3503234  )
         9           Pd1 tau(   9) = (  -0.0000005   3.3260151  14.6657316  )
        10           Pd1 tau(  10) = (   1.4411370   0.8298864  14.6657313  )
        11           Pd1 tau(  11) = (   4.3159545   0.8298882  14.6657312  )
        12           Sn1 tau(  12) = (   2.8785519   3.3238655  14.7218770  )

     number of k points=    20  Fermi-Dirac smearing, width (Ry)=  0.0110
                       cart. coord. in units 2pi/alat
        k(    1) = (   0.0000000   0.0000000   0.0000000), wk =   0.0555556
        k(    2) = (   0.0000000   0.0334283   0.0000000), wk =   0.1111111
        k(    3) = (   0.0000000   0.0668567   0.0000000), wk =   0.1111111
        k(    4) = (   0.0000000  -0.1002850   0.0000000), wk =   0.0555556
        k(    5) = (   0.0289498   0.0167142   0.0000000), wk =   0.1111111
        k(    6) = (   0.0289498   0.0501425   0.0000000), wk =   0.1111111
        k(    7) = (   0.0289498   0.0835709   0.0000000), wk =   0.1111111
        k(    8) = (   0.0289498  -0.0835709   0.0000000), wk =   0.1111111
        k(    9) = (   0.0289498  -0.0501425   0.0000000), wk =   0.1111111
        k(   10) = (   0.0289498  -0.0167142   0.0000000), wk =   0.1111111
        k(   11) = (   0.0578996   0.0334283   0.0000000), wk =   0.1111111
        k(   12) = (   0.0578996   0.0668567   0.0000000), wk =   0.1111111
        k(   13) = (   0.0578996   0.1002850   0.0000000), wk =   0.1111111
        k(   14) = (   0.0578996  -0.0668567   0.0000000), wk =   0.1111111
        k(   15) = (   0.0578996  -0.0334283   0.0000000), wk =   0.1111111
        k(   16) = (   0.0578996   0.0000000   0.0000000), wk =   0.1111111
        k(   17) = (  -0.0868494  -0.0501425   0.0000000), wk =   0.0555556
        k(   18) = (  -0.0868494  -0.0167142   0.0000000), wk =   0.1111111
        k(   19) = (  -0.0868494   0.0167142   0.0000000), wk =   0.1111111
        k(   20) = (  -0.0868494  -0.1504275   0.0000000), wk =   0.0555556

     Largest allocated arrays     est. size (Mb)     dimensions
     Largest temporary arrays     est. size (Mb)     dimensions

     Initial potential from superposition of free atoms
     Check: negative starting charge=   -0.683019

     starting charge  178.49980, renormalised to  186.00000

[...]

     *
     * You are using vdW-DF for exchange-correlation in this calculation.
     * Please cite the following three references that made this development
     * possible:
     *
     *   M. Dion, H. Rydberg, E. Schroder, D. C. Langreth, and
     *   B. I. Lundqvist, Phys. Rev. Lett. 92, 246401 (2004).
     *
     *   T. Thonhauser, V. R. Cooper, S. Li, A. Puzder, P. Hyldgaard, and
     *   D. C. Langreth, Phys. Rev. B 76, 125112 (2007).
     *
     *   G. Roman-Perez and J. M. Soler, Phys. Rev. Lett. 103, 096102 (2009).
     *
     *
     * If you are using vdW-DF2, please also cite:
     *
     *   K. Lee, E. D. Murray, L. Kong, B. I. Lundqvist, and
     *   D. C. Langreth, Phys. Rev. B 82, 081101(R) (2010).
     *
     *
     * If you are calculating the stress with vdW-DF, please also cite:
     *
     *   R. Sabatini, E. Kucukbenli, B. Kolb, T. Thonhauser, and
     *   S. de Gironcoli, J. Phys.: Condens. Matter 24, 424209 (2012).
     *

     Carrying out vdW-DF run using the following parameters:

     Nqs =      20    Nr_points =    1024   r_max =   100.000
     q_mesh =
               0.00001000     0.04494208     0.09755937     0.15916263
               0.23128650     0.31572767     0.41458969     0.53033537
               0.66584808     0.82450364     1.01025438     1.22772762
               1.48234092     1.78043706     2.12944203     2.53805004
               3.01644009     3.57652955     4.23227104     5.00000000

     Gradients computed in reciprocal space

[...]

     Starting wfc are  135 randomized atomic wfcs

     Self-consistent Calculation

[...]

     total energy              =   -2280.51517929 Ry
     Harris-Foulkes estimate   =   -2280.51517881 Ry
     estimated scf accuracy    <       0.00000106 Ry

     iteration # 17     ecut=    36.75 Ry     beta=0.10
     Davidson diagonalization with overlap
     ethr =  5.71E-10,  avg # of iterations =  3.0

[...]

     negative rho (up, down):  7.106E-01 0.000E+00

     Adding external electric field

     Computed dipole along edir(3) :
        Dipole                0.0087 Ry au,          0.0220 Debye
        Dipole field          0.0000 Ry au

        Potential amp.       -0.0021 Ry
        Total length         45.5105 bohr

     End of self-consistent calculation

[...]

          k = 0.0579 0.0000 0.0000 ( 18017 PWs)   bands (ev):

[...]

          k =-0.0868-0.1504 0.0000 ( 17964 PWs)   bands (ev):

   -48.8418 -48.8117 -48.7952 -48.7808 -48.7607 -48.7409 -48.6917 -48.6657
   -48.6228 -48.5729 -48.5494 -48.5468 -48.5324 -48.5216 -48.5072 -48.4845
   -48.4569 -48.4467 -48.4180 -48.4038 -48.3733 -48.3574 -48.3487 -48.3315
   -48.3261 -48.3165 -48.3024 -20.7361 -20.7314 -20.7070 -20.7069 -20.7059
   -20.5357 -20.5221 -20.5084 -20.5078 -20.4952 -20.4952 -20.4610 -20.4566
   -20.4499 -20.4454  -7.0880  -6.5962  -6.1817  -3.8925  -3.4033  -3.2619
    -3.1053  -2.6026  -2.5014  -2.4096  -2.3946  -2.3075  -2.1766  -2.1654
    -2.0741  -1.9670  -1.7959  -1.7932  -1.7876  -1.7384  -1.4893  -1.4023
    -1.3233  -1.1831  -1.1737  -1.0543  -0.9637  -0.9056  -0.8872  -0.8678
    -0.8516  -0.7940  -0.6817  -0.6098  -0.5241  -0.5213  -0.5031  -0.4299
    -0.3787  -0.2745  -0.2197  -0.1768  -0.1422  -0.0314  -0.0242   0.2222
     0.3409   0.4318   0.6273   0.8752   1.2355   1.5543   2.0383   2.3616
     2.3879   2.7917   3.7248   3.7486   4.1864   5.4781   5.8820   6.2111
     6.5065   6.8099   6.9538   6.9968   7.1980   7.2824   7.4211   7.5363
     7.6232   7.6960   7.9000   8.2450   8.3663   8.5724   8.7038   8.7944
     8.9549   8.9677   9.2072

     the Fermi energy is     1.2106 ev

!    total energy              =   -2280.51517563 Ry
     Harris-Foulkes estimate   =   -2280.51517959 Ry
     estimated scf accuracy    <       0.00000064 Ry

     The total energy is the sum of the following terms:

     one-electron contribution =  -18030.43250247 Ry
     hartree contribution      =    9069.41429677 Ry
     xc contribution           =    -426.76657207 Ry
     ewald contribution        =    7107.30619542 Ry
     electric field correction =       0.00000020 Ry
     smearing contrib. (-TS)   =      -0.03659346 Ry

     convergence has been achieved in  17 iterations

 BEEF-vdW xc energy contributions
           1 :   -372.789368865021
           2 :    341.170236855298
           3 :   -287.253413324275
           4 :    225.625919343097
           5 :   -170.377619485383
           6 :    130.324198478143
           7 :   -107.069540145122
           8 :    96.2681787819337
           9 :   -91.0274011577033
          10 :    85.5661221209422
          11 :   -77.4287677608914
          12 :    67.5223023755804
          13 :   -58.4576749105639
          14 :    52.4334209090276
          15 :   -49.8954559843647
          16 :    49.5308251118427
          17 :   -49.3115819135186
          18 :    47.7702980054252
          19 :   -44.7170768497006
          20 :    41.0705757160528
          21 :   -38.0609459711660
          22 :    36.3921460011494
          23 :   -35.8809073897105
          24 :    35.7102714217972
          25 :   -35.0398491099469
          26 :    33.5365493314640
          27 :   -31.5070641709246
          28 :    29.6031864997352
          29 :   -28.3450557744867
          30 :    27.7899396890327
          31 :   -35.0621207113504
          32 :   -25.8679524848869

     Forces acting on atoms (Ry/au):

     negative rho (up, down):  7.106E-01 0.000E+00
     atom    1 type  1   force =     0.00000024   -0.00061659    0.00672405
     atom    2 type  1   force =    -0.00053357    0.00030834    0.00672377
     atom    3 type  1   force =     0.00053386    0.00030805    0.00672387
     atom    4 type  2   force =     0.00000067    0.00000059   -0.00168975
     atom    5 type  1   force =     0.00000019    0.00190660   -0.00304332
     atom    6 type  1   force =     0.00165160   -0.00095374   -0.00304361
     atom    7 type  1   force =    -0.00165114   -0.00095355   -0.00304373
     atom    8 type  2   force =    -0.00000178   -0.00000019   -0.00399382
     atom    9 type  1   force =     0.00000100   -0.00035047   -0.00133378
     atom   10 type  1   force =    -0.00030200    0.00017591   -0.00133399
     atom   11 type  1   force =     0.00030283    0.00017504   -0.00133388
     atom   12 type  2   force =    -0.00000189    0.00000001   -0.00135579

     Total force =     0.014206     Total SCF correction =     0.005174
     SCF correction compared to forces is large: reduce conv_thr to get better values

     entering subroutine stress ...

     negative rho (up, down):  7.106E-01 0.000E+00
          total   stress  (Ry/bohr**3)                   (kbar)     P=  -12.06
  -0.00010459  -0.00000000  -0.00000000        -15.39     -0.00     -0.00
  -0.00000000  -0.00010459  -0.00000000         -0.00    -15.39     -0.00
  -0.00000000  -0.00000000  -0.00003672         -0.00     -0.00     -5.40

 !ASE

     Writing output data file calc.save

     General routines

     Parallel routines

   This run was terminated on:  18:39:59  27Dec2018

   JOB DONE.
Job  /afs/slac/g/suncat/bin/suncat-tsmpirun -x LD_LIBRARY_PATH -wdir /scratch/qe110479_KOPZn pw.x -in pw.inp

TID   HOST_NAME   COMMAND_LINE            STATUS            TERMINATION_TIME
00000 suncat0108 pw.x -in pw.inp   Done                     12/27/2018 18:39:59
00001 suncat0108 pw.x -in pw.inp   Done                     12/27/2018 18:39:59
00002 suncat0108 pw.x -in pw.inp   Done                     12/27/2018 18:39:59
00003 suncat0108 pw.x -in pw.inp   Done                     12/27/2018 18:39:59
00004 suncat0108 pw.x -in pw.inp   Done                     12/27/2018 18:39:59
00005 suncat0108 pw.x -in pw.inp   Done                     12/27/2018 18:39:59
00006 suncat0108 pw.x -in pw.inp   Done                     12/27/2018 18:39:59
00007 suncat0108 pw.x -in pw.inp   Done                     12/27/2018 18:39:59
00008 suncat0107 pw.x -in pw.inp   Done                     12/27/2018 18:39:59
00009 suncat0107 pw.x -in pw.inp   Done                     12/27/2018 18:39:59
00010 suncat0107 pw.x -in pw.inp   Done                     12/27/2018 18:39:59
00011 suncat0107 pw.x -in pw.inp   Done                     12/27/2018 18:39:59
00012 suncat0107 pw.x -in pw.inp   Done                     12/27/2018 18:39:59
00013 suncat0107 pw.x -in pw.inp   Done                     12/27/2018 18:39:59
00014 suncat0107 pw.x -in pw.inp   Done                     12/27/2018 18:39:59
00015 suncat0107 pw.x -in pw.inp   Done                     12/27/2018 18:39:59
00016 suncat0106 pw.x -in pw.inp   Done                     12/27/2018 18:39:59
00017 suncat0106 pw.x -in pw.inp   Done                     12/27/2018 18:39:59
00018 suncat0106 pw.x -in pw.inp   Done                     12/27/2018 18:39:59
00019 suncat0106 pw.x -in pw.inp   Done                     12/27/2018 18:39:59
00020 suncat0106 pw.x -in pw.inp   Done                     12/27/2018 18:39:59
00021 suncat0106 pw.x -in pw.inp   Done                     12/27/2018 18:39:59
00022 suncat0106 pw.x -in pw.inp   Done                     12/27/2018 18:39:59
00023 suncat0106 pw.x -in pw.inp   Done                     12/27/2018 18:39:59
00024 suncat0105 pw.x -in pw.inp   Done                     12/27/2018 18:39:59
00025 suncat0105 pw.x -in pw.inp   Done                     12/27/2018 18:39:59
00026 suncat0105 pw.x -in pw.inp   Done                     12/27/2018 18:39:59
00027 suncat0105 pw.x -in pw.inp   Done                     12/27/2018 18:39:59
00028 suncat0105 pw.x -in pw.inp   Done                     12/27/2018 18:39:59
00029 suncat0105 pw.x -in pw.inp   Done                     12/27/2018 18:39:59
00030 suncat0105 pw.x -in pw.inp   Done                     12/27/2018 18:39:59
00031 suncat0105 pw.x -in pw.inp   Done                     12/27/2018 18:39:59
00032 suncat0238 pw.x -in pw.inp   Done                     12/27/2018 18:39:59
00033 suncat0238 pw.x -in pw.inp   Done                     12/27/2018 18:39:59
00034 suncat0238 pw.x -in pw.inp   Done                     12/27/2018 18:39:59
00035 suncat0238 pw.x -in pw.inp   Done                     12/27/2018 18:39:59
00036 suncat0238 pw.x -in pw.inp   Done                     12/27/2018 18:39:59
00037 suncat0238 pw.x -in pw.inp   Done                     12/27/2018 18:39:59
00038 suncat0238 pw.x -in pw.inp   Done                     12/27/2018 18:39:59
00039 suncat0238 pw.x -in pw.inp   Done                     12/27/2018 18:39:59
00040 suncat0237 pw.x -in pw.inp   Done                     12/27/2018 18:39:59
00041 suncat0237 pw.x -in pw.inp   Done                     12/27/2018 18:39:59
00042 suncat0237 pw.x -in pw.inp   Done                     12/27/2018 18:39:59
00043 suncat0237 pw.x -in pw.inp   Done                     12/27/2018 18:39:59
00044 suncat0237 pw.x -in pw.inp   Done                     12/27/2018 18:39:59
00045 suncat0237 pw.x -in pw.inp   Done                     12/27/2018 18:39:59
00046 suncat0237 pw.x -in pw.inp   Done                     12/27/2018 18:39:59
00047 suncat0237 pw.x -in pw.inp   Done                     12/27/2018 18:39:59
00048 suncat0236 pw.x -in pw.inp   Done                     12/27/2018 18:39:59
00049 suncat0236 pw.x -in pw.inp   Done                     12/27/2018 18:39:59
00050 suncat0236 pw.x -in pw.inp   Done                     12/27/2018 18:39:59
00051 suncat0236 pw.x -in pw.inp   Done                     12/27/2018 18:39:59
00052 suncat0236 pw.x -in pw.inp   Done                     12/27/2018 18:39:59
00053 suncat0236 pw.x -in pw.inp   Done                     12/27/2018 18:39:59
00054 suncat0236 pw.x -in pw.inp   Done                     12/27/2018 18:39:59
00055 suncat0236 pw.x -in pw.inp   Done                     12/27/2018 18:39:59
00056 suncat0235 pw.x -in pw.inp   Done                     12/27/2018 18:39:59
00057 suncat0235 pw.x -in pw.inp   Done                     12/27/2018 18:39:59
00058 suncat0235 pw.x -in pw.inp   Done                     12/27/2018 18:39:59
00059 suncat0235 pw.x -in pw.inp   Done                     12/27/2018 18:39:59
00060 suncat0235 pw.x -in pw.inp   Done                     12/27/2018 18:39:59
00061 suncat0235 pw.x -in pw.inp   Done                     12/27/2018 18:39:59
00062 suncat0235 pw.x -in pw.inp   Done                     12/27/2018 18:39:59
00063 suncat0235 pw.x -in pw.inp   Done                     12/27/2018 18:39:59