     Program PWSCF v.5.1rc2 (svn rev. 11289) starts on 26Dec2018 at  7: 0:52

     Current dimensions of program PWSCF are:
     Max number of different atomic species (ntypx) = 10
     Max number of k-points (npk) =  40000
     Max angular momentum in pseudopotentials (lmaxx) =  3
     Presently stress not available with electric field

     IMPORTANT: XC functional enforced from input :
     Exchange-correlation      = BEEF-VDW ( 1  4 27 13 2)
     Any further DFT definition will be discarded
     Please, verify this is what you really want

     Subspace diagonalization in iterative solution of the eigenvalue problem:
     a serial algorithm will be used

     bravais-lattice index     =            0
     lattice parameter (alat)  =       1.8897  a.u.
     unit-cell volume          =    5416.9148 (a.u.)^3
     number of atoms/cell      =           12
     number of atomic types    =            2
     number of electrons       =       156.00
     number of Kohn-Sham states=          108
     kinetic-energy cutoff     =      36.7493  Ry
     charge density cutoff     =     367.4932  Ry
     convergence threshold     =      1.0E-06
     mixing beta               =       0.1000
     number of iterations used =           10  plain     mixing
     Exchange-correlation      = BEEF-VDW ( 1  4 27 13 2)
     nstep                     =           50

     celldm(1)=   1.889726  celldm(2)=   0.000000  celldm(3)=   0.000000
     celldm(4)=   0.000000  celldm(5)=   0.000000  celldm(6)=   0.000000

     crystal axes: (cart. coord. in units of alat)
               a(1) = (   6.092097   0.000000   0.000000 )
               a(2) = (  -3.046048   5.275911   0.000000 )
               a(3) = (   0.000000   0.000000  24.974176 )

     reciprocal axes: (cart. coord. in units 2 pi/alat)
               b(1) = (  0.164147  0.094770  0.000000 )
               b(2) = (  0.000000  0.189541  0.000000 )
               b(3) = (  0.000000  0.000000  0.040041 )

     PseudoPot. # 1 for Hf read from file:
     /afs/slac.stanford.edu/u/if/mamunm/psp/gbrv1.5pbe/Hf.UPF
     MD5 check sum: 8ee9378dfe14276e333edf04c5e4aa26
     Pseudo is Ultrasoft + core correction, Zval = 12.0
     Generated by new atomic code, or converted to UPF format
     Using radial grid of  921 points,  8 beta functions with:
                l(1) =   0
                l(2) =   0
                l(3) =   0
                l(4) =   1
                l(5) =   1
                l(6) =   2
                l(7) =   2
                l(8) =   3
     Q(r) pseudized with  6 coefficients,  rinner =    1.200   1.200   1.200
                                                       1.200   1.200   1.200
                                                       1.200

     PseudoPot. # 2 for Pt read from file:
     /afs/slac.stanford.edu/u/if/mamunm/psp/gbrv1.5pbe/Pt.UPF
     MD5 check sum: f09d6de1a584b5a045c4fc126da2d0c4
     Pseudo is Ultrasoft + core correction, Zval = 16.0
     Generated by new atomic code, or converted to UPF format
     Using radial grid of  985 points,  6 beta functions with:
                l(1) =   0
                l(2) =   0
                l(3) =   1
                l(4) =   1
                l(5) =   2
                l(6) =   2
     Q(r) pseudized with  8 coefficients,  rinner =    1.300   1.300   1.300
                                                       1.300   1.300

     vdW kernel table read from file vdW_kernel_table
     MD5 check sum: 095c7af220d748ca6e76c0b4c6cfb241

     atomic species   valence    mass     pseudopotential
        Hf1           12.00   178.49000     Hf( 1.00)
        Pt1           16.00   195.08400     Pt( 1.00)

     No symmetry found

   Cartesian axes

     site n.     atom                  positions (alat units)
         1           Hf1 tau(   1) = (   0.0000000   0.0000000  10.0000000  )
         2           Hf1 tau(   2) = (  -1.5230242   2.6379553  10.0000000  )
         3           Hf1 tau(   3) = (   1.5230242   2.6379553  10.0000000  )
         4           Pt1 tau(   4) = (   3.0460484   0.0000000  10.0000000  )
         5           Hf1 tau(   5) = (   3.0460484   1.7586369  12.4870881  )
         6           Hf1 tau(   6) = (   1.5230242   4.3965922  12.4870881  )
         7           Hf1 tau(   7) = (  -1.5230242   4.3965922  12.4870881  )
         8           Pt1 tau(   8) = (   0.0000000   1.7586369  12.4870881  )
         9           Hf1 tau(   9) = (  -0.0000000   3.5172738  14.9741763  )
        10           Hf1 tau(  10) = (   1.5230242   0.8793184  14.9741763  )
        11           Hf1 tau(  11) = (   4.5690727   0.8793184  14.9741763  )
        12           Pt1 tau(  12) = (   3.0460484   3.5172738  14.9741763  )

     number of k points=    20  Fermi-Dirac smearing, width (Ry)=  0.0110
                       cart. coord. in units 2pi/alat
        k(    1) = (   0.0000000   0.0000000   0.0000000), wk =   0.0555556
        k(    2) = (   0.0000000   0.0315901   0.0000000), wk =   0.1111111
        k(    3) = (   0.0000000   0.0631802   0.0000000), wk =   0.1111111
        k(    4) = (   0.0000000  -0.0947704   0.0000000), wk =   0.0555556
        k(    5) = (   0.0273578   0.0157951   0.0000000), wk =   0.1111111
        k(    6) = (   0.0273578   0.0473852   0.0000000), wk =   0.1111111
        k(    7) = (   0.0273578   0.0789753   0.0000000), wk =   0.1111111
        k(    8) = (   0.0273578  -0.0789753   0.0000000), wk =   0.1111111
        k(    9) = (   0.0273578  -0.0473852   0.0000000), wk =   0.1111111
        k(   10) = (   0.0273578  -0.0157951   0.0000000), wk =   0.1111111
        k(   11) = (   0.0547157   0.0315901   0.0000000), wk =   0.1111111
        k(   12) = (   0.0547157   0.0631802   0.0000000), wk =   0.1111111
        k(   13) = (   0.0547157   0.0947704   0.0000000), wk =   0.1111111
        k(   14) = (   0.0547157  -0.0631802   0.0000000), wk =   0.1111111
        k(   15) = (   0.0547157  -0.0315901   0.0000000), wk =   0.1111111
        k(   16) = (   0.0547157   0.0000000   0.0000000), wk =   0.1111111
        k(   17) = (  -0.0820735  -0.0473852   0.0000000), wk =   0.0555556
        k(   18) = (  -0.0820735  -0.0157951   0.0000000), wk =   0.1111111
        k(   19) = (  -0.0820735   0.0157951   0.0000000), wk =   0.1111111
        k(   20) = (  -0.0820735  -0.1421556   0.0000000), wk =   0.0555556

     Largest allocated arrays     est. size (Mb)     dimensions
     Largest temporary arrays     est. size (Mb)     dimensions

     Check: negative/imaginary core charge=   -0.000003    0.000000

     Initial potential from superposition of free atoms
     Check: negative starting charge=   -1.510803

     starting charge  136.49995, renormalised to  156.00000

     negative rho (up, down):  1.727E+00 0.000E+00

     *
     * You are using vdW-DF for exchange-correlation in this calculation.
     * Please cite the following three references that made this development
     * possible:
     *
     *   M. Dion, H. Rydberg, E. Schroder, D. C. Langreth, and
     *   B. I. Lundqvist, Phys. Rev. Lett. 92, 246401 (2004).
     *
     *   T. Thonhauser, V. R. Cooper, S. Li, A. Puzder, P. Hyldgaard, and
     *   D. C. Langreth, Phys. Rev. B 76, 125112 (2007).
     *
     *   G. Roman-Perez and J. M. Soler, Phys. Rev. Lett. 103, 096102 (2009).
     *
     *
     * If you are using vdW-DF2, please also cite:
     *
     *   K. Lee, E. D. Murray, L. Kong, B. I. Lundqvist, and
     *   D. C. Langreth, Phys. Rev. B 82, 081101(R) (2010).
     *
     *
     * If you are calculating the stress with vdW-DF, please also cite:
     *
     *   R. Sabatini, E. Kucukbenli, B. Kolb, T. Thonhauser, and
     *   S. de Gironcoli, J. Phys.: Condens. Matter 24, 424209 (2012).
     *

     Carrying out vdW-DF run using the following parameters:

     Nqs =      20    Nr_points =    1024   r_max =   100.000
     q_mesh =
               0.00001000     0.04494208     0.09755937     0.15916263
               0.23128650     0.31572767     0.41458969     0.53033537
               0.66584808     0.82450364     1.01025438     1.22772762
               1.48234092     1.78043706     2.12944203     2.53805004
               3.01644009     3.57652955     4.23227104     5.00000000

     Gradients computed in reciprocal space

     Adding external electric field

     Computed dipole along edir(3) :
        Dipole                0.0000 Ry au,          0.0000 Debye
        Dipole field          0.0000 Ry au

        Potential amp.       -0.0000 Ry
        Total length         46.0145 bohr

     Starting wfc are  153 randomized atomic wfcs

     Self-consistent Calculation

     iteration #  1     ecut=    36.75 Ry     beta=0.10
     Davidson diagonalization with overlap
     ethr =  1.00E-02,  avg # of iterations =  7.7

[...]

     total energy              =   -2051.54082312 Ry
     Harris-Foulkes estimate   =   -2111.32733659 Ry
     estimated scf accuracy    <     336.19870519 Ry

[...]

     End of self-consistent calculation

          k = 0.0000 0.0000 0.0000 ( 20347 PWs)   bands (ev):

   -60.7337 -60.7323 -60.6849 -60.6849 -60.6843 -60.6843 -60.3232 -60.2750
   -60.2750 -51.2284 -51.2284 -51.2236 -50.8299 -50.8299 -50.8298 -50.8298
   -50.7790 -50.7788 -29.6096 -29.5804 -29.5101 -29.4348 -29.4348 -29.3933
   -29.3933 -29.3905 -29.3856 -29.3856 -29.2990 -29.2990 -29.2905 -29.0446
   -29.0254 -29.0023 -29.0023 -28.8322 -28.8322 -28.8198 -28.8198 -28.7694
   -28.7558 -28.7558 -28.6534 -28.5056 -28.5056  -5.3633  -3.9011  -3.0347
    -2.5808  -2.5808  -2.4742  -2.4742  -2.3746  -1.9893  -1.9893  -1.8814
    -1.8810  -1.8810  -1.5798  -1.2512  -1.1577  -1.1577  -0.9454  -0.9454
    -0.7765   0.0647   0.5683   1.1333   1.1333   1.1459   1.3892   1.3892
     1.7580   1.7580   1.8396   1.8661   2.1720   2.1720   2.2306   2.2306
     2.2794   2.6787   2.6871   2.6871   2.9903   2.9903   3.3374   3.3374
     3.4409   3.4409   3.4920   3.5247   3.7894   5.1145   5.2374   5.2374
     5.2609   5.3261   5.6126   5.8028   5.8028   5.9632   5.9632   6.0183
     6.0183   6.0392   6.3314   6.3316

[...]

          k =-0.0821-0.0474 0.0000 ( 20404 PWs)   bands (ev):

[...]

     the Fermi energy is     1.8850 ev

!    total energy              =   -2082.30776434 Ry
     Harris-Foulkes estimate   =   -2082.31293243 Ry
     estimated scf accuracy    <       0.00000050 Ry

     The total energy is the sum of the following terms:

     one-electron contribution =  -10909.82374009 Ry
     hartree contribution      =    5452.77708560 Ry
     xc contribution           =    -871.96221433 Ry
     ewald contribution        =    4246.79387922 Ry
     electric field correction =       0.00000000 Ry
     smearing contrib. (-TS)   =      -0.09277474 Ry

     convergence has been achieved in  20 iterations

 BEEF-vdW xc energy contributions
           1 :   -785.132442530247
           2 :    730.117107305422
           3 :   -632.155895426971
           4 :    510.899203840413
           5 :   -387.130847270134
           6 :    277.067098629119
           7 :   -189.529292708567
           8 :    126.258220204317
           9 :   -84.2748584084594
          10 :    58.5943222182167
          11 :   -44.1281799962613
[...]
     Pseudo is Ultrasoft + core correction, Zval = 12.0
     Generated by new atomic code, or converted to UPF format
     Using radial grid of  921 points,  8 beta functions with:
                l(1) =   0
                l(2) =   0
                l(3) =   0
                l(4) =   1
                l(5) =   1
                l(6) =   2
                l(7) =   2
                l(8) =   3
     Q(r) pseudized with  6 coefficients,  rinner =    1.200   1.200   1.200
                                                       1.200   1.200   1.200
                                                       1.200

     PseudoPot. # 2 for Pt read from file:
     /afs/slac.stanford.edu/u/if/mamunm/psp/gbrv1.5pbe/Pt.UPF
     MD5 check sum: f09d6de1a584b5a045c4fc126da2d0c4
     Pseudo is Ultrasoft + core correction, Zval = 16.0
     Generated by new atomic code, or converted to UPF format
     Using radial grid of  985 points,  6 beta functions with:
                l(1) =   0
                l(2) =   0
                l(3) =   1
                l(4) =   1
                l(5) =   2
                l(6) =   2
     Q(r) pseudized with  8 coefficients,  rinner =    1.300   1.300   1.300
                                                       1.300   1.300

     vdW kernel table read from file vdW_kernel_table
     MD5 check sum: 095c7af220d748ca6e76c0b4c6cfb241

     atomic species   valence    mass     pseudopotential
        Hf1           12.00   178.49000     Hf( 1.00)
        Pt1           16.00   195.08400     Pt( 1.00)

     No symmetry found

   Cartesian axes

     site n.     atom                  positions (alat units)
         1           Hf1 tau(   1) = (   0.0000000   0.0000000  10.0000000  )
         2           Hf1 tau(   2) = (  -1.5230242   2.6379553  10.0000000  )
         3           Hf1 tau(   3) = (   1.5230242   2.6379553  10.0000000  )
         4           Pt1 tau(   4) = (   3.0460484   0.0000000  10.0000000  )
         5           Hf1 tau(   5) = (   3.0460484   1.7586369  12.4870881  )
         6           Hf1 tau(   6) = (   1.5230242   4.3965922  12.4870881  )
         7           Hf1 tau(   7) = (  -1.5230242   4.3965922  12.4870881  )
         8           Pt1 tau(   8) = (   0.0000000   1.7586369  12.4870881  )
         9           Hf1 tau(   9) = (   0.0000030   3.4816582  14.9873766  )
        10           Hf1 tau(  10) = (   1.4921736   0.8971255  14.9873577  )
        11           Hf1 tau(  11) = (   4.5999158   0.8971203  14.9873629  )
        12           Pt1 tau(  12) = (   3.0460480   3.5172697  14.7676007  )

     number of k points=    20  Fermi-Dirac smearing, width (Ry)=  0.0110
                       cart. coord. in units 2pi/alat
        k(    1) = (   0.0000000   0.0000000   0.0000000), wk =   0.0555556
        k(    2) = (   0.0000000   0.0315901   0.0000000), wk =   0.1111111
        k(    3) = (   0.0000000   0.0631802   0.0000000), wk =   0.1111111
        k(    4) = (   0.0000000  -0.0947704   0.0000000), wk =   0.0555556
        k(    5) = (   0.0273578   0.0157951   0.0000000), wk =   0.1111111
        k(    6) = (   0.0273578   0.0473852   0.0000000), wk =   0.1111111
        k(    7) = (   0.0273578   0.0789753   0.0000000), wk =   0.1111111
        k(    8) = (   0.0273578  -0.0789753   0.0000000), wk =   0.1111111
        k(    9) = (   0.0273578  -0.0473852   0.0000000), wk =   0.1111111
        k(   10) = (   0.0273578  -0.0157951   0.0000000), wk =   0.1111111
        k(   11) = (   0.0547157   0.0315901   0.0000000), wk =   0.1111111
        k(   12) = (   0.0547157   0.0631802   0.0000000), wk =   0.1111111
        k(   13) = (   0.0547157   0.0947704   0.0000000), wk =   0.1111111
        k(   14) = (   0.0547157  -0.0631802   0.0000000), wk =   0.1111111
        k(   15) = (   0.0547157  -0.0315901   0.0000000), wk =   0.1111111
        k(   16) = (   0.0547157   0.0000000   0.0000000), wk =   0.1111111
        k(   17) = (  -0.0820735  -0.0473852   0.0000000), wk =   0.0555556
        k(   18) = (  -0.0820735  -0.0157951   0.0000000), wk =   0.1111111
        k(   19) = (  -0.0820735   0.0157951   0.0000000), wk =   0.1111111
        k(   20) = (  -0.0820735  -0.1421556   0.0000000), wk =   0.0555556

     Largest allocated arrays     est. size (Mb)     dimensions
     Largest temporary arrays     est. size (Mb)     dimensions

     Check: negative/imaginary core charge=   -0.000003    0.000000

     Initial potential from superposition of free atoms
     Check: negative starting charge=   -1.515240

     starting charge  136.49995, renormalised to  156.00000

[...]

     *
     * You are using vdW-DF for exchange-correlation in this calculation.
     * Please cite the following three references that made this development
     * possible:
     *
     *   M. Dion, H. Rydberg, E. Schroder, D. C. Langreth, and
     *   B. I. Lundqvist, Phys. Rev. Lett. 92, 246401 (2004).
     *
     *   T. Thonhauser, V. R. Cooper, S. Li, A. Puzder, P. Hyldgaard, and
     *   D. C. Langreth, Phys. Rev. B 76, 125112 (2007).
     *
     *   G. Roman-Perez and J. M. Soler, Phys. Rev. Lett. 103, 096102 (2009).
     *
     *
     * If you are using vdW-DF2, please also cite:
     *
     *   K. Lee, E. D. Murray, L. Kong, B. I. Lundqvist, and
     *   D. C. Langreth, Phys. Rev. B 82, 081101(R) (2010).
     *
     *
     * If you are calculating the stress with vdW-DF, please also cite:
     *
     *   R. Sabatini, E. Kucukbenli, B. Kolb, T. Thonhauser, and
     *   S. de Gironcoli, J. Phys.: Condens. Matter 24, 424209 (2012).
     *

     Carrying out vdW-DF run using the following parameters:

     Nqs =      20    Nr_points =    1024   r_max =   100.000
     q_mesh =
               0.00001000     0.04494208     0.09755937     0.15916263
               0.23128650     0.31572767     0.41458969     0.53033537
               0.66584808     0.82450364     1.01025438     1.22772762
               1.48234092     1.78043706     2.12944203     2.53805004
               3.01644009     3.57652955     4.23227104     5.00000000

     Gradients computed in reciprocal space

[...]

     Starting wfc are  153 randomized atomic wfcs

     Self-consistent Calculation

[...]

     total energy              =   -2082.35658223 Ry
     Harris-Foulkes estimate   =   -2082.35657907 Ry
     estimated scf accuracy    <       0.00000151 Ry

     iteration # 22     ecut=    36.75 Ry     beta=0.10
     Davidson diagonalization with overlap
     ethr =  9.68E-10,  avg # of iterations =  1.6

[...]

     negative rho (up, down):  1.546E+00 0.000E+00

     Adding external electric field

     Computed dipole along edir(3) :
        Dipole                0.0478 Ry au,          0.1216 Debye
        Dipole field          0.0001 Ry au

        Potential amp.       -0.0102 Ry
        Total length         46.0145 bohr

     End of self-consistent calculation

[...]

          k = 0.0547 0.0000 0.0000 ( 20365 PWs)   bands (ev):

[...]

          k =-0.0821-0.1422 0.0000 ( 20404 PWs)   bands (ev):

   -60.6806 -60.6604 -60.6553 -60.6455 -60.6391 -60.6229 -60.2732 -60.2572
   -60.2410 -51.1580 -51.1578 -51.1537 -50.9550 -50.9549 -50.9545 -50.7858
   -50.7857 -50.7388 -29.4417 -29.4153 -29.4007 -29.3655 -29.3454 -29.3079
   -29.2834 -29.2824 -29.2289 -29.2184 -29.1848 -29.1801 -29.1382 -29.1180
   -29.1180 -29.0774 -29.0695 -28.8794 -28.8458 -28.8287 -28.8103 -28.8018
   -28.7488 -28.6916 -28.6907 -28.6798 -28.5034  -3.7754  -3.6122  -2.5715
    -2.2734  -2.1199  -2.0451  -1.8408  -1.7263  -1.6459  -1.6343  -1.5326
    -1.3913  -1.3352  -1.3325  -1.1458  -1.1279  -1.0360  -0.9264  -0.8002
    -0.7552  -0.6266  -0.1753   0.2269   0.6609   0.8146   1.1376   1.1617
     1.2244   1.3333   1.3837   1.5336   1.5505   1.7268   1.8257   1.8867
     2.1458   2.2111   2.3143   2.5598   2.7000   2.7396   3.1893   3.2987
     3.3086   3.5047   3.6162   3.6371   3.7846   3.7889   4.6098   4.7365
     4.8517   4.9152   4.9608   5.1492   5.3877   5.4260   5.5086   5.5934
     5.7209   5.8550   6.1207   6.1945

     the Fermi energy is     1.9382 ev

!    total energy              =   -2082.35659665 Ry
     Harris-Foulkes estimate   =   -2082.35658213 Ry
     estimated scf accuracy    <       0.00000070 Ry

     The total energy is the sum of the following terms:

     one-electron contribution =  -10992.89873582 Ry
     hartree contribution      =    5494.46353663 Ry
     xc contribution           =    -872.04758548 Ry
     ewald contribution        =    4288.21888347 Ry
     electric field correction =       0.00000531 Ry
     smearing contrib. (-TS)   =      -0.09270077 Ry

     convergence has been achieved in  22 iterations

 BEEF-vdW xc energy contributions
           1 :   -786.355426472342
           2 :    731.369960425732
           3 :   -633.446544792874
           4 :    512.205635740868
           5 :   -388.411092208626
           6 :    278.280229797882
           7 :   -190.657586747419
           8 :    127.318067631983
           9 :   -85.3103194091801
          10 :    59.6553069733379
          11 :   -45.2467722102830
          12 :    37.6291656837487
          13 :   -33.0790132953927
          14 :    28.5658987453427
          15 :   -21.9645602644193
          16 :    12.4404215132241
          17 :  -0.685643770434240
          18 :   -11.3283825517607
          19 :    21.1139927805333
          20 :   -26.6622848717755
          21 :    27.2011713090229
          22 :   -23.3894564230624
          23 :    16.9235257275835
          24 :   -9.84535650852251
          25 :    3.91593492623622
          26 :  -0.290847621630178
          27 :  -0.513813835099995
          28 :   -1.47457675350063
          29 :    5.75030200570279
          30 :   -11.3418614909701
          31 :   -57.9712156012052
          32 :   -41.9661819681236

     Forces acting on atoms (Ry/au):

     negative rho (up, down):  1.546E+00 0.000E+00
     atom    1 type  1   force =     0.00000101    0.02004975   -0.00695581
     atom    2 type  1   force =     0.01736400   -0.01002383   -0.00695686
     atom    3 type  1   force =    -0.01736392   -0.01002491   -0.00695666
     atom    4 type  2   force =    -0.00000013   -0.00000005    0.03704696
     atom    5 type  1   force =     0.00000084   -0.00481171   -0.00250169
     atom    6 type  1   force =    -0.00416752    0.00240603   -0.00250025
     atom    7 type  1   force =     0.00416784    0.00240497   -0.00250015
     atom    8 type  2   force =     0.00000011   -0.00000010   -0.00338724
     atom    9 type  1   force =    -0.00000183   -0.00010368   -0.00180552
     atom   10 type  1   force =    -0.00009061    0.00005035   -0.00180255
     atom   11 type  1   force =     0.00009070    0.00005278   -0.00180353
     atom   12 type  2   force =    -0.00000048    0.00000038    0.00012331

     Total force =     0.053227     Total SCF correction =     0.003761

     entering subroutine stress ...

     negative rho (up, down):  1.546E+00 0.000E+00
          total   stress  (Ry/bohr**3)                   (kbar)     P=  -17.11
  -0.00015140   0.00000000  -0.00000000        -22.27      0.00     -0.00
   0.00000000  -0.00015140   0.00000000          0.00    -22.27      0.00
  -0.00000000   0.00000000  -0.00004612         -0.00      0.00     -6.78

 !ASE

     Writing output data file calc.save

     General routines

     Parallel routines

   This run was terminated on:   8:44:44  26Dec2018

   JOB DONE.
Job  /afs/slac/g/suncat/bin/suncat-tsmpirun -x LD_LIBRARY_PATH -wdir /scratch/qe109758_OSsgQ pw.x -in pw.inp

TID   HOST_NAME   COMMAND_LINE            STATUS            TERMINATION_TIME
00000 suncat0183 pw.x -in pw.inp   Done                     12/26/2018 08:44:44
00001 suncat0183 pw.x -in pw.inp   Done                     12/26/2018 08:44:44
00002 suncat0183 pw.x -in pw.inp   Done                     12/26/2018 08:44:44
00003 suncat0183 pw.x -in pw.inp   Done                     12/26/2018 08:44:44
00004 suncat0183 pw.x -in pw.inp   Done                     12/26/2018 08:44:44
00005 suncat0183 pw.x -in pw.inp   Done                     12/26/2018 08:44:44
00006 suncat0183 pw.x -in pw.inp   Done                     12/26/2018 08:44:44
00007 suncat0183 pw.x -in pw.inp   Done                     12/26/2018 08:44:44
00008 suncat0182 pw.x -in pw.inp   Done                     12/26/2018 08:44:44
00009 suncat0182 pw.x -in pw.inp   Done                     12/26/2018 08:44:44
00010 suncat0182 pw.x -in pw.inp   Done                     12/26/2018 08:44:44
00011 suncat0182 pw.x -in pw.inp   Done                     12/26/2018 08:44:44
00012 suncat0182 pw.x -in pw.inp   Done                     12/26/2018 08:44:44
00013 suncat0182 pw.x -in pw.inp   Done                     12/26/2018 08:44:44
00014 suncat0182 pw.x -in pw.inp   Done                     12/26/2018 08:44:44
00015 suncat0182 pw.x -in pw.inp   Done                     12/26/2018 08:44:44
00016 suncat0181 pw.x -in pw.inp   Done                     12/26/2018 08:44:44
00017 suncat0181 pw.x -in pw.inp   Done                     12/26/2018 08:44:44
00018 suncat0181 pw.x -in pw.inp   Done                     12/26/2018 08:44:44
00019 suncat0181 pw.x -in pw.inp   Done                     12/26/2018 08:44:44
00020 suncat0181 pw.x -in pw.inp   Done                     12/26/2018 08:44:44
00021 suncat0181 pw.x -in pw.inp   Done                     12/26/2018 08:44:44
00022 suncat0181 pw.x -in pw.inp   Done                     12/26/2018 08:44:44
00023 suncat0181 pw.x -in pw.inp   Done                     12/26/2018 08:44:44
00024 suncat0252 pw.x -in pw.inp   Done                     12/26/2018 08:44:44
00025 suncat0252 pw.x -in pw.inp   Done                     12/26/2018 08:44:44
00026 suncat0252 pw.x -in pw.inp   Done                     12/26/2018 08:44:44
00027 suncat0252 pw.x -in pw.inp   Done                     12/26/2018 08:44:44
00028 suncat0252 pw.x -in pw.inp   Done                     12/26/2018 08:44:44
00029 suncat0252 pw.x -in pw.inp   Done                     12/26/2018 08:44:44
00030 suncat0252 pw.x -in pw.inp   Done                     12/26/2018 08:44:44
00031 suncat0252 pw.x -in pw.inp   Done                     12/26/2018 08:44:44
00032 suncat0226 pw.x -in pw.inp   Done                     12/26/2018 08:44:44
00033 suncat0226 pw.x -in pw.inp   Done                     12/26/2018 08:44:44
00034 suncat0226 pw.x -in pw.inp   Done                     12/26/2018 08:44:44
00035 suncat0226 pw.x -in pw.inp   Done                     12/26/2018 08:44:44
00036 suncat0226 pw.x -in pw.inp   Done                     12/26/2018 08:44:44
00037 suncat0226 pw.x -in pw.inp   Done                     12/26/2018 08:44:44
00038 suncat0226 pw.x -in pw.inp   Done                     12/26/2018 08:44:44
00039 suncat0226 pw.x -in pw.inp   Done                     12/26/2018 08:44:44
00040 suncat0225 pw.x -in pw.inp   Done                     12/26/2018 08:44:44
00041 suncat0225 pw.x -in pw.inp   Done                     12/26/2018 08:44:44
00042 suncat0225 pw.x -in pw.inp   Done                     12/26/2018 08:44:44
00043 suncat0225 pw.x -in pw.inp   Done                     12/26/2018 08:44:44
00044 suncat0225 pw.x -in pw.inp   Done                     12/26/2018 08:44:44
00045 suncat0225 pw.x -in pw.inp   Done                     12/26/2018 08:44:44
00046 suncat0225 pw.x -in pw.inp   Done                     12/26/2018 08:44:44
00047 suncat0225 pw.x -in pw.inp   Done                     12/26/2018 08:44:44
00048 suncat0224 pw.x -in pw.inp   Done                     12/26/2018 08:44:44
00049 suncat0224 pw.x -in pw.inp   Done                     12/26/2018 08:44:44
00050 suncat0224 pw.x -in pw.inp   Done                     12/26/2018 08:44:44
00051 suncat0224 pw.x -in pw.inp   Done                     12/26/2018 08:44:44
00052 suncat0224 pw.x -in pw.inp   Done                     12/26/2018 08:44:44
00053 suncat0224 pw.x -in pw.inp   Done                     12/26/2018 08:44:44
00054 suncat0224 pw.x -in pw.inp   Done                     12/26/2018 08:44:44
00055 suncat0224 pw.x -in pw.inp   Done                     12/26/2018 08:44:44
00056 suncat0223 pw.x -in pw.inp   Done                     12/26/2018 08:44:44
00057 suncat0223 pw.x -in pw.inp   Done                     12/26/2018 08:44:44
00058 suncat0223 pw.x -in pw.inp   Done                     12/26/2018 08:44:44
00059 suncat0223 pw.x -in pw.inp   Done                     12/26/2018 08:44:44
00060 suncat0223 pw.x -in pw.inp   Done                     12/26/2018 08:44:44
00061 suncat0223 pw.x -in pw.inp   Done                     12/26/2018 08:44:44
00062 suncat0223 pw.x -in pw.inp   Done                     12/26/2018 08:44:44
00063 suncat0223 pw.x -in pw.inp   Done                     12/26/2018 08:44:44