     Program PWSCF v.5.1rc2 (svn rev. 11289) starts on  1Jan2019 at 10:55:31

     Current dimensions of program PWSCF are:
     Max number of different atomic species (ntypx) = 10
     Max number of k-points (npk) =  40000
     Max angular momentum in pseudopotentials (lmaxx) =  3
     Presently stress not available with electric field

     IMPORTANT: XC functional enforced from input :
     Exchange-correlation      = BEEF-VDW ( 1  4 27 13 2)
     Any further DFT definition will be discarded
     Please, verify this is what you really want

     Subspace diagonalization in iterative solution of the eigenvalue problem:
     a serial algorithm will be used

     Generating pointlists ...
     new r_m :   0.4125 (alat units)  0.7795 (a.u.) for type    1
     new r_m :   0.4125 (alat units)  0.7795 (a.u.) for type    2

     bravais-lattice index     =            0
     lattice parameter (alat)  =       1.8897  a.u.
     unit-cell volume          =    6135.1607 (a.u.)^3
     number of atoms/cell      =           12
     number of atomic types    =            2
     number of electrons       =       174.00
     number of Kohn-Sham states=          117
     kinetic-energy cutoff     =      36.7493  Ry
     charge density cutoff     =     367.4932  Ry
     convergence threshold     =      1.0E-06
     mixing beta               =       0.1000
     number of iterations used =           10  plain     mixing
     Exchange-correlation      = BEEF-VDW ( 1  4 27 13 2)
     nstep                     =           50

     celldm(1)=   1.889726  celldm(2)=   0.000000  celldm(3)=   0.000000
     celldm(4)=   0.000000  celldm(5)=   0.000000  celldm(6)=   0.000000

     crystal axes: (cart. coord. in units of alat)
               a(1) = (   6.446207   0.000000   0.000000 )
               a(2) = (  -3.223104   5.582579   0.000000 )
               a(3) = (   0.000000   0.000000  25.263306 )

     reciprocal axes: (cart. coord. in units 2 pi/alat)
               b(1) = (  0.155130  0.089564  0.000000 )
               b(2) = (  0.000000  0.179129  0.000000 )
               b(3) = (  0.000000  0.000000  0.039583 )

     PseudoPot. # 1 for Sn read from file:
     /afs/slac.stanford.edu/u/if/mamunm/psp/gbrv1.5pbe/Sn.UPF
     MD5 check sum: 469debedee59599fedebd795477fea03
     Pseudo is Ultrasoft + core correction, Zval = 14.0
     Generated by new atomic code, or converted to UPF format
     Using radial grid of  891 points,  6 beta functions with:
                l(1) =   0
                l(2) =   0
                l(3) =   1
                l(4) =   1
                l(5) =   2
                l(6) =   2
     Q(r) pseudized with  8 coefficients,  rinner =    1.350   1.350   1.350
                                                       1.350   1.350

     PseudoPot. # 2 for Fe read from file:
     /afs/slac.stanford.edu/u/if/mamunm/psp/gbrv1.5pbe/Fe.UPF
     MD5 check sum: a130daea23fe5165f5d574ae7f82ed95
     Pseudo is Ultrasoft + core correction, Zval = 16.0
     Generated by new atomic code, or converted to UPF format
     Using radial grid of  861 points,  6 beta functions with:
                l(1) =   0
                l(2) =   0
                l(3) =   1
                l(4) =   1
                l(5) =   2
                l(6) =   2
     Q(r) pseudized with  8 coefficients,  rinner =    1.000   1.000   1.000
                                                       1.000   1.000

     vdW kernel table read from file vdW_kernel_table
     MD5 check sum: 095c7af220d748ca6e76c0b4c6cfb241

     atomic species   valence    mass     pseudopotential
        Sn1           14.00   118.71000     Sn( 1.00)
        Fe1           16.00    55.84500     Fe( 1.00)

     Starting magnetic structure
     atomic species   magnetization
        Sn1          0.143
        Fe1          0.125

     No symmetry found

   Cartesian axes

     site n.     atom                  positions (alat units)
         1           Sn1 tau(   1) = (   0.0000000   0.0000000  10.0000000  )
         2           Sn1 tau(   2) = (  -1.6115518   2.7912896  10.0000000  )
         3           Sn1 tau(   3) = (   1.6115518   2.7912896  10.0000000  )
         4           Fe1 tau(   4) = (   3.2231036   0.0000000  10.0000000  )
         5           Sn1 tau(   5) = (   3.2231036   1.8608597  12.6316531  )
         6           Sn1 tau(   6) = (   1.6115518   4.6521494  12.6316531  )
         7           Sn1 tau(   7) = (  -1.6115518   4.6521494  12.6316531  )
         8           Fe1 tau(   8) = (   0.0000000   1.8608597  12.6316531  )
         9           Sn1 tau(   9) = (  -0.0000000   3.7217195  15.2633062  )
        10           Sn1 tau(  10) = (   1.6115518   0.9304299  15.2633062  )
        11           Sn1 tau(  11) = (   4.8346554   0.9304299  15.2633062  )
        12           Fe1 tau(  12) = (   3.2231036   3.7217195  15.2633062  )

     number of k points=    40  Fermi-Dirac smearing, width (Ry)=  0.0110
                       cart. coord. in units 2pi/alat
        k(    1) = (   0.0000000   0.0000000   0.0000000), wk =   0.0277778
        k(    2) = (   0.0000000   0.0298548   0.0000000), wk =   0.0555556
        k(    3) = (   0.0000000   0.0597096   0.0000000), wk =   0.0555556
        k(    4) = (   0.0000000  -0.0895643   0.0000000), wk =   0.0277778
        k(    5) = (   0.0258550   0.0149274   0.0000000), wk =   0.0555556
        k(    6) = (   0.0258550   0.0447822   0.0000000), wk =   0.0555556
        k(    7) = (   0.0258550   0.0746369   0.0000000), wk =   0.0555556
        k(    8) = (   0.0258550  -0.0746369   0.0000000), wk =   0.0555556
        k(    9) = (   0.0258550  -0.0447822   0.0000000), wk =   0.0555556
        k(   10) = (   0.0258550  -0.0149274   0.0000000), wk =   0.0555556
        k(   11) = (   0.0517100   0.0298548   0.0000000), wk =   0.0555556
        k(   12) = (   0.0517100   0.0597096   0.0000000), wk =   0.0555556
        k(   13) = (   0.0517100   0.0895643   0.0000000), wk =   0.0555556
        k(   14) = (   0.0517100  -0.0597096   0.0000000), wk =   0.0555556
        k(   15) = (   0.0517100  -0.0298548   0.0000000), wk =   0.0555556
        k(   16) = (   0.0517100   0.0000000   0.0000000), wk =   0.0555556
        k(   17) = (  -0.0775650  -0.0447822   0.0000000), wk =   0.0277778
        k(   18) = (  -0.0775650  -0.0149274   0.0000000), wk =   0.0555556
        k(   19) = (  -0.0775650   0.0149274   0.0000000), wk =   0.0555556
        k(   20) = (  -0.0775650  -0.1343465   0.0000000), wk =   0.0277778
        k(   21) = (   0.0000000   0.0000000   0.0000000), wk =   0.0277778
        k(   22) = (   0.0000000   0.0298548   0.0000000), wk =   0.0555556
        k(   23) = (   0.0000000   0.0597096   0.0000000), wk =   0.0555556
        k(   24) = (   0.0000000  -0.0895643   0.0000000), wk =   0.0277778
        k(   25) = (   0.0258550   0.0149274   0.0000000), wk =   0.0555556
        k(   26) = (   0.0258550   0.0447822   0.0000000), wk =   0.0555556
        k(   27) = (   0.0258550   0.0746369   0.0000000), wk =   0.0555556
        k(   28) = (   0.0258550  -0.0746369   0.0000000), wk =   0.0555556
        k(   29) = (   0.0258550  -0.0447822   0.0000000), wk =   0.0555556
        k(   30) = (   0.0258550  -0.0149274   0.0000000), wk =   0.0555556
        k(   31) = (   0.0517100   0.0298548   0.0000000), wk =   0.0555556
        k(   32) = (   0.0517100   0.0597096   0.0000000), wk =   0.0555556
        k(   33) = (   0.0517100   0.0895643   0.0000000), wk =   0.0555556
        k(   34) = (   0.0517100  -0.0597096   0.0000000), wk =   0.0555556
        k(   35) = (   0.0517100  -0.0298548   0.0000000), wk =   0.0555556
        k(   36) = (   0.0517100   0.0000000   0.0000000), wk =   0.0555556
        k(   37) = (  -0.0775650  -0.0447822   0.0000000), wk =   0.0277778
        k(   38) = (  -0.0775650  -0.0149274   0.0000000), wk =   0.0555556
        k(   39) = (  -0.0775650   0.0149274   0.0000000), wk =   0.0555556
        k(   40) = (  -0.0775650  -0.1343465   0.0000000), wk =   0.0277778

     Largest allocated arrays     est. size (Mb)     dimensions
     Largest temporary arrays     est. size (Mb)     dimensions

     Check: negative/imaginary core charge=   -0.000002    0.000000

     Initial potential from superposition of free atoms
     Check: negative starting charge=(component1):   -0.000768
     Check: negative starting charge=(component2):   -0.000576

     starting charge  161.99958, renormalised to  174.00000

     negative rho (up, down):  8.247E-04 6.186E-04

     *
     * You are using vdW-DF for exchange-correlation in this calculation.
     * Please cite the following three references that made this development
     * possible:
     *
     *   M. Dion, H. Rydberg, E. Schroder, D. C. Langreth, and
     *   B. I. Lundqvist, Phys. Rev. Lett. 92, 246401 (2004).
     *
     *   T. Thonhauser, V. R. Cooper, S. Li, A. Puzder, P. Hyldgaard, and
     *   D. C. Langreth, Phys. Rev. B 76, 125112 (2007).
     *
     *   G. Roman-Perez and J. M. Soler, Phys. Rev. Lett. 103, 096102 (2009).
     *
     *
     * If you are using vdW-DF2, please also cite:
     *
     *   K. Lee, E. D. Murray, L. Kong, B. I. Lundqvist, and
     *   D. C. Langreth, Phys. Rev. B 82, 081101(R) (2010).
     *
     *
     * If you are calculating the stress with vdW-DF, please also cite:
     *
     *   R. Sabatini, E. Kucukbenli, B. Kolb, T. Thonhauser, and
     *   S. de Gironcoli, J. Phys.: Condens. Matter 24, 424209 (2012).
     *

     Carrying out vdW-DF run using the following parameters:

     Nqs =      20    Nr_points =    1024   r_max =   100.000
     q_mesh =
               0.00001000     0.04494208     0.09755937     0.15916263
               0.23128650     0.31572767     0.41458969     0.53033537
               0.66584808     0.82450364     1.01025438     1.22772762
               1.48234092     1.78043706     2.12944203     2.53805004
               3.01644009     3.57652955     4.23227104     5.00000000

     Gradients computed in reciprocal space

     Adding external electric field

     Computed dipole along edir(3) :
        Dipole               -0.0000 Ry au,         -0.0000 Debye
        Dipole field         -0.0000 Ry au

        Potential amp.        0.0000 Ry
        Total length         46.5472 bohr

[...]

     Starting wfc are  120 randomized atomic wfcs

     Self-consistent Calculation

     iteration #  1     ecut=    36.75 Ry     beta=0.10
     Davidson diagonalization with overlap
     ethr =  1.00E-02,  avg # of iterations =  8.3

[...]

     Magnetic moment per site:
     atom:    1    charge:    3.6964    magn:    0.4849    constr:    0.0000
     atom:    2    charge:    3.6944    magn:    0.4847    constr:    0.0000
     atom:    3    charge:    3.6944    magn:    0.4847    constr:    0.0000
     atom:    4    charge:    7.2309    magn:    0.8878    constr:    0.0000
     atom:    5    charge:    3.7035    magn:    0.4859    constr:    0.0000
     atom:    6    charge:    3.6930    magn:    0.4845    constr:    0.0000
     atom:    7    charge:    3.6930    magn:    0.4845    constr:    0.0000
     atom:    8    charge:    7.2323    magn:    0.8884    constr:    0.0000
[...]
        k(    5) = (   0.0258550   0.0149274   0.0000000), wk =   0.0555556
        k(    6) = (   0.0258550   0.0447822   0.0000000), wk =   0.0555556
        k(    7) = (   0.0258550   0.0746369   0.0000000), wk =   0.0555556
        k(    8) = (   0.0258550  -0.0746369   0.0000000), wk =   0.0555556
        k(    9) = (   0.0258550  -0.0447822   0.0000000), wk =   0.0555556
        k(   10) = (   0.0258550  -0.0149274   0.0000000), wk =   0.0555556
        k(   11) = (   0.0517100   0.0298548   0.0000000), wk =   0.0555556
        k(   12) = (   0.0517100   0.0597096   0.0000000), wk =   0.0555556
        k(   13) = (   0.0517100   0.0895643   0.0000000), wk =   0.0555556
        k(   14) = (   0.0517100  -0.0597096   0.0000000), wk =   0.0555556
        k(   15) = (   0.0517100  -0.0298548   0.0000000), wk =   0.0555556
        k(   16) = (   0.0517100   0.0000000   0.0000000), wk =   0.0555556
        k(   17) = (  -0.0775650  -0.0447822   0.0000000), wk =   0.0277778
        k(   18) = (  -0.0775650  -0.0149274   0.0000000), wk =   0.0555556
        k(   19) = (  -0.0775650   0.0149274   0.0000000), wk =   0.0555556
        k(   20) = (  -0.0775650  -0.1343465   0.0000000), wk =   0.0277778
        k(   21) = (   0.0000000   0.0000000   0.0000000), wk =   0.0277778
        k(   22) = (   0.0000000   0.0298548   0.0000000), wk =   0.0555556
        k(   23) = (   0.0000000   0.0597096   0.0000000), wk =   0.0555556
        k(   24) = (   0.0000000  -0.0895643   0.0000000), wk =   0.0277778
        k(   25) = (   0.0258550   0.0149274   0.0000000), wk =   0.0555556
        k(   26) = (   0.0258550   0.0447822   0.0000000), wk =   0.0555556
        k(   27) = (   0.0258550   0.0746369   0.0000000), wk =   0.0555556
        k(   28) = (   0.0258550  -0.0746369   0.0000000), wk =   0.0555556
        k(   29) = (   0.0258550  -0.0447822   0.0000000), wk =   0.0555556
        k(   30) = (   0.0258550  -0.0149274   0.0000000), wk =   0.0555556
        k(   31) = (   0.0517100   0.0298548   0.0000000), wk =   0.0555556
        k(   32) = (   0.0517100   0.0597096   0.0000000), wk =   0.0555556
        k(   33) = (   0.0517100   0.0895643   0.0000000), wk =   0.0555556
        k(   34) = (   0.0517100  -0.0597096   0.0000000), wk =   0.0555556
        k(   35) = (   0.0517100  -0.0298548   0.0000000), wk =   0.0555556
        k(   36) = (   0.0517100   0.0000000   0.0000000), wk =   0.0555556
        k(   37) = (  -0.0775650  -0.0447822   0.0000000), wk =   0.0277778
        k(   38) = (  -0.0775650  -0.0149274   0.0000000), wk =   0.0555556
        k(   39) = (  -0.0775650   0.0149274   0.0000000), wk =   0.0555556
        k(   40) = (  -0.0775650  -0.1343465   0.0000000), wk =   0.0277778

     Largest allocated arrays     est. size (Mb)     dimensions
     Largest temporary arrays     est. size (Mb)     dimensions

     Check: negative/imaginary core charge=   -0.000002    0.000000

     Initial potential from superposition of free atoms
     Check: negative starting charge=(component1):   -0.000758
     Check: negative starting charge=(component2):   -0.000569

     starting charge  161.99958, renormalised to  174.00000

[...]

     *
     * You are using vdW-DF for exchange-correlation in this calculation.
     * Please cite the following three references that made this development
     * possible:
     *
     *   M. Dion, H. Rydberg, E. Schroder, D. C. Langreth, and
     *   B. I. Lundqvist, Phys. Rev. Lett. 92, 246401 (2004).
     *
     *   T. Thonhauser, V. R. Cooper, S. Li, A. Puzder, P. Hyldgaard, and
     *   D. C. Langreth, Phys. Rev. B 76, 125112 (2007).
     *
     *   G. Roman-Perez and J. M. Soler, Phys. Rev. Lett. 103, 096102 (2009).
     *
     *
     * If you are using vdW-DF2, please also cite:
     *
     *   K. Lee, E. D. Murray, L. Kong, B. I. Lundqvist, and
     *   D. C. Langreth, Phys. Rev. B 82, 081101(R) (2010).
     *
     *
     * If you are calculating the stress with vdW-DF, please also cite:
     *
     *   R. Sabatini, E. Kucukbenli, B. Kolb, T. Thonhauser, and
     *   S. de Gironcoli, J. Phys.: Condens. Matter 24, 424209 (2012).
     *

     Carrying out vdW-DF run using the following parameters:

     Nqs =      20    Nr_points =    1024   r_max =   100.000
     q_mesh =
               0.00001000     0.04494208     0.09755937     0.15916263
               0.23128650     0.31572767     0.41458969     0.53033537
               0.66584808     0.82450364     1.01025438     1.22772762
               1.48234092     1.78043706     2.12944203     2.53805004
               3.01644009     3.57652955     4.23227104     5.00000000

     Gradients computed in reciprocal space

[...]

     Starting wfc are  120 randomized atomic wfcs

     Self-consistent Calculation

[...]

     iteration # 16     ecut=    36.75 Ry     beta=0.10
     Davidson diagonalization with overlap
     c_bands:  1 eigenvalues not converged
     ethr =  4.84E-06,  avg # of iterations =  9.5

[...]

     total energy              =   -2200.01435449 Ry
     Harris-Foulkes estimate   =   -2200.01435109 Ry
     estimated scf accuracy    <       0.00000180 Ry

[...]

     iteration # 55     ecut=    36.75 Ry     beta=0.10
     Davidson diagonalization with overlap
     ethr =  9.85E-10,  avg # of iterations =  2.0

[...]

     negative rho (up, down):  2.254E-04 9.268E-04

[...]

     Adding external electric field

     Computed dipole along edir(3) :
        Dipole                0.0103 Ry au,          0.0262 Debye
        Dipole field          0.0000 Ry au

        Potential amp.       -0.0020 Ry
        Total length         46.5472 bohr

     Magnetic moment per site:
     atom:    1    charge:    3.5160    magn:   -0.0013    constr:    0.0000
     atom:    2    charge:    3.5141    magn:   -0.0013    constr:    0.0000
     atom:    3    charge:    3.5141    magn:   -0.0013    constr:    0.0000
     atom:    4    charge:    7.1099    magn:    1.3826    constr:    0.0000
     atom:    5    charge:    3.5248    magn:   -0.0004    constr:    0.0000
     atom:    6    charge:    3.5148    magn:   -0.0004    constr:    0.0000
     atom:    7    charge:    3.5148    magn:   -0.0004    constr:    0.0000
     atom:    8    charge:    7.0996    magn:    1.3230    constr:    0.0000
     atom:    9    charge:    3.5150    magn:   -0.0015    constr:    0.0000
     atom:   10    charge:    3.5143    magn:   -0.0015    constr:    0.0000
     atom:   11    charge:    3.5143    magn:   -0.0015    constr:    0.0000
     atom:   12    charge:    7.1011    magn:    1.2563    constr:    0.0000

     End of self-consistent calculation

 ------ SPIN UP ------------

[...]

 ------ SPIN DOWN ----------

[...]

          k = 0.0517 0.0000 0.0000 ( 23072 PWs)   bands (ev):

[...]

          k =-0.0776-0.1343 0.0000 ( 23104 PWs)   bands (ev):

   -84.8273 -84.8114 -84.7880 -50.9502 -50.9466 -50.9466 -50.9373 -50.9372
   -50.9315 -50.9206 -50.9205 -50.8718 -21.3028 -21.2573 -21.2536 -21.2460
   -21.2342 -21.2316 -21.2287 -21.2185 -21.2063 -21.2006 -21.1868 -21.1804
   -21.1759 -21.1660 -21.1641 -21.1621 -21.1583 -21.1549 -21.1487 -21.1457
   -21.1449 -21.1341 -21.1336 -21.1307 -21.1301 -21.1222 -21.1213 -21.1163
   -21.1113 -21.1103 -21.1073 -21.1047 -21.0998 -21.0990 -21.0961 -21.0959
   -21.0908 -21.0840 -21.0799 -21.0774 -21.0671 -21.0595 -21.0370 -21.0248
   -21.0131  -8.9866  -8.6283  -7.6095  -7.1901  -6.5524  -6.4350  -5.7611
    -5.3108  -3.8950  -3.5547  -2.9972  -2.0616  -1.2882  -1.1077  -1.0214
    -0.7919  -0.6638  -0.3407  -0.1309  -0.0327   0.0181   0.4408   0.4842
     0.5965   0.7472   0.7501   0.8692   0.9426   1.0115   1.0333   1.1959
     1.2619   1.3031   1.4802   1.6258   1.8319   1.8438   1.9076   2.2492
     2.5447   2.8287   2.8803   2.9749   3.1390   3.8502   3.9536   4.2011
     4.4078   4.4998   4.7202   5.0803   5.2208   5.3592   5.5715   5.6292
     5.7377   5.8867   6.0249   6.0678   6.1185

     the Fermi energy is     0.7549 ev

!    total energy              =   -2200.01439720 Ry
     Harris-Foulkes estimate   =   -2200.01435544 Ry
     estimated scf accuracy    <       0.00000083 Ry

     The total energy is the sum of the following terms:

     one-electron contribution =  -12764.85989280 Ry
     hartree contribution      =    6428.93589394 Ry
     xc contribution           =    -491.38572952 Ry
     ewald contribution        =    4627.36388625 Ry
     electric field correction =       0.00000022 Ry
     smearing contrib. (-TS)   =      -0.06855530 Ry

     total magnetization       =     8.49 Bohr mag/cell
     absolute magnetization    =     9.98 Bohr mag/cell

     convergence has been achieved in  55 iterations

 BEEF-vdW xc energy contributions
           1 :   -431.531765740390
           2 :    394.063293231826
           3 :   -330.865378446871
           4 :    259.924496889170
           5 :   -197.844758669559
           6 :    153.922392982085
           7 :   -128.415209392493
           8 :    115.036675123518
           9 :   -105.712899763498
          10 :    94.8768830970654
          11 :   -81.3716443081488
          12 :    67.5832383267692
          13 :   -56.9113261165354
          14 :    51.2729438510079
          15 :   -50.0001585636883
          16 :    50.4740189463079
          17 :   -49.8542758821619
          18 :    46.7301959125183
          19 :   -41.7337234646295
          20 :    36.8515879058136
          21 :   -33.9929271088895
          22 :    33.7548445426895
          23 :   -35.1432334700408
          24 :    36.3301368840235
          25 :   -35.8809018576629
          26 :    33.6172602814127
          27 :   -30.5999228316147
          28 :    28.3132757857126
          29 :   -27.6590085054390
          30 :    28.4248474990864
          31 :   -37.6994486531106
          32 :   -27.2669953683279

     Forces acting on atoms (Ry/au):

     negative rho (up, down):  2.254E-04 9.268E-04
     atom    1 type  1   force =     0.00000017    0.01176404   -0.00274694
     atom    2 type  1   force =     0.01019327   -0.00588074   -0.00274488
     atom    3 type  1   force =    -0.01019276   -0.00588111   -0.00274435
     atom    4 type  2   force =    -0.00000023   -0.00000881    0.02660057
     atom    5 type  1   force =    -0.00000000   -0.00853684   -0.00477007
     atom    6 type  1   force =    -0.00739341    0.00426795   -0.00477141
     atom    7 type  1   force =     0.00739299    0.00426790   -0.00477150
     atom    8 type  2   force =     0.00000014   -0.00000216   -0.00096139
     atom    9 type  1   force =     0.00000036   -0.00047444   -0.00095074
     atom   10 type  1   force =    -0.00041935    0.00023769   -0.00094908
     atom   11 type  1   force =     0.00041896    0.00023714   -0.00094944
     atom   12 type  2   force =    -0.00000014    0.00000937   -0.00024078

     Total force =     0.037906     Total SCF correction =     0.003099

     entering subroutine stress ...

     negative rho (up, down):  2.254E-04 9.268E-04
          total   stress  (Ry/bohr**3)                   (kbar)     P=   -6.82
  -0.00005334   0.00000000   0.00000000         -7.85      0.00      0.00
   0.00000000  -0.00005341  -0.00000001          0.00     -7.86     -0.00
   0.00000000  -0.00000001  -0.00003234          0.00     -0.00     -4.76

 !ASE

     Writing output data file calc.save

     General routines

     Parallel routines

   This run was terminated on:   6:14:25   2Jan2019

   JOB DONE.
Job  /afs/slac/g/suncat/bin/suncat-tsmpirun -x LD_LIBRARY_PATH -wdir /scratch/qe649003_saf0i pw.x -in pw.inp

TID   HOST_NAME   COMMAND_LINE            STATUS            TERMINATION_TIME
00000 suncat0020 pw.x -in pw.inp   Done                     01/02/2019 06:14:25
00001 suncat0020 pw.x -in pw.inp   Done                     01/02/2019 06:14:25
00002 suncat0020 pw.x -in pw.inp   Done                     01/02/2019 06:14:25
00003 suncat0020 pw.x -in pw.inp   Done                     01/02/2019 06:14:25
00004 suncat0020 pw.x -in pw.inp   Done                     01/02/2019 06:14:25
00005 suncat0020 pw.x -in pw.inp   Done                     01/02/2019 06:14:25
00006 suncat0020 pw.x -in pw.inp   Done                     01/02/2019 06:14:25
00007 suncat0020 pw.x -in pw.inp   Done                     01/02/2019 06:14:25
00008 suncat0014 pw.x -in pw.inp   Done                     01/02/2019 06:14:25
00009 suncat0014 pw.x -in pw.inp   Done                     01/02/2019 06:14:25
00010 suncat0014 pw.x -in pw.inp   Done                     01/02/2019 06:14:25
00011 suncat0014 pw.x -in pw.inp   Done                     01/02/2019 06:14:25
00012 suncat0014 pw.x -in pw.inp   Done                     01/02/2019 06:14:25
00013 suncat0014 pw.x -in pw.inp   Done                     01/02/2019 06:14:25
00014 suncat0014 pw.x -in pw.inp   Done                     01/02/2019 06:14:25
00015 suncat0014 pw.x -in pw.inp   Done                     01/02/2019 06:14:25
00016 suncat0199 pw.x -in pw.inp   Done                     01/02/2019 06:14:25
00017 suncat0199 pw.x -in pw.inp   Done                     01/02/2019 06:14:25
00018 suncat0199 pw.x -in pw.inp   Done                     01/02/2019 06:14:25
00019 suncat0199 pw.x -in pw.inp   Done                     01/02/2019 06:14:25
00020 suncat0199 pw.x -in pw.inp   Done                     01/02/2019 06:14:25
00021 suncat0199 pw.x -in pw.inp   Done                     01/02/2019 06:14:25
00022 suncat0199 pw.x -in pw.inp   Done                     01/02/2019 06:14:25
00023 suncat0199 pw.x -in pw.inp   Done                     01/02/2019 06:14:25
00024 suncat0006 pw.x -in pw.inp   Done                     01/02/2019 06:14:25
00025 suncat0006 pw.x -in pw.inp   Done                     01/02/2019 06:14:25
00026 suncat0006 pw.x -in pw.inp   Done                     01/02/2019 06:14:25
00027 suncat0006 pw.x -in pw.inp   Done                     01/02/2019 06:14:25
00028 suncat0006 pw.x -in pw.inp   Done                     01/02/2019 06:14:25
00029 suncat0006 pw.x -in pw.inp   Done                     01/02/2019 06:14:25
00030 suncat0006 pw.x -in pw.inp   Done                     01/02/2019 06:14:25
00031 suncat0006 pw.x -in pw.inp   Done                     01/02/2019 06:14:25
00032 suncat0005 pw.x -in pw.inp   Done                     01/02/2019 06:14:25
00033 suncat0005 pw.x -in pw.inp   Done                     01/02/2019 06:14:25
00034 suncat0005 pw.x -in pw.inp   Done                     01/02/2019 06:14:25
00035 suncat0005 pw.x -in pw.inp   Done                     01/02/2019 06:14:25
00036 suncat0005 pw.x -in pw.inp   Done                     01/02/2019 06:14:25
00037 suncat0005 pw.x -in pw.inp   Done                     01/02/2019 06:14:25
00038 suncat0005 pw.x -in pw.inp   Done                     01/02/2019 06:14:25
00039 suncat0005 pw.x -in pw.inp   Done                     01/02/2019 06:14:25
00040 suncat0004 pw.x -in pw.inp   Done                     01/02/2019 06:14:25
00041 suncat0004 pw.x -in pw.inp   Done                     01/02/2019 06:14:25
00042 suncat0004 pw.x -in pw.inp   Done                     01/02/2019 06:14:25
00043 suncat0004 pw.x -in pw.inp   Done                     01/02/2019 06:14:25
00044 suncat0004 pw.x -in pw.inp   Done                     01/02/2019 06:14:25
00045 suncat0004 pw.x -in pw.inp   Done                     01/02/2019 06:14:25
00046 suncat0004 pw.x -in pw.inp   Done                     01/02/2019 06:14:25
00047 suncat0004 pw.x -in pw.inp   Done                     01/02/2019 06:14:25
00048 suncat0187 pw.x -in pw.inp   Done                     01/02/2019 06:14:25
00049 suncat0187 pw.x -in pw.inp   Done                     01/02/2019 06:14:25
00050 suncat0187 pw.x -in pw.inp   Done                     01/02/2019 06:14:25
00051 suncat0187 pw.x -in pw.inp   Done                     01/02/2019 06:14:25
00052 suncat0187 pw.x -in pw.inp   Done                     01/02/2019 06:14:25
00053 suncat0187 pw.x -in pw.inp   Done                     01/02/2019 06:14:25
00054 suncat0187 pw.x -in pw.inp   Done                     01/02/2019 06:14:25
00055 suncat0187 pw.x -in pw.inp   Done                     01/02/2019 06:14:25
00056 suncat0186 pw.x -in pw.inp   Done                     01/02/2019 06:14:25
00057 suncat0186 pw.x -in pw.inp   Done                     01/02/2019 06:14:25
00058 suncat0186 pw.x -in pw.inp   Done                     01/02/2019 06:14:25
00059 suncat0186 pw.x -in pw.inp   Done                     01/02/2019 06:14:25
00060 suncat0186 pw.x -in pw.inp   Done                     01/02/2019 06:14:25
00061 suncat0186 pw.x -in pw.inp   Done                     01/02/2019 06:14:25
00062 suncat0186 pw.x -in pw.inp   Done                     01/02/2019 06:14:25
00063 suncat0186 pw.x -in pw.inp   Done                     01/02/2019 06:14:25