     Program PWSCF v.5.1rc2 (svn rev. 11289) starts on 19Dec2018 at 19:49:54

     Current dimensions of program PWSCF are:
     Max number of different atomic species (ntypx) = 10
     Max number of k-points (npk) =  40000
     Max angular momentum in pseudopotentials (lmaxx) =  3
     Presently stress not available with electric field

     IMPORTANT: XC functional enforced from input :
     Exchange-correlation      = BEEF-VDW ( 1  4 27 13 2)
     Any further DFT definition will be discarded
     Please, verify this is what you really want

     Subspace diagonalization in iterative solution of the eigenvalue problem:
     a serial algorithm will be used

     bravais-lattice index     =            0
     lattice parameter (alat)  =       1.8897  a.u.
     unit-cell volume          =    4924.9948 (a.u.)^3
     number of atoms/cell      =           12
     number of atomic types    =            2
     number of electrons       =       144.00
     number of Kohn-Sham states=          102
     kinetic-energy cutoff     =      36.7493  Ry
     charge density cutoff     =     367.4932  Ry
     convergence threshold     =      1.0E-06
     mixing beta               =       0.1000
     number of iterations used =           10  plain     mixing
     Exchange-correlation      = BEEF-VDW ( 1  4 27 13 2)
     nstep                     =           50

     celldm(1)=   1.889726  celldm(2)=   0.000000  celldm(3)=   0.000000
     celldm(4)=   0.000000  celldm(5)=   0.000000  celldm(6)=   0.000000

     crystal axes: (cart. coord. in units of alat)
               a(1) = (   5.833600   0.000000   0.000000 )
               a(2) = (  -2.916800   5.052046   0.000000 )
               a(3) = (   0.000000   0.000000  24.763114 )

     reciprocal axes: (cart. coord. in units 2 pi/alat)
               b(1) = (  0.171421  0.098970  0.000000 )
               b(2) = (  0.000000  0.197940  0.000000 )
               b(3) = (  0.000000  0.000000  0.040383 )

     PseudoPot. # 1 for Au read from file:
     /afs/slac.stanford.edu/u/if/mamunm/psp/gbrv1.5pbe/Au.UPF
     MD5 check sum: 9d7f43293ad2c663164586bc4b293ffc
     Pseudo is Ultrasoft + core correction, Zval = 11.0
     Generated by new atomic code, or converted to UPF format
     Using radial grid of  985 points,  7 beta functions with:
                l(1) =   0
                l(2) =   0
                l(3) =   1
                l(4) =   1
                l(5) =   2
                l(6) =   2
                l(7) =   3
     Q(r) pseudized with  6 coefficients,  rinner =    1.900   1.900   1.900
                                                       1.900   1.900   1.900
                                                       1.900

     PseudoPot. # 2 for Tc read from file:
     /afs/slac.stanford.edu/u/if/mamunm/psp/gbrv1.5pbe/Tc.UPF
     MD5 check sum: 9eb49e5b028550b2339a02317eb7b844
     Pseudo is Ultrasoft + core correction, Zval = 15.0
     Generated by new atomic code, or converted to UPF format
     Using radial grid of  965 points,  6 beta functions with:
                l(1) =   0
                l(2) =   0
                l(3) =   1
                l(4) =   1
                l(5) =   2
                l(6) =   2
     Q(r) pseudized with  8 coefficients,  rinner =    1.300   1.300   1.300
                                                       1.300   1.300

     vdW kernel table read from file vdW_kernel_table
     MD5 check sum: 095c7af220d748ca6e76c0b4c6cfb241

     atomic species   valence    mass     pseudopotential
        Au1           11.00   196.96657     Au( 1.00)
        Tc1           15.00    97.90721     Tc( 1.00)

     No symmetry found

   Cartesian axes

     site n.     atom                  positions (alat units)
         1           Au1 tau(   1) = (   0.0000000   0.0000000  10.0000000  )
         2           Au1 tau(   2) = (  -1.4584000   2.5260229  10.0000000  )
         3           Au1 tau(   3) = (   1.4584000   2.5260229  10.0000000  )
         4           Tc1 tau(   4) = (   2.9168000   0.0000000  10.0000000  )
         5           Au1 tau(   5) = (   2.9168000   1.6840152  12.3815572  )
         6           Au1 tau(   6) = (   1.4584000   4.2100381  12.3815572  )
         7           Au1 tau(   7) = (  -1.4584000   4.2100381  12.3815572  )
         8           Tc1 tau(   8) = (   0.0000000   1.6840152  12.3815572  )
         9           Au1 tau(   9) = (  -0.0000000   3.3680305  14.7631144  )
        10           Au1 tau(  10) = (   1.4584000   0.8420076  14.7631144  )
        11           Au1 tau(  11) = (   4.3751999   0.8420076  14.7631144  )
        12           Tc1 tau(  12) = (   2.9168000   3.3680305  14.7631144  )

     number of k points=    20  Fermi-Dirac smearing, width (Ry)=  0.0110
                       cart. coord. in units 2pi/alat
        k(    1) = (   0.0000000   0.0000000   0.0000000), wk =   0.0555556
        k(    2) = (   0.0000000   0.0329899   0.0000000), wk =   0.1111111
        k(    3) = (   0.0000000   0.0659799   0.0000000), wk =   0.1111111
        k(    4) = (   0.0000000  -0.0989698   0.0000000), wk =   0.0555556
        k(    5) = (   0.0285701   0.0164950   0.0000000), wk =   0.1111111
        k(    6) = (   0.0285701   0.0494849   0.0000000), wk =   0.1111111
        k(    7) = (   0.0285701   0.0824748   0.0000000), wk =   0.1111111
        k(    8) = (   0.0285701  -0.0824748   0.0000000), wk =   0.1111111
        k(    9) = (   0.0285701  -0.0494849   0.0000000), wk =   0.1111111
        k(   10) = (   0.0285701  -0.0164950   0.0000000), wk =   0.1111111
        k(   11) = (   0.0571402   0.0329899   0.0000000), wk =   0.1111111
        k(   12) = (   0.0571402   0.0659799   0.0000000), wk =   0.1111111
        k(   13) = (   0.0571402   0.0989698   0.0000000), wk =   0.1111111
        k(   14) = (   0.0571402  -0.0659799   0.0000000), wk =   0.1111111
        k(   15) = (   0.0571402  -0.0329899   0.0000000), wk =   0.1111111
        k(   16) = (   0.0571402   0.0000000   0.0000000), wk =   0.1111111
        k(   17) = (  -0.0857104  -0.0494849   0.0000000), wk =   0.0555556
        k(   18) = (  -0.0857104  -0.0164950   0.0000000), wk =   0.1111111
        k(   19) = (  -0.0857104   0.0164950   0.0000000), wk =   0.1111111
        k(   20) = (  -0.0857104  -0.1484547   0.0000000), wk =   0.0555556

     Largest allocated arrays     est. size (Mb)     dimensions
     Largest temporary arrays     est. size (Mb)     dimensions

     Check: negative/imaginary core charge=   -0.000007    0.000000

     Initial potential from superposition of free atoms
     Check: negative starting charge=   -0.380146

     starting charge  140.99882, renormalised to  144.00000

     negative rho (up, down):  3.882E-01 0.000E+00

     *
     * You are using vdW-DF for exchange-correlation in this calculation.
     * Please cite the following three references that made this development
     * possible:
     *
     *   M. Dion, H. Rydberg, E. Schroder, D. C. Langreth, and
     *   B. I. Lundqvist, Phys. Rev. Lett. 92, 246401 (2004).
     *
     *   T. Thonhauser, V. R. Cooper, S. Li, A. Puzder, P. Hyldgaard, and
     *   D. C. Langreth, Phys. Rev. B 76, 125112 (2007).
     *
     *   G. Roman-Perez and J. M. Soler, Phys. Rev. Lett. 103, 096102 (2009).
     *
     *
     * If you are using vdW-DF2, please also cite:
     *
     *   K. Lee, E. D. Murray, L. Kong, B. I. Lundqvist, and
     *   D. C. Langreth, Phys. Rev. B 82, 081101(R) (2010).
     *
     *
     * If you are calculating the stress with vdW-DF, please also cite:
     *
     *   R. Sabatini, E. Kucukbenli, B. Kolb, T. Thonhauser, and
     *   S. de Gironcoli, J. Phys.: Condens. Matter 24, 424209 (2012).
     *

     Carrying out vdW-DF run using the following parameters:

     Nqs =      20    Nr_points =    1024   r_max =   100.000
     q_mesh =
               0.00001000     0.04494208     0.09755937     0.15916263
               0.23128650     0.31572767     0.41458969     0.53033537
               0.66584808     0.82450364     1.01025438     1.22772762
               1.48234092     1.78043706     2.12944203     2.53805004
               3.01644009     3.57652955     4.23227104     5.00000000

     Gradients computed in reciprocal space

     Adding external electric field

     Computed dipole along edir(3) :
        Dipole               -0.0000 Ry au,         -0.0000 Debye
        Dipole field         -0.0000 Ry au

        Potential amp.        0.0000 Ry
        Total length         45.6256 bohr

     Starting wfc are  120 randomized atomic wfcs

     Self-consistent Calculation

     iteration #  1     ecut=    36.75 Ry     beta=0.10
     Davidson diagonalization with overlap
     ethr =  1.00E-02,  avg # of iterations =  8.2

[...]

     total energy              =   -1575.26204820 Ry
     Harris-Foulkes estimate   =   -1576.86212223 Ry
     estimated scf accuracy    <       9.14420893 Ry

[...]

     End of self-consistent calculation

          k = 0.0000 0.0000 0.0000 ( 18535 PWs)   bands (ev):

   -66.1197 -65.8522 -65.8521 -38.2289 -38.0695 -38.0695 -37.8800 -37.8800
   -37.8796 -37.8796 -37.8376 -37.8362  -7.2060  -5.8683  -5.5899  -5.2660
    -5.2415  -5.2415  -5.0996  -5.0996  -5.0946  -4.9094  -4.8117  -4.8117
    -4.7331  -4.6856  -4.6856  -3.9528  -3.7030  -3.7030  -3.6376  -3.6376
    -3.3627  -3.3183  -3.2589  -3.1043  -3.0553  -3.0553  -2.9731  -2.9731
    -2.8222  -2.8222  -2.6680  -2.6680  -2.6401  -2.6401  -2.3145  -2.0406
    -2.0406  -1.9575  -1.9575  -1.7196  -1.7196  -1.4840  -1.2836  -1.2836
    -1.1344  -0.9964  -0.9916  -0.9254  -0.3225   0.2116   0.5309   0.5309
     0.5747   0.5747   0.6638   0.6638   0.8110   0.8110   1.0702   1.0702
     1.2205   1.3814   1.4055   1.4055   1.7114   1.8913   1.8913   2.9672
     2.9672   3.0697   3.0697   3.3292   3.3790   4.7609   4.9342   4.9342
     5.1012   5.3181   5.3181   5.3200   6.2926   6.2926   6.3134   6.5068
     6.9074   7.1549   7.6416   8.6538   9.1690   9.1803

[...]

          k =-0.0857-0.0495 0.0000 ( 18504 PWs)   bands (ev):

[...]

     the Fermi energy is     0.7607 ev

!    total energy              =   -1575.75254626 Ry
     Harris-Foulkes estimate   =   -1575.77000476 Ry
     estimated scf accuracy    <       0.00000076 Ry

     The total energy is the sum of the following terms:

     one-electron contribution =  -10109.48118214 Ry
     hartree contribution      =    5125.84983815 Ry
     xc contribution           =    -674.97789761 Ry
     ewald contribution        =    4082.96551699 Ry
     electric field correction =       0.00000001 Ry
     smearing contrib. (-TS)   =      -0.10882166 Ry

     convergence has been achieved in  17 iterations

 BEEF-vdW xc energy contributions
           1 :   -601.150384387893
           2 :    557.969040640944
           3 :   -480.721929013499
           4 :    384.377406203906
           5 :   -285.181223201520
           6 :    196.385910149672
           7 :   -125.702792328117
           8 :    74.8964834166093
           9 :   -41.2511966548934
          10 :    19.9667617013694
          11 :   -6.44839530696152
          12 :   -2.34839515286581
          13 :    7.74046388938712
[...]
     /afs/slac.stanford.edu/u/if/mamunm/psp/gbrv1.5pbe/Au.UPF
     MD5 check sum: 9d7f43293ad2c663164586bc4b293ffc
     Pseudo is Ultrasoft + core correction, Zval = 11.0
     Generated by new atomic code, or converted to UPF format
     Using radial grid of  985 points,  7 beta functions with:
                l(1) =   0
                l(2) =   0
                l(3) =   1
                l(4) =   1
                l(5) =   2
                l(6) =   2
                l(7) =   3
     Q(r) pseudized with  6 coefficients,  rinner =    1.900   1.900   1.900
                                                       1.900   1.900   1.900
                                                       1.900

     PseudoPot. # 2 for Tc read from file:
     /afs/slac.stanford.edu/u/if/mamunm/psp/gbrv1.5pbe/Tc.UPF
     MD5 check sum: 9eb49e5b028550b2339a02317eb7b844
     Pseudo is Ultrasoft + core correction, Zval = 15.0
     Generated by new atomic code, or converted to UPF format
     Using radial grid of  965 points,  6 beta functions with:
                l(1) =   0
                l(2) =   0
                l(3) =   1
                l(4) =   1
                l(5) =   2
                l(6) =   2
     Q(r) pseudized with  8 coefficients,  rinner =    1.300   1.300   1.300
                                                       1.300   1.300

     vdW kernel table read from file vdW_kernel_table
     MD5 check sum: 095c7af220d748ca6e76c0b4c6cfb241

     atomic species   valence    mass     pseudopotential
        Au1           11.00   196.96657     Au( 1.00)
        Tc1           15.00    97.90721     Tc( 1.00)

     No symmetry found

   Cartesian axes

     site n.     atom                  positions (alat units)
         1           Au1 tau(   1) = (   0.0000000   0.0000000  10.0000000  )
         2           Au1 tau(   2) = (  -1.4584000   2.5260229  10.0000000  )
         3           Au1 tau(   3) = (   1.4584000   2.5260229  10.0000000  )
         4           Tc1 tau(   4) = (   2.9168000   0.0000000  10.0000000  )
         5           Au1 tau(   5) = (   2.9168000   1.6840152  12.3815572  )
         6           Au1 tau(   6) = (   1.4584000   4.2100381  12.3815572  )
         7           Au1 tau(   7) = (  -1.4584000   4.2100381  12.3815572  )
         8           Tc1 tau(   8) = (   0.0000000   1.6840152  12.3815572  )
         9           Au1 tau(   9) = (  -0.0000054   3.3619415  14.8338519  )
        10           Au1 tau(  10) = (   1.4531305   0.8450640  14.8338286  )
        11           Au1 tau(  11) = (   4.3804720   0.8450631  14.8338107  )
        12           Tc1 tau(  12) = (   2.9167910   3.3680397  14.6071540  )

     number of k points=    20  Fermi-Dirac smearing, width (Ry)=  0.0110
                       cart. coord. in units 2pi/alat
        k(    1) = (   0.0000000   0.0000000   0.0000000), wk =   0.0555556
        k(    2) = (   0.0000000   0.0329899   0.0000000), wk =   0.1111111
        k(    3) = (   0.0000000   0.0659799   0.0000000), wk =   0.1111111
        k(    4) = (   0.0000000  -0.0989698   0.0000000), wk =   0.0555556
        k(    5) = (   0.0285701   0.0164950   0.0000000), wk =   0.1111111
        k(    6) = (   0.0285701   0.0494849   0.0000000), wk =   0.1111111
        k(    7) = (   0.0285701   0.0824748   0.0000000), wk =   0.1111111
        k(    8) = (   0.0285701  -0.0824748   0.0000000), wk =   0.1111111
        k(    9) = (   0.0285701  -0.0494849   0.0000000), wk =   0.1111111
        k(   10) = (   0.0285701  -0.0164950   0.0000000), wk =   0.1111111
        k(   11) = (   0.0571402   0.0329899   0.0000000), wk =   0.1111111
        k(   12) = (   0.0571402   0.0659799   0.0000000), wk =   0.1111111
        k(   13) = (   0.0571402   0.0989698   0.0000000), wk =   0.1111111
        k(   14) = (   0.0571402  -0.0659799   0.0000000), wk =   0.1111111
        k(   15) = (   0.0571402  -0.0329899   0.0000000), wk =   0.1111111
        k(   16) = (   0.0571402   0.0000000   0.0000000), wk =   0.1111111
        k(   17) = (  -0.0857104  -0.0494849   0.0000000), wk =   0.0555556
        k(   18) = (  -0.0857104  -0.0164950   0.0000000), wk =   0.1111111
        k(   19) = (  -0.0857104   0.0164950   0.0000000), wk =   0.1111111
        k(   20) = (  -0.0857104  -0.1484547   0.0000000), wk =   0.0555556

     Largest allocated arrays     est. size (Mb)     dimensions
     Largest temporary arrays     est. size (Mb)     dimensions

     Check: negative/imaginary core charge=   -0.000007    0.000000

     Initial potential from superposition of free atoms
     Check: negative starting charge=   -0.381091

     starting charge  140.99882, renormalised to  144.00000

[...]

     *
     * You are using vdW-DF for exchange-correlation in this calculation.
     * Please cite the following three references that made this development
     * possible:
     *
     *   M. Dion, H. Rydberg, E. Schroder, D. C. Langreth, and
     *   B. I. Lundqvist, Phys. Rev. Lett. 92, 246401 (2004).
     *
     *   T. Thonhauser, V. R. Cooper, S. Li, A. Puzder, P. Hyldgaard, and
     *   D. C. Langreth, Phys. Rev. B 76, 125112 (2007).
     *
     *   G. Roman-Perez and J. M. Soler, Phys. Rev. Lett. 103, 096102 (2009).
     *
     *
     * If you are using vdW-DF2, please also cite:
     *
     *   K. Lee, E. D. Murray, L. Kong, B. I. Lundqvist, and
     *   D. C. Langreth, Phys. Rev. B 82, 081101(R) (2010).
     *
     *
     * If you are calculating the stress with vdW-DF, please also cite:
     *
     *   R. Sabatini, E. Kucukbenli, B. Kolb, T. Thonhauser, and
     *   S. de Gironcoli, J. Phys.: Condens. Matter 24, 424209 (2012).
     *

     Carrying out vdW-DF run using the following parameters:

     Nqs =      20    Nr_points =    1024   r_max =   100.000
     q_mesh =
               0.00001000     0.04494208     0.09755937     0.15916263
               0.23128650     0.31572767     0.41458969     0.53033537
               0.66584808     0.82450364     1.01025438     1.22772762
               1.48234092     1.78043706     2.12944203     2.53805004
               3.01644009     3.57652955     4.23227104     5.00000000

     Gradients computed in reciprocal space

[...]

     Starting wfc are  120 randomized atomic wfcs

     Self-consistent Calculation

[...]

     total energy              =   -1575.77946329 Ry
     Harris-Foulkes estimate   =   -1575.77946290 Ry
     estimated scf accuracy    <       0.00000202 Ry

     iteration # 18     ecut=    36.75 Ry     beta=0.10
     Davidson diagonalization with overlap
     ethr =  1.40E-09,  avg # of iterations =  1.0

[...]

     negative rho (up, down):  3.909E-01 0.000E+00

     Adding external electric field

     Computed dipole along edir(3) :
        Dipole               -0.0240 Ry au,         -0.0610 Debye
        Dipole field         -0.0001 Ry au

        Potential amp.        0.0056 Ry
        Total length         45.6256 bohr

     End of self-consistent calculation

[...]

          k = 0.0571 0.0000 0.0000 ( 18535 PWs)   bands (ev):

[...]

          k =-0.0857-0.1485 0.0000 ( 18504 PWs)   bands (ev):

   -66.1523 -65.9243 -65.8844 -38.2564 -38.1047 -38.1034 -37.9498 -37.9486
   -37.9237 -37.9172 -37.9159 -37.8632  -5.8935  -5.6113  -4.8946  -4.7653
    -4.7517  -4.6810  -4.5863  -4.4761  -4.4223  -4.4090  -4.3233  -4.2596
    -4.0121  -3.9889  -3.9637  -3.8828  -3.8560  -3.8306  -3.7622  -3.6734
    -3.3645  -3.3050  -3.2201  -3.1985  -3.1903  -3.1688  -3.1436  -3.1067
    -3.0702  -3.0527  -2.9953  -2.9656  -2.9377  -2.8309  -2.8309  -2.7735
    -2.6346  -2.5976  -2.5678  -2.4827  -2.4501  -2.3720  -2.2568  -2.2108
    -1.8882  -1.7460  -1.4574  -1.4536  -1.2751  -1.1687  -0.7363  -0.5207
    -0.0267   0.0237   0.1808   0.2816   0.2925   0.3539   0.4594   0.4787
     0.5705   0.5973   0.7517   1.2100   1.3446   1.7468   2.2320   2.3492
     3.0182   3.5125   4.3592   4.3968   4.6013   5.0073   6.1037   6.1254
     6.6570   6.6940   6.7128   6.7189   6.7294   7.2954   7.5909   7.6471
     7.6976   7.8566   7.9499   8.0014   8.2382   8.3920

     the Fermi energy is     0.7155 ev

!    total energy              =   -1575.77946518 Ry
     Harris-Foulkes estimate   =   -1575.77946318 Ry
     estimated scf accuracy    <       0.00000060 Ry

     The total energy is the sum of the following terms:

     one-electron contribution =  -10106.46472125 Ry
     hartree contribution      =    5124.18121193 Ry
     xc contribution           =    -674.98615514 Ry
     ewald contribution        =    4081.59819572 Ry
     electric field correction =       0.00000147 Ry
     smearing contrib. (-TS)   =      -0.10799791 Ry

     convergence has been achieved in  18 iterations

 BEEF-vdW xc energy contributions
           1 :   -601.732675498440
           2 :    558.536791013424
           3 :   -481.273486561702
           4 :    384.923842642155
           5 :   -285.736254145706
           6 :    196.956842275512
           7 :   -126.287287283319
           8 :    75.4847683914508
           9 :   -41.8317762222399
          10 :    20.5329360690159
          11 :   -7.00321875961799
          12 :   -1.79115587879846
          13 :    7.16318093551297
          14 :   -9.41638684022632
          15 :    8.79937037989009
          16 :   -6.14425136449881
          17 :    2.89658632634246
          18 :  -0.635319552058263
          19 :   0.412004183492172
          20 :   -2.31238418950284
          21 :    5.47200588972419
          22 :   -8.53951937251747
          23 :    10.3358712468861
          24 :   -10.3842838576224
          25 :    9.05917924187315
          26 :   -7.32051091661231
          27 :    6.19402946652053
          28 :   -6.27421741162448
          29 :    7.48204413675808
          30 :   -9.17162844509585
          31 :   -48.8581438813987
          32 :   -35.6328720880740

     Forces acting on atoms (Ry/au):

     negative rho (up, down):  3.909E-01 0.000E+00
     atom    1 type  1   force =     0.00000276    0.00558446   -0.00994200
     atom    2 type  1   force =     0.00483898   -0.00279425   -0.00993718
     atom    3 type  1   force =    -0.00484125   -0.00279505   -0.00993049
     atom    4 type  2   force =     0.00000050   -0.00000032    0.02814103
     atom    5 type  1   force =     0.00000017   -0.01006351   -0.00225863
     atom    6 type  1   force =    -0.00871773    0.00503284   -0.00225552
     atom    7 type  1   force =     0.00871663    0.00503080   -0.00225558
     atom    8 type  2   force =     0.00000060    0.00000018    0.00567456
     atom    9 type  1   force =    -0.00000048   -0.00129401    0.00071875
     atom   10 type  1   force =    -0.00112328    0.00064970    0.00072844
     atom   11 type  1   force =     0.00112265    0.00064841    0.00072253
     atom   12 type  2   force =     0.00000043    0.00000075    0.00059408

     Total force =     0.039244     Total SCF correction =     0.002219

     entering subroutine stress ...

     negative rho (up, down):  3.909E-01 0.000E+00
          total   stress  (Ry/bohr**3)                   (kbar)     P=  -13.33
  -0.00013453  -0.00000000   0.00000000        -19.79     -0.00      0.00
  -0.00000000  -0.00013453  -0.00000000         -0.00    -19.79     -0.00
   0.00000000  -0.00000000  -0.00000272          0.00     -0.00     -0.40

 !ASE

     Writing output data file calc.save

     General routines

     Parallel routines

   This run was terminated on:  21:21:36  19Dec2018

   JOB DONE.
Job  /afs/slac/g/suncat/bin/suncat-tsmpirun -x LD_LIBRARY_PATH -wdir /scratch/qe773395_PR61E pw.x -in pw.inp

TID   HOST_NAME   COMMAND_LINE            STATUS            TERMINATION_TIME
00000 suncat0234 pw.x -in pw.inp   Done                     12/19/2018 21:21:36
00001 suncat0234 pw.x -in pw.inp   Done                     12/19/2018 21:21:36
00002 suncat0234 pw.x -in pw.inp   Done                     12/19/2018 21:21:36
00003 suncat0234 pw.x -in pw.inp   Done                     12/19/2018 21:21:36
00004 suncat0234 pw.x -in pw.inp   Done                     12/19/2018 21:21:36
00005 suncat0234 pw.x -in pw.inp   Done                     12/19/2018 21:21:36
00006 suncat0234 pw.x -in pw.inp   Done                     12/19/2018 21:21:36
00007 suncat0234 pw.x -in pw.inp   Done                     12/19/2018 21:21:36
00008 suncat0233 pw.x -in pw.inp   Done                     12/19/2018 21:21:36
00009 suncat0233 pw.x -in pw.inp   Done                     12/19/2018 21:21:36
00010 suncat0233 pw.x -in pw.inp   Done                     12/19/2018 21:21:36
00011 suncat0233 pw.x -in pw.inp   Done                     12/19/2018 21:21:36
00012 suncat0233 pw.x -in pw.inp   Done                     12/19/2018 21:21:36
00013 suncat0233 pw.x -in pw.inp   Done                     12/19/2018 21:21:36
00014 suncat0233 pw.x -in pw.inp   Done                     12/19/2018 21:21:36
00015 suncat0233 pw.x -in pw.inp   Done                     12/19/2018 21:21:36
00016 suncat0232 pw.x -in pw.inp   Done                     12/19/2018 21:21:36
00017 suncat0232 pw.x -in pw.inp   Done                     12/19/2018 21:21:36
00018 suncat0232 pw.x -in pw.inp   Done                     12/19/2018 21:21:36
00019 suncat0232 pw.x -in pw.inp   Done                     12/19/2018 21:21:36
00020 suncat0232 pw.x -in pw.inp   Done                     12/19/2018 21:21:36
00021 suncat0232 pw.x -in pw.inp   Done                     12/19/2018 21:21:36
00022 suncat0232 pw.x -in pw.inp   Done                     12/19/2018 21:21:36
00023 suncat0232 pw.x -in pw.inp   Done                     12/19/2018 21:21:36
00024 suncat0231 pw.x -in pw.inp   Done                     12/19/2018 21:21:36
00025 suncat0231 pw.x -in pw.inp   Done                     12/19/2018 21:21:36
00026 suncat0231 pw.x -in pw.inp   Done                     12/19/2018 21:21:36
00027 suncat0231 pw.x -in pw.inp   Done                     12/19/2018 21:21:36
00028 suncat0231 pw.x -in pw.inp   Done                     12/19/2018 21:21:36
00029 suncat0231 pw.x -in pw.inp   Done                     12/19/2018 21:21:36
00030 suncat0231 pw.x -in pw.inp   Done                     12/19/2018 21:21:36
00031 suncat0231 pw.x -in pw.inp   Done                     12/19/2018 21:21:36
00032 suncat0230 pw.x -in pw.inp   Done                     12/19/2018 21:21:36
00033 suncat0230 pw.x -in pw.inp   Done                     12/19/2018 21:21:36
00034 suncat0230 pw.x -in pw.inp   Done                     12/19/2018 21:21:36
00035 suncat0230 pw.x -in pw.inp   Done                     12/19/2018 21:21:36
00036 suncat0230 pw.x -in pw.inp   Done                     12/19/2018 21:21:36
00037 suncat0230 pw.x -in pw.inp   Done                     12/19/2018 21:21:36
00038 suncat0230 pw.x -in pw.inp   Done                     12/19/2018 21:21:36
00039 suncat0230 pw.x -in pw.inp   Done                     12/19/2018 21:21:36
00040 suncat0229 pw.x -in pw.inp   Done                     12/19/2018 21:21:36
00041 suncat0229 pw.x -in pw.inp   Done                     12/19/2018 21:21:36
00042 suncat0229 pw.x -in pw.inp   Done                     12/19/2018 21:21:36
00043 suncat0229 pw.x -in pw.inp   Done                     12/19/2018 21:21:36
00044 suncat0229 pw.x -in pw.inp   Done                     12/19/2018 21:21:36
00045 suncat0229 pw.x -in pw.inp   Done                     12/19/2018 21:21:36
00046 suncat0229 pw.x -in pw.inp   Done                     12/19/2018 21:21:36
00047 suncat0229 pw.x -in pw.inp   Done                     12/19/2018 21:21:36
00048 suncat0228 pw.x -in pw.inp   Done                     12/19/2018 21:21:36
00049 suncat0228 pw.x -in pw.inp   Done                     12/19/2018 21:21:36
00050 suncat0228 pw.x -in pw.inp   Done                     12/19/2018 21:21:36
00051 suncat0228 pw.x -in pw.inp   Done                     12/19/2018 21:21:36
00052 suncat0228 pw.x -in pw.inp   Done                     12/19/2018 21:21:36
00053 suncat0228 pw.x -in pw.inp   Done                     12/19/2018 21:21:36
00054 suncat0228 pw.x -in pw.inp   Done                     12/19/2018 21:21:36
00055 suncat0228 pw.x -in pw.inp   Done                     12/19/2018 21:21:36
00056 suncat0227 pw.x -in pw.inp   Done                     12/19/2018 21:21:36
00057 suncat0227 pw.x -in pw.inp   Done                     12/19/2018 21:21:36
00058 suncat0227 pw.x -in pw.inp   Done                     12/19/2018 21:21:36
00059 suncat0227 pw.x -in pw.inp   Done                     12/19/2018 21:21:36
00060 suncat0227 pw.x -in pw.inp   Done                     12/19/2018 21:21:36
00061 suncat0227 pw.x -in pw.inp   Done                     12/19/2018 21:21:36
00062 suncat0227 pw.x -in pw.inp   Done                     12/19/2018 21:21:36
00063 suncat0227 pw.x -in pw.inp   Done                     12/19/2018 21:21:36