     Program PWSCF v.5.1rc2 (svn rev. 11289) starts on 30Dec2018 at  8:49:27

     Current dimensions of program PWSCF are:
     Max number of different atomic species (ntypx) = 10
     Max number of k-points (npk) =  40000
     Max angular momentum in pseudopotentials (lmaxx) =  3
     Presently stress not available with electric field

     IMPORTANT: XC functional enforced from input :
     Exchange-correlation      = BEEF-VDW ( 1  4 27 13 2)
     Any further DFT definition will be discarded
     Please, verify this is what you really want

     Subspace diagonalization in iterative solution of the eigenvalue problem:
     a serial algorithm will be used

     bravais-lattice index     =            0
     lattice parameter (alat)  =       1.8897  a.u.
     unit-cell volume          =    6408.5919 (a.u.)^3
     number of atoms/cell      =           12
     number of atomic types    =            2
     number of electrons       =       150.00
     number of Kohn-Sham states=          105
     kinetic-energy cutoff     =      36.7493  Ry
     charge density cutoff     =     367.4932  Ry
     convergence threshold     =      1.0E-06
     mixing beta               =       0.1000
     number of iterations used =           10  plain     mixing
     Exchange-correlation      = BEEF-VDW ( 1  4 27 13 2)
     nstep                     =           50

     celldm(1)=   1.889726  celldm(2)=   0.000000  celldm(3)=   0.000000
     celldm(4)=   0.000000  celldm(5)=   0.000000  celldm(6)=   0.000000

     crystal axes: (cart. coord. in units of alat)
               a(1) = (   6.574656   0.000000   0.000000 )
               a(2) = (  -3.287328   5.693819   0.000000 )
               a(3) = (   0.000000   0.000000  25.368184 )

     reciprocal axes: (cart. coord. in units 2 pi/alat)
               b(1) = (  0.152099  0.087815  0.000000 )
               b(2) = (  0.000000  0.175629  0.000000 )
               b(3) = (  0.000000  0.000000  0.039419 )

     PseudoPot. # 1 for In read from file:
     /afs/slac.stanford.edu/u/if/mamunm/psp/gbrv1.5pbe/In.UPF
     MD5 check sum: 90777abd96fbb83f2e67db2a40c566b9
     Pseudo is Ultrasoft + core correction, Zval = 13.0
     Generated by new atomic code, or converted to UPF format
     Using radial grid of  889 points,  6 beta functions with:
                l(1) =   0
                l(2) =   0
                l(3) =   1
                l(4) =   1
                l(5) =   2
                l(6) =   2
     Q(r) pseudized with  6 coefficients,  rinner =    1.400   1.400   1.400
                                                       1.400   1.400

     PseudoPot. # 2 for Au read from file:
     /afs/slac.stanford.edu/u/if/mamunm/psp/gbrv1.5pbe/Au.UPF
     MD5 check sum: 9d7f43293ad2c663164586bc4b293ffc
     Pseudo is Ultrasoft + core correction, Zval = 11.0
     Generated by new atomic code, or converted to UPF format
     Using radial grid of  985 points,  7 beta functions with:
                l(1) =   0
                l(2) =   0
                l(3) =   1
                l(4) =   1
                l(5) =   2
                l(6) =   2
                l(7) =   3
     Q(r) pseudized with  6 coefficients,  rinner =    1.900   1.900   1.900
                                                       1.900   1.900   1.900
                                                       1.900

     vdW kernel table read from file vdW_kernel_table
     MD5 check sum: 095c7af220d748ca6e76c0b4c6cfb241

     atomic species   valence    mass     pseudopotential
        In1           13.00   114.81800     In( 1.00)
        Au1           11.00   196.96657     Au( 1.00)

     No symmetry found

   Cartesian axes

     site n.     atom                  positions (alat units)
         1           In1 tau(   1) = (   0.0000000   0.0000000  10.0000000  )
         2           In1 tau(   2) = (  -1.6436639   2.8469094  10.0000000  )
         3           In1 tau(   3) = (   1.6436639   2.8469094  10.0000000  )
         4           Au1 tau(   4) = (   3.2873278   0.0000000  10.0000000  )
         5           In1 tau(   5) = (   3.2873278   1.8979396  12.6840919  )
         6           In1 tau(   6) = (   1.6436639   4.7448489  12.6840919  )
         7           In1 tau(   7) = (  -1.6436639   4.7448489  12.6840919  )
         8           Au1 tau(   8) = (   0.0000000   1.8979396  12.6840919  )
         9           In1 tau(   9) = (  -0.0000000   3.7958791  15.3681838  )
        10           In1 tau(  10) = (   1.6436639   0.9489698  15.3681838  )
        11           In1 tau(  11) = (   4.9309916   0.9489698  15.3681838  )
        12           Au1 tau(  12) = (   3.2873278   3.7958791  15.3681838  )

     number of k points=    20  Fermi-Dirac smearing, width (Ry)=  0.0110
                       cart. coord. in units 2pi/alat
        k(    1) = (   0.0000000   0.0000000   0.0000000), wk =   0.0555556
        k(    2) = (   0.0000000   0.0292715   0.0000000), wk =   0.1111111
        k(    3) = (   0.0000000   0.0585430   0.0000000), wk =   0.1111111
        k(    4) = (   0.0000000  -0.0878145   0.0000000), wk =   0.0555556
        k(    5) = (   0.0253499   0.0146358   0.0000000), wk =   0.1111111
        k(    6) = (   0.0253499   0.0439073   0.0000000), wk =   0.1111111
        k(    7) = (   0.0253499   0.0731788   0.0000000), wk =   0.1111111
        k(    8) = (   0.0253499  -0.0731788   0.0000000), wk =   0.1111111
        k(    9) = (   0.0253499  -0.0439073   0.0000000), wk =   0.1111111
        k(   10) = (   0.0253499  -0.0146358   0.0000000), wk =   0.1111111
        k(   11) = (   0.0506997   0.0292715   0.0000000), wk =   0.1111111
        k(   12) = (   0.0506997   0.0585430   0.0000000), wk =   0.1111111
        k(   13) = (   0.0506997   0.0878145   0.0000000), wk =   0.1111111
        k(   14) = (   0.0506997  -0.0585430   0.0000000), wk =   0.1111111
        k(   15) = (   0.0506997  -0.0292715   0.0000000), wk =   0.1111111
        k(   16) = (   0.0506997   0.0000000   0.0000000), wk =   0.1111111
        k(   17) = (  -0.0760496  -0.0439073   0.0000000), wk =   0.0555556
        k(   18) = (  -0.0760496  -0.0146358   0.0000000), wk =   0.1111111
        k(   19) = (  -0.0760496   0.0146358   0.0000000), wk =   0.1111111
        k(   20) = (  -0.0760496  -0.1317218   0.0000000), wk =   0.0555556

     Largest allocated arrays     est. size (Mb)     dimensions
     Largest temporary arrays     est. size (Mb)     dimensions

     Initial potential from superposition of free atoms
     Check: negative starting charge=   -0.000154

     starting charge  136.49963, renormalised to  150.00000

     negative rho (up, down):  1.688E-04 0.000E+00

     *
     * You are using vdW-DF for exchange-correlation in this calculation.
     * Please cite the following three references that made this development
     * possible:
     *
     *   M. Dion, H. Rydberg, E. Schroder, D. C. Langreth, and
     *   B. I. Lundqvist, Phys. Rev. Lett. 92, 246401 (2004).
     *
     *   T. Thonhauser, V. R. Cooper, S. Li, A. Puzder, P. Hyldgaard, and
     *   D. C. Langreth, Phys. Rev. B 76, 125112 (2007).
     *
     *   G. Roman-Perez and J. M. Soler, Phys. Rev. Lett. 103, 096102 (2009).
     *
     *
     * If you are using vdW-DF2, please also cite:
     *
     *   K. Lee, E. D. Murray, L. Kong, B. I. Lundqvist, and
     *   D. C. Langreth, Phys. Rev. B 82, 081101(R) (2010).
     *
     *
     * If you are calculating the stress with vdW-DF, please also cite:
     *
     *   R. Sabatini, E. Kucukbenli, B. Kolb, T. Thonhauser, and
     *   S. de Gironcoli, J. Phys.: Condens. Matter 24, 424209 (2012).
     *

     Carrying out vdW-DF run using the following parameters:

     Nqs =      20    Nr_points =    1024   r_max =   100.000
     q_mesh =
               0.00001000     0.04494208     0.09755937     0.15916263
               0.23128650     0.31572767     0.41458969     0.53033537
               0.66584808     0.82450364     1.01025438     1.22772762
               1.48234092     1.78043706     2.12944203     2.53805004
               3.01644009     3.57652955     4.23227104     5.00000000

     Gradients computed in reciprocal space

     Adding external electric field

     Computed dipole along edir(3) :
        Dipole               -0.0000 Ry au,         -0.0000 Debye
        Dipole field         -0.0000 Ry au

        Potential amp.        0.0000 Ry
        Total length         46.7404 bohr

     Starting wfc are  108 randomized atomic wfcs

     Self-consistent Calculation

     iteration #  1     ecut=    36.75 Ry     beta=0.10
     Davidson diagonalization with overlap
     ethr =  1.00E-02,  avg # of iterations =  7.7

[...]

     total energy              =   -1557.76093466 Ry
     Harris-Foulkes estimate   =   -1573.04527896 Ry
     estimated scf accuracy    <      87.30796329 Ry

[...]

     End of self-consistent calculation

          k = 0.0000 0.0000 0.0000 ( 24003 PWs)   bands (ev):

   -14.8070 -14.7772 -14.7772 -14.7623 -14.7443 -14.7240 -14.6874 -14.6874
   -14.6777 -14.6777 -14.6669 -14.6558 -14.6558 -14.6280 -14.6265 -14.6265
   -14.6104 -14.5692 -14.5588 -14.5588 -14.5243 -14.5166 -14.4992 -14.4992
   -14.4734 -14.4734 -14.4714 -14.4706 -14.4706 -14.4565 -14.4565 -14.4544
   -14.4544 -14.4365 -14.4365 -14.3976 -14.3976 -14.3776 -14.3776 -14.3707
   -14.3353 -14.3353 -14.3333 -14.2989 -14.2941  -8.3913  -7.0619  -5.4322
    -4.7285  -4.7285  -4.1136  -4.1136  -3.9941  -3.9941  -3.6115  -3.4595
    -3.4110  -3.4110  -3.2719  -3.2719  -3.1540  -3.1540  -2.8589  -2.4994
    -2.3134  -2.3134  -2.2046  -2.2046  -2.1964  -1.6141  -1.3048  -1.3048
    -1.2025  -1.2025  -1.1950  -0.9690   0.1634   0.1634   0.5970   0.5970
     0.6600   0.7221   1.8811   3.5105   3.7270   3.7270   3.7412   3.7412
     3.9563   4.3795   4.4720   5.0446   5.0576   5.3758   5.9581   5.9581
     6.4748   6.4891   6.4892   6.5389   6.7995   6.9723   7.0600   7.3045
     7.3046

[...]

          k =-0.0760-0.0439 0.0000 ( 24136 PWs)   bands (ev):

[...]

     the Fermi energy is     0.3566 ev

!    total energy              =   -1563.15337807 Ry
     Harris-Foulkes estimate   =   -1563.15537258 Ry
     estimated scf accuracy    <       0.00000039 Ry

     The total energy is the sum of the following terms:

     one-electron contribution =   -8525.47156784 Ry
     hartree contribution      =    4345.25959111 Ry
     xc contribution           =    -543.92365772 Ry
     ewald contribution        =    3161.01325324 Ry
     electric field correction =       0.00000000 Ry
     smearing contrib. (-TS)   =      -0.03099686 Ry

     convergence has been achieved in  16 iterations

 BEEF-vdW xc energy contributions
           1 :   -479.884476171380
           2 :    441.075822743933
           3 :   -374.424080025978
           4 :    296.947688998343
           5 :   -224.835492304466
           6 :    167.948318357152
           7 :   -127.968386758146
           8 :    100.401423722277
           9 :   -78.7921260319802
          10 :    58.6447744499792
          11 :   -39.1328168607481
          12 :    22.2041081259140
          13 :   -10.2278791816486
          14 :    3.91960143249469
[...]

     PseudoPot. # 1 for In read from file:
     /afs/slac.stanford.edu/u/if/mamunm/psp/gbrv1.5pbe/In.UPF
     MD5 check sum: 90777abd96fbb83f2e67db2a40c566b9
     Pseudo is Ultrasoft + core correction, Zval = 13.0
     Generated by new atomic code, or converted to UPF format
     Using radial grid of  889 points,  6 beta functions with:
                l(1) =   0
                l(2) =   0
                l(3) =   1
                l(4) =   1
                l(5) =   2
                l(6) =   2
     Q(r) pseudized with  6 coefficients,  rinner =    1.400   1.400   1.400
                                                       1.400   1.400

     PseudoPot. # 2 for Au read from file:
     /afs/slac.stanford.edu/u/if/mamunm/psp/gbrv1.5pbe/Au.UPF
     MD5 check sum: 9d7f43293ad2c663164586bc4b293ffc
     Pseudo is Ultrasoft + core correction, Zval = 11.0
     Generated by new atomic code, or converted to UPF format
     Using radial grid of  985 points,  7 beta functions with:
                l(1) =   0
                l(2) =   0
                l(3) =   1
                l(4) =   1
                l(5) =   2
                l(6) =   2
                l(7) =   3
     Q(r) pseudized with  6 coefficients,  rinner =    1.900   1.900   1.900
                                                       1.900   1.900   1.900
                                                       1.900

     vdW kernel table read from file vdW_kernel_table
     MD5 check sum: 095c7af220d748ca6e76c0b4c6cfb241

     atomic species   valence    mass     pseudopotential
        In1           13.00   114.81800     In( 1.00)
        Au1           11.00   196.96657     Au( 1.00)

     No symmetry found

   Cartesian axes

     site n.     atom                  positions (alat units)
         1           In1 tau(   1) = (   0.0000000   0.0000000  10.0000000  )
         2           In1 tau(   2) = (  -1.6436639   2.8469094  10.0000000  )
         3           In1 tau(   3) = (   1.6436639   2.8469094  10.0000000  )
         4           Au1 tau(   4) = (   3.2873278   0.0000000  10.0000000  )
         5           In1 tau(   5) = (   3.2873278   1.8979396  12.6840919  )
         6           In1 tau(   6) = (   1.6436639   4.7448489  12.6840919  )
         7           In1 tau(   7) = (  -1.6436639   4.7448489  12.6840919  )
         8           Au1 tau(   8) = (   0.0000000   1.8979396  12.6840919  )
         9           In1 tau(   9) = (  -0.0000003   3.7616644  15.4958579  )
        10           In1 tau(  10) = (   1.6138500   0.9658621  15.4958542  )
        11           In1 tau(  11) = (   4.9608056   0.9658695  15.4958721  )
        12           Au1 tau(  12) = (   3.2873332   3.7959926  15.0930790  )

     number of k points=    20  Fermi-Dirac smearing, width (Ry)=  0.0110
                       cart. coord. in units 2pi/alat
        k(    1) = (   0.0000000   0.0000000   0.0000000), wk =   0.0555556
        k(    2) = (   0.0000000   0.0292715   0.0000000), wk =   0.1111111
        k(    3) = (   0.0000000   0.0585430   0.0000000), wk =   0.1111111
        k(    4) = (   0.0000000  -0.0878145   0.0000000), wk =   0.0555556
        k(    5) = (   0.0253499   0.0146358   0.0000000), wk =   0.1111111
        k(    6) = (   0.0253499   0.0439073   0.0000000), wk =   0.1111111
        k(    7) = (   0.0253499   0.0731788   0.0000000), wk =   0.1111111
        k(    8) = (   0.0253499  -0.0731788   0.0000000), wk =   0.1111111
        k(    9) = (   0.0253499  -0.0439073   0.0000000), wk =   0.1111111
        k(   10) = (   0.0253499  -0.0146358   0.0000000), wk =   0.1111111
        k(   11) = (   0.0506997   0.0292715   0.0000000), wk =   0.1111111
        k(   12) = (   0.0506997   0.0585430   0.0000000), wk =   0.1111111
        k(   13) = (   0.0506997   0.0878145   0.0000000), wk =   0.1111111
        k(   14) = (   0.0506997  -0.0585430   0.0000000), wk =   0.1111111
        k(   15) = (   0.0506997  -0.0292715   0.0000000), wk =   0.1111111
        k(   16) = (   0.0506997   0.0000000   0.0000000), wk =   0.1111111
        k(   17) = (  -0.0760496  -0.0439073   0.0000000), wk =   0.0555556
        k(   18) = (  -0.0760496  -0.0146358   0.0000000), wk =   0.1111111
        k(   19) = (  -0.0760496   0.0146358   0.0000000), wk =   0.1111111
        k(   20) = (  -0.0760496  -0.1317218   0.0000000), wk =   0.0555556

     Largest allocated arrays     est. size (Mb)     dimensions
     Largest temporary arrays     est. size (Mb)     dimensions

     Initial potential from superposition of free atoms
     Check: negative starting charge=   -0.000164

     starting charge  136.49963, renormalised to  150.00000

[...]

     *
     * You are using vdW-DF for exchange-correlation in this calculation.
     * Please cite the following three references that made this development
     * possible:
     *
     *   M. Dion, H. Rydberg, E. Schroder, D. C. Langreth, and
     *   B. I. Lundqvist, Phys. Rev. Lett. 92, 246401 (2004).
     *
     *   T. Thonhauser, V. R. Cooper, S. Li, A. Puzder, P. Hyldgaard, and
     *   D. C. Langreth, Phys. Rev. B 76, 125112 (2007).
     *
     *   G. Roman-Perez and J. M. Soler, Phys. Rev. Lett. 103, 096102 (2009).
     *
     *
     * If you are using vdW-DF2, please also cite:
     *
     *   K. Lee, E. D. Murray, L. Kong, B. I. Lundqvist, and
     *   D. C. Langreth, Phys. Rev. B 82, 081101(R) (2010).
     *
     *
     * If you are calculating the stress with vdW-DF, please also cite:
     *
     *   R. Sabatini, E. Kucukbenli, B. Kolb, T. Thonhauser, and
     *   S. de Gironcoli, J. Phys.: Condens. Matter 24, 424209 (2012).
     *

     Carrying out vdW-DF run using the following parameters:

     Nqs =      20    Nr_points =    1024   r_max =   100.000
     q_mesh =
               0.00001000     0.04494208     0.09755937     0.15916263
               0.23128650     0.31572767     0.41458969     0.53033537
               0.66584808     0.82450364     1.01025438     1.22772762
               1.48234092     1.78043706     2.12944203     2.53805004
               3.01644009     3.57652955     4.23227104     5.00000000

     Gradients computed in reciprocal space

[...]

     Starting wfc are  108 randomized atomic wfcs

     Self-consistent Calculation

[...]

     total energy              =   -1563.16284991 Ry
     Harris-Foulkes estimate   =   -1563.16284711 Ry
     estimated scf accuracy    <       0.00000151 Ry

     iteration # 17     ecut=    36.75 Ry     beta=0.10
     Davidson diagonalization with overlap
     ethr =  1.00E-09,  avg # of iterations =  1.9

[...]

     negative rho (up, down):  9.808E-04 0.000E+00

     Adding external electric field

     Computed dipole along edir(3) :
        Dipole                0.0662 Ry au,          0.1682 Debye
        Dipole field          0.0001 Ry au

        Potential amp.       -0.0121 Ry
        Total length         46.7404 bohr

     End of self-consistent calculation

[...]

          k = 0.0507 0.0000 0.0000 ( 24088 PWs)   bands (ev):

[...]

          k =-0.0760-0.1317 0.0000 ( 24136 PWs)   bands (ev):

   -14.6938 -14.6564 -14.6327 -14.6265 -14.6114 -14.5877 -14.5806 -14.5735
   -14.5615 -14.5596 -14.5438 -14.5418 -14.5234 -14.5190 -14.5074 -14.5047
   -14.5015 -14.4978 -14.4903 -14.4800 -14.4738 -14.4702 -14.4679 -14.4606
   -14.4556 -14.4510 -14.4445 -14.4438 -14.4429 -14.4301 -14.4264 -14.4183
   -14.4115 -14.4027 -14.4013 -14.3975 -14.3931 -14.3850 -14.3795 -14.3685
   -14.3597 -14.3501 -14.3181 -14.2959 -14.2616  -7.1659  -6.9326  -5.8269
    -5.7665  -5.0423  -4.6969  -4.3610  -4.0614  -3.9461  -3.6878  -3.6702
    -3.5678  -3.5531  -3.4056  -3.3958  -3.3921  -3.3279  -3.2053  -3.1722
    -3.0475  -2.6746  -2.6295  -2.6289  -2.3932  -1.9694  -1.3463  -0.6641
     0.2289   0.4021   0.9487   1.1795   1.2703   1.5232   2.0268   2.3079
     2.3638   2.5690   2.7721   2.8403   3.3872   3.6128   3.6567   3.8643
     4.1117   4.3854   4.5513   4.6088   4.8620   4.9090   4.9514   5.1080
     5.1195   5.2898   5.4420   5.7562   5.9152   5.9527   6.1424   6.2511
     6.5887

     the Fermi energy is     0.4227 ev

!    total energy              =   -1563.16285917 Ry
     Harris-Foulkes estimate   =   -1563.16284834 Ry
     estimated scf accuracy    <       0.00000085 Ry

     The total energy is the sum of the following terms:

     one-electron contribution =   -8475.63226741 Ry
     hartree contribution      =    4320.59152285 Ry
     xc contribution           =    -543.90295448 Ry
     ewald contribution        =    3135.81193391 Ry
     electric field correction =       0.00000859 Ry
     smearing contrib. (-TS)   =      -0.03110263 Ry

     convergence has been achieved in  17 iterations

 BEEF-vdW xc energy contributions
           1 :   -479.921997542103
           2 :    441.104086772857
           3 :   -374.438688102342
           4 :    296.953397753382
           5 :   -224.844055040652
           6 :    167.969458229620
           7 :   -128.001631404699
           8 :    100.437228270390
           9 :   -78.8222455486340
          10 :    58.6718400376462
          11 :   -39.1699276338318
          12 :    22.2642232722428
          13 :   -10.3110892030378
          14 :    4.00955294453036
          15 :   -1.84063353323631
          16 :    1.05529185116518
          17 :   0.698450679560324
          18 :   -4.23861824496942
          19 :    8.79670648984921
          20 :   -12.8660056719369
          21 :    15.2528543054359
          22 :   -15.6717518170241
          23 :    14.6552791782162
          24 :   -13.0359767836213
          25 :    11.4489385517129
          26 :   -10.1538243808204
          27 :    9.15568775622421
          28 :   -8.40243483599488
          29 :    7.86217894221113
          30 :   -7.47015388687589
          31 :   -41.4673269867335
          32 :   -30.0620907374602

     Forces acting on atoms (Ry/au):

     negative rho (up, down):  9.808E-04 0.000E+00
     atom    1 type  1   force =     0.00000003    0.00860625   -0.00667756
     atom    2 type  1   force =     0.00744224   -0.00427904   -0.00668213
     atom    3 type  1   force =    -0.00744202   -0.00427881   -0.00668195
     atom    4 type  2   force =    -0.00000087    0.00001241    0.01046533
     atom    5 type  1   force =     0.00000034   -0.00608569    0.00315797
     atom    6 type  1   force =    -0.00528592    0.00306675    0.00313898
     atom    7 type  1   force =     0.00528609    0.00306677    0.00313797
     atom    8 type  2   force =    -0.00000048    0.00001316    0.00310480
     atom    9 type  1   force =     0.00000142    0.00021258   -0.00052799
     atom   10 type  1   force =     0.00022068   -0.00016738   -0.00052489
     atom   11 type  1   force =    -0.00022108   -0.00016922   -0.00052554
     atom   12 type  2   force =    -0.00000044    0.00000222   -0.00138499

     Total force =     0.024877     Total SCF correction =     0.001768

     entering subroutine stress ...

     negative rho (up, down):  9.808E-04 0.000E+00
          total   stress  (Ry/bohr**3)                   (kbar)     P=   -3.52
  -0.00003666   0.00000000  -0.00000000         -5.39      0.00     -0.00
   0.00000000  -0.00003666   0.00000000          0.00     -5.39      0.00
  -0.00000000   0.00000000   0.00000154         -0.00      0.00      0.23

 !ASE

     Writing output data file calc.save

     General routines

     Parallel routines

   This run was terminated on:  11:20:53  30Dec2018

   JOB DONE.
Job  /afs/slac/g/suncat/bin/suncat-tsmpirun -x LD_LIBRARY_PATH -wdir /scratch/qe648494_tBN2z pw.x -in pw.inp

TID   HOST_NAME   COMMAND_LINE            STATUS            TERMINATION_TIME
00000 suncat0083 pw.x -in pw.inp   Done                     12/30/2018 11:20:53
00001 suncat0083 pw.x -in pw.inp   Done                     12/30/2018 11:20:53
00002 suncat0083 pw.x -in pw.inp   Done                     12/30/2018 11:20:53
00003 suncat0083 pw.x -in pw.inp   Done                     12/30/2018 11:20:53
00004 suncat0083 pw.x -in pw.inp   Done                     12/30/2018 11:20:53
00005 suncat0083 pw.x -in pw.inp   Done                     12/30/2018 11:20:53
00006 suncat0083 pw.x -in pw.inp   Done                     12/30/2018 11:20:53
00007 suncat0083 pw.x -in pw.inp   Done                     12/30/2018 11:20:53
00008 suncat0082 pw.x -in pw.inp   Done                     12/30/2018 11:20:53
00009 suncat0082 pw.x -in pw.inp   Done                     12/30/2018 11:20:53
00010 suncat0082 pw.x -in pw.inp   Done                     12/30/2018 11:20:53
00011 suncat0082 pw.x -in pw.inp   Done                     12/30/2018 11:20:53
00012 suncat0082 pw.x -in pw.inp   Done                     12/30/2018 11:20:53
00013 suncat0082 pw.x -in pw.inp   Done                     12/30/2018 11:20:53
00014 suncat0082 pw.x -in pw.inp   Done                     12/30/2018 11:20:53
00015 suncat0082 pw.x -in pw.inp   Done                     12/30/2018 11:20:53
00016 suncat0080 pw.x -in pw.inp   Done                     12/30/2018 11:20:53
00017 suncat0080 pw.x -in pw.inp   Done                     12/30/2018 11:20:53
00018 suncat0080 pw.x -in pw.inp   Done                     12/30/2018 11:20:53
00019 suncat0080 pw.x -in pw.inp   Done                     12/30/2018 11:20:53
00020 suncat0080 pw.x -in pw.inp   Done                     12/30/2018 11:20:53
00021 suncat0080 pw.x -in pw.inp   Done                     12/30/2018 11:20:53
00022 suncat0080 pw.x -in pw.inp   Done                     12/30/2018 11:20:53
00023 suncat0080 pw.x -in pw.inp   Done                     12/30/2018 11:20:53
00024 suncat0078 pw.x -in pw.inp   Done                     12/30/2018 11:20:53
00025 suncat0078 pw.x -in pw.inp   Done                     12/30/2018 11:20:53
00026 suncat0078 pw.x -in pw.inp   Done                     12/30/2018 11:20:53
00027 suncat0078 pw.x -in pw.inp   Done                     12/30/2018 11:20:53
00028 suncat0078 pw.x -in pw.inp   Done                     12/30/2018 11:20:53
00029 suncat0078 pw.x -in pw.inp   Done                     12/30/2018 11:20:53
00030 suncat0078 pw.x -in pw.inp   Done                     12/30/2018 11:20:53
00031 suncat0078 pw.x -in pw.inp   Done                     12/30/2018 11:20:53
00032 suncat0163 pw.x -in pw.inp   Done                     12/30/2018 11:20:53
00033 suncat0163 pw.x -in pw.inp   Done                     12/30/2018 11:20:53
00034 suncat0163 pw.x -in pw.inp   Done                     12/30/2018 11:20:53
00035 suncat0163 pw.x -in pw.inp   Done                     12/30/2018 11:20:53
00036 suncat0163 pw.x -in pw.inp   Done                     12/30/2018 11:20:53
00037 suncat0163 pw.x -in pw.inp   Done                     12/30/2018 11:20:53
00038 suncat0163 pw.x -in pw.inp   Done                     12/30/2018 11:20:53
00039 suncat0163 pw.x -in pw.inp   Done                     12/30/2018 11:20:53
00040 suncat0162 pw.x -in pw.inp   Done                     12/30/2018 11:20:53
00041 suncat0162 pw.x -in pw.inp   Done                     12/30/2018 11:20:53
00042 suncat0162 pw.x -in pw.inp   Done                     12/30/2018 11:20:53
00043 suncat0162 pw.x -in pw.inp   Done                     12/30/2018 11:20:53
00044 suncat0162 pw.x -in pw.inp   Done                     12/30/2018 11:20:53
00045 suncat0162 pw.x -in pw.inp   Done                     12/30/2018 11:20:53
00046 suncat0162 pw.x -in pw.inp   Done                     12/30/2018 11:20:53
00047 suncat0162 pw.x -in pw.inp   Done                     12/30/2018 11:20:53
00048 suncat0147 pw.x -in pw.inp   Done                     12/30/2018 11:20:53
00049 suncat0147 pw.x -in pw.inp   Done                     12/30/2018 11:20:53
00050 suncat0147 pw.x -in pw.inp   Done                     12/30/2018 11:20:53
00051 suncat0147 pw.x -in pw.inp   Done                     12/30/2018 11:20:53
00052 suncat0147 pw.x -in pw.inp   Done                     12/30/2018 11:20:53
00053 suncat0147 pw.x -in pw.inp   Done                     12/30/2018 11:20:53
00054 suncat0147 pw.x -in pw.inp   Done                     12/30/2018 11:20:53
00055 suncat0147 pw.x -in pw.inp   Done                     12/30/2018 11:20:53
00056 suncat0138 pw.x -in pw.inp   Done                     12/30/2018 11:20:53
00057 suncat0138 pw.x -in pw.inp   Done                     12/30/2018 11:20:53
00058 suncat0138 pw.x -in pw.inp   Done                     12/30/2018 11:20:53
00059 suncat0138 pw.x -in pw.inp   Done                     12/30/2018 11:20:53
00060 suncat0138 pw.x -in pw.inp   Done                     12/30/2018 11:20:53
00061 suncat0138 pw.x -in pw.inp   Done                     12/30/2018 11:20:53
00062 suncat0138 pw.x -in pw.inp   Done                     12/30/2018 11:20:53
00063 suncat0138 pw.x -in pw.inp   Done                     12/30/2018 11:20:53