     Program PWSCF v.5.1rc2 (svn rev. 11289) starts on 20Dec2018 at  8:45:58

     Current dimensions of program PWSCF are:
     Max number of different atomic species (ntypx) = 10
     Max number of k-points (npk) =  40000
     Max angular momentum in pseudopotentials (lmaxx) =  3
     Presently stress not available with electric field

     IMPORTANT: XC functional enforced from input :
     Exchange-correlation      = BEEF-VDW ( 1  4 27 13 2)
     Any further DFT definition will be discarded
     Please, verify this is what you really want

     Subspace diagonalization in iterative solution of the eigenvalue problem:
     a serial algorithm will be used

     Generating pointlists ...
     new r_m :   0.4125 (alat units)  0.7795 (a.u.) for type    1
     new r_m :   0.4125 (alat units)  0.7795 (a.u.) for type    2

     bravais-lattice index     =            0
     lattice parameter (alat)  =       1.8897  a.u.
     unit-cell volume          =    3699.1692 (a.u.)^3
     number of atoms/cell      =           12
     number of atomic types    =            2
     number of electrons       =       201.00
     number of Kohn-Sham states=          130
     kinetic-energy cutoff     =      36.7493  Ry
     charge density cutoff     =     367.4932  Ry
     convergence threshold     =      1.0E-06
     mixing beta               =       0.1000
     number of iterations used =           10  plain     mixing
     Exchange-correlation      = BEEF-VDW ( 1  4 27 13 2)
     nstep                     =           50

     celldm(1)=   1.889726  celldm(2)=   0.000000  celldm(3)=   0.000000
     celldm(4)=   0.000000  celldm(5)=   0.000000  celldm(6)=   0.000000

     crystal axes: (cart. coord. in units of alat)
               a(1) = (   5.116596   0.000000   0.000000 )
               a(2) = (  -2.558298   4.431102   0.000000 )
               a(3) = (   0.000000   0.000000  24.177683 )

     reciprocal axes: (cart. coord. in units 2 pi/alat)
               b(1) = (  0.195442  0.112839  0.000000 )
               b(2) = (  0.000000  0.225677  0.000000 )
               b(3) = (  0.000000  0.000000  0.041360 )

     PseudoPot. # 1 for Co read from file:
     /afs/slac.stanford.edu/u/if/mamunm/psp/gbrv1.5pbe/Co.UPF
     MD5 check sum: 5f91765df6ddd3222702df6e7b74a16d
     Pseudo is Ultrasoft + core correction, Zval = 17.0
     Generated by new atomic code, or converted to UPF format
     Using radial grid of  863 points,  6 beta functions with:
                l(1) =   0
                l(2) =   0
                l(3) =   1
                l(4) =   1
                l(5) =   2
                l(6) =   2
     Q(r) pseudized with  8 coefficients,  rinner =    1.200   1.200   1.200
                                                       1.200   1.200

     PseudoPot. # 2 for Pt read from file:
     /afs/slac.stanford.edu/u/if/mamunm/psp/gbrv1.5pbe/Pt.UPF
     MD5 check sum: f09d6de1a584b5a045c4fc126da2d0c4
     Pseudo is Ultrasoft + core correction, Zval = 16.0
     Generated by new atomic code, or converted to UPF format
     Using radial grid of  985 points,  6 beta functions with:
                l(1) =   0
                l(2) =   0
                l(3) =   1
                l(4) =   1
                l(5) =   2
                l(6) =   2
     Q(r) pseudized with  8 coefficients,  rinner =    1.300   1.300   1.300
                                                       1.300   1.300

     vdW kernel table read from file vdW_kernel_table
     MD5 check sum: 095c7af220d748ca6e76c0b4c6cfb241

     atomic species   valence    mass     pseudopotential
        Co1           17.00    58.93319     Co( 1.00)
        Pt1           16.00   195.08400     Pt( 1.00)

     Starting magnetic structure
     atomic species   magnetization
        Co1          0.118
        Pt1          0.125

     No symmetry found

   Cartesian axes

     site n.     atom                  positions (alat units)
         1           Co1 tau(   1) = (   0.0000000   0.0000000  10.0000000  )
         2           Co1 tau(   2) = (  -1.2791490   2.2155511  10.0000000  )
         3           Co1 tau(   3) = (   1.2791490   2.2155511  10.0000000  )
         4           Pt1 tau(   4) = (   2.5582981   0.0000000  10.0000000  )
         5           Co1 tau(   5) = (   2.5582981   1.4770341  12.0888416  )
         6           Co1 tau(   6) = (   1.2791490   3.6925852  12.0888416  )
         7           Co1 tau(   7) = (  -1.2791490   3.6925852  12.0888416  )
         8           Pt1 tau(   8) = (   0.0000000   1.4770341  12.0888416  )
         9           Co1 tau(   9) = (  -0.0000000   2.9540681  14.1776832  )
        10           Co1 tau(  10) = (   1.2791490   0.7385170  14.1776832  )
        11           Co1 tau(  11) = (   3.8374471   0.7385170  14.1776832  )
        12           Pt1 tau(  12) = (   2.5582981   2.9540681  14.1776832  )

     number of k points=    40  Fermi-Dirac smearing, width (Ry)=  0.0110
                       cart. coord. in units 2pi/alat
        k(    1) = (   0.0000000   0.0000000   0.0000000), wk =   0.0277778
        k(    2) = (   0.0000000   0.0376129   0.0000000), wk =   0.0555556
        k(    3) = (   0.0000000   0.0752258   0.0000000), wk =   0.0555556
        k(    4) = (   0.0000000  -0.1128387   0.0000000), wk =   0.0277778
        k(    5) = (   0.0325737   0.0188065   0.0000000), wk =   0.0555556
        k(    6) = (   0.0325737   0.0564194   0.0000000), wk =   0.0555556
        k(    7) = (   0.0325737   0.0940323   0.0000000), wk =   0.0555556
        k(    8) = (   0.0325737  -0.0940323   0.0000000), wk =   0.0555556
        k(    9) = (   0.0325737  -0.0564194   0.0000000), wk =   0.0555556
        k(   10) = (   0.0325737  -0.0188065   0.0000000), wk =   0.0555556
        k(   11) = (   0.0651475   0.0376129   0.0000000), wk =   0.0555556
        k(   12) = (   0.0651475   0.0752258   0.0000000), wk =   0.0555556
        k(   13) = (   0.0651475   0.1128387   0.0000000), wk =   0.0555556
        k(   14) = (   0.0651475  -0.0752258   0.0000000), wk =   0.0555556
        k(   15) = (   0.0651475  -0.0376129   0.0000000), wk =   0.0555556
        k(   16) = (   0.0651475   0.0000000   0.0000000), wk =   0.0555556
        k(   17) = (  -0.0977212  -0.0564194   0.0000000), wk =   0.0277778
        k(   18) = (  -0.0977212  -0.0188065   0.0000000), wk =   0.0555556
        k(   19) = (  -0.0977212   0.0188065   0.0000000), wk =   0.0555556
        k(   20) = (  -0.0977212  -0.1692581   0.0000000), wk =   0.0277778
        k(   21) = (   0.0000000   0.0000000   0.0000000), wk =   0.0277778
        k(   22) = (   0.0000000   0.0376129   0.0000000), wk =   0.0555556
        k(   23) = (   0.0000000   0.0752258   0.0000000), wk =   0.0555556
        k(   24) = (   0.0000000  -0.1128387   0.0000000), wk =   0.0277778
        k(   25) = (   0.0325737   0.0188065   0.0000000), wk =   0.0555556
        k(   26) = (   0.0325737   0.0564194   0.0000000), wk =   0.0555556
        k(   27) = (   0.0325737   0.0940323   0.0000000), wk =   0.0555556
        k(   28) = (   0.0325737  -0.0940323   0.0000000), wk =   0.0555556
        k(   29) = (   0.0325737  -0.0564194   0.0000000), wk =   0.0555556
        k(   30) = (   0.0325737  -0.0188065   0.0000000), wk =   0.0555556
        k(   31) = (   0.0651475   0.0376129   0.0000000), wk =   0.0555556
        k(   32) = (   0.0651475   0.0752258   0.0000000), wk =   0.0555556
        k(   33) = (   0.0651475   0.1128387   0.0000000), wk =   0.0555556
        k(   34) = (   0.0651475  -0.0752258   0.0000000), wk =   0.0555556
        k(   35) = (   0.0651475  -0.0376129   0.0000000), wk =   0.0555556
        k(   36) = (   0.0651475   0.0000000   0.0000000), wk =   0.0555556
        k(   37) = (  -0.0977212  -0.0564194   0.0000000), wk =   0.0277778
        k(   38) = (  -0.0977212  -0.0188065   0.0000000), wk =   0.0555556
        k(   39) = (  -0.0977212   0.0188065   0.0000000), wk =   0.0555556
        k(   40) = (  -0.0977212  -0.1692581   0.0000000), wk =   0.0277778

     Largest allocated arrays     est. size (Mb)     dimensions
     Largest temporary arrays     est. size (Mb)     dimensions

     Check: negative/imaginary core charge=   -0.000005    0.000000

     Initial potential from superposition of free atoms
     Check: negative starting charge=(component1):   -0.309502
     Check: negative starting charge=(component2):   -0.240717

     starting charge  190.49990, renormalised to  201.00000

     negative rho (up, down):  3.266E-01 2.540E-01

     *
     * You are using vdW-DF for exchange-correlation in this calculation.
     * Please cite the following three references that made this development
     * possible:
     *
     *   M. Dion, H. Rydberg, E. Schroder, D. C. Langreth, and
     *   B. I. Lundqvist, Phys. Rev. Lett. 92, 246401 (2004).
     *
     *   T. Thonhauser, V. R. Cooper, S. Li, A. Puzder, P. Hyldgaard, and
     *   D. C. Langreth, Phys. Rev. B 76, 125112 (2007).
     *
     *   G. Roman-Perez and J. M. Soler, Phys. Rev. Lett. 103, 096102 (2009).
     *
     *
     * If you are using vdW-DF2, please also cite:
     *
     *   K. Lee, E. D. Murray, L. Kong, B. I. Lundqvist, and
     *   D. C. Langreth, Phys. Rev. B 82, 081101(R) (2010).
     *
     *
     * If you are calculating the stress with vdW-DF, please also cite:
     *
     *   R. Sabatini, E. Kucukbenli, B. Kolb, T. Thonhauser, and
     *   S. de Gironcoli, J. Phys.: Condens. Matter 24, 424209 (2012).
     *

     Carrying out vdW-DF run using the following parameters:

     Nqs =      20    Nr_points =    1024   r_max =   100.000
     q_mesh =
               0.00001000     0.04494208     0.09755937     0.15916263
               0.23128650     0.31572767     0.41458969     0.53033537
               0.66584808     0.82450364     1.01025438     1.22772762
               1.48234092     1.78043706     2.12944203     2.53805004
               3.01644009     3.57652955     4.23227104     5.00000000

     Gradients computed in reciprocal space

     Adding external electric field

     Computed dipole along edir(3) :
        Dipole                0.0000 Ry au,          0.0000 Debye
        Dipole field          0.0000 Ry au

        Potential amp.       -0.0000 Ry
        Total length         44.5470 bohr

[...]

     Starting wfc are  153 randomized atomic wfcs

     Self-consistent Calculation

     iteration #  1     ecut=    36.75 Ry     beta=0.10
     Davidson diagonalization with overlap
     ethr =  1.00E-02,  avg # of iterations =  7.2

[...]

     Magnetic moment per site:
     atom:    1    charge:    8.4640    magn:    0.9672    constr:    0.0000
     atom:    2    charge:    8.4640    magn:    0.9672    constr:    0.0000
     atom:    3    charge:    8.4640    magn:    0.9672    constr:    0.0000
     atom:    4    charge:    2.1585    magn:    0.2492    constr:    0.0000
     atom:    5    charge:    8.4598    magn:    0.9597    constr:    0.0000
     atom:    6    charge:    8.4597    magn:    0.9597    constr:    0.0000
     atom:    7    charge:    8.4598    magn:    0.9597    constr:    0.0000
     atom:    8    charge:    2.1586    magn:    0.2481    constr:    0.0000
[...]
        k(    7) = (   0.0325737   0.0940323   0.0000000), wk =   0.0555556
        k(    8) = (   0.0325737  -0.0940323   0.0000000), wk =   0.0555556
        k(    9) = (   0.0325737  -0.0564194   0.0000000), wk =   0.0555556
        k(   10) = (   0.0325737  -0.0188065   0.0000000), wk =   0.0555556
        k(   11) = (   0.0651475   0.0376129   0.0000000), wk =   0.0555556
        k(   12) = (   0.0651475   0.0752258   0.0000000), wk =   0.0555556
        k(   13) = (   0.0651475   0.1128387   0.0000000), wk =   0.0555556
        k(   14) = (   0.0651475  -0.0752258   0.0000000), wk =   0.0555556
        k(   15) = (   0.0651475  -0.0376129   0.0000000), wk =   0.0555556
        k(   16) = (   0.0651475   0.0000000   0.0000000), wk =   0.0555556
        k(   17) = (  -0.0977212  -0.0564194   0.0000000), wk =   0.0277778
        k(   18) = (  -0.0977212  -0.0188065   0.0000000), wk =   0.0555556
        k(   19) = (  -0.0977212   0.0188065   0.0000000), wk =   0.0555556
        k(   20) = (  -0.0977212  -0.1692581   0.0000000), wk =   0.0277778
        k(   21) = (   0.0000000   0.0000000   0.0000000), wk =   0.0277778
        k(   22) = (   0.0000000   0.0376129   0.0000000), wk =   0.0555556
        k(   23) = (   0.0000000   0.0752258   0.0000000), wk =   0.0555556
        k(   24) = (   0.0000000  -0.1128387   0.0000000), wk =   0.0277778
        k(   25) = (   0.0325737   0.0188065   0.0000000), wk =   0.0555556
        k(   26) = (   0.0325737   0.0564194   0.0000000), wk =   0.0555556
        k(   27) = (   0.0325737   0.0940323   0.0000000), wk =   0.0555556
        k(   28) = (   0.0325737  -0.0940323   0.0000000), wk =   0.0555556
        k(   29) = (   0.0325737  -0.0564194   0.0000000), wk =   0.0555556
        k(   30) = (   0.0325737  -0.0188065   0.0000000), wk =   0.0555556
        k(   31) = (   0.0651475   0.0376129   0.0000000), wk =   0.0555556
        k(   32) = (   0.0651475   0.0752258   0.0000000), wk =   0.0555556
        k(   33) = (   0.0651475   0.1128387   0.0000000), wk =   0.0555556
        k(   34) = (   0.0651475  -0.0752258   0.0000000), wk =   0.0555556
        k(   35) = (   0.0651475  -0.0376129   0.0000000), wk =   0.0555556
        k(   36) = (   0.0651475   0.0000000   0.0000000), wk =   0.0555556
        k(   37) = (  -0.0977212  -0.0564194   0.0000000), wk =   0.0277778
        k(   38) = (  -0.0977212  -0.0188065   0.0000000), wk =   0.0555556
        k(   39) = (  -0.0977212   0.0188065   0.0000000), wk =   0.0555556
        k(   40) = (  -0.0977212  -0.1692581   0.0000000), wk =   0.0277778

     Largest allocated arrays     est. size (Mb)     dimensions
     Largest temporary arrays     est. size (Mb)     dimensions

     Check: negative/imaginary core charge=   -0.000005    0.000000

     Initial potential from superposition of free atoms
     Check: negative starting charge=(component1):   -0.309547
     Check: negative starting charge=(component2):   -0.240752

     starting charge  190.49990, renormalised to  201.00000

[...]

     *
     * You are using vdW-DF for exchange-correlation in this calculation.
     * Please cite the following three references that made this development
     * possible:
     *
     *   M. Dion, H. Rydberg, E. Schroder, D. C. Langreth, and
     *   B. I. Lundqvist, Phys. Rev. Lett. 92, 246401 (2004).
     *
     *   T. Thonhauser, V. R. Cooper, S. Li, A. Puzder, P. Hyldgaard, and
     *   D. C. Langreth, Phys. Rev. B 76, 125112 (2007).
     *
     *   G. Roman-Perez and J. M. Soler, Phys. Rev. Lett. 103, 096102 (2009).
     *
     *
     * If you are using vdW-DF2, please also cite:
     *
     *   K. Lee, E. D. Murray, L. Kong, B. I. Lundqvist, and
     *   D. C. Langreth, Phys. Rev. B 82, 081101(R) (2010).
     *
     *
     * If you are calculating the stress with vdW-DF, please also cite:
     *
     *   R. Sabatini, E. Kucukbenli, B. Kolb, T. Thonhauser, and
     *   S. de Gironcoli, J. Phys.: Condens. Matter 24, 424209 (2012).
     *

     Carrying out vdW-DF run using the following parameters:

     Nqs =      20    Nr_points =    1024   r_max =   100.000
     q_mesh =
               0.00001000     0.04494208     0.09755937     0.15916263
               0.23128650     0.31572767     0.41458969     0.53033537
               0.66584808     0.82450364     1.01025438     1.22772762
               1.48234092     1.78043706     2.12944203     2.53805004
               3.01644009     3.57652955     4.23227104     5.00000000

     Gradients computed in reciprocal space

[...]

     Starting wfc are  153 randomized atomic wfcs

     Self-consistent Calculation

[...]

     iteration # 16     ecut=    36.75 Ry     beta=0.10
     Davidson diagonalization with overlap
     c_bands:  1 eigenvalues not converged
     ethr =  1.54E-06,  avg # of iterations =  5.0

[...]

     total energy              =   -3332.82003216 Ry
     Harris-Foulkes estimate   =   -3332.82003137 Ry
     estimated scf accuracy    <       0.00000197 Ry

[...]

     iteration # 30     ecut=    36.75 Ry     beta=0.10
     Davidson diagonalization with overlap
     ethr =  9.80E-10,  avg # of iterations =  2.0

[...]

     negative rho (up, down):  2.700E-01 2.580E-01

[...]

     Adding external electric field

     Computed dipole along edir(3) :
        Dipole               -0.0126 Ry au,         -0.0320 Debye
        Dipole field         -0.0000 Ry au

        Potential amp.        0.0038 Ry
        Total length         44.5470 bohr

     Magnetic moment per site:
     atom:    1    charge:    8.2981    magn:    1.0411    constr:    0.0000
     atom:    2    charge:    8.2982    magn:    1.0410    constr:    0.0000
     atom:    3    charge:    8.2982    magn:    1.0410    constr:    0.0000
     atom:    4    charge:    2.1119    magn:    0.0393    constr:    0.0000
     atom:    5    charge:    8.2927    magn:    1.0634    constr:    0.0000
     atom:    6    charge:    8.2927    magn:    1.0634    constr:    0.0000
     atom:    7    charge:    8.2930    magn:    1.0632    constr:    0.0000
     atom:    8    charge:    2.1147    magn:    0.0471    constr:    0.0000
     atom:    9    charge:    8.2874    magn:    1.0391    constr:    0.0000
     atom:   10    charge:    8.2874    magn:    1.0391    constr:    0.0000
     atom:   11    charge:    8.2874    magn:    1.0391    constr:    0.0000
     atom:   12    charge:    2.1106    magn:    0.0373    constr:    0.0000

     End of self-consistent calculation

 ------ SPIN UP ------------

[...]

 ------ SPIN DOWN ----------

[...]

          k = 0.0651 0.0000 0.0000 ( 13939 PWs)   bands (ev):

[...]

          k =-0.0977-0.1693 0.0000 ( 13930 PWs)   bands (ev):

   -92.7269 -92.7198 -92.7133 -92.5492 -92.5473 -92.5408 -92.5391 -92.5341
   -92.5335 -56.1507 -56.1085 -56.1029 -56.0927 -56.0926 -56.0919 -56.0785
   -56.0762 -56.0099 -55.9687 -55.9638 -55.9311 -55.9278 -55.9184 -55.9164
   -55.9071 -55.9020 -55.9008 -55.8880 -55.8823 -55.8811 -55.8809 -55.8734
   -55.8679 -55.8603 -55.8202 -55.8168 -51.7701 -51.7673 -51.7647 -51.3970
   -51.3919 -51.3035 -51.2986 -51.2684 -51.1488  -5.6856  -5.2290  -4.2439
    -3.8021  -3.6065  -3.5203  -3.0979  -3.0653  -3.0125  -2.7381  -2.6425
    -2.4518  -2.3342  -2.2547  -2.2325  -1.9299  -1.9013  -1.7043  -1.5589
    -1.2956  -1.2406  -1.0268  -0.9659  -0.6976  -0.6095  -0.3691  -0.2629
    -0.1406  -0.1119  -0.0268   0.0854   0.1074   0.1320   0.1696   0.2099
     0.2992   0.3493   0.4802   0.5044   0.6068   0.7704   0.8311   0.8512
     1.0593   1.1483   1.1715   1.2092   1.2485   1.3363   1.4068   1.4993
     1.5176   1.5966   1.6623   1.6887   1.7280   1.7293   1.7993   2.0958
     2.1455   2.2174   2.2272   2.3377   2.4597   3.2772   3.3870   3.6942
     4.1881   4.5040   4.7756   5.5055   5.5350   6.6247   6.6248   7.4014
     7.4116   7.9087   7.9327   8.1155   8.1220   9.0749   9.1540   9.1858
     9.6941   9.7389

     the Fermi energy is     1.3189 ev

!    total energy              =   -3332.82003416 Ry
     Harris-Foulkes estimate   =   -3332.82003243 Ry
     estimated scf accuracy    <       0.00000060 Ry

     The total energy is the sum of the following terms:

     one-electron contribution =  -28386.16675574 Ry
     hartree contribution      =   14207.55269339 Ry
     xc contribution           =    -480.15475890 Ry
     ewald contribution        =   11326.02843593 Ry
     electric field correction =       0.00000054 Ry
     smearing contrib. (-TS)   =      -0.07964938 Ry

     total magnetization       =    17.84 Bohr mag/cell
     absolute magnetization    =    19.71 Bohr mag/cell

     convergence has been achieved in  30 iterations

 BEEF-vdW xc energy contributions
           1 :   -424.749673087064
           2 :    389.021243597292
           3 :   -327.210112592410
           4 :    254.366907389366
           5 :   -184.994529135246
           6 :    128.284064609295
           7 :   -86.5211624770754
           8 :    56.7337525065934
           9 :   -34.1102992939728
          10 :    15.0992014341431
          11 :    1.24825036518411
          12 :   -13.9138580886647
          13 :    21.5941365563913
          14 :   -24.1451578590008
          15 :    22.9160995335650
          16 :   -19.9970527261744
          17 :    17.0683921165952
          18 :   -14.6977589053516
          19 :    12.4758936510704
          20 :   -9.77948280895708
          21 :    6.52758952395465
          22 :   -3.39869288597487
          23 :    1.39348556038436
          24 :   -1.11930643814441
          25 :    2.32176709154129
          26 :   -4.00044757411274
          27 :    5.01120951506181
          28 :   -4.75153908920686
          29 :    3.47544485259135
          30 :   -2.06371639993137
          31 :   -35.4229558666902
          32 :   -25.1781589095900

     Forces acting on atoms (Ry/au):

     negative rho (up, down):  2.700E-01 2.580E-01
     atom    1 type  1   force =    -0.00008023   -0.01302319   -0.00000207
     atom    2 type  1   force =    -0.01131271    0.00644708    0.00000087
     atom    3 type  1   force =     0.01130325    0.00653363    0.00007298
     atom    4 type  2   force =     0.00000028   -0.00000224   -0.02509848
     atom    5 type  1   force =     0.00002342    0.00528265    0.00650079
     atom    6 type  1   force =     0.00461828   -0.00260907    0.00648878
     atom    7 type  1   force =    -0.00462534   -0.00264031    0.00645524
     atom    8 type  2   force =    -0.00000543   -0.00000230    0.00699754
     atom    9 type  1   force =     0.00011052   -0.00030365   -0.00071113
     atom   10 type  1   force =    -0.00024465    0.00018084   -0.00068736
     atom   11 type  1   force =     0.00026372    0.00006415   -0.00077357
     atom   12 type  2   force =    -0.00005110    0.00007240    0.00075641

     Total force =     0.037435     Total SCF correction =     0.002596

     entering subroutine stress ...

     negative rho (up, down):  2.700E-01 2.580E-01
          total   stress  (Ry/bohr**3)                   (kbar)     P=   -1.56
  -0.00000555   0.00000003   0.00000004         -0.82      0.00      0.01
   0.00000003  -0.00000560   0.00000002          0.00     -0.82      0.00
   0.00000004   0.00000002  -0.00002057          0.01      0.00     -3.03

 !ASE

     Writing output data file calc.save

     General routines

     Parallel routines

   This run was terminated on:  10:40: 7  20Dec2018

   JOB DONE.
Job  /afs/slac/g/suncat/bin/suncat-tsmpirun -x LD_LIBRARY_PATH -wdir /scratch/qe773531_qLLYt pw.x -in pw.inp

TID   HOST_NAME   COMMAND_LINE            STATUS            TERMINATION_TIME
00000 suncat0141 pw.x -in pw.inp   Done                     12/20/2018 10:40:07
00001 suncat0141 pw.x -in pw.inp   Done                     12/20/2018 10:40:07
00002 suncat0141 pw.x -in pw.inp   Done                     12/20/2018 10:40:07
00003 suncat0141 pw.x -in pw.inp   Done                     12/20/2018 10:40:07
00004 suncat0141 pw.x -in pw.inp   Done                     12/20/2018 10:40:07
00005 suncat0141 pw.x -in pw.inp   Done                     12/20/2018 10:40:07
00006 suncat0141 pw.x -in pw.inp   Done                     12/20/2018 10:40:07
00007 suncat0141 pw.x -in pw.inp   Done                     12/20/2018 10:40:07
00008 suncat0140 pw.x -in pw.inp   Done                     12/20/2018 10:40:07
00009 suncat0140 pw.x -in pw.inp   Done                     12/20/2018 10:40:07
00010 suncat0140 pw.x -in pw.inp   Done                     12/20/2018 10:40:07
00011 suncat0140 pw.x -in pw.inp   Done                     12/20/2018 10:40:07
00012 suncat0140 pw.x -in pw.inp   Done                     12/20/2018 10:40:07
00013 suncat0140 pw.x -in pw.inp   Done                     12/20/2018 10:40:07
00014 suncat0140 pw.x -in pw.inp   Done                     12/20/2018 10:40:07
00015 suncat0140 pw.x -in pw.inp   Done                     12/20/2018 10:40:07
00016 suncat0139 pw.x -in pw.inp   Done                     12/20/2018 10:40:07
00017 suncat0139 pw.x -in pw.inp   Done                     12/20/2018 10:40:07
00018 suncat0139 pw.x -in pw.inp   Done                     12/20/2018 10:40:07
00019 suncat0139 pw.x -in pw.inp   Done                     12/20/2018 10:40:07
00020 suncat0139 pw.x -in pw.inp   Done                     12/20/2018 10:40:07
00021 suncat0139 pw.x -in pw.inp   Done                     12/20/2018 10:40:07
00022 suncat0139 pw.x -in pw.inp   Done                     12/20/2018 10:40:07
00023 suncat0139 pw.x -in pw.inp   Done                     12/20/2018 10:40:07
00024 suncat0138 pw.x -in pw.inp   Done                     12/20/2018 10:40:07
00025 suncat0138 pw.x -in pw.inp   Done                     12/20/2018 10:40:07
00026 suncat0138 pw.x -in pw.inp   Done                     12/20/2018 10:40:07
00027 suncat0138 pw.x -in pw.inp   Done                     12/20/2018 10:40:07
00028 suncat0138 pw.x -in pw.inp   Done                     12/20/2018 10:40:07
00029 suncat0138 pw.x -in pw.inp   Done                     12/20/2018 10:40:07
00030 suncat0138 pw.x -in pw.inp   Done                     12/20/2018 10:40:07
00031 suncat0138 pw.x -in pw.inp   Done                     12/20/2018 10:40:07
00032 suncat0226 pw.x -in pw.inp   Done                     12/20/2018 10:40:07
00033 suncat0226 pw.x -in pw.inp   Done                     12/20/2018 10:40:07
00034 suncat0226 pw.x -in pw.inp   Done                     12/20/2018 10:40:07
00035 suncat0226 pw.x -in pw.inp   Done                     12/20/2018 10:40:07
00036 suncat0226 pw.x -in pw.inp   Done                     12/20/2018 10:40:07
00037 suncat0226 pw.x -in pw.inp   Done                     12/20/2018 10:40:07
00038 suncat0226 pw.x -in pw.inp   Done                     12/20/2018 10:40:07
00039 suncat0226 pw.x -in pw.inp   Done                     12/20/2018 10:40:07
00040 suncat0225 pw.x -in pw.inp   Done                     12/20/2018 10:40:07
00041 suncat0225 pw.x -in pw.inp   Done                     12/20/2018 10:40:07
00042 suncat0225 pw.x -in pw.inp   Done                     12/20/2018 10:40:07
00043 suncat0225 pw.x -in pw.inp   Done                     12/20/2018 10:40:07
00044 suncat0225 pw.x -in pw.inp   Done                     12/20/2018 10:40:07
00045 suncat0225 pw.x -in pw.inp   Done                     12/20/2018 10:40:07
00046 suncat0225 pw.x -in pw.inp   Done                     12/20/2018 10:40:07
00047 suncat0225 pw.x -in pw.inp   Done                     12/20/2018 10:40:07
00048 suncat0224 pw.x -in pw.inp   Done                     12/20/2018 10:40:07
00049 suncat0224 pw.x -in pw.inp   Done                     12/20/2018 10:40:07
00050 suncat0224 pw.x -in pw.inp   Done                     12/20/2018 10:40:07
00051 suncat0224 pw.x -in pw.inp   Done                     12/20/2018 10:40:07
00052 suncat0224 pw.x -in pw.inp   Done                     12/20/2018 10:40:07
00053 suncat0224 pw.x -in pw.inp   Done                     12/20/2018 10:40:07
00054 suncat0224 pw.x -in pw.inp   Done                     12/20/2018 10:40:07
00055 suncat0224 pw.x -in pw.inp   Done                     12/20/2018 10:40:07
00056 suncat0223 pw.x -in pw.inp   Done                     12/20/2018 10:40:07
00057 suncat0223 pw.x -in pw.inp   Done                     12/20/2018 10:40:07
00058 suncat0223 pw.x -in pw.inp   Done                     12/20/2018 10:40:07
00059 suncat0223 pw.x -in pw.inp   Done                     12/20/2018 10:40:07
00060 suncat0223 pw.x -in pw.inp   Done                     12/20/2018 10:40:08
00061 suncat0223 pw.x -in pw.inp   Done                     12/20/2018 10:40:07
00062 suncat0223 pw.x -in pw.inp   Done                     12/20/2018 10:40:07
00063 suncat0223 pw.x -in pw.inp   Done                     12/20/2018 10:40:07