     Program PWSCF v.5.1rc2 (svn rev. 11289) starts on 27Dec2018 at 15:52:10

     Current dimensions of program PWSCF are:
     Max number of different atomic species (ntypx) = 10
     Max number of k-points (npk) =  40000
     Max angular momentum in pseudopotentials (lmaxx) =  3
     Presently stress not available with electric field

     IMPORTANT: XC functional enforced from input :
     Exchange-correlation      = BEEF-VDW ( 1  4 27 13 2)
     Any further DFT definition will be discarded
     Please, verify this is what you really want

     Subspace diagonalization in iterative solution of the eigenvalue problem:
     a serial algorithm will be used

     bravais-lattice index     =            0
     lattice parameter (alat)  =       1.8897  a.u.
     unit-cell volume          =    6525.4632 (a.u.)^3
     number of atoms/cell      =           12
     number of atomic types    =            2
     number of electrons       =       171.00
     number of Kohn-Sham states=          115
     kinetic-energy cutoff     =      36.7493  Ry
     charge density cutoff     =     367.4932  Ry
     convergence threshold     =      1.0E-06
     mixing beta               =       0.1000
     number of iterations used =           10  plain     mixing
     Exchange-correlation      = BEEF-VDW ( 1  4 27 13 2)
     nstep                     =           50

     celldm(1)=   1.889726  celldm(2)=   0.000000  celldm(3)=   0.000000
     celldm(4)=   0.000000  celldm(5)=   0.000000  celldm(6)=   0.000000

     crystal axes: (cart. coord. in units of alat)
               a(1) = (   6.628584   0.000000   0.000000 )
               a(2) = (  -3.314292   5.740522   0.000000 )
               a(3) = (   0.000000   0.000000  25.412216 )

     reciprocal axes: (cart. coord. in units 2 pi/alat)
               b(1) = (  0.150862  0.087100  0.000000 )
               b(2) = (  0.000000  0.174200  0.000000 )
               b(3) = (  0.000000  0.000000  0.039351 )

     PseudoPot. # 1 for Pb read from file:
     /afs/slac.stanford.edu/u/if/mamunm/psp/gbrv1.5pbe/Pb.UPF
     MD5 check sum: 3d1c1779aa92214d1e8f3a7db79003e2
     Pseudo is Ultrasoft + core correction, Zval = 14.0
     Generated by new atomic code, or converted to UPF format
     Using radial grid of  899 points,  6 beta functions with:
                l(1) =   0
                l(2) =   0
                l(3) =   1
                l(4) =   1
                l(5) =   2
                l(6) =   2
     Q(r) pseudized with  6 coefficients,  rinner =    1.000   1.000   1.000
                                                       1.000   1.000

     PseudoPot. # 2 for Tc read from file:
     /afs/slac.stanford.edu/u/if/mamunm/psp/gbrv1.5pbe/Tc.UPF
     MD5 check sum: 9eb49e5b028550b2339a02317eb7b844
     Pseudo is Ultrasoft + core correction, Zval = 15.0
     Generated by new atomic code, or converted to UPF format
     Using radial grid of  965 points,  6 beta functions with:
                l(1) =   0
                l(2) =   0
                l(3) =   1
                l(4) =   1
                l(5) =   2
                l(6) =   2
     Q(r) pseudized with  8 coefficients,  rinner =    1.300   1.300   1.300
                                                       1.300   1.300

     vdW kernel table read from file vdW_kernel_table
     MD5 check sum: 095c7af220d748ca6e76c0b4c6cfb241

     atomic species   valence    mass     pseudopotential
        Pb1           14.00   207.20000     Pb( 1.00)
        Tc1           15.00    97.90721     Tc( 1.00)

     No symmetry found

   Cartesian axes

     site n.     atom                  positions (alat units)
         1           Pb1 tau(   1) = (   0.0000000   0.0000000  10.0000000  )
         2           Pb1 tau(   2) = (  -1.6571461   2.8702612  10.0000000  )
         3           Pb1 tau(   3) = (   1.6571461   2.8702612  10.0000000  )
         4           Tc1 tau(   4) = (   3.3142921   0.0000000  10.0000000  )
         5           Pb1 tau(   5) = (   3.3142921   1.9135075  12.7061082  )
         6           Pb1 tau(   6) = (   1.6571461   4.7837686  12.7061082  )
         7           Pb1 tau(   7) = (  -1.6571461   4.7837686  12.7061082  )
         8           Tc1 tau(   8) = (   0.0000000   1.9135075  12.7061082  )
         9           Pb1 tau(   9) = (  -0.0000000   3.8270149  15.4122164  )
        10           Pb1 tau(  10) = (   1.6571461   0.9567537  15.4122164  )
        11           Pb1 tau(  11) = (   4.9714382   0.9567537  15.4122164  )
        12           Tc1 tau(  12) = (   3.3142921   3.8270149  15.4122164  )

     number of k points=    20  Fermi-Dirac smearing, width (Ry)=  0.0110
                       cart. coord. in units 2pi/alat
        k(    1) = (   0.0000000   0.0000000   0.0000000), wk =   0.0555556
        k(    2) = (   0.0000000   0.0290334   0.0000000), wk =   0.1111111
        k(    3) = (   0.0000000   0.0580667   0.0000000), wk =   0.1111111
        k(    4) = (   0.0000000  -0.0871001   0.0000000), wk =   0.0555556
        k(    5) = (   0.0251436   0.0145167   0.0000000), wk =   0.1111111
        k(    6) = (   0.0251436   0.0435500   0.0000000), wk =   0.1111111
        k(    7) = (   0.0251436   0.0725834   0.0000000), wk =   0.1111111
        k(    8) = (   0.0251436  -0.0725834   0.0000000), wk =   0.1111111
        k(    9) = (   0.0251436  -0.0435500   0.0000000), wk =   0.1111111
        k(   10) = (   0.0251436  -0.0145167   0.0000000), wk =   0.1111111
        k(   11) = (   0.0502873   0.0290334   0.0000000), wk =   0.1111111
        k(   12) = (   0.0502873   0.0580667   0.0000000), wk =   0.1111111
        k(   13) = (   0.0502873   0.0871001   0.0000000), wk =   0.1111111
        k(   14) = (   0.0502873  -0.0580667   0.0000000), wk =   0.1111111
        k(   15) = (   0.0502873  -0.0290334   0.0000000), wk =   0.1111111
        k(   16) = (   0.0502873   0.0000000   0.0000000), wk =   0.1111111
        k(   17) = (  -0.0754309  -0.0435500   0.0000000), wk =   0.0555556
        k(   18) = (  -0.0754309  -0.0145167   0.0000000), wk =   0.1111111
        k(   19) = (  -0.0754309   0.0145167   0.0000000), wk =   0.1111111
        k(   20) = (  -0.0754309  -0.1306501   0.0000000), wk =   0.0555556

     Largest allocated arrays     est. size (Mb)     dimensions
     Largest temporary arrays     est. size (Mb)     dimensions

     Check: negative/imaginary core charge=   -0.000007    0.000000

     Initial potential from superposition of free atoms
     Check: negative starting charge=   -0.528439

     starting charge  167.97875, renormalised to  171.00000

     negative rho (up, down):  5.379E-01 0.000E+00

     *
     * You are using vdW-DF for exchange-correlation in this calculation.
     * Please cite the following three references that made this development
     * possible:
     *
     *   M. Dion, H. Rydberg, E. Schroder, D. C. Langreth, and
     *   B. I. Lundqvist, Phys. Rev. Lett. 92, 246401 (2004).
     *
     *   T. Thonhauser, V. R. Cooper, S. Li, A. Puzder, P. Hyldgaard, and
     *   D. C. Langreth, Phys. Rev. B 76, 125112 (2007).
     *
     *   G. Roman-Perez and J. M. Soler, Phys. Rev. Lett. 103, 096102 (2009).
     *
     *
     * If you are using vdW-DF2, please also cite:
     *
     *   K. Lee, E. D. Murray, L. Kong, B. I. Lundqvist, and
     *   D. C. Langreth, Phys. Rev. B 82, 081101(R) (2010).
     *
     *
     * If you are calculating the stress with vdW-DF, please also cite:
     *
     *   R. Sabatini, E. Kucukbenli, B. Kolb, T. Thonhauser, and
     *   S. de Gironcoli, J. Phys.: Condens. Matter 24, 424209 (2012).
     *

     Carrying out vdW-DF run using the following parameters:

     Nqs =      20    Nr_points =    1024   r_max =   100.000
     q_mesh =
               0.00001000     0.04494208     0.09755937     0.15916263
               0.23128650     0.31572767     0.41458969     0.53033537
               0.66584808     0.82450364     1.01025438     1.22772762
               1.48234092     1.78043706     2.12944203     2.53805004
               3.01644009     3.57652955     4.23227104     5.00000000

     Gradients computed in reciprocal space

     Adding external electric field

     Computed dipole along edir(3) :
        Dipole               -0.0000 Ry au,         -0.0000 Debye
        Dipole field         -0.0000 Ry au

        Potential amp.        0.0000 Ry
        Total length         46.8216 bohr

     Starting wfc are  120 randomized atomic wfcs

     Self-consistent Calculation

     iteration #  1     ecut=    36.75 Ry     beta=0.10
     Davidson diagonalization with overlap
     ethr =  1.00E-02,  avg # of iterations =  6.4

[...]

     total energy              =   -2018.79546686 Ry
     Harris-Foulkes estimate   =   -2020.49841223 Ry
     estimated scf accuracy    <       9.55050444 Ry

[...]

     End of self-consistent calculation

          k = 0.0000 0.0000 0.0000 ( 24489 PWs)   bands (ev):

   -65.0347 -64.9879 -64.9879 -37.0868 -37.0868 -37.0517 -37.0517 -37.0517
   -37.0517 -37.0246 -36.9929 -36.9927 -16.2350 -16.1965 -16.1936 -16.1936
   -16.1863 -16.1558 -16.1118 -16.1118 -16.0871 -16.0871 -16.0533 -16.0385
   -16.0385 -16.0071 -15.9773 -15.9773 -15.9771 -15.9477 -15.9477 -15.9391
   -15.9058 -15.8569 -15.8559 -15.8559 -15.8537 -15.8537 -15.8399 -15.8345
   -15.8345 -15.8264 -15.8264 -15.8210 -15.8210 -15.7818 -15.7818 -15.7815
   -15.7815 -15.7071 -15.7071 -15.6859 -15.6848 -15.6848 -15.6478 -15.6464
   -15.6330  -9.9985  -8.8726  -7.4473  -6.6072  -6.6072  -6.0073  -6.0073
    -5.2578  -5.2578  -2.8502  -2.1853  -1.7852  -1.4968  -1.4968  -1.2925
    -0.4690  -0.4690  -0.3090  -0.3090   0.0589   0.6856   0.6856   0.6960
     0.6960   1.0423   1.0703   1.0703   1.2041   1.2041   1.2094   1.2094
     1.2162   1.4327   1.4327   1.5791   2.2072   2.5582   3.3536   3.7682
     3.7682   3.7734   3.7734   4.3927   4.5111   4.7585   4.9087   5.0418
     5.6498   5.7891   5.7891   5.9300   6.1345   6.4171   6.4171   6.9487
     7.1202   7.3331   7.3331

[...]

          k =-0.0754-0.0436 0.0000 ( 24548 PWs)   bands (ev):

[...]

     the Fermi energy is     1.2863 ev

!    total energy              =   -2019.40592365 Ry
     Harris-Foulkes estimate   =   -2019.40584425 Ry
     estimated scf accuracy    <       0.00000028 Ry

     The total energy is the sum of the following terms:

     one-electron contribution =  -10796.46828613 Ry
     hartree contribution      =    5450.79526814 Ry
     xc contribution           =    -686.99633463 Ry
     ewald contribution        =    4013.37276299 Ry
     electric field correction =       0.00000000 Ry
     smearing contrib. (-TS)   =      -0.10933402 Ry

     convergence has been achieved in  17 iterations

 BEEF-vdW xc energy contributions
           1 :   -610.937049277225
           2 :    566.482293773927
           3 :   -488.163496435003
           4 :    393.038776440026
           5 :   -298.760627550037
           6 :    218.234676268415
           7 :   -156.858816599422
           8 :    112.937632529897
           9 :   -80.6366730826744
          10 :    53.7986641164313
          11 :   -28.8823051072156
          12 :    5.87524955220033
[...]
     MD5 check sum: 3d1c1779aa92214d1e8f3a7db79003e2
     Pseudo is Ultrasoft + core correction, Zval = 14.0
     Generated by new atomic code, or converted to UPF format
     Using radial grid of  899 points,  6 beta functions with:
                l(1) =   0
                l(2) =   0
                l(3) =   1
                l(4) =   1
                l(5) =   2
                l(6) =   2
     Q(r) pseudized with  6 coefficients,  rinner =    1.000   1.000   1.000
                                                       1.000   1.000

     PseudoPot. # 2 for Tc read from file:
     /afs/slac.stanford.edu/u/if/mamunm/psp/gbrv1.5pbe/Tc.UPF
     MD5 check sum: 9eb49e5b028550b2339a02317eb7b844
     Pseudo is Ultrasoft + core correction, Zval = 15.0
     Generated by new atomic code, or converted to UPF format
     Using radial grid of  965 points,  6 beta functions with:
                l(1) =   0
                l(2) =   0
                l(3) =   1
                l(4) =   1
                l(5) =   2
                l(6) =   2
     Q(r) pseudized with  8 coefficients,  rinner =    1.300   1.300   1.300
                                                       1.300   1.300

     vdW kernel table read from file vdW_kernel_table
     MD5 check sum: 095c7af220d748ca6e76c0b4c6cfb241

     atomic species   valence    mass     pseudopotential
        Pb1           14.00   207.20000     Pb( 1.00)
        Tc1           15.00    97.90721     Tc( 1.00)

     No symmetry found

   Cartesian axes

     site n.     atom                  positions (alat units)
         1           Pb1 tau(   1) = (   0.0000000   0.0000000  10.0000000  )
         2           Pb1 tau(   2) = (  -1.6571461   2.8702612  10.0000000  )
         3           Pb1 tau(   3) = (   1.6571461   2.8702612  10.0000000  )
         4           Tc1 tau(   4) = (   3.3142921   0.0000000  10.0000000  )
         5           Pb1 tau(   5) = (   3.3142921   1.9135075  12.7061082  )
         6           Pb1 tau(   6) = (   1.6571461   4.7837686  12.7061082  )
         7           Pb1 tau(   7) = (  -1.6571461   4.7837686  12.7061082  )
         8           Tc1 tau(   8) = (   0.0000000   1.9135075  12.7061082  )
         9           Pb1 tau(   9) = (  -0.0000059   3.7651296  15.5360013  )
        10           Pb1 tau(  10) = (   1.6035641   0.9877108  15.5358419  )
        11           Pb1 tau(  11) = (   5.0250730   0.9877340  15.5357424  )
        12           Tc1 tau(  12) = (   3.3142823   3.8270160  14.7753197  )

     number of k points=    20  Fermi-Dirac smearing, width (Ry)=  0.0110
                       cart. coord. in units 2pi/alat
        k(    1) = (   0.0000000   0.0000000   0.0000000), wk =   0.0555556
        k(    2) = (   0.0000000   0.0290334   0.0000000), wk =   0.1111111
        k(    3) = (   0.0000000   0.0580667   0.0000000), wk =   0.1111111
        k(    4) = (   0.0000000  -0.0871001   0.0000000), wk =   0.0555556
        k(    5) = (   0.0251436   0.0145167   0.0000000), wk =   0.1111111
        k(    6) = (   0.0251436   0.0435500   0.0000000), wk =   0.1111111
        k(    7) = (   0.0251436   0.0725834   0.0000000), wk =   0.1111111
        k(    8) = (   0.0251436  -0.0725834   0.0000000), wk =   0.1111111
        k(    9) = (   0.0251436  -0.0435500   0.0000000), wk =   0.1111111
        k(   10) = (   0.0251436  -0.0145167   0.0000000), wk =   0.1111111
        k(   11) = (   0.0502873   0.0290334   0.0000000), wk =   0.1111111
        k(   12) = (   0.0502873   0.0580667   0.0000000), wk =   0.1111111
        k(   13) = (   0.0502873   0.0871001   0.0000000), wk =   0.1111111
        k(   14) = (   0.0502873  -0.0580667   0.0000000), wk =   0.1111111
        k(   15) = (   0.0502873  -0.0290334   0.0000000), wk =   0.1111111
        k(   16) = (   0.0502873   0.0000000   0.0000000), wk =   0.1111111
        k(   17) = (  -0.0754309  -0.0435500   0.0000000), wk =   0.0555556
        k(   18) = (  -0.0754309  -0.0145167   0.0000000), wk =   0.1111111
        k(   19) = (  -0.0754309   0.0145167   0.0000000), wk =   0.1111111
        k(   20) = (  -0.0754309  -0.1306501   0.0000000), wk =   0.0555556

     Largest allocated arrays     est. size (Mb)     dimensions
     Largest temporary arrays     est. size (Mb)     dimensions

     Check: negative/imaginary core charge=   -0.000007    0.000000

     Initial potential from superposition of free atoms
     Check: negative starting charge=   -0.529487

     starting charge  167.97875, renormalised to  171.00000

[...]

     *
     * You are using vdW-DF for exchange-correlation in this calculation.
     * Please cite the following three references that made this development
     * possible:
     *
     *   M. Dion, H. Rydberg, E. Schroder, D. C. Langreth, and
     *   B. I. Lundqvist, Phys. Rev. Lett. 92, 246401 (2004).
     *
     *   T. Thonhauser, V. R. Cooper, S. Li, A. Puzder, P. Hyldgaard, and
     *   D. C. Langreth, Phys. Rev. B 76, 125112 (2007).
     *
     *   G. Roman-Perez and J. M. Soler, Phys. Rev. Lett. 103, 096102 (2009).
     *
     *
     * If you are using vdW-DF2, please also cite:
     *
     *   K. Lee, E. D. Murray, L. Kong, B. I. Lundqvist, and
     *   D. C. Langreth, Phys. Rev. B 82, 081101(R) (2010).
     *
     *
     * If you are calculating the stress with vdW-DF, please also cite:
     *
     *   R. Sabatini, E. Kucukbenli, B. Kolb, T. Thonhauser, and
     *   S. de Gironcoli, J. Phys.: Condens. Matter 24, 424209 (2012).
     *

     Carrying out vdW-DF run using the following parameters:

     Nqs =      20    Nr_points =    1024   r_max =   100.000
     q_mesh =
               0.00001000     0.04494208     0.09755937     0.15916263
               0.23128650     0.31572767     0.41458969     0.53033537
               0.66584808     0.82450364     1.01025438     1.22772762
               1.48234092     1.78043706     2.12944203     2.53805004
               3.01644009     3.57652955     4.23227104     5.00000000

     Gradients computed in reciprocal space

[...]

     Starting wfc are  120 randomized atomic wfcs

     Self-consistent Calculation

[...]

     total energy              =   -2019.45344393 Ry
     Harris-Foulkes estimate   =   -2019.45344251 Ry
     estimated scf accuracy    <       0.00001064 Ry

     iteration # 26     ecut=    36.75 Ry     beta=0.10
     Davidson diagonalization with overlap
     ethr =  6.22E-09,  avg # of iterations =  5.1

[...]

     negative rho (up, down):  5.442E-01 0.000E+00

     Adding external electric field

     Computed dipole along edir(3) :
        Dipole                0.0958 Ry au,          0.2434 Debye
        Dipole field          0.0002 Ry au

        Potential amp.       -0.0173 Ry
        Total length         46.8216 bohr

     End of self-consistent calculation

[...]

          k = 0.0503 0.0000 0.0000 ( 24562 PWs)   bands (ev):

[...]

          k =-0.0754-0.1307 0.0000 ( 24548 PWs)   bands (ev):

   -65.0436 -65.0179 -65.0049 -37.0880 -37.0879 -37.0719 -37.0717 -37.0632
   -37.0617 -37.0616 -37.0615 -37.0437 -16.1654 -16.1218 -16.0881 -16.0751
   -16.0528 -16.0434 -16.0233 -16.0100 -16.0025 -15.9940 -15.9756 -15.9586
   -15.9415 -15.9394 -15.9256 -15.9139 -15.9049 -15.9045 -15.9008 -15.8965
   -15.8785 -15.8748 -15.8680 -15.8656 -15.8605 -15.8593 -15.8504 -15.8397
   -15.8363 -15.8269 -15.8198 -15.8105 -15.8059 -15.7982 -15.7950 -15.7921
   -15.7913 -15.7858 -15.7579 -15.7573 -15.7512 -15.7315 -15.6855 -15.6689
   -15.6408  -9.0352  -8.6758  -7.9053  -7.4394  -6.9062  -6.8839  -6.4553
    -5.9666  -5.1432  -2.5301  -2.0170  -1.4232  -0.6883  -0.6462  -0.4552
    -0.4105  -0.3139   0.0783   0.1191   0.2082   0.4219   0.7724   0.7751
     1.0162   1.0468   1.0672   1.1130   1.2881   1.3458   1.4311   1.5762
     1.7623   1.8017   2.2990   2.3057   2.4440   2.7111   2.7926   3.0002
     3.4522   3.7651   3.9922   4.1244   4.1797   4.7379   4.9112   5.2178
     5.3635   5.5191   5.6187   5.7969   5.9894   6.1231   6.3079   6.3483
     6.5105   6.5636   6.6554

     the Fermi energy is     1.3110 ev

!    total energy              =   -2019.45346030 Ry
     Harris-Foulkes estimate   =   -2019.45344971 Ry
     estimated scf accuracy    <       0.00000097 Ry

     The total energy is the sum of the following terms:

     one-electron contribution =  -10894.89628747 Ry
     hartree contribution      =    5500.05967356 Ry
     xc contribution           =    -687.07222433 Ry
     ewald contribution        =    4062.55272425 Ry
     electric field correction =       0.00001766 Ry
     smearing contrib. (-TS)   =      -0.09736397 Ry

     convergence has been achieved in  26 iterations

 BEEF-vdW xc energy contributions
           1 :   -611.020284072604
           2 :    566.609115823809
           3 :   -488.347853357193
           4 :    393.252121469128
           5 :   -298.938543778122
           6 :    218.309428646189
           7 :   -156.798167641453
           8 :    112.765637421693
           9 :   -80.4245939597682
          10 :    53.6318842058985
          11 :   -28.8210054660343
          12 :    5.92784860512347
          13 :    12.6795413855426
          14 :   -24.3531189092184
          15 :    28.0848790210022
          16 :   -25.2576908511113
          17 :    19.0070122213929
          18 :   -12.7396725617729
          19 :    8.68341961815827
          20 :   -7.22360667440205
          21 :    7.25096139297352
          22 :   -7.20342899700609
          23 :    6.14210946299818
          24 :   -4.27948499040531
          25 :    2.73305386427023
          26 :   -2.74008163802512
          27 :    4.83288219640781
          28 :   -8.45709276341188
          29 :    12.2203783063127
          30 :   -14.6027783060147
          31 :   -50.0865829139104
          32 :   -36.6735318912729

     Forces acting on atoms (Ry/au):

     negative rho (up, down):  5.442E-01 0.000E+00
     atom    1 type  1   force =    -0.00000077    0.02015003   -0.01292845
     atom    2 type  1   force =     0.01746212   -0.01007805   -0.01295365
     atom    3 type  1   force =    -0.01746608   -0.01007342   -0.01294517
     atom    4 type  2   force =     0.00000153    0.00000088    0.05931430
     atom    5 type  1   force =    -0.00001988   -0.01858254   -0.00988867
     atom    6 type  1   force =    -0.01608757    0.00928160   -0.00987997
     atom    7 type  1   force =     0.01608235    0.00931226   -0.00988699
     atom    8 type  2   force =    -0.00000186   -0.00000475    0.00868807
     atom    9 type  1   force =     0.00002072    0.00014788    0.00030970
     atom   10 type  1   force =     0.00011500   -0.00006575    0.00031575
     atom   11 type  1   force =    -0.00011168   -0.00007983    0.00033222
     atom   12 type  2   force =     0.00000611   -0.00000829   -0.00047714

     Total force =     0.081515     Total SCF correction =     0.003471

     entering subroutine stress ...

     negative rho (up, down):  5.442E-01 0.000E+00
          total   stress  (Ry/bohr**3)                   (kbar)     P=   -6.41
  -0.00005514   0.00000000   0.00000000         -8.11      0.00      0.00
   0.00000000  -0.00005514   0.00000000          0.00     -8.11      0.00
   0.00000000   0.00000000  -0.00002048          0.00      0.00     -3.01

 !ASE

     Writing output data file calc.save

     General routines

     Parallel routines

   This run was terminated on:  18: 2:31  27Dec2018

   JOB DONE.
Job  /afs/slac/g/suncat/bin/suncat-tsmpirun -x LD_LIBRARY_PATH -wdir /scratch/qe110417_rs86y pw.x -in pw.inp

TID   HOST_NAME   COMMAND_LINE            STATUS            TERMINATION_TIME
00000 suncat0041 pw.x -in pw.inp   Done                     12/27/2018 18:02:31
00001 suncat0041 pw.x -in pw.inp   Done                     12/27/2018 18:02:31
00002 suncat0041 pw.x -in pw.inp   Done                     12/27/2018 18:02:31
00003 suncat0041 pw.x -in pw.inp   Done                     12/27/2018 18:02:31
00004 suncat0041 pw.x -in pw.inp   Done                     12/27/2018 18:02:31
00005 suncat0041 pw.x -in pw.inp   Done                     12/27/2018 18:02:31
00006 suncat0041 pw.x -in pw.inp   Done                     12/27/2018 18:02:31
00007 suncat0041 pw.x -in pw.inp   Done                     12/27/2018 18:02:31
00008 suncat0039 pw.x -in pw.inp   Done                     12/27/2018 18:02:31
00009 suncat0039 pw.x -in pw.inp   Done                     12/27/2018 18:02:31
00010 suncat0039 pw.x -in pw.inp   Done                     12/27/2018 18:02:31
00011 suncat0039 pw.x -in pw.inp   Done                     12/27/2018 18:02:31
00012 suncat0039 pw.x -in pw.inp   Done                     12/27/2018 18:02:31
00013 suncat0039 pw.x -in pw.inp   Done                     12/27/2018 18:02:31
00014 suncat0039 pw.x -in pw.inp   Done                     12/27/2018 18:02:31
00015 suncat0039 pw.x -in pw.inp   Done                     12/27/2018 18:02:31
00016 suncat0169 pw.x -in pw.inp   Done                     12/27/2018 18:02:31
00017 suncat0169 pw.x -in pw.inp   Done                     12/27/2018 18:02:31
00018 suncat0169 pw.x -in pw.inp   Done                     12/27/2018 18:02:31
00019 suncat0169 pw.x -in pw.inp   Done                     12/27/2018 18:02:31
00020 suncat0169 pw.x -in pw.inp   Done                     12/27/2018 18:02:31
00021 suncat0169 pw.x -in pw.inp   Done                     12/27/2018 18:02:31
00022 suncat0169 pw.x -in pw.inp   Done                     12/27/2018 18:02:31
00023 suncat0169 pw.x -in pw.inp   Done                     12/27/2018 18:02:31
00024 suncat0168 pw.x -in pw.inp   Done                     12/27/2018 18:02:31
00025 suncat0168 pw.x -in pw.inp   Done                     12/27/2018 18:02:31
00026 suncat0168 pw.x -in pw.inp   Done                     12/27/2018 18:02:31
00027 suncat0168 pw.x -in pw.inp   Done                     12/27/2018 18:02:31
00028 suncat0168 pw.x -in pw.inp   Done                     12/27/2018 18:02:31
00029 suncat0168 pw.x -in pw.inp   Done                     12/27/2018 18:02:31
00030 suncat0168 pw.x -in pw.inp   Done                     12/27/2018 18:02:31
00031 suncat0168 pw.x -in pw.inp   Done                     12/27/2018 18:02:31
00032 suncat0161 pw.x -in pw.inp   Done                     12/27/2018 18:02:31
00033 suncat0161 pw.x -in pw.inp   Done                     12/27/2018 18:02:31
00034 suncat0161 pw.x -in pw.inp   Done                     12/27/2018 18:02:31
00035 suncat0161 pw.x -in pw.inp   Done                     12/27/2018 18:02:31
00036 suncat0161 pw.x -in pw.inp   Done                     12/27/2018 18:02:31
00037 suncat0161 pw.x -in pw.inp   Done                     12/27/2018 18:02:31
00038 suncat0161 pw.x -in pw.inp   Done                     12/27/2018 18:02:31
00039 suncat0161 pw.x -in pw.inp   Done                     12/27/2018 18:02:31
00040 suncat0250 pw.x -in pw.inp   Done                     12/27/2018 18:02:31
00041 suncat0250 pw.x -in pw.inp   Done                     12/27/2018 18:02:31
00042 suncat0250 pw.x -in pw.inp   Done                     12/27/2018 18:02:31
00043 suncat0250 pw.x -in pw.inp   Done                     12/27/2018 18:02:31
00044 suncat0250 pw.x -in pw.inp   Done                     12/27/2018 18:02:31
00045 suncat0250 pw.x -in pw.inp   Done                     12/27/2018 18:02:31
00046 suncat0250 pw.x -in pw.inp   Done                     12/27/2018 18:02:31
00047 suncat0250 pw.x -in pw.inp   Done                     12/27/2018 18:02:31
00048 suncat0249 pw.x -in pw.inp   Done                     12/27/2018 18:02:31
00049 suncat0249 pw.x -in pw.inp   Done                     12/27/2018 18:02:31
00050 suncat0249 pw.x -in pw.inp   Done                     12/27/2018 18:02:31
00051 suncat0249 pw.x -in pw.inp   Done                     12/27/2018 18:02:31
00052 suncat0249 pw.x -in pw.inp   Done                     12/27/2018 18:02:31
00053 suncat0249 pw.x -in pw.inp   Done                     12/27/2018 18:02:31
00054 suncat0249 pw.x -in pw.inp   Done                     12/27/2018 18:02:31
00055 suncat0249 pw.x -in pw.inp   Done                     12/27/2018 18:02:31
00056 suncat0231 pw.x -in pw.inp   Done                     12/27/2018 18:02:31
00057 suncat0231 pw.x -in pw.inp   Done                     12/27/2018 18:02:31
00058 suncat0231 pw.x -in pw.inp   Done                     12/27/2018 18:02:31
00059 suncat0231 pw.x -in pw.inp   Done                     12/27/2018 18:02:31
00060 suncat0231 pw.x -in pw.inp   Done                     12/27/2018 18:02:31
00061 suncat0231 pw.x -in pw.inp   Done                     12/27/2018 18:02:31
00062 suncat0231 pw.x -in pw.inp   Done                     12/27/2018 18:02:31
00063 suncat0231 pw.x -in pw.inp   Done                     12/27/2018 18:02:31