     Program PWSCF v.5.1rc2 (svn rev. 11289) starts on 20Dec2018 at  1: 8: 7

     Current dimensions of program PWSCF are:
     Max number of different atomic species (ntypx) = 10
     Max number of k-points (npk) =  40000
     Max angular momentum in pseudopotentials (lmaxx) =  3
     Presently stress not available with electric field

     IMPORTANT: XC functional enforced from input :
     Exchange-correlation      = BEEF-VDW ( 1  4 27 13 2)
     Any further DFT definition will be discarded
     Please, verify this is what you really want

     Subspace diagonalization in iterative solution of the eigenvalue problem:
     a serial algorithm will be used

     bravais-lattice index     =            0
     lattice parameter (alat)  =       1.8897  a.u.
     unit-cell volume          =    6426.8036 (a.u.)^3
     number of atoms/cell      =           12
     number of atomic types    =            2
     number of electrons       =       150.00
     number of Kohn-Sham states=          105
     kinetic-energy cutoff     =      36.7493  Ry
     charge density cutoff     =     367.4932  Ry
     convergence threshold     =      1.0E-06
     mixing beta               =       0.1000
     number of iterations used =           10  plain     mixing
     Exchange-correlation      = BEEF-VDW ( 1  4 27 13 2)
     nstep                     =           50

     celldm(1)=   1.889726  celldm(2)=   0.000000  celldm(3)=   0.000000
     celldm(4)=   0.000000  celldm(5)=   0.000000  celldm(6)=   0.000000

     crystal axes: (cart. coord. in units of alat)
               a(1) = (   6.583097   0.000000   0.000000 )
               a(2) = (  -3.291548   5.701129   0.000000 )
               a(3) = (   0.000000   0.000000  25.375076 )

     reciprocal axes: (cart. coord. in units 2 pi/alat)
               b(1) = (  0.151904  0.087702  0.000000 )
               b(2) = (  0.000000  0.175404  0.000000 )
               b(3) = (  0.000000  0.000000  0.039409 )

     PseudoPot. # 1 for Cd read from file:
     /afs/slac.stanford.edu/u/if/mamunm/psp/gbrv1.5pbe/Cd.UPF
     MD5 check sum: 17164a7926edb8e0dc231208abae86a6
     Pseudo is Ultrasoft + core correction, Zval = 12.0
     Generated by new atomic code, or converted to UPF format
     Using radial grid of  889 points,  6 beta functions with:
                l(1) =   0
                l(2) =   0
                l(3) =   1
                l(4) =   1
                l(5) =   2
                l(6) =   2
     Q(r) pseudized with  6 coefficients,  rinner =    1.000   1.000   1.000
                                                       1.000   1.000

     PseudoPot. # 2 for Sn read from file:
     /afs/slac.stanford.edu/u/if/mamunm/psp/gbrv1.5pbe/Sn.UPF
     MD5 check sum: 469debedee59599fedebd795477fea03
     Pseudo is Ultrasoft + core correction, Zval = 14.0
     Generated by new atomic code, or converted to UPF format
     Using radial grid of  891 points,  6 beta functions with:
                l(1) =   0
                l(2) =   0
                l(3) =   1
                l(4) =   1
                l(5) =   2
                l(6) =   2
     Q(r) pseudized with  8 coefficients,  rinner =    1.350   1.350   1.350
                                                       1.350   1.350

     vdW kernel table read from file vdW_kernel_table
     MD5 check sum: 095c7af220d748ca6e76c0b4c6cfb241

     atomic species   valence    mass     pseudopotential
        Cd1           12.00   112.41400     Cd( 1.00)
        Sn1           14.00   118.71000     Sn( 1.00)

     No symmetry found

   Cartesian axes

     site n.     atom                  positions (alat units)
         1           Cd1 tau(   1) = (   0.0000000   0.0000000  10.0000000  )
         2           Cd1 tau(   2) = (  -1.6457741   2.8505644  10.0000000  )
         3           Cd1 tau(   3) = (   1.6457741   2.8505644  10.0000000  )
         4           Sn1 tau(   4) = (   3.2915483   0.0000000  10.0000000  )
         5           Cd1 tau(   5) = (   3.2915483   1.9003763  12.6875379  )
         6           Cd1 tau(   6) = (   1.6457741   4.7509407  12.6875379  )
         7           Cd1 tau(   7) = (  -1.6457741   4.7509407  12.6875379  )
         8           Sn1 tau(   8) = (  -0.0000000   1.9003763  12.6875379  )
         9           Cd1 tau(   9) = (  -0.0000000   3.8007525  15.3750758  )
        10           Cd1 tau(  10) = (   1.6457741   0.9501881  15.3750758  )
        11           Cd1 tau(  11) = (   4.9373224   0.9501881  15.3750758  )
        12           Sn1 tau(  12) = (   3.2915483   3.8007525  15.3750758  )

     number of k points=    20  Fermi-Dirac smearing, width (Ry)=  0.0110
                       cart. coord. in units 2pi/alat
        k(    1) = (   0.0000000   0.0000000   0.0000000), wk =   0.0555556
        k(    2) = (   0.0000000   0.0292340   0.0000000), wk =   0.1111111
        k(    3) = (   0.0000000   0.0584680   0.0000000), wk =   0.1111111
        k(    4) = (   0.0000000  -0.0877019   0.0000000), wk =   0.0555556
        k(    5) = (   0.0253174   0.0146170   0.0000000), wk =   0.1111111
        k(    6) = (   0.0253174   0.0438510   0.0000000), wk =   0.1111111
        k(    7) = (   0.0253174   0.0730849   0.0000000), wk =   0.1111111
        k(    8) = (   0.0253174  -0.0730849   0.0000000), wk =   0.1111111
        k(    9) = (   0.0253174  -0.0438510   0.0000000), wk =   0.1111111
        k(   10) = (   0.0253174  -0.0146170   0.0000000), wk =   0.1111111
        k(   11) = (   0.0506347   0.0292340   0.0000000), wk =   0.1111111
        k(   12) = (   0.0506347   0.0584680   0.0000000), wk =   0.1111111
        k(   13) = (   0.0506347   0.0877019   0.0000000), wk =   0.1111111
        k(   14) = (   0.0506347  -0.0584680   0.0000000), wk =   0.1111111
        k(   15) = (   0.0506347  -0.0292340   0.0000000), wk =   0.1111111
        k(   16) = (   0.0506347   0.0000000   0.0000000), wk =   0.1111111
        k(   17) = (  -0.0759521  -0.0438510   0.0000000), wk =   0.0555556
        k(   18) = (  -0.0759521  -0.0146170   0.0000000), wk =   0.1111111
        k(   19) = (  -0.0759521   0.0146170   0.0000000), wk =   0.1111111
        k(   20) = (  -0.0759521  -0.1315529   0.0000000), wk =   0.0555556

     Largest allocated arrays     est. size (Mb)     dimensions
     Largest temporary arrays     est. size (Mb)     dimensions

     Initial potential from superposition of free atoms
     Check: negative starting charge=   -0.198749

     starting charge  142.49949, renormalised to  150.00000

     negative rho (up, down):  2.092E-01 0.000E+00

     *
     * You are using vdW-DF for exchange-correlation in this calculation.
     * Please cite the following three references that made this development
     * possible:
     *
     *   M. Dion, H. Rydberg, E. Schroder, D. C. Langreth, and
     *   B. I. Lundqvist, Phys. Rev. Lett. 92, 246401 (2004).
     *
     *   T. Thonhauser, V. R. Cooper, S. Li, A. Puzder, P. Hyldgaard, and
     *   D. C. Langreth, Phys. Rev. B 76, 125112 (2007).
     *
     *   G. Roman-Perez and J. M. Soler, Phys. Rev. Lett. 103, 096102 (2009).
     *
     *
     * If you are using vdW-DF2, please also cite:
     *
     *   K. Lee, E. D. Murray, L. Kong, B. I. Lundqvist, and
     *   D. C. Langreth, Phys. Rev. B 82, 081101(R) (2010).
     *
     *
     * If you are calculating the stress with vdW-DF, please also cite:
     *
     *   R. Sabatini, E. Kucukbenli, B. Kolb, T. Thonhauser, and
     *   S. de Gironcoli, J. Phys.: Condens. Matter 24, 424209 (2012).
     *

     Carrying out vdW-DF run using the following parameters:

     Nqs =      20    Nr_points =    1024   r_max =   100.000
     q_mesh =
               0.00001000     0.04494208     0.09755937     0.15916263
               0.23128650     0.31572767     0.41458969     0.53033537
               0.66584808     0.82450364     1.01025438     1.22772762
               1.48234092     1.78043706     2.12944203     2.53805004
               3.01644009     3.57652955     4.23227104     5.00000000

     Gradients computed in reciprocal space

     Adding external electric field

     Computed dipole along edir(3) :
        Dipole               -0.0000 Ry au,         -0.0000 Debye
        Dipole field         -0.0000 Ry au

        Potential amp.        0.0000 Ry
        Total length         46.7531 bohr

     Starting wfc are  108 randomized atomic wfcs

     Self-consistent Calculation

     iteration #  1     ecut=    36.75 Ry     beta=0.10
     Davidson diagonalization with overlap
     ethr =  1.00E-02,  avg # of iterations =  8.2

[...]

     total energy              =   -1527.45539928 Ry
     Harris-Foulkes estimate   =   -1528.00459855 Ry
     estimated scf accuracy    <       3.27349877 Ry

[...]

     End of self-consistent calculation

          k = 0.0000 0.0000 0.0000 ( 24033 PWs)   bands (ev):

   -21.6709 -21.6707 -21.6651 -21.6651 -21.6646 -21.6646 -21.6577 -21.6577
   -21.6575 -21.6575 -21.6326 -21.6322 -21.6322 -21.6289 -21.6289  -9.2687
    -9.1876  -9.0020  -8.9801  -8.9684  -8.9684  -8.8816  -8.8215  -8.8164
    -8.8164  -8.8024  -8.8024  -8.7898  -8.7898  -8.7181  -8.7088  -8.7088
    -8.6656  -8.6094  -8.5875  -8.5875  -8.5242  -8.5142  -8.5141  -8.4544
    -8.4544  -8.4295  -8.4295  -8.3996  -8.3996  -8.3966  -8.3468  -8.3468
    -8.3267  -8.3267  -8.3165  -8.2872  -8.2872  -8.2473  -8.2473  -8.2360
    -8.1794  -8.1556  -8.1556  -8.0879  -8.0816  -7.1494  -5.7769  -3.5536
    -3.2643  -2.5967  -2.5967  -2.4038  -2.3100  -2.3100  -1.6771  -1.5569
    -1.5569  -0.8237  -0.7004  -0.7004   0.1386   0.5153   0.7053   0.7053
     1.0932   1.0932   1.7544   2.9935   3.0710   3.4810   4.0439   4.2572
     4.2572   4.4298   4.4298   4.7002   4.9981   5.5291   5.5291   5.6933
     6.4930   6.6381   6.6381   6.7011   6.7012   6.7475   7.1522   7.2806
     7.2809

[...]

          k =-0.0760-0.0439 0.0000 ( 24220 PWs)   bands (ev):

[...]

     the Fermi energy is     0.2746 ev

!    total energy              =   -1526.82491092 Ry
     Harris-Foulkes estimate   =   -1526.82491706 Ry
     estimated scf accuracy    <       0.00000088 Ry

     The total energy is the sum of the following terms:

     one-electron contribution =   -8519.35741158 Ry
     hartree contribution      =    4343.76743608 Ry
     xc contribution           =    -500.39559967 Ry
     ewald contribution        =    3149.19443821 Ry
     electric field correction =       0.00000000 Ry
     smearing contrib. (-TS)   =      -0.03377397 Ry

     convergence has been achieved in  14 iterations

 BEEF-vdW xc energy contributions
           1 :   -438.771319889792
           2 :    401.209076738976
           3 :   -337.888960646616
           4 :    266.926260571665
           5 :   -205.017660187781
           6 :    161.404485994921
           7 :   -136.108544714977
           8 :    122.590859717668
           9 :   -112.770049723607
          10 :    101.442031373421
          11 :   -87.9743476730150
          12 :    75.0113902306552
          13 :   -65.6383304371518
          14 :    61.0201760936583
          15 :   -59.8261486776565
          16 :    59.3946257378005
          17 :   -57.5434992592370
[...]
     Generated by new atomic code, or converted to UPF format
     Using radial grid of  889 points,  6 beta functions with:
                l(1) =   0
                l(2) =   0
                l(3) =   1
                l(4) =   1
                l(5) =   2
                l(6) =   2
     Q(r) pseudized with  6 coefficients,  rinner =    1.000   1.000   1.000
                                                       1.000   1.000

     PseudoPot. # 2 for Sn read from file:
     /afs/slac.stanford.edu/u/if/mamunm/psp/gbrv1.5pbe/Sn.UPF
     MD5 check sum: 469debedee59599fedebd795477fea03
     Pseudo is Ultrasoft + core correction, Zval = 14.0
     Generated by new atomic code, or converted to UPF format
     Using radial grid of  891 points,  6 beta functions with:
                l(1) =   0
                l(2) =   0
                l(3) =   1
                l(4) =   1
                l(5) =   2
                l(6) =   2
     Q(r) pseudized with  8 coefficients,  rinner =    1.350   1.350   1.350
                                                       1.350   1.350

     vdW kernel table read from file vdW_kernel_table
     MD5 check sum: 095c7af220d748ca6e76c0b4c6cfb241

     atomic species   valence    mass     pseudopotential
        Cd1           12.00   112.41400     Cd( 1.00)
        Sn1           14.00   118.71000     Sn( 1.00)

     No symmetry found

   Cartesian axes

     site n.     atom                  positions (alat units)
         1           Cd1 tau(   1) = (   0.0000000   0.0000000  10.0000000  )
         2           Cd1 tau(   2) = (  -1.6457741   2.8505644  10.0000000  )
         3           Cd1 tau(   3) = (   1.6457741   2.8505644  10.0000000  )
         4           Sn1 tau(   4) = (   3.2915483   0.0000000  10.0000000  )
         5           Cd1 tau(   5) = (   3.2915483   1.9003763  12.6875379  )
         6           Cd1 tau(   6) = (   1.6457741   4.7509407  12.6875379  )
         7           Cd1 tau(   7) = (  -1.6457741   4.7509407  12.6875379  )
         8           Sn1 tau(   8) = (  -0.0000000   1.9003763  12.6875379  )
         9           Cd1 tau(   9) = (   0.0000661   3.8183516  15.4821062  )
        10           Cd1 tau(  10) = (   1.6609779   0.9408380  15.4824728  )
        11           Cd1 tau(  11) = (   4.9220538   0.9410675  15.4822467  )
        12           Sn1 tau(  12) = (   3.2915361   3.8006315  15.3989228  )

     number of k points=    20  Fermi-Dirac smearing, width (Ry)=  0.0110
                       cart. coord. in units 2pi/alat
        k(    1) = (   0.0000000   0.0000000   0.0000000), wk =   0.0555556
        k(    2) = (   0.0000000   0.0292340   0.0000000), wk =   0.1111111
        k(    3) = (   0.0000000   0.0584680   0.0000000), wk =   0.1111111
        k(    4) = (   0.0000000  -0.0877019   0.0000000), wk =   0.0555556
        k(    5) = (   0.0253174   0.0146170   0.0000000), wk =   0.1111111
        k(    6) = (   0.0253174   0.0438510   0.0000000), wk =   0.1111111
        k(    7) = (   0.0253174   0.0730849   0.0000000), wk =   0.1111111
        k(    8) = (   0.0253174  -0.0730849   0.0000000), wk =   0.1111111
        k(    9) = (   0.0253174  -0.0438510   0.0000000), wk =   0.1111111
        k(   10) = (   0.0253174  -0.0146170   0.0000000), wk =   0.1111111
        k(   11) = (   0.0506347   0.0292340   0.0000000), wk =   0.1111111
        k(   12) = (   0.0506347   0.0584680   0.0000000), wk =   0.1111111
        k(   13) = (   0.0506347   0.0877019   0.0000000), wk =   0.1111111
        k(   14) = (   0.0506347  -0.0584680   0.0000000), wk =   0.1111111
        k(   15) = (   0.0506347  -0.0292340   0.0000000), wk =   0.1111111
        k(   16) = (   0.0506347   0.0000000   0.0000000), wk =   0.1111111
        k(   17) = (  -0.0759521  -0.0438510   0.0000000), wk =   0.0555556
        k(   18) = (  -0.0759521  -0.0146170   0.0000000), wk =   0.1111111
        k(   19) = (  -0.0759521   0.0146170   0.0000000), wk =   0.1111111
        k(   20) = (  -0.0759521  -0.1315529   0.0000000), wk =   0.0555556

     Largest allocated arrays     est. size (Mb)     dimensions
     Largest temporary arrays     est. size (Mb)     dimensions

     Initial potential from superposition of free atoms
     Check: negative starting charge=   -0.199659

     starting charge  142.49949, renormalised to  150.00000

[...]

     *
     * You are using vdW-DF for exchange-correlation in this calculation.
     * Please cite the following three references that made this development
     * possible:
     *
     *   M. Dion, H. Rydberg, E. Schroder, D. C. Langreth, and
     *   B. I. Lundqvist, Phys. Rev. Lett. 92, 246401 (2004).
     *
     *   T. Thonhauser, V. R. Cooper, S. Li, A. Puzder, P. Hyldgaard, and
     *   D. C. Langreth, Phys. Rev. B 76, 125112 (2007).
     *
     *   G. Roman-Perez and J. M. Soler, Phys. Rev. Lett. 103, 096102 (2009).
     *
     *
     * If you are using vdW-DF2, please also cite:
     *
     *   K. Lee, E. D. Murray, L. Kong, B. I. Lundqvist, and
     *   D. C. Langreth, Phys. Rev. B 82, 081101(R) (2010).
     *
     *
     * If you are calculating the stress with vdW-DF, please also cite:
     *
     *   R. Sabatini, E. Kucukbenli, B. Kolb, T. Thonhauser, and
     *   S. de Gironcoli, J. Phys.: Condens. Matter 24, 424209 (2012).
     *

     Carrying out vdW-DF run using the following parameters:

     Nqs =      20    Nr_points =    1024   r_max =   100.000
     q_mesh =
               0.00001000     0.04494208     0.09755937     0.15916263
               0.23128650     0.31572767     0.41458969     0.53033537
               0.66584808     0.82450364     1.01025438     1.22772762
               1.48234092     1.78043706     2.12944203     2.53805004
               3.01644009     3.57652955     4.23227104     5.00000000

     Gradients computed in reciprocal space

[...]

     Starting wfc are  108 randomized atomic wfcs

     Self-consistent Calculation

[...]

     iteration #  8     ecut=    36.75 Ry     beta=0.10
     Davidson diagonalization with overlap
     c_bands:  1 eigenvalues not converged
     ethr =  1.98E-06,  avg # of iterations =  7.5

[...]

     total energy              =   -1526.82756032 Ry
     Harris-Foulkes estimate   =   -1526.82756036 Ry
     estimated scf accuracy    <       0.00000166 Ry

     iteration # 14     ecut=    36.75 Ry     beta=0.10
     Davidson diagonalization with overlap
     ethr =  1.11E-09,  avg # of iterations =  3.9

[...]

     negative rho (up, down):  2.047E-01 0.000E+00

     Adding external electric field

     Computed dipole along edir(3) :
        Dipole                0.0100 Ry au,          0.0254 Debye
        Dipole field          0.0000 Ry au

        Potential amp.       -0.0018 Ry
        Total length         46.7531 bohr

     End of self-consistent calculation

[...]

          k = 0.0506 0.0000 0.0000 ( 24176 PWs)   bands (ev):

[...]

          k =-0.0760-0.1316 0.0000 ( 24220 PWs)   bands (ev):

   -21.6688 -21.6634 -21.6633 -21.6583 -21.6575 -21.6572 -21.6522 -21.6521
   -21.6432 -21.6428 -21.6105 -21.6080 -21.6080 -21.6050 -21.6046  -8.9484
    -8.9174  -8.8851  -8.8128  -8.7819  -8.7717  -8.7584  -8.7440  -8.7425
    -8.7379  -8.7215  -8.6950  -8.6941  -8.6523  -8.6357  -8.6085  -8.5673
    -8.5573  -8.5524  -8.5353  -8.4989  -8.4963  -8.4838  -8.4818  -8.4788
    -8.4755  -8.4614  -8.4467  -8.4410  -8.4306  -8.4207  -8.4193  -8.4086
    -8.4065  -8.3981  -8.3765  -8.3634  -8.3439  -8.3412  -8.3286  -8.2954
    -8.2854  -8.2323  -8.1606  -8.1184  -7.4312  -7.1175  -6.5955  -5.0972
    -4.2751  -3.7176  -3.5520  -2.8011  -2.3283  -2.3159  -1.5353  -0.5454
     0.0333   0.0513   1.0882   1.1516   1.1817   1.5047   1.5124   2.1393
     2.3033   2.5367   2.8565   2.9967   3.0144   3.3687   3.5171   3.5451
     4.2843   4.3658   4.5307   4.6917   4.7373   4.7667   4.9405   5.0946
     5.1372   5.2484   5.5518   5.6910   5.7556   5.7935   6.0894   6.1276
     6.4003

     the Fermi energy is     0.2862 ev

!    total energy              =   -1526.82755315 Ry
     Harris-Foulkes estimate   =   -1526.82756070 Ry
     estimated scf accuracy    <       0.00000044 Ry

     The total energy is the sum of the following terms:

     one-electron contribution =   -8418.99205964 Ry
     hartree contribution      =    4293.68453732 Ry
     xc contribution           =    -500.35528110 Ry
     ewald contribution        =    3098.86953086 Ry
     electric field correction =       0.00000020 Ry
     smearing contrib. (-TS)   =      -0.03428078 Ry

     convergence has been achieved in  14 iterations

 BEEF-vdW xc energy contributions
           1 :   -438.762474502080
           2 :    401.162995175230
           3 :   -337.800656100636
           4 :    266.829376920685
           5 :   -204.960492407765
           6 :    161.414668453070
           7 :   -136.173316625266
           8 :    122.667046785932
           9 :   -112.815159818637
          10 :    101.443023418139
          11 :   -87.9534056535086
          12 :    75.0058015409184
          13 :   -65.6711542080096
          14 :    61.0840208802280
          15 :   -59.8912001132278
          16 :    59.4331571147457
          17 :   -57.5511267236652
          18 :    53.7537707240927
          19 :   -49.1368830575684
          20 :    45.3443231166903
          21 :   -43.4012457061224
          22 :    43.1633391857555
          23 :   -43.5953523139574
          24 :    43.5354080242029
          25 :   -42.3835130064325
          26 :    40.3246940803406
          27 :   -38.0636943973756
          28 :    36.3306577005957
          29 :   -35.4805952130923
          30 :    35.3747821438863
          31 :   -39.1399666194118
          32 :   -28.4663629116260

     Forces acting on atoms (Ry/au):

     negative rho (up, down):  2.047E-01 0.000E+00
     atom    1 type  1   force =     0.00000074   -0.00223468   -0.00318275
     atom    2 type  1   force =    -0.00194289    0.00112380   -0.00320108
     atom    3 type  1   force =     0.00194396    0.00112591   -0.00319849
     atom    4 type  2   force =    -0.00000003   -0.00000447   -0.00134391
     atom    5 type  1   force =    -0.00000197   -0.00063894    0.00255274
     atom    6 type  1   force =    -0.00055737    0.00033160    0.00253783
     atom    7 type  1   force =     0.00055362    0.00033103    0.00253849
     atom    8 type  2   force =     0.00000279   -0.00000057    0.00499662
     atom    9 type  1   force =    -0.00000197   -0.00015588   -0.00026050
     atom   10 type  1   force =    -0.00009816    0.00007204   -0.00026828
     atom   11 type  1   force =     0.00010026    0.00006870   -0.00026655
     atom   12 type  2   force =     0.00000101   -0.00001853   -0.00090411

     Total force =     0.009705     Total SCF correction =     0.003297
     SCF correction compared to forces is large: reduce conv_thr to get better values

     entering subroutine stress ...

     negative rho (up, down):  2.047E-01 0.000E+00
          total   stress  (Ry/bohr**3)                   (kbar)     P=   -7.85
  -0.00007183   0.00000000  -0.00000000        -10.57      0.00     -0.00
   0.00000000  -0.00007183   0.00000000          0.00    -10.57      0.00
  -0.00000000   0.00000000  -0.00001642         -0.00      0.00     -2.42

 !ASE

     Writing output data file calc.save

     General routines

     Parallel routines

   This run was terminated on:   2:10:22  20Dec2018

   JOB DONE.
Job  /afs/slac/g/suncat/bin/suncat-tsmpirun -x LD_LIBRARY_PATH -wdir /scratch/qe773469_hE9l2 pw.x -in pw.inp

TID   HOST_NAME   COMMAND_LINE            STATUS            TERMINATION_TIME
00000 suncat0156 pw.x -in pw.inp   Done                     12/20/2018 02:10:22
00001 suncat0156 pw.x -in pw.inp   Done                     12/20/2018 02:10:22
00002 suncat0156 pw.x -in pw.inp   Done                     12/20/2018 02:10:22
00003 suncat0156 pw.x -in pw.inp   Done                     12/20/2018 02:10:22
00004 suncat0156 pw.x -in pw.inp   Done                     12/20/2018 02:10:22
00005 suncat0156 pw.x -in pw.inp   Done                     12/20/2018 02:10:22
00006 suncat0156 pw.x -in pw.inp   Done                     12/20/2018 02:10:22
00007 suncat0156 pw.x -in pw.inp   Done                     12/20/2018 02:10:22
00008 suncat0153 pw.x -in pw.inp   Done                     12/20/2018 02:10:22
00009 suncat0153 pw.x -in pw.inp   Done                     12/20/2018 02:10:22
00010 suncat0153 pw.x -in pw.inp   Done                     12/20/2018 02:10:22
00011 suncat0153 pw.x -in pw.inp   Done                     12/20/2018 02:10:22
00012 suncat0153 pw.x -in pw.inp   Done                     12/20/2018 02:10:22
00013 suncat0153 pw.x -in pw.inp   Done                     12/20/2018 02:10:22
00014 suncat0153 pw.x -in pw.inp   Done                     12/20/2018 02:10:22
00015 suncat0153 pw.x -in pw.inp   Done                     12/20/2018 02:10:22
00016 suncat0152 pw.x -in pw.inp   Done                     12/20/2018 02:10:22
00017 suncat0152 pw.x -in pw.inp   Done                     12/20/2018 02:10:22
00018 suncat0152 pw.x -in pw.inp   Done                     12/20/2018 02:10:22
00019 suncat0152 pw.x -in pw.inp   Done                     12/20/2018 02:10:22
00020 suncat0152 pw.x -in pw.inp   Done                     12/20/2018 02:10:22
00021 suncat0152 pw.x -in pw.inp   Done                     12/20/2018 02:10:22
00022 suncat0152 pw.x -in pw.inp   Done                     12/20/2018 02:10:22
00023 suncat0152 pw.x -in pw.inp   Done                     12/20/2018 02:10:22
00024 suncat0150 pw.x -in pw.inp   Done                     12/20/2018 02:10:22
00025 suncat0150 pw.x -in pw.inp   Done                     12/20/2018 02:10:22
00026 suncat0150 pw.x -in pw.inp   Done                     12/20/2018 02:10:22
00027 suncat0150 pw.x -in pw.inp   Done                     12/20/2018 02:10:22
00028 suncat0150 pw.x -in pw.inp   Done                     12/20/2018 02:10:22
00029 suncat0150 pw.x -in pw.inp   Done                     12/20/2018 02:10:22
00030 suncat0150 pw.x -in pw.inp   Done                     12/20/2018 02:10:22
00031 suncat0150 pw.x -in pw.inp   Done                     12/20/2018 02:10:22
00032 suncat0222 pw.x -in pw.inp   Done                     12/20/2018 02:10:22
00033 suncat0222 pw.x -in pw.inp   Done                     12/20/2018 02:10:22
00034 suncat0222 pw.x -in pw.inp   Done                     12/20/2018 02:10:22
00035 suncat0222 pw.x -in pw.inp   Done                     12/20/2018 02:10:22
00036 suncat0222 pw.x -in pw.inp   Done                     12/20/2018 02:10:22
00037 suncat0222 pw.x -in pw.inp   Done                     12/20/2018 02:10:22
00038 suncat0222 pw.x -in pw.inp   Done                     12/20/2018 02:10:22
00039 suncat0222 pw.x -in pw.inp   Done                     12/20/2018 02:10:22
00040 suncat0221 pw.x -in pw.inp   Done                     12/20/2018 02:10:22
00041 suncat0221 pw.x -in pw.inp   Done                     12/20/2018 02:10:22
00042 suncat0221 pw.x -in pw.inp   Done                     12/20/2018 02:10:22
00043 suncat0221 pw.x -in pw.inp   Done                     12/20/2018 02:10:22
00044 suncat0221 pw.x -in pw.inp   Done                     12/20/2018 02:10:22
00045 suncat0221 pw.x -in pw.inp   Done                     12/20/2018 02:10:22
00046 suncat0221 pw.x -in pw.inp   Done                     12/20/2018 02:10:22
00047 suncat0221 pw.x -in pw.inp   Done                     12/20/2018 02:10:22
00048 suncat0220 pw.x -in pw.inp   Done                     12/20/2018 02:10:22
00049 suncat0220 pw.x -in pw.inp   Done                     12/20/2018 02:10:22
00050 suncat0220 pw.x -in pw.inp   Done                     12/20/2018 02:10:22
00051 suncat0220 pw.x -in pw.inp   Done                     12/20/2018 02:10:22
00052 suncat0220 pw.x -in pw.inp   Done                     12/20/2018 02:10:22
00053 suncat0220 pw.x -in pw.inp   Done                     12/20/2018 02:10:22
00054 suncat0220 pw.x -in pw.inp   Done                     12/20/2018 02:10:22
00055 suncat0220 pw.x -in pw.inp   Done                     12/20/2018 02:10:22
00056 suncat0219 pw.x -in pw.inp   Done                     12/20/2018 02:10:22
00057 suncat0219 pw.x -in pw.inp   Done                     12/20/2018 02:10:22
00058 suncat0219 pw.x -in pw.inp   Done                     12/20/2018 02:10:22
00059 suncat0219 pw.x -in pw.inp   Done                     12/20/2018 02:10:22
00060 suncat0219 pw.x -in pw.inp   Done                     12/20/2018 02:10:22
00061 suncat0219 pw.x -in pw.inp   Done                     12/20/2018 02:10:22
00062 suncat0219 pw.x -in pw.inp   Done                     12/20/2018 02:10:22
00063 suncat0219 pw.x -in pw.inp   Done                     12/20/2018 02:10:22