     Program PWSCF v.5.1rc2 (svn rev. 11289) starts on 19Dec2018 at 15: 8: 4

     Current dimensions of program PWSCF are:
     Max number of different atomic species (ntypx) = 10
     Max number of k-points (npk) =  40000
     Max angular momentum in pseudopotentials (lmaxx) =  3
     Presently stress not available with electric field

     IMPORTANT: XC functional enforced from input :
     Exchange-correlation      = BEEF-VDW ( 1  4 27 13 2)
     Any further DFT definition will be discarded
     Please, verify this is what you really want

     Subspace diagonalization in iterative solution of the eigenvalue problem:
     a serial algorithm will be used

     bravais-lattice index     =            0
     lattice parameter (alat)  =       1.8897  a.u.
     unit-cell volume          =    4842.0304 (a.u.)^3
     number of atoms/cell      =           12
     number of atomic types    =            2
     number of electrons       =       213.00
     number of Kohn-Sham states=          136
     kinetic-energy cutoff     =      36.7493  Ry
     charge density cutoff     =     367.4932  Ry
     convergence threshold     =      1.0E-06
     mixing beta               =       0.1000
     number of iterations used =           10  plain     mixing
     Exchange-correlation      = BEEF-VDW ( 1  4 27 13 2)
     nstep                     =           50

     celldm(1)=   1.889726  celldm(2)=   0.000000  celldm(3)=   0.000000
     celldm(4)=   0.000000  celldm(5)=   0.000000  celldm(6)=   0.000000

     crystal axes: (cart. coord. in units of alat)
               a(1) = (   5.788556   0.000000   0.000000 )
               a(2) = (  -2.894278   5.013037   0.000000 )
               a(3) = (   0.000000   0.000000  24.726336 )

     reciprocal axes: (cart. coord. in units 2 pi/alat)
               b(1) = (  0.172755  0.099740  0.000000 )
               b(2) = (  0.000000  0.199480  0.000000 )
               b(3) = (  0.000000  0.000000  0.040443 )

     PseudoPot. # 1 for Ag read from file:
     /afs/slac.stanford.edu/u/if/mamunm/psp/gbrv1.5pbe/Ag.UPF
     MD5 check sum: d66d668201baa78d5eb5b04ef7011058
     Pseudo is Ultrasoft + core correction, Zval = 19.0
     Generated by new atomic code, or converted to UPF format
     Using radial grid of  887 points,  6 beta functions with:
                l(1) =   0
                l(2) =   0
                l(3) =   1
                l(4) =   1
                l(5) =   2
                l(6) =   2
     Q(r) pseudized with  6 coefficients,  rinner =    1.300   1.300   1.300
                                                       1.300   1.300

     PseudoPot. # 2 for Cr read from file:
     /afs/slac.stanford.edu/u/if/mamunm/psp/gbrv1.5pbe/Cr.UPF
     MD5 check sum: 0d52af634a40206e4dee301ad30da4bf
     Pseudo is Ultrasoft + core correction, Zval = 14.0
     Generated by new atomic code, or converted to UPF format
     Using radial grid of  857 points,  6 beta functions with:
                l(1) =   0
                l(2) =   0
                l(3) =   1
                l(4) =   1
                l(5) =   2
                l(6) =   2
     Q(r) pseudized with  8 coefficients,  rinner =    0.950   0.950   0.950
                                                       0.950   0.950

     vdW kernel table read from file vdW_kernel_table
     MD5 check sum: 095c7af220d748ca6e76c0b4c6cfb241

     atomic species   valence    mass     pseudopotential
        Ag1           19.00   107.86820     Ag( 1.00)
        Cr1           14.00    51.99610     Cr( 1.00)

     No symmetry found

   Cartesian axes

     site n.     atom                  positions (alat units)
         1           Ag1 tau(   1) = (   0.0000000   0.0000000  10.0000000  )
         2           Ag1 tau(   2) = (  -1.4471391   2.5065184  10.0000000  )
         3           Ag1 tau(   3) = (   1.4471391   2.5065184  10.0000000  )
         4           Cr1 tau(   4) = (   2.8942781   0.0000000  10.0000000  )
         5           Ag1 tau(   5) = (   2.8942781   1.6710122  12.3631682  )
         6           Ag1 tau(   6) = (   1.4471391   4.1775306  12.3631682  )
         7           Ag1 tau(   7) = (  -1.4471391   4.1775306  12.3631682  )
         8           Cr1 tau(   8) = (   0.0000000   1.6710122  12.3631682  )
         9           Ag1 tau(   9) = (  -0.0000000   3.3420245  14.7263364  )
        10           Ag1 tau(  10) = (   1.4471391   0.8355061  14.7263364  )
        11           Ag1 tau(  11) = (   4.3414172   0.8355061  14.7263364  )
        12           Cr1 tau(  12) = (   2.8942781   3.3420245  14.7263364  )

     number of k points=    20  Fermi-Dirac smearing, width (Ry)=  0.0110
                       cart. coord. in units 2pi/alat
        k(    1) = (   0.0000000   0.0000000   0.0000000), wk =   0.0555556
        k(    2) = (   0.0000000   0.0332466   0.0000000), wk =   0.1111111
        k(    3) = (   0.0000000   0.0664933   0.0000000), wk =   0.1111111
        k(    4) = (   0.0000000  -0.0997399   0.0000000), wk =   0.0555556
        k(    5) = (   0.0287924   0.0166233   0.0000000), wk =   0.1111111
        k(    6) = (   0.0287924   0.0498700   0.0000000), wk =   0.1111111
        k(    7) = (   0.0287924   0.0831166   0.0000000), wk =   0.1111111
        k(    8) = (   0.0287924  -0.0831166   0.0000000), wk =   0.1111111
        k(    9) = (   0.0287924  -0.0498700   0.0000000), wk =   0.1111111
        k(   10) = (   0.0287924  -0.0166233   0.0000000), wk =   0.1111111
        k(   11) = (   0.0575849   0.0332466   0.0000000), wk =   0.1111111
        k(   12) = (   0.0575849   0.0664933   0.0000000), wk =   0.1111111
        k(   13) = (   0.0575849   0.0997399   0.0000000), wk =   0.1111111
        k(   14) = (   0.0575849  -0.0664933   0.0000000), wk =   0.1111111
        k(   15) = (   0.0575849  -0.0332466   0.0000000), wk =   0.1111111
        k(   16) = (   0.0575849   0.0000000   0.0000000), wk =   0.1111111
        k(   17) = (  -0.0863773  -0.0498700   0.0000000), wk =   0.0555556
        k(   18) = (  -0.0863773  -0.0166233   0.0000000), wk =   0.1111111
        k(   19) = (  -0.0863773   0.0166233   0.0000000), wk =   0.1111111
        k(   20) = (  -0.0863773  -0.1496099   0.0000000), wk =   0.0555556

     Largest allocated arrays     est. size (Mb)     dimensions
     Largest temporary arrays     est. size (Mb)     dimensions

     Check: negative/imaginary core charge=   -0.000002    0.000000

     Initial potential from superposition of free atoms
     Check: negative starting charge=   -0.005299

     starting charge  205.49953, renormalised to  213.00000

     negative rho (up, down):  5.492E-03 0.000E+00

     *
     * You are using vdW-DF for exchange-correlation in this calculation.
     * Please cite the following three references that made this development
     * possible:
     *
     *   M. Dion, H. Rydberg, E. Schroder, D. C. Langreth, and
     *   B. I. Lundqvist, Phys. Rev. Lett. 92, 246401 (2004).
     *
     *   T. Thonhauser, V. R. Cooper, S. Li, A. Puzder, P. Hyldgaard, and
     *   D. C. Langreth, Phys. Rev. B 76, 125112 (2007).
     *
     *   G. Roman-Perez and J. M. Soler, Phys. Rev. Lett. 103, 096102 (2009).
     *
     *
     * If you are using vdW-DF2, please also cite:
     *
     *   K. Lee, E. D. Murray, L. Kong, B. I. Lundqvist, and
     *   D. C. Langreth, Phys. Rev. B 82, 081101(R) (2010).
     *
     *
     * If you are calculating the stress with vdW-DF, please also cite:
     *
     *   R. Sabatini, E. Kucukbenli, B. Kolb, T. Thonhauser, and
     *   S. de Gironcoli, J. Phys.: Condens. Matter 24, 424209 (2012).
     *

     Carrying out vdW-DF run using the following parameters:

     Nqs =      20    Nr_points =    1024   r_max =   100.000
     q_mesh =
               0.00001000     0.04494208     0.09755937     0.15916263
               0.23128650     0.31572767     0.41458969     0.53033537
               0.66584808     0.82450364     1.01025438     1.22772762
               1.48234092     1.78043706     2.12944203     2.53805004
               3.01644009     3.57652955     4.23227104     5.00000000

     Gradients computed in reciprocal space

     Adding external electric field

     Computed dipole along edir(3) :
        Dipole                0.0000 Ry au,          0.0000 Debye
        Dipole field          0.0000 Ry au

        Potential amp.       -0.0000 Ry
        Total length         45.5579 bohr

     Starting wfc are  147 randomized atomic wfcs

     Self-consistent Calculation

     iteration #  1     ecut=    36.75 Ry     beta=0.10
     Davidson diagonalization with overlap
     ethr =  1.00E-02,  avg # of iterations =  7.2

[...]

     total energy              =   -3189.30168672 Ry
     Harris-Foulkes estimate   =   -3207.58159154 Ry
     estimated scf accuracy    <     102.04989781 Ry

[...]

     End of self-consistent calculation

          k = 0.0000 0.0000 0.0000 ( 18235 PWs)   bands (ev):

   -90.8142 -90.8059 -90.8059 -90.6970 -90.6968 -90.6888 -90.6888 -90.6888
   -90.6888 -70.3775 -70.2838 -70.2838 -54.3495 -54.3357 -54.3357 -54.3099
   -54.3077 -54.3077 -54.2864 -54.2468 -54.2468 -54.2427 -54.2427 -54.2339
   -54.2332 -54.2241 -54.2241 -54.1970 -54.1951 -54.1518 -54.1518 -54.1492
   -54.1492 -54.1464 -54.1353 -54.1171 -54.1171 -54.1143 -54.1143 -41.7541
   -41.6614 -41.6614 -41.6412 -41.6407 -41.5956 -41.5956 -41.5955 -41.5955
    -5.3655  -4.6918  -4.5727  -4.4669  -4.4662  -4.3423  -4.3423  -4.3075
    -4.1966  -4.1966  -4.1898  -4.1284  -4.1284  -3.9893  -3.9893  -3.7021
    -3.4693  -3.4693  -3.3685  -3.3685  -3.2070  -3.1087  -3.0420  -2.8654
    -2.8654  -2.7803  -2.7803  -2.7546  -2.7546  -2.6638  -2.6165  -2.6165
    -2.5106  -2.4994  -2.4994  -2.3080  -2.3080  -2.2213  -2.2213  -2.0390
    -2.0390  -1.9191  -1.7586  -1.7586  -1.6696  -1.5705  -1.5305  -0.3120
     0.7019   0.9937   1.1091   1.1091   1.1140   1.1140   1.2376   1.2376
     1.3451   1.3451   1.5713   1.5713   1.6311   1.7069   1.7332   1.7332
     2.1211   2.1211   2.2613   3.0889   3.0889   3.3553   3.3553   3.3759
     3.5446   4.9194   5.2493   5.6263   5.8133   5.8133   6.1860   6.3318
     6.3318   6.5770   6.6674   7.1557   7.1557   7.2487   7.4533   8.9141

[...]

          k =-0.0864-0.0499 0.0000 ( 18208 PWs)   bands (ev):

[...]

     the Fermi energy is     1.3092 ev

!    total energy              =   -3198.04609622 Ry
     Harris-Foulkes estimate   =   -3198.04609700 Ry
     estimated scf accuracy    <       0.00000054 Ry

     The total energy is the sum of the following terms:

     one-electron contribution =  -23963.05472544 Ry
     hartree contribution      =   11972.33996239 Ry
     xc contribution           =    -340.20449239 Ry
     ewald contribution        =    9133.02304576 Ry
     electric field correction =       0.00000000 Ry
     smearing contrib. (-TS)   =      -0.14988653 Ry

     convergence has been achieved in  25 iterations

 BEEF-vdW xc energy contributions
           1 :   -294.773196891309
           2 :    266.605714557169
           3 :   -219.584159738836
           4 :    167.894817178674
           5 :   -124.438988582689
           6 :    96.1261587828571
           7 :   -82.6130152750820
[...]
     Using radial grid of  887 points,  6 beta functions with:
                l(1) =   0
                l(2) =   0
                l(3) =   1
                l(4) =   1
                l(5) =   2
                l(6) =   2
     Q(r) pseudized with  6 coefficients,  rinner =    1.300   1.300   1.300
                                                       1.300   1.300

     PseudoPot. # 2 for Cr read from file:
     /afs/slac.stanford.edu/u/if/mamunm/psp/gbrv1.5pbe/Cr.UPF
     MD5 check sum: 0d52af634a40206e4dee301ad30da4bf
     Pseudo is Ultrasoft + core correction, Zval = 14.0
     Generated by new atomic code, or converted to UPF format
     Using radial grid of  857 points,  6 beta functions with:
                l(1) =   0
                l(2) =   0
                l(3) =   1
                l(4) =   1
                l(5) =   2
                l(6) =   2
     Q(r) pseudized with  8 coefficients,  rinner =    0.950   0.950   0.950
                                                       0.950   0.950

     vdW kernel table read from file vdW_kernel_table
     MD5 check sum: 095c7af220d748ca6e76c0b4c6cfb241

     atomic species   valence    mass     pseudopotential
        Ag1           19.00   107.86820     Ag( 1.00)
        Cr1           14.00    51.99610     Cr( 1.00)

     No symmetry found

   Cartesian axes

     site n.     atom                  positions (alat units)
         1           Ag1 tau(   1) = (   0.0000000   0.0000000  10.0000000  )
         2           Ag1 tau(   2) = (  -1.4471391   2.5065184  10.0000000  )
         3           Ag1 tau(   3) = (   1.4471391   2.5065184  10.0000000  )
         4           Cr1 tau(   4) = (   2.8942781   0.0000000  10.0000000  )
         5           Ag1 tau(   5) = (   2.8942781   1.6710122  12.3631682  )
         6           Ag1 tau(   6) = (   1.4471391   4.1775306  12.3631682  )
         7           Ag1 tau(   7) = (  -1.4471391   4.1775306  12.3631682  )
         8           Cr1 tau(   8) = (   0.0000000   1.6710122  12.3631682  )
         9           Ag1 tau(   9) = (  -0.0000003   3.3263961  14.7656206  )
        10           Ag1 tau(  10) = (   1.4336047   0.8433207  14.7656195  )
        11           Ag1 tau(  11) = (   4.3549519   0.8433207  14.7656187  )
        12           Cr1 tau(  12) = (   2.8942781   3.3420240  14.5611695  )

     number of k points=    20  Fermi-Dirac smearing, width (Ry)=  0.0110
                       cart. coord. in units 2pi/alat
        k(    1) = (   0.0000000   0.0000000   0.0000000), wk =   0.0555556
        k(    2) = (   0.0000000   0.0332466   0.0000000), wk =   0.1111111
        k(    3) = (   0.0000000   0.0664933   0.0000000), wk =   0.1111111
        k(    4) = (   0.0000000  -0.0997399   0.0000000), wk =   0.0555556
        k(    5) = (   0.0287924   0.0166233   0.0000000), wk =   0.1111111
        k(    6) = (   0.0287924   0.0498700   0.0000000), wk =   0.1111111
        k(    7) = (   0.0287924   0.0831166   0.0000000), wk =   0.1111111
        k(    8) = (   0.0287924  -0.0831166   0.0000000), wk =   0.1111111
        k(    9) = (   0.0287924  -0.0498700   0.0000000), wk =   0.1111111
        k(   10) = (   0.0287924  -0.0166233   0.0000000), wk =   0.1111111
        k(   11) = (   0.0575849   0.0332466   0.0000000), wk =   0.1111111
        k(   12) = (   0.0575849   0.0664933   0.0000000), wk =   0.1111111
        k(   13) = (   0.0575849   0.0997399   0.0000000), wk =   0.1111111
        k(   14) = (   0.0575849  -0.0664933   0.0000000), wk =   0.1111111
        k(   15) = (   0.0575849  -0.0332466   0.0000000), wk =   0.1111111
        k(   16) = (   0.0575849   0.0000000   0.0000000), wk =   0.1111111
        k(   17) = (  -0.0863773  -0.0498700   0.0000000), wk =   0.0555556
        k(   18) = (  -0.0863773  -0.0166233   0.0000000), wk =   0.1111111
        k(   19) = (  -0.0863773   0.0166233   0.0000000), wk =   0.1111111
        k(   20) = (  -0.0863773  -0.1496099   0.0000000), wk =   0.0555556

     Largest allocated arrays     est. size (Mb)     dimensions
     Largest temporary arrays     est. size (Mb)     dimensions

     Check: negative/imaginary core charge=   -0.000002    0.000000

     Initial potential from superposition of free atoms
     Check: negative starting charge=   -0.005246

     starting charge  205.49953, renormalised to  213.00000

[...]

     *
     * You are using vdW-DF for exchange-correlation in this calculation.
     * Please cite the following three references that made this development
     * possible:
     *
     *   M. Dion, H. Rydberg, E. Schroder, D. C. Langreth, and
     *   B. I. Lundqvist, Phys. Rev. Lett. 92, 246401 (2004).
     *
     *   T. Thonhauser, V. R. Cooper, S. Li, A. Puzder, P. Hyldgaard, and
     *   D. C. Langreth, Phys. Rev. B 76, 125112 (2007).
     *
     *   G. Roman-Perez and J. M. Soler, Phys. Rev. Lett. 103, 096102 (2009).
     *
     *
     * If you are using vdW-DF2, please also cite:
     *
     *   K. Lee, E. D. Murray, L. Kong, B. I. Lundqvist, and
     *   D. C. Langreth, Phys. Rev. B 82, 081101(R) (2010).
     *
     *
     * If you are calculating the stress with vdW-DF, please also cite:
     *
     *   R. Sabatini, E. Kucukbenli, B. Kolb, T. Thonhauser, and
     *   S. de Gironcoli, J. Phys.: Condens. Matter 24, 424209 (2012).
     *

     Carrying out vdW-DF run using the following parameters:

     Nqs =      20    Nr_points =    1024   r_max =   100.000
     q_mesh =
               0.00001000     0.04494208     0.09755937     0.15916263
               0.23128650     0.31572767     0.41458969     0.53033537
               0.66584808     0.82450364     1.01025438     1.22772762
               1.48234092     1.78043706     2.12944203     2.53805004
               3.01644009     3.57652955     4.23227104     5.00000000

     Gradients computed in reciprocal space

[...]

     Starting wfc are  147 randomized atomic wfcs

     Self-consistent Calculation

[...]

     total energy              =   -3198.05153187 Ry
     Harris-Foulkes estimate   =   -3198.05153201 Ry
     estimated scf accuracy    <       0.00001250 Ry

     iteration # 23     ecut=    36.75 Ry     beta=0.10
     Davidson diagonalization with overlap
     ethr =  5.03E-09,  avg # of iterations =  1.5

[...]

     negative rho (up, down):  4.102E-03 0.000E+00

     Adding external electric field

     Computed dipole along edir(3) :
        Dipole               -0.0143 Ry au,         -0.0362 Debye
        Dipole field         -0.0000 Ry au

        Potential amp.        0.0034 Ry
        Total length         45.5579 bohr

     End of self-consistent calculation

[...]

          k = 0.0576 0.0000 0.0000 ( 18225 PWs)   bands (ev):

[...]

          k =-0.0864-0.1496 0.0000 ( 18208 PWs)   bands (ev):

   -90.8746 -90.8718 -90.8691 -90.7152 -90.7124 -90.7097 -90.6906 -90.6876
   -90.6850 -70.4089 -70.3116 -70.3077 -54.4098 -54.3908 -54.3821 -54.3785
   -54.3663 -54.3556 -54.3428 -54.3268 -54.2971 -54.2608 -54.2426 -54.2392
   -54.2340 -54.2211 -54.2190 -54.2104 -54.1983 -54.1976 -54.1738 -54.1731
   -54.1573 -54.1517 -54.1481 -54.1385 -54.1320 -54.1255 -54.1150 -41.7888
   -41.6917 -41.6912 -41.6663 -41.6623 -41.6255 -41.6250 -41.6217 -41.6212
    -4.4481  -4.2862  -4.2461  -4.1125  -4.0953  -4.0144  -3.9758  -3.9077
    -3.8965  -3.8863  -3.8060  -3.8031  -3.6323  -3.6082  -3.5997  -3.5649
    -3.5162  -3.4570  -3.3702  -3.2185  -3.1495  -3.1337  -3.1256  -3.0705
    -3.0195  -3.0029  -2.9671  -2.8954  -2.8853  -2.8619  -2.8237  -2.7751
    -2.7522  -2.7476  -2.6789  -2.6636  -2.6059  -2.5821  -2.5432  -2.4979
    -2.4752  -2.4399  -2.3959  -2.2172  -2.0794  -1.8823  -1.6961  -1.6869
    -1.0204  -0.4384   0.3433   0.5601   0.8208   0.9346   1.0110   1.0345
     1.1144   1.1542   1.2060   1.2288   1.2358   1.3718   1.4842   1.6418
     1.7057   2.1261   2.4483   2.8218   2.8624   3.3855   4.2839   4.3957
     4.9844   5.0637   6.2628   6.2809   6.8413   6.8622   7.0707   7.0769
     7.4675   7.4755   7.8904   8.0501   8.1076   8.1326   8.1536   8.2508

     the Fermi energy is     1.2813 ev

!    total energy              =   -3198.05153015 Ry
     Harris-Foulkes estimate   =   -3198.05153201 Ry
     estimated scf accuracy    <       0.00000036 Ry

     The total energy is the sum of the following terms:

     one-electron contribution =  -23963.81165414 Ry
     hartree contribution      =   11972.52032901 Ry
     xc contribution           =    -340.21656410 Ry
     ewald contribution        =    9133.60577557 Ry
     electric field correction =       0.00000053 Ry
     smearing contrib. (-TS)   =      -0.14941701 Ry

     convergence has been achieved in  23 iterations

 BEEF-vdW xc energy contributions
           1 :   -294.822620212968
           2 :    266.658520854264
           3 :   -219.641812661851
           4 :    167.954140334170
           5 :   -124.492888387476
           6 :    96.1693242164839
           7 :   -82.6464419696270
           8 :    78.4709174927888
           9 :   -76.9267816878452
          10 :    73.4022680717752
          11 :   -66.7725012124722
          12 :    58.6275754069471
          13 :   -51.3412751021331
          14 :    46.3411750662802
          15 :   -43.4921731074812
          16 :    41.6285573872070
          17 :   -39.5861708580256
          18 :    36.9414962608021
          19 :   -34.0558751570837
          20 :    31.5703776632249
          21 :   -29.8333655309549
          22 :    28.6741257438536
          23 :   -27.6066662286949
          24 :    26.2291458444221
          25 :   -24.5033708148979
          26 :    22.7412722154842
          27 :   -21.3566638981067
          28 :    20.5796299138638
          29 :   -20.3221999244226
          30 :    20.2563204912369
          31 :   -29.2921566342473
          32 :   -21.2516479615335

     Forces acting on atoms (Ry/au):

     negative rho (up, down):  4.102E-03 0.000E+00
     atom    1 type  1   force =     0.00000003    0.00661763   -0.00536085
     atom    2 type  1   force =     0.00573092   -0.00330878   -0.00536098
     atom    3 type  1   force =    -0.00573100   -0.00330877   -0.00536041
     atom    4 type  2   force =    -0.00000009    0.00000009    0.01780322
     atom    5 type  1   force =     0.00000039   -0.00621853   -0.00233707
     atom    6 type  1   force =    -0.00538543    0.00310936   -0.00233674
     atom    7 type  1   force =     0.00538546    0.00310878   -0.00233671
     atom    8 type  2   force =    -0.00000005    0.00000009    0.00401375
     atom    9 type  1   force =     0.00000022   -0.00000538    0.00035362
     atom   10 type  1   force =    -0.00000495    0.00000267    0.00035352
     atom   11 type  1   force =     0.00000471    0.00000252    0.00035342
     atom   12 type  2   force =    -0.00000022    0.00000032    0.00021524

     Total force =     0.026143     Total SCF correction =     0.002054

     entering subroutine stress ...

     negative rho (up, down):  4.102E-03 0.000E+00
          total   stress  (Ry/bohr**3)                   (kbar)     P=   -6.46
  -0.00005695  -0.00000000   0.00000000         -8.38     -0.00      0.00
  -0.00000000  -0.00005695  -0.00000000         -0.00     -8.38     -0.00
   0.00000000  -0.00000000  -0.00001782          0.00     -0.00     -2.62

 !ASE

     Writing output data file calc.save

     General routines

     Parallel routines

   This run was terminated on:  16:35:16  19Dec2018

   JOB DONE.
Job  /afs/slac/g/suncat/bin/suncat-tsmpirun -x LD_LIBRARY_PATH -wdir /scratch/qe773152_SMNZm pw.x -in pw.inp

TID   HOST_NAME   COMMAND_LINE            STATUS            TERMINATION_TIME
00000 suncat0277 pw.x -in pw.inp   Done                     12/19/2018 16:35:16
00001 suncat0277 pw.x -in pw.inp   Done                     12/19/2018 16:35:16
00002 suncat0277 pw.x -in pw.inp   Done                     12/19/2018 16:35:16
00003 suncat0277 pw.x -in pw.inp   Done                     12/19/2018 16:35:16
00004 suncat0277 pw.x -in pw.inp   Done                     12/19/2018 16:35:16
00005 suncat0277 pw.x -in pw.inp   Done                     12/19/2018 16:35:16
00006 suncat0277 pw.x -in pw.inp   Done                     12/19/2018 16:35:16
00007 suncat0277 pw.x -in pw.inp   Done                     12/19/2018 16:35:16
00008 suncat0276 pw.x -in pw.inp   Done                     12/19/2018 16:35:16
00009 suncat0276 pw.x -in pw.inp   Done                     12/19/2018 16:35:16
00010 suncat0276 pw.x -in pw.inp   Done                     12/19/2018 16:35:16
00011 suncat0276 pw.x -in pw.inp   Done                     12/19/2018 16:35:16
00012 suncat0276 pw.x -in pw.inp   Done                     12/19/2018 16:35:16
00013 suncat0276 pw.x -in pw.inp   Done                     12/19/2018 16:35:16
00014 suncat0276 pw.x -in pw.inp   Done                     12/19/2018 16:35:16
00015 suncat0276 pw.x -in pw.inp   Done                     12/19/2018 16:35:16
00016 suncat0274 pw.x -in pw.inp   Done                     12/19/2018 16:35:16
00017 suncat0274 pw.x -in pw.inp   Done                     12/19/2018 16:35:16
00018 suncat0274 pw.x -in pw.inp   Done                     12/19/2018 16:35:16
00019 suncat0274 pw.x -in pw.inp   Done                     12/19/2018 16:35:16
00020 suncat0274 pw.x -in pw.inp   Done                     12/19/2018 16:35:16
00021 suncat0274 pw.x -in pw.inp   Done                     12/19/2018 16:35:16
00022 suncat0274 pw.x -in pw.inp   Done                     12/19/2018 16:35:16
00023 suncat0274 pw.x -in pw.inp   Done                     12/19/2018 16:35:16
00024 suncat0273 pw.x -in pw.inp   Done                     12/19/2018 16:35:16
00025 suncat0273 pw.x -in pw.inp   Done                     12/19/2018 16:35:16
00026 suncat0273 pw.x -in pw.inp   Done                     12/19/2018 16:35:16
00027 suncat0273 pw.x -in pw.inp   Done                     12/19/2018 16:35:16
00028 suncat0273 pw.x -in pw.inp   Done                     12/19/2018 16:35:16
00029 suncat0273 pw.x -in pw.inp   Done                     12/19/2018 16:35:16
00030 suncat0273 pw.x -in pw.inp   Done                     12/19/2018 16:35:16
00031 suncat0273 pw.x -in pw.inp   Done                     12/19/2018 16:35:16
00032 suncat0272 pw.x -in pw.inp   Done                     12/19/2018 16:35:16
00033 suncat0272 pw.x -in pw.inp   Done                     12/19/2018 16:35:16
00034 suncat0272 pw.x -in pw.inp   Done                     12/19/2018 16:35:16
00035 suncat0272 pw.x -in pw.inp   Done                     12/19/2018 16:35:16
00036 suncat0272 pw.x -in pw.inp   Done                     12/19/2018 16:35:16
00037 suncat0272 pw.x -in pw.inp   Done                     12/19/2018 16:35:16
00038 suncat0272 pw.x -in pw.inp   Done                     12/19/2018 16:35:16
00039 suncat0272 pw.x -in pw.inp   Done                     12/19/2018 16:35:16
00040 suncat0271 pw.x -in pw.inp   Done                     12/19/2018 16:35:16
00041 suncat0271 pw.x -in pw.inp   Done                     12/19/2018 16:35:16
00042 suncat0271 pw.x -in pw.inp   Done                     12/19/2018 16:35:16
00043 suncat0271 pw.x -in pw.inp   Done                     12/19/2018 16:35:16
00044 suncat0271 pw.x -in pw.inp   Done                     12/19/2018 16:35:16
00045 suncat0271 pw.x -in pw.inp   Done                     12/19/2018 16:35:16
00046 suncat0271 pw.x -in pw.inp   Done                     12/19/2018 16:35:16
00047 suncat0271 pw.x -in pw.inp   Done                     12/19/2018 16:35:16
00048 suncat0270 pw.x -in pw.inp   Done                     12/19/2018 16:35:16
00049 suncat0270 pw.x -in pw.inp   Done                     12/19/2018 16:35:16
00050 suncat0270 pw.x -in pw.inp   Done                     12/19/2018 16:35:16
00051 suncat0270 pw.x -in pw.inp   Done                     12/19/2018 16:35:16
00052 suncat0270 pw.x -in pw.inp   Done                     12/19/2018 16:35:16
00053 suncat0270 pw.x -in pw.inp   Done                     12/19/2018 16:35:16
00054 suncat0270 pw.x -in pw.inp   Done                     12/19/2018 16:35:16
00055 suncat0270 pw.x -in pw.inp   Done                     12/19/2018 16:35:16
00056 suncat0268 pw.x -in pw.inp   Done                     12/19/2018 16:35:16
00057 suncat0268 pw.x -in pw.inp   Done                     12/19/2018 16:35:16
00058 suncat0268 pw.x -in pw.inp   Done                     12/19/2018 16:35:16
00059 suncat0268 pw.x -in pw.inp   Done                     12/19/2018 16:35:16
00060 suncat0268 pw.x -in pw.inp   Done                     12/19/2018 16:35:16
00061 suncat0268 pw.x -in pw.inp   Done                     12/19/2018 16:35:16
00062 suncat0268 pw.x -in pw.inp   Done                     12/19/2018 16:35:16
00063 suncat0268 pw.x -in pw.inp   Done                     12/19/2018 16:35:16