     Program PWSCF v.5.1rc2 (svn rev. 11289) starts on 25Dec2018 at 18:17: 4

     Current dimensions of program PWSCF are:
     Max number of different atomic species (ntypx) = 10
     Max number of k-points (npk) =  40000
     Max angular momentum in pseudopotentials (lmaxx) =  3
     Presently stress not available with electric field

     IMPORTANT: XC functional enforced from input :
     Exchange-correlation      = BEEF-VDW ( 1  4 27 13 2)
     Any further DFT definition will be discarded
     Please, verify this is what you really want

     Subspace diagonalization in iterative solution of the eigenvalue problem:
     a serial algorithm will be used

     bravais-lattice index     =            0
     lattice parameter (alat)  =       1.8897  a.u.
     unit-cell volume          =    4402.2424 (a.u.)^3
     number of atoms/cell      =           12
     number of atomic types    =            2
     number of electrons       =       204.00
     number of Kohn-Sham states=          132
     kinetic-energy cutoff     =      36.7493  Ry
     charge density cutoff     =     367.4932  Ry
     convergence threshold     =      1.0E-06
     mixing beta               =       0.1000
     number of iterations used =           10  plain     mixing
     Exchange-correlation      = BEEF-VDW ( 1  4 27 13 2)
     nstep                     =           50

     celldm(1)=   1.889726  celldm(2)=   0.000000  celldm(3)=   0.000000
     celldm(4)=   0.000000  celldm(5)=   0.000000  celldm(6)=   0.000000

     crystal axes: (cart. coord. in units of alat)
               a(1) = (   5.542025   0.000000   0.000000 )
               a(2) = (  -2.771012   4.799534   0.000000 )
               a(3) = (   0.000000   0.000000  24.525044 )

     reciprocal axes: (cart. coord. in units 2 pi/alat)
               b(1) = (  0.180439  0.104177  0.000000 )
               b(2) = (  0.000000  0.208354  0.000000 )
               b(3) = (  0.000000  0.000000  0.040775 )

     PseudoPot. # 1 for Cu read from file:
     /afs/slac.stanford.edu/u/if/mamunm/psp/gbrv1.5pbe/Cu.UPF
     MD5 check sum: 6e991ff952a84172a2a52a1c1e996048
     Pseudo is Ultrasoft + core correction, Zval = 19.0
     Generated by new atomic code, or converted to UPF format
     Using radial grid of  867 points,  6 beta functions with:
                l(1) =   0
                l(2) =   0
                l(3) =   1
                l(4) =   1
                l(5) =   2
                l(6) =   2
     Q(r) pseudized with  8 coefficients,  rinner =    1.150   1.150   1.150
                                                       1.150   1.150

     PseudoPot. # 2 for Sc read from file:
     /afs/slac.stanford.edu/u/if/mamunm/psp/gbrv1.5pbe/Sc.UPF
     MD5 check sum: db30a2753ba66ef00f23801d899b7e7f
     Pseudo is Ultrasoft + core correction, Zval = 11.0
     Generated by new atomic code, or converted to UPF format
     Using radial grid of  849 points,  6 beta functions with:
                l(1) =   0
                l(2) =   0
                l(3) =   1
                l(4) =   1
                l(5) =   2
                l(6) =   2
     Q(r) pseudized with  6 coefficients,  rinner =    1.200   1.200   1.200
                                                       1.200   1.200

     vdW kernel table read from file vdW_kernel_table
     MD5 check sum: 095c7af220d748ca6e76c0b4c6cfb241

     atomic species   valence    mass     pseudopotential
        Cu1           19.00    63.54600     Cu( 1.00)
        Sc1           11.00    44.95591     Sc( 1.00)

     No symmetry found

   Cartesian axes

     site n.     atom                  positions (alat units)
         1           Cu1 tau(   1) = (   0.0000000   0.0000000  10.0000000  )
         2           Cu1 tau(   2) = (  -1.3855062   2.3997671  10.0000000  )
         3           Cu1 tau(   3) = (   1.3855062   2.3997671  10.0000000  )
         4           Sc1 tau(   4) = (   2.7710124   0.0000000  10.0000000  )
         5           Cu1 tau(   5) = (   2.7710124   1.5998447  12.2625221  )
         6           Cu1 tau(   6) = (   1.3855062   3.9996118  12.2625221  )
         7           Cu1 tau(   7) = (  -1.3855062   3.9996118  12.2625221  )
         8           Sc1 tau(   8) = (   0.0000000   1.5998447  12.2625221  )
         9           Cu1 tau(   9) = (  -0.0000000   3.1996895  14.5250443  )
        10           Cu1 tau(  10) = (   1.3855062   0.7999224  14.5250443  )
        11           Cu1 tau(  11) = (   4.1565186   0.7999224  14.5250443  )
        12           Sc1 tau(  12) = (   2.7710124   3.1996895  14.5250443  )

     number of k points=    20  Fermi-Dirac smearing, width (Ry)=  0.0110
                       cart. coord. in units 2pi/alat
        k(    1) = (   0.0000000   0.0000000   0.0000000), wk =   0.0555556
        k(    2) = (   0.0000000   0.0347256   0.0000000), wk =   0.1111111
        k(    3) = (   0.0000000   0.0694512   0.0000000), wk =   0.1111111
        k(    4) = (   0.0000000  -0.1041768   0.0000000), wk =   0.0555556
        k(    5) = (   0.0300732   0.0173628   0.0000000), wk =   0.1111111
        k(    6) = (   0.0300732   0.0520884   0.0000000), wk =   0.1111111
        k(    7) = (   0.0300732   0.0868140   0.0000000), wk =   0.1111111
        k(    8) = (   0.0300732  -0.0868140   0.0000000), wk =   0.1111111
        k(    9) = (   0.0300732  -0.0520884   0.0000000), wk =   0.1111111
        k(   10) = (   0.0300732  -0.0173628   0.0000000), wk =   0.1111111
        k(   11) = (   0.0601465   0.0347256   0.0000000), wk =   0.1111111
        k(   12) = (   0.0601465   0.0694512   0.0000000), wk =   0.1111111
        k(   13) = (   0.0601465   0.1041768   0.0000000), wk =   0.1111111
        k(   14) = (   0.0601465  -0.0694512   0.0000000), wk =   0.1111111
        k(   15) = (   0.0601465  -0.0347256   0.0000000), wk =   0.1111111
        k(   16) = (   0.0601465  -0.0000000   0.0000000), wk =   0.1111111
        k(   17) = (  -0.0902197  -0.0520884   0.0000000), wk =   0.0555556
        k(   18) = (  -0.0902197  -0.0173628   0.0000000), wk =   0.1111111
        k(   19) = (  -0.0902197   0.0173628   0.0000000), wk =   0.1111111
        k(   20) = (  -0.0902197  -0.1562652   0.0000000), wk =   0.0555556

     Largest allocated arrays     est. size (Mb)     dimensions
     Largest temporary arrays     est. size (Mb)     dimensions

     Initial potential from superposition of free atoms
     Check: negative starting charge=   -0.000187

     starting charge  194.99278, renormalised to  204.00000

     negative rho (up, down):  1.956E-04 0.000E+00

     *
     * You are using vdW-DF for exchange-correlation in this calculation.
     * Please cite the following three references that made this development
     * possible:
     *
     *   M. Dion, H. Rydberg, E. Schroder, D. C. Langreth, and
     *   B. I. Lundqvist, Phys. Rev. Lett. 92, 246401 (2004).
     *
     *   T. Thonhauser, V. R. Cooper, S. Li, A. Puzder, P. Hyldgaard, and
     *   D. C. Langreth, Phys. Rev. B 76, 125112 (2007).
     *
     *   G. Roman-Perez and J. M. Soler, Phys. Rev. Lett. 103, 096102 (2009).
     *
     *
     * If you are using vdW-DF2, please also cite:
     *
     *   K. Lee, E. D. Murray, L. Kong, B. I. Lundqvist, and
     *   D. C. Langreth, Phys. Rev. B 82, 081101(R) (2010).
     *
     *
     * If you are calculating the stress with vdW-DF, please also cite:
     *
     *   R. Sabatini, E. Kucukbenli, B. Kolb, T. Thonhauser, and
     *   S. de Gironcoli, J. Phys.: Condens. Matter 24, 424209 (2012).
     *

     Carrying out vdW-DF run using the following parameters:

     Nqs =      20    Nr_points =    1024   r_max =   100.000
     q_mesh =
               0.00001000     0.04494208     0.09755937     0.15916263
               0.23128650     0.31572767     0.41458969     0.53033537
               0.66584808     0.82450364     1.01025438     1.22772762
               1.48234092     1.78043706     2.12944203     2.53805004
               3.01644009     3.57652955     4.23227104     5.00000000

     Gradients computed in reciprocal space

     Adding external electric field

     Computed dipole along edir(3) :
        Dipole                0.0000 Ry au,          0.0000 Debye
        Dipole field          0.0000 Ry au

        Potential amp.       -0.0000 Ry
        Total length         45.1870 bohr

     Starting wfc are  156 randomized atomic wfcs

     Self-consistent Calculation

     iteration #  1     ecut=    36.75 Ry     beta=0.10
     Davidson diagonalization with overlap
     ethr =  1.00E-02,  avg # of iterations =  6.8

[...]

     total energy              =   -3926.48776252 Ry
     Harris-Foulkes estimate   =   -3934.36311985 Ry
     estimated scf accuracy    <      44.76078039 Ry

[...]

     End of self-consistent calculation

          k = 0.0000 0.0000 0.0000 ( 16523 PWs)   bands (ev):

  -112.2985-112.2964-112.2964-112.0596-112.0595-112.0576-112.0576-112.0575
  -112.0575 -69.7437 -69.7344 -69.7344 -69.7193 -69.7193 -69.7105 -69.6075
   -69.5917 -69.5917 -69.5587 -69.5587 -69.5581 -69.5581 -69.5487 -69.5486
   -69.4396 -69.4395 -69.4234 -69.4234 -69.4233 -69.4233 -69.3710 -69.3705
   -69.3606 -69.3606 -69.3604 -69.3604 -49.8528 -49.8526 -49.4092 -28.5077
   -28.5055 -28.3941 -28.3941 -28.3938 -28.3938 -28.0134 -28.0134 -27.9817
    -6.6003  -5.0259  -3.9481  -3.6219  -3.6219  -3.4946  -3.4946  -3.3706
    -3.3049  -3.1471  -3.1471  -3.1351  -3.1351  -3.0972  -3.0297  -2.5909
    -2.5894  -2.5894  -2.5417  -2.5417  -2.3930  -2.3911  -2.2902  -2.2902
    -2.2828  -2.2584  -2.1684  -2.1684  -2.1121  -2.1121  -2.0524  -2.0524
    -1.9929  -1.9929  -1.9133  -1.7665  -1.7665  -1.7006  -1.7006  -1.6848
    -1.6848  -1.6665  -1.5342  -1.4747  -1.4747  -1.3805  -1.3672  -1.2184
    -0.0600   0.3640   0.3640   0.4253   0.4253   0.5867   0.6038   1.0304
     1.0304   1.2262   1.2262   1.4568   1.8879   2.0555   2.0555   2.0719
     2.0719   2.5420   2.5420   3.2091   3.2091   3.2634   3.5307   3.6594
     3.6594   4.1187   4.2654   4.7929   5.6396   5.6396   5.6498   5.6760
     5.6760   6.2834   6.6541   6.6541

[...]

          k =-0.0902-0.0521 0.0000 ( 16548 PWs)   bands (ev):

[...]

     the Fermi energy is     0.6076 ev

!    total energy              =   -3928.92474955 Ry
     Harris-Foulkes estimate   =   -3928.92474205 Ry
     estimated scf accuracy    <       0.00000077 Ry

     The total energy is the sum of the following terms:

     one-electron contribution =  -25884.61777181 Ry
     hartree contribution      =   12947.38815329 Ry
     xc contribution           =    -401.28503028 Ry
     ewald contribution        =    9409.63777413 Ry
     electric field correction =       0.00000000 Ry
     smearing contrib. (-TS)   =      -0.04787488 Ry

     convergence has been achieved in  18 iterations

 BEEF-vdW xc energy contributions
           1 :   -354.100095953745
           2 :    319.978045107572
           3 :   -262.716825422491
           4 :    198.813979070004
           5 :   -142.814747357557
           6 :    101.983469547571
           7 :   -75.4728825424408
           8 :    57.5424157156868
           9 :   -42.3145789040633
          10 :    27.1756755051785
[...]
     Using radial grid of  867 points,  6 beta functions with:
                l(1) =   0
                l(2) =   0
                l(3) =   1
                l(4) =   1
                l(5) =   2
                l(6) =   2
     Q(r) pseudized with  8 coefficients,  rinner =    1.150   1.150   1.150
                                                       1.150   1.150

     PseudoPot. # 2 for Sc read from file:
     /afs/slac.stanford.edu/u/if/mamunm/psp/gbrv1.5pbe/Sc.UPF
     MD5 check sum: db30a2753ba66ef00f23801d899b7e7f
     Pseudo is Ultrasoft + core correction, Zval = 11.0
     Generated by new atomic code, or converted to UPF format
     Using radial grid of  849 points,  6 beta functions with:
                l(1) =   0
                l(2) =   0
                l(3) =   1
                l(4) =   1
                l(5) =   2
                l(6) =   2
     Q(r) pseudized with  6 coefficients,  rinner =    1.200   1.200   1.200
                                                       1.200   1.200

     vdW kernel table read from file vdW_kernel_table
     MD5 check sum: 095c7af220d748ca6e76c0b4c6cfb241

     atomic species   valence    mass     pseudopotential
        Cu1           19.00    63.54600     Cu( 1.00)
        Sc1           11.00    44.95591     Sc( 1.00)

     No symmetry found

   Cartesian axes

     site n.     atom                  positions (alat units)
         1           Cu1 tau(   1) = (   0.0000000   0.0000000  10.0000000  )
         2           Cu1 tau(   2) = (  -1.3855062   2.3997671  10.0000000  )
         3           Cu1 tau(   3) = (   1.3855062   2.3997671  10.0000000  )
         4           Sc1 tau(   4) = (   2.7710124   0.0000000  10.0000000  )
         5           Cu1 tau(   5) = (   2.7710124   1.5998447  12.2625221  )
         6           Cu1 tau(   6) = (   1.3855062   3.9996118  12.2625221  )
         7           Cu1 tau(   7) = (  -1.3855062   3.9996118  12.2625221  )
         8           Sc1 tau(   8) = (   0.0000000   1.5998447  12.2625221  )
         9           Cu1 tau(   9) = (   0.0000153   3.2826028  14.3996838  )
        10           Cu1 tau(  10) = (   1.4572803   0.7584865  14.3995389  )
        11           Cu1 tau(  11) = (   4.0847031   0.7584667  14.3995447  )
        12           Sc1 tau(  12) = (   2.7710182   3.1996859  14.6194638  )

     number of k points=    20  Fermi-Dirac smearing, width (Ry)=  0.0110
                       cart. coord. in units 2pi/alat
        k(    1) = (   0.0000000   0.0000000   0.0000000), wk =   0.0555556
        k(    2) = (   0.0000000   0.0347256   0.0000000), wk =   0.1111111
        k(    3) = (   0.0000000   0.0694512   0.0000000), wk =   0.1111111
        k(    4) = (   0.0000000  -0.1041768   0.0000000), wk =   0.0555556
        k(    5) = (   0.0300732   0.0173628   0.0000000), wk =   0.1111111
        k(    6) = (   0.0300732   0.0520884   0.0000000), wk =   0.1111111
        k(    7) = (   0.0300732   0.0868140   0.0000000), wk =   0.1111111
        k(    8) = (   0.0300732  -0.0868140   0.0000000), wk =   0.1111111
        k(    9) = (   0.0300732  -0.0520884   0.0000000), wk =   0.1111111
        k(   10) = (   0.0300732  -0.0173628   0.0000000), wk =   0.1111111
        k(   11) = (   0.0601465   0.0347256   0.0000000), wk =   0.1111111
        k(   12) = (   0.0601465   0.0694512   0.0000000), wk =   0.1111111
        k(   13) = (   0.0601465   0.1041768   0.0000000), wk =   0.1111111
        k(   14) = (   0.0601465  -0.0694512   0.0000000), wk =   0.1111111
        k(   15) = (   0.0601465  -0.0347256   0.0000000), wk =   0.1111111
        k(   16) = (   0.0601465  -0.0000000   0.0000000), wk =   0.1111111
        k(   17) = (  -0.0902197  -0.0520884   0.0000000), wk =   0.0555556
        k(   18) = (  -0.0902197  -0.0173628   0.0000000), wk =   0.1111111
        k(   19) = (  -0.0902197   0.0173628   0.0000000), wk =   0.1111111
        k(   20) = (  -0.0902197  -0.1562652   0.0000000), wk =   0.0555556

     Largest allocated arrays     est. size (Mb)     dimensions
     Largest temporary arrays     est. size (Mb)     dimensions

     Initial potential from superposition of free atoms
     Check: negative starting charge=   -0.000182

     starting charge  194.99278, renormalised to  204.00000

[...]

     *
     * You are using vdW-DF for exchange-correlation in this calculation.
     * Please cite the following three references that made this development
     * possible:
     *
     *   M. Dion, H. Rydberg, E. Schroder, D. C. Langreth, and
     *   B. I. Lundqvist, Phys. Rev. Lett. 92, 246401 (2004).
     *
     *   T. Thonhauser, V. R. Cooper, S. Li, A. Puzder, P. Hyldgaard, and
     *   D. C. Langreth, Phys. Rev. B 76, 125112 (2007).
     *
     *   G. Roman-Perez and J. M. Soler, Phys. Rev. Lett. 103, 096102 (2009).
     *
     *
     * If you are using vdW-DF2, please also cite:
     *
     *   K. Lee, E. D. Murray, L. Kong, B. I. Lundqvist, and
     *   D. C. Langreth, Phys. Rev. B 82, 081101(R) (2010).
     *
     *
     * If you are calculating the stress with vdW-DF, please also cite:
     *
     *   R. Sabatini, E. Kucukbenli, B. Kolb, T. Thonhauser, and
     *   S. de Gironcoli, J. Phys.: Condens. Matter 24, 424209 (2012).
     *

     Carrying out vdW-DF run using the following parameters:

     Nqs =      20    Nr_points =    1024   r_max =   100.000
     q_mesh =
               0.00001000     0.04494208     0.09755937     0.15916263
               0.23128650     0.31572767     0.41458969     0.53033537
               0.66584808     0.82450364     1.01025438     1.22772762
               1.48234092     1.78043706     2.12944203     2.53805004
               3.01644009     3.57652955     4.23227104     5.00000000

     Gradients computed in reciprocal space

[...]

     Starting wfc are  156 randomized atomic wfcs

     Self-consistent Calculation

[...]

     total energy              =   -3928.93198591 Ry
     Harris-Foulkes estimate   =   -3928.93198572 Ry
     estimated scf accuracy    <       0.00000779 Ry

     iteration # 18     ecut=    36.75 Ry     beta=0.10
     Davidson diagonalization with overlap
     ethr =  3.82E-09,  avg # of iterations =  2.5

[...]

     negative rho (up, down):  8.723E-04 0.000E+00

     Adding external electric field

     Computed dipole along edir(3) :
        Dipole                0.0585 Ry au,          0.1487 Debye
        Dipole field          0.0002 Ry au

        Potential amp.       -0.0151 Ry
        Total length         45.1870 bohr

     End of self-consistent calculation

[...]

          k = 0.0601-0.0000 0.0000 ( 16526 PWs)   bands (ev):

[...]

          k =-0.0902-0.1563 0.0000 ( 16548 PWs)   bands (ev):

  -112.2155-112.2148-112.2141-112.0417-112.0398-112.0394-111.9971-111.9964
  -111.9957 -69.6452 -69.6402 -69.6398 -69.6388 -69.6386 -69.6339 -69.5336
   -69.5292 -69.5262 -69.5190 -69.5152 -69.5126 -69.4947 -69.4914 -69.4884
   -69.4315 -69.4202 -69.4172 -69.3717 -69.3665 -69.3615 -69.3552 -69.3462
   -69.3432 -69.3073 -69.3039 -69.3000 -49.8600 -49.7696 -49.2957 -28.5267
   -28.4226 -28.3883 -28.3861 -28.3159 -28.3135 -27.9124 -27.9099 -27.8671
    -5.1702  -4.9106  -3.7148  -3.6243  -3.3441  -3.1400  -3.1202  -3.0501
    -3.0204  -2.9986  -2.9070  -2.7923  -2.7743  -2.7341  -2.7269  -2.6736
    -2.6588  -2.5554  -2.5506  -2.4977  -2.4094  -2.3644  -2.2990  -2.2975
    -2.2689  -2.2381  -2.1954  -2.1838  -2.1555  -2.1390  -2.1330  -2.1212
    -2.1031  -2.0293  -2.0122  -1.9901  -1.9771  -1.9253  -1.9068  -1.9005
    -1.8581  -1.8555  -1.8021  -1.7341  -1.6132  -1.5839  -1.4452  -1.4151
    -1.3716  -1.1011  -0.2244  -0.0824  -0.0243   0.2049   0.5440   1.0382
     1.3484   1.3615   1.3934   1.5322   1.6573   1.8328   1.9836   2.1685
     2.2412   2.5350   3.0605   3.3779   3.9031   3.9773   4.0925   4.2753
     4.4468   5.0598   5.3818   5.4575   5.9307   5.9830   6.2634   6.2782
     6.5725   6.7015   7.1302   7.2510

     the Fermi energy is     0.6747 ev

!    total energy              =   -3928.93199445 Ry
     Harris-Foulkes estimate   =   -3928.93198633 Ry
     estimated scf accuracy    <       0.00000095 Ry

     The total energy is the sum of the following terms:

     one-electron contribution =  -26188.86883089 Ry
     hartree contribution      =   13099.94587312 Ry
     xc contribution           =    -401.32084010 Ry
     ewald contribution        =    9561.35987735 Ry
     electric field correction =       0.00000977 Ry
     smearing contrib. (-TS)   =      -0.04808371 Ry

     convergence has been achieved in  18 iterations

 BEEF-vdW xc energy contributions
           1 :   -354.144133344026
           2 :    320.066871574937
           3 :   -262.856575045397
           4 :    198.960869475938
           5 :   -142.903675514542
           6 :    101.980221144875
           7 :   -75.4072765857412
           8 :    57.4879542699599
           9 :   -42.3289406522861
          10 :    27.2537307351054
          11 :   -13.2989688104956
          12 :    3.16732033645053
          13 :    1.49393333955180
          14 :   -1.54366083753860
          15 :  -0.229753504278506
          16 :   0.985027632499055
          17 :   0.464033147161786
          18 :   -3.24293380856108
          19 :    5.41263715442597
          20 :   -5.51905114923250
          21 :    3.58907052931318
          22 :  -0.985880081800076
          23 :  -0.632888518504501
          24 :   0.449931744544529
          25 :    1.04836918710589
          26 :   -2.52232121932661
          27 :    2.75969435746413
          28 :   -1.48979997173564
          29 :  -0.498552638618662
          30 :    1.95987063478310
          31 :   -29.4891110818422
          32 :   -20.2327130757856

     Forces acting on atoms (Ry/au):

     negative rho (up, down):  8.723E-04 0.000E+00
     atom    1 type  1   force =     0.00000185   -0.00771160    0.01172864
     atom    2 type  1   force =    -0.00667593    0.00385694    0.01172743
     atom    3 type  1   force =     0.00667526    0.00385638    0.01172808
     atom    4 type  2   force =    -0.00000050   -0.00000075   -0.00830445
     atom    5 type  1   force =    -0.00000436    0.00567177   -0.00335519
     atom    6 type  1   force =     0.00491211   -0.00283808   -0.00334769
     atom    7 type  1   force =    -0.00490884   -0.00283362   -0.00335127
     atom    8 type  2   force =    -0.00000080    0.00000597   -0.01123315
     atom    9 type  1   force =    -0.00000106   -0.00001097   -0.00137247
     atom   10 type  1   force =    -0.00000665    0.00000294   -0.00135420
     atom   11 type  1   force =     0.00000919   -0.00000135   -0.00135877
     atom   12 type  2   force =    -0.00000027    0.00000236   -0.00150694

     Total force =     0.030400     Total SCF correction =     0.003257
     SCF correction compared to forces is large: reduce conv_thr to get better values

     entering subroutine stress ...

     negative rho (up, down):  8.723E-04 0.000E+00
          total   stress  (Ry/bohr**3)                   (kbar)     P=  -15.84
  -0.00012659   0.00000000   0.00000000        -18.62      0.00      0.00
   0.00000000  -0.00012659  -0.00000000          0.00    -18.62     -0.00
   0.00000000  -0.00000000  -0.00006980          0.00     -0.00    -10.27

 !ASE

     Writing output data file calc.save

     General routines

     Parallel routines

   This run was terminated on:  19:36:29  25Dec2018

   JOB DONE.
Job  /afs/slac/g/suncat/bin/suncat-tsmpirun -x LD_LIBRARY_PATH -wdir /scratch/qe109592_w21Cz pw.x -in pw.inp

TID   HOST_NAME   COMMAND_LINE            STATUS            TERMINATION_TIME
00000 suncat0024 pw.x -in pw.inp   Done                     12/25/2018 19:36:29
00001 suncat0024 pw.x -in pw.inp   Done                     12/25/2018 19:36:29
00002 suncat0024 pw.x -in pw.inp   Done                     12/25/2018 19:36:29
00003 suncat0024 pw.x -in pw.inp   Done                     12/25/2018 19:36:29
00004 suncat0024 pw.x -in pw.inp   Done                     12/25/2018 19:36:29
00005 suncat0024 pw.x -in pw.inp   Done                     12/25/2018 19:36:29
00006 suncat0024 pw.x -in pw.inp   Done                     12/25/2018 19:36:29
00007 suncat0024 pw.x -in pw.inp   Done                     12/25/2018 19:36:29
00008 suncat0023 pw.x -in pw.inp   Done                     12/25/2018 19:36:29
00009 suncat0023 pw.x -in pw.inp   Done                     12/25/2018 19:36:29
00010 suncat0023 pw.x -in pw.inp   Done                     12/25/2018 19:36:29
00011 suncat0023 pw.x -in pw.inp   Done                     12/25/2018 19:36:29
00012 suncat0023 pw.x -in pw.inp   Done                     12/25/2018 19:36:29
00013 suncat0023 pw.x -in pw.inp   Done                     12/25/2018 19:36:29
00014 suncat0023 pw.x -in pw.inp   Done                     12/25/2018 19:36:29
00015 suncat0023 pw.x -in pw.inp   Done                     12/25/2018 19:36:29
00016 suncat0022 pw.x -in pw.inp   Done                     12/25/2018 19:36:29
00017 suncat0022 pw.x -in pw.inp   Done                     12/25/2018 19:36:29
00018 suncat0022 pw.x -in pw.inp   Done                     12/25/2018 19:36:29
00019 suncat0022 pw.x -in pw.inp   Done                     12/25/2018 19:36:29
00020 suncat0022 pw.x -in pw.inp   Done                     12/25/2018 19:36:29
00021 suncat0022 pw.x -in pw.inp   Done                     12/25/2018 19:36:29
00022 suncat0022 pw.x -in pw.inp   Done                     12/25/2018 19:36:29
00023 suncat0022 pw.x -in pw.inp   Done                     12/25/2018 19:36:29
00024 suncat0018 pw.x -in pw.inp   Done                     12/25/2018 19:36:29
00025 suncat0018 pw.x -in pw.inp   Done                     12/25/2018 19:36:29
00026 suncat0018 pw.x -in pw.inp   Done                     12/25/2018 19:36:29
00027 suncat0018 pw.x -in pw.inp   Done                     12/25/2018 19:36:29
00028 suncat0018 pw.x -in pw.inp   Done                     12/25/2018 19:36:29
00029 suncat0018 pw.x -in pw.inp   Done                     12/25/2018 19:36:29
00030 suncat0018 pw.x -in pw.inp   Done                     12/25/2018 19:36:29
00031 suncat0018 pw.x -in pw.inp   Done                     12/25/2018 19:36:29
00032 suncat0017 pw.x -in pw.inp   Done                     12/25/2018 19:36:29
00033 suncat0017 pw.x -in pw.inp   Done                     12/25/2018 19:36:29
00034 suncat0017 pw.x -in pw.inp   Done                     12/25/2018 19:36:29
00035 suncat0017 pw.x -in pw.inp   Done                     12/25/2018 19:36:29
00036 suncat0017 pw.x -in pw.inp   Done                     12/25/2018 19:36:29
00037 suncat0017 pw.x -in pw.inp   Done                     12/25/2018 19:36:29
00038 suncat0017 pw.x -in pw.inp   Done                     12/25/2018 19:36:29
00039 suncat0017 pw.x -in pw.inp   Done                     12/25/2018 19:36:29
00040 suncat0016 pw.x -in pw.inp   Done                     12/25/2018 19:36:29
00041 suncat0016 pw.x -in pw.inp   Done                     12/25/2018 19:36:29
00042 suncat0016 pw.x -in pw.inp   Done                     12/25/2018 19:36:29
00043 suncat0016 pw.x -in pw.inp   Done                     12/25/2018 19:36:29
00044 suncat0016 pw.x -in pw.inp   Done                     12/25/2018 19:36:29
00045 suncat0016 pw.x -in pw.inp   Done                     12/25/2018 19:36:29
00046 suncat0016 pw.x -in pw.inp   Done                     12/25/2018 19:36:29
00047 suncat0016 pw.x -in pw.inp   Done                     12/25/2018 19:36:29
00048 suncat0014 pw.x -in pw.inp   Done                     12/25/2018 19:36:29
00049 suncat0014 pw.x -in pw.inp   Done                     12/25/2018 19:36:29
00050 suncat0014 pw.x -in pw.inp   Done                     12/25/2018 19:36:29
00051 suncat0014 pw.x -in pw.inp   Done                     12/25/2018 19:36:29
00052 suncat0014 pw.x -in pw.inp   Done                     12/25/2018 19:36:29
00053 suncat0014 pw.x -in pw.inp   Done                     12/25/2018 19:36:29
00054 suncat0014 pw.x -in pw.inp   Done                     12/25/2018 19:36:29
00055 suncat0014 pw.x -in pw.inp   Done                     12/25/2018 19:36:29
00056 suncat0198 pw.x -in pw.inp   Done                     12/25/2018 19:36:29
00057 suncat0198 pw.x -in pw.inp   Done                     12/25/2018 19:36:29
00058 suncat0198 pw.x -in pw.inp   Done                     12/25/2018 19:36:29
00059 suncat0198 pw.x -in pw.inp   Done                     12/25/2018 19:36:29
00060 suncat0198 pw.x -in pw.inp   Done                     12/25/2018 19:36:29
00061 suncat0198 pw.x -in pw.inp   Done                     12/25/2018 19:36:29
00062 suncat0198 pw.x -in pw.inp   Done                     12/25/2018 19:36:29
00063 suncat0198 pw.x -in pw.inp   Done                     12/25/2018 19:36:29