     Program PWSCF v.5.1rc2 (svn rev. 11289) starts on 19Dec2018 at 20:58:55

     Current dimensions of program PWSCF are:
     Max number of different atomic species (ntypx) = 10
     Max number of k-points (npk) =  40000
     Max angular momentum in pseudopotentials (lmaxx) =  3
     Presently stress not available with electric field

     IMPORTANT: XC functional enforced from input :
     Exchange-correlation      = BEEF-VDW ( 1  4 27 13 2)
     Any further DFT definition will be discarded
     Please, verify this is what you really want

     Subspace diagonalization in iterative solution of the eigenvalue problem:
     a serial algorithm will be used

     Generating pointlists ...
     new r_m :   0.4125 (alat units)  0.7795 (a.u.) for type    1
     new r_m :   0.4125 (alat units)  0.7795 (a.u.) for type    2

     bravais-lattice index     =            0
     lattice parameter (alat)  =       1.8897  a.u.
     unit-cell volume          =    5513.3288 (a.u.)^3
     number of atoms/cell      =           12
     number of atomic types    =            2
     number of electrons       =       153.00
     number of Kohn-Sham states=          106
     kinetic-energy cutoff     =      36.7493  Ry
     charge density cutoff     =     367.4932  Ry
     convergence threshold     =      1.0E-06
     mixing beta               =       0.1000
     number of iterations used =           10  plain     mixing
     Exchange-correlation      = BEEF-VDW ( 1  4 27 13 2)
     nstep                     =           50

     celldm(1)=   1.889726  celldm(2)=   0.000000  celldm(3)=   0.000000
     celldm(4)=   0.000000  celldm(5)=   0.000000  celldm(6)=   0.000000

     crystal axes: (cart. coord. in units of alat)
               a(1) = (   6.141151   0.000000   0.000000 )
               a(2) = (  -3.070575   5.318393   0.000000 )
               a(3) = (   0.000000   0.000000  25.014229 )

     reciprocal axes: (cart. coord. in units 2 pi/alat)
               b(1) = (  0.162836  0.094013  0.000000 )
               b(2) = (  0.000000  0.188027  0.000000 )
               b(3) = (  0.000000  0.000000  0.039977 )

     PseudoPot. # 1 for Cd read from file:
     /afs/slac.stanford.edu/u/if/mamunm/psp/gbrv1.5pbe/Cd.UPF
     MD5 check sum: 17164a7926edb8e0dc231208abae86a6
     Pseudo is Ultrasoft + core correction, Zval = 12.0
     Generated by new atomic code, or converted to UPF format
     Using radial grid of  889 points,  6 beta functions with:
                l(1) =   0
                l(2) =   0
                l(3) =   1
                l(4) =   1
                l(5) =   2
                l(6) =   2
     Q(r) pseudized with  6 coefficients,  rinner =    1.000   1.000   1.000
                                                       1.000   1.000

     PseudoPot. # 2 for Mn read from file:
     /afs/slac.stanford.edu/u/if/mamunm/psp/gbrv1.5pbe/Mn.UPF
     MD5 check sum: 82ef2b46521d7a7d9e736dc3972e4928
     Pseudo is Ultrasoft + core correction, Zval = 15.0
     Generated by new atomic code, or converted to UPF format
     Using radial grid of  859 points,  6 beta functions with:
                l(1) =   0
                l(2) =   0
                l(3) =   1
                l(4) =   1
                l(5) =   2
                l(6) =   2
     Q(r) pseudized with  8 coefficients,  rinner =    0.950   0.950   0.950
                                                       0.950   0.950

     vdW kernel table read from file vdW_kernel_table
     MD5 check sum: 095c7af220d748ca6e76c0b4c6cfb241

     atomic species   valence    mass     pseudopotential
        Cd1           12.00   112.41400     Cd( 1.00)
        Mn1           15.00    54.93804     Mn( 1.00)

     Starting magnetic structure
     atomic species   magnetization
        Cd1          0.167
        Mn1          0.133

     No symmetry found

   Cartesian axes

     site n.     atom                  positions (alat units)
         1           Cd1 tau(   1) = (   0.0000000   0.0000000  10.0000000  )
         2           Cd1 tau(   2) = (  -1.5352877   2.6591964  10.0000000  )
         3           Cd1 tau(   3) = (   1.5352877   2.6591964  10.0000000  )
         4           Mn1 tau(   4) = (   3.0705755   0.0000000  10.0000000  )
         5           Cd1 tau(   5) = (   3.0705755   1.7727976  12.5071144  )
         6           Cd1 tau(   6) = (   1.5352877   4.4319939  12.5071144  )
         7           Cd1 tau(   7) = (  -1.5352877   4.4319939  12.5071144  )
         8           Mn1 tau(   8) = (   0.0000000   1.7727976  12.5071144  )
         9           Cd1 tau(   9) = (  -0.0000000   3.5455952  15.0142287  )
        10           Cd1 tau(  10) = (   1.5352877   0.8863988  15.0142287  )
        11           Cd1 tau(  11) = (   4.6058632   0.8863988  15.0142287  )
        12           Mn1 tau(  12) = (   3.0705755   3.5455952  15.0142287  )

     number of k points=    40  Fermi-Dirac smearing, width (Ry)=  0.0110
                       cart. coord. in units 2pi/alat
        k(    1) = (   0.0000000   0.0000000   0.0000000), wk =   0.0277778
        k(    2) = (   0.0000000   0.0313378   0.0000000), wk =   0.0555556
        k(    3) = (   0.0000000   0.0626756   0.0000000), wk =   0.0555556
        k(    4) = (   0.0000000  -0.0940134   0.0000000), wk =   0.0277778
        k(    5) = (   0.0271393   0.0156689   0.0000000), wk =   0.0555556
        k(    6) = (   0.0271393   0.0470067   0.0000000), wk =   0.0555556
        k(    7) = (   0.0271393   0.0783445   0.0000000), wk =   0.0555556
        k(    8) = (   0.0271393  -0.0783445   0.0000000), wk =   0.0555556
        k(    9) = (   0.0271393  -0.0470067   0.0000000), wk =   0.0555556
        k(   10) = (   0.0271393  -0.0156689   0.0000000), wk =   0.0555556
        k(   11) = (   0.0542786   0.0313378   0.0000000), wk =   0.0555556
        k(   12) = (   0.0542786   0.0626756   0.0000000), wk =   0.0555556
        k(   13) = (   0.0542786   0.0940134   0.0000000), wk =   0.0555556
        k(   14) = (   0.0542786  -0.0626756   0.0000000), wk =   0.0555556
        k(   15) = (   0.0542786  -0.0313378   0.0000000), wk =   0.0555556
        k(   16) = (   0.0542786   0.0000000   0.0000000), wk =   0.0555556
        k(   17) = (  -0.0814180  -0.0470067   0.0000000), wk =   0.0277778
        k(   18) = (  -0.0814180  -0.0156689   0.0000000), wk =   0.0555556
        k(   19) = (  -0.0814180   0.0156689   0.0000000), wk =   0.0555556
        k(   20) = (  -0.0814180  -0.1410200   0.0000000), wk =   0.0277778
        k(   21) = (   0.0000000   0.0000000   0.0000000), wk =   0.0277778
        k(   22) = (   0.0000000   0.0313378   0.0000000), wk =   0.0555556
        k(   23) = (   0.0000000   0.0626756   0.0000000), wk =   0.0555556
        k(   24) = (   0.0000000  -0.0940134   0.0000000), wk =   0.0277778
        k(   25) = (   0.0271393   0.0156689   0.0000000), wk =   0.0555556
        k(   26) = (   0.0271393   0.0470067   0.0000000), wk =   0.0555556
        k(   27) = (   0.0271393   0.0783445   0.0000000), wk =   0.0555556
        k(   28) = (   0.0271393  -0.0783445   0.0000000), wk =   0.0555556
        k(   29) = (   0.0271393  -0.0470067   0.0000000), wk =   0.0555556
        k(   30) = (   0.0271393  -0.0156689   0.0000000), wk =   0.0555556
        k(   31) = (   0.0542786   0.0313378   0.0000000), wk =   0.0555556
        k(   32) = (   0.0542786   0.0626756   0.0000000), wk =   0.0555556
        k(   33) = (   0.0542786   0.0940134   0.0000000), wk =   0.0555556
        k(   34) = (   0.0542786  -0.0626756   0.0000000), wk =   0.0555556
        k(   35) = (   0.0542786  -0.0313378   0.0000000), wk =   0.0555556
        k(   36) = (   0.0542786   0.0000000   0.0000000), wk =   0.0555556
        k(   37) = (  -0.0814180  -0.0470067   0.0000000), wk =   0.0277778
        k(   38) = (  -0.0814180  -0.0156689   0.0000000), wk =   0.0555556
        k(   39) = (  -0.0814180   0.0156689   0.0000000), wk =   0.0555556
        k(   40) = (  -0.0814180  -0.1410200   0.0000000), wk =   0.0277778

     Largest allocated arrays     est. size (Mb)     dimensions
     Largest temporary arrays     est. size (Mb)     dimensions

     Check: negative/imaginary core charge=   -0.000002    0.000000

     Initial potential from superposition of free atoms
     Check: negative starting charge=(component1):   -0.117353
     Check: negative starting charge=(component2):   -0.083866

     starting charge  146.99937, renormalised to  153.00000

     negative rho (up, down):  1.221E-01 8.729E-02

     *
     * You are using vdW-DF for exchange-correlation in this calculation.
     * Please cite the following three references that made this development
     * possible:
     *
     *   M. Dion, H. Rydberg, E. Schroder, D. C. Langreth, and
     *   B. I. Lundqvist, Phys. Rev. Lett. 92, 246401 (2004).
     *
     *   T. Thonhauser, V. R. Cooper, S. Li, A. Puzder, P. Hyldgaard, and
     *   D. C. Langreth, Phys. Rev. B 76, 125112 (2007).
     *
     *   G. Roman-Perez and J. M. Soler, Phys. Rev. Lett. 103, 096102 (2009).
     *
     *
     * If you are using vdW-DF2, please also cite:
     *
     *   K. Lee, E. D. Murray, L. Kong, B. I. Lundqvist, and
     *   D. C. Langreth, Phys. Rev. B 82, 081101(R) (2010).
     *
     *
     * If you are calculating the stress with vdW-DF, please also cite:
     *
     *   R. Sabatini, E. Kucukbenli, B. Kolb, T. Thonhauser, and
     *   S. de Gironcoli, J. Phys.: Condens. Matter 24, 424209 (2012).
     *

     Carrying out vdW-DF run using the following parameters:

     Nqs =      20    Nr_points =    1024   r_max =   100.000
     q_mesh =
               0.00001000     0.04494208     0.09755937     0.15916263
               0.23128650     0.31572767     0.41458969     0.53033537
               0.66584808     0.82450364     1.01025438     1.22772762
               1.48234092     1.78043706     2.12944203     2.53805004
               3.01644009     3.57652955     4.23227104     5.00000000

     Gradients computed in reciprocal space

     Adding external electric field

     Computed dipole along edir(3) :
        Dipole                0.0000 Ry au,          0.0000 Debye
        Dipole field          0.0000 Ry au

        Potential amp.       -0.0000 Ry
        Total length         46.0883 bohr

[...]

     Starting wfc are  120 randomized atomic wfcs

     Self-consistent Calculation

     iteration #  1     ecut=    36.75 Ry     beta=0.10
     Davidson diagonalization with overlap
     ethr =  1.00E-02,  avg # of iterations =  8.3

[...]

     Magnetic moment per site:
     atom:    1    charge:    2.3396    magn:    0.3552    constr:    0.0000
     atom:    2    charge:    2.3396    magn:    0.3552    constr:    0.0000
     atom:    3    charge:    2.3396    magn:    0.3552    constr:    0.0000
     atom:    4    charge:    6.0578    magn:    0.7905    constr:    0.0000
     atom:    5    charge:    2.3397    magn:    0.3551    constr:    0.0000
     atom:    6    charge:    2.3397    magn:    0.3551    constr:    0.0000
     atom:    7    charge:    2.3397    magn:    0.3551    constr:    0.0000
     atom:    8    charge:    6.0645    magn:    0.7943    constr:    0.0000
[...]
        k(    1) = (   0.0000000   0.0000000   0.0000000), wk =   0.0277778
        k(    2) = (   0.0000000   0.0313378   0.0000000), wk =   0.0555556
        k(    3) = (   0.0000000   0.0626756   0.0000000), wk =   0.0555556
        k(    4) = (   0.0000000  -0.0940134   0.0000000), wk =   0.0277778
        k(    5) = (   0.0271393   0.0156689   0.0000000), wk =   0.0555556
        k(    6) = (   0.0271393   0.0470067   0.0000000), wk =   0.0555556
        k(    7) = (   0.0271393   0.0783445   0.0000000), wk =   0.0555556
        k(    8) = (   0.0271393  -0.0783445   0.0000000), wk =   0.0555556
        k(    9) = (   0.0271393  -0.0470067   0.0000000), wk =   0.0555556
        k(   10) = (   0.0271393  -0.0156689   0.0000000), wk =   0.0555556
        k(   11) = (   0.0542786   0.0313378   0.0000000), wk =   0.0555556
        k(   12) = (   0.0542786   0.0626756   0.0000000), wk =   0.0555556
        k(   13) = (   0.0542786   0.0940134   0.0000000), wk =   0.0555556
        k(   14) = (   0.0542786  -0.0626756   0.0000000), wk =   0.0555556
        k(   15) = (   0.0542786  -0.0313378   0.0000000), wk =   0.0555556
        k(   16) = (   0.0542786   0.0000000   0.0000000), wk =   0.0555556
        k(   17) = (  -0.0814180  -0.0470067   0.0000000), wk =   0.0277778
        k(   18) = (  -0.0814180  -0.0156689   0.0000000), wk =   0.0555556
        k(   19) = (  -0.0814180   0.0156689   0.0000000), wk =   0.0555556
        k(   20) = (  -0.0814180  -0.1410200   0.0000000), wk =   0.0277778
        k(   21) = (   0.0000000   0.0000000   0.0000000), wk =   0.0277778
        k(   22) = (   0.0000000   0.0313378   0.0000000), wk =   0.0555556
        k(   23) = (   0.0000000   0.0626756   0.0000000), wk =   0.0555556
        k(   24) = (   0.0000000  -0.0940134   0.0000000), wk =   0.0277778
        k(   25) = (   0.0271393   0.0156689   0.0000000), wk =   0.0555556
        k(   26) = (   0.0271393   0.0470067   0.0000000), wk =   0.0555556
        k(   27) = (   0.0271393   0.0783445   0.0000000), wk =   0.0555556
        k(   28) = (   0.0271393  -0.0783445   0.0000000), wk =   0.0555556
        k(   29) = (   0.0271393  -0.0470067   0.0000000), wk =   0.0555556
        k(   30) = (   0.0271393  -0.0156689   0.0000000), wk =   0.0555556
        k(   31) = (   0.0542786   0.0313378   0.0000000), wk =   0.0555556
        k(   32) = (   0.0542786   0.0626756   0.0000000), wk =   0.0555556
        k(   33) = (   0.0542786   0.0940134   0.0000000), wk =   0.0555556
        k(   34) = (   0.0542786  -0.0626756   0.0000000), wk =   0.0555556
        k(   35) = (   0.0542786  -0.0313378   0.0000000), wk =   0.0555556
        k(   36) = (   0.0542786   0.0000000   0.0000000), wk =   0.0555556
        k(   37) = (  -0.0814180  -0.0470067   0.0000000), wk =   0.0277778
        k(   38) = (  -0.0814180  -0.0156689   0.0000000), wk =   0.0555556
        k(   39) = (  -0.0814180   0.0156689   0.0000000), wk =   0.0555556
        k(   40) = (  -0.0814180  -0.1410200   0.0000000), wk =   0.0277778

     Largest allocated arrays     est. size (Mb)     dimensions
     Largest temporary arrays     est. size (Mb)     dimensions

     Check: negative/imaginary core charge=   -0.000002    0.000000

     Initial potential from superposition of free atoms
     Check: negative starting charge=(component1):   -0.115620
     Check: negative starting charge=(component2):   -0.082627

     starting charge  146.99937, renormalised to  153.00000

[...]

     *
     * You are using vdW-DF for exchange-correlation in this calculation.
     * Please cite the following three references that made this development
     * possible:
     *
     *   M. Dion, H. Rydberg, E. Schroder, D. C. Langreth, and
     *   B. I. Lundqvist, Phys. Rev. Lett. 92, 246401 (2004).
     *
     *   T. Thonhauser, V. R. Cooper, S. Li, A. Puzder, P. Hyldgaard, and
     *   D. C. Langreth, Phys. Rev. B 76, 125112 (2007).
     *
     *   G. Roman-Perez and J. M. Soler, Phys. Rev. Lett. 103, 096102 (2009).
     *
     *
     * If you are using vdW-DF2, please also cite:
     *
     *   K. Lee, E. D. Murray, L. Kong, B. I. Lundqvist, and
     *   D. C. Langreth, Phys. Rev. B 82, 081101(R) (2010).
     *
     *
     * If you are calculating the stress with vdW-DF, please also cite:
     *
     *   R. Sabatini, E. Kucukbenli, B. Kolb, T. Thonhauser, and
     *   S. de Gironcoli, J. Phys.: Condens. Matter 24, 424209 (2012).
     *

     Carrying out vdW-DF run using the following parameters:

     Nqs =      20    Nr_points =    1024   r_max =   100.000
     q_mesh =
               0.00001000     0.04494208     0.09755937     0.15916263
               0.23128650     0.31572767     0.41458969     0.53033537
               0.66584808     0.82450364     1.01025438     1.22772762
               1.48234092     1.78043706     2.12944203     2.53805004
               3.01644009     3.57652955     4.23227104     5.00000000

     Gradients computed in reciprocal space

[...]

     Starting wfc are  120 randomized atomic wfcs

     Self-consistent Calculation

[...]

     total energy              =   -1681.01484574 Ry
     Harris-Foulkes estimate   =   -1681.01484520 Ry
     estimated scf accuracy    <       0.00000194 Ry

[...]

     iteration # 22     ecut=    36.75 Ry     beta=0.10
     Davidson diagonalization with overlap
     ethr =  1.27E-09,  avg # of iterations =  2.1

[...]

     negative rho (up, down):  1.027E-01 1.032E-01

[...]

     Adding external electric field

     Computed dipole along edir(3) :
        Dipole                0.0013 Ry au,          0.0034 Debye
        Dipole field          0.0000 Ry au

        Potential amp.       -0.0003 Ry
        Total length         46.0883 bohr

     Magnetic moment per site:
     atom:    1    charge:    2.2949    magn:    0.0007    constr:    0.0000
     atom:    2    charge:    2.2949    magn:    0.0007    constr:    0.0000
     atom:    3    charge:    2.2949    magn:    0.0007    constr:    0.0000
     atom:    4    charge:    6.0253    magn:    1.6007    constr:    0.0000
     atom:    5    charge:    2.2950    magn:    0.0006    constr:    0.0000
     atom:    6    charge:    2.2950    magn:    0.0006    constr:    0.0000
     atom:    7    charge:    2.2950    magn:    0.0006    constr:    0.0000
     atom:    8    charge:    6.0235    magn:    1.5741    constr:    0.0000
     atom:    9    charge:    2.2899    magn:    0.0002    constr:    0.0000
     atom:   10    charge:    2.2899    magn:    0.0002    constr:    0.0000
     atom:   11    charge:    2.2899    magn:    0.0002    constr:    0.0000
     atom:   12    charge:    6.0276    magn:    1.5900    constr:    0.0000

     End of self-consistent calculation

 ------ SPIN UP ------------

[...]

 ------ SPIN DOWN ----------

[...]

          k = 0.0543 0.0000 0.0000 ( 20719 PWs)   bands (ev):

[...]

          k =-0.0814-0.1410 0.0000 ( 20740 PWs)   bands (ev):

   -76.9146 -76.9049 -76.8833 -45.7339 -45.7177 -45.6936 -45.6935 -45.6903
   -45.6892 -45.6892 -45.6691 -45.6691  -8.9576  -8.8573  -8.8466  -8.7713
    -8.7491  -8.7204  -8.6788  -8.6355  -8.6324  -8.6254  -8.6072  -8.5984
    -8.5309  -8.5208  -8.4657  -8.4656  -8.4032  -8.3823  -8.3586  -8.3330
    -8.3252  -8.3170  -8.3076  -8.2873  -8.2786  -8.2722  -8.2468  -8.2222
    -8.2221  -8.2012  -8.1998  -8.1905  -8.1775  -8.1630  -8.1480  -8.1407
    -8.1353  -8.0818  -8.0707  -8.0330  -7.9979  -7.9911  -7.9074  -7.8050
    -7.7336  -5.7931  -5.5614  -4.1578  -4.0895  -2.8413  -2.5760  -2.0011
    -1.4666  -1.2856  -0.8264   0.2389   0.5118   0.5672   0.6369   0.6632
     0.8830   0.9534   1.1563   1.2077   1.4432   1.4561   1.6357   1.7172
     1.8779   1.9290   2.2253   2.2487   2.2972   2.5766   3.8105   4.0774
     4.2000   4.3200   4.3624   4.4718   4.4805   4.8504   5.1922   5.2205
     5.3443   5.6846   5.7190   5.8167   5.8742   6.0599   6.4707   6.5522
     6.6368   6.7643

     the Fermi energy is     0.5490 ev

!    total energy              =   -1681.01484969 Ry
     Harris-Foulkes estimate   =   -1681.01484587 Ry
     estimated scf accuracy    <       0.00000078 Ry

     The total energy is the sum of the following terms:

     one-electron contribution =  -10402.15442923 Ry
     hartree contribution      =    5268.18004470 Ry
     xc contribution           =    -450.14111215 Ry
     ewald contribution        =    3903.14392096 Ry
     electric field correction =       0.00000000 Ry
     smearing contrib. (-TS)   =      -0.04327398 Ry

     total magnetization       =    12.42 Bohr mag/cell
     absolute magnetization    =    13.65 Bohr mag/cell

     convergence has been achieved in  22 iterations

 BEEF-vdW xc energy contributions
           1 :   -394.240285492439
           2 :    359.596165349074
           3 :   -301.592197032505
           4 :    237.107957035281
           5 :   -181.079556613423
           6 :    141.311988924424
           7 :   -117.587385541193
           8 :    104.366563012835
           9 :   -94.9293068192938
          10 :    84.7683587195996
          11 :   -72.9430042932442
          12 :    61.2828544891320
          13 :   -52.3328189825007
          14 :    47.3756534747258
          15 :   -45.6335893574691
          16 :    44.9463809313669
          17 :   -43.2869200593903
          18 :    39.9911075768117
          19 :   -35.9088986198346
          20 :    32.5372501521032
          21 :   -30.8873602971748
          22 :    30.8769122874074
          23 :   -31.5328022354537
          24 :    31.7113562309505
          25 :   -30.7950350421962
          26 :    28.9590047719420
          27 :   -26.9354053911717
          28 :    25.4964624289026
          29 :   -24.9953761852548
          30 :    25.2156577499546
          31 :   -35.3743877024419
          32 :   -25.6263011728473

     Forces acting on atoms (Ry/au):

     negative rho (up, down):  1.027E-01 1.032E-01
     atom    1 type  1   force =     0.00000051    0.00239777   -0.01365990
     atom    2 type  1   force =     0.00207640   -0.00119832   -0.01365840
     atom    3 type  1   force =    -0.00207618   -0.00119832   -0.01365854
     atom    4 type  2   force =    -0.00000036   -0.00000069    0.00652902
     atom    5 type  1   force =    -0.00000095   -0.00584508    0.00851265
     atom    6 type  1   force =    -0.00506214    0.00292233    0.00851183
     atom    7 type  1   force =     0.00506219    0.00292333    0.00851289
     atom    8 type  2   force =     0.00000026   -0.00000014    0.00679282
     atom    9 type  1   force =    -0.00000015    0.00022391    0.00025515
     atom   10 type  1   force =     0.00019492   -0.00011292    0.00025515
     atom   11 type  1   force =    -0.00019397   -0.00011159    0.00025527
     atom   12 type  2   force =    -0.00000054   -0.00000028    0.00135205

     Total force =     0.031429     Total SCF correction =     0.001722

     entering subroutine stress ...

     negative rho (up, down):  1.027E-01 1.032E-01
          total   stress  (Ry/bohr**3)                   (kbar)     P=   -6.95
  -0.00007476   0.00000000   0.00000000        -11.00      0.00      0.00
   0.00000000  -0.00007476  -0.00000000          0.00    -11.00     -0.00
   0.00000000  -0.00000000   0.00000770          0.00     -0.00      1.13

 !ASE

     Writing output data file calc.save

     General routines

     Parallel routines

   This run was terminated on:  23: 7:49  19Dec2018

   JOB DONE.
Job  /afs/slac/g/suncat/bin/suncat-tsmpirun -x LD_LIBRARY_PATH -wdir /scratch/qe773438_kkfVL pw.x -in pw.inp

TID   HOST_NAME   COMMAND_LINE            STATUS            TERMINATION_TIME
00000 suncat0004 pw.x -in pw.inp   Done                     12/19/2018 23:07:49
00001 suncat0004 pw.x -in pw.inp   Done                     12/19/2018 23:07:49
00002 suncat0004 pw.x -in pw.inp   Done                     12/19/2018 23:07:49
00003 suncat0004 pw.x -in pw.inp   Done                     12/19/2018 23:07:49
00004 suncat0004 pw.x -in pw.inp   Done                     12/19/2018 23:07:49
00005 suncat0004 pw.x -in pw.inp   Done                     12/19/2018 23:07:49
00006 suncat0004 pw.x -in pw.inp   Done                     12/19/2018 23:07:49
00007 suncat0004 pw.x -in pw.inp   Done                     12/19/2018 23:07:49
00008 suncat0187 pw.x -in pw.inp   Done                     12/19/2018 23:07:49
00009 suncat0187 pw.x -in pw.inp   Done                     12/19/2018 23:07:49
00010 suncat0187 pw.x -in pw.inp   Done                     12/19/2018 23:07:49
00011 suncat0187 pw.x -in pw.inp   Done                     12/19/2018 23:07:49
00012 suncat0187 pw.x -in pw.inp   Done                     12/19/2018 23:07:49
00013 suncat0187 pw.x -in pw.inp   Done                     12/19/2018 23:07:49
00014 suncat0187 pw.x -in pw.inp   Done                     12/19/2018 23:07:49
00015 suncat0187 pw.x -in pw.inp   Done                     12/19/2018 23:07:49
00016 suncat0186 pw.x -in pw.inp   Done                     12/19/2018 23:07:49
00017 suncat0186 pw.x -in pw.inp   Done                     12/19/2018 23:07:49
00018 suncat0186 pw.x -in pw.inp   Done                     12/19/2018 23:07:49
00019 suncat0186 pw.x -in pw.inp   Done                     12/19/2018 23:07:49
00020 suncat0186 pw.x -in pw.inp   Done                     12/19/2018 23:07:49
00021 suncat0186 pw.x -in pw.inp   Done                     12/19/2018 23:07:49
00022 suncat0186 pw.x -in pw.inp   Done                     12/19/2018 23:07:49
00023 suncat0186 pw.x -in pw.inp   Done                     12/19/2018 23:07:49
00024 suncat0185 pw.x -in pw.inp   Done                     12/19/2018 23:07:49
00025 suncat0185 pw.x -in pw.inp   Done                     12/19/2018 23:07:49
00026 suncat0185 pw.x -in pw.inp   Done                     12/19/2018 23:07:49
00027 suncat0185 pw.x -in pw.inp   Done                     12/19/2018 23:07:49
00028 suncat0185 pw.x -in pw.inp   Done                     12/19/2018 23:07:49
00029 suncat0185 pw.x -in pw.inp   Done                     12/19/2018 23:07:49
00030 suncat0185 pw.x -in pw.inp   Done                     12/19/2018 23:07:49
00031 suncat0185 pw.x -in pw.inp   Done                     12/19/2018 23:07:49
00032 suncat0184 pw.x -in pw.inp   Done                     12/19/2018 23:07:49
00033 suncat0184 pw.x -in pw.inp   Done                     12/19/2018 23:07:49
00034 suncat0184 pw.x -in pw.inp   Done                     12/19/2018 23:07:49
00035 suncat0184 pw.x -in pw.inp   Done                     12/19/2018 23:07:49
00036 suncat0184 pw.x -in pw.inp   Done                     12/19/2018 23:07:49
00037 suncat0184 pw.x -in pw.inp   Done                     12/19/2018 23:07:49
00038 suncat0184 pw.x -in pw.inp   Done                     12/19/2018 23:07:49
00039 suncat0184 pw.x -in pw.inp   Done                     12/19/2018 23:07:49
00040 suncat0183 pw.x -in pw.inp   Done                     12/19/2018 23:07:49
00041 suncat0183 pw.x -in pw.inp   Done                     12/19/2018 23:07:49
00042 suncat0183 pw.x -in pw.inp   Done                     12/19/2018 23:07:49
00043 suncat0183 pw.x -in pw.inp   Done                     12/19/2018 23:07:49
00044 suncat0183 pw.x -in pw.inp   Done                     12/19/2018 23:07:49
00045 suncat0183 pw.x -in pw.inp   Done                     12/19/2018 23:07:49
00046 suncat0183 pw.x -in pw.inp   Done                     12/19/2018 23:07:49
00047 suncat0183 pw.x -in pw.inp   Done                     12/19/2018 23:07:49
00048 suncat0182 pw.x -in pw.inp   Done                     12/19/2018 23:07:49
00049 suncat0182 pw.x -in pw.inp   Done                     12/19/2018 23:07:49
00050 suncat0182 pw.x -in pw.inp   Done                     12/19/2018 23:07:49
00051 suncat0182 pw.x -in pw.inp   Done                     12/19/2018 23:07:49
00052 suncat0182 pw.x -in pw.inp   Done                     12/19/2018 23:07:49
00053 suncat0182 pw.x -in pw.inp   Done                     12/19/2018 23:07:49
00054 suncat0182 pw.x -in pw.inp   Done                     12/19/2018 23:07:49
00055 suncat0182 pw.x -in pw.inp   Done                     12/19/2018 23:07:49
00056 suncat0181 pw.x -in pw.inp   Done                     12/19/2018 23:07:49
00057 suncat0181 pw.x -in pw.inp   Done                     12/19/2018 23:07:49
00058 suncat0181 pw.x -in pw.inp   Done                     12/19/2018 23:07:49
00059 suncat0181 pw.x -in pw.inp   Done                     12/19/2018 23:07:49
00060 suncat0181 pw.x -in pw.inp   Done                     12/19/2018 23:07:49
00061 suncat0181 pw.x -in pw.inp   Done                     12/19/2018 23:07:49
00062 suncat0181 pw.x -in pw.inp   Done                     12/19/2018 23:07:49
00063 suncat0181 pw.x -in pw.inp   Done                     12/19/2018 23:07:49