     Program PWSCF v.5.1rc2 (svn rev. 11289) starts on 19Dec2018 at 15: 8: 7

     Current dimensions of program PWSCF are:
     Max number of different atomic species (ntypx) = 10
     Max number of k-points (npk) =  40000
     Max angular momentum in pseudopotentials (lmaxx) =  3
     Presently stress not available with electric field

     IMPORTANT: XC functional enforced from input :
     Exchange-correlation      = BEEF-VDW ( 1  4 27 13 2)
     Any further DFT definition will be discarded
     Please, verify this is what you really want

     Subspace diagonalization in iterative solution of the eigenvalue problem:
     a serial algorithm will be used

     bravais-lattice index     =            0
     lattice parameter (alat)  =       1.8897  a.u.
     unit-cell volume          =    5677.7206 (a.u.)^3
     number of atoms/cell      =           12
     number of atomic types    =            2
     number of electrons       =       213.00
     number of Kohn-Sham states=          136
     kinetic-energy cutoff     =      36.7493  Ry
     charge density cutoff     =     367.4932  Ry
     convergence threshold     =      1.0E-06
     mixing beta               =       0.1000
     number of iterations used =           10  plain     mixing
     Exchange-correlation      = BEEF-VDW ( 1  4 27 13 2)
     nstep                     =           50

     celldm(1)=   1.889726  celldm(2)=   0.000000  celldm(3)=   0.000000
     celldm(4)=   0.000000  celldm(5)=   0.000000  celldm(6)=   0.000000

     crystal axes: (cart. coord. in units of alat)
               a(1) = (   6.223659   0.000000   0.000000 )
               a(2) = (  -3.111830   5.389847   0.000000 )
               a(3) = (   0.000000   0.000000  25.081596 )

     reciprocal axes: (cart. coord. in units 2 pi/alat)
               b(1) = (  0.160677  0.092767  0.000000 )
               b(2) = (  0.000000  0.185534  0.000000 )
               b(3) = (  0.000000  0.000000  0.039870 )

     PseudoPot. # 1 for Ag read from file:
     /afs/slac.stanford.edu/u/if/mamunm/psp/gbrv1.5pbe/Ag.UPF
     MD5 check sum: d66d668201baa78d5eb5b04ef7011058
     Pseudo is Ultrasoft + core correction, Zval = 19.0
     Generated by new atomic code, or converted to UPF format
     Using radial grid of  887 points,  6 beta functions with:
                l(1) =   0
                l(2) =   0
                l(3) =   1
                l(4) =   1
                l(5) =   2
                l(6) =   2
     Q(r) pseudized with  6 coefficients,  rinner =    1.300   1.300   1.300
                                                       1.300   1.300

     PseudoPot. # 2 for Pb read from file:
     /afs/slac.stanford.edu/u/if/mamunm/psp/gbrv1.5pbe/Pb.UPF
     MD5 check sum: 3d1c1779aa92214d1e8f3a7db79003e2
     Pseudo is Ultrasoft + core correction, Zval = 14.0
     Generated by new atomic code, or converted to UPF format
     Using radial grid of  899 points,  6 beta functions with:
                l(1) =   0
                l(2) =   0
                l(3) =   1
                l(4) =   1
                l(5) =   2
                l(6) =   2
     Q(r) pseudized with  6 coefficients,  rinner =    1.000   1.000   1.000
                                                       1.000   1.000

     vdW kernel table read from file vdW_kernel_table
     MD5 check sum: 095c7af220d748ca6e76c0b4c6cfb241

     atomic species   valence    mass     pseudopotential
        Ag1           19.00   107.86820     Ag( 1.00)
        Pb1           14.00   207.20000     Pb( 1.00)

     No symmetry found

   Cartesian axes

     site n.     atom                  positions (alat units)
         1           Ag1 tau(   1) = (   0.0000000   0.0000000  10.0000000  )
         2           Ag1 tau(   2) = (  -1.5559148   2.6949235  10.0000000  )
         3           Ag1 tau(   3) = (   1.5559148   2.6949235  10.0000000  )
         4           Pb1 tau(   4) = (   3.1118296   0.0000000  10.0000000  )
         5           Ag1 tau(   5) = (   3.1118296   1.7966157  12.5407982  )
         6           Ag1 tau(   6) = (   1.5559148   4.4915392  12.5407982  )
         7           Ag1 tau(   7) = (  -1.5559148   4.4915392  12.5407982  )
         8           Pb1 tau(   8) = (   0.0000000   1.7966157  12.5407982  )
         9           Ag1 tau(   9) = (  -0.0000000   3.5932313  15.0815965  )
        10           Ag1 tau(  10) = (   1.5559148   0.8983078  15.0815965  )
        11           Ag1 tau(  11) = (   4.6677444   0.8983078  15.0815965  )
        12           Pb1 tau(  12) = (   3.1118296   3.5932313  15.0815965  )

     number of k points=    20  Fermi-Dirac smearing, width (Ry)=  0.0110
                       cart. coord. in units 2pi/alat
        k(    1) = (   0.0000000   0.0000000   0.0000000), wk =   0.0555556
        k(    2) = (   0.0000000   0.0309223   0.0000000), wk =   0.1111111
        k(    3) = (   0.0000000   0.0618447   0.0000000), wk =   0.1111111
        k(    4) = (   0.0000000  -0.0927670   0.0000000), wk =   0.0555556
        k(    5) = (   0.0267795   0.0154612   0.0000000), wk =   0.1111111
        k(    6) = (   0.0267795   0.0463835   0.0000000), wk =   0.1111111
        k(    7) = (   0.0267795   0.0773058   0.0000000), wk =   0.1111111
        k(    8) = (   0.0267795  -0.0773058   0.0000000), wk =   0.1111111
        k(    9) = (   0.0267795  -0.0463835   0.0000000), wk =   0.1111111
        k(   10) = (   0.0267795  -0.0154612   0.0000000), wk =   0.1111111
        k(   11) = (   0.0535591   0.0309223   0.0000000), wk =   0.1111111
        k(   12) = (   0.0535591   0.0618447   0.0000000), wk =   0.1111111
        k(   13) = (   0.0535591   0.0927670   0.0000000), wk =   0.1111111
        k(   14) = (   0.0535591  -0.0618447   0.0000000), wk =   0.1111111
        k(   15) = (   0.0535591  -0.0309223   0.0000000), wk =   0.1111111
        k(   16) = (   0.0535591   0.0000000   0.0000000), wk =   0.1111111
        k(   17) = (  -0.0803386  -0.0463835   0.0000000), wk =   0.0555556
        k(   18) = (  -0.0803386  -0.0154612   0.0000000), wk =   0.1111111
        k(   19) = (  -0.0803386   0.0154612   0.0000000), wk =   0.1111111
        k(   20) = (  -0.0803386  -0.1391505   0.0000000), wk =   0.0555556

     Largest allocated arrays     est. size (Mb)     dimensions
     Largest temporary arrays     est. size (Mb)     dimensions

     Initial potential from superposition of free atoms
     Check: negative starting charge=   -0.050513

     starting charge  208.49252, renormalised to  213.00000

     negative rho (up, down):  5.161E-02 0.000E+00

     *
     * You are using vdW-DF for exchange-correlation in this calculation.
     * Please cite the following three references that made this development
     * possible:
     *
     *   M. Dion, H. Rydberg, E. Schroder, D. C. Langreth, and
     *   B. I. Lundqvist, Phys. Rev. Lett. 92, 246401 (2004).
     *
     *   T. Thonhauser, V. R. Cooper, S. Li, A. Puzder, P. Hyldgaard, and
     *   D. C. Langreth, Phys. Rev. B 76, 125112 (2007).
     *
     *   G. Roman-Perez and J. M. Soler, Phys. Rev. Lett. 103, 096102 (2009).
     *
     *
     * If you are using vdW-DF2, please also cite:
     *
     *   K. Lee, E. D. Murray, L. Kong, B. I. Lundqvist, and
     *   D. C. Langreth, Phys. Rev. B 82, 081101(R) (2010).
     *
     *
     * If you are calculating the stress with vdW-DF, please also cite:
     *
     *   R. Sabatini, E. Kucukbenli, B. Kolb, T. Thonhauser, and
     *   S. de Gironcoli, J. Phys.: Condens. Matter 24, 424209 (2012).
     *

     Carrying out vdW-DF run using the following parameters:

     Nqs =      20    Nr_points =    1024   r_max =   100.000
     q_mesh =
               0.00001000     0.04494208     0.09755937     0.15916263
               0.23128650     0.31572767     0.41458969     0.53033537
               0.66584808     0.82450364     1.01025438     1.22772762
               1.48234092     1.78043706     2.12944203     2.53805004
               3.01644009     3.57652955     4.23227104     5.00000000

     Gradients computed in reciprocal space

     Adding external electric field

     Computed dipole along edir(3) :
        Dipole                0.0000 Ry au,          0.0000 Debye
        Dipole field          0.0000 Ry au

        Potential amp.       -0.0000 Ry
        Total length         46.2124 bohr

     Starting wfc are  144 randomized atomic wfcs

     Self-consistent Calculation

     iteration #  1     ecut=    36.75 Ry     beta=0.10
     Davidson diagonalization with overlap
     ethr =  1.00E-02,  avg # of iterations =  7.2

[...]

     total energy              =   -3168.38795346 Ry
     Harris-Foulkes estimate   =   -3169.66084273 Ry
     estimated scf accuracy    <       7.69580793 Ry

[...]

     End of self-consistent calculation

          k = 0.0000 0.0000 0.0000 ( 21367 PWs)   bands (ev):

   -90.9400 -90.9372 -90.9372 -90.7030 -90.7030 -90.7003 -90.7003 -90.7003
   -90.7003 -54.4676 -54.4676 -54.4588 -54.4493 -54.4410 -54.4410 -54.4115
   -54.3835 -54.3835 -54.2338 -54.2338 -54.2332 -54.2332 -54.2235 -54.2234
   -54.2154 -54.2153 -54.1949 -54.1949 -54.1947 -54.1947 -54.1779 -54.1765
   -54.1610 -54.1610 -54.1607 -54.1607 -16.0967 -16.0821 -16.0821 -16.0639
   -16.0639 -15.8969 -15.8936 -15.8928 -15.8928 -15.8914 -15.8914 -15.8782
   -15.8782 -15.8769 -15.8769  -8.4718  -7.6004  -7.4529  -4.3018  -4.1146
    -4.0786  -3.9656  -3.9656  -3.8868  -3.8257  -3.8257  -3.7940  -3.7940
    -3.6371  -3.6371  -3.5921  -3.4167  -3.4167  -3.2950  -3.2950  -3.2849
    -3.2505  -3.0416  -3.0400  -3.0400  -3.0305  -2.9078  -2.9078  -2.8616
    -2.8616  -2.7447  -2.7447  -2.7109  -2.6198  -2.6198  -2.5598  -2.5598
    -2.5177  -2.5177  -2.4290  -2.4290  -2.3896  -2.3762  -2.2435  -2.2024
    -2.2024  -2.0491  -2.0332  -0.9587  -0.6283  -0.4554  -0.4554   0.0679
     0.3461   0.3461   0.4662   0.7082   0.7082   1.6154   2.5416   3.1090
     3.1745   3.1745   4.2434   4.2434   4.2930   4.8877   4.8877   4.8881
     5.1668   5.5328   6.0055   6.3467   6.5481   7.3024   7.3024   7.5371
     7.5371   7.9959   8.3526   8.5791   8.5791   8.6025   9.0609   9.0609

[...]

          k =-0.0803-0.0464 0.0000 ( 21348 PWs)   bands (ev):

[...]

     the Fermi energy is     1.2253 ev

!    total energy              =   -3167.87801068 Ry
     Harris-Foulkes estimate   =   -3167.88344364 Ry
     estimated scf accuracy    <       0.00000022 Ry

     The total energy is the sum of the following terms:

     one-electron contribution =  -20332.59323823 Ry
     hartree contribution      =   10176.39188983 Ry
     xc contribution           =    -466.72042029 Ry
     ewald contribution        =    7455.06523813 Ry
     electric field correction =       0.00000000 Ry
     smearing contrib. (-TS)   =      -0.02148012 Ry

     convergence has been achieved in  14 iterations

 BEEF-vdW xc energy contributions
           1 :   -409.196599421049
           2 :    374.596861109324
           3 :   -315.758725248150
           4 :    248.706664481447
           5 :   -188.555943528432
           6 :    144.299008229153
           7 :   -117.044516689586
           8 :    101.856958147784
           9 :   -91.6894940647861
[...]
     Using radial grid of  887 points,  6 beta functions with:
                l(1) =   0
                l(2) =   0
                l(3) =   1
                l(4) =   1
                l(5) =   2
                l(6) =   2
     Q(r) pseudized with  6 coefficients,  rinner =    1.300   1.300   1.300
                                                       1.300   1.300

     PseudoPot. # 2 for Pb read from file:
     /afs/slac.stanford.edu/u/if/mamunm/psp/gbrv1.5pbe/Pb.UPF
     MD5 check sum: 3d1c1779aa92214d1e8f3a7db79003e2
     Pseudo is Ultrasoft + core correction, Zval = 14.0
     Generated by new atomic code, or converted to UPF format
     Using radial grid of  899 points,  6 beta functions with:
                l(1) =   0
                l(2) =   0
                l(3) =   1
                l(4) =   1
                l(5) =   2
                l(6) =   2
     Q(r) pseudized with  6 coefficients,  rinner =    1.000   1.000   1.000
                                                       1.000   1.000

     vdW kernel table read from file vdW_kernel_table
     MD5 check sum: 095c7af220d748ca6e76c0b4c6cfb241

     atomic species   valence    mass     pseudopotential
        Ag1           19.00   107.86820     Ag( 1.00)
        Pb1           14.00   207.20000     Pb( 1.00)

     No symmetry found

   Cartesian axes

     site n.     atom                  positions (alat units)
         1           Ag1 tau(   1) = (   0.0000000   0.0000000  10.0000000  )
         2           Ag1 tau(   2) = (  -1.5559148   2.6949235  10.0000000  )
         3           Ag1 tau(   3) = (   1.5559148   2.6949235  10.0000000  )
         4           Pb1 tau(   4) = (   3.1118296   0.0000000  10.0000000  )
         5           Ag1 tau(   5) = (   3.1118296   1.7966157  12.5407982  )
         6           Ag1 tau(   6) = (   1.5559148   4.4915392  12.5407982  )
         7           Ag1 tau(   7) = (  -1.5559148   4.4915392  12.5407982  )
         8           Pb1 tau(   8) = (   0.0000000   1.7966157  12.5407982  )
         9           Ag1 tau(   9) = (   0.0000201   3.6470434  15.0679507  )
        10           Ag1 tau(  10) = (   1.6025179   0.8713768  15.0679407  )
        11           Ag1 tau(  11) = (   4.6211637   0.8713652  15.0679284  )
        12           Pb1 tau(  12) = (   3.1118311   3.5932162  15.3001082  )

     number of k points=    20  Fermi-Dirac smearing, width (Ry)=  0.0110
                       cart. coord. in units 2pi/alat
        k(    1) = (   0.0000000   0.0000000   0.0000000), wk =   0.0555556
        k(    2) = (   0.0000000   0.0309223   0.0000000), wk =   0.1111111
        k(    3) = (   0.0000000   0.0618447   0.0000000), wk =   0.1111111
        k(    4) = (   0.0000000  -0.0927670   0.0000000), wk =   0.0555556
        k(    5) = (   0.0267795   0.0154612   0.0000000), wk =   0.1111111
        k(    6) = (   0.0267795   0.0463835   0.0000000), wk =   0.1111111
        k(    7) = (   0.0267795   0.0773058   0.0000000), wk =   0.1111111
        k(    8) = (   0.0267795  -0.0773058   0.0000000), wk =   0.1111111
        k(    9) = (   0.0267795  -0.0463835   0.0000000), wk =   0.1111111
        k(   10) = (   0.0267795  -0.0154612   0.0000000), wk =   0.1111111
        k(   11) = (   0.0535591   0.0309223   0.0000000), wk =   0.1111111
        k(   12) = (   0.0535591   0.0618447   0.0000000), wk =   0.1111111
        k(   13) = (   0.0535591   0.0927670   0.0000000), wk =   0.1111111
        k(   14) = (   0.0535591  -0.0618447   0.0000000), wk =   0.1111111
        k(   15) = (   0.0535591  -0.0309223   0.0000000), wk =   0.1111111
        k(   16) = (   0.0535591   0.0000000   0.0000000), wk =   0.1111111
        k(   17) = (  -0.0803386  -0.0463835   0.0000000), wk =   0.0555556
        k(   18) = (  -0.0803386  -0.0154612   0.0000000), wk =   0.1111111
        k(   19) = (  -0.0803386   0.0154612   0.0000000), wk =   0.1111111
        k(   20) = (  -0.0803386  -0.1391505   0.0000000), wk =   0.0555556

     Largest allocated arrays     est. size (Mb)     dimensions
     Largest temporary arrays     est. size (Mb)     dimensions

     Initial potential from superposition of free atoms
     Check: negative starting charge=   -0.051605

     starting charge  208.49252, renormalised to  213.00000

[...]

     *
     * You are using vdW-DF for exchange-correlation in this calculation.
     * Please cite the following three references that made this development
     * possible:
     *
     *   M. Dion, H. Rydberg, E. Schroder, D. C. Langreth, and
     *   B. I. Lundqvist, Phys. Rev. Lett. 92, 246401 (2004).
     *
     *   T. Thonhauser, V. R. Cooper, S. Li, A. Puzder, P. Hyldgaard, and
     *   D. C. Langreth, Phys. Rev. B 76, 125112 (2007).
     *
     *   G. Roman-Perez and J. M. Soler, Phys. Rev. Lett. 103, 096102 (2009).
     *
     *
     * If you are using vdW-DF2, please also cite:
     *
     *   K. Lee, E. D. Murray, L. Kong, B. I. Lundqvist, and
     *   D. C. Langreth, Phys. Rev. B 82, 081101(R) (2010).
     *
     *
     * If you are calculating the stress with vdW-DF, please also cite:
     *
     *   R. Sabatini, E. Kucukbenli, B. Kolb, T. Thonhauser, and
     *   S. de Gironcoli, J. Phys.: Condens. Matter 24, 424209 (2012).
     *

     Carrying out vdW-DF run using the following parameters:

     Nqs =      20    Nr_points =    1024   r_max =   100.000
     q_mesh =
               0.00001000     0.04494208     0.09755937     0.15916263
               0.23128650     0.31572767     0.41458969     0.53033537
               0.66584808     0.82450364     1.01025438     1.22772762
               1.48234092     1.78043706     2.12944203     2.53805004
               3.01644009     3.57652955     4.23227104     5.00000000

     Gradients computed in reciprocal space

[...]

     Starting wfc are  144 randomized atomic wfcs

     Self-consistent Calculation

[...]

     total energy              =   -3167.88821614 Ry
     Harris-Foulkes estimate   =   -3167.88821310 Ry
     estimated scf accuracy    <       0.00000342 Ry

     iteration # 14     ecut=    36.75 Ry     beta=0.10
     Davidson diagonalization with overlap
     ethr =  1.60E-09,  avg # of iterations =  3.9

[...]

     negative rho (up, down):  5.420E-02 0.000E+00

     Adding external electric field

     Computed dipole along edir(3) :
        Dipole                0.0274 Ry au,          0.0696 Debye
        Dipole field          0.0001 Ry au

        Potential amp.       -0.0056 Ry
        Total length         46.2124 bohr

     End of self-consistent calculation

[...]

          k = 0.0536 0.0000 0.0000 ( 21363 PWs)   bands (ev):

[...]

          k =-0.0803-0.1392 0.0000 ( 21348 PWs)   bands (ev):

   -90.8740 -90.8731 -90.8721 -90.6757 -90.6741 -90.6734 -90.6703 -90.6694
   -90.6685 -54.4036 -54.3971 -54.3925 -54.3764 -54.3717 -54.3675 -54.3436
   -54.3349 -54.3238 -54.2053 -54.2014 -54.1994 -54.1945 -54.1915 -54.1903
   -54.1860 -54.1786 -54.1724 -54.1713 -54.1660 -54.1637 -54.1485 -54.1415
   -54.1407 -54.1355 -54.1351 -54.1279 -16.0505 -16.0384 -16.0381 -16.0176
   -16.0147 -15.9314 -15.9100 -15.9097 -15.9016 -15.8974 -15.8859 -15.8777
   -15.8755 -15.8694 -15.8674  -7.8488  -7.4160  -7.2270  -4.2684  -4.0410
    -4.0006  -3.8526  -3.7592  -3.6956  -3.6933  -3.6490  -3.6199  -3.6183
    -3.5602  -3.5522  -3.4784  -3.4749  -3.3940  -3.3301  -3.3038  -3.1990
    -3.1473  -3.1156  -3.1053  -3.0271  -2.9887  -2.9788  -2.9568  -2.9522
    -2.9336  -2.8878  -2.8531  -2.8525  -2.8235  -2.7898  -2.7884  -2.7663
    -2.7640  -2.7188  -2.6769  -2.6239  -2.6227  -2.6004  -2.5453  -2.4608
    -2.3686  -2.3205  -2.2250  -2.1062  -1.6122  -1.0026  -0.4514   0.0536
     0.4636   0.6669   1.0004   2.0622   2.3777   2.5163   3.7484   4.1993
     4.4903   4.7402   5.0383   5.1509   5.1575   5.7314   5.7927   5.9392
     6.0618   6.2542   6.3009   6.3995   6.5185   6.5676   6.7980   6.8684
     7.1399   7.4686   7.4954   7.5248   7.7090   7.8184   8.2635   8.5127

     the Fermi energy is     1.2527 ev

!    total energy              =   -3167.88817588 Ry
     Harris-Foulkes estimate   =   -3167.88821636 Ry
     estimated scf accuracy    <       0.00000042 Ry

     The total energy is the sum of the following terms:

     one-electron contribution =  -20243.15822615 Ry
     hartree contribution      =   10131.96453315 Ry
     xc contribution           =    -466.68569203 Ry
     ewald contribution        =    7410.01216364 Ry
     electric field correction =       0.00000166 Ry
     smearing contrib. (-TS)   =      -0.02095614 Ry

     convergence has been achieved in  14 iterations

 BEEF-vdW xc energy contributions
           1 :   -409.336347586211
           2 :    374.709324604365
           3 :   -315.838231804240
           4 :    248.777916015150
           5 :   -188.661945845630
           6 :    144.473541752027
           7 :   -117.286279380608
           8 :    102.124861458948
           9 :   -91.9252623213288
          10 :    81.3352382655063
          11 :   -68.6074859750177
          12 :    55.1326002319910
          13 :   -43.4820173577025
          14 :    35.4094441111401
          15 :   -30.9326703190559
          16 :    28.7133818819447
          17 :   -27.1455730912204
          18 :    25.2898898151819
          19 :   -23.1226094232062
          20 :    21.1372287119186
          21 :   -19.7485760072312
          22 :    18.9531345786477
          23 :   -18.4061073149040
          24 :    17.7429930603756
          25 :   -16.8475797711041
          26 :    15.8748790977435
          27 :   -15.0637240226578
          28 :    14.5230669630005
          29 :   -14.1664775920249
          30 :    13.8220933818693
          31 :   -37.2980497731985
          32 :   -27.1991560977879

     Forces acting on atoms (Ry/au):

     negative rho (up, down):  5.420E-02 0.000E+00
     atom    1 type  1   force =     0.00000040   -0.00580835   -0.00038283
     atom    2 type  1   force =    -0.00502991    0.00290516   -0.00038287
     atom    3 type  1   force =     0.00503009    0.00290397   -0.00038297
     atom    4 type  2   force =    -0.00000119   -0.00000173   -0.01080488
     atom    5 type  1   force =    -0.00000092    0.00425372    0.00383459
     atom    6 type  1   force =     0.00368354   -0.00212735    0.00383301
     atom    7 type  1   force =    -0.00368368   -0.00212650    0.00383458
     atom    8 type  2   force =     0.00000050    0.00000011    0.00156677
     atom    9 type  1   force =    -0.00000117    0.00081015   -0.00028971
     atom   10 type  1   force =     0.00070379   -0.00040391   -0.00028967
     atom   11 type  1   force =    -0.00070334   -0.00040265   -0.00028951
     atom   12 type  2   force =     0.00000189   -0.00000262   -0.00024652

     Total force =     0.017931     Total SCF correction =     0.004933
     SCF correction compared to forces is large: reduce conv_thr to get better values

     entering subroutine stress ...

     negative rho (up, down):  5.420E-02 0.000E+00
          total   stress  (Ry/bohr**3)                   (kbar)     P=   -4.79
  -0.00004911   0.00000000  -0.00000000         -7.22      0.00     -0.00
   0.00000000  -0.00004911   0.00000000          0.00     -7.22      0.00
  -0.00000000   0.00000000   0.00000056         -0.00      0.00      0.08

 !ASE

     Writing output data file calc.save

     General routines

     Parallel routines

   This run was terminated on:  18:29:58  19Dec2018

   JOB DONE.
Job  /afs/slac/g/suncat/bin/suncat-tsmpirun -x LD_LIBRARY_PATH -wdir /scratch/qe773183_rUI9B pw.x -in pw.inp

TID   HOST_NAME   COMMAND_LINE            STATUS            TERMINATION_TIME
00000 suncat0054 pw.x -in pw.inp   Done                     12/19/2018 18:29:58
00001 suncat0054 pw.x -in pw.inp   Done                     12/19/2018 18:29:58
00002 suncat0054 pw.x -in pw.inp   Done                     12/19/2018 18:29:58
00003 suncat0054 pw.x -in pw.inp   Done                     12/19/2018 18:29:58
00004 suncat0054 pw.x -in pw.inp   Done                     12/19/2018 18:29:58
00005 suncat0054 pw.x -in pw.inp   Done                     12/19/2018 18:29:58
00006 suncat0054 pw.x -in pw.inp   Done                     12/19/2018 18:29:58
00007 suncat0054 pw.x -in pw.inp   Done                     12/19/2018 18:29:58
00008 suncat0053 pw.x -in pw.inp   Done                     12/19/2018 18:29:58
00009 suncat0053 pw.x -in pw.inp   Done                     12/19/2018 18:29:58
00010 suncat0053 pw.x -in pw.inp   Done                     12/19/2018 18:29:58
00011 suncat0053 pw.x -in pw.inp   Done                     12/19/2018 18:29:58
00012 suncat0053 pw.x -in pw.inp   Done                     12/19/2018 18:29:58
00013 suncat0053 pw.x -in pw.inp   Done                     12/19/2018 18:29:58
00014 suncat0053 pw.x -in pw.inp   Done                     12/19/2018 18:29:58
00015 suncat0053 pw.x -in pw.inp   Done                     12/19/2018 18:29:58
00016 suncat0052 pw.x -in pw.inp   Done                     12/19/2018 18:29:58
00017 suncat0052 pw.x -in pw.inp   Done                     12/19/2018 18:29:58
00018 suncat0052 pw.x -in pw.inp   Done                     12/19/2018 18:29:58
00019 suncat0052 pw.x -in pw.inp   Done                     12/19/2018 18:29:58
00020 suncat0052 pw.x -in pw.inp   Done                     12/19/2018 18:29:58
00021 suncat0052 pw.x -in pw.inp   Done                     12/19/2018 18:29:58
00022 suncat0052 pw.x -in pw.inp   Done                     12/19/2018 18:29:58
00023 suncat0052 pw.x -in pw.inp   Done                     12/19/2018 18:29:58
00024 suncat0051 pw.x -in pw.inp   Done                     12/19/2018 18:29:58
00025 suncat0051 pw.x -in pw.inp   Done                     12/19/2018 18:29:58
00026 suncat0051 pw.x -in pw.inp   Done                     12/19/2018 18:29:58
00027 suncat0051 pw.x -in pw.inp   Done                     12/19/2018 18:29:58
00028 suncat0051 pw.x -in pw.inp   Done                     12/19/2018 18:29:58
00029 suncat0051 pw.x -in pw.inp   Done                     12/19/2018 18:29:58
00030 suncat0051 pw.x -in pw.inp   Done                     12/19/2018 18:29:58
00031 suncat0051 pw.x -in pw.inp   Done                     12/19/2018 18:29:58
00032 suncat0050 pw.x -in pw.inp   Done                     12/19/2018 18:29:58
00033 suncat0050 pw.x -in pw.inp   Done                     12/19/2018 18:29:58
00034 suncat0050 pw.x -in pw.inp   Done                     12/19/2018 18:29:58
00035 suncat0050 pw.x -in pw.inp   Done                     12/19/2018 18:29:58
00036 suncat0050 pw.x -in pw.inp   Done                     12/19/2018 18:29:58
00037 suncat0050 pw.x -in pw.inp   Done                     12/19/2018 18:29:58
00038 suncat0050 pw.x -in pw.inp   Done                     12/19/2018 18:29:58
00039 suncat0050 pw.x -in pw.inp   Done                     12/19/2018 18:29:58
00040 suncat0049 pw.x -in pw.inp   Done                     12/19/2018 18:29:58
00041 suncat0049 pw.x -in pw.inp   Done                     12/19/2018 18:29:58
00042 suncat0049 pw.x -in pw.inp   Done                     12/19/2018 18:29:58
00043 suncat0049 pw.x -in pw.inp   Done                     12/19/2018 18:29:58
00044 suncat0049 pw.x -in pw.inp   Done                     12/19/2018 18:29:58
00045 suncat0049 pw.x -in pw.inp   Done                     12/19/2018 18:29:58
00046 suncat0049 pw.x -in pw.inp   Done                     12/19/2018 18:29:58
00047 suncat0049 pw.x -in pw.inp   Done                     12/19/2018 18:29:58
00048 suncat0048 pw.x -in pw.inp   Done                     12/19/2018 18:29:58
00049 suncat0048 pw.x -in pw.inp   Done                     12/19/2018 18:29:58
00050 suncat0048 pw.x -in pw.inp   Done                     12/19/2018 18:29:58
00051 suncat0048 pw.x -in pw.inp   Done                     12/19/2018 18:29:58
00052 suncat0048 pw.x -in pw.inp   Done                     12/19/2018 18:29:58
00053 suncat0048 pw.x -in pw.inp   Done                     12/19/2018 18:29:58
00054 suncat0048 pw.x -in pw.inp   Done                     12/19/2018 18:29:58
00055 suncat0048 pw.x -in pw.inp   Done                     12/19/2018 18:29:58
00056 suncat0047 pw.x -in pw.inp   Done                     12/19/2018 18:29:58
00057 suncat0047 pw.x -in pw.inp   Done                     12/19/2018 18:29:58
00058 suncat0047 pw.x -in pw.inp   Done                     12/19/2018 18:29:58
00059 suncat0047 pw.x -in pw.inp   Done                     12/19/2018 18:29:58
00060 suncat0047 pw.x -in pw.inp   Done                     12/19/2018 18:29:58
00061 suncat0047 pw.x -in pw.inp   Done                     12/19/2018 18:29:58
00062 suncat0047 pw.x -in pw.inp   Done                     12/19/2018 18:29:58
00063 suncat0047 pw.x -in pw.inp   Done                     12/19/2018 18:29:58