     Program PWSCF v.5.1rc2 (svn rev. 11289) starts on 30Dec2018 at  8: 2:16

     Current dimensions of program PWSCF are:
     Max number of different atomic species (ntypx) = 10
     Max number of k-points (npk) =  40000
     Max angular momentum in pseudopotentials (lmaxx) =  3
     Presently stress not available with electric field

     IMPORTANT: XC functional enforced from input :
     Exchange-correlation      = BEEF-VDW ( 1  4 27 13 2)
     Any further DFT definition will be discarded
     Please, verify this is what you really want

     Subspace diagonalization in iterative solution of the eigenvalue problem:
     a serial algorithm will be used

     bravais-lattice index     =            0
     lattice parameter (alat)  =       1.8897  a.u.
     unit-cell volume          =    5426.2364 (a.u.)^3
     number of atoms/cell      =           12
     number of atomic types    =            2
     number of electrons       =       150.00
     number of Kohn-Sham states=          105
     kinetic-energy cutoff     =      36.7493  Ry
     charge density cutoff     =     367.4932  Ry
     convergence threshold     =      1.0E-06
     mixing beta               =       0.1000
     number of iterations used =           10  plain     mixing
     Exchange-correlation      = BEEF-VDW ( 1  4 27 13 2)
     nstep                     =           50

     celldm(1)=   1.889726  celldm(2)=   0.000000  celldm(3)=   0.000000
     celldm(4)=   0.000000  celldm(5)=   0.000000  celldm(6)=   0.000000

     crystal axes: (cart. coord. in units of alat)
               a(1) = (   6.096861   0.000000   0.000000 )
               a(2) = (  -3.048431   5.280037   0.000000 )
               a(3) = (   0.000000   0.000000  24.978067 )

     reciprocal axes: (cart. coord. in units 2 pi/alat)
               b(1) = (  0.164019  0.094696  0.000000 )
               b(2) = (  0.000000  0.189393  0.000000 )
               b(3) = (  0.000000  0.000000  0.040035 )

     PseudoPot. # 1 for Hg read from file:
     /afs/slac.stanford.edu/u/if/mamunm/psp/gbrv1.5pbe/Hg.UPF
     MD5 check sum: 8f42caffe07f7fd9c0a564347f8c5498
     Pseudo is Ultrasoft + core correction, Zval = 12.0
     Generated by new atomic code, or converted to UPF format
     Using radial grid of  985 points,  6 beta functions with:
                l(1) =   0
                l(2) =   0
                l(3) =   1
                l(4) =   1
                l(5) =   2
                l(6) =   2
     Q(r) pseudized with  8 coefficients,  rinner =    2.000   2.000   2.000
                                                       2.000   2.000

     PseudoPot. # 2 for Cr read from file:
     /afs/slac.stanford.edu/u/if/mamunm/psp/gbrv1.5pbe/Cr.UPF
     MD5 check sum: 0d52af634a40206e4dee301ad30da4bf
     Pseudo is Ultrasoft + core correction, Zval = 14.0
     Generated by new atomic code, or converted to UPF format
     Using radial grid of  857 points,  6 beta functions with:
                l(1) =   0
                l(2) =   0
                l(3) =   1
                l(4) =   1
                l(5) =   2
                l(6) =   2
     Q(r) pseudized with  8 coefficients,  rinner =    0.950   0.950   0.950
                                                       0.950   0.950

     vdW kernel table read from file vdW_kernel_table
     MD5 check sum: 095c7af220d748ca6e76c0b4c6cfb241

     atomic species   valence    mass     pseudopotential
        Hg1           12.00   200.59200     Hg( 1.00)
        Cr1           14.00    51.99610     Cr( 1.00)

     No symmetry found

   Cartesian axes

     site n.     atom                  positions (alat units)
         1           Hg1 tau(   1) = (   0.0000000   0.0000000  10.0000000  )
         2           Hg1 tau(   2) = (  -1.5242154   2.6400185  10.0000000  )
         3           Hg1 tau(   3) = (   1.5242154   2.6400185  10.0000000  )
         4           Cr1 tau(   4) = (   3.0484307   0.0000000  10.0000000  )
         5           Hg1 tau(   5) = (   3.0484307   1.7600123  12.4890333  )
         6           Hg1 tau(   6) = (   1.5242154   4.4000308  12.4890333  )
         7           Hg1 tau(   7) = (  -1.5242154   4.4000308  12.4890333  )
         8           Cr1 tau(   8) = (   0.0000000   1.7600123  12.4890333  )
         9           Hg1 tau(   9) = (  -0.0000000   3.5200246  14.9780666  )
        10           Hg1 tau(  10) = (   1.5242154   0.8800062  14.9780666  )
        11           Hg1 tau(  11) = (   4.5726461   0.8800062  14.9780666  )
        12           Cr1 tau(  12) = (   3.0484307   3.5200246  14.9780666  )

     number of k points=    20  Fermi-Dirac smearing, width (Ry)=  0.0110
                       cart. coord. in units 2pi/alat
        k(    1) = (   0.0000000   0.0000000   0.0000000), wk =   0.0555556
        k(    2) = (   0.0000000   0.0315654   0.0000000), wk =   0.1111111
        k(    3) = (   0.0000000   0.0631309   0.0000000), wk =   0.1111111
        k(    4) = (   0.0000000  -0.0946963   0.0000000), wk =   0.0555556
        k(    5) = (   0.0273365   0.0157827   0.0000000), wk =   0.1111111
        k(    6) = (   0.0273365   0.0473482   0.0000000), wk =   0.1111111
        k(    7) = (   0.0273365   0.0789136   0.0000000), wk =   0.1111111
        k(    8) = (   0.0273365  -0.0789136   0.0000000), wk =   0.1111111
        k(    9) = (   0.0273365  -0.0473482   0.0000000), wk =   0.1111111
        k(   10) = (   0.0273365  -0.0157827   0.0000000), wk =   0.1111111
        k(   11) = (   0.0546729   0.0315654   0.0000000), wk =   0.1111111
        k(   12) = (   0.0546729   0.0631309   0.0000000), wk =   0.1111111
        k(   13) = (   0.0546729   0.0946963   0.0000000), wk =   0.1111111
        k(   14) = (   0.0546729  -0.0631309   0.0000000), wk =   0.1111111
        k(   15) = (   0.0546729  -0.0315654   0.0000000), wk =   0.1111111
        k(   16) = (   0.0546729   0.0000000   0.0000000), wk =   0.1111111
        k(   17) = (  -0.0820094  -0.0473482   0.0000000), wk =   0.0555556
        k(   18) = (  -0.0820094  -0.0157827   0.0000000), wk =   0.1111111
        k(   19) = (  -0.0820094   0.0157827   0.0000000), wk =   0.1111111
        k(   20) = (  -0.0820094  -0.1420445   0.0000000), wk =   0.0555556

     Largest allocated arrays     est. size (Mb)     dimensions
     Largest temporary arrays     est. size (Mb)     dimensions

     Check: negative/imaginary core charge=   -0.000001    0.000000

     Initial potential from superposition of free atoms
     Check: negative starting charge=   -0.004151

     starting charge  146.99943, renormalised to  150.00000

     negative rho (up, down):  4.236E-03 0.000E+00

     *
     * You are using vdW-DF for exchange-correlation in this calculation.
     * Please cite the following three references that made this development
     * possible:
     *
     *   M. Dion, H. Rydberg, E. Schroder, D. C. Langreth, and
     *   B. I. Lundqvist, Phys. Rev. Lett. 92, 246401 (2004).
     *
     *   T. Thonhauser, V. R. Cooper, S. Li, A. Puzder, P. Hyldgaard, and
     *   D. C. Langreth, Phys. Rev. B 76, 125112 (2007).
     *
     *   G. Roman-Perez and J. M. Soler, Phys. Rev. Lett. 103, 096102 (2009).
     *
     *
     * If you are using vdW-DF2, please also cite:
     *
     *   K. Lee, E. D. Murray, L. Kong, B. I. Lundqvist, and
     *   D. C. Langreth, Phys. Rev. B 82, 081101(R) (2010).
     *
     *
     * If you are calculating the stress with vdW-DF, please also cite:
     *
     *   R. Sabatini, E. Kucukbenli, B. Kolb, T. Thonhauser, and
     *   S. de Gironcoli, J. Phys.: Condens. Matter 24, 424209 (2012).
     *

     Carrying out vdW-DF run using the following parameters:

     Nqs =      20    Nr_points =    1024   r_max =   100.000
     q_mesh =
               0.00001000     0.04494208     0.09755937     0.15916263
               0.23128650     0.31572767     0.41458969     0.53033537
               0.66584808     0.82450364     1.01025438     1.22772762
               1.48234092     1.78043706     2.12944203     2.53805004
               3.01644009     3.57652955     4.23227104     5.00000000

     Gradients computed in reciprocal space

     Adding external electric field

     Computed dipole along edir(3) :
        Dipole                0.0000 Ry au,          0.0000 Debye
        Dipole field          0.0000 Ry au

        Potential amp.       -0.0000 Ry
        Total length         46.0217 bohr

     Starting wfc are  111 randomized atomic wfcs

     Self-consistent Calculation

     iteration #  1     ecut=    36.75 Ry     beta=0.10
     Davidson diagonalization with overlap
     ethr =  1.00E-02,  avg # of iterations =  8.9

[...]

     total energy              =   -1506.17077647 Ry
     Harris-Foulkes estimate   =   -1512.57693349 Ry
     estimated scf accuracy    <      35.17884525 Ry

[...]

     End of self-consistent calculation

          k = 0.0000 0.0000 0.0000 ( 20395 PWs)   bands (ev):

   -70.7578 -70.7387 -70.7386 -42.1489 -42.1488 -42.1109 -42.0908 -42.0908
   -42.0323 -42.0323 -42.0322 -42.0322  -8.3669  -7.7381  -7.6559  -7.5829
    -7.5829  -7.5821  -7.5051  -7.3730  -7.3687  -7.3687  -7.1863  -7.1863
    -7.0926  -7.0926  -6.8846  -6.8505  -6.7859  -6.7859  -6.6158  -6.4854
    -6.4854  -6.3854  -6.3164  -6.2559  -6.2559  -6.1881  -6.1881  -6.0201
    -6.0201  -5.9162  -5.9162  -5.8680  -5.8078  -5.8078  -5.7551  -5.7475
    -5.7475  -5.7312  -5.7312  -5.5063  -5.5063  -5.4218  -5.3203  -5.2780
    -5.2780  -5.0495  -5.0342  -3.2292  -1.5648  -1.5648  -1.3401  -1.3401
    -0.8866  -0.3666  -0.3666  -0.2954   0.0489   0.1453   0.1453   0.5091
     0.8177   0.8177   0.9157   0.9157   0.9530   0.9530   0.9598   1.4630
     1.4630   1.4664   1.4664   1.5741   1.6248   2.2114   2.2114   2.7650
     2.7650   3.1984   3.3582   3.3582   4.1798   4.2475   4.7349   4.9466
     5.1026   5.9357   6.1334   6.8943   6.8943   7.0278   7.0278   7.2867
     7.6573

[...]

          k =-0.0820-0.0473 0.0000 ( 20420 PWs)   bands (ev):

[...]

     the Fermi energy is     0.8191 ev

!    total energy              =   -1510.06546772 Ry
     Harris-Foulkes estimate   =   -1510.06547703 Ry
     estimated scf accuracy    <       0.00000023 Ry

     The total energy is the sum of the following terms:

     one-electron contribution =  -10133.43574663 Ry
     hartree contribution      =    5133.02970010 Ry
     xc contribution           =    -433.73751353 Ry
     ewald contribution        =    3924.19615570 Ry
     electric field correction =       0.00000000 Ry
     smearing contrib. (-TS)   =      -0.11806336 Ry

     convergence has been achieved in  21 iterations

 BEEF-vdW xc energy contributions
           1 :   -379.382731716585
           2 :    347.957442362062
           3 :   -293.769581325415
           4 :    230.355404815102
           5 :   -170.882374796602
           6 :    123.994533190616
           7 :   -92.2298779971621
           8 :    73.0599433852009
           9 :   -61.4989509920261
          10 :    52.8089757079108
          11 :   -44.1732745309019
          12 :    34.9679818465702
          13 :   -26.0004874694341
          14 :    18.4252553758791
          15 :   -12.9475978282337
[...]
     Generated by new atomic code, or converted to UPF format
     Using radial grid of  985 points,  6 beta functions with:
                l(1) =   0
                l(2) =   0
                l(3) =   1
                l(4) =   1
                l(5) =   2
                l(6) =   2
     Q(r) pseudized with  8 coefficients,  rinner =    2.000   2.000   2.000
                                                       2.000   2.000

     PseudoPot. # 2 for Cr read from file:
     /afs/slac.stanford.edu/u/if/mamunm/psp/gbrv1.5pbe/Cr.UPF
     MD5 check sum: 0d52af634a40206e4dee301ad30da4bf
     Pseudo is Ultrasoft + core correction, Zval = 14.0
     Generated by new atomic code, or converted to UPF format
     Using radial grid of  857 points,  6 beta functions with:
                l(1) =   0
                l(2) =   0
                l(3) =   1
                l(4) =   1
                l(5) =   2
                l(6) =   2
     Q(r) pseudized with  8 coefficients,  rinner =    0.950   0.950   0.950
                                                       0.950   0.950

     vdW kernel table read from file vdW_kernel_table
     MD5 check sum: 095c7af220d748ca6e76c0b4c6cfb241

     atomic species   valence    mass     pseudopotential
        Hg1           12.00   200.59200     Hg( 1.00)
        Cr1           14.00    51.99610     Cr( 1.00)

     No symmetry found

   Cartesian axes

     site n.     atom                  positions (alat units)
         1           Hg1 tau(   1) = (   0.0000000   0.0000000  10.0000000  )
         2           Hg1 tau(   2) = (  -1.5242154   2.6400185  10.0000000  )
         3           Hg1 tau(   3) = (   1.5242154   2.6400185  10.0000000  )
         4           Cr1 tau(   4) = (   3.0484307   0.0000000  10.0000000  )
         5           Hg1 tau(   5) = (   3.0484307   1.7600123  12.4890333  )
         6           Hg1 tau(   6) = (   1.5242154   4.4000308  12.4890333  )
         7           Hg1 tau(   7) = (  -1.5242154   4.4000308  12.4890333  )
         8           Cr1 tau(   8) = (   0.0000000   1.7600123  12.4890333  )
         9           Hg1 tau(   9) = (  -0.0000091   3.5166311  15.2721705  )
        10           Hg1 tau(  10) = (   1.5212498   0.8816952  15.2721501  )
        11           Hg1 tau(  11) = (   4.5756106   0.8817187  15.2721902  )
        12           Cr1 tau(  12) = (   3.0484383   3.5200287  14.6552880  )

     number of k points=    20  Fermi-Dirac smearing, width (Ry)=  0.0110
                       cart. coord. in units 2pi/alat
        k(    1) = (   0.0000000   0.0000000   0.0000000), wk =   0.0555556
        k(    2) = (   0.0000000   0.0315654   0.0000000), wk =   0.1111111
        k(    3) = (   0.0000000   0.0631309   0.0000000), wk =   0.1111111
        k(    4) = (   0.0000000  -0.0946963   0.0000000), wk =   0.0555556
        k(    5) = (   0.0273365   0.0157827   0.0000000), wk =   0.1111111
        k(    6) = (   0.0273365   0.0473482   0.0000000), wk =   0.1111111
        k(    7) = (   0.0273365   0.0789136   0.0000000), wk =   0.1111111
        k(    8) = (   0.0273365  -0.0789136   0.0000000), wk =   0.1111111
        k(    9) = (   0.0273365  -0.0473482   0.0000000), wk =   0.1111111
        k(   10) = (   0.0273365  -0.0157827   0.0000000), wk =   0.1111111
        k(   11) = (   0.0546729   0.0315654   0.0000000), wk =   0.1111111
        k(   12) = (   0.0546729   0.0631309   0.0000000), wk =   0.1111111
        k(   13) = (   0.0546729   0.0946963   0.0000000), wk =   0.1111111
        k(   14) = (   0.0546729  -0.0631309   0.0000000), wk =   0.1111111
        k(   15) = (   0.0546729  -0.0315654   0.0000000), wk =   0.1111111
        k(   16) = (   0.0546729   0.0000000   0.0000000), wk =   0.1111111
        k(   17) = (  -0.0820094  -0.0473482   0.0000000), wk =   0.0555556
        k(   18) = (  -0.0820094  -0.0157827   0.0000000), wk =   0.1111111
        k(   19) = (  -0.0820094   0.0157827   0.0000000), wk =   0.1111111
        k(   20) = (  -0.0820094  -0.1420445   0.0000000), wk =   0.0555556

     Largest allocated arrays     est. size (Mb)     dimensions
     Largest temporary arrays     est. size (Mb)     dimensions

     Check: negative/imaginary core charge=   -0.000001    0.000000

     Initial potential from superposition of free atoms
     Check: negative starting charge=   -0.004133

     starting charge  146.99943, renormalised to  150.00000

[...]

     *
     * You are using vdW-DF for exchange-correlation in this calculation.
     * Please cite the following three references that made this development
     * possible:
     *
     *   M. Dion, H. Rydberg, E. Schroder, D. C. Langreth, and
     *   B. I. Lundqvist, Phys. Rev. Lett. 92, 246401 (2004).
     *
     *   T. Thonhauser, V. R. Cooper, S. Li, A. Puzder, P. Hyldgaard, and
     *   D. C. Langreth, Phys. Rev. B 76, 125112 (2007).
     *
     *   G. Roman-Perez and J. M. Soler, Phys. Rev. Lett. 103, 096102 (2009).
     *
     *
     * If you are using vdW-DF2, please also cite:
     *
     *   K. Lee, E. D. Murray, L. Kong, B. I. Lundqvist, and
     *   D. C. Langreth, Phys. Rev. B 82, 081101(R) (2010).
     *
     *
     * If you are calculating the stress with vdW-DF, please also cite:
     *
     *   R. Sabatini, E. Kucukbenli, B. Kolb, T. Thonhauser, and
     *   S. de Gironcoli, J. Phys.: Condens. Matter 24, 424209 (2012).
     *

     Carrying out vdW-DF run using the following parameters:

     Nqs =      20    Nr_points =    1024   r_max =   100.000
     q_mesh =
               0.00001000     0.04494208     0.09755937     0.15916263
               0.23128650     0.31572767     0.41458969     0.53033537
               0.66584808     0.82450364     1.01025438     1.22772762
               1.48234092     1.78043706     2.12944203     2.53805004
               3.01644009     3.57652955     4.23227104     5.00000000

     Gradients computed in reciprocal space

[...]

     Starting wfc are  111 randomized atomic wfcs

     Self-consistent Calculation

[...]

     iteration # 14     ecut=    36.75 Ry     beta=0.10
     Davidson diagonalization with overlap
     c_bands:  1 eigenvalues not converged
     ethr =  1.51E-05,  avg # of iterations =  6.8

[...]

     total energy              =   -1510.11042088 Ry
     Harris-Foulkes estimate   =   -1510.11042277 Ry
     estimated scf accuracy    <       0.00000154 Ry

     iteration # 21     ecut=    36.75 Ry     beta=0.10
     Davidson diagonalization with overlap
     ethr =  1.03E-09,  avg # of iterations =  2.0

[...]

     negative rho (up, down):  3.214E-03 0.000E+00

     Adding external electric field

     Computed dipole along edir(3) :
        Dipole               -0.0558 Ry au,         -0.1419 Debye
        Dipole field         -0.0001 Ry au

        Potential amp.        0.0119 Ry
        Total length         46.0217 bohr

     End of self-consistent calculation

[...]

          k = 0.0547 0.0000 0.0000 ( 20401 PWs)   bands (ev):

[...]

          k =-0.0820-0.1420 0.0000 ( 20420 PWs)   bands (ev):

   -70.8082 -70.8000 -70.7570 -42.2082 -42.1531 -42.1525 -42.1423 -42.1422
   -42.0889 -42.0888 -42.0578 -42.0577  -7.5950  -7.3640  -7.2666  -7.1358
    -7.0879  -7.0404  -6.9831  -6.9302  -6.9141  -6.9078  -6.8077  -6.7869
    -6.7835  -6.6351  -6.5999  -6.5637  -6.5116  -6.4925  -6.4315  -6.3662
    -6.3282  -6.3215  -6.2308  -6.1939  -6.1918  -6.1687  -6.1685  -6.1528
    -6.1274  -6.1003  -6.0674  -6.0495  -6.0362  -6.0055  -5.9875  -5.9696
    -5.9448  -5.8504  -5.8320  -5.7980  -5.7298  -5.6687  -5.6121  -5.5960
    -5.5463  -5.3655  -5.2421  -4.4083  -4.1852  -3.0980  -2.3806  -2.2880
    -1.2494  -1.1761  -0.4851  -0.1192   0.1238   0.3304   0.4055   0.4949
     0.4954   0.5977   0.6692   0.7446   0.9414   1.0215   1.0898   1.2175
     1.5369   1.7493   1.8304   2.4411   2.5244   2.8009   4.0858   4.4845
     4.5314   4.5520   4.9091   5.1066   5.2587   5.5196   5.7241   5.7801
     5.8546   6.1105   6.2318   6.2759   6.9110   7.0348   7.1006   7.1467
     7.1810

     the Fermi energy is     0.7756 ev

!    total energy              =   -1510.11041159 Ry
     Harris-Foulkes estimate   =   -1510.11042048 Ry
     estimated scf accuracy    <       0.00000054 Ry

     The total energy is the sum of the following terms:

     one-electron contribution =   -9945.62751400 Ry
     hartree contribution      =    5039.26389010 Ry
     xc contribution           =    -433.64592386 Ry
     ewald contribution        =    3830.01502378 Ry
     electric field correction =       0.00000722 Ry
     smearing contrib. (-TS)   =      -0.11589484 Ry

     convergence has been achieved in  21 iterations

 BEEF-vdW xc energy contributions
           1 :   -379.432788967582
           2 :    347.903264111562
           3 :   -293.597490880915
           4 :    230.158104098957
           5 :   -170.795896651479
           6 :    124.105848366746
           7 :   -92.5139637221041
           8 :    73.3888426703707
           9 :   -61.7206180280960
          10 :    52.8439082406315
          11 :   -44.0633143641014
          12 :    34.8475972273271
          13 :   -26.0142544881382
          14 :    18.6456274729015
          15 :   -13.3385367881253
          16 :    9.99337409251876
          17 :   -8.01299497216115
          18 :    6.65643307382737
          19 :   -5.35492153331171
          20 :    3.89132280077143
          21 :   -2.40815076574881
          22 :    1.25083541934606
          23 :  -0.714088108727481
          24 :   0.815720884663108
          25 :   -1.23443952725239
          26 :    1.46840620891913
          27 :   -1.13746098461741
          28 :   0.241039588879971
          29 :   0.808148368925288
          30 :   -1.42011930075597
          31 :   -35.5965193317205
          32 :   -26.0850612533666

     Forces acting on atoms (Ry/au):

     negative rho (up, down):  3.214E-03 0.000E+00
     atom    1 type  1   force =     0.00000186    0.00719275   -0.02584281
     atom    2 type  1   force =     0.00623024   -0.00359642   -0.02584131
     atom    3 type  1   force =    -0.00622979   -0.00359683   -0.02584337
     atom    4 type  2   force =    -0.00000011   -0.00000082    0.04743948
     atom    5 type  1   force =     0.00000164   -0.01625689    0.00987482
     atom    6 type  1   force =    -0.01407961    0.00813004    0.00987531
     atom    7 type  1   force =     0.01407972    0.00812821    0.00987239
     atom    8 type  2   force =     0.00000019   -0.00000028    0.00131082
     atom    9 type  1   force =     0.00000024   -0.00075297   -0.00006412
     atom   10 type  1   force =    -0.00064945    0.00037818   -0.00006318
     atom   11 type  1   force =     0.00064541    0.00037601   -0.00006456
     atom   12 type  2   force =    -0.00000034   -0.00000097   -0.00065347

     Total force =     0.074152     Total SCF correction =     0.002042

     entering subroutine stress ...

     negative rho (up, down):  3.214E-03 0.000E+00
          total   stress  (Ry/bohr**3)                   (kbar)     P=   -3.77
  -0.00005056   0.00000000  -0.00000000         -7.44      0.00     -0.00
   0.00000000  -0.00005056  -0.00000000          0.00     -7.44     -0.00
  -0.00000000  -0.00000000   0.00002426         -0.00     -0.00      3.57

 !ASE

     Writing output data file calc.save

     General routines

     Parallel routines

   This run was terminated on:  10:44:22  30Dec2018

   JOB DONE.
Job  /afs/slac/g/suncat/bin/suncat-tsmpirun -x LD_LIBRARY_PATH -wdir /scratch/qe648482_QDVL5 pw.x -in pw.inp

TID   HOST_NAME   COMMAND_LINE            STATUS            TERMINATION_TIME
00000 suncat0081 pw.x -in pw.inp   Done                     12/30/2018 10:44:22
00001 suncat0081 pw.x -in pw.inp   Done                     12/30/2018 10:44:22
00002 suncat0081 pw.x -in pw.inp   Done                     12/30/2018 10:44:22
00003 suncat0081 pw.x -in pw.inp   Done                     12/30/2018 10:44:22
00004 suncat0081 pw.x -in pw.inp   Done                     12/30/2018 10:44:22
00005 suncat0081 pw.x -in pw.inp   Done                     12/30/2018 10:44:22
00006 suncat0081 pw.x -in pw.inp   Done                     12/30/2018 10:44:22
00007 suncat0081 pw.x -in pw.inp   Done                     12/30/2018 10:44:22
00008 suncat0079 pw.x -in pw.inp   Done                     12/30/2018 10:44:22
00009 suncat0079 pw.x -in pw.inp   Done                     12/30/2018 10:44:22
00010 suncat0079 pw.x -in pw.inp   Done                     12/30/2018 10:44:22
00011 suncat0079 pw.x -in pw.inp   Done                     12/30/2018 10:44:22
00012 suncat0079 pw.x -in pw.inp   Done                     12/30/2018 10:44:22
00013 suncat0079 pw.x -in pw.inp   Done                     12/30/2018 10:44:22
00014 suncat0079 pw.x -in pw.inp   Done                     12/30/2018 10:44:22
00015 suncat0079 pw.x -in pw.inp   Done                     12/30/2018 10:44:22
00016 suncat0076 pw.x -in pw.inp   Done                     12/30/2018 10:44:22
00017 suncat0076 pw.x -in pw.inp   Done                     12/30/2018 10:44:22
00018 suncat0076 pw.x -in pw.inp   Done                     12/30/2018 10:44:22
00019 suncat0076 pw.x -in pw.inp   Done                     12/30/2018 10:44:22
00020 suncat0076 pw.x -in pw.inp   Done                     12/30/2018 10:44:22
00021 suncat0076 pw.x -in pw.inp   Done                     12/30/2018 10:44:22
00022 suncat0076 pw.x -in pw.inp   Done                     12/30/2018 10:44:22
00023 suncat0076 pw.x -in pw.inp   Done                     12/30/2018 10:44:22
00024 suncat0075 pw.x -in pw.inp   Done                     12/30/2018 10:44:22
00025 suncat0075 pw.x -in pw.inp   Done                     12/30/2018 10:44:22
00026 suncat0075 pw.x -in pw.inp   Done                     12/30/2018 10:44:22
00027 suncat0075 pw.x -in pw.inp   Done                     12/30/2018 10:44:22
00028 suncat0075 pw.x -in pw.inp   Done                     12/30/2018 10:44:22
00029 suncat0075 pw.x -in pw.inp   Done                     12/30/2018 10:44:22
00030 suncat0075 pw.x -in pw.inp   Done                     12/30/2018 10:44:22
00031 suncat0075 pw.x -in pw.inp   Done                     12/30/2018 10:44:22
00032 suncat0074 pw.x -in pw.inp   Done                     12/30/2018 10:44:22
00033 suncat0074 pw.x -in pw.inp   Done                     12/30/2018 10:44:22
00034 suncat0074 pw.x -in pw.inp   Done                     12/30/2018 10:44:22
00035 suncat0074 pw.x -in pw.inp   Done                     12/30/2018 10:44:22
00036 suncat0074 pw.x -in pw.inp   Done                     12/30/2018 10:44:22
00037 suncat0074 pw.x -in pw.inp   Done                     12/30/2018 10:44:22
00038 suncat0074 pw.x -in pw.inp   Done                     12/30/2018 10:44:22
00039 suncat0074 pw.x -in pw.inp   Done                     12/30/2018 10:44:22
00040 suncat0073 pw.x -in pw.inp   Done                     12/30/2018 10:44:22
00041 suncat0073 pw.x -in pw.inp   Done                     12/30/2018 10:44:22
00042 suncat0073 pw.x -in pw.inp   Done                     12/30/2018 10:44:22
00043 suncat0073 pw.x -in pw.inp   Done                     12/30/2018 10:44:22
00044 suncat0073 pw.x -in pw.inp   Done                     12/30/2018 10:44:22
00045 suncat0073 pw.x -in pw.inp   Done                     12/30/2018 10:44:22
00046 suncat0073 pw.x -in pw.inp   Done                     12/30/2018 10:44:22
00047 suncat0073 pw.x -in pw.inp   Done                     12/30/2018 10:44:22
00048 suncat0065 pw.x -in pw.inp   Done                     12/30/2018 10:44:22
00049 suncat0065 pw.x -in pw.inp   Done                     12/30/2018 10:44:22
00050 suncat0065 pw.x -in pw.inp   Done                     12/30/2018 10:44:22
00051 suncat0065 pw.x -in pw.inp   Done                     12/30/2018 10:44:22
00052 suncat0065 pw.x -in pw.inp   Done                     12/30/2018 10:44:22
00053 suncat0065 pw.x -in pw.inp   Done                     12/30/2018 10:44:22
00054 suncat0065 pw.x -in pw.inp   Done                     12/30/2018 10:44:22
00055 suncat0065 pw.x -in pw.inp   Done                     12/30/2018 10:44:22
00056 suncat0064 pw.x -in pw.inp   Done                     12/30/2018 10:44:22
00057 suncat0064 pw.x -in pw.inp   Done                     12/30/2018 10:44:22
00058 suncat0064 pw.x -in pw.inp   Done                     12/30/2018 10:44:22
00059 suncat0064 pw.x -in pw.inp   Done                     12/30/2018 10:44:22
00060 suncat0064 pw.x -in pw.inp   Done                     12/30/2018 10:44:22
00061 suncat0064 pw.x -in pw.inp   Done                     12/30/2018 10:44:22
00062 suncat0064 pw.x -in pw.inp   Done                     12/30/2018 10:44:22
00063 suncat0064 pw.x -in pw.inp   Done                     12/30/2018 10:44:22