     Program PWSCF v.5.1rc2 (svn rev. 11289) starts on  2Jan2019 at 16: 8:35

     Current dimensions of program PWSCF are:
     Max number of different atomic species (ntypx) = 10
     Max number of k-points (npk) =  40000
     Max angular momentum in pseudopotentials (lmaxx) =  3
     Presently stress not available with electric field

     IMPORTANT: XC functional enforced from input :
     Exchange-correlation      = BEEF-VDW ( 1  4 27 13 2)
     Any further DFT definition will be discarded
     Please, verify this is what you really want

     Subspace diagonalization in iterative solution of the eigenvalue problem:
     a serial algorithm will be used

     bravais-lattice index     =            0
     lattice parameter (alat)  =       1.8897  a.u.
     unit-cell volume          =    6030.5028 (a.u.)^3
     number of atoms/cell      =           12
     number of atomic types    =            2
     number of electrons       =       213.00
     number of Kohn-Sham states=          136
     kinetic-energy cutoff     =      36.7493  Ry
     charge density cutoff     =     367.4932  Ry
     convergence threshold     =      1.0E-06
     mixing beta               =       0.1000
     number of iterations used =           10  plain     mixing
     Exchange-correlation      = BEEF-VDW ( 1  4 27 13 2)
     nstep                     =           50

     celldm(1)=   1.889726  celldm(2)=   0.000000  celldm(3)=   0.000000
     celldm(4)=   0.000000  celldm(5)=   0.000000  celldm(6)=   0.000000

     crystal axes: (cart. coord. in units of alat)
               a(1) = (   6.396163   0.000000   0.000000 )
               a(2) = (  -3.198082   5.539240   0.000000 )
               a(3) = (   0.000000   0.000000  25.222446 )

     reciprocal axes: (cart. coord. in units 2 pi/alat)
               b(1) = (  0.156344  0.090265  0.000000 )
               b(2) = (  0.000000  0.180530  0.000000 )
               b(3) = (  0.000000  0.000000  0.039647 )

     PseudoPot. # 1 for Zn read from file:
     /afs/slac.stanford.edu/u/if/mamunm/psp/gbrv1.5pbe/Zn.UPF
     MD5 check sum: df62231357ef9e81f77b2b3087fa5675
     Pseudo is Ultrasoft, Zval = 20.0
     Generated by new atomic code, or converted to UPF format
     Using radial grid of  943 points,  6 beta functions with:
                l(1) =   0
                l(2) =   0
                l(3) =   1
                l(4) =   1
                l(5) =   2
                l(6) =   2
     Q(r) pseudized with  8 coefficients,  rinner =    1.100   1.100   1.100
                                                       1.100   1.100

     PseudoPot. # 2 for La read from file:
     /afs/slac.stanford.edu/u/if/mamunm/psp/gbrv1.5pbe/La.UPF
     MD5 check sum: 5937b0c7494ba0601a847275249473aa
     Pseudo is Ultrasoft + core correction, Zval = 11.0
     Generated by new atomic code, or converted to UPF format
     Using radial grid of  995 points,  8 beta functions with:
                l(1) =   0
                l(2) =   0
                l(3) =   1
                l(4) =   1
                l(5) =   2
                l(6) =   2
                l(7) =   3
                l(8) =   3
     Q(r) pseudized with  8 coefficients,  rinner =    1.700   1.700   1.700
                                                       1.700   1.700   1.700
                                                       1.700

     vdW kernel table read from file vdW_kernel_table
     MD5 check sum: 095c7af220d748ca6e76c0b4c6cfb241

     atomic species   valence    mass     pseudopotential
        Zn1           20.00    65.38000     Zn( 1.00)
        La1           11.00   138.90547     La( 1.00)

     No symmetry found

   Cartesian axes

     site n.     atom                  positions (alat units)
         1           Zn1 tau(   1) = (   0.0000000   0.0000000  10.0000000  )
         2           Zn1 tau(   2) = (  -1.5990408   2.7696200  10.0000000  )
         3           Zn1 tau(   3) = (   1.5990408   2.7696200  10.0000000  )
         4           La1 tau(   4) = (   3.1980817   0.0000000  10.0000000  )
         5           Zn1 tau(   5) = (   3.1980817   1.8464133  12.6112228  )
         6           Zn1 tau(   6) = (   1.5990408   4.6160333  12.6112228  )
         7           Zn1 tau(   7) = (  -1.5990408   4.6160333  12.6112228  )
         8           La1 tau(   8) = (  -0.0000000   1.8464133  12.6112228  )
         9           Zn1 tau(   9) = (  -0.0000000   3.6928266  15.2224455  )
        10           Zn1 tau(  10) = (   1.5990408   0.9232067  15.2224455  )
        11           Zn1 tau(  11) = (   4.7971225   0.9232067  15.2224455  )
        12           La1 tau(  12) = (   3.1980817   3.6928266  15.2224455  )

     number of k points=    20  Fermi-Dirac smearing, width (Ry)=  0.0110
                       cart. coord. in units 2pi/alat
        k(    1) = (   0.0000000   0.0000000   0.0000000), wk =   0.0555556
        k(    2) = (   0.0000000   0.0300884   0.0000000), wk =   0.1111111
        k(    3) = (   0.0000000   0.0601767   0.0000000), wk =   0.1111111
        k(    4) = (   0.0000000  -0.0902651   0.0000000), wk =   0.0555556
        k(    5) = (   0.0260573   0.0150442   0.0000000), wk =   0.1111111
        k(    6) = (   0.0260573   0.0451325   0.0000000), wk =   0.1111111
        k(    7) = (   0.0260573   0.0752209   0.0000000), wk =   0.1111111
        k(    8) = (   0.0260573  -0.0752209   0.0000000), wk =   0.1111111
        k(    9) = (   0.0260573  -0.0451325   0.0000000), wk =   0.1111111
        k(   10) = (   0.0260573  -0.0150442   0.0000000), wk =   0.1111111
        k(   11) = (   0.0521146   0.0300884   0.0000000), wk =   0.1111111
        k(   12) = (   0.0521146   0.0601767   0.0000000), wk =   0.1111111
        k(   13) = (   0.0521146   0.0902651   0.0000000), wk =   0.1111111
        k(   14) = (   0.0521146  -0.0601767   0.0000000), wk =   0.1111111
        k(   15) = (   0.0521146  -0.0300884   0.0000000), wk =   0.1111111
        k(   16) = (   0.0521146   0.0000000   0.0000000), wk =   0.1111111
        k(   17) = (  -0.0781719  -0.0451325   0.0000000), wk =   0.0555556
        k(   18) = (  -0.0781719  -0.0150442   0.0000000), wk =   0.1111111
        k(   19) = (  -0.0781719   0.0150442   0.0000000), wk =   0.1111111
        k(   20) = (  -0.0781719  -0.1353976   0.0000000), wk =   0.0555556

     Largest allocated arrays     est. size (Mb)     dimensions
     Largest temporary arrays     est. size (Mb)     dimensions

     Initial potential from superposition of free atoms
     Check: negative starting charge=   -0.213983

     starting charge  212.90253, renormalised to  213.00000

     negative rho (up, down):  2.141E-01 0.000E+00

     *
     * You are using vdW-DF for exchange-correlation in this calculation.
     * Please cite the following three references that made this development
     * possible:
     *
     *   M. Dion, H. Rydberg, E. Schroder, D. C. Langreth, and
     *   B. I. Lundqvist, Phys. Rev. Lett. 92, 246401 (2004).
     *
     *   T. Thonhauser, V. R. Cooper, S. Li, A. Puzder, P. Hyldgaard, and
     *   D. C. Langreth, Phys. Rev. B 76, 125112 (2007).
     *
     *   G. Roman-Perez and J. M. Soler, Phys. Rev. Lett. 103, 096102 (2009).
     *
     *
     * If you are using vdW-DF2, please also cite:
     *
     *   K. Lee, E. D. Murray, L. Kong, B. I. Lundqvist, and
     *   D. C. Langreth, Phys. Rev. B 82, 081101(R) (2010).
     *
     *
     * If you are calculating the stress with vdW-DF, please also cite:
     *
     *   R. Sabatini, E. Kucukbenli, B. Kolb, T. Thonhauser, and
     *   S. de Gironcoli, J. Phys.: Condens. Matter 24, 424209 (2012).
     *

     Carrying out vdW-DF run using the following parameters:

     Nqs =      20    Nr_points =    1024   r_max =   100.000
     q_mesh =
               0.00001000     0.04494208     0.09755937     0.15916263
               0.23128650     0.31572767     0.41458969     0.53033537
               0.66584808     0.82450364     1.01025438     1.22772762
               1.48234092     1.78043706     2.12944203     2.53805004
               3.01644009     3.57652955     4.23227104     5.00000000

     Gradients computed in reciprocal space

     Adding external electric field

     Computed dipole along edir(3) :
        Dipole               -0.0000 Ry au,         -0.0000 Debye
        Dipole field         -0.0000 Ry au

        Potential amp.        0.0000 Ry
        Total length         46.4719 bohr

     Starting wfc are  177 randomized atomic wfcs

     Self-consistent Calculation

     iteration #  1     ecut=    36.75 Ry     beta=0.10
     Davidson diagonalization with overlap
     ethr =  1.00E-02,  avg # of iterations =  2.0

[...]

     total energy              =   -4476.54730811 Ry
     Harris-Foulkes estimate   =   -4477.49663574 Ry
     estimated scf accuracy    <       5.24126138 Ry

[...]

     End of self-consistent calculation

          k = 0.0000 0.0000 0.0000 ( 22729 PWs)   bands (ev):

  -125.3856-125.3856-125.3855-125.3855-125.3855-125.3854-125.2453-125.2434
  -125.2433 -79.5736 -79.5735 -79.5732 -79.5732 -79.5731 -79.5730 -79.5720
   -79.5720 -79.5719 -79.5718 -79.5716 -79.5715 -79.5462 -79.5460 -79.5452
   -79.5451 -79.5451 -79.5450 -79.4362 -79.4338 -79.4336 -79.4186 -79.4161
   -79.4159 -79.4095 -79.4073 -79.4067 -32.4936 -32.4933 -32.0780 -16.1613
   -16.1534 -16.0773 -16.0773 -16.0758 -16.0758 -15.7839 -15.7116 -15.7115
    -6.4814  -6.4729  -6.4729  -6.4588  -6.4472  -6.4472  -6.4271  -6.4196
    -6.4143  -6.4142  -6.3952  -6.3626  -6.3620  -6.3337  -6.3337  -6.3331
    -6.3324  -6.2742  -6.2679  -6.2674  -6.2598  -6.2597  -6.2477  -6.2474
    -6.2198  -6.2135  -6.1842  -6.1840  -6.1687  -6.1679  -6.1679  -6.1492
    -6.1492  -6.1200  -6.1189  -6.0505  -6.0466  -6.0464  -6.0435  -6.0173
    -6.0169  -6.0052  -5.9506  -5.9496  -5.8970  -5.6614  -4.5027  -3.0956
    -2.1058  -2.1056  -1.4647  -1.4646  -0.9167  -0.9167  -0.3666   0.0460
     0.5546   0.9112   1.0345   1.0345   1.3705   1.7680   1.7680   1.8443
     1.8443   2.1435   2.1435   2.2268   2.2268   2.2484   2.2528   2.2823
     2.3051   2.4673   2.4673   2.4836   2.4836   2.5477   2.5560   2.7482
     2.7593   2.7593   2.7675   2.7675   2.7797   2.8520   2.8520   3.0003

[...]

          k =-0.0782-0.0451 0.0000 ( 22684 PWs)   bands (ev):

[...]

     the Fermi energy is     0.9518 ev

!    total energy              =   -4477.11006229 Ry
     Harris-Foulkes estimate   =   -4477.11007396 Ry
     estimated scf accuracy    <       0.00000085 Ry

     The total energy is the sum of the following terms:

     one-electron contribution =  -21574.41482472 Ry
     hartree contribution      =   10778.03462738 Ry
     xc contribution           =    -542.43714027 Ry
     ewald contribution        =    6861.77202589 Ry
     electric field correction =       0.00000001 Ry
     smearing contrib. (-TS)   =      -0.06475058 Ry

     convergence has been achieved in  15 iterations

 BEEF-vdW xc energy contributions
           1 :   -481.431906393297
           2 :    437.756442396559
           3 :   -363.607248569670
           4 :    279.179388305283
           5 :   -203.000442254566
           6 :    145.414700796830
[...]
                l(1) =   0
                l(2) =   0
                l(3) =   1
                l(4) =   1
                l(5) =   2
                l(6) =   2
     Q(r) pseudized with  8 coefficients,  rinner =    1.100   1.100   1.100
                                                       1.100   1.100

     PseudoPot. # 2 for La read from file:
     /afs/slac.stanford.edu/u/if/mamunm/psp/gbrv1.5pbe/La.UPF
     MD5 check sum: 5937b0c7494ba0601a847275249473aa
     Pseudo is Ultrasoft + core correction, Zval = 11.0
     Generated by new atomic code, or converted to UPF format
     Using radial grid of  995 points,  8 beta functions with:
                l(1) =   0
                l(2) =   0
                l(3) =   1
                l(4) =   1
                l(5) =   2
                l(6) =   2
                l(7) =   3
                l(8) =   3
     Q(r) pseudized with  8 coefficients,  rinner =    1.700   1.700   1.700
                                                       1.700   1.700   1.700
                                                       1.700

     vdW kernel table read from file vdW_kernel_table
     MD5 check sum: 095c7af220d748ca6e76c0b4c6cfb241

     atomic species   valence    mass     pseudopotential
        Zn1           20.00    65.38000     Zn( 1.00)
        La1           11.00   138.90547     La( 1.00)

     No symmetry found

   Cartesian axes

     site n.     atom                  positions (alat units)
         1           Zn1 tau(   1) = (   0.0000000   0.0000000  10.0000000  )
         2           Zn1 tau(   2) = (  -1.5990408   2.7696200  10.0000000  )
         3           Zn1 tau(   3) = (   1.5990408   2.7696200  10.0000000  )
         4           La1 tau(   4) = (   3.1980817   0.0000000  10.0000000  )
         5           Zn1 tau(   5) = (   3.1980817   1.8464133  12.6112228  )
         6           Zn1 tau(   6) = (   1.5990408   4.6160333  12.6112228  )
         7           Zn1 tau(   7) = (  -1.5990408   4.6160333  12.6112228  )
         8           La1 tau(   8) = (  -0.0000000   1.8464133  12.6112228  )
         9           Zn1 tau(   9) = (  -0.0000053   3.9660783  14.9032103  )
        10           Zn1 tau(  10) = (   1.8349174   0.7862388  14.9038540  )
        11           Zn1 tau(  11) = (   4.5612286   0.7862252  14.9038572  )
        12           La1 tau(  12) = (   3.1980809   3.6908503  15.2790260  )

     number of k points=    20  Fermi-Dirac smearing, width (Ry)=  0.0110
                       cart. coord. in units 2pi/alat
        k(    1) = (   0.0000000   0.0000000   0.0000000), wk =   0.0555556
        k(    2) = (   0.0000000   0.0300884   0.0000000), wk =   0.1111111
        k(    3) = (   0.0000000   0.0601767   0.0000000), wk =   0.1111111
        k(    4) = (   0.0000000  -0.0902651   0.0000000), wk =   0.0555556
        k(    5) = (   0.0260573   0.0150442   0.0000000), wk =   0.1111111
        k(    6) = (   0.0260573   0.0451325   0.0000000), wk =   0.1111111
        k(    7) = (   0.0260573   0.0752209   0.0000000), wk =   0.1111111
        k(    8) = (   0.0260573  -0.0752209   0.0000000), wk =   0.1111111
        k(    9) = (   0.0260573  -0.0451325   0.0000000), wk =   0.1111111
        k(   10) = (   0.0260573  -0.0150442   0.0000000), wk =   0.1111111
        k(   11) = (   0.0521146   0.0300884   0.0000000), wk =   0.1111111
        k(   12) = (   0.0521146   0.0601767   0.0000000), wk =   0.1111111
        k(   13) = (   0.0521146   0.0902651   0.0000000), wk =   0.1111111
        k(   14) = (   0.0521146  -0.0601767   0.0000000), wk =   0.1111111
        k(   15) = (   0.0521146  -0.0300884   0.0000000), wk =   0.1111111
        k(   16) = (   0.0521146   0.0000000   0.0000000), wk =   0.1111111
        k(   17) = (  -0.0781719  -0.0451325   0.0000000), wk =   0.0555556
        k(   18) = (  -0.0781719  -0.0150442   0.0000000), wk =   0.1111111
        k(   19) = (  -0.0781719   0.0150442   0.0000000), wk =   0.1111111
        k(   20) = (  -0.0781719  -0.1353976   0.0000000), wk =   0.0555556

     Largest allocated arrays     est. size (Mb)     dimensions
     Largest temporary arrays     est. size (Mb)     dimensions

     Initial potential from superposition of free atoms
     Check: negative starting charge=   -0.214087

     starting charge  212.90253, renormalised to  213.00000

[...]

     *
     * You are using vdW-DF for exchange-correlation in this calculation.
     * Please cite the following three references that made this development
     * possible:
     *
     *   M. Dion, H. Rydberg, E. Schroder, D. C. Langreth, and
     *   B. I. Lundqvist, Phys. Rev. Lett. 92, 246401 (2004).
     *
     *   T. Thonhauser, V. R. Cooper, S. Li, A. Puzder, P. Hyldgaard, and
     *   D. C. Langreth, Phys. Rev. B 76, 125112 (2007).
     *
     *   G. Roman-Perez and J. M. Soler, Phys. Rev. Lett. 103, 096102 (2009).
     *
     *
     * If you are using vdW-DF2, please also cite:
     *
     *   K. Lee, E. D. Murray, L. Kong, B. I. Lundqvist, and
     *   D. C. Langreth, Phys. Rev. B 82, 081101(R) (2010).
     *
     *
     * If you are calculating the stress with vdW-DF, please also cite:
     *
     *   R. Sabatini, E. Kucukbenli, B. Kolb, T. Thonhauser, and
     *   S. de Gironcoli, J. Phys.: Condens. Matter 24, 424209 (2012).
     *

     Carrying out vdW-DF run using the following parameters:

     Nqs =      20    Nr_points =    1024   r_max =   100.000
     q_mesh =
               0.00001000     0.04494208     0.09755937     0.15916263
               0.23128650     0.31572767     0.41458969     0.53033537
               0.66584808     0.82450364     1.01025438     1.22772762
               1.48234092     1.78043706     2.12944203     2.53805004
               3.01644009     3.57652955     4.23227104     5.00000000

     Gradients computed in reciprocal space

[...]

     Starting wfc are  177 randomized atomic wfcs

     Self-consistent Calculation

[...]

     total energy              =   -4477.14089373 Ry
     Harris-Foulkes estimate   =   -4477.14089494 Ry
     estimated scf accuracy    <       0.00000132 Ry

     iteration # 16     ecut=    36.75 Ry     beta=0.10
     Davidson diagonalization with overlap
     ethr =  6.18E-10,  avg # of iterations =  3.9

[...]

     negative rho (up, down):  1.485E-01 0.000E+00

     Adding external electric field

     Computed dipole along edir(3) :
        Dipole                0.1139 Ry au,          0.2894 Debye
        Dipole field          0.0002 Ry au

        Potential amp.       -0.0221 Ry
        Total length         46.4719 bohr

     End of self-consistent calculation

[...]

          k = 0.0521 0.0000 0.0000 ( 22699 PWs)   bands (ev):

[...]

          k =-0.0782-0.1354 0.0000 ( 22684 PWs)   bands (ev):

  -125.3473-125.3466-125.3464-125.2531-125.2531-125.2530-125.1523-125.1523
  -125.1520 -79.5315 -79.5293 -79.5290 -79.5249 -79.5199 -79.5198 -79.5150
   -79.5148 -79.5133 -79.4406 -79.4405 -79.4404 -79.4396 -79.4395 -79.4392
   -79.4140 -79.4136 -79.4132 -79.3400 -79.3399 -79.3394 -79.3236 -79.3234
   -79.3231 -79.3173 -79.3170 -79.3167 -32.5322 -32.3619 -31.8644 -16.1956
   -16.1046 -16.0922 -16.0265 -15.9667 -15.9516 -15.5690 -15.5358 -15.5228
    -6.5653  -6.4846  -6.4794  -6.4541  -6.3836  -6.3630  -6.3513  -6.3241
    -6.2898  -6.2880  -6.2798  -6.2265  -6.2206  -6.2001  -6.1978  -6.1856
    -6.1844  -6.1680  -6.1677  -6.1483  -6.1471  -6.1458  -6.1345  -6.1268
    -6.1263  -6.1060  -6.1055  -6.0681  -6.0656  -6.0534  -6.0521  -6.0236
    -6.0222  -6.0169  -6.0107  -5.9965  -5.9821  -5.9718  -5.9552  -5.9465
    -5.9424  -5.9199  -5.8867  -5.8708  -5.8158  -4.9984  -4.2184  -3.5045
    -2.8641  -2.0681  -2.0363  -1.7239  -1.2951  -0.4906   0.0249   0.2627
     0.5105   0.8044   1.1161   1.1779   1.2125   1.3406   1.8920   2.0671
     2.1997   2.2841   2.2956   2.3169   2.3341   2.3613   2.3631   2.3775
     2.4412   2.4515   2.4603   2.4704   2.4873   2.5202   2.5377   2.8055
     2.8962   2.9138   2.9614   2.9719   3.0613   3.0690   3.0963   3.1490

     the Fermi energy is     1.0703 ev

!    total energy              =   -4477.14088368 Ry
     Harris-Foulkes estimate   =   -4477.14089361 Ry
     estimated scf accuracy    <       0.00000035 Ry

     The total energy is the sum of the following terms:

     one-electron contribution =  -22299.59676110 Ry
     hartree contribution      =   11141.33027542 Ry
     xc contribution           =    -542.53553225 Ry
     ewald contribution        =    7223.71965318 Ry
     electric field correction =       0.00002701 Ry
     smearing contrib. (-TS)   =      -0.05854593 Ry

     convergence has been achieved in  16 iterations

 BEEF-vdW xc energy contributions
           1 :   -481.712111365082
           2 :    438.146928695481
           3 :   -364.132326770348
           4 :    279.750874999830
           5 :   -203.473050535662
           6 :    145.689154311019
           7 :   -107.129781033049
           8 :    81.9805411048538
           9 :   -63.1424179582804
          10 :    46.3921795089748
          11 :   -31.4177473643418
          12 :    19.9443917583419
          13 :   -12.9625185274601
          14 :    9.25054927596295
          15 :   -6.06907360274738
          16 :    1.17950625367303
          17 :    5.52379237781969
          18 :   -12.0161040310775
          19 :    15.7042356083148
          20 :   -15.3352873054308
          21 :    11.8702169824172
          22 :   -7.78496139136280
          23 :    5.41144293590480
          24 :   -5.54687478751305
          25 :    7.24518875879767
          26 :   -8.78450027889482
          27 :    8.98308117582917
          28 :   -7.89792936699848
          29 :    6.50652253725752
          30 :   -5.76602046227697
          31 :   -38.1932512250206
          32 :   -26.3400135139551

     Forces acting on atoms (Ry/au):

     negative rho (up, down):  1.485E-01 0.000E+00
     atom    1 type  1   force =    -0.00000051   -0.00998468    0.01073818
     atom    2 type  1   force =    -0.00864941    0.00500653    0.01073622
     atom    3 type  1   force =     0.00864990    0.00500505    0.01073495
     atom    4 type  2   force =     0.00000037    0.00000219   -0.00811330
     atom    5 type  1   force =    -0.00000060    0.00324740   -0.00333379
     atom    6 type  1   force =     0.00285726   -0.00164575   -0.00332691
     atom    7 type  1   force =    -0.00285694   -0.00164475   -0.00332668
     atom    8 type  2   force =    -0.00000046    0.00002344   -0.01106851
     atom    9 type  1   force =     0.00000017   -0.00148648   -0.00102644
     atom   10 type  1   force =    -0.00126724    0.00064670   -0.00107503
     atom   11 type  1   force =     0.00126766    0.00064688   -0.00107551
     atom   12 type  2   force =    -0.00000019    0.00018347    0.00013682

     Total force =     0.030146     Total SCF correction =     0.002069

     entering subroutine stress ...

     negative rho (up, down):  1.485E-01 0.000E+00
          total   stress  (Ry/bohr**3)                   (kbar)     P=   -6.53
  -0.00004238  -0.00000000   0.00000000         -6.23     -0.00      0.00
  -0.00000000  -0.00004223   0.00000007         -0.00     -6.21      0.01
   0.00000000   0.00000007  -0.00004866          0.00      0.01     -7.16

 !ASE

     Writing output data file calc.save

     General routines

     Parallel routines

   This run was terminated on:  19:34:25   2Jan2019

   JOB DONE.
Job  /afs/slac/g/suncat/bin/suncat-tsmpirun -x LD_LIBRARY_PATH -wdir /scratch/qe649483_Zq7nd pw.x -in pw.inp

TID   HOST_NAME   COMMAND_LINE            STATUS            TERMINATION_TIME
00000 suncat0062 pw.x -in pw.inp   Done                     01/02/2019 19:34:25
00001 suncat0062 pw.x -in pw.inp   Done                     01/02/2019 19:34:25
00002 suncat0062 pw.x -in pw.inp   Done                     01/02/2019 19:34:25
00003 suncat0062 pw.x -in pw.inp   Done                     01/02/2019 19:34:25
00004 suncat0062 pw.x -in pw.inp   Done                     01/02/2019 19:34:25
00005 suncat0062 pw.x -in pw.inp   Done                     01/02/2019 19:34:25
00006 suncat0062 pw.x -in pw.inp   Done                     01/02/2019 19:34:25
00007 suncat0062 pw.x -in pw.inp   Done                     01/02/2019 19:34:25
00008 suncat0061 pw.x -in pw.inp   Done                     01/02/2019 19:34:25
00009 suncat0061 pw.x -in pw.inp   Done                     01/02/2019 19:34:25
00010 suncat0061 pw.x -in pw.inp   Done                     01/02/2019 19:34:25
00011 suncat0061 pw.x -in pw.inp   Done                     01/02/2019 19:34:25
00012 suncat0061 pw.x -in pw.inp   Done                     01/02/2019 19:34:25
00013 suncat0061 pw.x -in pw.inp   Done                     01/02/2019 19:34:25
00014 suncat0061 pw.x -in pw.inp   Done                     01/02/2019 19:34:25
00015 suncat0061 pw.x -in pw.inp   Done                     01/02/2019 19:34:25
00016 suncat0060 pw.x -in pw.inp   Done                     01/02/2019 19:34:25
00017 suncat0060 pw.x -in pw.inp   Done                     01/02/2019 19:34:25
00018 suncat0060 pw.x -in pw.inp   Done                     01/02/2019 19:34:25
00019 suncat0060 pw.x -in pw.inp   Done                     01/02/2019 19:34:25
00020 suncat0060 pw.x -in pw.inp   Done                     01/02/2019 19:34:25
00021 suncat0060 pw.x -in pw.inp   Done                     01/02/2019 19:34:25
00022 suncat0060 pw.x -in pw.inp   Done                     01/02/2019 19:34:25
00023 suncat0060 pw.x -in pw.inp   Done                     01/02/2019 19:34:25
00024 suncat0057 pw.x -in pw.inp   Done                     01/02/2019 19:34:25
00025 suncat0057 pw.x -in pw.inp   Done                     01/02/2019 19:34:25
00026 suncat0057 pw.x -in pw.inp   Done                     01/02/2019 19:34:25
00027 suncat0057 pw.x -in pw.inp   Done                     01/02/2019 19:34:25
00028 suncat0057 pw.x -in pw.inp   Done                     01/02/2019 19:34:25
00029 suncat0057 pw.x -in pw.inp   Done                     01/02/2019 19:34:25
00030 suncat0057 pw.x -in pw.inp   Done                     01/02/2019 19:34:25
00031 suncat0057 pw.x -in pw.inp   Done                     01/02/2019 19:34:25
00032 suncat0016 pw.x -in pw.inp   Done                     01/02/2019 19:34:25
00033 suncat0016 pw.x -in pw.inp   Done                     01/02/2019 19:34:25
00034 suncat0016 pw.x -in pw.inp   Done                     01/02/2019 19:34:25
00035 suncat0016 pw.x -in pw.inp   Done                     01/02/2019 19:34:25
00036 suncat0016 pw.x -in pw.inp   Done                     01/02/2019 19:34:25
00037 suncat0016 pw.x -in pw.inp   Done                     01/02/2019 19:34:25
00038 suncat0016 pw.x -in pw.inp   Done                     01/02/2019 19:34:25
00039 suncat0016 pw.x -in pw.inp   Done                     01/02/2019 19:34:25
00040 suncat0198 pw.x -in pw.inp   Done                     01/02/2019 19:34:25
00041 suncat0198 pw.x -in pw.inp   Done                     01/02/2019 19:34:25
00042 suncat0198 pw.x -in pw.inp   Done                     01/02/2019 19:34:25
00043 suncat0198 pw.x -in pw.inp   Done                     01/02/2019 19:34:25
00044 suncat0198 pw.x -in pw.inp   Done                     01/02/2019 19:34:25
00045 suncat0198 pw.x -in pw.inp   Done                     01/02/2019 19:34:25
00046 suncat0198 pw.x -in pw.inp   Done                     01/02/2019 19:34:25
00047 suncat0198 pw.x -in pw.inp   Done                     01/02/2019 19:34:25
00048 suncat0194 pw.x -in pw.inp   Done                     01/02/2019 19:34:25
00049 suncat0194 pw.x -in pw.inp   Done                     01/02/2019 19:34:25
00050 suncat0194 pw.x -in pw.inp   Done                     01/02/2019 19:34:25
00051 suncat0194 pw.x -in pw.inp   Done                     01/02/2019 19:34:25
00052 suncat0194 pw.x -in pw.inp   Done                     01/02/2019 19:34:25
00053 suncat0194 pw.x -in pw.inp   Done                     01/02/2019 19:34:25
00054 suncat0194 pw.x -in pw.inp   Done                     01/02/2019 19:34:25
00055 suncat0194 pw.x -in pw.inp   Done                     01/02/2019 19:34:25
00056 suncat0193 pw.x -in pw.inp   Done                     01/02/2019 19:34:25
00057 suncat0193 pw.x -in pw.inp   Done                     01/02/2019 19:34:25
00058 suncat0193 pw.x -in pw.inp   Done                     01/02/2019 19:34:25
00059 suncat0193 pw.x -in pw.inp   Done                     01/02/2019 19:34:25
00060 suncat0193 pw.x -in pw.inp   Done                     01/02/2019 19:34:25
00061 suncat0193 pw.x -in pw.inp   Done                     01/02/2019 19:34:25
00062 suncat0193 pw.x -in pw.inp   Done                     01/02/2019 19:34:25
00063 suncat0193 pw.x -in pw.inp   Done                     01/02/2019 19:34:25