     Program PWSCF v.5.1rc2 (svn rev. 11289) starts on  2Jan2019 at  3:21: 8

     Current dimensions of program PWSCF are:
     Max number of different atomic species (ntypx) = 10
     Max number of k-points (npk) =  40000
     Max angular momentum in pseudopotentials (lmaxx) =  3
     Presently stress not available with electric field

     IMPORTANT: XC functional enforced from input :
     Exchange-correlation      = BEEF-VDW ( 1  4 27 13 2)
     Any further DFT definition will be discarded
     Please, verify this is what you really want

     Subspace diagonalization in iterative solution of the eigenvalue problem:
     a serial algorithm will be used

     bravais-lattice index     =            0
     lattice parameter (alat)  =       1.8897  a.u.
     unit-cell volume          =    6423.0674 (a.u.)^3
     number of atoms/cell      =           12
     number of atomic types    =            2
     number of electrons       =       153.00
     number of Kohn-Sham states=          106
     kinetic-energy cutoff     =      36.7493  Ry
     charge density cutoff     =     367.4932  Ry
     convergence threshold     =      1.0E-06
     mixing beta               =       0.1000
     number of iterations used =           10  plain     mixing
     Exchange-correlation      = BEEF-VDW ( 1  4 27 13 2)
     nstep                     =           50

     celldm(1)=   1.889726  celldm(2)=   0.000000  celldm(3)=   0.000000
     celldm(4)=   0.000000  celldm(5)=   0.000000  celldm(6)=   0.000000

     crystal axes: (cart. coord. in units of alat)
               a(1) = (   6.581366   0.000000   0.000000 )
               a(2) = (  -3.290683   5.699630   0.000000 )
               a(3) = (   0.000000   0.000000  25.373663 )

     reciprocal axes: (cart. coord. in units 2 pi/alat)
               b(1) = (  0.151944  0.087725  0.000000 )
               b(2) = (  0.000000  0.175450  0.000000 )
               b(3) = (  0.000000  0.000000  0.039411 )

     PseudoPot. # 1 for Tl read from file:
     /afs/slac.stanford.edu/u/if/mamunm/psp/gbrv1.5pbe/Tl.UPF
     MD5 check sum: b76cf1f7e72655a2b2c53cf6385d7059
     Pseudo is Ultrasoft + core correction, Zval = 13.0
     Generated by new atomic code, or converted to UPF format
     Using radial grid of  899 points,  6 beta functions with:
                l(1) =   0
                l(2) =   0
                l(3) =   1
                l(4) =   1
                l(5) =   2
                l(6) =   2
     Q(r) pseudized with  6 coefficients,  rinner =    1.100   1.100   1.100
                                                       1.100   1.100

     PseudoPot. # 2 for Ti read from file:
     /afs/slac.stanford.edu/u/if/mamunm/psp/gbrv1.5pbe/Ti.UPF
     MD5 check sum: 88a00a6731bd790ddea75d31a80cb452
     Pseudo is Ultrasoft + core correction, Zval = 12.0
     Generated by new atomic code, or converted to UPF format
     Using radial grid of  851 points,  6 beta functions with:
                l(1) =   0
                l(2) =   0
                l(3) =   1
                l(4) =   1
                l(5) =   2
                l(6) =   2
     Q(r) pseudized with  6 coefficients,  rinner =    1.000   1.000   1.000
                                                       1.000   1.000

     vdW kernel table read from file vdW_kernel_table
     MD5 check sum: 095c7af220d748ca6e76c0b4c6cfb241

     atomic species   valence    mass     pseudopotential
        Tl1           13.00   204.38000     Tl( 1.00)
        Ti1           12.00    47.86700     Ti( 1.00)

     No symmetry found

   Cartesian axes

     site n.     atom                  positions (alat units)
         1           Tl1 tau(   1) = (   0.0000000   0.0000000  10.0000000  )
         2           Tl1 tau(   2) = (  -1.6453415   2.8498151  10.0000000  )
         3           Tl1 tau(   3) = (   1.6453415   2.8498151  10.0000000  )
         4           Ti1 tau(   4) = (   3.2906830   0.0000000  10.0000000  )
         5           Tl1 tau(   5) = (   3.2906830   1.8998767  12.6868314  )
         6           Tl1 tau(   6) = (   1.6453415   4.7496918  12.6868314  )
         7           Tl1 tau(   7) = (  -1.6453415   4.7496918  12.6868314  )
         8           Ti1 tau(   8) = (   0.0000000   1.8998767  12.6868314  )
         9           Tl1 tau(   9) = (   0.0000000   3.7997534  15.3736628  )
        10           Tl1 tau(  10) = (   1.6453415   0.9499384  15.3736628  )
        11           Tl1 tau(  11) = (   4.9360245   0.9499384  15.3736628  )
        12           Ti1 tau(  12) = (   3.2906830   3.7997534  15.3736628  )

     number of k points=    20  Fermi-Dirac smearing, width (Ry)=  0.0110
                       cart. coord. in units 2pi/alat
        k(    1) = (   0.0000000   0.0000000   0.0000000), wk =   0.0555556
        k(    2) = (   0.0000000   0.0292417   0.0000000), wk =   0.1111111
        k(    3) = (   0.0000000   0.0584833   0.0000000), wk =   0.1111111
        k(    4) = (   0.0000000  -0.0877250   0.0000000), wk =   0.0555556
        k(    5) = (   0.0253240   0.0146208   0.0000000), wk =   0.1111111
        k(    6) = (   0.0253240   0.0438625   0.0000000), wk =   0.1111111
        k(    7) = (   0.0253240   0.0731042   0.0000000), wk =   0.1111111
        k(    8) = (   0.0253240  -0.0731042   0.0000000), wk =   0.1111111
        k(    9) = (   0.0253240  -0.0438625   0.0000000), wk =   0.1111111
        k(   10) = (   0.0253240  -0.0146208   0.0000000), wk =   0.1111111
        k(   11) = (   0.0506480   0.0292417   0.0000000), wk =   0.1111111
        k(   12) = (   0.0506480   0.0584833   0.0000000), wk =   0.1111111
        k(   13) = (   0.0506480   0.0877250   0.0000000), wk =   0.1111111
        k(   14) = (   0.0506480  -0.0584833   0.0000000), wk =   0.1111111
        k(   15) = (   0.0506480  -0.0292417   0.0000000), wk =   0.1111111
        k(   16) = (   0.0506480   0.0000000   0.0000000), wk =   0.1111111
        k(   17) = (  -0.0759721  -0.0438625   0.0000000), wk =   0.0555556
        k(   18) = (  -0.0759721  -0.0146208   0.0000000), wk =   0.1111111
        k(   19) = (  -0.0759721   0.0146208   0.0000000), wk =   0.1111111
        k(   20) = (  -0.0759721  -0.1315875   0.0000000), wk =   0.0555556

     Largest allocated arrays     est. size (Mb)     dimensions
     Largest temporary arrays     est. size (Mb)     dimensions

     Check: negative/imaginary core charge=   -0.000002    0.000000

     Initial potential from superposition of free atoms
     Check: negative starting charge=   -0.460749

     starting charge  149.95608, renormalised to  153.00000

     negative rho (up, down):  4.701E-01 0.000E+00

     *
     * You are using vdW-DF for exchange-correlation in this calculation.
     * Please cite the following three references that made this development
     * possible:
     *
     *   M. Dion, H. Rydberg, E. Schroder, D. C. Langreth, and
     *   B. I. Lundqvist, Phys. Rev. Lett. 92, 246401 (2004).
     *
     *   T. Thonhauser, V. R. Cooper, S. Li, A. Puzder, P. Hyldgaard, and
     *   D. C. Langreth, Phys. Rev. B 76, 125112 (2007).
     *
     *   G. Roman-Perez and J. M. Soler, Phys. Rev. Lett. 103, 096102 (2009).
     *
     *
     * If you are using vdW-DF2, please also cite:
     *
     *   K. Lee, E. D. Murray, L. Kong, B. I. Lundqvist, and
     *   D. C. Langreth, Phys. Rev. B 82, 081101(R) (2010).
     *
     *
     * If you are calculating the stress with vdW-DF, please also cite:
     *
     *   R. Sabatini, E. Kucukbenli, B. Kolb, T. Thonhauser, and
     *   S. de Gironcoli, J. Phys.: Condens. Matter 24, 424209 (2012).
     *

     Carrying out vdW-DF run using the following parameters:

     Nqs =      20    Nr_points =    1024   r_max =   100.000
     q_mesh =
               0.00001000     0.04494208     0.09755937     0.15916263
               0.23128650     0.31572767     0.41458969     0.53033537
               0.66584808     0.82450364     1.01025438     1.22772762
               1.48234092     1.78043706     2.12944203     2.53805004
               3.01644009     3.57652955     4.23227104     5.00000000

     Gradients computed in reciprocal space

     Adding external electric field

     Computed dipole along edir(3) :
        Dipole                0.0000 Ry au,          0.0000 Debye
        Dipole field          0.0000 Ry au

        Potential amp.       -0.0000 Ry
        Total length         46.7505 bohr

     Starting wfc are  111 randomized atomic wfcs

     Self-consistent Calculation

     iteration #  1     ecut=    36.75 Ry     beta=0.10
     Davidson diagonalization with overlap
     ethr =  1.00E-02,  avg # of iterations =  5.8

[...]

     total energy              =   -1676.16341911 Ry
     Harris-Foulkes estimate   =   -1683.64237039 Ry
     estimated scf accuracy    <      41.50944736 Ry

[...]

     End of self-consistent calculation

          k = 0.0000 0.0000 0.0000 ( 24003 PWs)   bands (ev):

   -56.8829 -56.8828 -56.7231 -33.1995 -33.1992 -33.0601 -33.0601 -33.0600
   -33.0600 -32.9601 -32.9601 -32.9265 -11.3343 -11.2508 -11.2418 -11.2418
   -11.1973 -11.1802 -11.0816 -11.0816 -11.0598 -11.0421 -11.0421 -10.9946
   -10.9946 -10.9410 -10.9238 -10.9238 -10.8708 -10.8223 -10.7714 -10.7714
   -10.7518 -10.7172 -10.6945 -10.6945 -10.6783 -10.6783 -10.6062 -10.6062
   -10.5685 -10.5685 -10.5663 -10.5531 -10.5531 -10.5502 -10.5502 -10.4852
   -10.4852 -10.4025 -10.4025 -10.3689 -10.3379 -10.3311 -10.3311 -10.2384
   -10.2343  -8.5965  -7.2597  -5.4811  -4.4349  -4.4349  -3.8778  -3.8778
    -2.9819  -2.9819  -1.8728  -1.2281  -0.9662  -0.8787  -0.8787  -0.4874
     0.4678   0.4678   0.4693   0.4693   0.7193   1.1461   1.1461   1.1926
     1.1926   1.5076   1.5366   1.7129   1.7129   1.7670   1.7671   1.7931
     1.7931   2.0546   2.0547   2.1126   2.7203   3.1614   3.4968   4.1126
     4.3250   4.7166   4.7167   4.7732   4.7732   5.1439   5.2757   5.5103
     5.9239   6.1685

[...]

          k =-0.0760-0.0439 0.0000 ( 24172 PWs)   bands (ev):

[...]

     the Fermi energy is     0.9247 ev

!    total energy              =   -1680.55079000 Ry
     Harris-Foulkes estimate   =   -1680.55623091 Ry
     estimated scf accuracy    <       0.00000087 Ry

     The total energy is the sum of the following terms:

     one-electron contribution =   -8772.38855327 Ry
     hartree contribution      =    4443.47275358 Ry
     xc contribution           =    -632.24181528 Ry
     ewald contribution        =    3280.68668552 Ry
     electric field correction =       0.00000000 Ry
     smearing contrib. (-TS)   =      -0.07986055 Ry

     convergence has been achieved in  19 iterations

 BEEF-vdW xc energy contributions
           1 :   -561.518351938421
           2 :    519.726372440193
           3 :   -446.858760756539
           4 :    359.715329207067
           5 :   -274.775075250155
           6 :    203.086089834239
           7 :   -148.410232985463
           8 :    108.565273346741
           9 :   -78.5656076586761
          10 :    53.7474930460942
          11 :   -31.6338116439780
          12 :    12.1548185342839
          13 :    3.34387287332891
          14 :   -13.5211960343078
          15 :    18.1261785672333
[...]

     PseudoPot. # 1 for Tl read from file:
     /afs/slac.stanford.edu/u/if/mamunm/psp/gbrv1.5pbe/Tl.UPF
     MD5 check sum: b76cf1f7e72655a2b2c53cf6385d7059
     Pseudo is Ultrasoft + core correction, Zval = 13.0
     Generated by new atomic code, or converted to UPF format
     Using radial grid of  899 points,  6 beta functions with:
                l(1) =   0
                l(2) =   0
                l(3) =   1
                l(4) =   1
                l(5) =   2
                l(6) =   2
     Q(r) pseudized with  6 coefficients,  rinner =    1.100   1.100   1.100
                                                       1.100   1.100

     PseudoPot. # 2 for Ti read from file:
     /afs/slac.stanford.edu/u/if/mamunm/psp/gbrv1.5pbe/Ti.UPF
     MD5 check sum: 88a00a6731bd790ddea75d31a80cb452
     Pseudo is Ultrasoft + core correction, Zval = 12.0
     Generated by new atomic code, or converted to UPF format
     Using radial grid of  851 points,  6 beta functions with:
                l(1) =   0
                l(2) =   0
                l(3) =   1
                l(4) =   1
                l(5) =   2
                l(6) =   2
     Q(r) pseudized with  6 coefficients,  rinner =    1.000   1.000   1.000
                                                       1.000   1.000

     vdW kernel table read from file vdW_kernel_table
     MD5 check sum: 095c7af220d748ca6e76c0b4c6cfb241

     atomic species   valence    mass     pseudopotential
        Tl1           13.00   204.38000     Tl( 1.00)
        Ti1           12.00    47.86700     Ti( 1.00)

     No symmetry found

   Cartesian axes

     site n.     atom                  positions (alat units)
         1           Tl1 tau(   1) = (   0.0000000   0.0000000  10.0000000  )
         2           Tl1 tau(   2) = (  -1.6453415   2.8498151  10.0000000  )
         3           Tl1 tau(   3) = (   1.6453415   2.8498151  10.0000000  )
         4           Ti1 tau(   4) = (   3.2906830   0.0000000  10.0000000  )
         5           Tl1 tau(   5) = (   3.2906830   1.8998767  12.6868314  )
         6           Tl1 tau(   6) = (   1.6453415   4.7496918  12.6868314  )
         7           Tl1 tau(   7) = (  -1.6453415   4.7496918  12.6868314  )
         8           Ti1 tau(   8) = (   0.0000000   1.8998767  12.6868314  )
         9           Tl1 tau(   9) = (   0.0000144   3.7854506  15.5979200  )
        10           Tl1 tau(  10) = (   1.6329013   0.9571825  15.5981454  )
        11           Tl1 tau(  11) = (   4.9484815   0.9571836  15.5981902  )
        12           Ti1 tau(  12) = (   3.2906863   3.7997001  14.9712054  )

     number of k points=    20  Fermi-Dirac smearing, width (Ry)=  0.0110
                       cart. coord. in units 2pi/alat
        k(    1) = (   0.0000000   0.0000000   0.0000000), wk =   0.0555556
        k(    2) = (   0.0000000   0.0292417   0.0000000), wk =   0.1111111
        k(    3) = (   0.0000000   0.0584833   0.0000000), wk =   0.1111111
        k(    4) = (   0.0000000  -0.0877250   0.0000000), wk =   0.0555556
        k(    5) = (   0.0253240   0.0146208   0.0000000), wk =   0.1111111
        k(    6) = (   0.0253240   0.0438625   0.0000000), wk =   0.1111111
        k(    7) = (   0.0253240   0.0731042   0.0000000), wk =   0.1111111
        k(    8) = (   0.0253240  -0.0731042   0.0000000), wk =   0.1111111
        k(    9) = (   0.0253240  -0.0438625   0.0000000), wk =   0.1111111
        k(   10) = (   0.0253240  -0.0146208   0.0000000), wk =   0.1111111
        k(   11) = (   0.0506480   0.0292417   0.0000000), wk =   0.1111111
        k(   12) = (   0.0506480   0.0584833   0.0000000), wk =   0.1111111
        k(   13) = (   0.0506480   0.0877250   0.0000000), wk =   0.1111111
        k(   14) = (   0.0506480  -0.0584833   0.0000000), wk =   0.1111111
        k(   15) = (   0.0506480  -0.0292417   0.0000000), wk =   0.1111111
        k(   16) = (   0.0506480   0.0000000   0.0000000), wk =   0.1111111
        k(   17) = (  -0.0759721  -0.0438625   0.0000000), wk =   0.0555556
        k(   18) = (  -0.0759721  -0.0146208   0.0000000), wk =   0.1111111
        k(   19) = (  -0.0759721   0.0146208   0.0000000), wk =   0.1111111
        k(   20) = (  -0.0759721  -0.1315875   0.0000000), wk =   0.0555556

     Largest allocated arrays     est. size (Mb)     dimensions
     Largest temporary arrays     est. size (Mb)     dimensions

     Check: negative/imaginary core charge=   -0.000002    0.000000

     Initial potential from superposition of free atoms
     Check: negative starting charge=   -0.462240

     starting charge  149.95608, renormalised to  153.00000

[...]

     *
     * You are using vdW-DF for exchange-correlation in this calculation.
     * Please cite the following three references that made this development
     * possible:
     *
     *   M. Dion, H. Rydberg, E. Schroder, D. C. Langreth, and
     *   B. I. Lundqvist, Phys. Rev. Lett. 92, 246401 (2004).
     *
     *   T. Thonhauser, V. R. Cooper, S. Li, A. Puzder, P. Hyldgaard, and
     *   D. C. Langreth, Phys. Rev. B 76, 125112 (2007).
     *
     *   G. Roman-Perez and J. M. Soler, Phys. Rev. Lett. 103, 096102 (2009).
     *
     *
     * If you are using vdW-DF2, please also cite:
     *
     *   K. Lee, E. D. Murray, L. Kong, B. I. Lundqvist, and
     *   D. C. Langreth, Phys. Rev. B 82, 081101(R) (2010).
     *
     *
     * If you are calculating the stress with vdW-DF, please also cite:
     *
     *   R. Sabatini, E. Kucukbenli, B. Kolb, T. Thonhauser, and
     *   S. de Gironcoli, J. Phys.: Condens. Matter 24, 424209 (2012).
     *

     Carrying out vdW-DF run using the following parameters:

     Nqs =      20    Nr_points =    1024   r_max =   100.000
     q_mesh =
               0.00001000     0.04494208     0.09755937     0.15916263
               0.23128650     0.31572767     0.41458969     0.53033537
               0.66584808     0.82450364     1.01025438     1.22772762
               1.48234092     1.78043706     2.12944203     2.53805004
               3.01644009     3.57652955     4.23227104     5.00000000

     Gradients computed in reciprocal space

[...]

     Starting wfc are  111 randomized atomic wfcs

     Self-consistent Calculation

[...]

     total energy              =   -1680.58870169 Ry
     Harris-Foulkes estimate   =   -1680.58869988 Ry
     estimated scf accuracy    <       0.00000477 Ry

     iteration # 21     ecut=    36.75 Ry     beta=0.10
     Davidson diagonalization with overlap
     ethr =  2.52E-09,  avg # of iterations =  2.0

[...]

     negative rho (up, down):  4.856E-01 0.000E+00

     Adding external electric field

     Computed dipole along edir(3) :
        Dipole                0.0032 Ry au,          0.0081 Debye
        Dipole field          0.0000 Ry au

        Potential amp.       -0.0006 Ry
        Total length         46.7505 bohr

     End of self-consistent calculation

[...]

          k = 0.0506 0.0000 0.0000 ( 24156 PWs)   bands (ev):

[...]

          k =-0.0760-0.1316 0.0000 ( 24172 PWs)   bands (ev):

   -56.8728 -56.8062 -56.7598 -33.1761 -33.0708 -33.0547 -33.0546 -33.0159
   -33.0158 -32.9952 -32.9950 -32.9618 -11.2077 -11.1113 -11.1075 -11.0814
   -11.0457 -11.0216 -10.9774 -10.9525 -10.9418 -10.9296 -10.9161 -10.9043
   -10.8734 -10.8548 -10.8415 -10.8166 -10.8136 -10.7734 -10.7614 -10.7499
   -10.7473 -10.7453 -10.7182 -10.7164 -10.7092 -10.6997 -10.6963 -10.6767
   -10.6723 -10.6679 -10.6608 -10.6554 -10.6379 -10.6347 -10.6160 -10.6108
   -10.5796 -10.5789 -10.5750 -10.5672 -10.5356 -10.4966 -10.4350 -10.3801
   -10.3331  -7.4607  -7.0867  -6.1200  -5.8130  -5.0416  -4.9380  -4.5663
    -3.8911  -2.8037  -1.8944  -1.2666  -0.4723   0.1119   0.2235   0.2249
     0.4396   0.4936   0.7720   0.9010   1.1596   1.1891   1.4215   1.4884
     1.5338   1.6144   1.7165   1.7645   1.9022   1.9483   2.1481   2.4394
     2.6004   2.6915   3.1452   3.1599   3.2194   3.5885   3.7351   3.8376
     4.2194   4.6903   4.8891   4.9185   5.0051   5.0413   5.1091   5.3775
     5.4362   5.6250

     the Fermi energy is     0.9103 ev

!    total energy              =   -1680.58870265 Ry
     Harris-Foulkes estimate   =   -1680.58870201 Ry
     estimated scf accuracy    <       0.00000074 Ry

     The total energy is the sum of the following terms:

     one-electron contribution =   -8666.80067548 Ry
     hartree contribution      =    4390.62310598 Ry
     xc contribution           =    -632.20176898 Ry
     ewald contribution        =    3227.86663873 Ry
     electric field correction =       0.00000002 Ry
     smearing contrib. (-TS)   =      -0.07600291 Ry

     convergence has been achieved in  21 iterations

 BEEF-vdW xc energy contributions
           1 :   -561.629741585169
           2 :    519.795728041771
           3 :   -446.886341048409
           4 :    359.746492829755
           5 :   -274.867703559814
           6 :    203.267910735947
           7 :   -148.653930621800
           8 :    108.798606621994
           9 :   -78.7162601469402
          10 :    53.7954814941829
          11 :   -31.6325787048357
          12 :    12.2001596508143
          13 :    3.17690750685699
          14 :   -13.2295616259474
          15 :    17.7838082999731
          16 :   -18.0559331224898
          17 :    16.2013130083915
          18 :   -14.4222866528434
          19 :    14.0705028631605
          20 :   -15.1874423524745
          21 :    16.7146212784102
          22 :   -17.2683148891730
          23 :    16.0307058238162
          24 :   -13.2364310245197
          25 :    9.97576478856797
          26 :   -7.47954906789948
          27 :    6.36352212489817
          28 :   -6.31259802335728
          29 :    6.36799572178825
          30 :   -5.59474406204299
          31 :   -46.2640490615983
          32 :   -33.7446504835575

     Forces acting on atoms (Ry/au):

     negative rho (up, down):  4.856E-01 0.000E+00
     atom    1 type  1   force =    -0.00000132    0.00815132   -0.02173307
     atom    2 type  1   force =     0.00705029   -0.00408424   -0.02168523
     atom    3 type  1   force =    -0.00704709   -0.00408200   -0.02168376
     atom    4 type  2   force =    -0.00000064   -0.00000116    0.05051078
     atom    5 type  1   force =    -0.00000017   -0.01406526    0.00224575
     atom    6 type  1   force =    -0.01216714    0.00702624    0.00227558
     atom    7 type  1   force =     0.01216887    0.00702456    0.00227618
     atom    8 type  2   force =    -0.00000087   -0.00000344    0.00414483
     atom    9 type  1   force =    -0.00000018    0.00042757    0.00095273
     atom   10 type  1   force =     0.00036698   -0.00019737    0.00101854
     atom   11 type  1   force =    -0.00036851   -0.00019811    0.00102041
     atom   12 type  2   force =    -0.00000021    0.00000189    0.00065726

     Total force =     0.069228     Total SCF correction =     0.001499

     entering subroutine stress ...

     negative rho (up, down):  4.856E-01 0.000E+00
          total   stress  (Ry/bohr**3)                   (kbar)     P=   -9.69
  -0.00009122   0.00000000  -0.00000000        -13.42      0.00     -0.00
   0.00000000  -0.00009124  -0.00000000          0.00    -13.42     -0.00
  -0.00000000  -0.00000000  -0.00001521         -0.00     -0.00     -2.24

 !ASE

     Writing output data file calc.save

     General routines

     Parallel routines

   This run was terminated on:   5:42:49   2Jan2019

   JOB DONE.
Job  /afs/slac/g/suncat/bin/suncat-tsmpirun -x LD_LIBRARY_PATH -wdir /scratch/qe649286_zTHX1 pw.x -in pw.inp

TID   HOST_NAME   COMMAND_LINE            STATUS            TERMINATION_TIME
00000 suncat0024 pw.x -in pw.inp   Done                     01/02/2019 05:42:49
00001 suncat0024 pw.x -in pw.inp   Done                     01/02/2019 05:42:49
00002 suncat0024 pw.x -in pw.inp   Done                     01/02/2019 05:42:49
00003 suncat0024 pw.x -in pw.inp   Done                     01/02/2019 05:42:49
00004 suncat0024 pw.x -in pw.inp   Done                     01/02/2019 05:42:49
00005 suncat0024 pw.x -in pw.inp   Done                     01/02/2019 05:42:49
00006 suncat0024 pw.x -in pw.inp   Done                     01/02/2019 05:42:49
00007 suncat0024 pw.x -in pw.inp   Done                     01/02/2019 05:42:49
00008 suncat0023 pw.x -in pw.inp   Done                     01/02/2019 05:42:49
00009 suncat0023 pw.x -in pw.inp   Done                     01/02/2019 05:42:49
00010 suncat0023 pw.x -in pw.inp   Done                     01/02/2019 05:42:49
00011 suncat0023 pw.x -in pw.inp   Done                     01/02/2019 05:42:49
00012 suncat0023 pw.x -in pw.inp   Done                     01/02/2019 05:42:49
00013 suncat0023 pw.x -in pw.inp   Done                     01/02/2019 05:42:49
00014 suncat0023 pw.x -in pw.inp   Done                     01/02/2019 05:42:49
00015 suncat0023 pw.x -in pw.inp   Done                     01/02/2019 05:42:49
00016 suncat0190 pw.x -in pw.inp   Done                     01/02/2019 05:42:49
00017 suncat0190 pw.x -in pw.inp   Done                     01/02/2019 05:42:49
00018 suncat0190 pw.x -in pw.inp   Done                     01/02/2019 05:42:49
00019 suncat0190 pw.x -in pw.inp   Done                     01/02/2019 05:42:49
00020 suncat0190 pw.x -in pw.inp   Done                     01/02/2019 05:42:49
00021 suncat0190 pw.x -in pw.inp   Done                     01/02/2019 05:42:49
00022 suncat0190 pw.x -in pw.inp   Done                     01/02/2019 05:42:49
00023 suncat0190 pw.x -in pw.inp   Done                     01/02/2019 05:42:49
00024 suncat0009 pw.x -in pw.inp   Done                     01/02/2019 05:42:49
00025 suncat0009 pw.x -in pw.inp   Done                     01/02/2019 05:42:49
00026 suncat0009 pw.x -in pw.inp   Done                     01/02/2019 05:42:49
00027 suncat0009 pw.x -in pw.inp   Done                     01/02/2019 05:42:49
00028 suncat0009 pw.x -in pw.inp   Done                     01/02/2019 05:42:49
00029 suncat0009 pw.x -in pw.inp   Done                     01/02/2019 05:42:49
00030 suncat0009 pw.x -in pw.inp   Done                     01/02/2019 05:42:49
00031 suncat0009 pw.x -in pw.inp   Done                     01/02/2019 05:42:49
00032 suncat0166 pw.x -in pw.inp   Done                     01/02/2019 05:42:49
00033 suncat0166 pw.x -in pw.inp   Done                     01/02/2019 05:42:49
00034 suncat0166 pw.x -in pw.inp   Done                     01/02/2019 05:42:49
00035 suncat0166 pw.x -in pw.inp   Done                     01/02/2019 05:42:49
00036 suncat0166 pw.x -in pw.inp   Done                     01/02/2019 05:42:49
00037 suncat0166 pw.x -in pw.inp   Done                     01/02/2019 05:42:49
00038 suncat0166 pw.x -in pw.inp   Done                     01/02/2019 05:42:49
00039 suncat0166 pw.x -in pw.inp   Done                     01/02/2019 05:42:49
00040 suncat0149 pw.x -in pw.inp   Done                     01/02/2019 05:42:49
00041 suncat0149 pw.x -in pw.inp   Done                     01/02/2019 05:42:49
00042 suncat0149 pw.x -in pw.inp   Done                     01/02/2019 05:42:49
00043 suncat0149 pw.x -in pw.inp   Done                     01/02/2019 05:42:49
00044 suncat0149 pw.x -in pw.inp   Done                     01/02/2019 05:42:49
00045 suncat0149 pw.x -in pw.inp   Done                     01/02/2019 05:42:49
00046 suncat0149 pw.x -in pw.inp   Done                     01/02/2019 05:42:49
00047 suncat0149 pw.x -in pw.inp   Done                     01/02/2019 05:42:49
00048 suncat0148 pw.x -in pw.inp   Done                     01/02/2019 05:42:49
00049 suncat0148 pw.x -in pw.inp   Done                     01/02/2019 05:42:49
00050 suncat0148 pw.x -in pw.inp   Done                     01/02/2019 05:42:49
00051 suncat0148 pw.x -in pw.inp   Done                     01/02/2019 05:42:49
00052 suncat0148 pw.x -in pw.inp   Done                     01/02/2019 05:42:49
00053 suncat0148 pw.x -in pw.inp   Done                     01/02/2019 05:42:49
00054 suncat0148 pw.x -in pw.inp   Done                     01/02/2019 05:42:49
00055 suncat0148 pw.x -in pw.inp   Done                     01/02/2019 05:42:49
00056 suncat0142 pw.x -in pw.inp   Done                     01/02/2019 05:42:49
00057 suncat0142 pw.x -in pw.inp   Done                     01/02/2019 05:42:49
00058 suncat0142 pw.x -in pw.inp   Done                     01/02/2019 05:42:49
00059 suncat0142 pw.x -in pw.inp   Done                     01/02/2019 05:42:49
00060 suncat0142 pw.x -in pw.inp   Done                     01/02/2019 05:42:49
00061 suncat0142 pw.x -in pw.inp   Done                     01/02/2019 05:42:49
00062 suncat0142 pw.x -in pw.inp   Done                     01/02/2019 05:42:49
00063 suncat0142 pw.x -in pw.inp   Done                     01/02/2019 05:42:49