     Program PWSCF v.5.1rc2 (svn rev. 11289) starts on 26Dec2018 at  6:55:20

     Current dimensions of program PWSCF are:
     Max number of different atomic species (ntypx) = 10
     Max number of k-points (npk) =  40000
     Max angular momentum in pseudopotentials (lmaxx) =  3
     Presently stress not available with electric field

     IMPORTANT: XC functional enforced from input :
     Exchange-correlation      = BEEF-VDW ( 1  4 27 13 2)
     Any further DFT definition will be discarded
     Please, verify this is what you really want

     Subspace diagonalization in iterative solution of the eigenvalue problem:
     a serial algorithm will be used

     bravais-lattice index     =            0
     lattice parameter (alat)  =       1.8897  a.u.
     unit-cell volume          =    5469.0553 (a.u.)^3
     number of atoms/cell      =           12
     number of atomic types    =            2
     number of electrons       =       156.00
     number of Kohn-Sham states=          108
     kinetic-energy cutoff     =      36.7493  Ry
     charge density cutoff     =     367.4932  Ry
     convergence threshold     =      1.0E-06
     mixing beta               =       0.1000
     number of iterations used =           10  plain     mixing
     Exchange-correlation      = BEEF-VDW ( 1  4 27 13 2)
     nstep                     =           50

     celldm(1)=   1.889726  celldm(2)=   0.000000  celldm(3)=   0.000000
     celldm(4)=   0.000000  celldm(5)=   0.000000  celldm(6)=   0.000000

     crystal axes: (cart. coord. in units of alat)
               a(1) = (   6.118687   0.000000   0.000000 )
               a(2) = (  -3.059344   5.298939   0.000000 )
               a(3) = (   0.000000   0.000000  24.995887 )

     reciprocal axes: (cart. coord. in units 2 pi/alat)
               b(1) = (  0.163434  0.094359  0.000000 )
               b(2) = (  0.000000  0.188717  0.000000 )
               b(3) = (  0.000000  0.000000  0.040007 )

     PseudoPot. # 1 for Hf read from file:
     /afs/slac.stanford.edu/u/if/mamunm/psp/gbrv1.5pbe/Hf.UPF
     MD5 check sum: 8ee9378dfe14276e333edf04c5e4aa26
     Pseudo is Ultrasoft + core correction, Zval = 12.0
     Generated by new atomic code, or converted to UPF format
     Using radial grid of  921 points,  8 beta functions with:
                l(1) =   0
                l(2) =   0
                l(3) =   0
                l(4) =   1
                l(5) =   1
                l(6) =   2
                l(7) =   2
                l(8) =   3
     Q(r) pseudized with  6 coefficients,  rinner =    1.200   1.200   1.200
                                                       1.200   1.200   1.200
                                                       1.200

     PseudoPot. # 2 for Pd read from file:
     /afs/slac.stanford.edu/u/if/mamunm/psp/gbrv1.5pbe/Pd.UPF
     MD5 check sum: 2d733d2bc2cbfd217af676df1668a4bc
     Pseudo is Ultrasoft + core correction, Zval = 16.0
     Generated by new atomic code, or converted to UPF format
     Using radial grid of  887 points,  6 beta functions with:
                l(1) =   0
                l(2) =   0
                l(3) =   1
                l(4) =   1
                l(5) =   2
                l(6) =   2
     Q(r) pseudized with  8 coefficients,  rinner =    1.130   1.130   1.130
                                                       1.130   1.130

     vdW kernel table read from file vdW_kernel_table
     MD5 check sum: 095c7af220d748ca6e76c0b4c6cfb241

     atomic species   valence    mass     pseudopotential
        Hf1           12.00   178.49000     Hf( 1.00)
        Pd1           16.00   106.42000     Pd( 1.00)

     No symmetry found

   Cartesian axes

     site n.     atom                  positions (alat units)
         1           Hf1 tau(   1) = (   0.0000000   0.0000000  10.0000000  )
         2           Hf1 tau(   2) = (  -1.5296718   2.6494693  10.0000000  )
         3           Hf1 tau(   3) = (   1.5296718   2.6494693  10.0000000  )
         4           Pd1 tau(   4) = (   3.0593437   0.0000000  10.0000000  )
         5           Hf1 tau(   5) = (   3.0593437   1.7663129  12.4979437  )
         6           Hf1 tau(   6) = (   1.5296718   4.4157822  12.4979437  )
         7           Hf1 tau(   7) = (  -1.5296718   4.4157822  12.4979437  )
         8           Pd1 tau(   8) = (   0.0000000   1.7663129  12.4979437  )
         9           Hf1 tau(   9) = (  -0.0000000   3.5326258  14.9958873  )
        10           Hf1 tau(  10) = (   1.5296718   0.8831564  14.9958873  )
        11           Hf1 tau(  11) = (   4.5890155   0.8831564  14.9958873  )
        12           Pd1 tau(  12) = (   3.0593437   3.5326258  14.9958873  )

     number of k points=    20  Fermi-Dirac smearing, width (Ry)=  0.0110
                       cart. coord. in units 2pi/alat
        k(    1) = (   0.0000000   0.0000000   0.0000000), wk =   0.0555556
        k(    2) = (   0.0000000   0.0314528   0.0000000), wk =   0.1111111
        k(    3) = (   0.0000000   0.0629057   0.0000000), wk =   0.1111111
        k(    4) = (   0.0000000  -0.0943585   0.0000000), wk =   0.0555556
        k(    5) = (   0.0272390   0.0157264   0.0000000), wk =   0.1111111
        k(    6) = (   0.0272390   0.0471793   0.0000000), wk =   0.1111111
        k(    7) = (   0.0272390   0.0786321   0.0000000), wk =   0.1111111
        k(    8) = (   0.0272390  -0.0786321   0.0000000), wk =   0.1111111
        k(    9) = (   0.0272390  -0.0471793   0.0000000), wk =   0.1111111
        k(   10) = (   0.0272390  -0.0157264   0.0000000), wk =   0.1111111
        k(   11) = (   0.0544779   0.0314528   0.0000000), wk =   0.1111111
        k(   12) = (   0.0544779   0.0629057   0.0000000), wk =   0.1111111
        k(   13) = (   0.0544779   0.0943585   0.0000000), wk =   0.1111111
        k(   14) = (   0.0544779  -0.0629057   0.0000000), wk =   0.1111111
        k(   15) = (   0.0544779  -0.0314528   0.0000000), wk =   0.1111111
        k(   16) = (   0.0544779   0.0000000   0.0000000), wk =   0.1111111
        k(   17) = (  -0.0817169  -0.0471793   0.0000000), wk =   0.0555556
        k(   18) = (  -0.0817169  -0.0157264   0.0000000), wk =   0.1111111
        k(   19) = (  -0.0817169   0.0157264   0.0000000), wk =   0.1111111
        k(   20) = (  -0.0817169  -0.1415378   0.0000000), wk =   0.0555556

     Largest allocated arrays     est. size (Mb)     dimensions
     Largest temporary arrays     est. size (Mb)     dimensions

     Check: negative/imaginary core charge=   -0.000003    0.000000

     Initial potential from superposition of free atoms
     Check: negative starting charge=   -1.180059

     starting charge  136.49996, renormalised to  156.00000

     negative rho (up, down):  1.349E+00 0.000E+00

     *
     * You are using vdW-DF for exchange-correlation in this calculation.
     * Please cite the following three references that made this development
     * possible:
     *
     *   M. Dion, H. Rydberg, E. Schroder, D. C. Langreth, and
     *   B. I. Lundqvist, Phys. Rev. Lett. 92, 246401 (2004).
     *
     *   T. Thonhauser, V. R. Cooper, S. Li, A. Puzder, P. Hyldgaard, and
     *   D. C. Langreth, Phys. Rev. B 76, 125112 (2007).
     *
     *   G. Roman-Perez and J. M. Soler, Phys. Rev. Lett. 103, 096102 (2009).
     *
     *
     * If you are using vdW-DF2, please also cite:
     *
     *   K. Lee, E. D. Murray, L. Kong, B. I. Lundqvist, and
     *   D. C. Langreth, Phys. Rev. B 82, 081101(R) (2010).
     *
     *
     * If you are calculating the stress with vdW-DF, please also cite:
     *
     *   R. Sabatini, E. Kucukbenli, B. Kolb, T. Thonhauser, and
     *   S. de Gironcoli, J. Phys.: Condens. Matter 24, 424209 (2012).
     *

     Carrying out vdW-DF run using the following parameters:

     Nqs =      20    Nr_points =    1024   r_max =   100.000
     q_mesh =
               0.00001000     0.04494208     0.09755937     0.15916263
               0.23128650     0.31572767     0.41458969     0.53033537
               0.66584808     0.82450364     1.01025438     1.22772762
               1.48234092     1.78043706     2.12944203     2.53805004
               3.01644009     3.57652955     4.23227104     5.00000000

     Gradients computed in reciprocal space

     Adding external electric field

     Computed dipole along edir(3) :
        Dipole               -0.0000 Ry au,         -0.0000 Debye
        Dipole field         -0.0000 Ry au

        Potential amp.        0.0000 Ry
        Total length         46.0545 bohr

     Starting wfc are  153 randomized atomic wfcs

     Self-consistent Calculation

     iteration #  1     ecut=    36.75 Ry     beta=0.10
     Davidson diagonalization with overlap
     ethr =  1.00E-02,  avg # of iterations =  7.9

[...]

     total energy              =   -2012.66560827 Ry
     Harris-Foulkes estimate   =   -2083.22237359 Ry
     estimated scf accuracy    <     395.67783365 Ry

[...]

     End of self-consistent calculation

          k = 0.0000 0.0000 0.0000 ( 20587 PWs)   bands (ev):

   -60.9459 -60.9450 -60.9001 -60.9001 -60.8997 -60.8997 -60.4754 -60.4299
   -60.4299 -48.9722 -48.9692 -48.9692 -48.6545 -48.6545 -48.6545 -48.6545
   -48.6110 -48.6107 -29.7827 -29.7603 -29.7039 -29.6341 -29.6341 -29.5995
   -29.5937 -29.5937 -29.5905 -29.5905 -29.5137 -29.5137 -29.4145 -29.2672
   -29.2521 -29.1610 -29.1610 -29.0452 -29.0452 -29.0278 -29.0278 -28.9348
   -28.9166 -28.9166 -28.8174 -28.6651 -28.6651  -4.9581  -3.5729  -2.7273
    -2.3843  -2.3843  -2.3143  -2.3143  -1.8859  -1.8859  -1.7793  -1.7721
    -1.7721  -1.6920  -1.4253  -1.1817  -1.1736  -1.1736  -1.0145  -1.0145
    -0.5662  -0.1914   0.4638   0.7643   0.7643   0.9099   1.1267   1.1267
     1.4412   1.4412   1.6915   1.7199   1.7897   1.7897   1.9247   1.9247
     2.1781   2.4591   2.4827   2.4827   2.6867   2.6867   3.1289   3.1289
     3.2831   3.3570   3.3570   3.3587   3.6356   4.8843   4.9321   4.9321
     5.0519   5.0621   5.3580   5.5525   5.5525   5.5760   5.5760   5.7350
     5.7351   5.7675   5.8611   5.8615

[...]

          k =-0.0817-0.0472 0.0000 ( 20600 PWs)   bands (ev):

[...]

     the Fermi energy is     1.6982 ev

!    total energy              =   -2044.42598770 Ry
     Harris-Foulkes estimate   =   -2044.42598347 Ry
     estimated scf accuracy    <       0.00000058 Ry

     The total energy is the sum of the following terms:

     one-electron contribution =  -10892.38587901 Ry
     hartree contribution      =    5446.64159280 Ry
     xc contribution           =    -793.50421440 Ry
     ewald contribution        =    4194.91948513 Ry
     electric field correction =       0.00000000 Ry
     smearing contrib. (-TS)   =      -0.09697223 Ry

     convergence has been achieved in  21 iterations

 BEEF-vdW xc energy contributions
           1 :   -713.514231548984
           2 :    662.085921948944
           3 :   -571.180153691468
           4 :    460.078566879414
           5 :   -348.771322213567
           6 :    252.208462160663
           7 :   -177.654952150417
           8 :    125.395740352494
           9 :   -91.5281616909001
          10 :    70.9327420689489
          11 :   -59.1181152288317
[...]
     Pseudo is Ultrasoft + core correction, Zval = 12.0
     Generated by new atomic code, or converted to UPF format
     Using radial grid of  921 points,  8 beta functions with:
                l(1) =   0
                l(2) =   0
                l(3) =   0
                l(4) =   1
                l(5) =   1
                l(6) =   2
                l(7) =   2
                l(8) =   3
     Q(r) pseudized with  6 coefficients,  rinner =    1.200   1.200   1.200
                                                       1.200   1.200   1.200
                                                       1.200

     PseudoPot. # 2 for Pd read from file:
     /afs/slac.stanford.edu/u/if/mamunm/psp/gbrv1.5pbe/Pd.UPF
     MD5 check sum: 2d733d2bc2cbfd217af676df1668a4bc
     Pseudo is Ultrasoft + core correction, Zval = 16.0
     Generated by new atomic code, or converted to UPF format
     Using radial grid of  887 points,  6 beta functions with:
                l(1) =   0
                l(2) =   0
                l(3) =   1
                l(4) =   1
                l(5) =   2
                l(6) =   2
     Q(r) pseudized with  8 coefficients,  rinner =    1.130   1.130   1.130
                                                       1.130   1.130

     vdW kernel table read from file vdW_kernel_table
     MD5 check sum: 095c7af220d748ca6e76c0b4c6cfb241

     atomic species   valence    mass     pseudopotential
        Hf1           12.00   178.49000     Hf( 1.00)
        Pd1           16.00   106.42000     Pd( 1.00)

     No symmetry found

   Cartesian axes

     site n.     atom                  positions (alat units)
         1           Hf1 tau(   1) = (   0.0000000   0.0000000  10.0000000  )
         2           Hf1 tau(   2) = (  -1.5296718   2.6494693  10.0000000  )
         3           Hf1 tau(   3) = (   1.5296718   2.6494693  10.0000000  )
         4           Pd1 tau(   4) = (   3.0593437   0.0000000  10.0000000  )
         5           Hf1 tau(   5) = (   3.0593437   1.7663129  12.4979437  )
         6           Hf1 tau(   6) = (   1.5296718   4.4157822  12.4979437  )
         7           Hf1 tau(   7) = (  -1.5296718   4.4157822  12.4979437  )
         8           Pd1 tau(   8) = (   0.0000000   1.7663129  12.4979437  )
         9           Hf1 tau(   9) = (  -0.0000021   3.5060973  14.9831278  )
        10           Hf1 tau(  10) = (   1.5066933   0.8964220  14.9831285  )
        11           Hf1 tau(  11) = (   4.6119895   0.8964214  14.9831252  )
        12           Pd1 tau(  12) = (   3.0593430   3.5326249  14.8278321  )

     number of k points=    20  Fermi-Dirac smearing, width (Ry)=  0.0110
                       cart. coord. in units 2pi/alat
        k(    1) = (   0.0000000   0.0000000   0.0000000), wk =   0.0555556
        k(    2) = (   0.0000000   0.0314528   0.0000000), wk =   0.1111111
        k(    3) = (   0.0000000   0.0629057   0.0000000), wk =   0.1111111
        k(    4) = (   0.0000000  -0.0943585   0.0000000), wk =   0.0555556
        k(    5) = (   0.0272390   0.0157264   0.0000000), wk =   0.1111111
        k(    6) = (   0.0272390   0.0471793   0.0000000), wk =   0.1111111
        k(    7) = (   0.0272390   0.0786321   0.0000000), wk =   0.1111111
        k(    8) = (   0.0272390  -0.0786321   0.0000000), wk =   0.1111111
        k(    9) = (   0.0272390  -0.0471793   0.0000000), wk =   0.1111111
        k(   10) = (   0.0272390  -0.0157264   0.0000000), wk =   0.1111111
        k(   11) = (   0.0544779   0.0314528   0.0000000), wk =   0.1111111
        k(   12) = (   0.0544779   0.0629057   0.0000000), wk =   0.1111111
        k(   13) = (   0.0544779   0.0943585   0.0000000), wk =   0.1111111
        k(   14) = (   0.0544779  -0.0629057   0.0000000), wk =   0.1111111
        k(   15) = (   0.0544779  -0.0314528   0.0000000), wk =   0.1111111
        k(   16) = (   0.0544779   0.0000000   0.0000000), wk =   0.1111111
        k(   17) = (  -0.0817169  -0.0471793   0.0000000), wk =   0.0555556
        k(   18) = (  -0.0817169  -0.0157264   0.0000000), wk =   0.1111111
        k(   19) = (  -0.0817169   0.0157264   0.0000000), wk =   0.1111111
        k(   20) = (  -0.0817169  -0.1415378   0.0000000), wk =   0.0555556

     Largest allocated arrays     est. size (Mb)     dimensions
     Largest temporary arrays     est. size (Mb)     dimensions

     Check: negative/imaginary core charge=   -0.000003    0.000000

     Initial potential from superposition of free atoms
     Check: negative starting charge=   -1.183940

     starting charge  136.49996, renormalised to  156.00000

[...]

     *
     * You are using vdW-DF for exchange-correlation in this calculation.
     * Please cite the following three references that made this development
     * possible:
     *
     *   M. Dion, H. Rydberg, E. Schroder, D. C. Langreth, and
     *   B. I. Lundqvist, Phys. Rev. Lett. 92, 246401 (2004).
     *
     *   T. Thonhauser, V. R. Cooper, S. Li, A. Puzder, P. Hyldgaard, and
     *   D. C. Langreth, Phys. Rev. B 76, 125112 (2007).
     *
     *   G. Roman-Perez and J. M. Soler, Phys. Rev. Lett. 103, 096102 (2009).
     *
     *
     * If you are using vdW-DF2, please also cite:
     *
     *   K. Lee, E. D. Murray, L. Kong, B. I. Lundqvist, and
     *   D. C. Langreth, Phys. Rev. B 82, 081101(R) (2010).
     *
     *
     * If you are calculating the stress with vdW-DF, please also cite:
     *
     *   R. Sabatini, E. Kucukbenli, B. Kolb, T. Thonhauser, and
     *   S. de Gironcoli, J. Phys.: Condens. Matter 24, 424209 (2012).
     *

     Carrying out vdW-DF run using the following parameters:

     Nqs =      20    Nr_points =    1024   r_max =   100.000
     q_mesh =
               0.00001000     0.04494208     0.09755937     0.15916263
               0.23128650     0.31572767     0.41458969     0.53033537
               0.66584808     0.82450364     1.01025438     1.22772762
               1.48234092     1.78043706     2.12944203     2.53805004
               3.01644009     3.57652955     4.23227104     5.00000000

     Gradients computed in reciprocal space

[...]

     Starting wfc are  153 randomized atomic wfcs

     Self-consistent Calculation

[...]

     total energy              =   -2044.46412387 Ry
     Harris-Foulkes estimate   =   -2044.46412302 Ry
     estimated scf accuracy    <       0.00000550 Ry

     iteration # 21     ecut=    36.75 Ry     beta=0.10
     Davidson diagonalization with overlap
     ethr =  3.52E-09,  avg # of iterations =  1.0

[...]

     negative rho (up, down):  1.250E+00 0.000E+00

     Adding external electric field

     Computed dipole along edir(3) :
        Dipole                0.0294 Ry au,          0.0748 Debye
        Dipole field          0.0001 Ry au

        Potential amp.       -0.0062 Ry
        Total length         46.0545 bohr

     End of self-consistent calculation

[...]

          k = 0.0545 0.0000 0.0000 ( 20537 PWs)   bands (ev):

[...]

          k =-0.0817-0.1415 0.0000 ( 20600 PWs)   bands (ev):

   -60.8912 -60.8883 -60.8760 -60.8709 -60.8608 -60.8564 -60.4242 -60.4090
   -60.3938 -48.9463 -48.9406 -48.9404 -48.7504 -48.7502 -48.7453 -48.6259
   -48.6257 -48.5848 -29.6393 -29.6226 -29.6047 -29.5801 -29.5593 -29.5207
   -29.5071 -29.5066 -29.4321 -29.4249 -29.4040 -29.4037 -29.3669 -29.3476
   -29.3180 -29.2845 -29.2259 -29.0527 -29.0349 -29.0161 -28.9841 -28.9525
   -28.9269 -28.8561 -28.8542 -28.8376 -28.6597  -3.3397  -3.2870  -2.2456
    -2.1637  -1.9889  -1.9214  -1.7485  -1.6426  -1.5825  -1.5355  -1.4233
    -1.3147  -1.2970  -1.1676  -1.1628  -1.0898  -1.0219  -0.9144  -0.8332
    -0.5817  -0.5534  -0.3141   0.1820   0.4910   0.6173   0.9599   0.9799
     1.0829   1.1597   1.1878   1.3907   1.4197   1.5729   1.6706   1.7131
     1.9534   1.9744   2.1080   2.2402   2.3754   2.4864   2.9366   2.9427
     3.1037   3.1616   3.3071   3.3291   3.4149   3.5942   4.4088   4.5287
     4.6074   4.7248   4.7629   4.9109   5.1062   5.1154   5.1740   5.3935
     5.3983   5.4854   5.7401   5.8098

     the Fermi energy is     1.7312 ev

!    total energy              =   -2044.46412867 Ry
     Harris-Foulkes estimate   =   -2044.46412407 Ry
     estimated scf accuracy    <       0.00000037 Ry

     The total energy is the sum of the following terms:

     one-electron contribution =  -10985.09848165 Ry
     hartree contribution      =    5493.11127952 Ry
     xc contribution           =    -793.58996824 Ry
     ewald contribution        =    4241.20995867 Ry
     electric field correction =       0.00000199 Ry
     smearing contrib. (-TS)   =      -0.09691897 Ry

     convergence has been achieved in  21 iterations

 BEEF-vdW xc energy contributions
           1 :   -714.572110942613
           2 :    663.176010184521
           3 :   -572.306889560501
           4 :    461.210771538794
           5 :   -349.860506474895
           6 :    253.219843785250
           7 :   -178.591050847390
           8 :    126.297003373315
           9 :   -92.4497521522578
          10 :    71.9118391613035
          11 :   -60.1536707885451
          12 :    53.6994841070572
          13 :   -49.7555038479359
          14 :    45.8177210599487
          15 :   -39.7768459018341
          16 :    30.4602516736227
          17 :   -18.1757382504583
          18 :    4.75440675078937
          19 :    7.08150876729667
          20 :   -14.7937598477857
          21 :    17.0247343285067
          22 :   -14.0591188792407
          23 :    7.59081257593687
          24 :  -9.444612186257473E-003
          25 :   -6.40891502956686
          26 :    10.0716805270641
          27 :   -10.2919058301454
          28 :    7.24220497160866
          29 :   -1.79069114013589
          30 :   -4.70137249546849
          31 :   -53.4041096776930
          32 :   -38.5995789057333

     Forces acting on atoms (Ry/au):

     negative rho (up, down):  1.250E+00 0.000E+00
     atom    1 type  1   force =    -0.00000020    0.01225465   -0.00055344
     atom    2 type  1   force =     0.01061366   -0.00612716   -0.00055404
     atom    3 type  1   force =    -0.01061311   -0.00612663   -0.00055289
     atom    4 type  2   force =    -0.00000013    0.00000026    0.02285302
     atom    5 type  1   force =    -0.00000079   -0.00298396   -0.00500243
     atom    6 type  1   force =    -0.00258408    0.00149159   -0.00500161
     atom    7 type  1   force =     0.00258376    0.00149268   -0.00500083
     atom    8 type  2   force =     0.00000018   -0.00000017   -0.00369612
     atom    9 type  1   force =     0.00000030    0.00049471   -0.00096249
     atom   10 type  1   force =     0.00042903   -0.00024755   -0.00096404
     atom   11 type  1   force =    -0.00042877   -0.00024863   -0.00096304
     atom   12 type  2   force =     0.00000014    0.00000020    0.00039790

     Total force =     0.033058     Total SCF correction =     0.001999

     entering subroutine stress ...

     negative rho (up, down):  1.250E+00 0.000E+00
          total   stress  (Ry/bohr**3)                   (kbar)     P=  -14.44
  -0.00012468  -0.00000000   0.00000000        -18.34     -0.00      0.00
  -0.00000000  -0.00012467  -0.00000000         -0.00    -18.34     -0.00
   0.00000000  -0.00000000  -0.00004513          0.00     -0.00     -6.64

 !ASE

     Writing output data file calc.save

     General routines

     Parallel routines

   This run was terminated on:   9: 8: 5  26Dec2018

   JOB DONE.
Job  /afs/slac/g/suncat/bin/suncat-tsmpirun -x LD_LIBRARY_PATH -wdir /scratch/qe109757_3MubB pw.x -in pw.inp

TID   HOST_NAME   COMMAND_LINE            STATUS            TERMINATION_TIME
00000 suncat0015 pw.x -in pw.inp   Done                     12/26/2018 09:08:05
00001 suncat0015 pw.x -in pw.inp   Done                     12/26/2018 09:08:05
00002 suncat0015 pw.x -in pw.inp   Done                     12/26/2018 09:08:05
00003 suncat0015 pw.x -in pw.inp   Done                     12/26/2018 09:08:05
00004 suncat0015 pw.x -in pw.inp   Done                     12/26/2018 09:08:05
00005 suncat0015 pw.x -in pw.inp   Done                     12/26/2018 09:08:05
00006 suncat0015 pw.x -in pw.inp   Done                     12/26/2018 09:08:05
00007 suncat0015 pw.x -in pw.inp   Done                     12/26/2018 09:08:05
00008 suncat0188 pw.x -in pw.inp   Done                     12/26/2018 09:08:05
00009 suncat0188 pw.x -in pw.inp   Done                     12/26/2018 09:08:05
00010 suncat0188 pw.x -in pw.inp   Done                     12/26/2018 09:08:05
00011 suncat0188 pw.x -in pw.inp   Done                     12/26/2018 09:08:05
00012 suncat0188 pw.x -in pw.inp   Done                     12/26/2018 09:08:05
00013 suncat0188 pw.x -in pw.inp   Done                     12/26/2018 09:08:05
00014 suncat0188 pw.x -in pw.inp   Done                     12/26/2018 09:08:05
00015 suncat0188 pw.x -in pw.inp   Done                     12/26/2018 09:08:05
00016 suncat0143 pw.x -in pw.inp   Done                     12/26/2018 09:08:05
00017 suncat0143 pw.x -in pw.inp   Done                     12/26/2018 09:08:05
00018 suncat0143 pw.x -in pw.inp   Done                     12/26/2018 09:08:05
00019 suncat0143 pw.x -in pw.inp   Done                     12/26/2018 09:08:05
00020 suncat0143 pw.x -in pw.inp   Done                     12/26/2018 09:08:05
00021 suncat0143 pw.x -in pw.inp   Done                     12/26/2018 09:08:05
00022 suncat0143 pw.x -in pw.inp   Done                     12/26/2018 09:08:05
00023 suncat0143 pw.x -in pw.inp   Done                     12/26/2018 09:08:05
00024 suncat0138 pw.x -in pw.inp   Done                     12/26/2018 09:08:05
00025 suncat0138 pw.x -in pw.inp   Done                     12/26/2018 09:08:05
00026 suncat0138 pw.x -in pw.inp   Done                     12/26/2018 09:08:05
00027 suncat0138 pw.x -in pw.inp   Done                     12/26/2018 09:08:05
00028 suncat0138 pw.x -in pw.inp   Done                     12/26/2018 09:08:05
00029 suncat0138 pw.x -in pw.inp   Done                     12/26/2018 09:08:05
00030 suncat0138 pw.x -in pw.inp   Done                     12/26/2018 09:08:05
00031 suncat0138 pw.x -in pw.inp   Done                     12/26/2018 09:08:05
00032 suncat0251 pw.x -in pw.inp   Done                     12/26/2018 09:08:05
00033 suncat0251 pw.x -in pw.inp   Done                     12/26/2018 09:08:05
00034 suncat0251 pw.x -in pw.inp   Done                     12/26/2018 09:08:05
00035 suncat0251 pw.x -in pw.inp   Done                     12/26/2018 09:08:05
00036 suncat0251 pw.x -in pw.inp   Done                     12/26/2018 09:08:05
00037 suncat0251 pw.x -in pw.inp   Done                     12/26/2018 09:08:05
00038 suncat0251 pw.x -in pw.inp   Done                     12/26/2018 09:08:05
00039 suncat0251 pw.x -in pw.inp   Done                     12/26/2018 09:08:05
00040 suncat0250 pw.x -in pw.inp   Done                     12/26/2018 09:08:05
00041 suncat0250 pw.x -in pw.inp   Done                     12/26/2018 09:08:05
00042 suncat0250 pw.x -in pw.inp   Done                     12/26/2018 09:08:05
00043 suncat0250 pw.x -in pw.inp   Done                     12/26/2018 09:08:05
00044 suncat0250 pw.x -in pw.inp   Done                     12/26/2018 09:08:05
00045 suncat0250 pw.x -in pw.inp   Done                     12/26/2018 09:08:05
00046 suncat0250 pw.x -in pw.inp   Done                     12/26/2018 09:08:05
00047 suncat0250 pw.x -in pw.inp   Done                     12/26/2018 09:08:05
00048 suncat0249 pw.x -in pw.inp   Done                     12/26/2018 09:08:05
00049 suncat0249 pw.x -in pw.inp   Done                     12/26/2018 09:08:05
00050 suncat0249 pw.x -in pw.inp   Done                     12/26/2018 09:08:05
00051 suncat0249 pw.x -in pw.inp   Done                     12/26/2018 09:08:05
00052 suncat0249 pw.x -in pw.inp   Done                     12/26/2018 09:08:05
00053 suncat0249 pw.x -in pw.inp   Done                     12/26/2018 09:08:05
00054 suncat0249 pw.x -in pw.inp   Done                     12/26/2018 09:08:05
00055 suncat0249 pw.x -in pw.inp   Done                     12/26/2018 09:08:05
00056 suncat0231 pw.x -in pw.inp   Done                     12/26/2018 09:08:05
00057 suncat0231 pw.x -in pw.inp   Done                     12/26/2018 09:08:05
00058 suncat0231 pw.x -in pw.inp   Done                     12/26/2018 09:08:05
00059 suncat0231 pw.x -in pw.inp   Done                     12/26/2018 09:08:05
00060 suncat0231 pw.x -in pw.inp   Done                     12/26/2018 09:08:05
00061 suncat0231 pw.x -in pw.inp   Done                     12/26/2018 09:08:05
00062 suncat0231 pw.x -in pw.inp   Done                     12/26/2018 09:08:05
00063 suncat0231 pw.x -in pw.inp   Done                     12/26/2018 09:08:05