     Program PWSCF v.5.1rc2 (svn rev. 11289) starts on  1Jan2019 at 17:13:27

     Current dimensions of program PWSCF are:
     Max number of different atomic species (ntypx) = 10
     Max number of k-points (npk) =  40000
     Max angular momentum in pseudopotentials (lmaxx) =  3
     Presently stress not available with electric field

     IMPORTANT: XC functional enforced from input :
     Exchange-correlation      = BEEF-VDW ( 1  4 27 13 2)
     Any further DFT definition will be discarded
     Please, verify this is what you really want

     Subspace diagonalization in iterative solution of the eigenvalue problem:
     a serial algorithm will be used

     bravais-lattice index     =            0
     lattice parameter (alat)  =       1.8897  a.u.
     unit-cell volume          =    5067.3639 (a.u.)^3
     number of atoms/cell      =           12
     number of atomic types    =            2
     number of electrons       =       159.00
     number of Kohn-Sham states=          109
     kinetic-energy cutoff     =      36.7493  Ry
     charge density cutoff     =     367.4932  Ry
     convergence threshold     =      1.0E-06
     mixing beta               =       0.1000
     number of iterations used =           10  plain     mixing
     Exchange-correlation      = BEEF-VDW ( 1  4 27 13 2)
     nstep                     =           50

     celldm(1)=   1.889726  celldm(2)=   0.000000  celldm(3)=   0.000000
     celldm(4)=   0.000000  celldm(5)=   0.000000  celldm(6)=   0.000000

     crystal axes: (cart. coord. in units of alat)
               a(1) = (   5.909888   0.000000   0.000000 )
               a(2) = (  -2.954944   5.118113   0.000000 )
               a(3) = (   0.000000   0.000000  24.825404 )

     reciprocal axes: (cart. coord. in units 2 pi/alat)
               b(1) = (  0.169208  0.097692  0.000000 )
               b(2) = (  0.000000  0.195384  0.000000 )
               b(3) = (  0.000000  0.000000  0.040281 )

     PseudoPot. # 1 for Ta read from file:
     /afs/slac.stanford.edu/u/if/mamunm/psp/gbrv1.5pbe/Ta.UPF
     MD5 check sum: f8bbe9446314a3b8ea5d9f3e3836c939
     Pseudo is Ultrasoft + core correction, Zval = 13.0
     Generated by new atomic code, or converted to UPF format
     Using radial grid of  921 points,  7 beta functions with:
                l(1) =   0
                l(2) =   0
                l(3) =   1
                l(4) =   1
                l(5) =   2
                l(6) =   2
                l(7) =   3
     Q(r) pseudized with  6 coefficients,  rinner =    1.300   1.300   1.300
                                                       1.300   1.300   1.300
                                                       1.300

     PseudoPot. # 2 for Mo read from file:
     /afs/slac.stanford.edu/u/if/mamunm/psp/gbrv1.5pbe/Mo.UPF
     MD5 check sum: 30c4dcd161f5d35cd49bb5239c51a633
     Pseudo is Ultrasoft + core correction, Zval = 14.0
     Generated by new atomic code, or converted to UPF format
     Using radial grid of  889 points,  6 beta functions with:
                l(1) =   0
                l(2) =   0
                l(3) =   1
                l(4) =   1
                l(5) =   2
                l(6) =   2
     Q(r) pseudized with  6 coefficients,  rinner =    1.000   1.000   1.000
                                                       1.000   1.000

     vdW kernel table read from file vdW_kernel_table
     MD5 check sum: 095c7af220d748ca6e76c0b4c6cfb241

     atomic species   valence    mass     pseudopotential
        Ta1           13.00   180.94788     Ta( 1.00)
        Mo1           14.00    95.95000     Mo( 1.00)

     No symmetry found

   Cartesian axes

     site n.     atom                  positions (alat units)
         1           Ta1 tau(   1) = (   0.0000000   0.0000000  10.0000000  )
         2           Ta1 tau(   2) = (  -1.4774721   2.5590567  10.0000000  )
         3           Ta1 tau(   3) = (   1.4774721   2.5590567  10.0000000  )
         4           Mo1 tau(   4) = (   2.9549441   0.0000000  10.0000000  )
         5           Ta1 tau(   5) = (   2.9549441   1.7060378  12.4127018  )
         6           Ta1 tau(   6) = (   1.4774721   4.2650945  12.4127018  )
         7           Ta1 tau(   7) = (  -1.4774721   4.2650945  12.4127018  )
         8           Mo1 tau(   8) = (   0.0000000   1.7060378  12.4127018  )
         9           Ta1 tau(   9) = (  -0.0000000   3.4120756  14.8254036  )
        10           Ta1 tau(  10) = (   1.4774721   0.8530189  14.8254036  )
        11           Ta1 tau(  11) = (   4.4324162   0.8530189  14.8254036  )
        12           Mo1 tau(  12) = (   2.9549441   3.4120756  14.8254036  )

     number of k points=    20  Fermi-Dirac smearing, width (Ry)=  0.0110
                       cart. coord. in units 2pi/alat
        k(    1) = (   0.0000000   0.0000000   0.0000000), wk =   0.0555556
        k(    2) = (   0.0000000   0.0325641   0.0000000), wk =   0.1111111
        k(    3) = (   0.0000000   0.0651282   0.0000000), wk =   0.1111111
        k(    4) = (   0.0000000  -0.0976922   0.0000000), wk =   0.0555556
        k(    5) = (   0.0282013   0.0162820   0.0000000), wk =   0.1111111
        k(    6) = (   0.0282013   0.0488461   0.0000000), wk =   0.1111111
        k(    7) = (   0.0282013   0.0814102   0.0000000), wk =   0.1111111
        k(    8) = (   0.0282013  -0.0814102   0.0000000), wk =   0.1111111
        k(    9) = (   0.0282013  -0.0488461   0.0000000), wk =   0.1111111
        k(   10) = (   0.0282013  -0.0162820   0.0000000), wk =   0.1111111
        k(   11) = (   0.0564026   0.0325641   0.0000000), wk =   0.1111111
        k(   12) = (   0.0564026   0.0651282   0.0000000), wk =   0.1111111
        k(   13) = (   0.0564026   0.0976922   0.0000000), wk =   0.1111111
        k(   14) = (   0.0564026  -0.0651282   0.0000000), wk =   0.1111111
        k(   15) = (   0.0564026  -0.0325641   0.0000000), wk =   0.1111111
        k(   16) = (   0.0564026   0.0000000   0.0000000), wk =   0.1111111
        k(   17) = (  -0.0846040  -0.0488461   0.0000000), wk =   0.0555556
        k(   18) = (  -0.0846040  -0.0162820   0.0000000), wk =   0.1111111
        k(   19) = (  -0.0846040   0.0162820   0.0000000), wk =   0.1111111
        k(   20) = (  -0.0846040  -0.1465384   0.0000000), wk =   0.0555556

     Largest allocated arrays     est. size (Mb)     dimensions
     Largest temporary arrays     est. size (Mb)     dimensions

     Initial potential from superposition of free atoms
     Check: negative starting charge=   -0.841888

     starting charge  158.98680, renormalised to  159.00000

     negative rho (up, down):  8.420E-01 0.000E+00

     *
     * You are using vdW-DF for exchange-correlation in this calculation.
     * Please cite the following three references that made this development
     * possible:
     *
     *   M. Dion, H. Rydberg, E. Schroder, D. C. Langreth, and
     *   B. I. Lundqvist, Phys. Rev. Lett. 92, 246401 (2004).
     *
     *   T. Thonhauser, V. R. Cooper, S. Li, A. Puzder, P. Hyldgaard, and
     *   D. C. Langreth, Phys. Rev. B 76, 125112 (2007).
     *
     *   G. Roman-Perez and J. M. Soler, Phys. Rev. Lett. 103, 096102 (2009).
     *
     *
     * If you are using vdW-DF2, please also cite:
     *
     *   K. Lee, E. D. Murray, L. Kong, B. I. Lundqvist, and
     *   D. C. Langreth, Phys. Rev. B 82, 081101(R) (2010).
     *
     *
     * If you are calculating the stress with vdW-DF, please also cite:
     *
     *   R. Sabatini, E. Kucukbenli, B. Kolb, T. Thonhauser, and
     *   S. de Gironcoli, J. Phys.: Condens. Matter 24, 424209 (2012).
     *

     Carrying out vdW-DF run using the following parameters:

     Nqs =      20    Nr_points =    1024   r_max =   100.000
     q_mesh =
               0.00001000     0.04494208     0.09755937     0.15916263
               0.23128650     0.31572767     0.41458969     0.53033537
               0.66584808     0.82450364     1.01025438     1.22772762
               1.48234092     1.78043706     2.12944203     2.53805004
               3.01644009     3.57652955     4.23227104     5.00000000

     Gradients computed in reciprocal space

     Adding external electric field

     Computed dipole along edir(3) :
        Dipole               -0.0000 Ry au,         -0.0000 Debye
        Dipole field         -0.0000 Ry au

        Potential amp.        0.0000 Ry
        Total length         45.7404 bohr

     Starting wfc are  156 randomized atomic wfcs

     Self-consistent Calculation

     iteration #  1     ecut=    36.75 Ry     beta=0.10
     Davidson diagonalization with overlap
     ethr =  1.00E-02,  avg # of iterations =  2.0

[...]

     total energy              =   -1707.76421798 Ry
     Harris-Foulkes estimate   =   -1709.09148628 Ry
     estimated scf accuracy    <       7.53012908 Ry

[...]

     End of self-consistent calculation

          k = 0.0000 0.0000 0.0000 ( 19087 PWs)   bands (ev):

   -66.3340 -66.3286 -66.2827 -66.2827 -66.2814 -66.2814 -66.2338 -66.1900
   -66.1900 -58.9438 -58.7750 -58.7748 -33.2465 -33.2465 -33.1909 -33.1161
   -33.1161 -33.1118 -33.0891 -33.0619 -33.0619 -32.9979 -32.8658 -32.7558
   -32.7468 -32.7017 -32.7016 -32.6795 -32.6795 -32.6100 -32.5524 -32.5524
   -32.4983 -32.4983 -32.4877 -32.4877 -32.4702 -32.3975 -32.3766 -32.3766
   -32.3641 -32.2990 -32.2551 -32.2551 -32.2418 -32.2418 -32.1953 -32.1953
    -5.1561  -3.5959  -2.7346  -2.1713  -2.1713  -1.9873  -1.9873  -1.9306
    -1.5850  -1.2879  -1.2879  -1.1250  -1.1250  -1.1127  -1.0205   0.1014
     0.1014   0.1766   1.1214   1.2188   1.2188   1.2702   1.6313   1.7699
     1.9306   2.0647   2.0647   2.0964   2.0964   2.2890   2.2890   2.3465
     2.3465   2.5420   2.5420   2.5776   2.7440   2.8714   3.1078   3.1078
     3.7610   3.7610   3.7865   3.9551   3.9551   4.4602   4.4739   4.4739
     4.7815   5.1318   5.1318   5.3067   5.3067   5.9826   6.1221   6.1238
     6.1239   6.1904   6.3163   6.3165   6.3895

[...]

          k =-0.0846-0.0488 0.0000 ( 19068 PWs)   bands (ev):

[...]

     the Fermi energy is     2.0007 ev

!    total energy              =   -1708.46464556 Ry
     Harris-Foulkes estimate   =   -1708.46464526 Ry
     estimated scf accuracy    <       0.00000067 Ry

     The total energy is the sum of the following terms:

     one-electron contribution =  -12108.04936394 Ry
     hartree contribution      =    6038.61485286 Ry
     xc contribution           =    -451.86339825 Ry
     ewald contribution        =    4812.94374135 Ry
     electric field correction =       0.00000005 Ry
     smearing contrib. (-TS)   =      -0.11047763 Ry

     convergence has been achieved in  17 iterations

 BEEF-vdW xc energy contributions
           1 :   -396.390423229705
           2 :    365.439306862907
           3 :   -311.509882988935
           4 :    247.324193383665
           5 :   -185.699311848153
           6 :    135.519159789172
           7 :   -99.8851074505756
           8 :    76.7986771414946
           9 :   -61.6019118409992
          10 :    49.7473546894842
          11 :   -38.6283800101598
          12 :    27.9060426169074
          13 :   -18.6240795250438
[...]
     Pseudo is Ultrasoft + core correction, Zval = 13.0
     Generated by new atomic code, or converted to UPF format
     Using radial grid of  921 points,  7 beta functions with:
                l(1) =   0
                l(2) =   0
                l(3) =   1
                l(4) =   1
                l(5) =   2
                l(6) =   2
                l(7) =   3
     Q(r) pseudized with  6 coefficients,  rinner =    1.300   1.300   1.300
                                                       1.300   1.300   1.300
                                                       1.300

     PseudoPot. # 2 for Mo read from file:
     /afs/slac.stanford.edu/u/if/mamunm/psp/gbrv1.5pbe/Mo.UPF
     MD5 check sum: 30c4dcd161f5d35cd49bb5239c51a633
     Pseudo is Ultrasoft + core correction, Zval = 14.0
     Generated by new atomic code, or converted to UPF format
     Using radial grid of  889 points,  6 beta functions with:
                l(1) =   0
                l(2) =   0
                l(3) =   1
                l(4) =   1
                l(5) =   2
                l(6) =   2
     Q(r) pseudized with  6 coefficients,  rinner =    1.000   1.000   1.000
                                                       1.000   1.000

     vdW kernel table read from file vdW_kernel_table
     MD5 check sum: 095c7af220d748ca6e76c0b4c6cfb241

     atomic species   valence    mass     pseudopotential
        Ta1           13.00   180.94788     Ta( 1.00)
        Mo1           14.00    95.95000     Mo( 1.00)

     No symmetry found

   Cartesian axes

     site n.     atom                  positions (alat units)
         1           Ta1 tau(   1) = (   0.0000000   0.0000000  10.0000000  )
         2           Ta1 tau(   2) = (  -1.4774721   2.5590567  10.0000000  )
         3           Ta1 tau(   3) = (   1.4774721   2.5590567  10.0000000  )
         4           Mo1 tau(   4) = (   2.9549441   0.0000000  10.0000000  )
         5           Ta1 tau(   5) = (   2.9549441   1.7060378  12.4127018  )
         6           Ta1 tau(   6) = (   1.4774721   4.2650945  12.4127018  )
         7           Ta1 tau(   7) = (  -1.4774721   4.2650945  12.4127018  )
         8           Mo1 tau(   8) = (   0.0000000   1.7060378  12.4127018  )
         9           Ta1 tau(   9) = (   0.0000139   3.3890142  14.8447857  )
        10           Ta1 tau(  10) = (   1.4574947   0.8645495  14.8447962  )
        11           Ta1 tau(  11) = (   4.4524028   0.8645327  14.8447903  )
        12           Mo1 tau(  12) = (   2.9549515   3.4120697  14.7637142  )

     number of k points=    20  Fermi-Dirac smearing, width (Ry)=  0.0110
                       cart. coord. in units 2pi/alat
        k(    1) = (   0.0000000   0.0000000   0.0000000), wk =   0.0555556
        k(    2) = (   0.0000000   0.0325641   0.0000000), wk =   0.1111111
        k(    3) = (   0.0000000   0.0651282   0.0000000), wk =   0.1111111
        k(    4) = (   0.0000000  -0.0976922   0.0000000), wk =   0.0555556
        k(    5) = (   0.0282013   0.0162820   0.0000000), wk =   0.1111111
        k(    6) = (   0.0282013   0.0488461   0.0000000), wk =   0.1111111
        k(    7) = (   0.0282013   0.0814102   0.0000000), wk =   0.1111111
        k(    8) = (   0.0282013  -0.0814102   0.0000000), wk =   0.1111111
        k(    9) = (   0.0282013  -0.0488461   0.0000000), wk =   0.1111111
        k(   10) = (   0.0282013  -0.0162820   0.0000000), wk =   0.1111111
        k(   11) = (   0.0564026   0.0325641   0.0000000), wk =   0.1111111
        k(   12) = (   0.0564026   0.0651282   0.0000000), wk =   0.1111111
        k(   13) = (   0.0564026   0.0976922   0.0000000), wk =   0.1111111
        k(   14) = (   0.0564026  -0.0651282   0.0000000), wk =   0.1111111
        k(   15) = (   0.0564026  -0.0325641   0.0000000), wk =   0.1111111
        k(   16) = (   0.0564026   0.0000000   0.0000000), wk =   0.1111111
        k(   17) = (  -0.0846040  -0.0488461   0.0000000), wk =   0.0555556
        k(   18) = (  -0.0846040  -0.0162820   0.0000000), wk =   0.1111111
        k(   19) = (  -0.0846040   0.0162820   0.0000000), wk =   0.1111111
        k(   20) = (  -0.0846040  -0.1465384   0.0000000), wk =   0.0555556

     Largest allocated arrays     est. size (Mb)     dimensions
     Largest temporary arrays     est. size (Mb)     dimensions

     Initial potential from superposition of free atoms
     Check: negative starting charge=   -0.844627

     starting charge  158.98680, renormalised to  159.00000

[...]

     *
     * You are using vdW-DF for exchange-correlation in this calculation.
     * Please cite the following three references that made this development
     * possible:
     *
     *   M. Dion, H. Rydberg, E. Schroder, D. C. Langreth, and
     *   B. I. Lundqvist, Phys. Rev. Lett. 92, 246401 (2004).
     *
     *   T. Thonhauser, V. R. Cooper, S. Li, A. Puzder, P. Hyldgaard, and
     *   D. C. Langreth, Phys. Rev. B 76, 125112 (2007).
     *
     *   G. Roman-Perez and J. M. Soler, Phys. Rev. Lett. 103, 096102 (2009).
     *
     *
     * If you are using vdW-DF2, please also cite:
     *
     *   K. Lee, E. D. Murray, L. Kong, B. I. Lundqvist, and
     *   D. C. Langreth, Phys. Rev. B 82, 081101(R) (2010).
     *
     *
     * If you are calculating the stress with vdW-DF, please also cite:
     *
     *   R. Sabatini, E. Kucukbenli, B. Kolb, T. Thonhauser, and
     *   S. de Gironcoli, J. Phys.: Condens. Matter 24, 424209 (2012).
     *

     Carrying out vdW-DF run using the following parameters:

     Nqs =      20    Nr_points =    1024   r_max =   100.000
     q_mesh =
               0.00001000     0.04494208     0.09755937     0.15916263
               0.23128650     0.31572767     0.41458969     0.53033537
               0.66584808     0.82450364     1.01025438     1.22772762
               1.48234092     1.78043706     2.12944203     2.53805004
               3.01644009     3.57652955     4.23227104     5.00000000

     Gradients computed in reciprocal space

[...]

     Starting wfc are  156 randomized atomic wfcs

     Self-consistent Calculation

[...]

     total energy              =   -1708.47326017 Ry
     Harris-Foulkes estimate   =   -1708.47326023 Ry
     estimated scf accuracy    <       0.00000219 Ry

     iteration # 16     ecut=    36.75 Ry     beta=0.10
     Davidson diagonalization with overlap
     ethr =  1.38E-09,  avg # of iterations =  2.0

[...]

     negative rho (up, down):  8.849E-01 0.000E+00

     Adding external electric field

     Computed dipole along edir(3) :
        Dipole                0.0046 Ry au,          0.0117 Debye
        Dipole field          0.0000 Ry au

        Potential amp.       -0.0010 Ry
        Total length         45.7404 bohr

     End of self-consistent calculation

[...]

          k = 0.0564 0.0000 0.0000 ( 19047 PWs)   bands (ev):

[...]

          k =-0.0846-0.1465 0.0000 ( 19068 PWs)   bands (ev):

   -66.3190 -66.3055 -66.3017 -66.2890 -66.2856 -66.2724 -66.2156 -66.2018
   -66.1867 -58.9405 -58.7699 -58.7504 -33.1453 -33.1217 -33.0305 -33.0135
   -33.0101 -32.9586 -32.9488 -32.9404 -32.8718 -32.8486 -32.8351 -32.7902
   -32.7731 -32.7721 -32.6872 -32.6564 -32.6462 -32.6432 -32.6182 -32.5935
   -32.5870 -32.5501 -32.5485 -32.5292 -32.4892 -32.4890 -32.4769 -32.4416
   -32.4300 -32.4011 -32.3539 -32.3432 -32.3250 -32.2918 -32.2630 -32.2337
    -3.4568  -3.2815  -2.0674  -1.9259  -1.3258  -1.3009  -1.1502  -1.1075
    -0.8694  -0.8083  -0.3209  -0.1280  -0.0546   0.0328   0.0826   0.1012
     0.4490   0.4520   0.4888   0.6222   0.6297   0.8613   0.9609   1.1750
     1.2172   1.2706   1.3583   1.4167   1.4646   1.4831   1.6154   1.6938
     1.8596   2.0290   2.0606   2.1417   2.1815   2.2236   2.8568   2.9653
     3.0418   3.3269   3.4204   3.4964   3.6167   3.8055   3.9051   4.0146
     4.1259   4.2040   4.2369   4.4600   4.5485   4.6550   4.8521   4.9824
     5.1793   5.3857   5.4033   5.6962   5.9642

     the Fermi energy is     2.0078 ev

!    total energy              =   -1708.47326784 Ry
     Harris-Foulkes estimate   =   -1708.47326039 Ry
     estimated scf accuracy    <       0.00000089 Ry

     The total energy is the sum of the following terms:

     one-electron contribution =  -12111.43702136 Ry
     hartree contribution      =    6040.31865884 Ry
     xc contribution           =    -451.86919839 Ry
     ewald contribution        =    4814.62477234 Ry
     electric field correction =       0.00000005 Ry
     smearing contrib. (-TS)   =      -0.11047933 Ry

     convergence has been achieved in  16 iterations

 BEEF-vdW xc energy contributions
           1 :   -396.618858596442
           2 :    365.668845871986
           3 :   -311.740974876252
           4 :    247.556351247104
           5 :   -185.930375382759
           6 :    135.745960123891
           7 :   -100.104995444857
           8 :    77.0116286310851
           9 :   -61.8115557995322
          10 :    49.9596065069654
          11 :   -38.8481997594056
          12 :    28.1343974133148
          13 :   -18.8571758128393
          14 :    12.1305835341730
          15 :   -8.20743647870950
          16 :    6.30797301357620
          17 :   -5.12576921937909
          18 :    3.58066292340965
          19 :   -1.34841647569112
          20 :   -1.11021113977495
          21 :    2.97504042460878
          22 :   -3.65463640670612
          23 :    3.17498554091810
          24 :   -2.15958212598673
          25 :    1.44724862050651
          26 :   -1.60922262761102
          27 :    2.65945295238737
          28 :   -4.11121681315683
          29 :    5.30938447075505
          30 :   -5.81608443022060
          31 :   -36.6252822193600
          32 :   -27.3214258482277

     Forces acting on atoms (Ry/au):

     negative rho (up, down):  8.849E-01 0.000E+00
     atom    1 type  1   force =     0.00000197    0.00744727   -0.00255867
     atom    2 type  1   force =     0.00645111   -0.00372185   -0.00256061
     atom    3 type  1   force =    -0.00645174   -0.00372434   -0.00256095
     atom    4 type  2   force =    -0.00000069   -0.00000028    0.00670509
     atom    5 type  1   force =    -0.00000137   -0.00484705    0.00068542
     atom    6 type  1   force =    -0.00419458    0.00242403    0.00068063
     atom    7 type  1   force =     0.00419426    0.00242553    0.00068366
     atom    8 type  2   force =    -0.00000056   -0.00000000    0.00146831
     atom    9 type  1   force =    -0.00000232    0.00094237   -0.00044572
     atom   10 type  1   force =     0.00082108   -0.00047378   -0.00044884
     atom   11 type  1   force =    -0.00081859   -0.00047012   -0.00044712
     atom   12 type  2   force =     0.00000144   -0.00000178   -0.00120118

     Total force =     0.017600     Total SCF correction =     0.002349
     SCF correction compared to forces is large: reduce conv_thr to get better values

     entering subroutine stress ...

     negative rho (up, down):  8.849E-01 0.000E+00
          total   stress  (Ry/bohr**3)                   (kbar)     P=  -35.19
  -0.00033913   0.00000000   0.00000000        -49.89      0.00      0.00
   0.00000000  -0.00033913  -0.00000000          0.00    -49.89     -0.00
   0.00000000  -0.00000000  -0.00003936          0.00     -0.00     -5.79

 !ASE

     Writing output data file calc.save

     General routines

     Parallel routines

   This run was terminated on:  18:20:48   1Jan2019

   JOB DONE.
Job  /afs/slac/g/suncat/bin/suncat-tsmpirun -x LD_LIBRARY_PATH -wdir /scratch/qe649111_lOI7a pw.x -in pw.inp

TID   HOST_NAME   COMMAND_LINE            STATUS            TERMINATION_TIME
00000 suncat0031 pw.x -in pw.inp   Done                     01/01/2019 18:20:48
00001 suncat0031 pw.x -in pw.inp   Done                     01/01/2019 18:20:48
00002 suncat0031 pw.x -in pw.inp   Done                     01/01/2019 18:20:48
00003 suncat0031 pw.x -in pw.inp   Done                     01/01/2019 18:20:48
00004 suncat0031 pw.x -in pw.inp   Done                     01/01/2019 18:20:48
00005 suncat0031 pw.x -in pw.inp   Done                     01/01/2019 18:20:48
00006 suncat0031 pw.x -in pw.inp   Done                     01/01/2019 18:20:48
00007 suncat0031 pw.x -in pw.inp   Done                     01/01/2019 18:20:48
00008 suncat0030 pw.x -in pw.inp   Done                     01/01/2019 18:20:48
00009 suncat0030 pw.x -in pw.inp   Done                     01/01/2019 18:20:48
00010 suncat0030 pw.x -in pw.inp   Done                     01/01/2019 18:20:48
00011 suncat0030 pw.x -in pw.inp   Done                     01/01/2019 18:20:48
00012 suncat0030 pw.x -in pw.inp   Done                     01/01/2019 18:20:48
00013 suncat0030 pw.x -in pw.inp   Done                     01/01/2019 18:20:48
00014 suncat0030 pw.x -in pw.inp   Done                     01/01/2019 18:20:48
00015 suncat0030 pw.x -in pw.inp   Done                     01/01/2019 18:20:48
00016 suncat0132 pw.x -in pw.inp   Done                     01/01/2019 18:20:48
00017 suncat0132 pw.x -in pw.inp   Done                     01/01/2019 18:20:48
00018 suncat0132 pw.x -in pw.inp   Done                     01/01/2019 18:20:48
00019 suncat0132 pw.x -in pw.inp   Done                     01/01/2019 18:20:48
00020 suncat0132 pw.x -in pw.inp   Done                     01/01/2019 18:20:48
00021 suncat0132 pw.x -in pw.inp   Done                     01/01/2019 18:20:48
00022 suncat0132 pw.x -in pw.inp   Done                     01/01/2019 18:20:48
00023 suncat0132 pw.x -in pw.inp   Done                     01/01/2019 18:20:48
00024 suncat0131 pw.x -in pw.inp   Done                     01/01/2019 18:20:48
00025 suncat0131 pw.x -in pw.inp   Done                     01/01/2019 18:20:48
00026 suncat0131 pw.x -in pw.inp   Done                     01/01/2019 18:20:48
00027 suncat0131 pw.x -in pw.inp   Done                     01/01/2019 18:20:48
00028 suncat0131 pw.x -in pw.inp   Done                     01/01/2019 18:20:48
00029 suncat0131 pw.x -in pw.inp   Done                     01/01/2019 18:20:48
00030 suncat0131 pw.x -in pw.inp   Done                     01/01/2019 18:20:48
00031 suncat0131 pw.x -in pw.inp   Done                     01/01/2019 18:20:48
00032 suncat0130 pw.x -in pw.inp   Done                     01/01/2019 18:20:48
00033 suncat0130 pw.x -in pw.inp   Done                     01/01/2019 18:20:48
00034 suncat0130 pw.x -in pw.inp   Done                     01/01/2019 18:20:48
00035 suncat0130 pw.x -in pw.inp   Done                     01/01/2019 18:20:48
00036 suncat0130 pw.x -in pw.inp   Done                     01/01/2019 18:20:48
00037 suncat0130 pw.x -in pw.inp   Done                     01/01/2019 18:20:48
00038 suncat0130 pw.x -in pw.inp   Done                     01/01/2019 18:20:48
00039 suncat0130 pw.x -in pw.inp   Done                     01/01/2019 18:20:48
00040 suncat0124 pw.x -in pw.inp   Done                     01/01/2019 18:20:48
00041 suncat0124 pw.x -in pw.inp   Done                     01/01/2019 18:20:48
00042 suncat0124 pw.x -in pw.inp   Done                     01/01/2019 18:20:48
00043 suncat0124 pw.x -in pw.inp   Done                     01/01/2019 18:20:48
00044 suncat0124 pw.x -in pw.inp   Done                     01/01/2019 18:20:48
00045 suncat0124 pw.x -in pw.inp   Done                     01/01/2019 18:20:48
00046 suncat0124 pw.x -in pw.inp   Done                     01/01/2019 18:20:48
00047 suncat0124 pw.x -in pw.inp   Done                     01/01/2019 18:20:48
00048 suncat0280 pw.x -in pw.inp   Done                     01/01/2019 18:20:48
00049 suncat0280 pw.x -in pw.inp   Done                     01/01/2019 18:20:48
00050 suncat0280 pw.x -in pw.inp   Done                     01/01/2019 18:20:48
00051 suncat0280 pw.x -in pw.inp   Done                     01/01/2019 18:20:48
00052 suncat0280 pw.x -in pw.inp   Done                     01/01/2019 18:20:48
00053 suncat0280 pw.x -in pw.inp   Done                     01/01/2019 18:20:48
00054 suncat0280 pw.x -in pw.inp   Done                     01/01/2019 18:20:48
00055 suncat0280 pw.x -in pw.inp   Done                     01/01/2019 18:20:48
00056 suncat0279 pw.x -in pw.inp   Done                     01/01/2019 18:20:48
00057 suncat0279 pw.x -in pw.inp   Done                     01/01/2019 18:20:48
00058 suncat0279 pw.x -in pw.inp   Done                     01/01/2019 18:20:48
00059 suncat0279 pw.x -in pw.inp   Done                     01/01/2019 18:20:48
00060 suncat0279 pw.x -in pw.inp   Done                     01/01/2019 18:20:48
00061 suncat0279 pw.x -in pw.inp   Done                     01/01/2019 18:20:48
00062 suncat0279 pw.x -in pw.inp   Done                     01/01/2019 18:20:48
00063 suncat0279 pw.x -in pw.inp   Done                     01/01/2019 18:20:48