     Program PWSCF v.5.1rc2 (svn rev. 11289) starts on 28Dec2018 at  1:48:48

     Current dimensions of program PWSCF are:
     Max number of different atomic species (ntypx) = 10
     Max number of k-points (npk) =  40000
     Max angular momentum in pseudopotentials (lmaxx) =  3
     Presently stress not available with electric field

     IMPORTANT: XC functional enforced from input :
     Exchange-correlation      = BEEF-VDW ( 1  4 27 13 2)
     Any further DFT definition will be discarded
     Please, verify this is what you really want

     Subspace diagonalization in iterative solution of the eigenvalue problem:
     a serial algorithm will be used

     bravais-lattice index     =            0
     lattice parameter (alat)  =       1.8897  a.u.
     unit-cell volume          =    4261.6467 (a.u.)^3
     number of atoms/cell      =           12
     number of atomic types    =            2
     number of electrons       =       195.00
     number of Kohn-Sham states=          127
     kinetic-energy cutoff     =      36.7493  Ry
     charge density cutoff     =     367.4932  Ry
     convergence threshold     =      1.0E-06
     mixing beta               =       0.1000
     number of iterations used =           10  plain     mixing
     Exchange-correlation      = BEEF-VDW ( 1  4 27 13 2)
     nstep                     =           50

     celldm(1)=   1.889726  celldm(2)=   0.000000  celldm(3)=   0.000000
     celldm(4)=   0.000000  celldm(5)=   0.000000  celldm(6)=   0.000000

     crystal axes: (cart. coord. in units of alat)
               a(1) = (   5.460246   0.000000   0.000000 )
               a(2) = (  -2.730123   4.728712   0.000000 )
               a(3) = (   0.000000   0.000000  24.458272 )

     reciprocal axes: (cart. coord. in units 2 pi/alat)
               b(1) = (  0.183142  0.105737  0.000000 )
               b(2) = (  0.000000  0.211474  0.000000 )
               b(3) = (  0.000000  0.000000  0.040886 )

     PseudoPot. # 1 for Tc read from file:
     /afs/slac.stanford.edu/u/if/mamunm/psp/gbrv1.5pbe/Tc.UPF
     MD5 check sum: 9eb49e5b028550b2339a02317eb7b844
     Pseudo is Ultrasoft + core correction, Zval = 15.0
     Generated by new atomic code, or converted to UPF format
     Using radial grid of  965 points,  6 beta functions with:
                l(1) =   0
                l(2) =   0
                l(3) =   1
                l(4) =   1
                l(5) =   2
                l(6) =   2
     Q(r) pseudized with  8 coefficients,  rinner =    1.300   1.300   1.300
                                                       1.300   1.300

     PseudoPot. # 2 for Zn read from file:
     /afs/slac.stanford.edu/u/if/mamunm/psp/gbrv1.5pbe/Zn.UPF
     MD5 check sum: df62231357ef9e81f77b2b3087fa5675
     Pseudo is Ultrasoft, Zval = 20.0
     Generated by new atomic code, or converted to UPF format
     Using radial grid of  943 points,  6 beta functions with:
                l(1) =   0
                l(2) =   0
                l(3) =   1
                l(4) =   1
                l(5) =   2
                l(6) =   2
     Q(r) pseudized with  8 coefficients,  rinner =    1.100   1.100   1.100
                                                       1.100   1.100

     vdW kernel table read from file vdW_kernel_table
     MD5 check sum: 095c7af220d748ca6e76c0b4c6cfb241

     atomic species   valence    mass     pseudopotential
        Tc1           15.00    97.90721     Tc( 1.00)
        Zn1           20.00    65.38000     Zn( 1.00)

     No symmetry found

   Cartesian axes

     site n.     atom                  positions (alat units)
         1           Tc1 tau(   1) = (   0.0000000   0.0000000  10.0000000  )
         2           Tc1 tau(   2) = (  -1.3650615   2.3643559  10.0000000  )
         3           Tc1 tau(   3) = (   1.3650615   2.3643559  10.0000000  )
         4           Zn1 tau(   4) = (   2.7301231   0.0000000  10.0000000  )
         5           Tc1 tau(   5) = (   2.7301231   1.5762373  12.2291361  )
         6           Tc1 tau(   6) = (   1.3650615   3.9405932  12.2291361  )
         7           Tc1 tau(   7) = (  -1.3650615   3.9405932  12.2291361  )
         8           Zn1 tau(   8) = (   0.0000000   1.5762373  12.2291361  )
         9           Tc1 tau(   9) = (  -0.0000000   3.1524746  14.4582723  )
        10           Tc1 tau(  10) = (   1.3650615   0.7881186  14.4582723  )
        11           Tc1 tau(  11) = (   4.0951846   0.7881186  14.4582723  )
        12           Zn1 tau(  12) = (   2.7301231   3.1524746  14.4582723  )

     number of k points=    20  Fermi-Dirac smearing, width (Ry)=  0.0110
                       cart. coord. in units 2pi/alat
        k(    1) = (   0.0000000   0.0000000   0.0000000), wk =   0.0555556
        k(    2) = (   0.0000000   0.0352457   0.0000000), wk =   0.1111111
        k(    3) = (   0.0000000   0.0704914   0.0000000), wk =   0.1111111
        k(    4) = (   0.0000000  -0.1057370   0.0000000), wk =   0.0555556
        k(    5) = (   0.0305237   0.0176228   0.0000000), wk =   0.1111111
        k(    6) = (   0.0305237   0.0528685   0.0000000), wk =   0.1111111
        k(    7) = (   0.0305237   0.0881142   0.0000000), wk =   0.1111111
        k(    8) = (   0.0305237  -0.0881142   0.0000000), wk =   0.1111111
        k(    9) = (   0.0305237  -0.0528685   0.0000000), wk =   0.1111111
        k(   10) = (   0.0305237  -0.0176228   0.0000000), wk =   0.1111111
        k(   11) = (   0.0610473   0.0352457   0.0000000), wk =   0.1111111
        k(   12) = (   0.0610473   0.0704914   0.0000000), wk =   0.1111111
        k(   13) = (   0.0610473   0.1057370   0.0000000), wk =   0.1111111
        k(   14) = (   0.0610473  -0.0704914   0.0000000), wk =   0.1111111
        k(   15) = (   0.0610473  -0.0352457   0.0000000), wk =   0.1111111
        k(   16) = (   0.0610473   0.0000000   0.0000000), wk =   0.1111111
        k(   17) = (  -0.0915710  -0.0528685   0.0000000), wk =   0.0555556
        k(   18) = (  -0.0915710  -0.0176228   0.0000000), wk =   0.1111111
        k(   19) = (  -0.0915710   0.0176228   0.0000000), wk =   0.1111111
        k(   20) = (  -0.0915710  -0.1586056   0.0000000), wk =   0.0555556

     Largest allocated arrays     est. size (Mb)     dimensions
     Largest temporary arrays     est. size (Mb)     dimensions

     Check: negative/imaginary core charge=   -0.000019    0.000000

     Initial potential from superposition of free atoms
     Check: negative starting charge=   -1.128589

     starting charge  185.99933, renormalised to  195.00000

     negative rho (up, down):  1.183E+00 0.000E+00

     *
     * You are using vdW-DF for exchange-correlation in this calculation.
     * Please cite the following three references that made this development
     * possible:
     *
     *   M. Dion, H. Rydberg, E. Schroder, D. C. Langreth, and
     *   B. I. Lundqvist, Phys. Rev. Lett. 92, 246401 (2004).
     *
     *   T. Thonhauser, V. R. Cooper, S. Li, A. Puzder, P. Hyldgaard, and
     *   D. C. Langreth, Phys. Rev. B 76, 125112 (2007).
     *
     *   G. Roman-Perez and J. M. Soler, Phys. Rev. Lett. 103, 096102 (2009).
     *
     *
     * If you are using vdW-DF2, please also cite:
     *
     *   K. Lee, E. D. Murray, L. Kong, B. I. Lundqvist, and
     *   D. C. Langreth, Phys. Rev. B 82, 081101(R) (2010).
     *
     *
     * If you are calculating the stress with vdW-DF, please also cite:
     *
     *   R. Sabatini, E. Kucukbenli, B. Kolb, T. Thonhauser, and
     *   S. de Gironcoli, J. Phys.: Condens. Matter 24, 424209 (2012).
     *

     Carrying out vdW-DF run using the following parameters:

     Nqs =      20    Nr_points =    1024   r_max =   100.000
     q_mesh =
               0.00001000     0.04494208     0.09755937     0.15916263
               0.23128650     0.31572767     0.41458969     0.53033537
               0.66584808     0.82450364     1.01025438     1.22772762
               1.48234092     1.78043706     2.12944203     2.53805004
               3.01644009     3.57652955     4.23227104     5.00000000

     Gradients computed in reciprocal space

     Adding external electric field

     Computed dipole along edir(3) :
        Dipole                0.0000 Ry au,          0.0000 Debye
        Dipole field          0.0000 Ry au

        Potential amp.       -0.0000 Ry
        Total length         45.0640 bohr

     Starting wfc are  156 randomized atomic wfcs

     Self-consistent Calculation

     iteration #  1     ecut=    36.75 Ry     beta=0.10
     Davidson diagonalization with overlap
     ethr =  1.00E-02,  avg # of iterations =  7.7

[...]

     total energy              =   -2935.89406449 Ry
     Harris-Foulkes estimate   =   -2989.26371777 Ry
     estimated scf accuracy    <     291.95891271 Ry

[...]

     End of self-consistent calculation

          k = 0.0000 0.0000 0.0000 ( 15965 PWs)   bands (ev):

  -124.4530-124.1938-124.1936 -78.6280 -78.6280 -78.6210 -78.3682 -78.3682
   -78.3681 -78.3681 -78.3571 -78.3566 -65.5358 -65.4242 -65.4240 -65.2044
   -65.1966 -65.0989 -65.0988 -65.0969 -65.0969 -38.0132 -37.7370 -37.7321
   -37.7320 -37.6487 -37.5922 -37.5921 -37.5750 -37.3461 -37.3461 -37.2727
   -37.2343 -37.2342 -37.1929 -37.1072 -37.1071 -37.0888 -37.0887 -37.0048
   -36.9798 -36.9797 -36.9237 -36.8961 -36.8038 -36.8037 -36.7988 -36.7988
    -5.9482  -5.6748  -5.6748  -5.5919  -5.5919  -5.5873  -5.3484  -5.3484
    -5.3394  -5.3171  -5.3171  -5.3073  -5.1618  -5.1618  -5.1292  -5.1292
    -4.4376  -4.0472  -3.6435  -2.7536  -2.5015  -1.9731  -1.8379  -1.8378
    -1.6255  -1.6254  -1.4941  -1.3680  -1.3680  -1.1290  -1.1290  -0.3257
    -0.3257  -0.1555  -0.1555   0.0328   0.3045   0.5104   0.8047   0.8047
     1.0046   1.3270   1.3271   1.6130   1.9601   1.9602   2.1604   2.2367
     2.3281   2.3282   2.5310   2.5310   2.7322   2.7323   2.9741   2.9741
     2.9862   2.9863   3.1680   3.1681   3.8422   3.8423   3.8834   3.9022
     4.5381   4.7112   4.8830   4.9656   4.9808   5.3026   5.3026   5.7068
     5.7068   5.7237   5.9839   6.3603   7.1072   7.3751   7.6028

[...]

          k =-0.0916-0.0529 0.0000 ( 16068 PWs)   bands (ev):

[...]

     the Fermi energy is     1.8037 ev

!    total energy              =   -2965.71015448 Ry
     Harris-Foulkes estimate   =   -2965.71014999 Ry
     estimated scf accuracy    <       0.00000083 Ry

     The total energy is the sum of the following terms:

     one-electron contribution =  -23011.16971752 Ry
     hartree contribution      =   11500.09617953 Ry
     xc contribution           =    -427.97692475 Ry
     ewald contribution        =    8973.42028727 Ry
     electric field correction =       0.00000012 Ry
     smearing contrib. (-TS)   =      -0.07997912 Ry

     convergence has been achieved in  19 iterations

 BEEF-vdW xc energy contributions
           1 :   -376.692662101298
           2 :    344.902561350566
           3 :   -289.365794977439
           4 :    222.777550094455
           5 :   -157.875195777236
           6 :    103.414292458496
           7 :   -62.4920994840735
           8 :    33.4184160672980
           9 :   -12.2790406921503
          10 :   -4.41625249296106
[...]
     Pseudo is Ultrasoft + core correction, Zval = 15.0
     Generated by new atomic code, or converted to UPF format
     Using radial grid of  965 points,  6 beta functions with:
                l(1) =   0
                l(2) =   0
                l(3) =   1
                l(4) =   1
                l(5) =   2
                l(6) =   2
     Q(r) pseudized with  8 coefficients,  rinner =    1.300   1.300   1.300
                                                       1.300   1.300

     PseudoPot. # 2 for Zn read from file:
     /afs/slac.stanford.edu/u/if/mamunm/psp/gbrv1.5pbe/Zn.UPF
     MD5 check sum: df62231357ef9e81f77b2b3087fa5675
     Pseudo is Ultrasoft, Zval = 20.0
     Generated by new atomic code, or converted to UPF format
     Using radial grid of  943 points,  6 beta functions with:
                l(1) =   0
                l(2) =   0
                l(3) =   1
                l(4) =   1
                l(5) =   2
                l(6) =   2
     Q(r) pseudized with  8 coefficients,  rinner =    1.100   1.100   1.100
                                                       1.100   1.100

     vdW kernel table read from file vdW_kernel_table
     MD5 check sum: 095c7af220d748ca6e76c0b4c6cfb241

     atomic species   valence    mass     pseudopotential
        Tc1           15.00    97.90721     Tc( 1.00)
        Zn1           20.00    65.38000     Zn( 1.00)

     No symmetry found

   Cartesian axes

     site n.     atom                  positions (alat units)
         1           Tc1 tau(   1) = (   0.0000000   0.0000000  10.0000000  )
         2           Tc1 tau(   2) = (  -1.3650615   2.3643559  10.0000000  )
         3           Tc1 tau(   3) = (   1.3650615   2.3643559  10.0000000  )
         4           Zn1 tau(   4) = (   2.7301231   0.0000000  10.0000000  )
         5           Tc1 tau(   5) = (   2.7301231   1.5762373  12.2291361  )
         6           Tc1 tau(   6) = (   1.3650615   3.9405932  12.2291361  )
         7           Tc1 tau(   7) = (  -1.3650615   3.9405932  12.2291361  )
         8           Zn1 tau(   8) = (   0.0000000   1.5762373  12.2291361  )
         9           Tc1 tau(   9) = (  -0.0000431   3.2443447  14.3859785  )
        10           Tc1 tau(  10) = (   1.4445439   0.7421555  14.3859849  )
        11           Tc1 tau(  11) = (   4.0155824   0.7421416  14.3858899  )
        12           Zn1 tau(  12) = (   2.7298911   3.1524511  14.6519633  )

     number of k points=    20  Fermi-Dirac smearing, width (Ry)=  0.0110
                       cart. coord. in units 2pi/alat
        k(    1) = (   0.0000000   0.0000000   0.0000000), wk =   0.0555556
        k(    2) = (   0.0000000   0.0352457   0.0000000), wk =   0.1111111
        k(    3) = (   0.0000000   0.0704914   0.0000000), wk =   0.1111111
        k(    4) = (   0.0000000  -0.1057370   0.0000000), wk =   0.0555556
        k(    5) = (   0.0305237   0.0176228   0.0000000), wk =   0.1111111
        k(    6) = (   0.0305237   0.0528685   0.0000000), wk =   0.1111111
        k(    7) = (   0.0305237   0.0881142   0.0000000), wk =   0.1111111
        k(    8) = (   0.0305237  -0.0881142   0.0000000), wk =   0.1111111
        k(    9) = (   0.0305237  -0.0528685   0.0000000), wk =   0.1111111
        k(   10) = (   0.0305237  -0.0176228   0.0000000), wk =   0.1111111
        k(   11) = (   0.0610473   0.0352457   0.0000000), wk =   0.1111111
        k(   12) = (   0.0610473   0.0704914   0.0000000), wk =   0.1111111
        k(   13) = (   0.0610473   0.1057370   0.0000000), wk =   0.1111111
        k(   14) = (   0.0610473  -0.0704914   0.0000000), wk =   0.1111111
        k(   15) = (   0.0610473  -0.0352457   0.0000000), wk =   0.1111111
        k(   16) = (   0.0610473   0.0000000   0.0000000), wk =   0.1111111
        k(   17) = (  -0.0915710  -0.0528685   0.0000000), wk =   0.0555556
        k(   18) = (  -0.0915710  -0.0176228   0.0000000), wk =   0.1111111
        k(   19) = (  -0.0915710   0.0176228   0.0000000), wk =   0.1111111
        k(   20) = (  -0.0915710  -0.1586056   0.0000000), wk =   0.0555556

     Largest allocated arrays     est. size (Mb)     dimensions
     Largest temporary arrays     est. size (Mb)     dimensions

     Check: negative/imaginary core charge=   -0.000019    0.000000

     Initial potential from superposition of free atoms
     Check: negative starting charge=   -1.134311

     starting charge  185.99933, renormalised to  195.00000

[...]

     *
     * You are using vdW-DF for exchange-correlation in this calculation.
     * Please cite the following three references that made this development
     * possible:
     *
     *   M. Dion, H. Rydberg, E. Schroder, D. C. Langreth, and
     *   B. I. Lundqvist, Phys. Rev. Lett. 92, 246401 (2004).
     *
     *   T. Thonhauser, V. R. Cooper, S. Li, A. Puzder, P. Hyldgaard, and
     *   D. C. Langreth, Phys. Rev. B 76, 125112 (2007).
     *
     *   G. Roman-Perez and J. M. Soler, Phys. Rev. Lett. 103, 096102 (2009).
     *
     *
     * If you are using vdW-DF2, please also cite:
     *
     *   K. Lee, E. D. Murray, L. Kong, B. I. Lundqvist, and
     *   D. C. Langreth, Phys. Rev. B 82, 081101(R) (2010).
     *
     *
     * If you are calculating the stress with vdW-DF, please also cite:
     *
     *   R. Sabatini, E. Kucukbenli, B. Kolb, T. Thonhauser, and
     *   S. de Gironcoli, J. Phys.: Condens. Matter 24, 424209 (2012).
     *

     Carrying out vdW-DF run using the following parameters:

     Nqs =      20    Nr_points =    1024   r_max =   100.000
     q_mesh =
               0.00001000     0.04494208     0.09755937     0.15916263
               0.23128650     0.31572767     0.41458969     0.53033537
               0.66584808     0.82450364     1.01025438     1.22772762
               1.48234092     1.78043706     2.12944203     2.53805004
               3.01644009     3.57652955     4.23227104     5.00000000

     Gradients computed in reciprocal space

[...]

     Starting wfc are  156 randomized atomic wfcs

     Self-consistent Calculation

[...]

     total energy              =   -2965.72753014 Ry
     Harris-Foulkes estimate   =   -2965.72752974 Ry
     estimated scf accuracy    <       0.00000247 Ry

     iteration # 20     ecut=    36.75 Ry     beta=0.10
     Davidson diagonalization with overlap
     ethr =  1.26E-09,  avg # of iterations =  2.0

[...]

     negative rho (up, down):  1.188E+00 0.000E+00

     Adding external electric field

     Computed dipole along edir(3) :
        Dipole                0.0146 Ry au,          0.0371 Debye
        Dipole field          0.0000 Ry au

        Potential amp.       -0.0039 Ry
        Total length         45.0640 bohr

     End of self-consistent calculation

[...]

          k = 0.0610 0.0000 0.0000 ( 16026 PWs)   bands (ev):

[...]

          k =-0.0916-0.1586 0.0000 ( 16068 PWs)   bands (ev):

  -124.4591-124.1701-124.1196 -78.6323 -78.6323 -78.6291 -78.3450 -78.3450
   -78.3329 -78.2959 -78.2959 -78.2839 -65.4833 -65.4450 -65.4052 -65.2262
   -65.1480 -65.1351 -65.1247 -65.1016 -65.0670 -37.8704 -37.7557 -37.6813
   -37.6317 -37.5510 -37.5424 -37.5265 -37.4603 -37.4456 -37.4146 -37.3017
   -37.2329 -37.1637 -37.1441 -37.1281 -37.1259 -37.0896 -37.0787 -37.0567
   -37.0313 -37.0151 -37.0014 -36.9847 -36.9475 -36.9365 -36.8168 -36.7924
    -5.5963  -5.5322  -5.4993  -5.4768  -5.4741  -5.2564  -5.1821  -5.1688
    -5.1566  -5.1315  -5.1212  -5.0795  -5.0712  -5.0401  -5.0332  -4.2952
    -3.9337  -3.1031  -2.9462  -2.5719  -2.4753  -2.3088  -1.6714  -1.6270
    -1.6142  -1.3552  -1.2431  -1.2421  -1.1291  -0.9080  -0.8854  -0.6959
    -0.4934  -0.4244  -0.3004  -0.0264   0.1297   0.2917   0.3343   0.3832
     0.5045   0.5426   0.6111   0.7585   0.8217   0.9270   0.9791   1.0228
     1.6717   1.6769   1.8361   1.8966   1.9854   2.1421   2.2728   2.2976
     2.5286   2.5644   2.5839   2.6372   3.1305   3.4611   3.6672   3.8408
     3.9662   4.2735   4.5386   5.0984   5.8751   6.3021   6.3618   6.5816
     6.8919   7.3653   7.4001   7.4836   7.8451   7.8899   7.9590

     the Fermi energy is     1.8419 ev

!    total energy              =   -2965.72753414 Ry
     Harris-Foulkes estimate   =   -2965.72753051 Ry
     estimated scf accuracy    <       0.00000038 Ry

     The total energy is the sum of the following terms:

     one-electron contribution =  -22977.29163237 Ry
     hartree contribution      =   11483.21471528 Ry
     xc contribution           =    -428.07799040 Ry
     ewald contribution        =    8956.50438113 Ry
     electric field correction =       0.00000063 Ry
     smearing contrib. (-TS)   =      -0.07700840 Ry

     convergence has been achieved in  20 iterations

 BEEF-vdW xc energy contributions
           1 :   -376.796280382354
           2 :    345.034442637019
           3 :   -289.539289827496
           4 :    222.979480806749
           5 :   -158.061104093210
           6 :    103.519190832913
           7 :   -62.4570713711508
           8 :    33.2249689734267
           9 :   -11.9697313819487
          10 :   -4.74455867786452
          11 :    18.4316258050793
          12 :   -28.7220960664342
          13 :    34.4216044441203
          14 :   -34.7433005453243
          15 :    29.9861438841481
          16 :   -21.4921632828700
          17 :    11.1263522817520
          18 :  -0.722080621957787
          19 :   -8.25016407486743
          20 :    14.7620854276412
          21 :   -18.2145104985511
          22 :    18.4433103102854
          23 :   -15.7528658192063
          24 :    10.8753075557813
          25 :   -4.79198062744462
          26 :   -1.54341688397272
          27 :    7.43099537618519
          28 :   -12.4756864278655
          29 :    16.4503665202070
          30 :   -19.1001409137964
          31 :   -33.7088894564276
          32 :   -24.2751647092092

     Forces acting on atoms (Ry/au):

     negative rho (up, down):  1.188E+00 0.000E+00
     atom    1 type  1   force =    -0.00000167   -0.02442499    0.01493475
     atom    2 type  1   force =    -0.02115447    0.01221000    0.01493689
     atom    3 type  1   force =     0.02114036    0.01220405    0.01493378
     atom    4 type  2   force =     0.00002892    0.00000124   -0.03104519
     atom    5 type  1   force =    -0.00000461    0.00844221   -0.00506285
     atom    6 type  1   force =     0.00730553   -0.00422201   -0.00507022
     atom    7 type  1   force =    -0.00732319   -0.00422666   -0.00505919
     atom    8 type  2   force =     0.00003709    0.00002158   -0.00273594
     atom    9 type  1   force =    -0.00004112    0.00080392    0.00096117
     atom   10 type  1   force =     0.00069593   -0.00042020    0.00095293
     atom   11 type  1   force =    -0.00070928   -0.00038221    0.00100055
     atom   12 type  2   force =     0.00002648   -0.00000693    0.00125333

     Total force =     0.061047     Total SCF correction =     0.003755

     entering subroutine stress ...

     negative rho (up, down):  1.188E+00 0.000E+00
          total   stress  (Ry/bohr**3)                   (kbar)     P=  -27.11
  -0.00025700  -0.00000000   0.00000001        -37.81     -0.00      0.00
  -0.00000000  -0.00025700   0.00000000         -0.00    -37.81      0.00
   0.00000001   0.00000000  -0.00003896          0.00      0.00     -5.73

 !ASE

     Writing output data file calc.save

     General routines

     Parallel routines

   This run was terminated on:   3:57:27  28Dec2018

   JOB DONE.
Job  /afs/slac/g/suncat/bin/suncat-tsmpirun -x LD_LIBRARY_PATH -wdir /scratch/qe111098_6h7CR pw.x -in pw.inp

TID   HOST_NAME   COMMAND_LINE            STATUS            TERMINATION_TIME
00000 suncat0046 pw.x -in pw.inp   Done                     12/28/2018 03:57:27
00001 suncat0046 pw.x -in pw.inp   Done                     12/28/2018 03:57:27
00002 suncat0046 pw.x -in pw.inp   Done                     12/28/2018 03:57:27
00003 suncat0046 pw.x -in pw.inp   Done                     12/28/2018 03:57:27
00004 suncat0046 pw.x -in pw.inp   Done                     12/28/2018 03:57:27
00005 suncat0046 pw.x -in pw.inp   Done                     12/28/2018 03:57:27
00006 suncat0046 pw.x -in pw.inp   Done                     12/28/2018 03:57:27
00007 suncat0046 pw.x -in pw.inp   Done                     12/28/2018 03:57:27
00008 suncat0014 pw.x -in pw.inp   Done                     12/28/2018 03:57:27
00009 suncat0014 pw.x -in pw.inp   Done                     12/28/2018 03:57:27
00010 suncat0014 pw.x -in pw.inp   Done                     12/28/2018 03:57:27
00011 suncat0014 pw.x -in pw.inp   Done                     12/28/2018 03:57:27
00012 suncat0014 pw.x -in pw.inp   Done                     12/28/2018 03:57:27
00013 suncat0014 pw.x -in pw.inp   Done                     12/28/2018 03:57:27
00014 suncat0014 pw.x -in pw.inp   Done                     12/28/2018 03:57:27
00015 suncat0014 pw.x -in pw.inp   Done                     12/28/2018 03:57:27
00016 suncat0198 pw.x -in pw.inp   Done                     12/28/2018 03:57:27
00017 suncat0198 pw.x -in pw.inp   Done                     12/28/2018 03:57:27
00018 suncat0198 pw.x -in pw.inp   Done                     12/28/2018 03:57:27
00019 suncat0198 pw.x -in pw.inp   Done                     12/28/2018 03:57:27
00020 suncat0198 pw.x -in pw.inp   Done                     12/28/2018 03:57:27
00021 suncat0198 pw.x -in pw.inp   Done                     12/28/2018 03:57:27
00022 suncat0198 pw.x -in pw.inp   Done                     12/28/2018 03:57:27
00023 suncat0198 pw.x -in pw.inp   Done                     12/28/2018 03:57:27
00024 suncat0194 pw.x -in pw.inp   Done                     12/28/2018 03:57:27
00025 suncat0194 pw.x -in pw.inp   Done                     12/28/2018 03:57:27
00026 suncat0194 pw.x -in pw.inp   Done                     12/28/2018 03:57:27
00027 suncat0194 pw.x -in pw.inp   Done                     12/28/2018 03:57:27
00028 suncat0194 pw.x -in pw.inp   Done                     12/28/2018 03:57:27
00029 suncat0194 pw.x -in pw.inp   Done                     12/28/2018 03:57:27
00030 suncat0194 pw.x -in pw.inp   Done                     12/28/2018 03:57:27
00031 suncat0194 pw.x -in pw.inp   Done                     12/28/2018 03:57:27
00032 suncat0188 pw.x -in pw.inp   Done                     12/28/2018 03:57:27
00033 suncat0188 pw.x -in pw.inp   Done                     12/28/2018 03:57:27
00034 suncat0188 pw.x -in pw.inp   Done                     12/28/2018 03:57:27
00035 suncat0188 pw.x -in pw.inp   Done                     12/28/2018 03:57:27
00036 suncat0188 pw.x -in pw.inp   Done                     12/28/2018 03:57:27
00037 suncat0188 pw.x -in pw.inp   Done                     12/28/2018 03:57:27
00038 suncat0188 pw.x -in pw.inp   Done                     12/28/2018 03:57:27
00039 suncat0188 pw.x -in pw.inp   Done                     12/28/2018 03:57:27
00040 suncat0129 pw.x -in pw.inp   Done                     12/28/2018 03:57:27
00041 suncat0129 pw.x -in pw.inp   Done                     12/28/2018 03:57:27
00042 suncat0129 pw.x -in pw.inp   Done                     12/28/2018 03:57:27
00043 suncat0129 pw.x -in pw.inp   Done                     12/28/2018 03:57:27
00044 suncat0129 pw.x -in pw.inp   Done                     12/28/2018 03:57:27
00045 suncat0129 pw.x -in pw.inp   Done                     12/28/2018 03:57:27
00046 suncat0129 pw.x -in pw.inp   Done                     12/28/2018 03:57:27
00047 suncat0129 pw.x -in pw.inp   Done                     12/28/2018 03:57:27
00048 suncat0254 pw.x -in pw.inp   Done                     12/28/2018 03:57:27
00049 suncat0254 pw.x -in pw.inp   Done                     12/28/2018 03:57:27
00050 suncat0254 pw.x -in pw.inp   Done                     12/28/2018 03:57:27
00051 suncat0254 pw.x -in pw.inp   Done                     12/28/2018 03:57:27
00052 suncat0254 pw.x -in pw.inp   Done                     12/28/2018 03:57:27
00053 suncat0254 pw.x -in pw.inp   Done                     12/28/2018 03:57:27
00054 suncat0254 pw.x -in pw.inp   Done                     12/28/2018 03:57:27
00055 suncat0254 pw.x -in pw.inp   Done                     12/28/2018 03:57:27
00056 suncat0253 pw.x -in pw.inp   Done                     12/28/2018 03:57:27
00057 suncat0253 pw.x -in pw.inp   Done                     12/28/2018 03:57:27
00058 suncat0253 pw.x -in pw.inp   Done                     12/28/2018 03:57:27
00059 suncat0253 pw.x -in pw.inp   Done                     12/28/2018 03:57:27
00060 suncat0253 pw.x -in pw.inp   Done                     12/28/2018 03:57:27
00061 suncat0253 pw.x -in pw.inp   Done                     12/28/2018 03:57:27
00062 suncat0253 pw.x -in pw.inp   Done                     12/28/2018 03:57:27
00063 suncat0253 pw.x -in pw.inp   Done                     12/28/2018 03:57:27