     Program PWSCF v.5.1rc2 (svn rev. 11289) starts on  1Jan2019 at  0: 3:20

     Current dimensions of program PWSCF are:
     Max number of different atomic species (ntypx) = 10
     Max number of k-points (npk) =  40000
     Max angular momentum in pseudopotentials (lmaxx) =  3
     Presently stress not available with electric field

     IMPORTANT: XC functional enforced from input :
     Exchange-correlation      = BEEF-VDW ( 1  4 27 13 2)
     Any further DFT definition will be discarded
     Please, verify this is what you really want

     Subspace diagonalization in iterative solution of the eigenvalue problem:
     a serial algorithm will be used

     bravais-lattice index     =            0
     lattice parameter (alat)  =       1.8897  a.u.
     unit-cell volume          =    4070.0999 (a.u.)^3
     number of atoms/cell      =           12
     number of atomic types    =            2
     number of electrons       =       186.00
     number of Kohn-Sham states=          123
     kinetic-energy cutoff     =      36.7493  Ry
     charge density cutoff     =     367.4932  Ry
     convergence threshold     =      1.0E-06
     mixing beta               =       0.1000
     number of iterations used =           10  plain     mixing
     Exchange-correlation      = BEEF-VDW ( 1  4 27 13 2)
     nstep                     =           50

     celldm(1)=   1.889726  celldm(2)=   0.000000  celldm(3)=   0.000000
     celldm(4)=   0.000000  celldm(5)=   0.000000  celldm(6)=   0.000000

     crystal axes: (cart. coord. in units of alat)
               a(1) = (   5.346303   0.000000   0.000000 )
               a(2) = (  -2.673152   4.630034   0.000000 )
               a(3) = (   0.000000   0.000000  24.365238 )

     reciprocal axes: (cart. coord. in units 2 pi/alat)
               b(1) = (  0.187045  0.107991  0.000000 )
               b(2) = (  0.000000  0.215981  0.000000 )
               b(3) = (  0.000000  0.000000  0.041042 )

     PseudoPot. # 1 for Ru read from file:
     /afs/slac.stanford.edu/u/if/mamunm/psp/gbrv1.5pbe/Ru.UPF
     MD5 check sum: 7158a806dd851261a58e6920c40ebe78
     Pseudo is Ultrasoft + core correction, Zval = 16.0
     Generated by new atomic code, or converted to UPF format
     Using radial grid of  967 points,  6 beta functions with:
                l(1) =   0
                l(2) =   0
                l(3) =   1
                l(4) =   1
                l(5) =   2
                l(6) =   2
     Q(r) pseudized with  8 coefficients,  rinner =    1.300   1.300   1.300
                                                       1.300   1.300

     PseudoPot. # 2 for Cr read from file:
     /afs/slac.stanford.edu/u/if/mamunm/psp/gbrv1.5pbe/Cr.UPF
     MD5 check sum: 0d52af634a40206e4dee301ad30da4bf
     Pseudo is Ultrasoft + core correction, Zval = 14.0
     Generated by new atomic code, or converted to UPF format
     Using radial grid of  857 points,  6 beta functions with:
                l(1) =   0
                l(2) =   0
                l(3) =   1
                l(4) =   1
                l(5) =   2
                l(6) =   2
     Q(r) pseudized with  8 coefficients,  rinner =    0.950   0.950   0.950
                                                       0.950   0.950

     vdW kernel table read from file vdW_kernel_table
     MD5 check sum: 095c7af220d748ca6e76c0b4c6cfb241

     atomic species   valence    mass     pseudopotential
        Ru1           16.00   101.07000     Ru( 1.00)
        Cr1           14.00    51.99610     Cr( 1.00)

     No symmetry found

   Cartesian axes

     site n.     atom                  positions (alat units)
         1           Ru1 tau(   1) = (   0.0000000   0.0000000  10.0000000  )
         2           Ru1 tau(   2) = (  -1.3365758   2.3150172  10.0000000  )
         3           Ru1 tau(   3) = (   1.3365758   2.3150172  10.0000000  )
         4           Cr1 tau(   4) = (   2.6731516   0.0000000  10.0000000  )
         5           Ru1 tau(   5) = (   2.6731516   1.5433448  12.1826192  )
         6           Ru1 tau(   6) = (   1.3365758   3.8583620  12.1826192  )
         7           Ru1 tau(   7) = (  -1.3365758   3.8583620  12.1826192  )
         8           Cr1 tau(   8) = (   0.0000000   1.5433448  12.1826192  )
         9           Ru1 tau(   9) = (  -0.0000000   3.0866896  14.3652383  )
        10           Ru1 tau(  10) = (   1.3365758   0.7716724  14.3652383  )
        11           Ru1 tau(  11) = (   4.0097274   0.7716724  14.3652383  )
        12           Cr1 tau(  12) = (   2.6731516   3.0866896  14.3652383  )

     number of k points=    20  Fermi-Dirac smearing, width (Ry)=  0.0110
                       cart. coord. in units 2pi/alat
        k(    1) = (   0.0000000   0.0000000   0.0000000), wk =   0.0555556
        k(    2) = (   0.0000000   0.0359969   0.0000000), wk =   0.1111111
        k(    3) = (   0.0000000   0.0719937   0.0000000), wk =   0.1111111
        k(    4) = (   0.0000000  -0.1079906   0.0000000), wk =   0.0555556
        k(    5) = (   0.0311742   0.0179984   0.0000000), wk =   0.1111111
        k(    6) = (   0.0311742   0.0539953   0.0000000), wk =   0.1111111
        k(    7) = (   0.0311742   0.0899921   0.0000000), wk =   0.1111111
        k(    8) = (   0.0311742  -0.0899921   0.0000000), wk =   0.1111111
        k(    9) = (   0.0311742  -0.0539953   0.0000000), wk =   0.1111111
        k(   10) = (   0.0311742  -0.0179984   0.0000000), wk =   0.1111111
        k(   11) = (   0.0623484   0.0359969   0.0000000), wk =   0.1111111
        k(   12) = (   0.0623484   0.0719937   0.0000000), wk =   0.1111111
        k(   13) = (   0.0623484   0.1079906   0.0000000), wk =   0.1111111
        k(   14) = (   0.0623484  -0.0719937   0.0000000), wk =   0.1111111
        k(   15) = (   0.0623484  -0.0359969   0.0000000), wk =   0.1111111
        k(   16) = (   0.0623484   0.0000000   0.0000000), wk =   0.1111111
        k(   17) = (  -0.0935226  -0.0539953   0.0000000), wk =   0.0555556
        k(   18) = (  -0.0935226  -0.0179984   0.0000000), wk =   0.1111111
        k(   19) = (  -0.0935226   0.0179984   0.0000000), wk =   0.1111111
        k(   20) = (  -0.0935226  -0.1619858   0.0000000), wk =   0.0555556

     Largest allocated arrays     est. size (Mb)     dimensions
     Largest temporary arrays     est. size (Mb)     dimensions

     Check: negative/imaginary core charge=   -0.000002    0.000000

     Initial potential from superposition of free atoms
     Check: negative starting charge=   -0.660879

     starting charge  173.99981, renormalised to  186.00000

     negative rho (up, down):  7.065E-01 0.000E+00

     *
     * You are using vdW-DF for exchange-correlation in this calculation.
     * Please cite the following three references that made this development
     * possible:
     *
     *   M. Dion, H. Rydberg, E. Schroder, D. C. Langreth, and
     *   B. I. Lundqvist, Phys. Rev. Lett. 92, 246401 (2004).
     *
     *   T. Thonhauser, V. R. Cooper, S. Li, A. Puzder, P. Hyldgaard, and
     *   D. C. Langreth, Phys. Rev. B 76, 125112 (2007).
     *
     *   G. Roman-Perez and J. M. Soler, Phys. Rev. Lett. 103, 096102 (2009).
     *
     *
     * If you are using vdW-DF2, please also cite:
     *
     *   K. Lee, E. D. Murray, L. Kong, B. I. Lundqvist, and
     *   D. C. Langreth, Phys. Rev. B 82, 081101(R) (2010).
     *
     *
     * If you are calculating the stress with vdW-DF, please also cite:
     *
     *   R. Sabatini, E. Kucukbenli, B. Kolb, T. Thonhauser, and
     *   S. de Gironcoli, J. Phys.: Condens. Matter 24, 424209 (2012).
     *

     Carrying out vdW-DF run using the following parameters:

     Nqs =      20    Nr_points =    1024   r_max =   100.000
     q_mesh =
               0.00001000     0.04494208     0.09755937     0.15916263
               0.23128650     0.31572767     0.41458969     0.53033537
               0.66584808     0.82450364     1.01025438     1.22772762
               1.48234092     1.78043706     2.12944203     2.53805004
               3.01644009     3.57652955     4.23227104     5.00000000

     Gradients computed in reciprocal space

     Adding external electric field

     Computed dipole along edir(3) :
        Dipole                0.0000 Ry au,          0.0000 Debye
        Dipole field          0.0000 Ry au

        Potential amp.       -0.0000 Ry
        Total length         44.8925 bohr

     Starting wfc are  147 randomized atomic wfcs

     Self-consistent Calculation

     iteration #  1     ecut=    36.75 Ry     beta=0.10
     Davidson diagonalization with overlap
     ethr =  1.00E-02,  avg # of iterations =  9.2

[...]

     total energy              =   -2286.52289172 Ry
     Harris-Foulkes estimate   =   -2290.53636809 Ry
     estimated scf accuracy    <      24.84836301 Ry

[...]

     End of self-consistent calculation

          k = 0.0000 0.0000 0.0000 ( 15317 PWs)   bands (ev):

   -71.0940 -70.9992 -70.9991 -70.6336 -70.6301 -70.5421 -70.5420 -70.5411
   -70.5410 -69.9786 -69.7958 -69.7953 -41.4905 -41.4905 -41.4714 -41.3650
   -41.2966 -41.2537 -41.2537 -41.1756 -41.1634 -41.1634 -41.0173 -41.0173
   -41.0081 -41.0011 -40.9093 -40.9093 -40.8678 -40.8059 -40.6683 -40.6683
   -40.5947 -40.5947 -40.5711 -40.5505 -40.5504 -40.4865 -40.4864 -40.4353
   -40.4190 -40.4189 -40.3260 -40.3104 -40.2414 -40.2413 -40.2360 -40.2359
    -4.6816  -3.5866  -3.2020  -3.1557  -3.0445  -2.9040  -2.9040  -2.5843
    -2.5800  -2.5800  -2.4834  -2.4457  -2.4457  -1.9687  -1.9686  -1.4146
    -0.8614  -0.8613  -0.4920  -0.4920  -0.3168  -0.0113  -0.0060   0.1873
     0.2751   0.2751   0.5386   0.5386   0.8377   0.8377   0.8748   0.8748
     0.9062   0.9062   1.6588   1.7695   1.9049   2.0456   2.0456   2.1339
     2.1340   2.2641   2.2641   2.3736   2.8352   2.8352   2.9961   3.2622
     3.2623   3.3010   3.3847   3.4027   3.4027   3.5431   3.5431   3.8530
     3.8530   3.9383   4.1845   4.1846   4.2333   4.2333   4.2853   4.2854
     4.3648   4.4234   4.5626   6.4247   6.4547   6.5330   6.5331   6.5349
     6.5349   6.5679   6.6372

[...]

          k =-0.0935-0.0540 0.0000 ( 15334 PWs)   bands (ev):

[...]

     the Fermi energy is     2.1030 ev

!    total energy              =   -2284.68986746 Ry
     Harris-Foulkes estimate   =   -2284.68986786 Ry
     estimated scf accuracy    <       0.00000082 Ry

     The total energy is the sum of the following terms:

     one-electron contribution =  -21247.42259415 Ry
     hartree contribution      =   10620.85167132 Ry
     xc contribution           =    -311.11513020 Ry
     ewald contribution        =    8653.10559438 Ry
     electric field correction =       0.00000000 Ry
     smearing contrib. (-TS)   =      -0.10940881 Ry

     convergence has been achieved in  20 iterations

 BEEF-vdW xc energy contributions
           1 :   -269.791698930281
           2 :    246.676006396539
           3 :   -206.998973279777
           4 :    161.108143082623
           5 :   -119.210259327617
           6 :    88.0686169946334
           7 :   -69.5343771544235
           8 :    61.1640442833121
           9 :   -58.2705353779136
          10 :    56.2847053328097
[...]
     Pseudo is Ultrasoft + core correction, Zval = 16.0
     Generated by new atomic code, or converted to UPF format
     Using radial grid of  967 points,  6 beta functions with:
                l(1) =   0
                l(2) =   0
                l(3) =   1
                l(4) =   1
                l(5) =   2
                l(6) =   2
     Q(r) pseudized with  8 coefficients,  rinner =    1.300   1.300   1.300
                                                       1.300   1.300

     PseudoPot. # 2 for Cr read from file:
     /afs/slac.stanford.edu/u/if/mamunm/psp/gbrv1.5pbe/Cr.UPF
     MD5 check sum: 0d52af634a40206e4dee301ad30da4bf
     Pseudo is Ultrasoft + core correction, Zval = 14.0
     Generated by new atomic code, or converted to UPF format
     Using radial grid of  857 points,  6 beta functions with:
                l(1) =   0
                l(2) =   0
                l(3) =   1
                l(4) =   1
                l(5) =   2
                l(6) =   2
     Q(r) pseudized with  8 coefficients,  rinner =    0.950   0.950   0.950
                                                       0.950   0.950

     vdW kernel table read from file vdW_kernel_table
     MD5 check sum: 095c7af220d748ca6e76c0b4c6cfb241

     atomic species   valence    mass     pseudopotential
        Ru1           16.00   101.07000     Ru( 1.00)
        Cr1           14.00    51.99610     Cr( 1.00)

     No symmetry found

   Cartesian axes

     site n.     atom                  positions (alat units)
         1           Ru1 tau(   1) = (   0.0000000   0.0000000  10.0000000  )
         2           Ru1 tau(   2) = (  -1.3365758   2.3150172  10.0000000  )
         3           Ru1 tau(   3) = (   1.3365758   2.3150172  10.0000000  )
         4           Cr1 tau(   4) = (   2.6731516   0.0000000  10.0000000  )
         5           Ru1 tau(   5) = (   2.6731516   1.5433448  12.1826192  )
         6           Ru1 tau(   6) = (   1.3365758   3.8583620  12.1826192  )
         7           Ru1 tau(   7) = (  -1.3365758   3.8583620  12.1826192  )
         8           Cr1 tau(   8) = (   0.0000000   1.5433448  12.1826192  )
         9           Ru1 tau(   9) = (  -0.0000063   3.0688548  14.2845084  )
        10           Ru1 tau(  10) = (   1.3211291   0.7805874  14.2845093  )
        11           Ru1 tau(  11) = (   4.0251743   0.7805956  14.2845084  )
        12           Cr1 tau(  12) = (   2.6731491   3.0866938  14.1686146  )

     number of k points=    20  Fermi-Dirac smearing, width (Ry)=  0.0110
                       cart. coord. in units 2pi/alat
        k(    1) = (   0.0000000   0.0000000   0.0000000), wk =   0.0555556
        k(    2) = (   0.0000000   0.0359969   0.0000000), wk =   0.1111111
        k(    3) = (   0.0000000   0.0719937   0.0000000), wk =   0.1111111
        k(    4) = (   0.0000000  -0.1079906   0.0000000), wk =   0.0555556
        k(    5) = (   0.0311742   0.0179984   0.0000000), wk =   0.1111111
        k(    6) = (   0.0311742   0.0539953   0.0000000), wk =   0.1111111
        k(    7) = (   0.0311742   0.0899921   0.0000000), wk =   0.1111111
        k(    8) = (   0.0311742  -0.0899921   0.0000000), wk =   0.1111111
        k(    9) = (   0.0311742  -0.0539953   0.0000000), wk =   0.1111111
        k(   10) = (   0.0311742  -0.0179984   0.0000000), wk =   0.1111111
        k(   11) = (   0.0623484   0.0359969   0.0000000), wk =   0.1111111
        k(   12) = (   0.0623484   0.0719937   0.0000000), wk =   0.1111111
        k(   13) = (   0.0623484   0.1079906   0.0000000), wk =   0.1111111
        k(   14) = (   0.0623484  -0.0719937   0.0000000), wk =   0.1111111
        k(   15) = (   0.0623484  -0.0359969   0.0000000), wk =   0.1111111
        k(   16) = (   0.0623484   0.0000000   0.0000000), wk =   0.1111111
        k(   17) = (  -0.0935226  -0.0539953   0.0000000), wk =   0.0555556
        k(   18) = (  -0.0935226  -0.0179984   0.0000000), wk =   0.1111111
        k(   19) = (  -0.0935226   0.0179984   0.0000000), wk =   0.1111111
        k(   20) = (  -0.0935226  -0.1619858   0.0000000), wk =   0.0555556

     Largest allocated arrays     est. size (Mb)     dimensions
     Largest temporary arrays     est. size (Mb)     dimensions

     Check: negative/imaginary core charge=   -0.000002    0.000000

     Initial potential from superposition of free atoms
     Check: negative starting charge=   -0.659563

     starting charge  173.99981, renormalised to  186.00000

[...]

     *
     * You are using vdW-DF for exchange-correlation in this calculation.
     * Please cite the following three references that made this development
     * possible:
     *
     *   M. Dion, H. Rydberg, E. Schroder, D. C. Langreth, and
     *   B. I. Lundqvist, Phys. Rev. Lett. 92, 246401 (2004).
     *
     *   T. Thonhauser, V. R. Cooper, S. Li, A. Puzder, P. Hyldgaard, and
     *   D. C. Langreth, Phys. Rev. B 76, 125112 (2007).
     *
     *   G. Roman-Perez and J. M. Soler, Phys. Rev. Lett. 103, 096102 (2009).
     *
     *
     * If you are using vdW-DF2, please also cite:
     *
     *   K. Lee, E. D. Murray, L. Kong, B. I. Lundqvist, and
     *   D. C. Langreth, Phys. Rev. B 82, 081101(R) (2010).
     *
     *
     * If you are calculating the stress with vdW-DF, please also cite:
     *
     *   R. Sabatini, E. Kucukbenli, B. Kolb, T. Thonhauser, and
     *   S. de Gironcoli, J. Phys.: Condens. Matter 24, 424209 (2012).
     *

     Carrying out vdW-DF run using the following parameters:

     Nqs =      20    Nr_points =    1024   r_max =   100.000
     q_mesh =
               0.00001000     0.04494208     0.09755937     0.15916263
               0.23128650     0.31572767     0.41458969     0.53033537
               0.66584808     0.82450364     1.01025438     1.22772762
               1.48234092     1.78043706     2.12944203     2.53805004
               3.01644009     3.57652955     4.23227104     5.00000000

     Gradients computed in reciprocal space

[...]

     Starting wfc are  147 randomized atomic wfcs

     Self-consistent Calculation

[...]

     total energy              =   -2284.70459005 Ry
     Harris-Foulkes estimate   =   -2284.70459002 Ry
     estimated scf accuracy    <       0.00000167 Ry

     iteration # 21     ecut=    36.75 Ry     beta=0.10
     Davidson diagonalization with overlap
     ethr =  8.98E-10,  avg # of iterations =  2.0

[...]

     negative rho (up, down):  6.867E-01 0.000E+00

     Adding external electric field

     Computed dipole along edir(3) :
        Dipole                0.0273 Ry au,          0.0693 Debye
        Dipole field          0.0001 Ry au

        Potential amp.       -0.0076 Ry
        Total length         44.8925 bohr

     End of self-consistent calculation

[...]

          k = 0.0623 0.0000 0.0000 ( 15314 PWs)   bands (ev):

[...]

          k =-0.0935-0.1620 0.0000 ( 15334 PWs)   bands (ev):

   -71.1037 -71.0727 -71.0400 -70.6174 -70.5846 -70.5680 -70.5557 -70.5390
   -70.5085 -69.9843 -69.7911 -69.7795 -41.4290 -41.4267 -41.3461 -41.3271
   -41.3085 -41.2908 -41.2649 -41.1767 -41.1381 -41.1045 -41.0793 -41.0659
   -41.0386 -40.9300 -40.9135 -40.9007 -40.8778 -40.8333 -40.7474 -40.7407
   -40.6103 -40.5532 -40.5378 -40.5287 -40.5170 -40.4847 -40.4798 -40.4683
   -40.4455 -40.4309 -40.4162 -40.4140 -40.3965 -40.3844 -40.2868 -40.2400
    -3.2711  -3.0529  -2.6991  -2.5095  -2.3825  -2.1762  -2.0601  -2.0129
    -1.9819  -1.9695  -1.7874  -1.6566  -1.4653  -1.4100  -1.3194  -1.1818
    -1.0613  -0.9298  -0.8774  -0.7426  -0.2385  -0.1881  -0.1237   0.0138
     0.0716   0.1491   0.2608   0.3251   0.3823   0.4235   0.4321   0.5039
     0.5540   0.6223   0.6919   0.8054   0.8551   0.9561   1.1969   1.2481
     1.4330   1.4557   1.5033   1.9138   1.9751   1.9846   2.0417   2.1124
     2.2950   2.3609   2.5219   2.5424   2.6460   2.7042   2.8034   2.8144
     2.8951   2.9689   3.4008   3.4420   3.7062   3.7666   3.9315   4.0041
     5.0186   5.1188   5.9949   6.4577   6.6805   6.9708   7.0155   7.1061
     8.1728   8.1809   8.4978

     the Fermi energy is     2.1111 ev

!    total energy              =   -2284.70458922 Ry
     Harris-Foulkes estimate   =   -2284.70459000 Ry
     estimated scf accuracy    <       0.00000075 Ry

     The total energy is the sum of the following terms:

     one-electron contribution =  -21568.83784900 Ry
     hartree contribution      =   10781.49059266 Ry
     xc contribution           =    -311.34216484 Ry
     ewald contribution        =    8814.09099655 Ry
     electric field correction =       0.00000230 Ry
     smearing contrib. (-TS)   =      -0.10616689 Ry

     convergence has been achieved in  21 iterations

 BEEF-vdW xc energy contributions
           1 :   -270.026902686603
           2 :    247.004305460840
           3 :   -207.446715614755
           4 :    161.609687877321
           5 :   -119.640148050432
           6 :    88.3112929476406
           7 :   -69.5496084908681
           8 :    61.0104033659397
           9 :   -58.0757717211990
          10 :    56.1815224828440
          11 :   -52.4849710610353
          12 :    46.3834514407442
          13 :   -38.9892953585468
          14 :    32.0661899213952
          15 :   -27.0164930003618
          16 :    24.3189855877458
          17 :   -23.5168720254832
          18 :    23.6000759325980
          19 :   -23.5164296627727
          20 :    22.5765042151884
          21 :   -20.6312768166921
          22 :    18.0198846832346
          23 :   -15.3607664440221
          24 :    13.2791823709849
          25 :   -12.1590166858227
          26 :    11.9948282992164
          27 :   -12.3994018578735
          28 :    12.7730889838107
          29 :   -12.5724753637434
          30 :    11.5603527176020
          31 :   -27.6683187374371
          32 :   -20.7780803810936

     Forces acting on atoms (Ry/au):

     negative rho (up, down):  6.867E-01 0.000E+00
     atom    1 type  1   force =     0.00000004    0.00835753    0.01169610
     atom    2 type  1   force =     0.00723629   -0.00417940    0.01170038
     atom    3 type  1   force =    -0.00723623   -0.00417966    0.01170169
     atom    4 type  2   force =    -0.00000016    0.00000034    0.03087843
     atom    5 type  1   force =    -0.00000060    0.00282220   -0.01965530
     atom    6 type  1   force =     0.00244039   -0.00141199   -0.01965192
     atom    7 type  1   force =    -0.00244145   -0.00141160   -0.01965165
     atom    8 type  2   force =    -0.00000028   -0.00000039   -0.00792688
     atom    9 type  1   force =     0.00000244    0.00121189    0.00001361
     atom   10 type  1   force =     0.00104913   -0.00060325    0.00001034
     atom   11 type  1   force =    -0.00104970   -0.00060604    0.00000986
     atom   12 type  2   force =     0.00000014    0.00000036    0.00087532

     Total force =     0.053143     Total SCF correction =     0.003501

     entering subroutine stress ...

     negative rho (up, down):  6.867E-01 0.000E+00
          total   stress  (Ry/bohr**3)                   (kbar)     P=  -17.81
  -0.00014621  -0.00000000   0.00000000        -21.51     -0.00      0.00
  -0.00000000  -0.00014620  -0.00000000         -0.00    -21.51     -0.00
   0.00000000  -0.00000000  -0.00007073          0.00     -0.00    -10.40

 !ASE

     Writing output data file calc.save

     General routines

     Parallel routines

   This run was terminated on:   1:31:24   1Jan2019

   JOB DONE.
Job  /afs/slac/g/suncat/bin/suncat-tsmpirun -x LD_LIBRARY_PATH -wdir /scratch/qe648908_ciTv4 pw.x -in pw.inp

TID   HOST_NAME   COMMAND_LINE            STATUS            TERMINATION_TIME
00000 suncat0046 pw.x -in pw.inp   Done                     01/01/2019 01:31:24
00001 suncat0046 pw.x -in pw.inp   Done                     01/01/2019 01:31:24
00002 suncat0046 pw.x -in pw.inp   Done                     01/01/2019 01:31:24
00003 suncat0046 pw.x -in pw.inp   Done                     01/01/2019 01:31:24
00004 suncat0046 pw.x -in pw.inp   Done                     01/01/2019 01:31:24
00005 suncat0046 pw.x -in pw.inp   Done                     01/01/2019 01:31:24
00006 suncat0046 pw.x -in pw.inp   Done                     01/01/2019 01:31:24
00007 suncat0046 pw.x -in pw.inp   Done                     01/01/2019 01:31:24
00008 suncat0044 pw.x -in pw.inp   Done                     01/01/2019 01:31:24
00009 suncat0044 pw.x -in pw.inp   Done                     01/01/2019 01:31:24
00010 suncat0044 pw.x -in pw.inp   Done                     01/01/2019 01:31:24
00011 suncat0044 pw.x -in pw.inp   Done                     01/01/2019 01:31:24
00012 suncat0044 pw.x -in pw.inp   Done                     01/01/2019 01:31:24
00013 suncat0044 pw.x -in pw.inp   Done                     01/01/2019 01:31:24
00014 suncat0044 pw.x -in pw.inp   Done                     01/01/2019 01:31:24
00015 suncat0044 pw.x -in pw.inp   Done                     01/01/2019 01:31:24
00016 suncat0043 pw.x -in pw.inp   Done                     01/01/2019 01:31:24
00017 suncat0043 pw.x -in pw.inp   Done                     01/01/2019 01:31:24
00018 suncat0043 pw.x -in pw.inp   Done                     01/01/2019 01:31:24
00019 suncat0043 pw.x -in pw.inp   Done                     01/01/2019 01:31:24
00020 suncat0043 pw.x -in pw.inp   Done                     01/01/2019 01:31:24
00021 suncat0043 pw.x -in pw.inp   Done                     01/01/2019 01:31:24
00022 suncat0043 pw.x -in pw.inp   Done                     01/01/2019 01:31:24
00023 suncat0043 pw.x -in pw.inp   Done                     01/01/2019 01:31:24
00024 suncat0025 pw.x -in pw.inp   Done                     01/01/2019 01:31:24
00025 suncat0025 pw.x -in pw.inp   Done                     01/01/2019 01:31:24
00026 suncat0025 pw.x -in pw.inp   Done                     01/01/2019 01:31:24
00027 suncat0025 pw.x -in pw.inp   Done                     01/01/2019 01:31:24
00028 suncat0025 pw.x -in pw.inp   Done                     01/01/2019 01:31:24
00029 suncat0025 pw.x -in pw.inp   Done                     01/01/2019 01:31:24
00030 suncat0025 pw.x -in pw.inp   Done                     01/01/2019 01:31:24
00031 suncat0025 pw.x -in pw.inp   Done                     01/01/2019 01:31:24
00032 suncat0013 pw.x -in pw.inp   Done                     01/01/2019 01:31:24
00033 suncat0013 pw.x -in pw.inp   Done                     01/01/2019 01:31:24
00034 suncat0013 pw.x -in pw.inp   Done                     01/01/2019 01:31:24
00035 suncat0013 pw.x -in pw.inp   Done                     01/01/2019 01:31:24
00036 suncat0013 pw.x -in pw.inp   Done                     01/01/2019 01:31:24
00037 suncat0013 pw.x -in pw.inp   Done                     01/01/2019 01:31:24
00038 suncat0013 pw.x -in pw.inp   Done                     01/01/2019 01:31:24
00039 suncat0013 pw.x -in pw.inp   Done                     01/01/2019 01:31:24
00040 suncat0008 pw.x -in pw.inp   Done                     01/01/2019 01:31:24
00041 suncat0008 pw.x -in pw.inp   Done                     01/01/2019 01:31:24
00042 suncat0008 pw.x -in pw.inp   Done                     01/01/2019 01:31:24
00043 suncat0008 pw.x -in pw.inp   Done                     01/01/2019 01:31:24
00044 suncat0008 pw.x -in pw.inp   Done                     01/01/2019 01:31:24
00045 suncat0008 pw.x -in pw.inp   Done                     01/01/2019 01:31:24
00046 suncat0008 pw.x -in pw.inp   Done                     01/01/2019 01:31:24
00047 suncat0008 pw.x -in pw.inp   Done                     01/01/2019 01:31:24
00048 suncat0178 pw.x -in pw.inp   Done                     01/01/2019 01:31:24
00049 suncat0178 pw.x -in pw.inp   Done                     01/01/2019 01:31:24
00050 suncat0178 pw.x -in pw.inp   Done                     01/01/2019 01:31:24
00051 suncat0178 pw.x -in pw.inp   Done                     01/01/2019 01:31:24
00052 suncat0178 pw.x -in pw.inp   Done                     01/01/2019 01:31:24
00053 suncat0178 pw.x -in pw.inp   Done                     01/01/2019 01:31:24
00054 suncat0178 pw.x -in pw.inp   Done                     01/01/2019 01:31:24
00055 suncat0178 pw.x -in pw.inp   Done                     01/01/2019 01:31:24
00056 suncat0177 pw.x -in pw.inp   Done                     01/01/2019 01:31:24
00057 suncat0177 pw.x -in pw.inp   Done                     01/01/2019 01:31:24
00058 suncat0177 pw.x -in pw.inp   Done                     01/01/2019 01:31:24
00059 suncat0177 pw.x -in pw.inp   Done                     01/01/2019 01:31:24
00060 suncat0177 pw.x -in pw.inp   Done                     01/01/2019 01:31:24
00061 suncat0177 pw.x -in pw.inp   Done                     01/01/2019 01:31:24
00062 suncat0177 pw.x -in pw.inp   Done                     01/01/2019 01:31:24
00063 suncat0177 pw.x -in pw.inp   Done                     01/01/2019 01:31:24