     Program PWSCF v.5.1rc2 (svn rev. 11289) starts on 31Dec2018 at  4:32:25

     Current dimensions of program PWSCF are:
     Max number of different atomic species (ntypx) = 10
     Max number of k-points (npk) =  40000
     Max angular momentum in pseudopotentials (lmaxx) =  3
     Presently stress not available with electric field

     IMPORTANT: XC functional enforced from input :
     Exchange-correlation      = BEEF-VDW ( 1  4 27 13 2)
     Any further DFT definition will be discarded
     Please, verify this is what you really want

     Subspace diagonalization in iterative solution of the eigenvalue problem:
     a serial algorithm will be used

     Generating pointlists ...
     new r_m :   0.4125 (alat units)  0.7795 (a.u.) for type    1
     new r_m :   0.4125 (alat units)  0.7795 (a.u.) for type    2

     bravais-lattice index     =            0
     lattice parameter (alat)  =       1.8897  a.u.
     unit-cell volume          =    3883.4295 (a.u.)^3
     number of atoms/cell      =           12
     number of atomic types    =            2
     number of electrons       =       201.00
     number of Kohn-Sham states=          130
     kinetic-energy cutoff     =      36.7493  Ry
     charge density cutoff     =     367.4932  Ry
     convergence threshold     =      1.0E-06
     mixing beta               =       0.1000
     number of iterations used =           10  plain     mixing
     Exchange-correlation      = BEEF-VDW ( 1  4 27 13 2)
     nstep                     =           50

     celldm(1)=   1.889726  celldm(2)=   0.000000  celldm(3)=   0.000000
     celldm(4)=   0.000000  celldm(5)=   0.000000  celldm(6)=   0.000000

     crystal axes: (cart. coord. in units of alat)
               a(1) = (   5.232270   0.000000   0.000000 )
               a(2) = (  -2.616135   4.531279   0.000000 )
               a(3) = (   0.000000   0.000000  24.272131 )

     reciprocal axes: (cart. coord. in units 2 pi/alat)
               b(1) = (  0.191122  0.110344  0.000000 )
               b(2) = (  0.000000  0.220688  0.000000 )
               b(3) = (  0.000000  0.000000  0.041200 )

     PseudoPot. # 1 for Ni read from file:
     /afs/slac.stanford.edu/u/if/mamunm/psp/gbrv1.5pbe/Ni.UPF
     MD5 check sum: 1ee80287db30b12d2bc1f57a5b5d6409
     Pseudo is Ultrasoft + core correction, Zval = 18.0
     Generated by new atomic code, or converted to UPF format
     Using radial grid of  865 points,  6 beta functions with:
                l(1) =   0
                l(2) =   0
                l(3) =   1
                l(4) =   1
                l(5) =   2
                l(6) =   2
     Q(r) pseudized with 10 coefficients,  rinner =    0.980   0.980   0.980
                                                       0.980   0.980

     PseudoPot. # 2 for Nb read from file:
     /afs/slac.stanford.edu/u/if/mamunm/psp/gbrv1.5pbe/Nb.UPF
     MD5 check sum: 573aab8a2fa660278ed4a62cd769473f
     Pseudo is Ultrasoft + core correction, Zval = 13.0
     Generated by new atomic code, or converted to UPF format
     Using radial grid of  887 points,  6 beta functions with:
                l(1) =   0
                l(2) =   0
                l(3) =   1
                l(4) =   1
                l(5) =   2
                l(6) =   2
     Q(r) pseudized with  6 coefficients,  rinner =    1.000   1.000   1.000
                                                       1.000   1.000

     vdW kernel table read from file vdW_kernel_table
     MD5 check sum: 095c7af220d748ca6e76c0b4c6cfb241

     atomic species   valence    mass     pseudopotential
        Ni1           18.00    58.69340     Ni( 1.00)
        Nb1           13.00    92.90637     Nb( 1.00)

     Starting magnetic structure
     atomic species   magnetization
        Ni1          0.111
        Nb1          0.154

     No symmetry found

   Cartesian axes

     site n.     atom                  positions (alat units)
         1           Ni1 tau(   1) = (   0.0000000   0.0000000  10.0000000  )
         2           Ni1 tau(   2) = (  -1.3080675   2.2656394  10.0000000  )
         3           Ni1 tau(   3) = (   1.3080675   2.2656394  10.0000000  )
         4           Nb1 tau(   4) = (   2.6161350   0.0000000  10.0000000  )
         5           Ni1 tau(   5) = (   2.6161350   1.5104262  12.1360653  )
         6           Ni1 tau(   6) = (   1.3080675   3.7760656  12.1360653  )
         7           Ni1 tau(   7) = (  -1.3080675   3.7760656  12.1360653  )
         8           Nb1 tau(   8) = (   0.0000000   1.5104262  12.1360653  )
         9           Ni1 tau(   9) = (  -0.0000000   3.0208525  14.2721306  )
        10           Ni1 tau(  10) = (   1.3080675   0.7552131  14.2721306  )
        11           Ni1 tau(  11) = (   3.9242025   0.7552131  14.2721306  )
        12           Nb1 tau(  12) = (   2.6161350   3.0208525  14.2721306  )

     number of k points=    40  Fermi-Dirac smearing, width (Ry)=  0.0110
                       cart. coord. in units 2pi/alat
        k(    1) = (   0.0000000   0.0000000   0.0000000), wk =   0.0277778
        k(    2) = (   0.0000000   0.0367814   0.0000000), wk =   0.0555556
        k(    3) = (   0.0000000   0.0735628   0.0000000), wk =   0.0555556
        k(    4) = (   0.0000000  -0.1103441   0.0000000), wk =   0.0277778
        k(    5) = (   0.0318536   0.0183907   0.0000000), wk =   0.0555556
        k(    6) = (   0.0318536   0.0551721   0.0000000), wk =   0.0555556
        k(    7) = (   0.0318536   0.0919534   0.0000000), wk =   0.0555556
        k(    8) = (   0.0318536  -0.0919534   0.0000000), wk =   0.0555556
        k(    9) = (   0.0318536  -0.0551721   0.0000000), wk =   0.0555556
        k(   10) = (   0.0318536  -0.0183907   0.0000000), wk =   0.0555556
        k(   11) = (   0.0637072   0.0367814   0.0000000), wk =   0.0555556
        k(   12) = (   0.0637072   0.0735628   0.0000000), wk =   0.0555556
        k(   13) = (   0.0637072   0.1103441   0.0000000), wk =   0.0555556
        k(   14) = (   0.0637072  -0.0735628   0.0000000), wk =   0.0555556
        k(   15) = (   0.0637072  -0.0367814   0.0000000), wk =   0.0555556
        k(   16) = (   0.0637072   0.0000000   0.0000000), wk =   0.0555556
        k(   17) = (  -0.0955608  -0.0551721   0.0000000), wk =   0.0277778
        k(   18) = (  -0.0955608  -0.0183907   0.0000000), wk =   0.0555556
        k(   19) = (  -0.0955608   0.0183907   0.0000000), wk =   0.0555556
        k(   20) = (  -0.0955608  -0.1655162   0.0000000), wk =   0.0277778
        k(   21) = (   0.0000000   0.0000000   0.0000000), wk =   0.0277778
        k(   22) = (   0.0000000   0.0367814   0.0000000), wk =   0.0555556
        k(   23) = (   0.0000000   0.0735628   0.0000000), wk =   0.0555556
        k(   24) = (   0.0000000  -0.1103441   0.0000000), wk =   0.0277778
        k(   25) = (   0.0318536   0.0183907   0.0000000), wk =   0.0555556
        k(   26) = (   0.0318536   0.0551721   0.0000000), wk =   0.0555556
        k(   27) = (   0.0318536   0.0919534   0.0000000), wk =   0.0555556
        k(   28) = (   0.0318536  -0.0919534   0.0000000), wk =   0.0555556
        k(   29) = (   0.0318536  -0.0551721   0.0000000), wk =   0.0555556
        k(   30) = (   0.0318536  -0.0183907   0.0000000), wk =   0.0555556
        k(   31) = (   0.0637072   0.0367814   0.0000000), wk =   0.0555556
        k(   32) = (   0.0637072   0.0735628   0.0000000), wk =   0.0555556
        k(   33) = (   0.0637072   0.1103441   0.0000000), wk =   0.0555556
        k(   34) = (   0.0637072  -0.0735628   0.0000000), wk =   0.0555556
        k(   35) = (   0.0637072  -0.0367814   0.0000000), wk =   0.0555556
        k(   36) = (   0.0637072   0.0000000   0.0000000), wk =   0.0555556
        k(   37) = (  -0.0955608  -0.0551721   0.0000000), wk =   0.0277778
        k(   38) = (  -0.0955608  -0.0183907   0.0000000), wk =   0.0555556
        k(   39) = (  -0.0955608   0.0183907   0.0000000), wk =   0.0555556
        k(   40) = (  -0.0955608  -0.1655162   0.0000000), wk =   0.0277778

     Largest allocated arrays     est. size (Mb)     dimensions
     Largest temporary arrays     est. size (Mb)     dimensions

     Check: negative/imaginary core charge=   -0.000002    0.000000

     Initial potential from superposition of free atoms
     Check: negative starting charge=(component1):   -0.001480
     Check: negative starting charge=(component2):   -0.001090

     starting charge  182.99180, renormalised to  201.00000

     negative rho (up, down):  1.626E-03 1.198E-03

     *
     * You are using vdW-DF for exchange-correlation in this calculation.
     * Please cite the following three references that made this development
     * possible:
     *
     *   M. Dion, H. Rydberg, E. Schroder, D. C. Langreth, and
     *   B. I. Lundqvist, Phys. Rev. Lett. 92, 246401 (2004).
     *
     *   T. Thonhauser, V. R. Cooper, S. Li, A. Puzder, P. Hyldgaard, and
     *   D. C. Langreth, Phys. Rev. B 76, 125112 (2007).
     *
     *   G. Roman-Perez and J. M. Soler, Phys. Rev. Lett. 103, 096102 (2009).
     *
     *
     * If you are using vdW-DF2, please also cite:
     *
     *   K. Lee, E. D. Murray, L. Kong, B. I. Lundqvist, and
     *   D. C. Langreth, Phys. Rev. B 82, 081101(R) (2010).
     *
     *
     * If you are calculating the stress with vdW-DF, please also cite:
     *
     *   R. Sabatini, E. Kucukbenli, B. Kolb, T. Thonhauser, and
     *   S. de Gironcoli, J. Phys.: Condens. Matter 24, 424209 (2012).
     *

     Carrying out vdW-DF run using the following parameters:

     Nqs =      20    Nr_points =    1024   r_max =   100.000
     q_mesh =
               0.00001000     0.04494208     0.09755937     0.15916263
               0.23128650     0.31572767     0.41458969     0.53033537
               0.66584808     0.82450364     1.01025438     1.22772762
               1.48234092     1.78043706     2.12944203     2.53805004
               3.01644009     3.57652955     4.23227104     5.00000000

     Gradients computed in reciprocal space

     Adding external electric field

     Computed dipole along edir(3) :
        Dipole               -0.0000 Ry au,         -0.0000 Debye
        Dipole field         -0.0000 Ry au

        Potential amp.        0.0000 Ry
        Total length         44.7210 bohr

[...]

     Starting wfc are  156 randomized atomic wfcs

     Self-consistent Calculation

     iteration #  1     ecut=    36.75 Ry     beta=0.10
     Davidson diagonalization with overlap
     ethr =  1.00E-02,  avg # of iterations =  8.2

[...]

     Magnetic moment per site:
     atom:    1    charge:    9.7541    magn:    1.0334    constr:    0.0000
     atom:    2    charge:    9.7541    magn:    1.0334    constr:    0.0000
     atom:    3    charge:    9.7541    magn:    1.0334    constr:    0.0000
     atom:    4    charge:    1.6026    magn:    0.2258    constr:    0.0000
     atom:    5    charge:    9.7740    magn:    1.0355    constr:    0.0000
     atom:    6    charge:    9.7740    magn:    1.0355    constr:    0.0000
     atom:    7    charge:    9.7740    magn:    1.0355    constr:    0.0000
     atom:    8    charge:    1.6125    magn:    0.2268    constr:    0.0000
[...]
        k(   11) = (   0.0637072   0.0367814   0.0000000), wk =   0.0555556
        k(   12) = (   0.0637072   0.0735628   0.0000000), wk =   0.0555556
        k(   13) = (   0.0637072   0.1103441   0.0000000), wk =   0.0555556
        k(   14) = (   0.0637072  -0.0735628   0.0000000), wk =   0.0555556
        k(   15) = (   0.0637072  -0.0367814   0.0000000), wk =   0.0555556
        k(   16) = (   0.0637072   0.0000000   0.0000000), wk =   0.0555556
        k(   17) = (  -0.0955608  -0.0551721   0.0000000), wk =   0.0277778
        k(   18) = (  -0.0955608  -0.0183907   0.0000000), wk =   0.0555556
        k(   19) = (  -0.0955608   0.0183907   0.0000000), wk =   0.0555556
        k(   20) = (  -0.0955608  -0.1655162   0.0000000), wk =   0.0277778
        k(   21) = (   0.0000000   0.0000000   0.0000000), wk =   0.0277778
        k(   22) = (   0.0000000   0.0367814   0.0000000), wk =   0.0555556
        k(   23) = (   0.0000000   0.0735628   0.0000000), wk =   0.0555556
        k(   24) = (   0.0000000  -0.1103441   0.0000000), wk =   0.0277778
        k(   25) = (   0.0318536   0.0183907   0.0000000), wk =   0.0555556
        k(   26) = (   0.0318536   0.0551721   0.0000000), wk =   0.0555556
        k(   27) = (   0.0318536   0.0919534   0.0000000), wk =   0.0555556
        k(   28) = (   0.0318536  -0.0919534   0.0000000), wk =   0.0555556
        k(   29) = (   0.0318536  -0.0551721   0.0000000), wk =   0.0555556
        k(   30) = (   0.0318536  -0.0183907   0.0000000), wk =   0.0555556
        k(   31) = (   0.0637072   0.0367814   0.0000000), wk =   0.0555556
        k(   32) = (   0.0637072   0.0735628   0.0000000), wk =   0.0555556
        k(   33) = (   0.0637072   0.1103441   0.0000000), wk =   0.0555556
        k(   34) = (   0.0637072  -0.0735628   0.0000000), wk =   0.0555556
        k(   35) = (   0.0637072  -0.0367814   0.0000000), wk =   0.0555556
        k(   36) = (   0.0637072   0.0000000   0.0000000), wk =   0.0555556
        k(   37) = (  -0.0955608  -0.0551721   0.0000000), wk =   0.0277778
        k(   38) = (  -0.0955608  -0.0183907   0.0000000), wk =   0.0555556
        k(   39) = (  -0.0955608   0.0183907   0.0000000), wk =   0.0555556
        k(   40) = (  -0.0955608  -0.1655162   0.0000000), wk =   0.0277778

     Largest allocated arrays     est. size (Mb)     dimensions
     Largest temporary arrays     est. size (Mb)     dimensions

     Check: negative/imaginary core charge=   -0.000002    0.000000

     Initial potential from superposition of free atoms
     Check: negative starting charge=(component1):   -0.001493
     Check: negative starting charge=(component2):   -0.001100

     starting charge  182.99180, renormalised to  201.00000

[...]

     *
     * You are using vdW-DF for exchange-correlation in this calculation.
     * Please cite the following three references that made this development
     * possible:
     *
     *   M. Dion, H. Rydberg, E. Schroder, D. C. Langreth, and
     *   B. I. Lundqvist, Phys. Rev. Lett. 92, 246401 (2004).
     *
     *   T. Thonhauser, V. R. Cooper, S. Li, A. Puzder, P. Hyldgaard, and
     *   D. C. Langreth, Phys. Rev. B 76, 125112 (2007).
     *
     *   G. Roman-Perez and J. M. Soler, Phys. Rev. Lett. 103, 096102 (2009).
     *
     *
     * If you are using vdW-DF2, please also cite:
     *
     *   K. Lee, E. D. Murray, L. Kong, B. I. Lundqvist, and
     *   D. C. Langreth, Phys. Rev. B 82, 081101(R) (2010).
     *
     *
     * If you are calculating the stress with vdW-DF, please also cite:
     *
     *   R. Sabatini, E. Kucukbenli, B. Kolb, T. Thonhauser, and
     *   S. de Gironcoli, J. Phys.: Condens. Matter 24, 424209 (2012).
     *

     Carrying out vdW-DF run using the following parameters:

     Nqs =      20    Nr_points =    1024   r_max =   100.000
     q_mesh =
               0.00001000     0.04494208     0.09755937     0.15916263
               0.23128650     0.31572767     0.41458969     0.53033537
               0.66584808     0.82450364     1.01025438     1.22772762
               1.48234092     1.78043706     2.12944203     2.53805004
               3.01644009     3.57652955     4.23227104     5.00000000

     Gradients computed in reciprocal space

[...]

     Starting wfc are  156 randomized atomic wfcs

     Self-consistent Calculation

[...]

     iteration # 26     ecut=    36.75 Ry     beta=0.10
     Davidson diagonalization with overlap
     c_bands:  1 eigenvalues not converged
     c_bands:  1 eigenvalues not converged
     c_bands:  1 eigenvalues not converged
     ethr =  1.28E-07,  avg # of iterations =  4.9

[...]

     iteration # 27     ecut=    36.75 Ry     beta=0.10
     Davidson diagonalization with overlap
     c_bands:  1 eigenvalues not converged
     ethr =  7.37E-08,  avg # of iterations =  3.5

[...]

     total energy              =   -3455.51312450 Ry
     Harris-Foulkes estimate   =   -3455.51312261 Ry
     estimated scf accuracy    <       0.00000101 Ry

[...]

     iteration # 38     ecut=    36.75 Ry     beta=0.10
     Davidson diagonalization with overlap
     ethr =  5.03E-10,  avg # of iterations =  2.0

[...]

     negative rho (up, down):  1.428E-03 1.428E-03

[...]

     Adding external electric field

     Computed dipole along edir(3) :
        Dipole                0.0141 Ry au,          0.0360 Debye
        Dipole field          0.0000 Ry au

        Potential amp.       -0.0041 Ry
        Total length         44.7210 bohr

     Magnetic moment per site:
     atom:    1    charge:    9.3386    magn:    0.0012    constr:    0.0000
     atom:    2    charge:    9.3385    magn:    0.0012    constr:    0.0000
     atom:    3    charge:    9.3384    magn:    0.0012    constr:    0.0000
     atom:    4    charge:    1.4834    magn:   -0.0004    constr:    0.0000
     atom:    5    charge:    9.3501    magn:   -0.0009    constr:    0.0000
     atom:    6    charge:    9.3502    magn:   -0.0009    constr:    0.0000
     atom:    7    charge:    9.3501    magn:   -0.0009    constr:    0.0000
     atom:    8    charge:    1.4924    magn:    0.0000    constr:    0.0000
     atom:    9    charge:    9.3426    magn:    0.0000    constr:    0.0000
     atom:   10    charge:    9.3425    magn:    0.0000    constr:    0.0000
     atom:   11    charge:    9.3426    magn:    0.0000    constr:    0.0000
     atom:   12    charge:    1.4877    magn:   -0.0002    constr:    0.0000

     End of self-consistent calculation

 ------ SPIN UP ------------

[...]

 ------ SPIN DOWN ----------

[...]

          k = 0.0637 0.0000 0.0000 ( 14603 PWs)   bands (ev):

[...]

          k =-0.0956-0.1655 0.0000 ( 14574 PWs)   bands (ev):

  -102.4761-102.4736-102.4705-102.1225-102.1196-102.1170-102.0655-102.0628
  -102.0600 -62.9980 -62.9814 -62.9669 -62.8811 -62.8709 -62.8595 -62.7197
   -62.7109 -62.7016 -62.6876 -62.6810 -62.6724 -62.6554 -62.6446 -62.6356
   -62.4762 -62.4579 -62.4408 -62.4044 -62.3852 -62.3672 -62.3573 -62.3486
   -62.3376 -62.2990 -62.2911 -62.2809 -54.6160 -54.6150 -54.5790 -30.7221
   -30.7069 -30.6563 -30.6450 -30.5986 -30.5907 -30.5823 -30.5735 -30.5172
    -4.5948  -4.5661  -3.3032  -2.9948  -2.7993  -2.7779  -2.6634  -2.4662
    -2.1655  -2.1354  -2.0993  -1.9168  -1.8447  -1.7715  -1.6997  -1.5964
    -1.5286  -1.4436  -1.4356  -1.3320  -1.2505  -1.1767  -1.0117  -0.8997
    -0.8297  -0.8254  -0.7972  -0.7631  -0.7117  -0.6927  -0.6508  -0.6457
    -0.6426  -0.5717  -0.5034  -0.4860  -0.4461  -0.3656  -0.3337  -0.2995
    -0.2601  -0.1854  -0.1606  -0.0387  -0.0304   0.0471   0.2438   0.3033
     0.3968   0.4530   0.5311   0.6105   1.1092   1.1269   1.4825   1.6221
     1.6539   1.7219   1.7809   1.8914   1.9412   2.1476   2.6202   2.7379
     3.0784   3.1317   3.9501   4.5210   5.3647   5.5915   5.6600   5.8558
     6.6952   6.8199   6.9780   7.0301   7.4687   7.5425   7.6417   7.6570
     8.5308   8.6747

     the Fermi energy is     1.1890 ev

!    total energy              =   -3455.51313008 Ry
     Harris-Foulkes estimate   =   -3455.51312475 Ry
     estimated scf accuracy    <       0.00000069 Ry

     The total energy is the sum of the following terms:

     one-electron contribution =  -27721.59524947 Ry
     hartree contribution      =   13866.89274880 Ry
     xc contribution           =    -387.90405167 Ry
     ewald contribution        =   10787.14694378 Ry
     electric field correction =       0.00000065 Ry
     smearing contrib. (-TS)   =      -0.05352217 Ry

     total magnetization       =    -0.01 Bohr mag/cell
     absolute magnetization    =     0.03 Bohr mag/cell

     convergence has been achieved in  38 iterations

 BEEF-vdW xc energy contributions
           1 :   -340.457684019595
           2 :    308.872762421998
           3 :   -255.550590496902
           4 :    195.674786893468
           5 :   -143.373327365659
           6 :    106.598761208597
           7 :   -85.5382664450310
           8 :    74.7190216278715
           9 :   -67.1667948305499
          10 :    58.1696282499429
          11 :   -46.8688453163297
          12 :    35.3446991428163
          13 :   -26.3159898519556
          14 :    21.0838190247842
          15 :   -18.8880144017783
          16 :    17.7335147254089
          17 :   -15.8562233318137
          18 :    12.7459066485740
          19 :   -9.16449932254051
          20 :    6.33405954760360
          21 :   -4.99282848574381
          22 :    4.95447053363671
          23 :   -5.37804361238489
          24 :    5.43363090660949
          25 :   -4.85265070874920
          26 :    3.99467653142324
          27 :   -3.46383864858865
          28 :    3.60087801243475
          29 :   -4.23643729157772
          30 :    4.84499338892988
          31 :   -29.8115370582472
          32 :   -21.1771094924027

     Forces acting on atoms (Ry/au):

     negative rho (up, down):  1.428E-03 1.428E-03
     atom    1 type  1   force =     0.00002568   -0.00129000    0.01148952
     atom    2 type  1   force =    -0.00114462    0.00064700    0.01152418
     atom    3 type  1   force =     0.00115470    0.00062416    0.01150399
     atom    4 type  2   force =     0.00000375   -0.00000343    0.00035307
     atom    5 type  1   force =    -0.00002658    0.00098817   -0.00613577
     atom    6 type  1   force =     0.00085244   -0.00051376   -0.00614489
     atom    7 type  1   force =    -0.00085220   -0.00048306   -0.00612376
     atom    8 type  2   force =    -0.00000654   -0.00000059   -0.01414088
     atom    9 type  1   force =     0.00000685    0.00023608   -0.00047249
     atom   10 type  1   force =     0.00024622   -0.00009745   -0.00047681
     atom   11 type  1   force =    -0.00024452   -0.00010433   -0.00049333
     atom   12 type  2   force =    -0.00001518   -0.00000279   -0.00088282

     Total force =     0.026830     Total SCF correction =     0.001216

     entering subroutine stress ...

     negative rho (up, down):  1.428E-03 1.428E-03
          total   stress  (Ry/bohr**3)                   (kbar)     P=  -66.13
  -0.00050054  -0.00000001  -0.00000000        -73.63     -0.00     -0.00
  -0.00000001  -0.00050053   0.00000001         -0.00    -73.63      0.00
  -0.00000000   0.00000001  -0.00034763         -0.00      0.00    -51.14

 !ASE

     Writing output data file calc.save

     General routines

     Parallel routines

   This run was terminated on:   8:39: 5  31Dec2018

   JOB DONE.
Job  /afs/slac/g/suncat/bin/suncat-tsmpirun -x LD_LIBRARY_PATH -wdir /scratch/qe648675_XEH4E pw.x -in pw.inp

TID   HOST_NAME   COMMAND_LINE            STATUS            TERMINATION_TIME
00000 suncat0068 pw.x -in pw.inp   Done                     12/31/2018 08:39:05
00001 suncat0068 pw.x -in pw.inp   Done                     12/31/2018 08:39:05
00002 suncat0068 pw.x -in pw.inp   Done                     12/31/2018 08:39:05
00003 suncat0068 pw.x -in pw.inp   Done                     12/31/2018 08:39:05
00004 suncat0068 pw.x -in pw.inp   Done                     12/31/2018 08:39:05
00005 suncat0068 pw.x -in pw.inp   Done                     12/31/2018 08:39:05
00006 suncat0068 pw.x -in pw.inp   Done                     12/31/2018 08:39:05
00007 suncat0068 pw.x -in pw.inp   Done                     12/31/2018 08:39:05
00008 suncat0059 pw.x -in pw.inp   Done                     12/31/2018 08:39:05
00009 suncat0059 pw.x -in pw.inp   Done                     12/31/2018 08:39:05
00010 suncat0059 pw.x -in pw.inp   Done                     12/31/2018 08:39:05
00011 suncat0059 pw.x -in pw.inp   Done                     12/31/2018 08:39:05
00012 suncat0059 pw.x -in pw.inp   Done                     12/31/2018 08:39:05
00013 suncat0059 pw.x -in pw.inp   Done                     12/31/2018 08:39:05
00014 suncat0059 pw.x -in pw.inp   Done                     12/31/2018 08:39:05
00015 suncat0059 pw.x -in pw.inp   Done                     12/31/2018 08:39:05
00016 suncat0031 pw.x -in pw.inp   Done                     12/31/2018 08:39:05
00017 suncat0031 pw.x -in pw.inp   Done                     12/31/2018 08:39:05
00018 suncat0031 pw.x -in pw.inp   Done                     12/31/2018 08:39:05
00019 suncat0031 pw.x -in pw.inp   Done                     12/31/2018 08:39:05
00020 suncat0031 pw.x -in pw.inp   Done                     12/31/2018 08:39:05
00021 suncat0031 pw.x -in pw.inp   Done                     12/31/2018 08:39:05
00022 suncat0031 pw.x -in pw.inp   Done                     12/31/2018 08:39:05
00023 suncat0031 pw.x -in pw.inp   Done                     12/31/2018 08:39:05
00024 suncat0030 pw.x -in pw.inp   Done                     12/31/2018 08:39:05
00025 suncat0030 pw.x -in pw.inp   Done                     12/31/2018 08:39:05
00026 suncat0030 pw.x -in pw.inp   Done                     12/31/2018 08:39:05
00027 suncat0030 pw.x -in pw.inp   Done                     12/31/2018 08:39:05
00028 suncat0030 pw.x -in pw.inp   Done                     12/31/2018 08:39:05
00029 suncat0030 pw.x -in pw.inp   Done                     12/31/2018 08:39:05
00030 suncat0030 pw.x -in pw.inp   Done                     12/31/2018 08:39:05
00031 suncat0030 pw.x -in pw.inp   Done                     12/31/2018 08:39:05
00032 suncat0280 pw.x -in pw.inp   Done                     12/31/2018 08:39:05
00033 suncat0280 pw.x -in pw.inp   Done                     12/31/2018 08:39:05
00034 suncat0280 pw.x -in pw.inp   Done                     12/31/2018 08:39:05
00035 suncat0280 pw.x -in pw.inp   Done                     12/31/2018 08:39:05
00036 suncat0280 pw.x -in pw.inp   Done                     12/31/2018 08:39:05
00037 suncat0280 pw.x -in pw.inp   Done                     12/31/2018 08:39:05
00038 suncat0280 pw.x -in pw.inp   Done                     12/31/2018 08:39:05
00039 suncat0280 pw.x -in pw.inp   Done                     12/31/2018 08:39:05
00040 suncat0279 pw.x -in pw.inp   Done                     12/31/2018 08:39:05
00041 suncat0279 pw.x -in pw.inp   Done                     12/31/2018 08:39:05
00042 suncat0279 pw.x -in pw.inp   Done                     12/31/2018 08:39:05
00043 suncat0279 pw.x -in pw.inp   Done                     12/31/2018 08:39:05
00044 suncat0279 pw.x -in pw.inp   Done                     12/31/2018 08:39:05
00045 suncat0279 pw.x -in pw.inp   Done                     12/31/2018 08:39:05
00046 suncat0279 pw.x -in pw.inp   Done                     12/31/2018 08:39:05
00047 suncat0279 pw.x -in pw.inp   Done                     12/31/2018 08:39:05
00048 suncat0278 pw.x -in pw.inp   Done                     12/31/2018 08:39:06
00049 suncat0278 pw.x -in pw.inp   Done                     12/31/2018 08:39:06
00050 suncat0278 pw.x -in pw.inp   Done                     12/31/2018 08:39:05
00051 suncat0278 pw.x -in pw.inp   Done                     12/31/2018 08:39:06
00052 suncat0278 pw.x -in pw.inp   Done                     12/31/2018 08:39:06
00053 suncat0278 pw.x -in pw.inp   Done                     12/31/2018 08:39:06
00054 suncat0278 pw.x -in pw.inp   Done                     12/31/2018 08:39:05
00055 suncat0278 pw.x -in pw.inp   Done                     12/31/2018 08:39:05
00056 suncat0099 pw.x -in pw.inp   Done                     12/31/2018 08:39:05
00057 suncat0099 pw.x -in pw.inp   Done                     12/31/2018 08:39:05
00058 suncat0099 pw.x -in pw.inp   Done                     12/31/2018 08:39:05
00059 suncat0099 pw.x -in pw.inp   Done                     12/31/2018 08:39:05
00060 suncat0099 pw.x -in pw.inp   Done                     12/31/2018 08:39:05
00061 suncat0099 pw.x -in pw.inp   Done                     12/31/2018 08:39:05
00062 suncat0099 pw.x -in pw.inp   Done                     12/31/2018 08:39:05
00063 suncat0099 pw.x -in pw.inp   Done                     12/31/2018 08:39:05