     Program PWSCF v.5.1rc2 (svn rev. 11289) starts on 25Dec2018 at 20:24:25

     Current dimensions of program PWSCF are:
     Max number of different atomic species (ntypx) = 10
     Max number of k-points (npk) =  40000
     Max angular momentum in pseudopotentials (lmaxx) =  3
     Presently stress not available with electric field

     IMPORTANT: XC functional enforced from input :
     Exchange-correlation      = BEEF-VDW ( 1  4 27 13 2)
     Any further DFT definition will be discarded
     Please, verify this is what you really want

     Subspace diagonalization in iterative solution of the eigenvalue problem:
     a serial algorithm will be used

     Generating pointlists ...
     new r_m :   0.4125 (alat units)  0.7795 (a.u.) for type    1
     new r_m :   0.4125 (alat units)  0.7795 (a.u.) for type    2

     bravais-lattice index     =            0
     lattice parameter (alat)  =       1.8897  a.u.
     unit-cell volume          =    3620.6180 (a.u.)^3
     number of atoms/cell      =           12
     number of atomic types    =            2
     number of electrons       =       198.00
     number of Kohn-Sham states=          129
     kinetic-energy cutoff     =      36.7493  Ry
     charge density cutoff     =     367.4932  Ry
     convergence threshold     =      1.0E-06
     mixing beta               =       0.1000
     number of iterations used =           10  plain     mixing
     Exchange-correlation      = BEEF-VDW ( 1  4 27 13 2)
     nstep                     =           50

     celldm(1)=   1.889726  celldm(2)=   0.000000  celldm(3)=   0.000000
     celldm(4)=   0.000000  celldm(5)=   0.000000  celldm(6)=   0.000000

     crystal axes: (cart. coord. in units of alat)
               a(1) = (   5.066285   0.000000   0.000000 )
               a(2) = (  -2.533143   4.387532   0.000000 )
               a(3) = (   0.000000   0.000000  24.136605 )

     reciprocal axes: (cart. coord. in units 2 pi/alat)
               b(1) = (  0.197383  0.113959  0.000000 )
               b(2) = (  0.000000  0.227919  0.000000 )
               b(3) = (  0.000000  0.000000  0.041431 )

     PseudoPot. # 1 for Fe read from file:
     /afs/slac.stanford.edu/u/if/mamunm/psp/gbrv1.5pbe/Fe.UPF
     MD5 check sum: a130daea23fe5165f5d574ae7f82ed95
     Pseudo is Ultrasoft + core correction, Zval = 16.0
     Generated by new atomic code, or converted to UPF format
     Using radial grid of  861 points,  6 beta functions with:
                l(1) =   0
                l(2) =   0
                l(3) =   1
                l(4) =   1
                l(5) =   2
                l(6) =   2
     Q(r) pseudized with  8 coefficients,  rinner =    1.000   1.000   1.000
                                                       1.000   1.000

     PseudoPot. # 2 for Ni read from file:
     /afs/slac.stanford.edu/u/if/mamunm/psp/gbrv1.5pbe/Ni.UPF
     MD5 check sum: 1ee80287db30b12d2bc1f57a5b5d6409
     Pseudo is Ultrasoft + core correction, Zval = 18.0
     Generated by new atomic code, or converted to UPF format
     Using radial grid of  865 points,  6 beta functions with:
                l(1) =   0
                l(2) =   0
                l(3) =   1
                l(4) =   1
                l(5) =   2
                l(6) =   2
     Q(r) pseudized with 10 coefficients,  rinner =    0.980   0.980   0.980
                                                       0.980   0.980

     vdW kernel table read from file vdW_kernel_table
     MD5 check sum: 095c7af220d748ca6e76c0b4c6cfb241

     atomic species   valence    mass     pseudopotential
        Fe1           16.00    55.84500     Fe( 1.00)
        Ni1           18.00    58.69340     Ni( 1.00)

     Starting magnetic structure
     atomic species   magnetization
        Fe1          0.125
        Ni1          0.111

     No symmetry found

   Cartesian axes

     site n.     atom                  positions (alat units)
         1           Fe1 tau(   1) = (   0.0000000   0.0000000  10.0000000  )
         2           Fe1 tau(   2) = (  -1.2665713   2.1937659  10.0000000  )
         3           Fe1 tau(   3) = (   1.2665713   2.1937659  10.0000000  )
         4           Ni1 tau(   4) = (   2.5331427   0.0000000  10.0000000  )
         5           Fe1 tau(   5) = (   2.5331427   1.4625106  12.0683023  )
         6           Fe1 tau(   6) = (   1.2665713   3.6562765  12.0683023  )
         7           Fe1 tau(   7) = (  -1.2665713   3.6562765  12.0683023  )
         8           Ni1 tau(   8) = (   0.0000000   1.4625106  12.0683023  )
         9           Fe1 tau(   9) = (  -0.0000000   2.9250212  14.1366047  )
        10           Fe1 tau(  10) = (   1.2665713   0.7312553  14.1366047  )
        11           Fe1 tau(  11) = (   3.7997140   0.7312553  14.1366047  )
        12           Ni1 tau(  12) = (   2.5331427   2.9250212  14.1366047  )

     number of k points=    40  Fermi-Dirac smearing, width (Ry)=  0.0110
                       cart. coord. in units 2pi/alat
        k(    1) = (   0.0000000   0.0000000   0.0000000), wk =   0.0277778
        k(    2) = (   0.0000000   0.0379864   0.0000000), wk =   0.0555556
        k(    3) = (   0.0000000   0.0759729   0.0000000), wk =   0.0555556
        k(    4) = (   0.0000000  -0.1139593   0.0000000), wk =   0.0277778
        k(    5) = (   0.0328972   0.0189932   0.0000000), wk =   0.0555556
        k(    6) = (   0.0328972   0.0569796   0.0000000), wk =   0.0555556
        k(    7) = (   0.0328972   0.0949661   0.0000000), wk =   0.0555556
        k(    8) = (   0.0328972  -0.0949661   0.0000000), wk =   0.0555556
        k(    9) = (   0.0328972  -0.0569796   0.0000000), wk =   0.0555556
        k(   10) = (   0.0328972  -0.0189932   0.0000000), wk =   0.0555556
        k(   11) = (   0.0657944   0.0379864   0.0000000), wk =   0.0555556
        k(   12) = (   0.0657944   0.0759729   0.0000000), wk =   0.0555556
        k(   13) = (   0.0657944   0.1139593   0.0000000), wk =   0.0555556
        k(   14) = (   0.0657944  -0.0759729   0.0000000), wk =   0.0555556
        k(   15) = (   0.0657944  -0.0379864   0.0000000), wk =   0.0555556
        k(   16) = (   0.0657944  -0.0000000   0.0000000), wk =   0.0555556
        k(   17) = (  -0.0986916  -0.0569796   0.0000000), wk =   0.0277778
        k(   18) = (  -0.0986916  -0.0189932   0.0000000), wk =   0.0555556
        k(   19) = (  -0.0986916   0.0189932   0.0000000), wk =   0.0555556
        k(   20) = (  -0.0986916  -0.1709389   0.0000000), wk =   0.0277778
        k(   21) = (   0.0000000   0.0000000   0.0000000), wk =   0.0277778
        k(   22) = (   0.0000000   0.0379864   0.0000000), wk =   0.0555556
        k(   23) = (   0.0000000   0.0759729   0.0000000), wk =   0.0555556
        k(   24) = (   0.0000000  -0.1139593   0.0000000), wk =   0.0277778
        k(   25) = (   0.0328972   0.0189932   0.0000000), wk =   0.0555556
        k(   26) = (   0.0328972   0.0569796   0.0000000), wk =   0.0555556
        k(   27) = (   0.0328972   0.0949661   0.0000000), wk =   0.0555556
        k(   28) = (   0.0328972  -0.0949661   0.0000000), wk =   0.0555556
        k(   29) = (   0.0328972  -0.0569796   0.0000000), wk =   0.0555556
        k(   30) = (   0.0328972  -0.0189932   0.0000000), wk =   0.0555556
        k(   31) = (   0.0657944   0.0379864   0.0000000), wk =   0.0555556
        k(   32) = (   0.0657944   0.0759729   0.0000000), wk =   0.0555556
        k(   33) = (   0.0657944   0.1139593   0.0000000), wk =   0.0555556
        k(   34) = (   0.0657944  -0.0759729   0.0000000), wk =   0.0555556
        k(   35) = (   0.0657944  -0.0379864   0.0000000), wk =   0.0555556
        k(   36) = (   0.0657944  -0.0000000   0.0000000), wk =   0.0555556
        k(   37) = (  -0.0986916  -0.0569796   0.0000000), wk =   0.0277778
        k(   38) = (  -0.0986916  -0.0189932   0.0000000), wk =   0.0555556
        k(   39) = (  -0.0986916   0.0189932   0.0000000), wk =   0.0555556
        k(   40) = (  -0.0986916  -0.1709389   0.0000000), wk =   0.0277778

     Largest allocated arrays     est. size (Mb)     dimensions
     Largest temporary arrays     est. size (Mb)     dimensions

     Check: negative/imaginary core charge=   -0.000007    0.000000

     Initial potential from superposition of free atoms
     Check: negative starting charge=(component1):   -0.000230
     Check: negative starting charge=(component2):   -0.000183

     starting charge  182.99995, renormalised to  198.00000

     negative rho (up, down):  2.487E-04 1.979E-04

     *
     * You are using vdW-DF for exchange-correlation in this calculation.
     * Please cite the following three references that made this development
     * possible:
     *
     *   M. Dion, H. Rydberg, E. Schroder, D. C. Langreth, and
     *   B. I. Lundqvist, Phys. Rev. Lett. 92, 246401 (2004).
     *
     *   T. Thonhauser, V. R. Cooper, S. Li, A. Puzder, P. Hyldgaard, and
     *   D. C. Langreth, Phys. Rev. B 76, 125112 (2007).
     *
     *   G. Roman-Perez and J. M. Soler, Phys. Rev. Lett. 103, 096102 (2009).
     *
     *
     * If you are using vdW-DF2, please also cite:
     *
     *   K. Lee, E. D. Murray, L. Kong, B. I. Lundqvist, and
     *   D. C. Langreth, Phys. Rev. B 82, 081101(R) (2010).
     *
     *
     * If you are calculating the stress with vdW-DF, please also cite:
     *
     *   R. Sabatini, E. Kucukbenli, B. Kolb, T. Thonhauser, and
     *   S. de Gironcoli, J. Phys.: Condens. Matter 24, 424209 (2012).
     *

     Carrying out vdW-DF run using the following parameters:

     Nqs =      20    Nr_points =    1024   r_max =   100.000
     q_mesh =
               0.00001000     0.04494208     0.09755937     0.15916263
               0.23128650     0.31572767     0.41458969     0.53033537
               0.66584808     0.82450364     1.01025438     1.22772762
               1.48234092     1.78043706     2.12944203     2.53805004
               3.01644009     3.57652955     4.23227104     5.00000000

     Gradients computed in reciprocal space

     Adding external electric field

     Computed dipole along edir(3) :
        Dipole                0.0000 Ry au,          0.0000 Debye
        Dipole field          0.0000 Ry au

        Potential amp.       -0.0000 Ry
        Total length         44.4713 bohr

[...]

     Starting wfc are  156 randomized atomic wfcs

     Self-consistent Calculation

     iteration #  1     ecut=    36.75 Ry     beta=0.10
     Davidson diagonalization with overlap
     ethr =  1.00E-02,  avg # of iterations =  7.9

[...]

     Magnetic moment per site:
     atom:    1    charge:    7.3706    magn:    0.8964    constr:    0.0000
     atom:    2    charge:    7.3706    magn:    0.8964    constr:    0.0000
     atom:    3    charge:    7.3706    magn:    0.8964    constr:    0.0000
     atom:    4    charge:    9.6257    magn:    1.0168    constr:    0.0000
     atom:    5    charge:    7.3748    magn:    0.8942    constr:    0.0000
     atom:    6    charge:    7.3748    magn:    0.8942    constr:    0.0000
     atom:    7    charge:    7.3748    magn:    0.8942    constr:    0.0000
     atom:    8    charge:    9.6305    magn:    1.0178    constr:    0.0000
[...]
        k(   11) = (   0.0657944   0.0379864   0.0000000), wk =   0.0555556
        k(   12) = (   0.0657944   0.0759729   0.0000000), wk =   0.0555556
        k(   13) = (   0.0657944   0.1139593   0.0000000), wk =   0.0555556
        k(   14) = (   0.0657944  -0.0759729   0.0000000), wk =   0.0555556
        k(   15) = (   0.0657944  -0.0379864   0.0000000), wk =   0.0555556
        k(   16) = (   0.0657944  -0.0000000   0.0000000), wk =   0.0555556
        k(   17) = (  -0.0986916  -0.0569796   0.0000000), wk =   0.0277778
        k(   18) = (  -0.0986916  -0.0189932   0.0000000), wk =   0.0555556
        k(   19) = (  -0.0986916   0.0189932   0.0000000), wk =   0.0555556
        k(   20) = (  -0.0986916  -0.1709389   0.0000000), wk =   0.0277778
        k(   21) = (   0.0000000   0.0000000   0.0000000), wk =   0.0277778
        k(   22) = (   0.0000000   0.0379864   0.0000000), wk =   0.0555556
        k(   23) = (   0.0000000   0.0759729   0.0000000), wk =   0.0555556
        k(   24) = (   0.0000000  -0.1139593   0.0000000), wk =   0.0277778
        k(   25) = (   0.0328972   0.0189932   0.0000000), wk =   0.0555556
        k(   26) = (   0.0328972   0.0569796   0.0000000), wk =   0.0555556
        k(   27) = (   0.0328972   0.0949661   0.0000000), wk =   0.0555556
        k(   28) = (   0.0328972  -0.0949661   0.0000000), wk =   0.0555556
        k(   29) = (   0.0328972  -0.0569796   0.0000000), wk =   0.0555556
        k(   30) = (   0.0328972  -0.0189932   0.0000000), wk =   0.0555556
        k(   31) = (   0.0657944   0.0379864   0.0000000), wk =   0.0555556
        k(   32) = (   0.0657944   0.0759729   0.0000000), wk =   0.0555556
        k(   33) = (   0.0657944   0.1139593   0.0000000), wk =   0.0555556
        k(   34) = (   0.0657944  -0.0759729   0.0000000), wk =   0.0555556
        k(   35) = (   0.0657944  -0.0379864   0.0000000), wk =   0.0555556
        k(   36) = (   0.0657944  -0.0000000   0.0000000), wk =   0.0555556
        k(   37) = (  -0.0986916  -0.0569796   0.0000000), wk =   0.0277778
        k(   38) = (  -0.0986916  -0.0189932   0.0000000), wk =   0.0555556
        k(   39) = (  -0.0986916   0.0189932   0.0000000), wk =   0.0555556
        k(   40) = (  -0.0986916  -0.1709389   0.0000000), wk =   0.0277778

     Largest allocated arrays     est. size (Mb)     dimensions
     Largest temporary arrays     est. size (Mb)     dimensions

     Check: negative/imaginary core charge=   -0.000007    0.000000

     Initial potential from superposition of free atoms
     Check: negative starting charge=(component1):   -0.000228
     Check: negative starting charge=(component2):   -0.000181

     starting charge  182.99995, renormalised to  198.00000

[...]

     *
     * You are using vdW-DF for exchange-correlation in this calculation.
     * Please cite the following three references that made this development
     * possible:
     *
     *   M. Dion, H. Rydberg, E. Schroder, D. C. Langreth, and
     *   B. I. Lundqvist, Phys. Rev. Lett. 92, 246401 (2004).
     *
     *   T. Thonhauser, V. R. Cooper, S. Li, A. Puzder, P. Hyldgaard, and
     *   D. C. Langreth, Phys. Rev. B 76, 125112 (2007).
     *
     *   G. Roman-Perez and J. M. Soler, Phys. Rev. Lett. 103, 096102 (2009).
     *
     *
     * If you are using vdW-DF2, please also cite:
     *
     *   K. Lee, E. D. Murray, L. Kong, B. I. Lundqvist, and
     *   D. C. Langreth, Phys. Rev. B 82, 081101(R) (2010).
     *
     *
     * If you are calculating the stress with vdW-DF, please also cite:
     *
     *   R. Sabatini, E. Kucukbenli, B. Kolb, T. Thonhauser, and
     *   S. de Gironcoli, J. Phys.: Condens. Matter 24, 424209 (2012).
     *

     Carrying out vdW-DF run using the following parameters:

     Nqs =      20    Nr_points =    1024   r_max =   100.000
     q_mesh =
               0.00001000     0.04494208     0.09755937     0.15916263
               0.23128650     0.31572767     0.41458969     0.53033537
               0.66584808     0.82450364     1.01025438     1.22772762
               1.48234092     1.78043706     2.12944203     2.53805004
               3.01644009     3.57652955     4.23227104     5.00000000

     Gradients computed in reciprocal space

[...]

     Starting wfc are  156 randomized atomic wfcs

     Self-consistent Calculation

[...]

     iteration # 19     ecut=    36.75 Ry     beta=0.10
     Davidson diagonalization with overlap
     c_bands:  1 eigenvalues not converged
     c_bands:  1 eigenvalues not converged
     ethr =  2.13E-06,  avg # of iterations =  6.1

[...]

     iteration # 24     ecut=    36.75 Ry     beta=0.10
     Davidson diagonalization with overlap
     c_bands:  1 eigenvalues not converged
     ethr =  5.14E-08,  avg # of iterations =  3.1

[...]

     total energy              =   -3295.24493223 Ry
     Harris-Foulkes estimate   =   -3295.24493134 Ry
     estimated scf accuracy    <       0.00000156 Ry

[...]

     iteration # 33     ecut=    36.75 Ry     beta=0.10
     Davidson diagonalization with overlap
     ethr =  7.85E-10,  avg # of iterations =  1.9

[...]

     negative rho (up, down):  5.040E-04 6.736E-04

[...]

     Adding external electric field

     Computed dipole along edir(3) :
        Dipole               -0.0002 Ry au,         -0.0005 Debye
        Dipole field         -0.0000 Ry au

        Potential amp.        0.0001 Ry
        Total length         44.4713 bohr

     Magnetic moment per site:
     atom:    1    charge:    7.0876    magn:    1.3373    constr:    0.0000
     atom:    2    charge:    7.0876    magn:    1.3374    constr:    0.0000
     atom:    3    charge:    7.0877    magn:    1.3373    constr:    0.0000
     atom:    4    charge:    9.3416    magn:    0.4621    constr:    0.0000
     atom:    5    charge:    7.0855    magn:    1.3092    constr:    0.0000
     atom:    6    charge:    7.0855    magn:    1.3092    constr:    0.0000
     atom:    7    charge:    7.0855    magn:    1.3092    constr:    0.0000
     atom:    8    charge:    9.3379    magn:    0.5165    constr:    0.0000
     atom:    9    charge:    7.0900    magn:    1.3455    constr:    0.0000
     atom:   10    charge:    7.0898    magn:    1.3455    constr:    0.0000
     atom:   11    charge:    7.0900    magn:    1.3455    constr:    0.0000
     atom:   12    charge:    9.3415    magn:    0.4647    constr:    0.0000

     End of self-consistent calculation

 ------ SPIN UP ------------

[...]

 ------ SPIN DOWN ----------

[...]

          k = 0.0658-0.0000 0.0000 ( 13621 PWs)   bands (ev):

[...]

          k =-0.0987-0.1709 0.0000 ( 13634 PWs)   bands (ev):

  -101.9999-101.7858-101.7779 -84.3645 -84.3550 -84.3400 -84.3360 -84.3302
   -84.3290 -84.3217 -84.3170 -84.3103 -62.3988 -62.3924 -62.3921 -62.2116
   -62.2112 -62.2047 -62.2044 -62.1250 -62.1169 -50.5909 -50.5726 -50.5497
   -50.5362 -50.5125 -50.5095 -50.4998 -50.4984 -50.4861 -50.4728 -50.4541
   -50.4483 -50.4458 -50.4367 -50.4324 -50.4278 -50.4225 -50.4174 -50.4137
   -50.3988 -50.3912 -50.3598 -50.3517 -50.3373 -50.3251 -50.3084 -50.3039
    -5.0043  -4.8973  -3.3070  -3.2013  -2.4090  -2.2709  -1.9814  -1.8997
    -1.8150  -1.6900  -1.4581  -1.2211  -1.2082  -1.1658  -1.0583  -0.9185
    -0.8194  -0.7987  -0.7753  -0.6479  -0.5070  -0.4621  -0.3540  -0.3435
    -0.2797  -0.1871   0.0605   0.0875   0.1957   0.2346   0.2710   0.3434
     0.3579   0.4030   0.4786   0.6663   0.6692   0.7972   0.8726   1.0653
     1.0730   1.2706   1.2954   1.3889   1.4728   1.5188   1.7033   1.7270
     1.7765   1.8999   2.0019   2.1507   2.1817   2.2118   2.2788   2.3098
     2.3913   2.4082   2.4797   2.5345   2.5921   2.9085   2.9654   3.2399
     3.3892   3.6326   3.7361   4.4065   4.5316   4.8968   5.1694   5.2976
     6.3366   6.5082   6.8514   6.8535   7.3312   7.3442   7.5462   7.5500
     8.5993

     the Fermi energy is     0.9233 ev

!    total energy              =   -3295.24493454 Ry
     Harris-Foulkes estimate   =   -3295.24493242 Ry
     estimated scf accuracy    <       0.00000053 Ry

     The total energy is the sum of the following terms:

     one-electron contribution =  -28323.58377896 Ry
     hartree contribution      =   14164.06345954 Ry
     xc contribution           =    -383.19721707 Ry
     ewald contribution        =   11247.55317091 Ry
     electric field correction =       0.00000000 Ry
     smearing contrib. (-TS)   =      -0.08056895 Ry

     total magnetization       =    26.73 Bohr mag/cell
     absolute magnetization    =    28.46 Bohr mag/cell

     convergence has been achieved in  33 iterations

 BEEF-vdW xc energy contributions
           1 :   -336.134585869552
           2 :    304.270350210601
           3 :   -250.891174713020
           4 :    191.688470828539
           5 :   -140.782816610215
           6 :    105.540325471606
           7 :   -85.4073150169716
           8 :    74.5454075267497
           9 :   -66.2015779101181
          10 :    56.2598382647499
          11 :   -44.4146401452971
          12 :    32.9478757735357
          13 :   -24.3992241887020
          14 :    19.7213051761019
          15 :   -17.9036084518975
          16 :    16.9324611051784
          17 :   -15.1892412885751
          18 :    12.3017301298829
          19 :   -9.04230735993826
          20 :    6.53147310052054
          21 :   -5.39667717765542
          22 :    5.41258394625828
          23 :   -5.76024830081678
          24 :    5.61772208387652
          25 :   -4.65810724317259
          26 :    3.15719343828999
          27 :   -1.72492653171128
          28 :   0.886660906479335
          29 :  -0.789897780142496
          30 :    1.16908167523877
          31 :   -29.0377930342895
          32 :   -20.4400001286093

     Forces acting on atoms (Ry/au):

     negative rho (up, down):  5.040E-04 6.736E-04
     atom    1 type  1   force =     0.00001171    0.00523929   -0.00861647
     atom    2 type  1   force =     0.00453617   -0.00261447   -0.00862028
     atom    3 type  1   force =    -0.00453609   -0.00262809   -0.00861256
     atom    4 type  2   force =    -0.00001806    0.00000523   -0.00011262
     atom    5 type  1   force =     0.00000579   -0.00213685    0.00626521
     atom    6 type  1   force =    -0.00184253    0.00107824    0.00623827
     atom    7 type  1   force =     0.00184291    0.00107184    0.00625223
     atom    8 type  2   force =    -0.00001215   -0.00001866    0.00667107
     atom    9 type  1   force =    -0.00003455    0.00015099    0.00011771
     atom   10 type  1   force =     0.00014082   -0.00008612    0.00011379
     atom   11 type  1   force =    -0.00013359   -0.00004220    0.00012458
     atom   12 type  2   force =     0.00003957   -0.00001920    0.00017907

     Total force =     0.021924     Total SCF correction =     0.003163
     SCF correction compared to forces is large: reduce conv_thr to get better values

     entering subroutine stress ...

     negative rho (up, down):  5.040E-04 6.736E-04
          total   stress  (Ry/bohr**3)                   (kbar)     P=  -19.99
  -0.00015831  -0.00000000  -0.00000000        -23.29     -0.00     -0.00
  -0.00000000  -0.00015831   0.00000000         -0.00    -23.29      0.00
  -0.00000000   0.00000000  -0.00009097         -0.00      0.00    -13.38

 !ASE

     Writing output data file calc.save

     General routines

     Parallel routines

   This run was terminated on:  23:50: 6  25Dec2018

   JOB DONE.
Job  /afs/slac/g/suncat/bin/suncat-tsmpirun -x LD_LIBRARY_PATH -wdir /scratch/qe109633_D0Hqe pw.x -in pw.inp

TID   HOST_NAME   COMMAND_LINE            STATUS            TERMINATION_TIME
00000 suncat0183 pw.x -in pw.inp   Done                     12/25/2018 23:50:06
00001 suncat0183 pw.x -in pw.inp   Done                     12/25/2018 23:50:06
00002 suncat0183 pw.x -in pw.inp   Done                     12/25/2018 23:50:06
00003 suncat0183 pw.x -in pw.inp   Done                     12/25/2018 23:50:06
00004 suncat0183 pw.x -in pw.inp   Done                     12/25/2018 23:50:06
00005 suncat0183 pw.x -in pw.inp   Done                     12/25/2018 23:50:06
00006 suncat0183 pw.x -in pw.inp   Done                     12/25/2018 23:50:06
00007 suncat0183 pw.x -in pw.inp   Done                     12/25/2018 23:50:06
00008 suncat0182 pw.x -in pw.inp   Done                     12/25/2018 23:50:06
00009 suncat0182 pw.x -in pw.inp   Done                     12/25/2018 23:50:06
00010 suncat0182 pw.x -in pw.inp   Done                     12/25/2018 23:50:06
00011 suncat0182 pw.x -in pw.inp   Done                     12/25/2018 23:50:06
00012 suncat0182 pw.x -in pw.inp   Done                     12/25/2018 23:50:06
00013 suncat0182 pw.x -in pw.inp   Done                     12/25/2018 23:50:06
00014 suncat0182 pw.x -in pw.inp   Done                     12/25/2018 23:50:06
00015 suncat0182 pw.x -in pw.inp   Done                     12/25/2018 23:50:06
00016 suncat0181 pw.x -in pw.inp   Done                     12/25/2018 23:50:06
00017 suncat0181 pw.x -in pw.inp   Done                     12/25/2018 23:50:06
00018 suncat0181 pw.x -in pw.inp   Done                     12/25/2018 23:50:06
00019 suncat0181 pw.x -in pw.inp   Done                     12/25/2018 23:50:06
00020 suncat0181 pw.x -in pw.inp   Done                     12/25/2018 23:50:06
00021 suncat0181 pw.x -in pw.inp   Done                     12/25/2018 23:50:06
00022 suncat0181 pw.x -in pw.inp   Done                     12/25/2018 23:50:06
00023 suncat0181 pw.x -in pw.inp   Done                     12/25/2018 23:50:06
00024 suncat0252 pw.x -in pw.inp   Done                     12/25/2018 23:50:06
00025 suncat0252 pw.x -in pw.inp   Done                     12/25/2018 23:50:06
00026 suncat0252 pw.x -in pw.inp   Done                     12/25/2018 23:50:06
00027 suncat0252 pw.x -in pw.inp   Done                     12/25/2018 23:50:06
00028 suncat0252 pw.x -in pw.inp   Done                     12/25/2018 23:50:06
00029 suncat0252 pw.x -in pw.inp   Done                     12/25/2018 23:50:06
00030 suncat0252 pw.x -in pw.inp   Done                     12/25/2018 23:50:06
00031 suncat0252 pw.x -in pw.inp   Done                     12/25/2018 23:50:06
00032 suncat0226 pw.x -in pw.inp   Done                     12/25/2018 23:50:06
00033 suncat0226 pw.x -in pw.inp   Done                     12/25/2018 23:50:06
00034 suncat0226 pw.x -in pw.inp   Done                     12/25/2018 23:50:06
00035 suncat0226 pw.x -in pw.inp   Done                     12/25/2018 23:50:06
00036 suncat0226 pw.x -in pw.inp   Done                     12/25/2018 23:50:06
00037 suncat0226 pw.x -in pw.inp   Done                     12/25/2018 23:50:06
00038 suncat0226 pw.x -in pw.inp   Done                     12/25/2018 23:50:06
00039 suncat0226 pw.x -in pw.inp   Done                     12/25/2018 23:50:06
00040 suncat0225 pw.x -in pw.inp   Done                     12/25/2018 23:50:06
00041 suncat0225 pw.x -in pw.inp   Done                     12/25/2018 23:50:06
00042 suncat0225 pw.x -in pw.inp   Done                     12/25/2018 23:50:06
00043 suncat0225 pw.x -in pw.inp   Done                     12/25/2018 23:50:06
00044 suncat0225 pw.x -in pw.inp   Done                     12/25/2018 23:50:06
00045 suncat0225 pw.x -in pw.inp   Done                     12/25/2018 23:50:06
00046 suncat0225 pw.x -in pw.inp   Done                     12/25/2018 23:50:06
00047 suncat0225 pw.x -in pw.inp   Done                     12/25/2018 23:50:06
00048 suncat0224 pw.x -in pw.inp   Done                     12/25/2018 23:50:06
00049 suncat0224 pw.x -in pw.inp   Done                     12/25/2018 23:50:06
00050 suncat0224 pw.x -in pw.inp   Done                     12/25/2018 23:50:06
00051 suncat0224 pw.x -in pw.inp   Done                     12/25/2018 23:50:06
00052 suncat0224 pw.x -in pw.inp   Done                     12/25/2018 23:50:06
00053 suncat0224 pw.x -in pw.inp   Done                     12/25/2018 23:50:06
00054 suncat0224 pw.x -in pw.inp   Done                     12/25/2018 23:50:06
00055 suncat0224 pw.x -in pw.inp   Done                     12/25/2018 23:50:06
00056 suncat0223 pw.x -in pw.inp   Done                     12/25/2018 23:50:06
00057 suncat0223 pw.x -in pw.inp   Done                     12/25/2018 23:50:06
00058 suncat0223 pw.x -in pw.inp   Done                     12/25/2018 23:50:06
00059 suncat0223 pw.x -in pw.inp   Done                     12/25/2018 23:50:06
00060 suncat0223 pw.x -in pw.inp   Done                     12/25/2018 23:50:06
00061 suncat0223 pw.x -in pw.inp   Done                     12/25/2018 23:50:06
00062 suncat0223 pw.x -in pw.inp   Done                     12/25/2018 23:50:06
00063 suncat0223 pw.x -in pw.inp   Done                     12/25/2018 23:50:06