     Program PWSCF v.5.1rc2 (svn rev. 11289) starts on 27Dec2018 at 21:34:46

     Current dimensions of program PWSCF are:
     Max number of different atomic species (ntypx) = 10
     Max number of k-points (npk) =  40000
     Max angular momentum in pseudopotentials (lmaxx) =  3
     Presently stress not available with electric field

     IMPORTANT: XC functional enforced from input :
     Exchange-correlation      = BEEF-VDW ( 1  4 27 13 2)
     Any further DFT definition will be discarded
     Please, verify this is what you really want

     Subspace diagonalization in iterative solution of the eigenvalue problem:
     a serial algorithm will be used

     bravais-lattice index     =            0
     lattice parameter (alat)  =       1.8897  a.u.
     unit-cell volume          =    4538.5308 (a.u.)^3
     number of atoms/cell      =           12
     number of atomic types    =            2
     number of electrons       =       171.00
     number of Kohn-Sham states=          115
     kinetic-energy cutoff     =      36.7493  Ry
     charge density cutoff     =     367.4932  Ry
     convergence threshold     =      1.0E-06
     mixing beta               =       0.1000
     number of iterations used =           10  plain     mixing
     Exchange-correlation      = BEEF-VDW ( 1  4 27 13 2)
     nstep                     =           50

     celldm(1)=   1.889726  celldm(2)=   0.000000  celldm(3)=   0.000000
     celldm(4)=   0.000000  celldm(5)=   0.000000  celldm(6)=   0.000000

     crystal axes: (cart. coord. in units of alat)
               a(1) = (   5.619880   0.000000   0.000000 )
               a(2) = (  -2.809940   4.866959   0.000000 )
               a(3) = (   0.000000   0.000000  24.588613 )

     reciprocal axes: (cart. coord. in units 2 pi/alat)
               b(1) = (  0.177940  0.102734  0.000000 )
               b(2) = (  0.000000  0.205467  0.000000 )
               b(3) = (  0.000000  0.000000  0.040669 )

     PseudoPot. # 1 for Rh read from file:
     /afs/slac.stanford.edu/u/if/mamunm/psp/gbrv1.5pbe/Rh.UPF
     MD5 check sum: 761627e959a2e3a1f56b0b5fe687810e
     Pseudo is Ultrasoft + core correction, Zval = 15.0
     Generated by new atomic code, or converted to UPF format
     Using radial grid of  969 points,  7 beta functions with:
                l(1) =   0
                l(2) =   0
                l(3) =   1
                l(4) =   1
                l(5) =   2
                l(6) =   2
                l(7) =   2
     Q(r) pseudized with  8 coefficients,  rinner =    1.200   1.200   1.200
                                                       1.200   1.200

     PseudoPot. # 2 for Zr read from file:
     /afs/slac.stanford.edu/u/if/mamunm/psp/gbrv1.5pbe/Zr.UPF
     MD5 check sum: 5db81b1e868ab7776c4564c113de050b
     Pseudo is Ultrasoft + core correction, Zval = 12.0
     Generated by new atomic code, or converted to UPF format
     Using radial grid of  887 points,  6 beta functions with:
                l(1) =   0
                l(2) =   0
                l(3) =   1
                l(4) =   1
                l(5) =   2
                l(6) =   2
     Q(r) pseudized with  6 coefficients,  rinner =    1.200   1.200   1.200
                                                       1.200   1.200

     vdW kernel table read from file vdW_kernel_table
     MD5 check sum: 095c7af220d748ca6e76c0b4c6cfb241

     atomic species   valence    mass     pseudopotential
        Rh1           15.00   102.90550     Rh( 1.00)
        Zr1           12.00    91.22400     Zr( 1.00)

     No symmetry found

   Cartesian axes

     site n.     atom                  positions (alat units)
         1           Rh1 tau(   1) = (   0.0000000   0.0000000  10.0000000  )
         2           Rh1 tau(   2) = (  -1.4049699   2.4334793  10.0000000  )
         3           Rh1 tau(   3) = (   1.4049699   2.4334793  10.0000000  )
         4           Zr1 tau(   4) = (   2.8099398   0.0000000  10.0000000  )
         5           Rh1 tau(   5) = (   2.8099398   1.6223195  12.2943063  )
         6           Rh1 tau(   6) = (   1.4049699   4.0557988  12.2943063  )
         7           Rh1 tau(   7) = (  -1.4049699   4.0557988  12.2943063  )
         8           Zr1 tau(   8) = (   0.0000000   1.6223195  12.2943063  )
         9           Rh1 tau(   9) = (  -0.0000000   3.2446390  14.5886125  )
        10           Rh1 tau(  10) = (   1.4049699   0.8111598  14.5886125  )
        11           Rh1 tau(  11) = (   4.2149097   0.8111598  14.5886125  )
        12           Zr1 tau(  12) = (   2.8099398   3.2446390  14.5886125  )

     number of k points=    20  Fermi-Dirac smearing, width (Ry)=  0.0110
                       cart. coord. in units 2pi/alat
        k(    1) = (   0.0000000   0.0000000   0.0000000), wk =   0.0555556
        k(    2) = (   0.0000000   0.0342445   0.0000000), wk =   0.1111111
        k(    3) = (   0.0000000   0.0684890   0.0000000), wk =   0.1111111
        k(    4) = (   0.0000000  -0.1027336   0.0000000), wk =   0.0555556
        k(    5) = (   0.0296566   0.0171223   0.0000000), wk =   0.1111111
        k(    6) = (   0.0296566   0.0513668   0.0000000), wk =   0.1111111
        k(    7) = (   0.0296566   0.0856113   0.0000000), wk =   0.1111111
        k(    8) = (   0.0296566  -0.0856113   0.0000000), wk =   0.1111111
        k(    9) = (   0.0296566  -0.0513668   0.0000000), wk =   0.1111111
        k(   10) = (   0.0296566  -0.0171223   0.0000000), wk =   0.1111111
        k(   11) = (   0.0593133   0.0342445   0.0000000), wk =   0.1111111
        k(   12) = (   0.0593133   0.0684890   0.0000000), wk =   0.1111111
        k(   13) = (   0.0593133   0.1027336   0.0000000), wk =   0.1111111
        k(   14) = (   0.0593133  -0.0684890   0.0000000), wk =   0.1111111
        k(   15) = (   0.0593133  -0.0342445   0.0000000), wk =   0.1111111
        k(   16) = (   0.0593133   0.0000000   0.0000000), wk =   0.1111111
        k(   17) = (  -0.0889699  -0.0513668   0.0000000), wk =   0.0555556
        k(   18) = (  -0.0889699  -0.0171223   0.0000000), wk =   0.1111111
        k(   19) = (  -0.0889699   0.0171223   0.0000000), wk =   0.1111111
        k(   20) = (  -0.0889699  -0.1541003   0.0000000), wk =   0.0555556

     Largest allocated arrays     est. size (Mb)     dimensions
     Largest temporary arrays     est. size (Mb)     dimensions

     Initial potential from superposition of free atoms
     Check: negative starting charge=   -0.669481

     starting charge  166.49267, renormalised to  171.00000

     negative rho (up, down):  6.876E-01 0.000E+00

     *
     * You are using vdW-DF for exchange-correlation in this calculation.
     * Please cite the following three references that made this development
     * possible:
     *
     *   M. Dion, H. Rydberg, E. Schroder, D. C. Langreth, and
     *   B. I. Lundqvist, Phys. Rev. Lett. 92, 246401 (2004).
     *
     *   T. Thonhauser, V. R. Cooper, S. Li, A. Puzder, P. Hyldgaard, and
     *   D. C. Langreth, Phys. Rev. B 76, 125112 (2007).
     *
     *   G. Roman-Perez and J. M. Soler, Phys. Rev. Lett. 103, 096102 (2009).
     *
     *
     * If you are using vdW-DF2, please also cite:
     *
     *   K. Lee, E. D. Murray, L. Kong, B. I. Lundqvist, and
     *   D. C. Langreth, Phys. Rev. B 82, 081101(R) (2010).
     *
     *
     * If you are calculating the stress with vdW-DF, please also cite:
     *
     *   R. Sabatini, E. Kucukbenli, B. Kolb, T. Thonhauser, and
     *   S. de Gironcoli, J. Phys.: Condens. Matter 24, 424209 (2012).
     *

     Carrying out vdW-DF run using the following parameters:

     Nqs =      20    Nr_points =    1024   r_max =   100.000
     q_mesh =
               0.00001000     0.04494208     0.09755937     0.15916263
               0.23128650     0.31572767     0.41458969     0.53033537
               0.66584808     0.82450364     1.01025438     1.22772762
               1.48234092     1.78043706     2.12944203     2.53805004
               3.01644009     3.57652955     4.23227104     5.00000000

     Gradients computed in reciprocal space

     Adding external electric field

     Computed dipole along edir(3) :
        Dipole                0.0000 Ry au,          0.0000 Debye
        Dipole field          0.0000 Ry au

        Potential amp.       -0.0000 Ry
        Total length         45.3041 bohr

     Starting wfc are  147 randomized atomic wfcs

     Self-consistent Calculation

     iteration #  1     ecut=    36.75 Ry     beta=0.10
     Davidson diagonalization with overlap
     ethr =  1.00E-02,  avg # of iterations =  6.0

[...]

     total energy              =   -1849.86693404 Ry
     Harris-Foulkes estimate   =   -1850.43250462 Ry
     estimated scf accuracy    <       3.68723068 Ry

[...]

     End of self-consistent calculation

          k = 0.0000 0.0000 0.0000 ( 17075 PWs)   bands (ev):

   -47.6905 -47.6861 -47.1066 -44.6215 -44.5341 -44.5340 -44.5309 -44.4916
   -44.4915 -44.3695 -44.3047 -44.3047 -44.2588 -44.2515 -44.2059 -44.2059
   -44.1832 -44.1831 -44.0527 -44.0479 -44.0143 -43.9920 -43.9870 -43.9869
   -43.9714 -43.9714 -43.9476 -43.9476 -43.9470 -43.9470 -25.7553 -25.7362
   -25.5780 -25.5780 -25.5732 -25.5732 -25.1015 -25.1015 -25.0565  -4.1160
    -2.8244  -2.8244  -2.8189  -2.8103  -2.6065  -2.4938  -2.4938  -2.4060
    -2.2984  -2.2984  -2.1431  -2.0376  -2.0376  -1.9408  -0.9834  -0.9834
    -0.9769  -0.6735  -0.6735  -0.4063  -0.2066  -0.1874  -0.0480   0.0097
     0.0097   0.1258   0.1258   0.3735   0.3736   0.5289   0.5289   0.6413
     0.6413   1.0616   1.4519   1.4520   1.4619   1.4619   1.5748   1.5810
     1.5810   2.0618   2.0964   2.2062   2.2063   2.4705   2.7642   2.8065
     3.0365   3.0440   3.8494   3.8494   4.3370   4.3996   4.3996   4.4874
     4.4874   4.5645   4.6940   4.6940   4.9296   4.9296   4.9452   4.9452
     5.6376   5.6376   5.9946   6.0786   6.5748   6.5748   6.6923   6.7839
     7.1411   7.1411   7.3698

[...]

          k =-0.0890-0.0514 0.0000 ( 17120 PWs)   bands (ev):

[...]

     the Fermi energy is     1.8782 ev

!    total energy              =   -1849.54895620 Ry
     Harris-Foulkes estimate   =   -1849.54895603 Ry
     estimated scf accuracy    <       0.00000094 Ry

     The total energy is the sum of the following terms:

     one-electron contribution =  -15868.70699700 Ry
     hartree contribution      =    7965.60537336 Ry
     xc contribution           =    -334.64519191 Ry
     ewald contribution        =    6388.28407716 Ry
     electric field correction =       0.00000000 Ry
     smearing contrib. (-TS)   =      -0.08621781 Ry

     convergence has been achieved in  15 iterations

 BEEF-vdW xc energy contributions
           1 :   -290.689586441530
           2 :    266.414625887802
           3 :   -224.528776745951
           4 :    175.599700975829
           5 :   -130.152657361650
           6 :    95.3251080485726
           7 :   -73.2986248418307
           8 :    61.7962960501117
           9 :   -56.0768891154984
          10 :    51.3821384454759
          11 :   -44.8005986332444
          12 :    35.9205450935429
          13 :   -26.2539178372110
          14 :    17.9440810743815
[...]
     /afs/slac.stanford.edu/u/if/mamunm/psp/gbrv1.5pbe/Rh.UPF
     MD5 check sum: 761627e959a2e3a1f56b0b5fe687810e
     Pseudo is Ultrasoft + core correction, Zval = 15.0
     Generated by new atomic code, or converted to UPF format
     Using radial grid of  969 points,  7 beta functions with:
                l(1) =   0
                l(2) =   0
                l(3) =   1
                l(4) =   1
                l(5) =   2
                l(6) =   2
                l(7) =   2
     Q(r) pseudized with  8 coefficients,  rinner =    1.200   1.200   1.200
                                                       1.200   1.200

     PseudoPot. # 2 for Zr read from file:
     /afs/slac.stanford.edu/u/if/mamunm/psp/gbrv1.5pbe/Zr.UPF
     MD5 check sum: 5db81b1e868ab7776c4564c113de050b
     Pseudo is Ultrasoft + core correction, Zval = 12.0
     Generated by new atomic code, or converted to UPF format
     Using radial grid of  887 points,  6 beta functions with:
                l(1) =   0
                l(2) =   0
                l(3) =   1
                l(4) =   1
                l(5) =   2
                l(6) =   2
     Q(r) pseudized with  6 coefficients,  rinner =    1.200   1.200   1.200
                                                       1.200   1.200

     vdW kernel table read from file vdW_kernel_table
     MD5 check sum: 095c7af220d748ca6e76c0b4c6cfb241

     atomic species   valence    mass     pseudopotential
        Rh1           15.00   102.90550     Rh( 1.00)
        Zr1           12.00    91.22400     Zr( 1.00)

     No symmetry found

   Cartesian axes

     site n.     atom                  positions (alat units)
         1           Rh1 tau(   1) = (   0.0000000   0.0000000  10.0000000  )
         2           Rh1 tau(   2) = (  -1.4049699   2.4334793  10.0000000  )
         3           Rh1 tau(   3) = (   1.4049699   2.4334793  10.0000000  )
         4           Zr1 tau(   4) = (   2.8099398   0.0000000  10.0000000  )
         5           Rh1 tau(   5) = (   2.8099398   1.6223195  12.2943063  )
         6           Rh1 tau(   6) = (   1.4049699   4.0557988  12.2943063  )
         7           Rh1 tau(   7) = (  -1.4049699   4.0557988  12.2943063  )
         8           Zr1 tau(   8) = (   0.0000000   1.6223195  12.2943063  )
         9           Rh1 tau(   9) = (  -0.0000028   3.2393534  14.5353675  )
        10           Rh1 tau(  10) = (   1.4003937   0.8138013  14.5353647  )
        11           Rh1 tau(  11) = (   4.2194870   0.8138035  14.5353704  )
        12           Zr1 tau(  12) = (   2.8099351   3.2446467  14.4870077  )

     number of k points=    20  Fermi-Dirac smearing, width (Ry)=  0.0110
                       cart. coord. in units 2pi/alat
        k(    1) = (   0.0000000   0.0000000   0.0000000), wk =   0.0555556
        k(    2) = (   0.0000000   0.0342445   0.0000000), wk =   0.1111111
        k(    3) = (   0.0000000   0.0684890   0.0000000), wk =   0.1111111
        k(    4) = (   0.0000000  -0.1027336   0.0000000), wk =   0.0555556
        k(    5) = (   0.0296566   0.0171223   0.0000000), wk =   0.1111111
        k(    6) = (   0.0296566   0.0513668   0.0000000), wk =   0.1111111
        k(    7) = (   0.0296566   0.0856113   0.0000000), wk =   0.1111111
        k(    8) = (   0.0296566  -0.0856113   0.0000000), wk =   0.1111111
        k(    9) = (   0.0296566  -0.0513668   0.0000000), wk =   0.1111111
        k(   10) = (   0.0296566  -0.0171223   0.0000000), wk =   0.1111111
        k(   11) = (   0.0593133   0.0342445   0.0000000), wk =   0.1111111
        k(   12) = (   0.0593133   0.0684890   0.0000000), wk =   0.1111111
        k(   13) = (   0.0593133   0.1027336   0.0000000), wk =   0.1111111
        k(   14) = (   0.0593133  -0.0684890   0.0000000), wk =   0.1111111
        k(   15) = (   0.0593133  -0.0342445   0.0000000), wk =   0.1111111
        k(   16) = (   0.0593133   0.0000000   0.0000000), wk =   0.1111111
        k(   17) = (  -0.0889699  -0.0513668   0.0000000), wk =   0.0555556
        k(   18) = (  -0.0889699  -0.0171223   0.0000000), wk =   0.1111111
        k(   19) = (  -0.0889699   0.0171223   0.0000000), wk =   0.1111111
        k(   20) = (  -0.0889699  -0.1541003   0.0000000), wk =   0.0555556

     Largest allocated arrays     est. size (Mb)     dimensions
     Largest temporary arrays     est. size (Mb)     dimensions

     Initial potential from superposition of free atoms
     Check: negative starting charge=   -0.670448

     starting charge  166.49267, renormalised to  171.00000

[...]

     *
     * You are using vdW-DF for exchange-correlation in this calculation.
     * Please cite the following three references that made this development
     * possible:
     *
     *   M. Dion, H. Rydberg, E. Schroder, D. C. Langreth, and
     *   B. I. Lundqvist, Phys. Rev. Lett. 92, 246401 (2004).
     *
     *   T. Thonhauser, V. R. Cooper, S. Li, A. Puzder, P. Hyldgaard, and
     *   D. C. Langreth, Phys. Rev. B 76, 125112 (2007).
     *
     *   G. Roman-Perez and J. M. Soler, Phys. Rev. Lett. 103, 096102 (2009).
     *
     *
     * If you are using vdW-DF2, please also cite:
     *
     *   K. Lee, E. D. Murray, L. Kong, B. I. Lundqvist, and
     *   D. C. Langreth, Phys. Rev. B 82, 081101(R) (2010).
     *
     *
     * If you are calculating the stress with vdW-DF, please also cite:
     *
     *   R. Sabatini, E. Kucukbenli, B. Kolb, T. Thonhauser, and
     *   S. de Gironcoli, J. Phys.: Condens. Matter 24, 424209 (2012).
     *

     Carrying out vdW-DF run using the following parameters:

     Nqs =      20    Nr_points =    1024   r_max =   100.000
     q_mesh =
               0.00001000     0.04494208     0.09755937     0.15916263
               0.23128650     0.31572767     0.41458969     0.53033537
               0.66584808     0.82450364     1.01025438     1.22772762
               1.48234092     1.78043706     2.12944203     2.53805004
               3.01644009     3.57652955     4.23227104     5.00000000

     Gradients computed in reciprocal space

[...]

     Starting wfc are  147 randomized atomic wfcs

     Self-consistent Calculation

[...]

     total energy              =   -1849.55552771 Ry
     Harris-Foulkes estimate   =   -1849.55552803 Ry
     estimated scf accuracy    <       0.00000280 Ry

     iteration # 15     ecut=    36.75 Ry     beta=0.10
     Davidson diagonalization with overlap
     ethr =  1.64E-09,  avg # of iterations =  1.9

[...]

     negative rho (up, down):  7.003E-01 0.000E+00

     Adding external electric field

     Computed dipole along edir(3) :
        Dipole               -0.0002 Ry au,         -0.0006 Debye
        Dipole field         -0.0000 Ry au

        Potential amp.        0.0001 Ry
        Total length         45.3041 bohr

     End of self-consistent calculation

[...]

          k = 0.0593 0.0000 0.0000 ( 17052 PWs)   bands (ev):

[...]

          k =-0.0890-0.1541 0.0000 ( 17120 PWs)   bands (ev):

   -47.7209 -47.5970 -47.0776 -44.6134 -44.5784 -44.5729 -44.5578 -44.5001
   -44.4995 -44.4855 -44.4829 -44.3636 -44.2400 -44.2125 -44.1565 -44.1486
   -44.1377 -44.1302 -44.1227 -44.1133 -44.1104 -44.0793 -44.0384 -44.0311
   -44.0212 -43.9993 -43.9980 -43.9869 -43.9847 -43.9635 -25.7786 -25.6590
   -25.6281 -25.6103 -25.5279 -25.5088 -25.1032 -25.0832 -25.0290  -2.7441
    -2.6031  -2.1895  -2.0536  -2.0277  -1.9815  -1.8790  -1.7926  -1.6931
    -1.6124  -1.5392  -1.4611  -1.4125  -1.2967  -1.1678  -1.0914  -0.9227
    -0.8679  -0.8100  -0.7324  -0.4896  -0.3093  -0.2918  -0.1100  -0.0963
    -0.0881  -0.0345   0.0659   0.0946   0.1838   0.1978   0.2298   0.2381
     0.2526   0.2822   0.3763   0.5612   0.6551   0.7114   0.7945   0.8042
     1.0058   1.1817   1.2192   1.2987   1.5970   1.6101   1.6980   2.0190
     2.0668   2.1136   2.4797   2.9917   3.0994   3.5626   3.7346   3.7703
     3.9856   4.0235   4.1678   4.3859   4.5453   4.6402   4.8047   5.1178
     5.3710   5.7853   6.4921   6.6579   7.0245   7.5421   7.5627   7.6531
     7.8594   8.2960   8.3375

     the Fermi energy is     1.8707 ev

!    total energy              =   -1849.55552868 Ry
     Harris-Foulkes estimate   =   -1849.55552792 Ry
     estimated scf accuracy    <       0.00000081 Ry

     The total energy is the sum of the following terms:

     one-electron contribution =  -16012.15409560 Ry
     hartree contribution      =    8037.22860028 Ry
     xc contribution           =    -334.76828937 Ry
     ewald contribution        =    6460.22283593 Ry
     electric field correction =       0.00000000 Ry
     smearing contrib. (-TS)   =      -0.08457992 Ry

     convergence has been achieved in  15 iterations

 BEEF-vdW xc energy contributions
           1 :   -290.892351097259
           2 :    266.668670221270
           3 :   -224.848390361257
           4 :    175.947604208606
           5 :   -130.456950657874
           6 :    95.5179985153599
           7 :   -73.3547946118039
           8 :    61.7496854624345
           9 :   -56.0064708676560
          10 :    51.3733348165150
          11 :   -44.9020572978793
          12 :    36.1198769049539
          13 :   -26.4867012808163
          14 :    18.1312651669729
          15 :   -12.5846123866152
          16 :    10.0899992370640
          17 :   -9.68670232961676
          18 :    9.86510142205293
          19 :   -9.36376449203073
          20 :    7.69989562098522
          21 :   -5.22813283141329
          22 :    2.77849694898748
          23 :   -1.12217028504313
          24 :   0.566160789944206
          25 :  -0.861333445740684
          26 :    1.41290663319671
          27 :   -1.63272845261554
          28 :    1.23240153445204
          29 :  -0.320507099060364
          30 :  -0.714525308769112
          31 :   -29.4917481469226
          32 :   -22.0977352805964

     Forces acting on atoms (Ry/au):

     negative rho (up, down):  7.003E-01 0.000E+00
     atom    1 type  1   force =     0.00000076    0.00255386    0.00920889
     atom    2 type  1   force =     0.00221166   -0.00127661    0.00920545
     atom    3 type  1   force =    -0.00221197   -0.00127755    0.00920509
     atom    4 type  2   force =    -0.00000011    0.00000051    0.01850868
     atom    5 type  1   force =     0.00000012   -0.00055440   -0.01192359
     atom    6 type  1   force =    -0.00048026    0.00027763   -0.01192372
     atom    7 type  1   force =     0.00048031    0.00027749   -0.01192377
     atom    8 type  2   force =    -0.00000059   -0.00000015   -0.01002559
     atom    9 type  1   force =     0.00000004   -0.00000567   -0.00012482
     atom   10 type  1   force =    -0.00000506    0.00000308   -0.00012348
     atom   11 type  1   force =     0.00000495    0.00000311   -0.00012207
     atom   12 type  2   force =     0.00000015   -0.00000129    0.00003892

     Total force =     0.033829     Total SCF correction =     0.001466

     entering subroutine stress ...

     negative rho (up, down):  7.003E-01 0.000E+00
          total   stress  (Ry/bohr**3)                   (kbar)     P=  -28.20
  -0.00020915   0.00000000   0.00000000        -30.77      0.00      0.00
   0.00000000  -0.00020915  -0.00000000          0.00    -30.77     -0.00
   0.00000000  -0.00000000  -0.00015681          0.00     -0.00    -23.07

 !ASE

     Writing output data file calc.save

     General routines

     Parallel routines

   This run was terminated on:  22:18:28  27Dec2018

   JOB DONE.
Job  /afs/slac/g/suncat/bin/suncat-tsmpirun -x LD_LIBRARY_PATH -wdir /scratch/qe110744_G1qFG pw.x -in pw.inp

TID   HOST_NAME   COMMAND_LINE            STATUS            TERMINATION_TIME
00000 suncat0193 pw.x -in pw.inp   Done                     12/27/2018 22:18:28
00001 suncat0193 pw.x -in pw.inp   Done                     12/27/2018 22:18:28
00002 suncat0193 pw.x -in pw.inp   Done                     12/27/2018 22:18:28
00003 suncat0193 pw.x -in pw.inp   Done                     12/27/2018 22:18:28
00004 suncat0193 pw.x -in pw.inp   Done                     12/27/2018 22:18:28
00005 suncat0193 pw.x -in pw.inp   Done                     12/27/2018 22:18:28
00006 suncat0193 pw.x -in pw.inp   Done                     12/27/2018 22:18:28
00007 suncat0193 pw.x -in pw.inp   Done                     12/27/2018 22:18:28
00008 suncat0192 pw.x -in pw.inp   Done                     12/27/2018 22:18:28
00009 suncat0192 pw.x -in pw.inp   Done                     12/27/2018 22:18:28
00010 suncat0192 pw.x -in pw.inp   Done                     12/27/2018 22:18:28
00011 suncat0192 pw.x -in pw.inp   Done                     12/27/2018 22:18:28
00012 suncat0192 pw.x -in pw.inp   Done                     12/27/2018 22:18:28
00013 suncat0192 pw.x -in pw.inp   Done                     12/27/2018 22:18:28
00014 suncat0192 pw.x -in pw.inp   Done                     12/27/2018 22:18:28
00015 suncat0192 pw.x -in pw.inp   Done                     12/27/2018 22:18:28
00016 suncat0163 pw.x -in pw.inp   Done                     12/27/2018 22:18:28
00017 suncat0163 pw.x -in pw.inp   Done                     12/27/2018 22:18:28
00018 suncat0163 pw.x -in pw.inp   Done                     12/27/2018 22:18:28
00019 suncat0163 pw.x -in pw.inp   Done                     12/27/2018 22:18:28
00020 suncat0163 pw.x -in pw.inp   Done                     12/27/2018 22:18:28
00021 suncat0163 pw.x -in pw.inp   Done                     12/27/2018 22:18:28
00022 suncat0163 pw.x -in pw.inp   Done                     12/27/2018 22:18:28
00023 suncat0163 pw.x -in pw.inp   Done                     12/27/2018 22:18:28
00024 suncat0162 pw.x -in pw.inp   Done                     12/27/2018 22:18:28
00025 suncat0162 pw.x -in pw.inp   Done                     12/27/2018 22:18:28
00026 suncat0162 pw.x -in pw.inp   Done                     12/27/2018 22:18:28
00027 suncat0162 pw.x -in pw.inp   Done                     12/27/2018 22:18:28
00028 suncat0162 pw.x -in pw.inp   Done                     12/27/2018 22:18:28
00029 suncat0162 pw.x -in pw.inp   Done                     12/27/2018 22:18:28
00030 suncat0162 pw.x -in pw.inp   Done                     12/27/2018 22:18:28
00031 suncat0162 pw.x -in pw.inp   Done                     12/27/2018 22:18:28
00032 suncat0159 pw.x -in pw.inp   Done                     12/27/2018 22:18:28
00033 suncat0159 pw.x -in pw.inp   Done                     12/27/2018 22:18:28
00034 suncat0159 pw.x -in pw.inp   Done                     12/27/2018 22:18:28
00035 suncat0159 pw.x -in pw.inp   Done                     12/27/2018 22:18:28
00036 suncat0159 pw.x -in pw.inp   Done                     12/27/2018 22:18:28
00037 suncat0159 pw.x -in pw.inp   Done                     12/27/2018 22:18:28
00038 suncat0159 pw.x -in pw.inp   Done                     12/27/2018 22:18:28
00039 suncat0159 pw.x -in pw.inp   Done                     12/27/2018 22:18:28
00040 suncat0155 pw.x -in pw.inp   Done                     12/27/2018 22:18:28
00041 suncat0155 pw.x -in pw.inp   Done                     12/27/2018 22:18:28
00042 suncat0155 pw.x -in pw.inp   Done                     12/27/2018 22:18:28
00043 suncat0155 pw.x -in pw.inp   Done                     12/27/2018 22:18:28
00044 suncat0155 pw.x -in pw.inp   Done                     12/27/2018 22:18:28
00045 suncat0155 pw.x -in pw.inp   Done                     12/27/2018 22:18:28
00046 suncat0155 pw.x -in pw.inp   Done                     12/27/2018 22:18:28
00047 suncat0155 pw.x -in pw.inp   Done                     12/27/2018 22:18:28
00048 suncat0141 pw.x -in pw.inp   Done                     12/27/2018 22:18:28
00049 suncat0141 pw.x -in pw.inp   Done                     12/27/2018 22:18:28
00050 suncat0141 pw.x -in pw.inp   Done                     12/27/2018 22:18:28
00051 suncat0141 pw.x -in pw.inp   Done                     12/27/2018 22:18:28
00052 suncat0141 pw.x -in pw.inp   Done                     12/27/2018 22:18:28
00053 suncat0141 pw.x -in pw.inp   Done                     12/27/2018 22:18:28
00054 suncat0141 pw.x -in pw.inp   Done                     12/27/2018 22:18:28
00055 suncat0141 pw.x -in pw.inp   Done                     12/27/2018 22:18:28
00056 suncat0140 pw.x -in pw.inp   Done                     12/27/2018 22:18:28
00057 suncat0140 pw.x -in pw.inp   Done                     12/27/2018 22:18:28
00058 suncat0140 pw.x -in pw.inp   Done                     12/27/2018 22:18:28
00059 suncat0140 pw.x -in pw.inp   Done                     12/27/2018 22:18:28
00060 suncat0140 pw.x -in pw.inp   Done                     12/27/2018 22:18:28
00061 suncat0140 pw.x -in pw.inp   Done                     12/27/2018 22:18:28
00062 suncat0140 pw.x -in pw.inp   Done                     12/27/2018 22:18:28
00063 suncat0140 pw.x -in pw.inp   Done                     12/27/2018 22:18:28