     Program PWSCF v.5.1rc2 (svn rev. 11289) starts on 18Dec2018 at 18:21: 6

     Current dimensions of program PWSCF are:
     Max number of different atomic species (ntypx) = 10
     Max number of k-points (npk) =  40000
     Max angular momentum in pseudopotentials (lmaxx) =  3
     Presently stress not available with electric field

     IMPORTANT: XC functional enforced from input :
     Exchange-correlation      = BEEF-VDW ( 1  4 27 13 2)
     Any further DFT definition will be discarded
     Please, verify this is what you really want

     Subspace diagonalization in iterative solution of the eigenvalue problem:
     a serial algorithm will be used

     Found symmetry operation: I + (  0.5000  0.0000  0.0000)
     This is a supercell, fractional translations are disabled

     bravais-lattice index     =            0
     lattice parameter (alat)  =       1.8897  a.u.
     unit-cell volume          =    4229.8645 (a.u.)^3
     number of atoms/cell      =           12
     number of atomic types    =            2
     number of electrons       =        96.00
     number of Kohn-Sham states=           78
     kinetic-energy cutoff     =      36.7493  Ry
     charge density cutoff     =     367.4932  Ry
     convergence threshold     =      1.0E-06
     mixing beta               =       0.1000
     number of iterations used =           10  plain     mixing
     Exchange-correlation      = BEEF-VDW ( 1  4 27 13 2)
     nstep                     =           50

     celldm(1)=   1.889726  celldm(2)=   0.000000  celldm(3)=   0.000000
     celldm(4)=   0.000000  celldm(5)=   0.000000  celldm(6)=   0.000000

     crystal axes: (cart. coord. in units of alat)
               a(1) = (   5.324770   0.000000   0.000000 )
               a(2) = (  -2.662385   4.816948   0.000000 )
               a(3) = (   0.000000   0.000000  24.437516 )

     reciprocal axes: (cart. coord. in units 2 pi/alat)
               b(1) = (  0.187802  0.103800  0.000000 )
               b(2) = (  0.000000  0.207600  0.000000 )
               b(3) = (  0.000000  0.000000  0.040921 )

     PseudoPot. # 1 for Al read from file:
     /afs/slac.stanford.edu/u/if/mamunm/psp/gbrv1.5pbe/Al.UPF
     MD5 check sum: 0a6289f5291fc8f409219462bc851e1f
     Pseudo is Ultrasoft + core correction, Zval =  3.0
     Generated by new atomic code, or converted to UPF format
     Using radial grid of  893 points,  3 beta functions with:
                l(1) =   0
                l(2) =   1
                l(3) =   2
     Q(r) pseudized with  8 coefficients,  rinner =    0.900   0.900   0.900
                                                       0.900   0.900

     PseudoPot. # 2 for V  read from file:
     /afs/slac.stanford.edu/u/if/mamunm/psp/gbrv1.5pbe/V.UPF
     MD5 check sum: 22b79981416ebb76fdaf5b1b8640f6fb
     Pseudo is Ultrasoft + core correction, Zval = 13.0
     Generated by new atomic code, or converted to UPF format
     Using radial grid of  853 points,  6 beta functions with:
                l(1) =   0
                l(2) =   0
                l(3) =   1
                l(4) =   1
                l(5) =   2
                l(6) =   2
     Q(r) pseudized with  8 coefficients,  rinner =    1.100   1.100   1.100
                                                       1.100   1.100

     vdW kernel table read from file vdW_kernel_table
     MD5 check sum: 095c7af220d748ca6e76c0b4c6cfb241

     atomic species   valence    mass     pseudopotential
        Al1            3.00    26.98154     Al( 1.00)
        V1            13.00    50.94150     V ( 1.00)

     No symmetry found

   Cartesian axes

     site n.     atom                  positions (alat units)
         1           Al1 tau(   1) = (   0.0000000   0.0000000  10.0000000  )
         2           Al1 tau(   2) = (   2.6623851   0.0000000  10.0000000  )
         3           V1  tau(   3) = (   1.3311925   2.4084738  10.0000000  )
         4           V1  tau(   4) = (  -1.3311925   2.4084738  10.0000000  )
         5           Al1 tau(   5) = (   2.6623851   1.4715324  12.2187579  )
         6           Al1 tau(   6) = (  -0.0000000   1.4715324  12.2187579  )
         7           V1  tau(   7) = (  -1.3311925   3.8800062  12.2187579  )
         8           V1  tau(   8) = (   1.3311925   3.8800062  12.2187579  )
         9           Al1 tau(   9) = (   0.0000000   2.9430647  14.4375159  )
        10           Al1 tau(  10) = (   2.6623851   2.9430647  14.4375159  )
        11           V1  tau(  11) = (   3.9935776   0.5345909  14.4375159  )
        12           V1  tau(  12) = (   1.3311925   0.5345909  14.4375159  )

     number of k points=    20  Fermi-Dirac smearing, width (Ry)=  0.0110
                       cart. coord. in units 2pi/alat
        k(    1) = (   0.0000000   0.0000000   0.0000000), wk =   0.0555556
        k(    2) = (   0.0000000   0.0346001   0.0000000), wk =   0.1111111
        k(    3) = (   0.0000000   0.0692001   0.0000000), wk =   0.1111111
        k(    4) = (   0.0000000  -0.1038002   0.0000000), wk =   0.0555556
        k(    5) = (   0.0313003   0.0173000   0.0000000), wk =   0.1111111
        k(    6) = (   0.0313003   0.0519001   0.0000000), wk =   0.1111111
        k(    7) = (   0.0313003   0.0865001   0.0000000), wk =   0.1111111
        k(    8) = (   0.0313003  -0.0865001   0.0000000), wk =   0.1111111
        k(    9) = (   0.0313003  -0.0519001   0.0000000), wk =   0.1111111
        k(   10) = (   0.0313003  -0.0173000   0.0000000), wk =   0.1111111
        k(   11) = (   0.0626005   0.0346001   0.0000000), wk =   0.1111111
        k(   12) = (   0.0626005   0.0692001   0.0000000), wk =   0.1111111
        k(   13) = (   0.0626005   0.1038002   0.0000000), wk =   0.1111111
        k(   14) = (   0.0626005  -0.0692001   0.0000000), wk =   0.1111111
        k(   15) = (   0.0626005  -0.0346001   0.0000000), wk =   0.1111111
        k(   16) = (   0.0626005   0.0000000   0.0000000), wk =   0.1111111
        k(   17) = (  -0.0939008  -0.0519001   0.0000000), wk =   0.0555556
        k(   18) = (  -0.0939008  -0.0173000   0.0000000), wk =   0.1111111
        k(   19) = (  -0.0939008   0.0173000   0.0000000), wk =   0.1111111
        k(   20) = (  -0.0939008  -0.1557003   0.0000000), wk =   0.0555556

     Largest allocated arrays     est. size (Mb)     dimensions
     Largest temporary arrays     est. size (Mb)     dimensions

     Initial potential from superposition of free atoms
     Check: negative starting charge=   -0.005646

     starting charge   95.97784, renormalised to   96.00000

     negative rho (up, down):  5.647E-03 0.000E+00

     *
     * You are using vdW-DF for exchange-correlation in this calculation.
     * Please cite the following three references that made this development
     * possible:
     *
     *   M. Dion, H. Rydberg, E. Schroder, D. C. Langreth, and
     *   B. I. Lundqvist, Phys. Rev. Lett. 92, 246401 (2004).
     *
     *   T. Thonhauser, V. R. Cooper, S. Li, A. Puzder, P. Hyldgaard, and
     *   D. C. Langreth, Phys. Rev. B 76, 125112 (2007).
     *
     *   G. Roman-Perez and J. M. Soler, Phys. Rev. Lett. 103, 096102 (2009).
     *
     *
     * If you are using vdW-DF2, please also cite:
     *
     *   K. Lee, E. D. Murray, L. Kong, B. I. Lundqvist, and
     *   D. C. Langreth, Phys. Rev. B 82, 081101(R) (2010).
     *
     *
     * If you are calculating the stress with vdW-DF, please also cite:
     *
     *   R. Sabatini, E. Kucukbenli, B. Kolb, T. Thonhauser, and
     *   S. de Gironcoli, J. Phys.: Condens. Matter 24, 424209 (2012).
     *

     Carrying out vdW-DF run using the following parameters:

     Nqs =      20    Nr_points =    1024   r_max =   100.000
     q_mesh =
               0.00001000     0.04494208     0.09755937     0.15916263
               0.23128650     0.31572767     0.41458969     0.53033537
               0.66584808     0.82450364     1.01025438     1.22772762
               1.48234092     1.78043706     2.12944203     2.53805004
               3.01644009     3.57652955     4.23227104     5.00000000

     Gradients computed in reciprocal space

     Adding external electric field

     Computed dipole along edir(3) :
        Dipole                0.0000 Ry au,          0.0000 Debye
        Dipole field          0.0000 Ry au

        Potential amp.       -0.0000 Ry
        Total length         45.0257 bohr

     Starting wfc are   84 randomized atomic wfcs

     Self-consistent Calculation

     iteration #  1     ecut=    36.75 Ry     beta=0.10
     Davidson diagonalization with overlap
     ethr =  1.00E-02,  avg # of iterations =  3.7

[...]

     total energy              =    -915.39337751 Ry
     Harris-Foulkes estimate   =    -916.28861068 Ry
     estimated scf accuracy    <       5.03493447 Ry

[...]

     End of self-consistent calculation

          k = 0.0000 0.0000 0.0000 ( 15833 PWs)   bands (ev):

   -64.2068 -64.2010 -64.1457 -64.1404 -64.1169 -64.0559 -38.1872 -38.1444
   -38.1291 -38.1254 -38.1060 -38.0921 -38.0720 -38.0619 -38.0103 -38.0073
   -38.0045 -37.9563 -37.9459 -37.7843 -37.7374 -37.6660 -37.6392 -37.6307
    -9.0836  -7.3590  -5.5074  -4.6030  -3.4146  -3.2462  -3.1699  -2.6758
    -2.6682  -2.6354  -2.1203  -2.0787  -1.7641  -1.3452  -1.1290  -1.0571
    -0.9497  -0.9097  -0.7466  -0.7037  -0.4902  -0.1776  -0.1107  -0.0328
     0.2281   0.2434   0.3362   0.5407   0.7010   0.7394   0.8681   0.9048
     1.2651   1.3354   1.4252   1.5558   1.6794   1.7240   1.8071   1.8326
     2.3501   2.3850   2.9327   3.2768   3.2872   3.4419   3.5096   4.0358
     4.2907   4.3265   4.4272   4.4981   5.2669   5.4175

[...]

          k =-0.0939-0.0519 0.0000 ( 15888 PWs)   bands (ev):

[...]

     the Fermi energy is     0.0758 ev

!    total energy              =    -915.83354298 Ry
     Harris-Foulkes estimate   =    -915.83354296 Ry
     estimated scf accuracy    <       0.00000053 Ry

     The total energy is the sum of the following terms:

     one-electron contribution =   -5754.16586897 Ry
     hartree contribution      =    2872.10568023 Ry
     xc contribution           =    -149.08945296 Ry
     ewald contribution        =    2115.39503941 Ry
     electric field correction =       0.00000000 Ry
     smearing contrib. (-TS)   =      -0.07894069 Ry

     convergence has been achieved in  20 iterations

 BEEF-vdW xc energy contributions
           1 :   -127.417214595482
           2 :    113.531198855668
           3 :   -90.9958312441639
           4 :    67.3643266687193
           5 :   -48.7614550750911
           6 :    37.5195266127957
           7 :   -32.2461365997319
           8 :    29.7412754655380
           9 :   -27.2641736226498
          10 :    23.7999621414162
          11 :   -19.9190077926530
          12 :    16.7416835133047
          13 :   -14.9098731320075
          14 :    14.1995436714537
          15 :   -13.8429622384203
          16 :    13.1504393224707
          17 :   -11.9360812393537
          18 :    10.5045539996996
          19 :   -9.31706292672703
          20 :    8.63461942737456
          21 :   -8.37886257338999
          22 :    8.24339415818619
          23 :   -7.92635590811463
[...]
00027 suncat0172 pw.x -in pw.inp   Done                     12/18/2018 18:30:10
00028 suncat0172 pw.x -in pw.inp   Done                     12/18/2018 18:30:10
00029 suncat0172 pw.x -in pw.inp   Done                     12/18/2018 18:30:10
00030 suncat0172 pw.x -in pw.inp   Done                     12/18/2018 18:30:10
00031 suncat0172 pw.x -in pw.inp   Done                     12/18/2018 18:30:10

     Program PWSCF v.5.1rc2 (svn rev. 11289) starts on 18Dec2018 at 18:30:16

[...]

   This run was terminated on:  19: 6:32  18Dec2018

[...]

     Program PWSCF v.5.1rc2 (svn rev. 11289) starts on 18Dec2018 at 19: 6:43

[...]

     Program PWSCF v.5.1rc2 (svn rev. 11289) starts on 18Dec2018 at 19:24:54

[...]

     Found symmetry operation: I + (  0.5000  0.0000  0.0000)
     This is a supercell, fractional translations are disabled

[...]

   This run was terminated on:  19:33:55  18Dec2018

[...]

   This run was terminated on:  19:43: 3  18Dec2018

[...]

     Program PWSCF v.5.1rc2 (svn rev. 11289) starts on 18Dec2018 at 19:43: 9

     Current dimensions of program PWSCF are:
     Max number of different atomic species (ntypx) = 10
     Max number of k-points (npk) =  40000
     Max angular momentum in pseudopotentials (lmaxx) =  3
     Presently stress not available with electric field

     IMPORTANT: XC functional enforced from input :
     Exchange-correlation      = BEEF-VDW ( 1  4 27 13 2)
     Any further DFT definition will be discarded
     Please, verify this is what you really want

     Subspace diagonalization in iterative solution of the eigenvalue problem:
     a serial algorithm will be used

     bravais-lattice index     =            0
     lattice parameter (alat)  =       1.8897  a.u.
     unit-cell volume          =    4229.8645 (a.u.)^3
     number of atoms/cell      =           12
     number of atomic types    =            2
     number of electrons       =        96.00
     number of Kohn-Sham states=           78
     kinetic-energy cutoff     =      36.7493  Ry
     charge density cutoff     =     367.4932  Ry
     convergence threshold     =      1.0E-06
     mixing beta               =       0.1000
     number of iterations used =           10  plain     mixing
     Exchange-correlation      = BEEF-VDW ( 1  4 27 13 2)
     nstep                     =           50

     celldm(1)=   1.889726  celldm(2)=   0.000000  celldm(3)=   0.000000
     celldm(4)=   0.000000  celldm(5)=   0.000000  celldm(6)=   0.000000

     crystal axes: (cart. coord. in units of alat)
               a(1) = (   5.324770   0.000000   0.000000 )
               a(2) = (  -2.662385   4.816948   0.000000 )
               a(3) = (   0.000000   0.000000  24.437516 )

     reciprocal axes: (cart. coord. in units 2 pi/alat)
               b(1) = (  0.187802  0.103800  0.000000 )
               b(2) = (  0.000000  0.207600  0.000000 )
               b(3) = (  0.000000  0.000000  0.040921 )

     PseudoPot. # 1 for Al read from file:
     /afs/slac.stanford.edu/u/if/mamunm/psp/gbrv1.5pbe/Al.UPF
     MD5 check sum: 0a6289f5291fc8f409219462bc851e1f
     Pseudo is Ultrasoft + core correction, Zval =  3.0
     Generated by new atomic code, or converted to UPF format
     Using radial grid of  893 points,  3 beta functions with:
                l(1) =   0
                l(2) =   1
                l(3) =   2
     Q(r) pseudized with  8 coefficients,  rinner =    0.900   0.900   0.900
                                                       0.900   0.900

     PseudoPot. # 2 for V  read from file:
     /afs/slac.stanford.edu/u/if/mamunm/psp/gbrv1.5pbe/V.UPF
     MD5 check sum: 22b79981416ebb76fdaf5b1b8640f6fb
     Pseudo is Ultrasoft + core correction, Zval = 13.0
     Generated by new atomic code, or converted to UPF format
     Using radial grid of  853 points,  6 beta functions with:
                l(1) =   0
                l(2) =   0
                l(3) =   1
                l(4) =   1
                l(5) =   2
                l(6) =   2
     Q(r) pseudized with  8 coefficients,  rinner =    1.100   1.100   1.100
                                                       1.100   1.100

     vdW kernel table read from file vdW_kernel_table
     MD5 check sum: 095c7af220d748ca6e76c0b4c6cfb241

     atomic species   valence    mass     pseudopotential
        Al1            3.00    26.98154     Al( 1.00)
        V1            13.00    50.94150     V ( 1.00)

     No symmetry found

   Cartesian axes

     site n.     atom                  positions (alat units)
         1           Al1 tau(   1) = (   0.0000000   0.0000000  10.0000000  )
         2           Al1 tau(   2) = (   2.6623851   0.0000000  10.0000000  )
         3           V1  tau(   3) = (   1.3311925   2.4084738  10.0000000  )
         4           V1  tau(   4) = (  -1.3311925   2.4084738  10.0000000  )
         5           Al1 tau(   5) = (   2.6623851   1.4715324  12.2187579  )
         6           Al1 tau(   6) = (  -0.0000000   1.4715324  12.2187579  )
         7           V1  tau(   7) = (  -1.3311925   3.8800062  12.2187579  )
         8           V1  tau(   8) = (   1.3311925   3.8800062  12.2187579  )
         9           Al1 tau(   9) = (  -0.0000476   2.8422433  14.6127212  )
        10           Al1 tau(  10) = (   2.6624331   2.8422433  14.6127214  )
        11           V1  tau(  11) = (   3.9935778   0.3960969  14.2878139  )
        12           V1  tau(  12) = (   1.3311923   0.3961081  14.2878627  )

     number of k points=    20  Fermi-Dirac smearing, width (Ry)=  0.0110
                       cart. coord. in units 2pi/alat
        k(    1) = (   0.0000000   0.0000000   0.0000000), wk =   0.0555556
        k(    2) = (   0.0000000   0.0346001   0.0000000), wk =   0.1111111
        k(    3) = (   0.0000000   0.0692001   0.0000000), wk =   0.1111111
        k(    4) = (   0.0000000  -0.1038002   0.0000000), wk =   0.0555556
        k(    5) = (   0.0313003   0.0173000   0.0000000), wk =   0.1111111
        k(    6) = (   0.0313003   0.0519001   0.0000000), wk =   0.1111111
        k(    7) = (   0.0313003   0.0865001   0.0000000), wk =   0.1111111
        k(    8) = (   0.0313003  -0.0865001   0.0000000), wk =   0.1111111
        k(    9) = (   0.0313003  -0.0519001   0.0000000), wk =   0.1111111
        k(   10) = (   0.0313003  -0.0173000   0.0000000), wk =   0.1111111
        k(   11) = (   0.0626005   0.0346001   0.0000000), wk =   0.1111111
        k(   12) = (   0.0626005   0.0692001   0.0000000), wk =   0.1111111
        k(   13) = (   0.0626005   0.1038002   0.0000000), wk =   0.1111111
        k(   14) = (   0.0626005  -0.0692001   0.0000000), wk =   0.1111111
        k(   15) = (   0.0626005  -0.0346001   0.0000000), wk =   0.1111111
        k(   16) = (   0.0626005   0.0000000   0.0000000), wk =   0.1111111
        k(   17) = (  -0.0939008  -0.0519001   0.0000000), wk =   0.0555556
        k(   18) = (  -0.0939008  -0.0173000   0.0000000), wk =   0.1111111
        k(   19) = (  -0.0939008   0.0173000   0.0000000), wk =   0.1111111
        k(   20) = (  -0.0939008  -0.1557003   0.0000000), wk =   0.0555556

     Largest allocated arrays     est. size (Mb)     dimensions
     Largest temporary arrays     est. size (Mb)     dimensions

     Initial potential from superposition of free atoms
     Check: negative starting charge=   -0.004673

     starting charge   95.97784, renormalised to   96.00000

[...]

     *
     * You are using vdW-DF for exchange-correlation in this calculation.
     * Please cite the following three references that made this development
     * possible:
     *
     *   M. Dion, H. Rydberg, E. Schroder, D. C. Langreth, and
     *   B. I. Lundqvist, Phys. Rev. Lett. 92, 246401 (2004).
     *
     *   T. Thonhauser, V. R. Cooper, S. Li, A. Puzder, P. Hyldgaard, and
     *   D. C. Langreth, Phys. Rev. B 76, 125112 (2007).
     *
     *   G. Roman-Perez and J. M. Soler, Phys. Rev. Lett. 103, 096102 (2009).
     *
     *
     * If you are using vdW-DF2, please also cite:
     *
     *   K. Lee, E. D. Murray, L. Kong, B. I. Lundqvist, and
     *   D. C. Langreth, Phys. Rev. B 82, 081101(R) (2010).
     *
     *
     * If you are calculating the stress with vdW-DF, please also cite:
     *
     *   R. Sabatini, E. Kucukbenli, B. Kolb, T. Thonhauser, and
     *   S. de Gironcoli, J. Phys.: Condens. Matter 24, 424209 (2012).
     *

     Carrying out vdW-DF run using the following parameters:

     Nqs =      20    Nr_points =    1024   r_max =   100.000
     q_mesh =
               0.00001000     0.04494208     0.09755937     0.15916263
               0.23128650     0.31572767     0.41458969     0.53033537
               0.66584808     0.82450364     1.01025438     1.22772762
               1.48234092     1.78043706     2.12944203     2.53805004
               3.01644009     3.57652955     4.23227104     5.00000000

     Gradients computed in reciprocal space

[...]

     Starting wfc are   84 randomized atomic wfcs

     Self-consistent Calculation

[...]

     total energy              =    -915.85753956 Ry
     Harris-Foulkes estimate   =    -915.85753918 Ry
     estimated scf accuracy    <       0.00000131 Ry

     iteration # 20     ecut=    36.75 Ry     beta=0.10
     Davidson diagonalization with overlap
     ethr =  1.36E-09,  avg # of iterations =  2.0

[...]

     negative rho (up, down):  6.599E-03 0.000E+00

     Adding external electric field

     Computed dipole along edir(3) :
        Dipole               -0.0199 Ry au,         -0.0505 Debye
        Dipole field         -0.0001 Ry au

        Potential amp.        0.0053 Ry
        Total length         45.0257 bohr

     End of self-consistent calculation

[...]

          k = 0.0626 0.0000 0.0000 ( 15874 PWs)   bands (ev):

[...]

          k =-0.0939-0.1557 0.0000 ( 15888 PWs)   bands (ev):

   -64.2234 -64.2228 -64.1355 -64.1355 -64.0599 -64.0599 -38.2188 -38.2185
   -38.1178 -38.1174 -38.0363 -38.0359 -37.9987 -37.9986 -37.9501 -37.9501
   -37.9322 -37.9318 -37.9053 -37.9051 -37.8267 -37.8267 -37.6538 -37.6538
    -7.4133  -7.4132  -5.9403  -5.9401  -4.5065  -4.5064  -3.0352  -3.0352
    -2.2734  -2.2734  -1.6043  -1.6043  -1.3639  -1.3639  -0.9689  -0.9689
    -0.8594  -0.8593  -0.6883  -0.6882  -0.1682  -0.1681  -0.1004  -0.1003
     0.1650   0.1652   0.3787   0.3787   0.5665   0.5666   0.8970   0.8971
     1.0800   1.0801   1.4690   1.4690   1.7147   1.7147   1.9093   1.9094
     2.3614   2.3615   3.0078   3.0078   4.3785   4.3785   4.5724   4.5724
     5.1018   5.1018   5.3964   5.3964   5.6192   5.6192

     the Fermi energy is     0.0398 ev

!    total energy              =    -915.85753941 Ry
     Harris-Foulkes estimate   =    -915.85753955 Ry
     estimated scf accuracy    <       0.00000070 Ry

     The total energy is the sum of the following terms:

     one-electron contribution =   -5823.49226760 Ry
     hartree contribution      =    2906.75175799 Ry
     xc contribution           =    -149.09262545 Ry
     ewald contribution        =    2150.04727891 Ry
     electric field correction =       0.00000117 Ry
     smearing contrib. (-TS)   =      -0.07168445 Ry

     convergence has been achieved in  20 iterations

 BEEF-vdW xc energy contributions
           1 :   -127.427375979713
           2 :    113.551151915736
           3 :   -91.0149679045815
           4 :    67.3508023582363
           5 :   -48.6823113174926
           6 :    37.3625142563863
           7 :   -32.0265974063867
           8 :    29.4934855504358
           9 :   -27.0254559778043
          10 :    23.5931813587076
          11 :   -19.7385332438866
          12 :    16.5530357041758
          13 :   -14.6713682875033
          14 :    13.8951382920749
          15 :   -13.4988980130753
          16 :    12.8185013010545
          17 :   -11.6560504167236
          18 :    10.2773206243788
          19 :   -9.10932293622005
          20 :    8.40796392835404
          21 :   -8.11820255268080
          22 :    7.96505223790234
          23 :   -7.66470354942879
          24 :    7.09918455612657
          25 :   -6.36028416264114
          26 :    5.66065412143610
          27 :   -5.18582924425280
          28 :    4.97950157921480
          29 :   -4.92813942309687
          30 :    4.84578461386494
          31 :   -14.1648307490613
          32 :   -10.2595386192306

     Forces acting on atoms (Ry/au):

     negative rho (up, down):  6.599E-03 0.000E+00
     atom    1 type  1   force =     0.00000106   -0.00331184   -0.03055270
     atom    2 type  1   force =    -0.00000100   -0.00331182   -0.03055270
     atom    3 type  2   force =    -0.00000002    0.01145255    0.03526294
     atom    4 type  2   force =    -0.00000000    0.01145653    0.03525512
     atom    5 type  1   force =    -0.00001354    0.00405291   -0.00185859
     atom    6 type  1   force =     0.00001355    0.00405295   -0.00185862
     atom    7 type  2   force =    -0.00000000   -0.01221146   -0.00037742
     atom    8 type  2   force =    -0.00000002   -0.01223083   -0.00041039
     atom    9 type  1   force =     0.00002486    0.00023742   -0.00075720
     atom   10 type  1   force =    -0.00002493    0.00023740   -0.00075720
     atom   11 type  2   force =    -0.00000002   -0.00021090   -0.00168547
     atom   12 type  2   force =     0.00000005   -0.00021291   -0.00170777

     Total force =     0.070594     Total SCF correction =     0.001154

     entering subroutine stress ...

     negative rho (up, down):  6.599E-03 0.000E+00
          total   stress  (Ry/bohr**3)                   (kbar)     P=  -11.33
  -0.00009212   0.00000000  -0.00000000        -13.55      0.00     -0.00
   0.00000000  -0.00012070  -0.00001600          0.00    -17.76     -2.35
  -0.00000000  -0.00001600  -0.00001829         -0.00     -2.35     -2.69

 !ASE

     Writing output data file calc.save

     General routines

     Parallel routines

   This run was terminated on:  19:52: 8  18Dec2018

   JOB DONE.
Job  /afs/slac/g/suncat/bin/suncat-tsmpirun -x LD_LIBRARY_PATH -wdir /scratch/qe529624_HrzPY pw.x -in pw.inp

TID   HOST_NAME   COMMAND_LINE            STATUS            TERMINATION_TIME
00000 suncat0179 pw.x -in pw.inp   Done                     12/18/2018 19:52:08
00001 suncat0179 pw.x -in pw.inp   Done                     12/18/2018 19:52:08
00002 suncat0179 pw.x -in pw.inp   Done                     12/18/2018 19:52:08
00003 suncat0179 pw.x -in pw.inp   Done                     12/18/2018 19:52:08
00004 suncat0179 pw.x -in pw.inp   Done                     12/18/2018 19:52:08
00005 suncat0179 pw.x -in pw.inp   Done                     12/18/2018 19:52:08
00006 suncat0179 pw.x -in pw.inp   Done                     12/18/2018 19:52:08
00007 suncat0179 pw.x -in pw.inp   Done                     12/18/2018 19:52:08
00008 suncat0178 pw.x -in pw.inp   Done                     12/18/2018 19:52:08
00009 suncat0178 pw.x -in pw.inp   Done                     12/18/2018 19:52:08
00010 suncat0178 pw.x -in pw.inp   Done                     12/18/2018 19:52:08
00011 suncat0178 pw.x -in pw.inp   Done                     12/18/2018 19:52:08
00012 suncat0178 pw.x -in pw.inp   Done                     12/18/2018 19:52:08
00013 suncat0178 pw.x -in pw.inp   Done                     12/18/2018 19:52:08
00014 suncat0178 pw.x -in pw.inp   Done                     12/18/2018 19:52:08
00015 suncat0178 pw.x -in pw.inp   Done                     12/18/2018 19:52:08
00016 suncat0177 pw.x -in pw.inp   Done                     12/18/2018 19:52:08
00017 suncat0177 pw.x -in pw.inp   Done                     12/18/2018 19:52:08
00018 suncat0177 pw.x -in pw.inp   Done                     12/18/2018 19:52:08
00019 suncat0177 pw.x -in pw.inp   Done                     12/18/2018 19:52:08
00020 suncat0177 pw.x -in pw.inp   Done                     12/18/2018 19:52:08
00021 suncat0177 pw.x -in pw.inp   Done                     12/18/2018 19:52:08
00022 suncat0177 pw.x -in pw.inp   Done                     12/18/2018 19:52:08
00023 suncat0177 pw.x -in pw.inp   Done                     12/18/2018 19:52:08
00024 suncat0172 pw.x -in pw.inp   Done                     12/18/2018 19:52:08
00025 suncat0172 pw.x -in pw.inp   Done                     12/18/2018 19:52:08
00026 suncat0172 pw.x -in pw.inp   Done                     12/18/2018 19:52:08
00027 suncat0172 pw.x -in pw.inp   Done                     12/18/2018 19:52:08
00028 suncat0172 pw.x -in pw.inp   Done                     12/18/2018 19:52:08
00029 suncat0172 pw.x -in pw.inp   Done                     12/18/2018 19:52:08
00030 suncat0172 pw.x -in pw.inp   Done                     12/18/2018 19:52:08
00031 suncat0172 pw.x -in pw.inp   Done                     12/18/2018 19:52:08