     Program PWSCF v.5.1rc2 (svn rev. 11289) starts on 27Dec2018 at 13:53:44

     Current dimensions of program PWSCF are:
     Max number of different atomic species (ntypx) = 10
     Max number of k-points (npk) =  40000
     Max angular momentum in pseudopotentials (lmaxx) =  3
     Presently stress not available with electric field

     IMPORTANT: XC functional enforced from input :
     Exchange-correlation      = BEEF-VDW ( 1  4 27 13 2)
     Any further DFT definition will be discarded
     Please, verify this is what you really want

     Subspace diagonalization in iterative solution of the eigenvalue problem:
     a serial algorithm will be used

     bravais-lattice index     =            0
     lattice parameter (alat)  =       1.8897  a.u.
     unit-cell volume          =    4238.1056 (a.u.)^3
     number of atoms/cell      =           12
     number of atomic types    =            2
     number of electrons       =       192.00
     number of Kohn-Sham states=          126
     kinetic-energy cutoff     =      36.7493  Ry
     charge density cutoff     =     367.4932  Ry
     convergence threshold     =      1.0E-06
     mixing beta               =       0.1000
     number of iterations used =           10  plain     mixing
     Exchange-correlation      = BEEF-VDW ( 1  4 27 13 2)
     nstep                     =           50

     celldm(1)=   1.889726  celldm(2)=   0.000000  celldm(3)=   0.000000
     celldm(4)=   0.000000  celldm(5)=   0.000000  celldm(6)=   0.000000

     crystal axes: (cart. coord. in units of alat)
               a(1) = (   5.446403   0.000000   0.000000 )
               a(2) = (  -2.723201   4.716723   0.000000 )
               a(3) = (   0.000000   0.000000  24.446969 )

     reciprocal axes: (cart. coord. in units 2 pi/alat)
               b(1) = (  0.183607  0.106006  0.000000 )
               b(2) = (  0.000000  0.212012  0.000000 )
               b(3) = (  0.000000  0.000000  0.040905 )

     PseudoPot. # 1 for Os read from file:
     /afs/slac.stanford.edu/u/if/mamunm/psp/gbrv1.5pbe/Os.UPF
     MD5 check sum: a3fb40a04f0c37c25c34bbc47164c9a8
     Pseudo is Ultrasoft + core correction, Zval = 16.0
     Generated by new atomic code, or converted to UPF format
     Using radial grid of  983 points,  8 beta functions with:
                l(1) =   0
                l(2) =   0
                l(3) =   1
                l(4) =   1
                l(5) =   2
                l(6) =   2
                l(7) =   3
                l(8) =   3
     Q(r) pseudized with  8 coefficients,  rinner =    1.150   1.150   1.150
                                                       1.150   1.150   1.150
                                                       1.150

     PseudoPot. # 2 for Ru read from file:
     /afs/slac.stanford.edu/u/if/mamunm/psp/gbrv1.5pbe/Ru.UPF
     MD5 check sum: 7158a806dd851261a58e6920c40ebe78
     Pseudo is Ultrasoft + core correction, Zval = 16.0
     Generated by new atomic code, or converted to UPF format
     Using radial grid of  967 points,  6 beta functions with:
                l(1) =   0
                l(2) =   0
                l(3) =   1
                l(4) =   1
                l(5) =   2
                l(6) =   2
     Q(r) pseudized with  8 coefficients,  rinner =    1.300   1.300   1.300
                                                       1.300   1.300

     vdW kernel table read from file vdW_kernel_table
     MD5 check sum: 095c7af220d748ca6e76c0b4c6cfb241

     atomic species   valence    mass     pseudopotential
        Os1           16.00   190.23000     Os( 1.00)
        Ru1           16.00   101.07000     Ru( 1.00)

     No symmetry found

   Cartesian axes

     site n.     atom                  positions (alat units)
         1           Os1 tau(   1) = (   0.0000000   0.0000000  10.0000000  )
         2           Os1 tau(   2) = (  -1.3616007   2.3583616  10.0000000  )
         3           Os1 tau(   3) = (   1.3616007   2.3583616  10.0000000  )
         4           Ru1 tau(   4) = (   2.7232014   0.0000000  10.0000000  )
         5           Os1 tau(   5) = (   2.7232014   1.5722411  12.2234846  )
         6           Os1 tau(   6) = (   1.3616007   3.9306026  12.2234846  )
         7           Os1 tau(   7) = (  -1.3616007   3.9306026  12.2234846  )
         8           Ru1 tau(   8) = (   0.0000000   1.5722411  12.2234846  )
         9           Os1 tau(   9) = (  -0.0000000   3.1444821  14.4469692  )
        10           Os1 tau(  10) = (   1.3616007   0.7861205  14.4469692  )
        11           Os1 tau(  11) = (   4.0848021   0.7861205  14.4469692  )
        12           Ru1 tau(  12) = (   2.7232014   3.1444821  14.4469692  )

     number of k points=    20  Fermi-Dirac smearing, width (Ry)=  0.0110
                       cart. coord. in units 2pi/alat
        k(    1) = (   0.0000000   0.0000000   0.0000000), wk =   0.0555556
        k(    2) = (   0.0000000   0.0353353   0.0000000), wk =   0.1111111
        k(    3) = (   0.0000000   0.0706705   0.0000000), wk =   0.1111111
        k(    4) = (   0.0000000  -0.1060058   0.0000000), wk =   0.0555556
        k(    5) = (   0.0306012   0.0176676   0.0000000), wk =   0.1111111
        k(    6) = (   0.0306012   0.0530029   0.0000000), wk =   0.1111111
        k(    7) = (   0.0306012   0.0883382   0.0000000), wk =   0.1111111
        k(    8) = (   0.0306012  -0.0883382   0.0000000), wk =   0.1111111
        k(    9) = (   0.0306012  -0.0530029   0.0000000), wk =   0.1111111
        k(   10) = (   0.0306012  -0.0176676   0.0000000), wk =   0.1111111
        k(   11) = (   0.0612025   0.0353353   0.0000000), wk =   0.1111111
        k(   12) = (   0.0612025   0.0706705   0.0000000), wk =   0.1111111
        k(   13) = (   0.0612025   0.1060058   0.0000000), wk =   0.1111111
        k(   14) = (   0.0612025  -0.0706705   0.0000000), wk =   0.1111111
        k(   15) = (   0.0612025  -0.0353353   0.0000000), wk =   0.1111111
        k(   16) = (   0.0612025   0.0000000   0.0000000), wk =   0.1111111
        k(   17) = (  -0.0918037  -0.0530029   0.0000000), wk =   0.0555556
        k(   18) = (  -0.0918037  -0.0176676   0.0000000), wk =   0.1111111
        k(   19) = (  -0.0918037   0.0176676   0.0000000), wk =   0.1111111
        k(   20) = (  -0.0918037  -0.1590087   0.0000000), wk =   0.0555556

     Largest allocated arrays     est. size (Mb)     dimensions
     Largest temporary arrays     est. size (Mb)     dimensions

     Initial potential from superposition of free atoms
     Check: negative starting charge=   -1.340268

     starting charge  184.49962, renormalised to  192.00000

     negative rho (up, down):  1.395E+00 0.000E+00

     *
     * You are using vdW-DF for exchange-correlation in this calculation.
     * Please cite the following three references that made this development
     * possible:
     *
     *   M. Dion, H. Rydberg, E. Schroder, D. C. Langreth, and
     *   B. I. Lundqvist, Phys. Rev. Lett. 92, 246401 (2004).
     *
     *   T. Thonhauser, V. R. Cooper, S. Li, A. Puzder, P. Hyldgaard, and
     *   D. C. Langreth, Phys. Rev. B 76, 125112 (2007).
     *
     *   G. Roman-Perez and J. M. Soler, Phys. Rev. Lett. 103, 096102 (2009).
     *
     *
     * If you are using vdW-DF2, please also cite:
     *
     *   K. Lee, E. D. Murray, L. Kong, B. I. Lundqvist, and
     *   D. C. Langreth, Phys. Rev. B 82, 081101(R) (2010).
     *
     *
     * If you are calculating the stress with vdW-DF, please also cite:
     *
     *   R. Sabatini, E. Kucukbenli, B. Kolb, T. Thonhauser, and
     *   S. de Gironcoli, J. Phys.: Condens. Matter 24, 424209 (2012).
     *

     Carrying out vdW-DF run using the following parameters:

     Nqs =      20    Nr_points =    1024   r_max =   100.000
     q_mesh =
               0.00001000     0.04494208     0.09755937     0.15916263
               0.23128650     0.31572767     0.41458969     0.53033537
               0.66584808     0.82450364     1.01025438     1.22772762
               1.48234092     1.78043706     2.12944203     2.53805004
               3.01644009     3.57652955     4.23227104     5.00000000

     Gradients computed in reciprocal space

     Adding external electric field

     Computed dipole along edir(3) :
        Dipole               -0.0000 Ry au,         -0.0000 Debye
        Dipole field         -0.0000 Ry au

        Potential amp.        0.0000 Ry
        Total length         45.0431 bohr

     Starting wfc are  156 randomized atomic wfcs

     Self-consistent Calculation

     iteration #  1     ecut=    36.75 Ry     beta=0.10
     Davidson diagonalization with overlap
     ethr =  1.00E-02,  avg # of iterations =  8.0

[...]

     total energy              =   -2383.98329898 Ry
     Harris-Foulkes estimate   =   -2384.65013549 Ry
     estimated scf accuracy    <       4.41091573 Ry

[...]

     End of self-consistent calculation

          k = 0.0000 0.0000 0.0000 ( 15869 PWs)   bands (ev):

   -84.2743 -84.2295 -84.2295 -83.7647 -83.7638 -83.7207 -83.7207 -83.7205
   -83.7205 -70.5781 -70.0809 -70.0808 -43.9304 -43.7214 -43.7214 -43.6736
   -43.5628 -43.5628 -43.3994 -43.3817 -43.3375 -43.2385 -43.2385 -43.1642
   -43.1642 -43.0977 -43.0977 -43.0500 -42.9730 -42.9730 -42.9563 -42.9164
   -42.9164 -42.8044 -42.7922 -42.7253 -42.7253 -42.7237 -42.7237 -40.5148
   -40.4974 -40.4974 -40.0324 -40.0121 -40.0040 -40.0040 -39.9993 -39.9993
    -6.2450  -4.3693  -4.0956  -3.7617  -3.7617  -3.6980  -3.4284  -3.4284
    -3.1961  -2.8863  -2.8863  -2.8713  -2.5741  -2.5741  -2.4670  -1.2565
    -1.0698  -1.0698  -0.4175  -0.3950  -0.3950  -0.1542  -0.0197   0.0341
     0.0341   0.5489   0.5504   0.5504   0.5619   0.5619   0.8637   0.8637
     0.9528   0.9528   1.1264   1.9807   2.2996   2.4229   2.4229   2.4510
     2.4510   2.5783   2.6830   2.6830   3.2680   3.4265   3.4265   3.8333
     3.9717   3.9717   4.1301   4.1301   4.2635   4.4412   4.4412   4.4561
     4.5160   4.5160   4.7361   4.7361   5.1682   5.2502   5.2502   5.3340
     5.3340   5.7143   5.7933   6.5402   6.7459   6.7459   6.9130   7.2976
     7.3027   7.3027   7.4889   7.9793   8.8749   9.8151

[...]

          k =-0.0918-0.0530 0.0000 ( 15984 PWs)   bands (ev):

[...]

     the Fermi energy is     2.7611 ev

!    total energy              =   -2383.25308274 Ry
     Harris-Foulkes estimate   =   -2383.25307802 Ry
     estimated scf accuracy    <       0.00000023 Ry

     The total energy is the sum of the following terms:

     one-electron contribution =  -21431.88498084 Ry
     hartree contribution      =   10701.80205651 Ry
     xc contribution           =    -428.49418783 Ry
     ewald contribution        =    8775.39345044 Ry
     electric field correction =       0.00000000 Ry
     smearing contrib. (-TS)   =      -0.06942102 Ry

     convergence has been achieved in  16 iterations

 BEEF-vdW xc energy contributions
           1 :   -374.770802835885
           2 :    346.756954337654
           3 :   -297.427685559249
           4 :    237.776487863726
           5 :   -179.570104109691
           6 :    132.021916197564
           7 :   -99.6994889110417
           8 :    82.1529743269895
[...]
     Generated by new atomic code, or converted to UPF format
     Using radial grid of  983 points,  8 beta functions with:
                l(1) =   0
                l(2) =   0
                l(3) =   1
                l(4) =   1
                l(5) =   2
                l(6) =   2
                l(7) =   3
                l(8) =   3
     Q(r) pseudized with  8 coefficients,  rinner =    1.150   1.150   1.150
                                                       1.150   1.150   1.150
                                                       1.150

     PseudoPot. # 2 for Ru read from file:
     /afs/slac.stanford.edu/u/if/mamunm/psp/gbrv1.5pbe/Ru.UPF
     MD5 check sum: 7158a806dd851261a58e6920c40ebe78
     Pseudo is Ultrasoft + core correction, Zval = 16.0
     Generated by new atomic code, or converted to UPF format
     Using radial grid of  967 points,  6 beta functions with:
                l(1) =   0
                l(2) =   0
                l(3) =   1
                l(4) =   1
                l(5) =   2
                l(6) =   2
     Q(r) pseudized with  8 coefficients,  rinner =    1.300   1.300   1.300
                                                       1.300   1.300

     vdW kernel table read from file vdW_kernel_table
     MD5 check sum: 095c7af220d748ca6e76c0b4c6cfb241

     atomic species   valence    mass     pseudopotential
        Os1           16.00   190.23000     Os( 1.00)
        Ru1           16.00   101.07000     Ru( 1.00)

     No symmetry found

   Cartesian axes

     site n.     atom                  positions (alat units)
         1           Os1 tau(   1) = (   0.0000000   0.0000000  10.0000000  )
         2           Os1 tau(   2) = (  -1.3616007   2.3583616  10.0000000  )
         3           Os1 tau(   3) = (   1.3616007   2.3583616  10.0000000  )
         4           Ru1 tau(   4) = (   2.7232014   0.0000000  10.0000000  )
         5           Os1 tau(   5) = (   2.7232014   1.5722411  12.2234846  )
         6           Os1 tau(   6) = (   1.3616007   3.9306026  12.2234846  )
         7           Os1 tau(   7) = (  -1.3616007   3.9306026  12.2234846  )
         8           Ru1 tau(   8) = (   0.0000000   1.5722411  12.2234846  )
         9           Os1 tau(   9) = (   0.0000020   3.1647494  14.3452940  )
        10           Os1 tau(  10) = (   1.3791486   0.7759877  14.3452856  )
        11           Os1 tau(  11) = (   4.0672573   0.7759886  14.3452933  )
        12           Ru1 tau(  12) = (   2.7232009   3.1444824  14.3568248  )

     number of k points=    20  Fermi-Dirac smearing, width (Ry)=  0.0110
                       cart. coord. in units 2pi/alat
        k(    1) = (   0.0000000   0.0000000   0.0000000), wk =   0.0555556
        k(    2) = (   0.0000000   0.0353353   0.0000000), wk =   0.1111111
        k(    3) = (   0.0000000   0.0706705   0.0000000), wk =   0.1111111
        k(    4) = (   0.0000000  -0.1060058   0.0000000), wk =   0.0555556
        k(    5) = (   0.0306012   0.0176676   0.0000000), wk =   0.1111111
        k(    6) = (   0.0306012   0.0530029   0.0000000), wk =   0.1111111
        k(    7) = (   0.0306012   0.0883382   0.0000000), wk =   0.1111111
        k(    8) = (   0.0306012  -0.0883382   0.0000000), wk =   0.1111111
        k(    9) = (   0.0306012  -0.0530029   0.0000000), wk =   0.1111111
        k(   10) = (   0.0306012  -0.0176676   0.0000000), wk =   0.1111111
        k(   11) = (   0.0612025   0.0353353   0.0000000), wk =   0.1111111
        k(   12) = (   0.0612025   0.0706705   0.0000000), wk =   0.1111111
        k(   13) = (   0.0612025   0.1060058   0.0000000), wk =   0.1111111
        k(   14) = (   0.0612025  -0.0706705   0.0000000), wk =   0.1111111
        k(   15) = (   0.0612025  -0.0353353   0.0000000), wk =   0.1111111
        k(   16) = (   0.0612025   0.0000000   0.0000000), wk =   0.1111111
        k(   17) = (  -0.0918037  -0.0530029   0.0000000), wk =   0.0555556
        k(   18) = (  -0.0918037  -0.0176676   0.0000000), wk =   0.1111111
        k(   19) = (  -0.0918037   0.0176676   0.0000000), wk =   0.1111111
        k(   20) = (  -0.0918037  -0.1590087   0.0000000), wk =   0.0555556

     Largest allocated arrays     est. size (Mb)     dimensions
     Largest temporary arrays     est. size (Mb)     dimensions

     Initial potential from superposition of free atoms
     Check: negative starting charge=   -1.338215

     starting charge  184.49962, renormalised to  192.00000

[...]

     *
     * You are using vdW-DF for exchange-correlation in this calculation.
     * Please cite the following three references that made this development
     * possible:
     *
     *   M. Dion, H. Rydberg, E. Schroder, D. C. Langreth, and
     *   B. I. Lundqvist, Phys. Rev. Lett. 92, 246401 (2004).
     *
     *   T. Thonhauser, V. R. Cooper, S. Li, A. Puzder, P. Hyldgaard, and
     *   D. C. Langreth, Phys. Rev. B 76, 125112 (2007).
     *
     *   G. Roman-Perez and J. M. Soler, Phys. Rev. Lett. 103, 096102 (2009).
     *
     *
     * If you are using vdW-DF2, please also cite:
     *
     *   K. Lee, E. D. Murray, L. Kong, B. I. Lundqvist, and
     *   D. C. Langreth, Phys. Rev. B 82, 081101(R) (2010).
     *
     *
     * If you are calculating the stress with vdW-DF, please also cite:
     *
     *   R. Sabatini, E. Kucukbenli, B. Kolb, T. Thonhauser, and
     *   S. de Gironcoli, J. Phys.: Condens. Matter 24, 424209 (2012).
     *

     Carrying out vdW-DF run using the following parameters:

     Nqs =      20    Nr_points =    1024   r_max =   100.000
     q_mesh =
               0.00001000     0.04494208     0.09755937     0.15916263
               0.23128650     0.31572767     0.41458969     0.53033537
               0.66584808     0.82450364     1.01025438     1.22772762
               1.48234092     1.78043706     2.12944203     2.53805004
               3.01644009     3.57652955     4.23227104     5.00000000

     Gradients computed in reciprocal space

[...]

     Starting wfc are  156 randomized atomic wfcs

     Self-consistent Calculation

[...]

     total energy              =   -2383.26947509 Ry
     Harris-Foulkes estimate   =   -2383.26947463 Ry
     estimated scf accuracy    <       0.00001252 Ry

     iteration # 15     ecut=    36.75 Ry     beta=0.10
     Davidson diagonalization with overlap
     ethr =  6.52E-09,  avg # of iterations =  1.1

[...]

     negative rho (up, down):  1.361E+00 0.000E+00

     Adding external electric field

     Computed dipole along edir(3) :
        Dipole                0.0237 Ry au,          0.0603 Debye
        Dipole field          0.0001 Ry au

        Potential amp.       -0.0063 Ry
        Total length         45.0431 bohr

     End of self-consistent calculation

[...]

          k = 0.0612 0.0000 0.0000 ( 15938 PWs)   bands (ev):

[...]

          k =-0.0918-0.1590 0.0000 ( 15984 PWs)   bands (ev):

   -84.2783 -84.2632 -84.2480 -83.7730 -83.7570 -83.7429 -83.6863 -83.6717
   -83.6571 -70.5934 -70.0950 -70.0262 -43.8390 -43.6937 -43.6709 -43.6217
   -43.5927 -43.5843 -43.5408 -43.5265 -43.2850 -43.2702 -43.1898 -43.0582
   -43.0104 -43.0087 -43.0086 -42.9981 -42.9733 -42.9640 -42.9546 -42.9272
   -42.9125 -42.9121 -42.8894 -42.8688 -42.8626 -42.7696 -42.6832 -40.5514
   -40.5305 -40.5282 -40.0558 -40.0492 -40.0320 -39.9831 -39.9663 -39.9600
    -4.6614  -4.2937  -3.0239  -2.9959  -2.8014  -2.7380  -2.6778  -2.6454
    -2.5535  -2.2585  -2.1058  -2.0199  -1.7630  -1.5648  -1.4939  -1.4891
    -1.2638  -1.1589  -1.0876  -0.9841  -0.6338  -0.5591  -0.1119  -0.0314
     0.1575   0.2426   0.2819   0.3705   0.3721   0.3976   0.5282   0.5650
     0.6582   0.7695   0.7841   0.7853   0.8069   0.8399   0.8459   0.9623
     1.6070   1.7012   1.8975   1.9595   2.0904   2.1494   2.3123   2.4606
     2.5855   2.7601   2.8690   2.9549   2.9559   3.1502   3.2243   3.3555
     3.3917   3.6000   4.1220   4.1573   4.6673   4.7179   4.7561   5.2085
     5.6381   5.6911   6.8083   7.2690   7.3941   7.7295   7.8902   8.0201
     8.9377   8.9498   9.0892   9.1297   9.5927   9.6191

     the Fermi energy is     2.7843 ev

!    total energy              =   -2383.26948158 Ry
     Harris-Foulkes estimate   =   -2383.26947590 Ry
     estimated scf accuracy    <       0.00000087 Ry

     The total energy is the sum of the following terms:

     one-electron contribution =  -21736.00559338 Ry
     hartree contribution      =   10853.83711354 Ry
     xc contribution           =    -428.76465949 Ry
     ewald contribution        =    8927.72920676 Ry
     electric field correction =       0.00000167 Ry
     smearing contrib. (-TS)   =      -0.06555067 Ry

     convergence has been achieved in  15 iterations

 BEEF-vdW xc energy contributions
           1 :   -375.045894271569
           2 :    347.132226129406
           3 :   -297.944984033003
           4 :    238.390544353879
           5 :   -180.163197546142
           6 :    132.456157854471
           7 :   -99.8822236113136
           8 :    82.0843618857451
           9 :   -74.9441571658012
          10 :    72.7461438272919
          11 :   -70.4151746517837
          12 :    65.0373661466293
          13 :   -56.2805892938866
          14 :    45.7903635112648
          15 :   -35.9983028708332
          16 :    28.8971331015854
          17 :   -25.2497305895182
          18 :    24.4518200480854
          19 :   -24.9902245863294
          20 :    25.2086427721928
          21 :   -24.0146660226448
          22 :    21.2360732314745
          23 :   -17.5299519001408
          24 :    13.9480896529917
          25 :   -11.3970444537800
          26 :    10.2413764864301
          27 :   -10.2075423306869
          28 :    10.5904575034360
          29 :   -10.6328895920084
          30 :    9.88249655044928
          31 :   -36.1176567007156
          32 :   -27.5643263277573

     Forces acting on atoms (Ry/au):

     negative rho (up, down):  1.361E+00 0.000E+00
     atom    1 type  1   force =    -0.00000390   -0.00745564    0.03071819
     atom    2 type  1   force =    -0.00645513    0.00372653    0.03071656
     atom    3 type  1   force =     0.00645773    0.00372879    0.03071691
     atom    4 type  2   force =    -0.00000000    0.00000021    0.02200300
     atom    5 type  1   force =     0.00000161    0.00151216   -0.02889933
     atom    6 type  1   force =     0.00130845   -0.00075705   -0.02889940
     atom    7 type  1   force =    -0.00130909   -0.00075654   -0.02889990
     atom    8 type  2   force =     0.00000014    0.00000105   -0.02720992
     atom    9 type  1   force =    -0.00000104   -0.00020033   -0.00006237
     atom   10 type  1   force =    -0.00017278    0.00010036   -0.00006118
     atom   11 type  1   force =     0.00017284    0.00010052   -0.00006219
     atom   12 type  2   force =     0.00000116   -0.00000007   -0.00006037

     Total force =     0.082064     Total SCF correction =     0.003065

     entering subroutine stress ...

     negative rho (up, down):  1.361E+00 0.000E+00
          total   stress  (Ry/bohr**3)                   (kbar)     P=  -28.04
  -0.00022462  -0.00000000  -0.00000000        -33.04     -0.00     -0.00
  -0.00000000  -0.00022461  -0.00000000         -0.00    -33.04     -0.00
  -0.00000000  -0.00000000  -0.00012251         -0.00     -0.00    -18.02

 !ASE

     Writing output data file calc.save

     General routines

     Parallel routines

   This run was terminated on:  14:38:28  27Dec2018

   JOB DONE.
Job  /afs/slac/g/suncat/bin/suncat-tsmpirun -x LD_LIBRARY_PATH -wdir /scratch/qe110348_rEQk5 pw.x -in pw.inp

TID   HOST_NAME   COMMAND_LINE            STATUS            TERMINATION_TIME
00000 suncat0108 pw.x -in pw.inp   Done                     12/27/2018 14:38:28
00001 suncat0108 pw.x -in pw.inp   Done                     12/27/2018 14:38:28
00002 suncat0108 pw.x -in pw.inp   Done                     12/27/2018 14:38:28
00003 suncat0108 pw.x -in pw.inp   Done                     12/27/2018 14:38:28
00004 suncat0108 pw.x -in pw.inp   Done                     12/27/2018 14:38:28
00005 suncat0108 pw.x -in pw.inp   Done                     12/27/2018 14:38:28
00006 suncat0108 pw.x -in pw.inp   Done                     12/27/2018 14:38:28
00007 suncat0108 pw.x -in pw.inp   Done                     12/27/2018 14:38:28
00008 suncat0107 pw.x -in pw.inp   Done                     12/27/2018 14:38:28
00009 suncat0107 pw.x -in pw.inp   Done                     12/27/2018 14:38:28
00010 suncat0107 pw.x -in pw.inp   Done                     12/27/2018 14:38:28
00011 suncat0107 pw.x -in pw.inp   Done                     12/27/2018 14:38:28
00012 suncat0107 pw.x -in pw.inp   Done                     12/27/2018 14:38:28
00013 suncat0107 pw.x -in pw.inp   Done                     12/27/2018 14:38:28
00014 suncat0107 pw.x -in pw.inp   Done                     12/27/2018 14:38:28
00015 suncat0107 pw.x -in pw.inp   Done                     12/27/2018 14:38:28
00016 suncat0106 pw.x -in pw.inp   Done                     12/27/2018 14:38:28
00017 suncat0106 pw.x -in pw.inp   Done                     12/27/2018 14:38:28
00018 suncat0106 pw.x -in pw.inp   Done                     12/27/2018 14:38:28
00019 suncat0106 pw.x -in pw.inp   Done                     12/27/2018 14:38:28
00020 suncat0106 pw.x -in pw.inp   Done                     12/27/2018 14:38:28
00021 suncat0106 pw.x -in pw.inp   Done                     12/27/2018 14:38:28
00022 suncat0106 pw.x -in pw.inp   Done                     12/27/2018 14:38:28
00023 suncat0106 pw.x -in pw.inp   Done                     12/27/2018 14:38:28
00024 suncat0105 pw.x -in pw.inp   Done                     12/27/2018 14:38:28
00025 suncat0105 pw.x -in pw.inp   Done                     12/27/2018 14:38:28
00026 suncat0105 pw.x -in pw.inp   Done                     12/27/2018 14:38:28
00027 suncat0105 pw.x -in pw.inp   Done                     12/27/2018 14:38:28
00028 suncat0105 pw.x -in pw.inp   Done                     12/27/2018 14:38:28
00029 suncat0105 pw.x -in pw.inp   Done                     12/27/2018 14:38:28
00030 suncat0105 pw.x -in pw.inp   Done                     12/27/2018 14:38:28
00031 suncat0105 pw.x -in pw.inp   Done                     12/27/2018 14:38:28
00032 suncat0238 pw.x -in pw.inp   Done                     12/27/2018 14:38:28
00033 suncat0238 pw.x -in pw.inp   Done                     12/27/2018 14:38:28
00034 suncat0238 pw.x -in pw.inp   Done                     12/27/2018 14:38:28
00035 suncat0238 pw.x -in pw.inp   Done                     12/27/2018 14:38:28
00036 suncat0238 pw.x -in pw.inp   Done                     12/27/2018 14:38:28
00037 suncat0238 pw.x -in pw.inp   Done                     12/27/2018 14:38:28
00038 suncat0238 pw.x -in pw.inp   Done                     12/27/2018 14:38:28
00039 suncat0238 pw.x -in pw.inp   Done                     12/27/2018 14:38:28
00040 suncat0237 pw.x -in pw.inp   Done                     12/27/2018 14:38:28
00041 suncat0237 pw.x -in pw.inp   Done                     12/27/2018 14:38:28
00042 suncat0237 pw.x -in pw.inp   Done                     12/27/2018 14:38:28
00043 suncat0237 pw.x -in pw.inp   Done                     12/27/2018 14:38:28
00044 suncat0237 pw.x -in pw.inp   Done                     12/27/2018 14:38:28
00045 suncat0237 pw.x -in pw.inp   Done                     12/27/2018 14:38:28
00046 suncat0237 pw.x -in pw.inp   Done                     12/27/2018 14:38:28
00047 suncat0237 pw.x -in pw.inp   Done                     12/27/2018 14:38:28
00048 suncat0236 pw.x -in pw.inp   Done                     12/27/2018 14:38:28
00049 suncat0236 pw.x -in pw.inp   Done                     12/27/2018 14:38:28
00050 suncat0236 pw.x -in pw.inp   Done                     12/27/2018 14:38:28
00051 suncat0236 pw.x -in pw.inp   Done                     12/27/2018 14:38:28
00052 suncat0236 pw.x -in pw.inp   Done                     12/27/2018 14:38:28
00053 suncat0236 pw.x -in pw.inp   Done                     12/27/2018 14:38:28
00054 suncat0236 pw.x -in pw.inp   Done                     12/27/2018 14:38:28
00055 suncat0236 pw.x -in pw.inp   Done                     12/27/2018 14:38:28
00056 suncat0235 pw.x -in pw.inp   Done                     12/27/2018 14:38:28
00057 suncat0235 pw.x -in pw.inp   Done                     12/27/2018 14:38:28
00058 suncat0235 pw.x -in pw.inp   Done                     12/27/2018 14:38:28
00059 suncat0235 pw.x -in pw.inp   Done                     12/27/2018 14:38:28
00060 suncat0235 pw.x -in pw.inp   Done                     12/27/2018 14:38:28
00061 suncat0235 pw.x -in pw.inp   Done                     12/27/2018 14:38:28
00062 suncat0235 pw.x -in pw.inp   Done                     12/27/2018 14:38:28
00063 suncat0235 pw.x -in pw.inp   Done                     12/27/2018 14:38:28