     Program PWSCF v.5.1rc2 (svn rev. 11289) starts on 19Dec2018 at  7: 5:21

     Current dimensions of program PWSCF are:
     Max number of different atomic species (ntypx) = 10
     Max number of k-points (npk) =  40000
     Max angular momentum in pseudopotentials (lmaxx) =  3
     Presently stress not available with electric field

     IMPORTANT: XC functional enforced from input :
     Exchange-correlation      = BEEF-VDW ( 1  4 27 13 2)
     Any further DFT definition will be discarded
     Please, verify this is what you really want

     Subspace diagonalization in iterative solution of the eigenvalue problem:
     a serial algorithm will be used

     Found symmetry operation: I + ( -0.5000  0.0000  0.0000)
     This is a supercell, fractional translations are disabled

     bravais-lattice index     =            0
     lattice parameter (alat)  =       1.8897  a.u.
     unit-cell volume          =    4937.2427 (a.u.)^3
     number of atoms/cell      =           12
     number of atomic types    =            2
     number of electrons       =       162.00
     number of Kohn-Sham states=          111
     kinetic-energy cutoff     =      36.7493  Ry
     charge density cutoff     =     367.4932  Ry
     convergence threshold     =      1.0E-06
     mixing beta               =       0.1000
     number of iterations used =           10  plain     mixing
     Exchange-correlation      = BEEF-VDW ( 1  4 27 13 2)
     nstep                     =           50

     celldm(1)=   1.889726  celldm(2)=   0.000000  celldm(3)=   0.000000
     celldm(4)=   0.000000  celldm(5)=   0.000000  celldm(6)=   0.000000

     crystal axes: (cart. coord. in units of alat)
               a(1) = (   5.448873   0.000000   0.000000 )
               a(2) = (  -2.724436   5.432928   0.000000 )
               a(3) = (   0.000000   0.000000  24.714237 )

     reciprocal axes: (cart. coord. in units 2 pi/alat)
               b(1) = (  0.183524  0.092031  0.000000 )
               b(2) = (  0.000000  0.184063  0.000000 )
               b(3) = (  0.000000  0.000000  0.040463 )

     PseudoPot. # 1 for Ta read from file:
     /afs/slac.stanford.edu/u/if/mamunm/psp/gbrv1.5pbe/Ta.UPF
     MD5 check sum: f8bbe9446314a3b8ea5d9f3e3836c939
     Pseudo is Ultrasoft + core correction, Zval = 13.0
     Generated by new atomic code, or converted to UPF format
     Using radial grid of  921 points,  7 beta functions with:
                l(1) =   0
                l(2) =   0
                l(3) =   1
                l(4) =   1
                l(5) =   2
                l(6) =   2
                l(7) =   3
     Q(r) pseudized with  6 coefficients,  rinner =    1.300   1.300   1.300
                                                       1.300   1.300   1.300
                                                       1.300

     PseudoPot. # 2 for W  read from file:
     /afs/slac.stanford.edu/u/if/mamunm/psp/gbrv1.5pbe/W.UPF
     MD5 check sum: 9c083fa34c2a2ea0f02f1f893e16e1c8
     Pseudo is Ultrasoft + core correction, Zval = 14.0
     Generated by new atomic code, or converted to UPF format
     Using radial grid of  923 points,  8 beta functions with:
                l(1) =   0
                l(2) =   0
                l(3) =   0
                l(4) =   1
                l(5) =   1
                l(6) =   2
                l(7) =   2
                l(8) =   3
     Q(r) pseudized with  6 coefficients,  rinner =    1.350   1.350   1.350
                                                       1.350   1.350   1.350
                                                       1.350

     vdW kernel table read from file vdW_kernel_table
     MD5 check sum: 095c7af220d748ca6e76c0b4c6cfb241

     atomic species   valence    mass     pseudopotential
        Ta1           13.00   180.94788     Ta( 1.00)
        W1            14.00   183.84000     W ( 1.00)

     No symmetry found

   Cartesian axes

     site n.     atom                  positions (alat units)
         1           Ta1 tau(   1) = (   0.0000000   0.0000000  10.0000000  )
         2           Ta1 tau(   2) = (   2.7244364   0.0000000  10.0000000  )
         3           W1  tau(   3) = (   1.3622182   2.7164642  10.0000000  )
         4           W1  tau(   4) = (  -1.3622182   2.7164642  10.0000000  )
         5           Ta1 tau(   5) = (   2.7244364   1.3662160  12.3571185  )
         6           Ta1 tau(   6) = (  -0.0000000   1.3662160  12.3571185  )
         7           W1  tau(   7) = (  -1.3622182   4.0826803  12.3571185  )
         8           W1  tau(   8) = (   1.3622182   4.0826803  12.3571185  )
         9           Ta1 tau(   9) = (   0.0000000   2.7324321  14.7142370  )
        10           Ta1 tau(  10) = (   2.7244364   2.7324321  14.7142370  )
        11           W1  tau(  11) = (   4.0866547   0.0159678  14.7142370  )
        12           W1  tau(  12) = (   1.3622182   0.0159678  14.7142370  )

     number of k points=    20  Fermi-Dirac smearing, width (Ry)=  0.0110
                       cart. coord. in units 2pi/alat
        k(    1) = (   0.0000000   0.0000000   0.0000000), wk =   0.0555556
        k(    2) = (   0.0000000   0.0306771   0.0000000), wk =   0.1111111
        k(    3) = (   0.0000000   0.0613543   0.0000000), wk =   0.1111111
        k(    4) = (   0.0000000  -0.0920314   0.0000000), wk =   0.0555556
        k(    5) = (   0.0305874   0.0153386   0.0000000), wk =   0.1111111
        k(    6) = (   0.0305874   0.0460157   0.0000000), wk =   0.1111111
        k(    7) = (   0.0305874   0.0766928   0.0000000), wk =   0.1111111
        k(    8) = (   0.0305874  -0.0766928   0.0000000), wk =   0.1111111
        k(    9) = (   0.0305874  -0.0460157   0.0000000), wk =   0.1111111
        k(   10) = (   0.0305874  -0.0153386   0.0000000), wk =   0.1111111
        k(   11) = (   0.0611747   0.0306771   0.0000000), wk =   0.1111111
        k(   12) = (   0.0611747   0.0613543   0.0000000), wk =   0.1111111
        k(   13) = (   0.0611747   0.0920314   0.0000000), wk =   0.1111111
        k(   14) = (   0.0611747  -0.0613543   0.0000000), wk =   0.1111111
        k(   15) = (   0.0611747  -0.0306771   0.0000000), wk =   0.1111111
        k(   16) = (   0.0611747   0.0000000   0.0000000), wk =   0.1111111
        k(   17) = (  -0.0917621  -0.0460157   0.0000000), wk =   0.0555556
        k(   18) = (  -0.0917621  -0.0153386   0.0000000), wk =   0.1111111
        k(   19) = (  -0.0917621   0.0153386   0.0000000), wk =   0.1111111
        k(   20) = (  -0.0917621  -0.1380471   0.0000000), wk =   0.0555556

     Largest allocated arrays     est. size (Mb)     dimensions
     Largest temporary arrays     est. size (Mb)     dimensions

     Initial potential from superposition of free atoms
     Check: negative starting charge=   -0.947228

     starting charge  161.39129, renormalised to  162.00000

     negative rho (up, down):  9.508E-01 0.000E+00

     *
     * You are using vdW-DF for exchange-correlation in this calculation.
     * Please cite the following three references that made this development
     * possible:
     *
     *   M. Dion, H. Rydberg, E. Schroder, D. C. Langreth, and
     *   B. I. Lundqvist, Phys. Rev. Lett. 92, 246401 (2004).
     *
     *   T. Thonhauser, V. R. Cooper, S. Li, A. Puzder, P. Hyldgaard, and
     *   D. C. Langreth, Phys. Rev. B 76, 125112 (2007).
     *
     *   G. Roman-Perez and J. M. Soler, Phys. Rev. Lett. 103, 096102 (2009).
     *
     *
     * If you are using vdW-DF2, please also cite:
     *
     *   K. Lee, E. D. Murray, L. Kong, B. I. Lundqvist, and
     *   D. C. Langreth, Phys. Rev. B 82, 081101(R) (2010).
     *
     *
     * If you are calculating the stress with vdW-DF, please also cite:
     *
     *   R. Sabatini, E. Kucukbenli, B. Kolb, T. Thonhauser, and
     *   S. de Gironcoli, J. Phys.: Condens. Matter 24, 424209 (2012).
     *

     Carrying out vdW-DF run using the following parameters:

     Nqs =      20    Nr_points =    1024   r_max =   100.000
     q_mesh =
               0.00001000     0.04494208     0.09755937     0.15916263
               0.23128650     0.31572767     0.41458969     0.53033537
               0.66584808     0.82450364     1.01025438     1.22772762
               1.48234092     1.78043706     2.12944203     2.53805004
               3.01644009     3.57652955     4.23227104     5.00000000

     Gradients computed in reciprocal space

     Adding external electric field

     Computed dipole along edir(3) :
        Dipole                0.0000 Ry au,          0.0000 Debye
        Dipole field          0.0000 Ry au

        Potential amp.       -0.0000 Ry
        Total length         45.5356 bohr

     Starting wfc are  156 randomized atomic wfcs

     Self-consistent Calculation

     iteration #  1     ecut=    36.75 Ry     beta=0.10
     Davidson diagonalization with overlap
     ethr =  1.00E-02,  avg # of iterations =  2.0

[...]

     total energy              =   -1821.30531972 Ry
     Harris-Foulkes estimate   =   -1821.84483424 Ry
     estimated scf accuracy    <       3.18506824 Ry

[...]

     iteration # 12     ecut=    36.75 Ry     beta=0.10
     Davidson diagonalization with overlap
     c_bands:  1 eigenvalues not converged
     ethr =  3.10E-08,  avg # of iterations =  3.3

[...]

     End of self-consistent calculation

          k = 0.0000 0.0000 0.0000 ( 18445 PWs)   bands (ev):

   -72.2456 -72.1849 -72.0892 -72.0861 -72.0292 -72.0264 -66.0575 -66.0531
   -65.9710 -65.9667 -65.8418 -65.7540 -36.7609 -36.6126 -36.5045 -36.4990
   -36.4965 -36.3657 -36.2605 -36.2529 -36.1881 -36.1639 -36.1629 -36.0794
   -36.0538 -35.9507 -35.8682 -35.8649 -35.6255 -35.6217 -32.8907 -32.8665
   -32.8054 -32.7711 -32.6649 -32.5536 -32.4195 -32.3930 -32.3514 -32.2753
   -32.2317 -32.2274 -32.1053 -31.9272 -31.8121 -31.7319 -31.7182 -31.6238
    -5.6991  -3.9449  -3.0216  -2.6075  -2.4460  -2.3928  -2.3151  -2.2635
    -2.1210  -1.6561  -1.3725  -1.3117  -1.2749  -1.2746  -1.2146  -0.2924
    -0.0095   0.1028   0.1448   0.7202   0.7914   0.7998   0.8175   1.3057
     1.3431   1.4789   1.8733   1.9613   2.2002   2.3211   2.4614   2.4998
     2.6543   2.6959   3.1944   3.2741   3.2800   3.3999   3.4178   3.4250
     3.7915   3.8426   3.9726   4.1565   4.3088   4.3109   4.6881   4.6920
     4.8426   4.8732   5.2006   5.4327   5.5771   5.9330   6.2441   6.2892
     6.4211   6.4563   6.5586   6.7437   6.7688   6.8346   7.1034

[...]

          k =-0.0918-0.0460 0.0000 ( 18592 PWs)   bands (ev):

[...]

     the Fermi energy is     2.1225 ev

!    total energy              =   -1821.50966169 Ry
     Harris-Foulkes estimate   =   -1821.50966130 Ry
     estimated scf accuracy    <       0.00000090 Ry

     The total energy is the sum of the following terms:

     one-electron contribution =  -12929.54163605 Ry
     hartree contribution      =    6446.88866551 Ry
     xc contribution           =    -516.64476291 Ry
     ewald contribution        =    5177.87277760 Ry
     electric field correction =       0.00000001 Ry
     smearing contrib. (-TS)   =      -0.08470585 Ry

     convergence has been achieved in  15 iterations

 BEEF-vdW xc energy contributions
[...]
00030 suncat2042 pw.x -in pw.inp   Done                     12/19/2018 07:10:18
00031 suncat2042 pw.x -in pw.inp   Done                     12/19/2018 07:10:18

     Program PWSCF v.5.1rc2 (svn rev. 11289) starts on 19Dec2018 at  7:10:25

[...]

   This run was terminated on:   7:14:52  19Dec2018

[...]

     Program PWSCF v.5.1rc2 (svn rev. 11289) starts on 19Dec2018 at  7:15: 0

     Current dimensions of program PWSCF are:
     Max number of different atomic species (ntypx) = 10
     Max number of k-points (npk) =  40000
     Max angular momentum in pseudopotentials (lmaxx) =  3
     Presently stress not available with electric field

     IMPORTANT: XC functional enforced from input :
     Exchange-correlation      = BEEF-VDW ( 1  4 27 13 2)
     Any further DFT definition will be discarded
     Please, verify this is what you really want

     Subspace diagonalization in iterative solution of the eigenvalue problem:
     a serial algorithm will be used

     Found symmetry operation: I + ( -0.5000  0.0000  0.0000)
     This is a supercell, fractional translations are disabled

     bravais-lattice index     =            0
     lattice parameter (alat)  =       1.8897  a.u.
     unit-cell volume          =    4937.2427 (a.u.)^3
     number of atoms/cell      =           12
     number of atomic types    =            2
     number of electrons       =       162.00
     number of Kohn-Sham states=          111
     kinetic-energy cutoff     =      36.7493  Ry
     charge density cutoff     =     367.4932  Ry
     convergence threshold     =      1.0E-06
     mixing beta               =       0.1000
     number of iterations used =           10  plain     mixing
     Exchange-correlation      = BEEF-VDW ( 1  4 27 13 2)
     nstep                     =           50

     celldm(1)=   1.889726  celldm(2)=   0.000000  celldm(3)=   0.000000
     celldm(4)=   0.000000  celldm(5)=   0.000000  celldm(6)=   0.000000

     crystal axes: (cart. coord. in units of alat)
               a(1) = (   5.448873   0.000000   0.000000 )
               a(2) = (  -2.724436   5.432928   0.000000 )
               a(3) = (   0.000000   0.000000  24.714237 )

     reciprocal axes: (cart. coord. in units 2 pi/alat)
               b(1) = (  0.183524  0.092031  0.000000 )
               b(2) = (  0.000000  0.184063  0.000000 )
               b(3) = (  0.000000  0.000000  0.040463 )

     PseudoPot. # 1 for Ta read from file:
     /afs/slac.stanford.edu/u/if/mamunm/psp/gbrv1.5pbe/Ta.UPF
     MD5 check sum: f8bbe9446314a3b8ea5d9f3e3836c939
     Pseudo is Ultrasoft + core correction, Zval = 13.0
     Generated by new atomic code, or converted to UPF format
     Using radial grid of  921 points,  7 beta functions with:
                l(1) =   0
                l(2) =   0
                l(3) =   1
                l(4) =   1
                l(5) =   2
                l(6) =   2
                l(7) =   3
     Q(r) pseudized with  6 coefficients,  rinner =    1.300   1.300   1.300
                                                       1.300   1.300   1.300
                                                       1.300

     PseudoPot. # 2 for W  read from file:
     /afs/slac.stanford.edu/u/if/mamunm/psp/gbrv1.5pbe/W.UPF
     MD5 check sum: 9c083fa34c2a2ea0f02f1f893e16e1c8
     Pseudo is Ultrasoft + core correction, Zval = 14.0
     Generated by new atomic code, or converted to UPF format
     Using radial grid of  923 points,  8 beta functions with:
                l(1) =   0
                l(2) =   0
                l(3) =   0
                l(4) =   1
                l(5) =   1
                l(6) =   2
                l(7) =   2
                l(8) =   3
     Q(r) pseudized with  6 coefficients,  rinner =    1.350   1.350   1.350
                                                       1.350   1.350   1.350
                                                       1.350

     vdW kernel table read from file vdW_kernel_table
     MD5 check sum: 095c7af220d748ca6e76c0b4c6cfb241

     atomic species   valence    mass     pseudopotential
        Ta1           13.00   180.94788     Ta( 1.00)
        W1            14.00   183.84000     W ( 1.00)

     No symmetry found

   Cartesian axes

     site n.     atom                  positions (alat units)
         1           Ta1 tau(   1) = (   0.0000000   0.0000000  10.0000000  )
         2           Ta1 tau(   2) = (   2.7244364   0.0000000  10.0000000  )
         3           W1  tau(   3) = (   1.3622182   2.7164642  10.0000000  )
         4           W1  tau(   4) = (  -1.3622182   2.7164642  10.0000000  )
         5           Ta1 tau(   5) = (   2.7244364   1.3662160  12.3571185  )
         6           Ta1 tau(   6) = (  -0.0000000   1.3662160  12.3571185  )
         7           W1  tau(   7) = (  -1.3622182   4.0826803  12.3571185  )
         8           W1  tau(   8) = (   1.3622182   4.0826803  12.3571185  )
         9           Ta1 tau(   9) = (  -0.0000029   2.7534352  14.7476260  )
        10           Ta1 tau(  10) = (   2.7244325   2.7534510  14.7476361  )
        11           W1  tau(  11) = (   1.3622392   5.4261129  14.6063897  )
        12           W1  tau(  12) = (  -1.3622345   5.4261099  14.6063836  )

     number of k points=    20  Fermi-Dirac smearing, width (Ry)=  0.0110
                       cart. coord. in units 2pi/alat
        k(    1) = (   0.0000000   0.0000000   0.0000000), wk =   0.0555556
        k(    2) = (   0.0000000   0.0306771   0.0000000), wk =   0.1111111
        k(    3) = (   0.0000000   0.0613543   0.0000000), wk =   0.1111111
        k(    4) = (   0.0000000  -0.0920314   0.0000000), wk =   0.0555556
        k(    5) = (   0.0305874   0.0153386   0.0000000), wk =   0.1111111
        k(    6) = (   0.0305874   0.0460157   0.0000000), wk =   0.1111111
        k(    7) = (   0.0305874   0.0766928   0.0000000), wk =   0.1111111
        k(    8) = (   0.0305874  -0.0766928   0.0000000), wk =   0.1111111
        k(    9) = (   0.0305874  -0.0460157   0.0000000), wk =   0.1111111
        k(   10) = (   0.0305874  -0.0153386   0.0000000), wk =   0.1111111
        k(   11) = (   0.0611747   0.0306771   0.0000000), wk =   0.1111111
        k(   12) = (   0.0611747   0.0613543   0.0000000), wk =   0.1111111
        k(   13) = (   0.0611747   0.0920314   0.0000000), wk =   0.1111111
        k(   14) = (   0.0611747  -0.0613543   0.0000000), wk =   0.1111111
        k(   15) = (   0.0611747  -0.0306771   0.0000000), wk =   0.1111111
        k(   16) = (   0.0611747   0.0000000   0.0000000), wk =   0.1111111
        k(   17) = (  -0.0917621  -0.0460157   0.0000000), wk =   0.0555556
        k(   18) = (  -0.0917621  -0.0153386   0.0000000), wk =   0.1111111
        k(   19) = (  -0.0917621   0.0153386   0.0000000), wk =   0.1111111
        k(   20) = (  -0.0917621  -0.1380471   0.0000000), wk =   0.0555556

     Largest allocated arrays     est. size (Mb)     dimensions
     Largest temporary arrays     est. size (Mb)     dimensions

     Initial potential from superposition of free atoms
     Check: negative starting charge=   -0.948572

     starting charge  161.39129, renormalised to  162.00000

[...]

     *
     * You are using vdW-DF for exchange-correlation in this calculation.
     * Please cite the following three references that made this development
     * possible:
     *
     *   M. Dion, H. Rydberg, E. Schroder, D. C. Langreth, and
     *   B. I. Lundqvist, Phys. Rev. Lett. 92, 246401 (2004).
     *
     *   T. Thonhauser, V. R. Cooper, S. Li, A. Puzder, P. Hyldgaard, and
     *   D. C. Langreth, Phys. Rev. B 76, 125112 (2007).
     *
     *   G. Roman-Perez and J. M. Soler, Phys. Rev. Lett. 103, 096102 (2009).
     *
     *
     * If you are using vdW-DF2, please also cite:
     *
     *   K. Lee, E. D. Murray, L. Kong, B. I. Lundqvist, and
     *   D. C. Langreth, Phys. Rev. B 82, 081101(R) (2010).
     *
     *
     * If you are calculating the stress with vdW-DF, please also cite:
     *
     *   R. Sabatini, E. Kucukbenli, B. Kolb, T. Thonhauser, and
     *   S. de Gironcoli, J. Phys.: Condens. Matter 24, 424209 (2012).
     *

     Carrying out vdW-DF run using the following parameters:

     Nqs =      20    Nr_points =    1024   r_max =   100.000
     q_mesh =
               0.00001000     0.04494208     0.09755937     0.15916263
               0.23128650     0.31572767     0.41458969     0.53033537
               0.66584808     0.82450364     1.01025438     1.22772762
               1.48234092     1.78043706     2.12944203     2.53805004
               3.01644009     3.57652955     4.23227104     5.00000000

     Gradients computed in reciprocal space

[...]

     Starting wfc are  156 randomized atomic wfcs

     Self-consistent Calculation

[...]

     total energy              =   -1821.51674752 Ry
     Harris-Foulkes estimate   =   -1821.51674747 Ry
     estimated scf accuracy    <       0.00000103 Ry

     iteration # 16     ecut=    36.75 Ry     beta=0.10
     Davidson diagonalization with overlap
     ethr =  6.34E-10,  avg # of iterations =  2.0

[...]

     negative rho (up, down):  9.912E-01 0.000E+00

     Adding external electric field

     Computed dipole along edir(3) :
        Dipole                0.0332 Ry au,          0.0843 Debye
        Dipole field          0.0001 Ry au

        Potential amp.       -0.0077 Ry
        Total length         45.5356 bohr

     End of self-consistent calculation

[...]

          k = 0.0612 0.0000 0.0000 ( 18590 PWs)   bands (ev):

[...]

          k =-0.0918-0.1380 0.0000 ( 18592 PWs)   bands (ev):

   -72.1779 -72.1779 -72.0410 -72.0410 -71.9691 -71.9691 -66.0512 -66.0512
   -65.9762 -65.9762 -65.7750 -65.7750 -36.5900 -36.5900 -36.3001 -36.3001
   -36.2738 -36.2738 -36.1833 -36.1833 -36.0854 -36.0854 -36.0546 -36.0546
   -36.0470 -36.0470 -36.0082 -36.0081 -35.8046 -35.8045 -32.7148 -32.7148
   -32.4946 -32.4946 -32.3596 -32.3596 -32.3430 -32.3430 -32.2963 -32.2962
   -32.2826 -32.2826 -32.2017 -32.2017 -32.1536 -32.1536 -31.8721 -31.8721
    -3.6959  -3.6958  -2.1630  -2.1630  -1.7047  -1.7047  -1.3290  -1.3290
    -1.1940  -1.1940  -0.5539  -0.5539  -0.1361  -0.1360   0.1036   0.1036
     0.1283   0.1284   0.5062   0.5062   0.7777   0.7777   1.1081   1.1081
     1.2636   1.2636   1.3917   1.3917   1.5160   1.5161   1.7551   1.7552
     1.9333   1.9333   2.0833   2.0833   2.2698   2.2698   3.0780   3.0780
     3.4368   3.4368   3.5426   3.5427   3.8685   3.8685   4.0879   4.0879
     4.2397   4.2397   4.3397   4.3398   4.4021   4.4021   4.7476   4.7476
     5.2349   5.2349   5.7562   5.7562   6.2595   6.2595   6.4875

     the Fermi energy is     2.1529 ev

!    total energy              =   -1821.51674814 Ry
     Harris-Foulkes estimate   =   -1821.51674700 Ry
     estimated scf accuracy    <       0.00000038 Ry

     The total energy is the sum of the following terms:

     one-electron contribution =  -13003.06733171 Ry
     hartree contribution      =    6483.78994954 Ry
     xc contribution           =    -516.73954346 Ry
     ewald contribution        =    5214.58389770 Ry
     electric field correction =       0.00000280 Ry
     smearing contrib. (-TS)   =      -0.08372300 Ry

     convergence has been achieved in  16 iterations

 BEEF-vdW xc energy contributions
           1 :   -454.959869835872
           2 :    420.634761085898
           3 :   -360.319047963653
           4 :    287.466280529613
           5 :   -215.937385911211
           6 :    155.838584569534
           7 :   -111.399191674548
           8 :    81.3665250047128
           9 :   -61.2674130109275
          10 :    46.2124266931942
          11 :   -32.9560458237196
          12 :    20.5444791964715
          13 :   -9.68257591952266
          14 :    1.50371374944518
          15 :    3.47863532614303
          16 :   -5.75668062688590
          17 :    6.52210081626890
          18 :   -6.99663426150227
          19 :    7.84557097645143
          20 :   -8.98902061982483
          21 :    9.85810245293112
          22 :   -9.89023578501701
          23 :    8.94599115473710
          24 :   -7.41261514268399
          25 :    5.97083149005061
          26 :   -5.20054957600280
          27 :    5.27346386587328
          28 :   -5.90108191287163
          29 :    6.54055082332127
          30 :   -6.71467914496282
          31 :   -40.8093672169474
          32 :   -30.4382969443365

     Forces acting on atoms (Ry/au):

     negative rho (up, down):  9.912E-01 0.000E+00
     atom    1 type  1   force =    -0.00000013   -0.00931435   -0.01199802
     atom    2 type  1   force =     0.00000017   -0.00931568   -0.01199966
     atom    3 type  2   force =    -0.00000218    0.00402812    0.02802237
     atom    4 type  2   force =     0.00000091    0.00402787    0.02802269
     atom    5 type  1   force =    -0.00000020    0.01342548   -0.00230861
     atom    6 type  1   force =    -0.00000032    0.01342493   -0.00231567
     atom    7 type  2   force =     0.00000176   -0.00813709   -0.01460682
     atom    8 type  2   force =    -0.00000123   -0.00813613   -0.01460499
     atom    9 type  1   force =    -0.00000155   -0.00047945   -0.00078331
     atom   10 type  1   force =    -0.00000130   -0.00048522   -0.00078583
     atom   11 type  2   force =    -0.00000533    0.00048012    0.00167835
     atom   12 type  2   force =     0.00000940    0.00048140    0.00167951

     Total force =     0.054795     Total SCF correction =     0.003401

     entering subroutine stress ...

     negative rho (up, down):  9.912E-01 0.000E+00
          total   stress  (Ry/bohr**3)                   (kbar)     P=  -34.28
  -0.00025003  -0.00000001  -0.00000000        -36.78     -0.00     -0.00
  -0.00000001  -0.00035830   0.00001003         -0.00    -52.71      1.48
  -0.00000000   0.00001003  -0.00009070         -0.00      1.48    -13.34

 !ASE

     Writing output data file calc.save

     General routines

     Parallel routines

   This run was terminated on:   7:20: 7  19Dec2018

   JOB DONE.
Job  /afs/slac/g/suncat/bin/suncat-tsmpirun -x LD_LIBRARY_PATH -wdir /scratch/qe530635_UjxYk pw.x -in pw.inp

TID   HOST_NAME   COMMAND_LINE            STATUS            TERMINATION_TIME
00000 suncat2063 pw.x -in pw.inp   Done                     12/19/2018 07:20:07
00001 suncat2063 pw.x -in pw.inp   Done                     12/19/2018 07:20:07
00002 suncat2063 pw.x -in pw.inp   Done                     12/19/2018 07:20:07
00003 suncat2063 pw.x -in pw.inp   Done                     12/19/2018 07:20:07
00004 suncat2063 pw.x -in pw.inp   Done                     12/19/2018 07:20:07
00005 suncat2063 pw.x -in pw.inp   Done                     12/19/2018 07:20:07
00006 suncat2063 pw.x -in pw.inp   Done                     12/19/2018 07:20:07
00007 suncat2063 pw.x -in pw.inp   Done                     12/19/2018 07:20:07
00008 suncat2063 pw.x -in pw.inp   Done                     12/19/2018 07:20:07
00009 suncat2063 pw.x -in pw.inp   Done                     12/19/2018 07:20:07
00010 suncat2063 pw.x -in pw.inp   Done                     12/19/2018 07:20:07
00011 suncat2063 pw.x -in pw.inp   Done                     12/19/2018 07:20:07
00012 suncat2063 pw.x -in pw.inp   Done                     12/19/2018 07:20:07
00013 suncat2063 pw.x -in pw.inp   Done                     12/19/2018 07:20:07
00014 suncat2063 pw.x -in pw.inp   Done                     12/19/2018 07:20:07
00015 suncat2063 pw.x -in pw.inp   Done                     12/19/2018 07:20:07
00016 suncat2042 pw.x -in pw.inp   Done                     12/19/2018 07:20:07
00017 suncat2042 pw.x -in pw.inp   Done                     12/19/2018 07:20:07
00018 suncat2042 pw.x -in pw.inp   Done                     12/19/2018 07:20:07
00019 suncat2042 pw.x -in pw.inp   Done                     12/19/2018 07:20:07
00020 suncat2042 pw.x -in pw.inp   Done                     12/19/2018 07:20:07
00021 suncat2042 pw.x -in pw.inp   Done                     12/19/2018 07:20:07
00022 suncat2042 pw.x -in pw.inp   Done                     12/19/2018 07:20:07
00023 suncat2042 pw.x -in pw.inp   Done                     12/19/2018 07:20:07
00024 suncat2042 pw.x -in pw.inp   Done                     12/19/2018 07:20:07
00025 suncat2042 pw.x -in pw.inp   Done                     12/19/2018 07:20:07
00026 suncat2042 pw.x -in pw.inp   Done                     12/19/2018 07:20:07
00027 suncat2042 pw.x -in pw.inp   Done                     12/19/2018 07:20:07
00028 suncat2042 pw.x -in pw.inp   Done                     12/19/2018 07:20:07
00029 suncat2042 pw.x -in pw.inp   Done                     12/19/2018 07:20:07
00030 suncat2042 pw.x -in pw.inp   Done                     12/19/2018 07:20:07
00031 suncat2042 pw.x -in pw.inp   Done                     12/19/2018 07:20:07