     Program PWSCF v.5.1rc2 (svn rev. 11289) starts on 27Dec2018 at  6:40:35

     Current dimensions of program PWSCF are:
     Max number of different atomic species (ntypx) = 10
     Max number of k-points (npk) =  40000
     Max angular momentum in pseudopotentials (lmaxx) =  3
     Presently stress not available with electric field

     IMPORTANT: XC functional enforced from input :
     Exchange-correlation      = BEEF-VDW ( 1  4 27 13 2)
     Any further DFT definition will be discarded
     Please, verify this is what you really want

     Subspace diagonalization in iterative solution of the eigenvalue problem:
     a serial algorithm will be used

     bravais-lattice index     =            0
     lattice parameter (alat)  =       1.8897  a.u.
     unit-cell volume          =    4892.7611 (a.u.)^3
     number of atoms/cell      =           12
     number of atomic types    =            2
     number of electrons       =       165.00
     number of Kohn-Sham states=          112
     kinetic-energy cutoff     =      36.7493  Ry
     charge density cutoff     =     367.4932  Ry
     convergence threshold     =      1.0E-06
     mixing beta               =       0.1000
     number of iterations used =           10  plain     mixing
     Exchange-correlation      = BEEF-VDW ( 1  4 27 13 2)
     nstep                     =           50

     celldm(1)=   1.889726  celldm(2)=   0.000000  celldm(3)=   0.000000
     celldm(4)=   0.000000  celldm(5)=   0.000000  celldm(6)=   0.000000

     crystal axes: (cart. coord. in units of alat)
               a(1) = (   5.816152   0.000000   0.000000 )
               a(2) = (  -2.908076   5.036935   0.000000 )
               a(3) = (   0.000000   0.000000  24.748868 )

     reciprocal axes: (cart. coord. in units 2 pi/alat)
               b(1) = (  0.171935  0.099267  0.000000 )
               b(2) = (  0.000000  0.198533  0.000000 )
               b(3) = (  0.000000  0.000000  0.040406 )

     PseudoPot. # 1 for Nb read from file:
     /afs/slac.stanford.edu/u/if/mamunm/psp/gbrv1.5pbe/Nb.UPF
     MD5 check sum: 573aab8a2fa660278ed4a62cd769473f
     Pseudo is Ultrasoft + core correction, Zval = 13.0
     Generated by new atomic code, or converted to UPF format
     Using radial grid of  887 points,  6 beta functions with:
                l(1) =   0
                l(2) =   0
                l(3) =   1
                l(4) =   1
                l(5) =   2
                l(6) =   2
     Q(r) pseudized with  6 coefficients,  rinner =    1.000   1.000   1.000
                                                       1.000   1.000

     PseudoPot. # 2 for Ru read from file:
     /afs/slac.stanford.edu/u/if/mamunm/psp/gbrv1.5pbe/Ru.UPF
     MD5 check sum: 7158a806dd851261a58e6920c40ebe78
     Pseudo is Ultrasoft + core correction, Zval = 16.0
     Generated by new atomic code, or converted to UPF format
     Using radial grid of  967 points,  6 beta functions with:
                l(1) =   0
                l(2) =   0
                l(3) =   1
                l(4) =   1
                l(5) =   2
                l(6) =   2
     Q(r) pseudized with  8 coefficients,  rinner =    1.300   1.300   1.300
                                                       1.300   1.300

     vdW kernel table read from file vdW_kernel_table
     MD5 check sum: 095c7af220d748ca6e76c0b4c6cfb241

     atomic species   valence    mass     pseudopotential
        Nb1           13.00    92.90637     Nb( 1.00)
        Ru1           16.00   101.07000     Ru( 1.00)

     No symmetry found

   Cartesian axes

     site n.     atom                  positions (alat units)
         1           Nb1 tau(   1) = (   0.0000000   0.0000000  10.0000000  )
         2           Nb1 tau(   2) = (  -1.4540379   2.5184675  10.0000000  )
         3           Nb1 tau(   3) = (   1.4540379   2.5184675  10.0000000  )
         4           Ru1 tau(   4) = (   2.9080758   0.0000000  10.0000000  )
         5           Nb1 tau(   5) = (   2.9080758   1.6789784  12.3744340  )
         6           Nb1 tau(   6) = (   1.4540379   4.1974459  12.3744340  )
         7           Nb1 tau(   7) = (  -1.4540379   4.1974459  12.3744340  )
         8           Ru1 tau(   8) = (   0.0000000   1.6789784  12.3744340  )
         9           Nb1 tau(   9) = (  -0.0000000   3.3579567  14.7488679  )
        10           Nb1 tau(  10) = (   1.4540379   0.8394892  14.7488679  )
        11           Nb1 tau(  11) = (   4.3621137   0.8394892  14.7488679  )
        12           Ru1 tau(  12) = (   2.9080758   3.3579567  14.7488679  )

     number of k points=    20  Fermi-Dirac smearing, width (Ry)=  0.0110
                       cart. coord. in units 2pi/alat
        k(    1) = (   0.0000000   0.0000000   0.0000000), wk =   0.0555556
        k(    2) = (   0.0000000   0.0330889   0.0000000), wk =   0.1111111
        k(    3) = (   0.0000000   0.0661778   0.0000000), wk =   0.1111111
        k(    4) = (   0.0000000  -0.0992667   0.0000000), wk =   0.0555556
        k(    5) = (   0.0286558   0.0165445   0.0000000), wk =   0.1111111
        k(    6) = (   0.0286558   0.0496334   0.0000000), wk =   0.1111111
        k(    7) = (   0.0286558   0.0827223   0.0000000), wk =   0.1111111
        k(    8) = (   0.0286558  -0.0827223   0.0000000), wk =   0.1111111
        k(    9) = (   0.0286558  -0.0496334   0.0000000), wk =   0.1111111
        k(   10) = (   0.0286558  -0.0165445   0.0000000), wk =   0.1111111
        k(   11) = (   0.0573117   0.0330889   0.0000000), wk =   0.1111111
        k(   12) = (   0.0573117   0.0661778   0.0000000), wk =   0.1111111
        k(   13) = (   0.0573117   0.0992667   0.0000000), wk =   0.1111111
        k(   14) = (   0.0573117  -0.0661778   0.0000000), wk =   0.1111111
        k(   15) = (   0.0573117  -0.0330889   0.0000000), wk =   0.1111111
        k(   16) = (   0.0573117   0.0000000   0.0000000), wk =   0.1111111
        k(   17) = (  -0.0859675  -0.0496334   0.0000000), wk =   0.0555556
        k(   18) = (  -0.0859675  -0.0165445   0.0000000), wk =   0.1111111
        k(   19) = (  -0.0859675   0.0165445   0.0000000), wk =   0.1111111
        k(   20) = (  -0.0859675  -0.1489001   0.0000000), wk =   0.0555556

     Largest allocated arrays     est. size (Mb)     dimensions
     Largest temporary arrays     est. size (Mb)     dimensions

     Initial potential from superposition of free atoms
     Check: negative starting charge=   -0.225850

     starting charge  161.97535, renormalised to  165.00000

     negative rho (up, down):  2.301E-01 0.000E+00

     *
     * You are using vdW-DF for exchange-correlation in this calculation.
     * Please cite the following three references that made this development
     * possible:
     *
     *   M. Dion, H. Rydberg, E. Schroder, D. C. Langreth, and
     *   B. I. Lundqvist, Phys. Rev. Lett. 92, 246401 (2004).
     *
     *   T. Thonhauser, V. R. Cooper, S. Li, A. Puzder, P. Hyldgaard, and
     *   D. C. Langreth, Phys. Rev. B 76, 125112 (2007).
     *
     *   G. Roman-Perez and J. M. Soler, Phys. Rev. Lett. 103, 096102 (2009).
     *
     *
     * If you are using vdW-DF2, please also cite:
     *
     *   K. Lee, E. D. Murray, L. Kong, B. I. Lundqvist, and
     *   D. C. Langreth, Phys. Rev. B 82, 081101(R) (2010).
     *
     *
     * If you are calculating the stress with vdW-DF, please also cite:
     *
     *   R. Sabatini, E. Kucukbenli, B. Kolb, T. Thonhauser, and
     *   S. de Gironcoli, J. Phys.: Condens. Matter 24, 424209 (2012).
     *

     Carrying out vdW-DF run using the following parameters:

     Nqs =      20    Nr_points =    1024   r_max =   100.000
     q_mesh =
               0.00001000     0.04494208     0.09755937     0.15916263
               0.23128650     0.31572767     0.41458969     0.53033537
               0.66584808     0.82450364     1.01025438     1.22772762
               1.48234092     1.78043706     2.12944203     2.53805004
               3.01644009     3.57652955     4.23227104     5.00000000

     Gradients computed in reciprocal space

     Adding external electric field

     Computed dipole along edir(3) :
        Dipole                0.0000 Ry au,          0.0000 Debye
        Dipole field          0.0000 Ry au

        Potential amp.       -0.0000 Ry
        Total length         45.5994 bohr

     Starting wfc are  156 randomized atomic wfcs

     Self-consistent Calculation

     iteration #  1     ecut=    36.75 Ry     beta=0.10
     Davidson diagonalization with overlap
     ethr =  1.00E-02,  avg # of iterations =  2.0

[...]

     total energy              =   -1651.72366445 Ry
     Harris-Foulkes estimate   =   -1653.61105009 Ry
     estimated scf accuracy    <      10.96308145 Ry

[...]

     End of self-consistent calculation

          k = 0.0000 0.0000 0.0000 ( 18451 PWs)   bands (ev):

   -70.4846 -70.1680 -70.1680 -53.0948 -53.0713 -52.9532 -52.9532 -52.9470
   -52.9470 -52.9247 -52.8163 -52.8163 -40.4692 -40.4203 -40.4203 -40.1350
   -40.1330 -40.1330 -40.1324 -40.1323 -40.1323 -29.6575 -29.5290 -29.4532
   -29.3559 -29.3559 -29.3541 -29.3095 -29.3095 -29.2165 -29.2165 -29.1879
   -29.0608 -29.0608 -28.9410 -28.9410 -28.8177 -28.7383 -28.6937 -28.6751
   -28.6751 -28.5787 -28.5438 -28.5438 -28.5370 -28.5370 -28.4731 -28.4731
    -3.6079  -2.3109  -2.0062  -1.9118  -1.9118  -1.8856  -1.5927  -1.5484
    -1.5484  -1.2956  -1.2956  -1.2765  -1.1170  -1.1170  -1.0458  -0.1189
    -0.1189   0.1345   0.5575   0.5575   0.7871   0.8307   1.1700   1.6047
     1.6047   1.7730   1.7730   1.7889   1.8735   1.8735   1.9570   1.9570
     1.9584   2.3459   2.3459   2.5253   2.9384   2.9561   2.9561   3.0709
     3.1825   3.1825   3.5170   3.5170   4.0577   4.0929   4.4940   4.4940
     4.5810   4.7503   4.7503   4.8800   4.8800   5.4542   5.4542   5.5092
     5.5092   5.8491   5.8604   5.8604   5.8760   5.8760   6.1244   6.1244

[...]

          k =-0.0860-0.0496 0.0000 ( 18364 PWs)   bands (ev):

[...]

     the Fermi energy is     2.0606 ev

!    total energy              =   -1651.99565856 Ry
     Harris-Foulkes estimate   =   -1651.99797821 Ry
     estimated scf accuracy    <       0.00000083 Ry

     The total energy is the sum of the following terms:

     one-electron contribution =  -13615.48908452 Ry
     hartree contribution      =    6802.51823440 Ry
     xc contribution           =    -251.70408081 Ry
     ewald contribution        =    5412.79159200 Ry
     electric field correction =       0.00000000 Ry
     smearing contrib. (-TS)   =      -0.11231962 Ry

     convergence has been achieved in  19 iterations

 BEEF-vdW xc energy contributions
           1 :   -216.619267307422
           2 :    197.633719912262
           3 :   -165.058664975491
           4 :    127.383817108349
           5 :   -92.9756923886497
           6 :    67.3161270380344
           7 :   -51.7866131435687
           8 :    44.1894627548301
           9 :   -40.4945825451758
          10 :    36.8591235292595
          11 :   -31.0829189173841
          12 :    23.0386317274973
          13 :   -14.1435847134854
          14 :    6.29032063109244
          15 :  -0.809660669104318
[...]
     /afs/slac.stanford.edu/u/if/mamunm/psp/gbrv1.5pbe/Nb.UPF
     MD5 check sum: 573aab8a2fa660278ed4a62cd769473f
     Pseudo is Ultrasoft + core correction, Zval = 13.0
     Generated by new atomic code, or converted to UPF format
     Using radial grid of  887 points,  6 beta functions with:
                l(1) =   0
                l(2) =   0
                l(3) =   1
                l(4) =   1
                l(5) =   2
                l(6) =   2
     Q(r) pseudized with  6 coefficients,  rinner =    1.000   1.000   1.000
                                                       1.000   1.000

     PseudoPot. # 2 for Ru read from file:
     /afs/slac.stanford.edu/u/if/mamunm/psp/gbrv1.5pbe/Ru.UPF
     MD5 check sum: 7158a806dd851261a58e6920c40ebe78
     Pseudo is Ultrasoft + core correction, Zval = 16.0
     Generated by new atomic code, or converted to UPF format
     Using radial grid of  967 points,  6 beta functions with:
                l(1) =   0
                l(2) =   0
                l(3) =   1
                l(4) =   1
                l(5) =   2
                l(6) =   2
     Q(r) pseudized with  8 coefficients,  rinner =    1.300   1.300   1.300
                                                       1.300   1.300

     vdW kernel table read from file vdW_kernel_table
     MD5 check sum: 095c7af220d748ca6e76c0b4c6cfb241

     atomic species   valence    mass     pseudopotential
        Nb1           13.00    92.90637     Nb( 1.00)
        Ru1           16.00   101.07000     Ru( 1.00)

     No symmetry found

   Cartesian axes

     site n.     atom                  positions (alat units)
         1           Nb1 tau(   1) = (   0.0000000   0.0000000  10.0000000  )
         2           Nb1 tau(   2) = (  -1.4540379   2.5184675  10.0000000  )
         3           Nb1 tau(   3) = (   1.4540379   2.5184675  10.0000000  )
         4           Ru1 tau(   4) = (   2.9080758   0.0000000  10.0000000  )
         5           Nb1 tau(   5) = (   2.9080758   1.6789784  12.3744340  )
         6           Nb1 tau(   6) = (   1.4540379   4.1974459  12.3744340  )
         7           Nb1 tau(   7) = (  -1.4540379   4.1974459  12.3744340  )
         8           Ru1 tau(   8) = (   0.0000000   1.6789784  12.3744340  )
         9           Nb1 tau(   9) = (  -0.0000002   3.3042702  14.7656817  )
        10           Nb1 tau(  10) = (   1.4075465   0.8663346  14.7656791  )
        11           Nb1 tau(  11) = (   4.4086071   0.8663326  14.7656776  )
        12           Ru1 tau(  12) = (   2.9080753   3.3579509  14.6631597  )

     number of k points=    20  Fermi-Dirac smearing, width (Ry)=  0.0110
                       cart. coord. in units 2pi/alat
        k(    1) = (   0.0000000   0.0000000   0.0000000), wk =   0.0555556
        k(    2) = (   0.0000000   0.0330889   0.0000000), wk =   0.1111111
        k(    3) = (   0.0000000   0.0661778   0.0000000), wk =   0.1111111
        k(    4) = (   0.0000000  -0.0992667   0.0000000), wk =   0.0555556
        k(    5) = (   0.0286558   0.0165445   0.0000000), wk =   0.1111111
        k(    6) = (   0.0286558   0.0496334   0.0000000), wk =   0.1111111
        k(    7) = (   0.0286558   0.0827223   0.0000000), wk =   0.1111111
        k(    8) = (   0.0286558  -0.0827223   0.0000000), wk =   0.1111111
        k(    9) = (   0.0286558  -0.0496334   0.0000000), wk =   0.1111111
        k(   10) = (   0.0286558  -0.0165445   0.0000000), wk =   0.1111111
        k(   11) = (   0.0573117   0.0330889   0.0000000), wk =   0.1111111
        k(   12) = (   0.0573117   0.0661778   0.0000000), wk =   0.1111111
        k(   13) = (   0.0573117   0.0992667   0.0000000), wk =   0.1111111
        k(   14) = (   0.0573117  -0.0661778   0.0000000), wk =   0.1111111
        k(   15) = (   0.0573117  -0.0330889   0.0000000), wk =   0.1111111
        k(   16) = (   0.0573117   0.0000000   0.0000000), wk =   0.1111111
        k(   17) = (  -0.0859675  -0.0496334   0.0000000), wk =   0.0555556
        k(   18) = (  -0.0859675  -0.0165445   0.0000000), wk =   0.1111111
        k(   19) = (  -0.0859675   0.0165445   0.0000000), wk =   0.1111111
        k(   20) = (  -0.0859675  -0.1489001   0.0000000), wk =   0.0555556

     Largest allocated arrays     est. size (Mb)     dimensions
     Largest temporary arrays     est. size (Mb)     dimensions

     Initial potential from superposition of free atoms
     Check: negative starting charge=   -0.225755

     starting charge  161.97535, renormalised to  165.00000

[...]

     *
     * You are using vdW-DF for exchange-correlation in this calculation.
     * Please cite the following three references that made this development
     * possible:
     *
     *   M. Dion, H. Rydberg, E. Schroder, D. C. Langreth, and
     *   B. I. Lundqvist, Phys. Rev. Lett. 92, 246401 (2004).
     *
     *   T. Thonhauser, V. R. Cooper, S. Li, A. Puzder, P. Hyldgaard, and
     *   D. C. Langreth, Phys. Rev. B 76, 125112 (2007).
     *
     *   G. Roman-Perez and J. M. Soler, Phys. Rev. Lett. 103, 096102 (2009).
     *
     *
     * If you are using vdW-DF2, please also cite:
     *
     *   K. Lee, E. D. Murray, L. Kong, B. I. Lundqvist, and
     *   D. C. Langreth, Phys. Rev. B 82, 081101(R) (2010).
     *
     *
     * If you are calculating the stress with vdW-DF, please also cite:
     *
     *   R. Sabatini, E. Kucukbenli, B. Kolb, T. Thonhauser, and
     *   S. de Gironcoli, J. Phys.: Condens. Matter 24, 424209 (2012).
     *

     Carrying out vdW-DF run using the following parameters:

     Nqs =      20    Nr_points =    1024   r_max =   100.000
     q_mesh =
               0.00001000     0.04494208     0.09755937     0.15916263
               0.23128650     0.31572767     0.41458969     0.53033537
               0.66584808     0.82450364     1.01025438     1.22772762
               1.48234092     1.78043706     2.12944203     2.53805004
               3.01644009     3.57652955     4.23227104     5.00000000

     Gradients computed in reciprocal space

[...]

     Starting wfc are  156 randomized atomic wfcs

     Self-consistent Calculation

[...]

     total energy              =   -1652.00196869 Ry
     Harris-Foulkes estimate   =   -1652.00196708 Ry
     estimated scf accuracy    <       0.00000256 Ry

     iteration # 18     ecut=    36.75 Ry     beta=0.10
     Davidson diagonalization with overlap
     ethr =  1.55E-09,  avg # of iterations =  2.0

[...]

     negative rho (up, down):  2.334E-01 0.000E+00

     Adding external electric field

     Computed dipole along edir(3) :
        Dipole                0.0171 Ry au,          0.0434 Debye
        Dipole field          0.0000 Ry au

        Potential amp.       -0.0040 Ry
        Total length         45.5994 bohr

     End of self-consistent calculation

[...]

          k = 0.0573 0.0000 0.0000 ( 18413 PWs)   bands (ev):

[...]

          k =-0.0860-0.1489 0.0000 ( 18364 PWs)   bands (ev):

   -70.4680 -70.1608 -70.1512 -53.0220 -53.0129 -52.9774 -52.9584 -52.9262
   -52.9195 -52.8665 -52.8388 -52.7994 -40.4504 -40.4037 -40.4012 -40.1348
   -40.1256 -40.1233 -40.1207 -40.1119 -40.1093 -29.4153 -29.4041 -29.3326
   -29.2794 -29.2182 -29.1947 -29.1481 -29.1451 -29.0844 -29.0736 -29.0717
   -29.0280 -29.0038 -28.9437 -28.9409 -28.9057 -28.9028 -28.8642 -28.8131
   -28.7833 -28.7752 -28.6625 -28.6195 -28.6136 -28.5589 -28.5311 -28.4742
    -2.0764  -1.9880  -1.2111  -1.1583  -1.0993  -0.8598  -0.8164  -0.7962
    -0.7646  -0.5898  -0.4652  -0.4107  -0.1972  -0.1371  -0.1156   0.0561
     0.1644   0.2772   0.3568   0.4930   0.6878   0.7649   0.8370   0.8676
     0.9150   0.9911   1.2780   1.3368   1.4451   1.5364   1.6512   1.6604
     1.7720   1.7912   1.8623   1.8818   1.9459   2.0638   2.3237   2.4850
     2.5874   2.8428   2.9614   3.0607   3.2415   3.3362   3.3402   3.5052
     3.5616   3.9097   3.9434   4.0122   4.1991   4.2995   4.4432   4.6184
     4.7142   4.7713   4.8954   5.1570   5.2912   5.6073   5.8512   5.8986

     the Fermi energy is     2.0868 ev

!    total energy              =   -1652.00196946 Ry
     Harris-Foulkes estimate   =   -1652.00196898 Ry
     estimated scf accuracy    <       0.00000085 Ry

     The total energy is the sum of the following terms:

     one-electron contribution =  -13641.35369265 Ry
     hartree contribution      =    6815.56745016 Ry
     xc contribution           =    -251.72474389 Ry
     ewald contribution        =    5425.62011613 Ry
     electric field correction =       0.00000075 Ry
     smearing contrib. (-TS)   =      -0.11109995 Ry

     convergence has been achieved in  18 iterations

 BEEF-vdW xc energy contributions
           1 :   -216.707954056822
           2 :    197.731474470962
           3 :   -165.168484120586
           4 :    127.499447899366
           5 :   -93.0828168343630
           6 :    67.3984019216188
           7 :   -51.8346594666863
           8 :    44.2079765235153
           9 :   -40.5017612685656
          10 :    36.8774616433537
          11 :   -31.1270671545842
          12 :    23.1077490495749
          13 :   -14.2231582971723
          14 :    6.36187327990126
          15 :  -0.861162480173221
          16 :   -2.06188502671779
          17 :    3.22774086455215
          18 :   -3.91409487999204
          19 :    5.13401008811672
          20 :   -7.16060567551710
          21 :    9.50037804759651
          22 :   -11.2690354466075
          23 :    11.7185167211736
          24 :   -10.6327692407010
          25 :    8.40988794437749
          26 :   -5.83432414932494
          27 :    3.68701062117111
          28 :   -2.40450475196107
          29 :    1.94355168349909
          30 :   -1.89460254785425
          31 :   -24.1358660080425
          32 :   -18.2562462039029

     Forces acting on atoms (Ry/au):

     negative rho (up, down):  2.334E-01 0.000E+00
     atom    1 type  1   force =    -0.00000050    0.01812467   -0.00414797
     atom    2 type  1   force =     0.01569610   -0.00906270   -0.00414803
     atom    3 type  1   force =    -0.01569602   -0.00906221   -0.00414766
     atom    4 type  2   force =     0.00000081    0.00000041    0.01292067
     atom    5 type  1   force =     0.00000013   -0.00605997    0.00120002
     atom    6 type  1   force =    -0.00524845    0.00303003    0.00120120
     atom    7 type  1   force =     0.00524822    0.00302995    0.00120122
     atom    8 type  2   force =    -0.00000010   -0.00000003   -0.00286524
     atom    9 type  1   force =    -0.00000013    0.00071808   -0.00009241
     atom   10 type  1   force =     0.00062145   -0.00035888   -0.00009208
     atom   11 type  1   force =    -0.00062105   -0.00035939   -0.00009243
     atom   12 type  2   force =    -0.00000045    0.00000004   -0.00093729

     Total force =     0.036458     Total SCF correction =     0.004898
     SCF correction compared to forces is large: reduce conv_thr to get better values

     entering subroutine stress ...

     negative rho (up, down):  2.334E-01 0.000E+00
          total   stress  (Ry/bohr**3)                   (kbar)     P=  -24.87
  -0.00025131   0.00000000   0.00000000        -36.97      0.00      0.00
   0.00000000  -0.00025131   0.00000000          0.00    -36.97      0.00
   0.00000000   0.00000000  -0.00000465          0.00      0.00     -0.68

 !ASE

     Writing output data file calc.save

     General routines

     Parallel routines

   This run was terminated on:   7:26: 6  27Dec2018

   JOB DONE.
Job  /afs/slac/g/suncat/bin/suncat-tsmpirun -x LD_LIBRARY_PATH -wdir /scratch/qe110209_RQDDg pw.x -in pw.inp

TID   HOST_NAME   COMMAND_LINE            STATUS            TERMINATION_TIME
00000 suncat0083 pw.x -in pw.inp   Done                     12/27/2018 07:26:06
00001 suncat0083 pw.x -in pw.inp   Done                     12/27/2018 07:26:06
00002 suncat0083 pw.x -in pw.inp   Done                     12/27/2018 07:26:06
00003 suncat0083 pw.x -in pw.inp   Done                     12/27/2018 07:26:06
00004 suncat0083 pw.x -in pw.inp   Done                     12/27/2018 07:26:06
00005 suncat0083 pw.x -in pw.inp   Done                     12/27/2018 07:26:06
00006 suncat0083 pw.x -in pw.inp   Done                     12/27/2018 07:26:06
00007 suncat0083 pw.x -in pw.inp   Done                     12/27/2018 07:26:06
00008 suncat0081 pw.x -in pw.inp   Done                     12/27/2018 07:26:06
00009 suncat0081 pw.x -in pw.inp   Done                     12/27/2018 07:26:06
00010 suncat0081 pw.x -in pw.inp   Done                     12/27/2018 07:26:06
00011 suncat0081 pw.x -in pw.inp   Done                     12/27/2018 07:26:06
00012 suncat0081 pw.x -in pw.inp   Done                     12/27/2018 07:26:06
00013 suncat0081 pw.x -in pw.inp   Done                     12/27/2018 07:26:06
00014 suncat0081 pw.x -in pw.inp   Done                     12/27/2018 07:26:06
00015 suncat0081 pw.x -in pw.inp   Done                     12/27/2018 07:26:06
00016 suncat0076 pw.x -in pw.inp   Done                     12/27/2018 07:26:06
00017 suncat0076 pw.x -in pw.inp   Done                     12/27/2018 07:26:06
00018 suncat0076 pw.x -in pw.inp   Done                     12/27/2018 07:26:06
00019 suncat0076 pw.x -in pw.inp   Done                     12/27/2018 07:26:06
00020 suncat0076 pw.x -in pw.inp   Done                     12/27/2018 07:26:06
00021 suncat0076 pw.x -in pw.inp   Done                     12/27/2018 07:26:06
00022 suncat0076 pw.x -in pw.inp   Done                     12/27/2018 07:26:06
00023 suncat0076 pw.x -in pw.inp   Done                     12/27/2018 07:26:06
00024 suncat0041 pw.x -in pw.inp   Done                     12/27/2018 07:26:06
00025 suncat0041 pw.x -in pw.inp   Done                     12/27/2018 07:26:06
00026 suncat0041 pw.x -in pw.inp   Done                     12/27/2018 07:26:06
00027 suncat0041 pw.x -in pw.inp   Done                     12/27/2018 07:26:06
00028 suncat0041 pw.x -in pw.inp   Done                     12/27/2018 07:26:06
00029 suncat0041 pw.x -in pw.inp   Done                     12/27/2018 07:26:06
00030 suncat0041 pw.x -in pw.inp   Done                     12/27/2018 07:26:06
00031 suncat0041 pw.x -in pw.inp   Done                     12/27/2018 07:26:06
00032 suncat0039 pw.x -in pw.inp   Done                     12/27/2018 07:26:06
00033 suncat0039 pw.x -in pw.inp   Done                     12/27/2018 07:26:06
00034 suncat0039 pw.x -in pw.inp   Done                     12/27/2018 07:26:06
00035 suncat0039 pw.x -in pw.inp   Done                     12/27/2018 07:26:06
00036 suncat0039 pw.x -in pw.inp   Done                     12/27/2018 07:26:06
00037 suncat0039 pw.x -in pw.inp   Done                     12/27/2018 07:26:06
00038 suncat0039 pw.x -in pw.inp   Done                     12/27/2018 07:26:06
00039 suncat0039 pw.x -in pw.inp   Done                     12/27/2018 07:26:06
00040 suncat0034 pw.x -in pw.inp   Done                     12/27/2018 07:26:06
00041 suncat0034 pw.x -in pw.inp   Done                     12/27/2018 07:26:06
00042 suncat0034 pw.x -in pw.inp   Done                     12/27/2018 07:26:06
00043 suncat0034 pw.x -in pw.inp   Done                     12/27/2018 07:26:06
00044 suncat0034 pw.x -in pw.inp   Done                     12/27/2018 07:26:06
00045 suncat0034 pw.x -in pw.inp   Done                     12/27/2018 07:26:06
00046 suncat0034 pw.x -in pw.inp   Done                     12/27/2018 07:26:06
00047 suncat0034 pw.x -in pw.inp   Done                     12/27/2018 07:26:06
00048 suncat0029 pw.x -in pw.inp   Done                     12/27/2018 07:26:06
00049 suncat0029 pw.x -in pw.inp   Done                     12/27/2018 07:26:06
00050 suncat0029 pw.x -in pw.inp   Done                     12/27/2018 07:26:06
00051 suncat0029 pw.x -in pw.inp   Done                     12/27/2018 07:26:06
00052 suncat0029 pw.x -in pw.inp   Done                     12/27/2018 07:26:06
00053 suncat0029 pw.x -in pw.inp   Done                     12/27/2018 07:26:06
00054 suncat0029 pw.x -in pw.inp   Done                     12/27/2018 07:26:06
00055 suncat0029 pw.x -in pw.inp   Done                     12/27/2018 07:26:06
00056 suncat0199 pw.x -in pw.inp   Done                     12/27/2018 07:26:06
00057 suncat0199 pw.x -in pw.inp   Done                     12/27/2018 07:26:06
00058 suncat0199 pw.x -in pw.inp   Done                     12/27/2018 07:26:06
00059 suncat0199 pw.x -in pw.inp   Done                     12/27/2018 07:26:06
00060 suncat0199 pw.x -in pw.inp   Done                     12/27/2018 07:26:06
00061 suncat0199 pw.x -in pw.inp   Done                     12/27/2018 07:26:06
00062 suncat0199 pw.x -in pw.inp   Done                     12/27/2018 07:26:06
00063 suncat0199 pw.x -in pw.inp   Done                     12/27/2018 07:26:06