     Program PWSCF v.5.1rc2 (svn rev. 11289) starts on 30Dec2018 at 23:10:19

     Current dimensions of program PWSCF are:
     Max number of different atomic species (ntypx) = 10
     Max number of k-points (npk) =  40000
     Max angular momentum in pseudopotentials (lmaxx) =  3
     Presently stress not available with electric field

     IMPORTANT: XC functional enforced from input :
     Exchange-correlation      = BEEF-VDW ( 1  4 27 13 2)
     Any further DFT definition will be discarded
     Please, verify this is what you really want

     Subspace diagonalization in iterative solution of the eigenvalue problem:
     a serial algorithm will be used

     Generating pointlists ...
     new r_m :   0.4125 (alat units)  0.7795 (a.u.) for type    1
     new r_m :   0.4125 (alat units)  0.7795 (a.u.) for type    2

     bravais-lattice index     =            0
     lattice parameter (alat)  =       1.8897  a.u.
     unit-cell volume          =    3523.5305 (a.u.)^3
     number of atoms/cell      =           12
     number of atomic types    =            2
     number of electrons       =       213.00
     number of Kohn-Sham states=          136
     kinetic-energy cutoff     =      36.7493  Ry
     charge density cutoff     =     367.4932  Ry
     convergence threshold     =      1.0E-06
     mixing beta               =       0.1000
     number of iterations used =           10  plain     mixing
     Exchange-correlation      = BEEF-VDW ( 1  4 27 13 2)
     nstep                     =           50

     celldm(1)=   1.889726  celldm(2)=   0.000000  celldm(3)=   0.000000
     celldm(4)=   0.000000  celldm(5)=   0.000000  celldm(6)=   0.000000

     crystal axes: (cart. coord. in units of alat)
               a(1) = (   5.003236   0.000000   0.000000 )
               a(2) = (  -2.501618   4.332929   0.000000 )
               a(3) = (   0.000000   0.000000  24.085125 )

     reciprocal axes: (cart. coord. in units 2 pi/alat)
               b(1) = (  0.199871  0.115395  0.000000 )
               b(2) = (  0.000000  0.230791  0.000000 )
               b(3) = (  0.000000  0.000000  0.041519 )

     PseudoPot. # 1 for Ni read from file:
     /afs/slac.stanford.edu/u/if/mamunm/psp/gbrv1.5pbe/Ni.UPF
     MD5 check sum: 1ee80287db30b12d2bc1f57a5b5d6409
     Pseudo is Ultrasoft + core correction, Zval = 18.0
     Generated by new atomic code, or converted to UPF format
     Using radial grid of  865 points,  6 beta functions with:
                l(1) =   0
                l(2) =   0
                l(3) =   1
                l(4) =   1
                l(5) =   2
                l(6) =   2
     Q(r) pseudized with 10 coefficients,  rinner =    0.980   0.980   0.980
                                                       0.980   0.980

     PseudoPot. # 2 for Co read from file:
     /afs/slac.stanford.edu/u/if/mamunm/psp/gbrv1.5pbe/Co.UPF
     MD5 check sum: 5f91765df6ddd3222702df6e7b74a16d
     Pseudo is Ultrasoft + core correction, Zval = 17.0
     Generated by new atomic code, or converted to UPF format
     Using radial grid of  863 points,  6 beta functions with:
                l(1) =   0
                l(2) =   0
                l(3) =   1
                l(4) =   1
                l(5) =   2
                l(6) =   2
     Q(r) pseudized with  8 coefficients,  rinner =    1.200   1.200   1.200
                                                       1.200   1.200

     vdW kernel table read from file vdW_kernel_table
     MD5 check sum: 095c7af220d748ca6e76c0b4c6cfb241

     atomic species   valence    mass     pseudopotential
        Ni1           18.00    58.69340     Ni( 1.00)
        Co1           17.00    58.93319     Co( 1.00)

     Starting magnetic structure
     atomic species   magnetization
        Ni1          0.111
        Co1          0.118

     No symmetry found

   Cartesian axes

     site n.     atom                  positions (alat units)
         1           Ni1 tau(   1) = (   0.0000000   0.0000000  10.0000000  )
         2           Ni1 tau(   2) = (  -1.2508089   2.1664646  10.0000000  )
         3           Ni1 tau(   3) = (   1.2508089   2.1664646  10.0000000  )
         4           Co1 tau(   4) = (   2.5016178   0.0000000  10.0000000  )
         5           Ni1 tau(   5) = (   2.5016178   1.4443097  12.0425624  )
         6           Ni1 tau(   6) = (   1.2508089   3.6107743  12.0425624  )
         7           Ni1 tau(   7) = (  -1.2508089   3.6107743  12.0425624  )
         8           Co1 tau(   8) = (   0.0000000   1.4443097  12.0425624  )
         9           Ni1 tau(   9) = (  -0.0000000   2.8886194  14.0851247  )
        10           Ni1 tau(  10) = (   1.2508089   0.7221549  14.0851247  )
        11           Ni1 tau(  11) = (   3.7524267   0.7221549  14.0851247  )
        12           Co1 tau(  12) = (   2.5016178   2.8886194  14.0851247  )

     number of k points=    40  Fermi-Dirac smearing, width (Ry)=  0.0110
                       cart. coord. in units 2pi/alat
        k(    1) = (   0.0000000   0.0000000   0.0000000), wk =   0.0277778
        k(    2) = (   0.0000000   0.0384651   0.0000000), wk =   0.0555556
        k(    3) = (   0.0000000   0.0769303   0.0000000), wk =   0.0555556
        k(    4) = (   0.0000000  -0.1153954   0.0000000), wk =   0.0277778
        k(    5) = (   0.0333118   0.0192326   0.0000000), wk =   0.0555556
        k(    6) = (   0.0333118   0.0576977   0.0000000), wk =   0.0555556
        k(    7) = (   0.0333118   0.0961628   0.0000000), wk =   0.0555556
        k(    8) = (   0.0333118  -0.0961628   0.0000000), wk =   0.0555556
        k(    9) = (   0.0333118  -0.0576977   0.0000000), wk =   0.0555556
        k(   10) = (   0.0333118  -0.0192326   0.0000000), wk =   0.0555556
        k(   11) = (   0.0666236   0.0384651   0.0000000), wk =   0.0555556
        k(   12) = (   0.0666236   0.0769303   0.0000000), wk =   0.0555556
        k(   13) = (   0.0666236   0.1153954   0.0000000), wk =   0.0555556
        k(   14) = (   0.0666236  -0.0769303   0.0000000), wk =   0.0555556
        k(   15) = (   0.0666236  -0.0384651   0.0000000), wk =   0.0555556
        k(   16) = (   0.0666236  -0.0000000   0.0000000), wk =   0.0555556
        k(   17) = (  -0.0999353  -0.0576977   0.0000000), wk =   0.0277778
        k(   18) = (  -0.0999353  -0.0192326   0.0000000), wk =   0.0555556
        k(   19) = (  -0.0999353   0.0192326   0.0000000), wk =   0.0555556
        k(   20) = (  -0.0999353  -0.1730931   0.0000000), wk =   0.0277778
        k(   21) = (   0.0000000   0.0000000   0.0000000), wk =   0.0277778
        k(   22) = (   0.0000000   0.0384651   0.0000000), wk =   0.0555556
        k(   23) = (   0.0000000   0.0769303   0.0000000), wk =   0.0555556
        k(   24) = (   0.0000000  -0.1153954   0.0000000), wk =   0.0277778
        k(   25) = (   0.0333118   0.0192326   0.0000000), wk =   0.0555556
        k(   26) = (   0.0333118   0.0576977   0.0000000), wk =   0.0555556
        k(   27) = (   0.0333118   0.0961628   0.0000000), wk =   0.0555556
        k(   28) = (   0.0333118  -0.0961628   0.0000000), wk =   0.0555556
        k(   29) = (   0.0333118  -0.0576977   0.0000000), wk =   0.0555556
        k(   30) = (   0.0333118  -0.0192326   0.0000000), wk =   0.0555556
        k(   31) = (   0.0666236   0.0384651   0.0000000), wk =   0.0555556
        k(   32) = (   0.0666236   0.0769303   0.0000000), wk =   0.0555556
        k(   33) = (   0.0666236   0.1153954   0.0000000), wk =   0.0555556
        k(   34) = (   0.0666236  -0.0769303   0.0000000), wk =   0.0555556
        k(   35) = (   0.0666236  -0.0384651   0.0000000), wk =   0.0555556
        k(   36) = (   0.0666236  -0.0000000   0.0000000), wk =   0.0555556
        k(   37) = (  -0.0999353  -0.0576977   0.0000000), wk =   0.0277778
        k(   38) = (  -0.0999353  -0.0192326   0.0000000), wk =   0.0555556
        k(   39) = (  -0.0999353   0.0192326   0.0000000), wk =   0.0555556
        k(   40) = (  -0.0999353  -0.1730931   0.0000000), wk =   0.0277778

     Largest allocated arrays     est. size (Mb)     dimensions
     Largest temporary arrays     est. size (Mb)     dimensions

     Check: negative/imaginary core charge=   -0.000004    0.000000

     Initial potential from superposition of free atoms
     Check: negative starting charge=(component1):   -0.000431
     Check: negative starting charge=(component2):   -0.000345

     starting charge  191.99998, renormalised to  213.00000

     negative rho (up, down):  4.783E-04 3.825E-04

     *
     * You are using vdW-DF for exchange-correlation in this calculation.
     * Please cite the following three references that made this development
     * possible:
     *
     *   M. Dion, H. Rydberg, E. Schroder, D. C. Langreth, and
     *   B. I. Lundqvist, Phys. Rev. Lett. 92, 246401 (2004).
     *
     *   T. Thonhauser, V. R. Cooper, S. Li, A. Puzder, P. Hyldgaard, and
     *   D. C. Langreth, Phys. Rev. B 76, 125112 (2007).
     *
     *   G. Roman-Perez and J. M. Soler, Phys. Rev. Lett. 103, 096102 (2009).
     *
     *
     * If you are using vdW-DF2, please also cite:
     *
     *   K. Lee, E. D. Murray, L. Kong, B. I. Lundqvist, and
     *   D. C. Langreth, Phys. Rev. B 82, 081101(R) (2010).
     *
     *
     * If you are calculating the stress with vdW-DF, please also cite:
     *
     *   R. Sabatini, E. Kucukbenli, B. Kolb, T. Thonhauser, and
     *   S. de Gironcoli, J. Phys.: Condens. Matter 24, 424209 (2012).
     *

     Carrying out vdW-DF run using the following parameters:

     Nqs =      20    Nr_points =    1024   r_max =   100.000
     q_mesh =
               0.00001000     0.04494208     0.09755937     0.15916263
               0.23128650     0.31572767     0.41458969     0.53033537
               0.66584808     0.82450364     1.01025438     1.22772762
               1.48234092     1.78043706     2.12944203     2.53805004
               3.01644009     3.57652955     4.23227104     5.00000000

     Gradients computed in reciprocal space

     Adding external electric field

     Computed dipole along edir(3) :
        Dipole               -0.0000 Ry au,         -0.0000 Debye
        Dipole field         -0.0000 Ry au

        Potential amp.        0.0000 Ry
        Total length         44.3764 bohr

[...]

     Starting wfc are  156 randomized atomic wfcs

     Self-consistent Calculation

     iteration #  1     ecut=    36.75 Ry     beta=0.10
     Davidson diagonalization with overlap
     ethr =  1.00E-02,  avg # of iterations =  7.2

[...]

     Magnetic moment per site:
     atom:    1    charge:    9.8508    magn:    1.0441    constr:    0.0000
     atom:    2    charge:    9.8508    magn:    1.0441    constr:    0.0000
     atom:    3    charge:    9.8508    magn:    1.0441    constr:    0.0000
     atom:    4    charge:    8.7324    magn:    0.9779    constr:    0.0000
     atom:    5    charge:    9.8408    magn:    1.0422    constr:    0.0000
     atom:    6    charge:    9.8408    magn:    1.0422    constr:    0.0000
     atom:    7    charge:    9.8408    magn:    1.0422    constr:    0.0000
     atom:    8    charge:    8.7265    magn:    0.9763    constr:    0.0000
[...]
        k(    6) = (   0.0333118   0.0576977   0.0000000), wk =   0.0555556
        k(    7) = (   0.0333118   0.0961628   0.0000000), wk =   0.0555556
        k(    8) = (   0.0333118  -0.0961628   0.0000000), wk =   0.0555556
        k(    9) = (   0.0333118  -0.0576977   0.0000000), wk =   0.0555556
        k(   10) = (   0.0333118  -0.0192326   0.0000000), wk =   0.0555556
        k(   11) = (   0.0666236   0.0384651   0.0000000), wk =   0.0555556
        k(   12) = (   0.0666236   0.0769303   0.0000000), wk =   0.0555556
        k(   13) = (   0.0666236   0.1153954   0.0000000), wk =   0.0555556
        k(   14) = (   0.0666236  -0.0769303   0.0000000), wk =   0.0555556
        k(   15) = (   0.0666236  -0.0384651   0.0000000), wk =   0.0555556
        k(   16) = (   0.0666236  -0.0000000   0.0000000), wk =   0.0555556
        k(   17) = (  -0.0999353  -0.0576977   0.0000000), wk =   0.0277778
        k(   18) = (  -0.0999353  -0.0192326   0.0000000), wk =   0.0555556
        k(   19) = (  -0.0999353   0.0192326   0.0000000), wk =   0.0555556
        k(   20) = (  -0.0999353  -0.1730931   0.0000000), wk =   0.0277778
        k(   21) = (   0.0000000   0.0000000   0.0000000), wk =   0.0277778
        k(   22) = (   0.0000000   0.0384651   0.0000000), wk =   0.0555556
        k(   23) = (   0.0000000   0.0769303   0.0000000), wk =   0.0555556
        k(   24) = (   0.0000000  -0.1153954   0.0000000), wk =   0.0277778
        k(   25) = (   0.0333118   0.0192326   0.0000000), wk =   0.0555556
        k(   26) = (   0.0333118   0.0576977   0.0000000), wk =   0.0555556
        k(   27) = (   0.0333118   0.0961628   0.0000000), wk =   0.0555556
        k(   28) = (   0.0333118  -0.0961628   0.0000000), wk =   0.0555556
        k(   29) = (   0.0333118  -0.0576977   0.0000000), wk =   0.0555556
        k(   30) = (   0.0333118  -0.0192326   0.0000000), wk =   0.0555556
        k(   31) = (   0.0666236   0.0384651   0.0000000), wk =   0.0555556
        k(   32) = (   0.0666236   0.0769303   0.0000000), wk =   0.0555556
        k(   33) = (   0.0666236   0.1153954   0.0000000), wk =   0.0555556
        k(   34) = (   0.0666236  -0.0769303   0.0000000), wk =   0.0555556
        k(   35) = (   0.0666236  -0.0384651   0.0000000), wk =   0.0555556
        k(   36) = (   0.0666236  -0.0000000   0.0000000), wk =   0.0555556
        k(   37) = (  -0.0999353  -0.0576977   0.0000000), wk =   0.0277778
        k(   38) = (  -0.0999353  -0.0192326   0.0000000), wk =   0.0555556
        k(   39) = (  -0.0999353   0.0192326   0.0000000), wk =   0.0555556
        k(   40) = (  -0.0999353  -0.1730931   0.0000000), wk =   0.0277778

     Largest allocated arrays     est. size (Mb)     dimensions
     Largest temporary arrays     est. size (Mb)     dimensions

     Check: negative/imaginary core charge=   -0.000004    0.000000

     Initial potential from superposition of free atoms
     Check: negative starting charge=(component1):   -0.000425
     Check: negative starting charge=(component2):   -0.000340

     starting charge  191.99998, renormalised to  213.00000

[...]

     *
     * You are using vdW-DF for exchange-correlation in this calculation.
     * Please cite the following three references that made this development
     * possible:
     *
     *   M. Dion, H. Rydberg, E. Schroder, D. C. Langreth, and
     *   B. I. Lundqvist, Phys. Rev. Lett. 92, 246401 (2004).
     *
     *   T. Thonhauser, V. R. Cooper, S. Li, A. Puzder, P. Hyldgaard, and
     *   D. C. Langreth, Phys. Rev. B 76, 125112 (2007).
     *
     *   G. Roman-Perez and J. M. Soler, Phys. Rev. Lett. 103, 096102 (2009).
     *
     *
     * If you are using vdW-DF2, please also cite:
     *
     *   K. Lee, E. D. Murray, L. Kong, B. I. Lundqvist, and
     *   D. C. Langreth, Phys. Rev. B 82, 081101(R) (2010).
     *
     *
     * If you are calculating the stress with vdW-DF, please also cite:
     *
     *   R. Sabatini, E. Kucukbenli, B. Kolb, T. Thonhauser, and
     *   S. de Gironcoli, J. Phys.: Condens. Matter 24, 424209 (2012).
     *

     Carrying out vdW-DF run using the following parameters:

     Nqs =      20    Nr_points =    1024   r_max =   100.000
     q_mesh =
               0.00001000     0.04494208     0.09755937     0.15916263
               0.23128650     0.31572767     0.41458969     0.53033537
               0.66584808     0.82450364     1.01025438     1.22772762
               1.48234092     1.78043706     2.12944203     2.53805004
               3.01644009     3.57652955     4.23227104     5.00000000

     Gradients computed in reciprocal space

[...]

     Starting wfc are  156 randomized atomic wfcs

     Self-consistent Calculation

[...]

     total energy              =   -3998.33284911 Ry
     Harris-Foulkes estimate   =   -3998.33284878 Ry
     estimated scf accuracy    <       0.00000127 Ry

[...]

     iteration # 46     ecut=    36.75 Ry     beta=0.10
     Davidson diagonalization with overlap
     ethr =  5.98E-10,  avg # of iterations =  1.5

[...]

     negative rho (up, down):  9.634E-04 7.378E-04

[...]

     Adding external electric field

     Computed dipole along edir(3) :
        Dipole                0.0022 Ry au,          0.0056 Debye
        Dipole field          0.0000 Ry au

        Potential amp.       -0.0007 Ry
        Total length         44.3764 bohr

     Magnetic moment per site:
     atom:    1    charge:    9.3514    magn:    0.4463    constr:    0.0000
     atom:    2    charge:    9.3513    magn:    0.4463    constr:    0.0000
     atom:    3    charge:    9.3513    magn:    0.4463    constr:    0.0000
     atom:    4    charge:    8.2931    magn:    1.0328    constr:    0.0000
     atom:    5    charge:    9.3376    magn:    0.4764    constr:    0.0000
     atom:    6    charge:    9.3378    magn:    0.4763    constr:    0.0000
     atom:    7    charge:    9.3377    magn:    0.4764    constr:    0.0000
     atom:    8    charge:    8.2793    magn:    1.0469    constr:    0.0000
     atom:    9    charge:    9.3443    magn:    0.4479    constr:    0.0000
     atom:   10    charge:    9.3442    magn:    0.4480    constr:    0.0000
     atom:   11    charge:    9.3443    magn:    0.4479    constr:    0.0000
     atom:   12    charge:    8.2859    magn:    1.0322    constr:    0.0000

     End of self-consistent calculation

 ------ SPIN UP ------------

[...]

 ------ SPIN DOWN ----------

[...]

          k = 0.0666-0.0000 0.0000 ( 13243 PWs)   bands (ev):

[...]

          k =-0.0999-0.1731 0.0000 ( 13298 PWs)   bands (ev):

  -102.3209-102.3157-102.3101-102.0725-102.0670-102.0618-102.0553-102.0499
  -102.0448 -93.4917 -93.2908 -93.2796 -62.7719 -62.7355 -62.7308 -62.7246
   -62.7131 -62.7089 -62.7073 -62.7023 -62.6557 -62.5532 -62.5381 -62.5176
   -62.5135 -62.5063 -62.5022 -62.4973 -62.4929 -62.4893 -62.4746 -62.4410
   -62.4253 -62.3894 -62.3845 -62.3798 -62.3673 -62.3620 -62.3580 -56.8560
   -56.8352 -56.8341 -56.6539 -56.6528 -56.6437 -56.6427 -56.6247 -56.6104
    -5.6549  -5.6308  -3.8987  -3.8475  -3.1169  -3.0515  -2.7162  -2.6552
    -2.6315  -2.6003  -2.2114  -2.0988  -2.0208  -1.9917  -1.8616  -1.7662
    -1.6559  -1.5817  -1.5782  -1.5441  -1.4391  -1.4178  -1.2016  -1.0785
    -1.0371  -1.0348  -1.0177  -0.9854  -0.9684  -0.8720  -0.8647  -0.7762
    -0.7459  -0.7015  -0.6187  -0.6009  -0.5473  -0.5222  -0.5164  -0.3991
    -0.2717  -0.1731  -0.1674   0.0140   0.0571   0.0937   0.1033   0.1648
     0.3235   0.3553   0.3658   0.3880   0.5270   0.5920   0.6155   0.6758
     0.6806   0.8282   0.8535   0.8669   1.0637   1.0726   1.0962   1.3273
     2.3032   2.3466   2.4039   2.7613   3.2927   3.5212   4.4790   4.5339
     5.5601   5.6545   6.7274   6.7278   7.2402   7.2473   7.4781   7.4791
     8.4611   8.4802   8.5070   8.5112   9.0287   9.0312   9.5260   9.5518

     the Fermi energy is     0.6482 ev

!    total energy              =   -3998.33284991 Ry
     Harris-Foulkes estimate   =   -3998.33284922 Ry
     estimated scf accuracy    <       0.00000064 Ry

     The total energy is the sum of the following terms:

     one-electron contribution =  -34329.68533828 Ry
     hartree contribution      =   17173.37194534 Ry
     xc contribution           =    -432.24746745 Ry
     ewald contribution        =   13590.32486620 Ry
     electric field correction =       0.00000002 Ry
     smearing contrib. (-TS)   =      -0.09685574 Ry

     total magnetization       =    11.82 Bohr mag/cell
     absolute magnetization    =    13.59 Bohr mag/cell

     convergence has been achieved in  46 iterations

 BEEF-vdW xc energy contributions
           1 :   -380.841984018375
           2 :    345.225998349315
           3 :   -285.179972501543
           4 :    217.850245084007
           5 :   -158.969546786936
           6 :    117.092237748240
           7 :   -92.0238952759639
           8 :    77.5239714019421
           9 :   -66.1880843629024
          10 :    53.5790688048253
          11 :   -39.6193476958435
          12 :    27.1073293643401
          13 :   -18.8926319641292
          14 :    15.6941258461189
          15 :   -15.7844641193935
          16 :    16.3588762873384
          17 :   -15.4014868507161
          18 :    12.7380057459518
          19 :   -9.72444840400613
          20 :    7.97791248781061
          21 :   -8.14029712726290
          22 :    9.49214692746887
          23 :   -10.5729738294224
          24 :    10.2535056174214
          25 :   -8.47958577918098
          26 :    6.20522720421218
          27 :   -4.64741120197675
          28 :    4.43055189454060
          29 :   -5.21973002572889
          30 :    6.04278404878386
          31 :   -31.6799275824246
          32 :   -22.0974464294388

     Forces acting on atoms (Ry/au):

     negative rho (up, down):  9.634E-04 7.378E-04
     atom    1 type  1   force =     0.00002909    0.00407878    0.00478942
     atom    2 type  1   force =     0.00350560   -0.00203619    0.00481139
     atom    3 type  1   force =    -0.00350884   -0.00207186    0.00479815
     atom    4 type  2   force =    -0.00002557    0.00002581    0.00481157
     atom    5 type  1   force =    -0.00000410   -0.00016125   -0.00480880
     atom    6 type  1   force =    -0.00015236    0.00007228   -0.00477909
     atom    7 type  1   force =     0.00015185    0.00007697   -0.00479673
     atom    8 type  2   force =     0.00000591    0.00001219   -0.00601025
     atom    9 type  1   force =    -0.00001948    0.00039996    0.00037887
     atom   10 type  1   force =     0.00037691   -0.00019452    0.00034120
     atom   11 type  1   force =    -0.00037783   -0.00017290    0.00037976
     atom   12 type  2   force =     0.00001881   -0.00002928    0.00008451

     Total force =     0.015749     Total SCF correction =     0.001786
     SCF correction compared to forces is large: reduce conv_thr to get better values

     entering subroutine stress ...

     negative rho (up, down):  9.634E-04 7.378E-04
          total   stress  (Ry/bohr**3)                   (kbar)     P=  -62.97
  -0.00045189   0.00000000  -0.00000000        -66.48      0.00     -0.00
   0.00000000  -0.00045190  -0.00000000          0.00    -66.48     -0.00
  -0.00000000  -0.00000000  -0.00038042         -0.00     -0.00    -55.96

 !ASE

     Writing output data file calc.save

     General routines

     Parallel routines

   This run was terminated on:   3:59:36  31Dec2018

   JOB DONE.
Job  /afs/slac/g/suncat/bin/suncat-tsmpirun -x LD_LIBRARY_PATH -wdir /scratch/qe648653_i3tzK pw.x -in pw.inp

TID   HOST_NAME   COMMAND_LINE            STATUS            TERMINATION_TIME
00000 suncat0259 pw.x -in pw.inp   Done                     12/31/2018 03:59:36
00001 suncat0259 pw.x -in pw.inp   Done                     12/31/2018 03:59:36
00002 suncat0259 pw.x -in pw.inp   Done                     12/31/2018 03:59:36
00003 suncat0259 pw.x -in pw.inp   Done                     12/31/2018 03:59:36
00004 suncat0259 pw.x -in pw.inp   Done                     12/31/2018 03:59:36
00005 suncat0259 pw.x -in pw.inp   Done                     12/31/2018 03:59:36
00006 suncat0259 pw.x -in pw.inp   Done                     12/31/2018 03:59:36
00007 suncat0259 pw.x -in pw.inp   Done                     12/31/2018 03:59:36
00008 suncat0256 pw.x -in pw.inp   Done                     12/31/2018 03:59:36
00009 suncat0256 pw.x -in pw.inp   Done                     12/31/2018 03:59:36
00010 suncat0256 pw.x -in pw.inp   Done                     12/31/2018 03:59:36
00011 suncat0256 pw.x -in pw.inp   Done                     12/31/2018 03:59:36
00012 suncat0256 pw.x -in pw.inp   Done                     12/31/2018 03:59:36
00013 suncat0256 pw.x -in pw.inp   Done                     12/31/2018 03:59:36
00014 suncat0256 pw.x -in pw.inp   Done                     12/31/2018 03:59:36
00015 suncat0256 pw.x -in pw.inp   Done                     12/31/2018 03:59:36
00016 suncat0255 pw.x -in pw.inp   Done                     12/31/2018 03:59:36
00017 suncat0255 pw.x -in pw.inp   Done                     12/31/2018 03:59:36
00018 suncat0255 pw.x -in pw.inp   Done                     12/31/2018 03:59:36
00019 suncat0255 pw.x -in pw.inp   Done                     12/31/2018 03:59:36
00020 suncat0255 pw.x -in pw.inp   Done                     12/31/2018 03:59:36
00021 suncat0255 pw.x -in pw.inp   Done                     12/31/2018 03:59:36
00022 suncat0255 pw.x -in pw.inp   Done                     12/31/2018 03:59:36
00023 suncat0255 pw.x -in pw.inp   Done                     12/31/2018 03:59:36
00024 suncat0232 pw.x -in pw.inp   Done                     12/31/2018 03:59:36
00025 suncat0232 pw.x -in pw.inp   Done                     12/31/2018 03:59:36
00026 suncat0232 pw.x -in pw.inp   Done                     12/31/2018 03:59:36
00027 suncat0232 pw.x -in pw.inp   Done                     12/31/2018 03:59:36
00028 suncat0232 pw.x -in pw.inp   Done                     12/31/2018 03:59:36
00029 suncat0232 pw.x -in pw.inp   Done                     12/31/2018 03:59:36
00030 suncat0232 pw.x -in pw.inp   Done                     12/31/2018 03:59:36
00031 suncat0232 pw.x -in pw.inp   Done                     12/31/2018 03:59:36
00032 suncat0220 pw.x -in pw.inp   Done                     12/31/2018 03:59:36
00033 suncat0220 pw.x -in pw.inp   Done                     12/31/2018 03:59:36
00034 suncat0220 pw.x -in pw.inp   Done                     12/31/2018 03:59:36
00035 suncat0220 pw.x -in pw.inp   Done                     12/31/2018 03:59:36
00036 suncat0220 pw.x -in pw.inp   Done                     12/31/2018 03:59:36
00037 suncat0220 pw.x -in pw.inp   Done                     12/31/2018 03:59:36
00038 suncat0220 pw.x -in pw.inp   Done                     12/31/2018 03:59:36
00039 suncat0220 pw.x -in pw.inp   Done                     12/31/2018 03:59:36
00040 suncat0219 pw.x -in pw.inp   Done                     12/31/2018 03:59:36
00041 suncat0219 pw.x -in pw.inp   Done                     12/31/2018 03:59:36
00042 suncat0219 pw.x -in pw.inp   Done                     12/31/2018 03:59:36
00043 suncat0219 pw.x -in pw.inp   Done                     12/31/2018 03:59:36
00044 suncat0219 pw.x -in pw.inp   Done                     12/31/2018 03:59:36
00045 suncat0219 pw.x -in pw.inp   Done                     12/31/2018 03:59:36
00046 suncat0219 pw.x -in pw.inp   Done                     12/31/2018 03:59:36
00047 suncat0219 pw.x -in pw.inp   Done                     12/31/2018 03:59:36
00048 suncat0201 pw.x -in pw.inp   Done                     12/31/2018 03:59:36
00049 suncat0201 pw.x -in pw.inp   Done                     12/31/2018 03:59:36
00050 suncat0201 pw.x -in pw.inp   Done                     12/31/2018 03:59:36
00051 suncat0201 pw.x -in pw.inp   Done                     12/31/2018 03:59:36
00052 suncat0201 pw.x -in pw.inp   Done                     12/31/2018 03:59:36
00053 suncat0201 pw.x -in pw.inp   Done                     12/31/2018 03:59:36
00054 suncat0201 pw.x -in pw.inp   Done                     12/31/2018 03:59:36
00055 suncat0201 pw.x -in pw.inp   Done                     12/31/2018 03:59:36
00056 suncat0200 pw.x -in pw.inp   Done                     12/31/2018 03:59:36
00057 suncat0200 pw.x -in pw.inp   Done                     12/31/2018 03:59:36
00058 suncat0200 pw.x -in pw.inp   Done                     12/31/2018 03:59:36
00059 suncat0200 pw.x -in pw.inp   Done                     12/31/2018 03:59:36
00060 suncat0200 pw.x -in pw.inp   Done                     12/31/2018 03:59:36
00061 suncat0200 pw.x -in pw.inp   Done                     12/31/2018 03:59:36
00062 suncat0200 pw.x -in pw.inp   Done                     12/31/2018 03:59:36
00063 suncat0200 pw.x -in pw.inp   Done                     12/31/2018 03:59:36