     Program PWSCF v.5.1rc2 (svn rev. 11289) starts on  1Jan2019 at 11:36: 3

     Current dimensions of program PWSCF are:
     Max number of different atomic species (ntypx) = 10
     Max number of k-points (npk) =  40000
     Max angular momentum in pseudopotentials (lmaxx) =  3
     Presently stress not available with electric field

     IMPORTANT: XC functional enforced from input :
     Exchange-correlation      = BEEF-VDW ( 1  4 27 13 2)
     Any further DFT definition will be discarded
     Please, verify this is what you really want

     Subspace diagonalization in iterative solution of the eigenvalue problem:
     a serial algorithm will be used

     bravais-lattice index     =            0
     lattice parameter (alat)  =       1.8897  a.u.
     unit-cell volume          =    6332.5936 (a.u.)^3
     number of atoms/cell      =           12
     number of atomic types    =            2
     number of electrons       =       162.00
     number of Kohn-Sham states=          111
     kinetic-energy cutoff     =      36.7493  Ry
     charge density cutoff     =     367.4932  Ry
     convergence threshold     =      1.0E-06
     mixing beta               =       0.1000
     number of iterations used =           10  plain     mixing
     Exchange-correlation      = BEEF-VDW ( 1  4 27 13 2)
     nstep                     =           50

     celldm(1)=   1.889726  celldm(2)=   0.000000  celldm(3)=   0.000000
     celldm(4)=   0.000000  celldm(5)=   0.000000  celldm(6)=   0.000000

     crystal axes: (cart. coord. in units of alat)
               a(1) = (   6.539279   0.000000   0.000000 )
               a(2) = (  -3.269640   5.663182   0.000000 )
               a(3) = (   0.000000   0.000000  25.339299 )

     reciprocal axes: (cart. coord. in units 2 pi/alat)
               b(1) = (  0.152922  0.088290  0.000000 )
               b(2) = (  0.000000  0.176579  0.000000 )
               b(3) = (  0.000000  0.000000  0.039464 )

     PseudoPot. # 1 for Sn read from file:
     /afs/slac.stanford.edu/u/if/mamunm/psp/gbrv1.5pbe/Sn.UPF
     MD5 check sum: 469debedee59599fedebd795477fea03
     Pseudo is Ultrasoft + core correction, Zval = 14.0
     Generated by new atomic code, or converted to UPF format
     Using radial grid of  891 points,  6 beta functions with:
                l(1) =   0
                l(2) =   0
                l(3) =   1
                l(4) =   1
                l(5) =   2
                l(6) =   2
     Q(r) pseudized with  8 coefficients,  rinner =    1.350   1.350   1.350
                                                       1.350   1.350

     PseudoPot. # 2 for Hf read from file:
     /afs/slac.stanford.edu/u/if/mamunm/psp/gbrv1.5pbe/Hf.UPF
     MD5 check sum: 8ee9378dfe14276e333edf04c5e4aa26
     Pseudo is Ultrasoft + core correction, Zval = 12.0
     Generated by new atomic code, or converted to UPF format
     Using radial grid of  921 points,  8 beta functions with:
                l(1) =   0
                l(2) =   0
                l(3) =   0
                l(4) =   1
                l(5) =   1
                l(6) =   2
                l(7) =   2
                l(8) =   3
     Q(r) pseudized with  6 coefficients,  rinner =    1.200   1.200   1.200
                                                       1.200   1.200   1.200
                                                       1.200

     vdW kernel table read from file vdW_kernel_table
     MD5 check sum: 095c7af220d748ca6e76c0b4c6cfb241

     atomic species   valence    mass     pseudopotential
        Sn1           14.00   118.71000     Sn( 1.00)
        Hf1           12.00   178.49000     Hf( 1.00)

     No symmetry found

   Cartesian axes

     site n.     atom                  positions (alat units)
         1           Sn1 tau(   1) = (   0.0000000   0.0000000  10.0000000  )
         2           Sn1 tau(   2) = (  -1.6348198   2.8315910  10.0000000  )
         3           Sn1 tau(   3) = (   1.6348198   2.8315910  10.0000000  )
         4           Hf1 tau(   4) = (   3.2696397   0.0000000  10.0000000  )
         5           Sn1 tau(   5) = (   3.2696397   1.8877273  12.6696496  )
         6           Sn1 tau(   6) = (   1.6348198   4.7193184  12.6696496  )
         7           Sn1 tau(   7) = (  -1.6348198   4.7193184  12.6696496  )
         8           Hf1 tau(   8) = (   0.0000000   1.8877273  12.6696496  )
         9           Sn1 tau(   9) = (  -0.0000000   3.7754547  15.3392992  )
        10           Sn1 tau(  10) = (   1.6348198   0.9438637  15.3392992  )
        11           Sn1 tau(  11) = (   4.9044595   0.9438637  15.3392992  )
        12           Hf1 tau(  12) = (   3.2696397   3.7754547  15.3392992  )

     number of k points=    20  Fermi-Dirac smearing, width (Ry)=  0.0110
                       cart. coord. in units 2pi/alat
        k(    1) = (   0.0000000   0.0000000   0.0000000), wk =   0.0555556
        k(    2) = (   0.0000000   0.0294299   0.0000000), wk =   0.1111111
        k(    3) = (   0.0000000   0.0588597   0.0000000), wk =   0.1111111
        k(    4) = (   0.0000000  -0.0882896   0.0000000), wk =   0.0555556
        k(    5) = (   0.0254870   0.0147149   0.0000000), wk =   0.1111111
        k(    6) = (   0.0254870   0.0441448   0.0000000), wk =   0.1111111
        k(    7) = (   0.0254870   0.0735747   0.0000000), wk =   0.1111111
        k(    8) = (   0.0254870  -0.0735747   0.0000000), wk =   0.1111111
        k(    9) = (   0.0254870  -0.0441448   0.0000000), wk =   0.1111111
        k(   10) = (   0.0254870  -0.0147149   0.0000000), wk =   0.1111111
        k(   11) = (   0.0509740   0.0294299   0.0000000), wk =   0.1111111
        k(   12) = (   0.0509740   0.0588597   0.0000000), wk =   0.1111111
        k(   13) = (   0.0509740   0.0882896   0.0000000), wk =   0.1111111
        k(   14) = (   0.0509740  -0.0588597   0.0000000), wk =   0.1111111
        k(   15) = (   0.0509740  -0.0294299   0.0000000), wk =   0.1111111
        k(   16) = (   0.0509740   0.0000000   0.0000000), wk =   0.1111111
        k(   17) = (  -0.0764610  -0.0441448   0.0000000), wk =   0.0555556
        k(   18) = (  -0.0764610  -0.0147149   0.0000000), wk =   0.1111111
        k(   19) = (  -0.0764610   0.0147149   0.0000000), wk =   0.1111111
        k(   20) = (  -0.0764610  -0.1324344   0.0000000), wk =   0.0555556

     Largest allocated arrays     est. size (Mb)     dimensions
     Largest temporary arrays     est. size (Mb)     dimensions

     Check: negative/imaginary core charge=   -0.000002    0.000000

     Initial potential from superposition of free atoms
     Check: negative starting charge=   -0.324167

     starting charge  146.99959, renormalised to  162.00000

     negative rho (up, down):  3.572E-01 0.000E+00

     *
     * You are using vdW-DF for exchange-correlation in this calculation.
     * Please cite the following three references that made this development
     * possible:
     *
     *   M. Dion, H. Rydberg, E. Schroder, D. C. Langreth, and
     *   B. I. Lundqvist, Phys. Rev. Lett. 92, 246401 (2004).
     *
     *   T. Thonhauser, V. R. Cooper, S. Li, A. Puzder, P. Hyldgaard, and
     *   D. C. Langreth, Phys. Rev. B 76, 125112 (2007).
     *
     *   G. Roman-Perez and J. M. Soler, Phys. Rev. Lett. 103, 096102 (2009).
     *
     *
     * If you are using vdW-DF2, please also cite:
     *
     *   K. Lee, E. D. Murray, L. Kong, B. I. Lundqvist, and
     *   D. C. Langreth, Phys. Rev. B 82, 081101(R) (2010).
     *
     *
     * If you are calculating the stress with vdW-DF, please also cite:
     *
     *   R. Sabatini, E. Kucukbenli, B. Kolb, T. Thonhauser, and
     *   S. de Gironcoli, J. Phys.: Condens. Matter 24, 424209 (2012).
     *

     Carrying out vdW-DF run using the following parameters:

     Nqs =      20    Nr_points =    1024   r_max =   100.000
     q_mesh =
               0.00001000     0.04494208     0.09755937     0.15916263
               0.23128650     0.31572767     0.41458969     0.53033537
               0.66584808     0.82450364     1.01025438     1.22772762
               1.48234092     1.78043706     2.12944203     2.53805004
               3.01644009     3.57652955     4.23227104     5.00000000

     Gradients computed in reciprocal space

     Adding external electric field

     Computed dipole along edir(3) :
        Dipole               -0.0000 Ry au,         -0.0000 Debye
        Dipole field         -0.0000 Ry au

        Potential amp.        0.0000 Ry
        Total length         46.6872 bohr

     Starting wfc are  120 randomized atomic wfcs

     Self-consistent Calculation

     iteration #  1     ecut=    36.75 Ry     beta=0.10
     Davidson diagonalization with overlap
     ethr =  1.00E-02,  avg # of iterations =  7.5

[...]

     total energy              =   -1931.11948489 Ry
     Harris-Foulkes estimate   =   -1937.38485384 Ry
     estimated scf accuracy    <      36.86775133 Ry

[...]

     End of self-consistent calculation

          k = 0.0000 0.0000 0.0000 ( 23727 PWs)   bands (ev):

   -62.7686 -62.7682 -62.2980 -31.2891 -31.2882 -31.1710 -31.1709 -31.1706
   -31.1705 -30.8078 -30.8078 -30.7046 -20.9456 -20.9132 -20.9132 -20.9023
   -20.8359 -20.8359 -20.8022 -20.7969 -20.7913 -20.7913 -20.7881 -20.7786
   -20.7658 -20.7658 -20.7438 -20.7438 -20.7355 -20.7355 -20.7332 -20.7169
   -20.7169 -20.7123 -20.6731 -20.6731 -20.6614 -20.6579 -20.6579 -20.6477
   -20.6423 -20.6219 -20.6219 -20.6009 -20.6009 -20.6005 -20.5996 -20.5996
   -20.5954 -20.5954 -20.5936 -20.5936 -20.5783 -20.5783 -20.5710 -20.5144
   -20.5141  -9.5814  -8.2460  -6.6843  -5.8352  -5.8352  -5.0749  -5.0749
    -4.2361  -4.2361  -3.5600  -2.8910  -2.4968  -2.2847  -2.2847  -1.8409
    -0.9759  -0.9759  -0.8034  -0.8034  -0.6698   0.8098   0.8098   0.8704
     0.8704   1.2667   1.2713   1.7225   1.9457   2.0880   2.2166   2.2166
     2.4204   2.4204   2.5909   2.5910   3.1080   3.1080   3.7310   3.7310
     3.8178   3.8185   4.2665   4.3012   4.3517   4.4130   4.4130   4.7576
     5.1878   5.4079   5.4079   5.5168   5.5949   6.2108   6.2108

[...]

          k =-0.0765-0.0441 0.0000 ( 23804 PWs)   bands (ev):

[...]

     the Fermi energy is     1.2106 ev

!    total energy              =   -1927.91382257 Ry
     Harris-Foulkes estimate   =   -1927.91537748 Ry
     estimated scf accuracy    <       0.00000091 Ry

     The total energy is the sum of the following terms:

     one-electron contribution =  -10169.39470723 Ry
     hartree contribution      =    5128.10133104 Ry
     xc contribution           =    -632.38609472 Ry
     ewald contribution        =    3745.81424676 Ry
     electric field correction =       0.00000000 Ry
     smearing contrib. (-TS)   =      -0.04859842 Ry

     convergence has been achieved in  17 iterations

 BEEF-vdW xc energy contributions
           1 :   -561.725246382611
           2 :    517.448527496122
           3 :   -441.146759257850
           4 :    352.083200356105
           5 :   -269.051615070281
           6 :    204.120138063459
           7 :   -160.196741847564
           8 :    132.819176333124
           9 :   -114.570245613208
          10 :    99.4660494459159
[...]
     Pseudo is Ultrasoft + core correction, Zval = 14.0
     Generated by new atomic code, or converted to UPF format
     Using radial grid of  891 points,  6 beta functions with:
                l(1) =   0
                l(2) =   0
                l(3) =   1
                l(4) =   1
                l(5) =   2
                l(6) =   2
     Q(r) pseudized with  8 coefficients,  rinner =    1.350   1.350   1.350
                                                       1.350   1.350

     PseudoPot. # 2 for Hf read from file:
     /afs/slac.stanford.edu/u/if/mamunm/psp/gbrv1.5pbe/Hf.UPF
     MD5 check sum: 8ee9378dfe14276e333edf04c5e4aa26
     Pseudo is Ultrasoft + core correction, Zval = 12.0
     Generated by new atomic code, or converted to UPF format
     Using radial grid of  921 points,  8 beta functions with:
                l(1) =   0
                l(2) =   0
                l(3) =   0
                l(4) =   1
                l(5) =   1
                l(6) =   2
                l(7) =   2
                l(8) =   3
     Q(r) pseudized with  6 coefficients,  rinner =    1.200   1.200   1.200
                                                       1.200   1.200   1.200
                                                       1.200

     vdW kernel table read from file vdW_kernel_table
     MD5 check sum: 095c7af220d748ca6e76c0b4c6cfb241

     atomic species   valence    mass     pseudopotential
        Sn1           14.00   118.71000     Sn( 1.00)
        Hf1           12.00   178.49000     Hf( 1.00)

     No symmetry found

   Cartesian axes

     site n.     atom                  positions (alat units)
         1           Sn1 tau(   1) = (   0.0000000   0.0000000  10.0000000  )
         2           Sn1 tau(   2) = (  -1.6348198   2.8315910  10.0000000  )
         3           Sn1 tau(   3) = (   1.6348198   2.8315910  10.0000000  )
         4           Hf1 tau(   4) = (   3.2696397   0.0000000  10.0000000  )
         5           Sn1 tau(   5) = (   3.2696397   1.8877273  12.6696496  )
         6           Sn1 tau(   6) = (   1.6348198   4.7193184  12.6696496  )
         7           Sn1 tau(   7) = (  -1.6348198   4.7193184  12.6696496  )
         8           Hf1 tau(   8) = (   0.0000000   1.8877273  12.6696496  )
         9           Sn1 tau(   9) = (   0.0000370   3.6986223  15.4387354  )
        10           Sn1 tau(  10) = (   1.5683655   0.9822534  15.4388113  )
        11           Sn1 tau(  11) = (   4.9709179   0.9822710  15.4387668  )
        12           Hf1 tau(  12) = (   3.2696387   3.7754122  14.9459834  )

     number of k points=    20  Fermi-Dirac smearing, width (Ry)=  0.0110
                       cart. coord. in units 2pi/alat
        k(    1) = (   0.0000000   0.0000000   0.0000000), wk =   0.0555556
        k(    2) = (   0.0000000   0.0294299   0.0000000), wk =   0.1111111
        k(    3) = (   0.0000000   0.0588597   0.0000000), wk =   0.1111111
        k(    4) = (   0.0000000  -0.0882896   0.0000000), wk =   0.0555556
        k(    5) = (   0.0254870   0.0147149   0.0000000), wk =   0.1111111
        k(    6) = (   0.0254870   0.0441448   0.0000000), wk =   0.1111111
        k(    7) = (   0.0254870   0.0735747   0.0000000), wk =   0.1111111
        k(    8) = (   0.0254870  -0.0735747   0.0000000), wk =   0.1111111
        k(    9) = (   0.0254870  -0.0441448   0.0000000), wk =   0.1111111
        k(   10) = (   0.0254870  -0.0147149   0.0000000), wk =   0.1111111
        k(   11) = (   0.0509740   0.0294299   0.0000000), wk =   0.1111111
        k(   12) = (   0.0509740   0.0588597   0.0000000), wk =   0.1111111
        k(   13) = (   0.0509740   0.0882896   0.0000000), wk =   0.1111111
        k(   14) = (   0.0509740  -0.0588597   0.0000000), wk =   0.1111111
        k(   15) = (   0.0509740  -0.0294299   0.0000000), wk =   0.1111111
        k(   16) = (   0.0509740   0.0000000   0.0000000), wk =   0.1111111
        k(   17) = (  -0.0764610  -0.0441448   0.0000000), wk =   0.0555556
        k(   18) = (  -0.0764610  -0.0147149   0.0000000), wk =   0.1111111
        k(   19) = (  -0.0764610   0.0147149   0.0000000), wk =   0.1111111
        k(   20) = (  -0.0764610  -0.1324344   0.0000000), wk =   0.0555556

     Largest allocated arrays     est. size (Mb)     dimensions
     Largest temporary arrays     est. size (Mb)     dimensions

     Check: negative/imaginary core charge=   -0.000002    0.000000

     Initial potential from superposition of free atoms
     Check: negative starting charge=   -0.325841

     starting charge  146.99959, renormalised to  162.00000

[...]

     *
     * You are using vdW-DF for exchange-correlation in this calculation.
     * Please cite the following three references that made this development
     * possible:
     *
     *   M. Dion, H. Rydberg, E. Schroder, D. C. Langreth, and
     *   B. I. Lundqvist, Phys. Rev. Lett. 92, 246401 (2004).
     *
     *   T. Thonhauser, V. R. Cooper, S. Li, A. Puzder, P. Hyldgaard, and
     *   D. C. Langreth, Phys. Rev. B 76, 125112 (2007).
     *
     *   G. Roman-Perez and J. M. Soler, Phys. Rev. Lett. 103, 096102 (2009).
     *
     *
     * If you are using vdW-DF2, please also cite:
     *
     *   K. Lee, E. D. Murray, L. Kong, B. I. Lundqvist, and
     *   D. C. Langreth, Phys. Rev. B 82, 081101(R) (2010).
     *
     *
     * If you are calculating the stress with vdW-DF, please also cite:
     *
     *   R. Sabatini, E. Kucukbenli, B. Kolb, T. Thonhauser, and
     *   S. de Gironcoli, J. Phys.: Condens. Matter 24, 424209 (2012).
     *

     Carrying out vdW-DF run using the following parameters:

     Nqs =      20    Nr_points =    1024   r_max =   100.000
     q_mesh =
               0.00001000     0.04494208     0.09755937     0.15916263
               0.23128650     0.31572767     0.41458969     0.53033537
               0.66584808     0.82450364     1.01025438     1.22772762
               1.48234092     1.78043706     2.12944203     2.53805004
               3.01644009     3.57652955     4.23227104     5.00000000

     Gradients computed in reciprocal space

[...]

     Starting wfc are  120 randomized atomic wfcs

     Self-consistent Calculation

[...]

     total energy              =   -1927.94844191 Ry
     Harris-Foulkes estimate   =   -1927.94844174 Ry
     estimated scf accuracy    <       0.00000135 Ry

     iteration # 19     ecut=    36.75 Ry     beta=0.10
     Davidson diagonalization with overlap
     ethr =  8.31E-10,  avg # of iterations =  2.0

[...]

     negative rho (up, down):  3.422E-01 0.000E+00

     Adding external electric field

     Computed dipole along edir(3) :
        Dipole               -0.0089 Ry au,         -0.0227 Debye
        Dipole field         -0.0000 Ry au

        Potential amp.        0.0017 Ry
        Total length         46.6872 bohr

     End of self-consistent calculation

[...]

          k = 0.0510 0.0000 0.0000 ( 23818 PWs)   bands (ev):

[...]

          k =-0.0765-0.1324 0.0000 ( 23804 PWs)   bands (ev):

   -62.8418 -62.4949 -62.3518 -31.3661 -31.2383 -31.2376 -30.9981 -30.9708
   -30.9702 -30.8630 -30.8621 -30.7490 -20.9246 -20.8837 -20.8626 -20.8619
   -20.8453 -20.8367 -20.8360 -20.8252 -20.7965 -20.7850 -20.7812 -20.7808
   -20.7633 -20.7540 -20.7524 -20.7458 -20.7320 -20.7231 -20.7111 -20.7096
   -20.6965 -20.6954 -20.6940 -20.6876 -20.6774 -20.6748 -20.6661 -20.6644
   -20.6556 -20.6536 -20.6447 -20.6351 -20.6328 -20.6300 -20.6261 -20.6221
   -20.6196 -20.6172 -20.6109 -20.6059 -20.6048 -20.6017 -20.5977 -20.5641
   -20.5603  -8.5222  -8.2113  -7.2329  -6.8626  -6.2334  -6.1802  -5.5203
    -5.0321  -3.8360  -3.5829  -2.9715  -2.0248  -1.2451  -1.2131  -1.0371
    -0.8351  -0.7609  -0.1418  -0.0893   0.0593   0.1902   0.6654   0.8036
     1.2049   1.4159   1.4829   1.6218   1.7602   1.8569   1.9350   2.1734
     2.1894   2.3552   2.5434   2.5793   2.7161   3.0652   3.4754   3.6009
     3.6416   3.7690   3.8606   4.1860   4.8150   4.9072   5.0926   5.3121
     5.4300   5.6462   5.7300   5.7308   5.8174   6.1274   6.2452

     the Fermi energy is     1.1657 ev

!    total energy              =   -1927.94844308 Ry
     Harris-Foulkes estimate   =   -1927.94844218 Ry
     estimated scf accuracy    <       0.00000064 Ry

     The total energy is the sum of the following terms:

     one-electron contribution =  -10178.03471563 Ry
     hartree contribution      =    5132.39597086 Ry
     xc contribution           =    -632.46028774 Ry
     ewald contribution        =    3750.19729681 Ry
     electric field correction =       0.00000016 Ry
     smearing contrib. (-TS)   =      -0.04670754 Ry

     convergence has been achieved in  19 iterations

 BEEF-vdW xc energy contributions
           1 :   -561.842687088696
           2 :    517.577777439743
           3 :   -441.287825322898
           4 :    352.216440440078
           5 :   -269.143178690667
           6 :    204.145397189590
           7 :   -160.162771857193
           8 :    132.766104976015
           9 :   -114.547315730436
          10 :    99.4997012022080
          11 :   -85.2755832209670
          12 :    72.7064019330916
          13 :   -63.5987393301734
          14 :    58.5440018828010
          15 :   -56.1146152770474
          16 :    53.6910241438321
          17 :   -49.1322736042481
          18 :    42.0888253514491
          19 :   -34.1498806815542
          20 :    27.8140434604098
          21 :   -24.9950145247707
          22 :    25.9689334060605
          23 :   -29.3266647070508
          24 :    32.8449663873705
          25 :   -34.6823019309712
          26 :    34.1890915258799
          27 :   -31.9476023922513
          28 :    29.1497156780384
          29 :   -26.7946115378634
          30 :    25.2108853871945
          31 :   -45.7836401985110
          32 :   -33.2646722667558

     Forces acting on atoms (Ry/au):

     negative rho (up, down):  3.422E-01 0.000E+00
     atom    1 type  1   force =    -0.00000106    0.01072621   -0.01139838
     atom    2 type  1   force =     0.00928130   -0.00536599   -0.01138915
     atom    3 type  1   force =    -0.00928501   -0.00536930   -0.01139021
     atom    4 type  2   force =     0.00000131    0.00000685    0.06742113
     atom    5 type  1   force =    -0.00000141   -0.01492219   -0.01203396
     atom    6 type  1   force =    -0.01291121    0.00746413   -0.01204429
     atom    7 type  1   force =     0.01291516    0.00746202   -0.01204091
     atom    8 type  2   force =     0.00000079    0.00001341   -0.00180823
     atom    9 type  1   force =    -0.00000375   -0.00008319    0.00189554
     atom   10 type  1   force =    -0.00007827    0.00003337    0.00189596
     atom   11 type  1   force =     0.00008099    0.00003624    0.00189801
     atom   12 type  2   force =     0.00000116   -0.00000156   -0.00100550

     Total force =     0.079985     Total SCF correction =     0.001900

     entering subroutine stress ...

     negative rho (up, down):  3.422E-01 0.000E+00
          total   stress  (Ry/bohr**3)                   (kbar)     P=  -13.15
  -0.00011148  -0.00000000  -0.00000000        -16.40     -0.00     -0.00
  -0.00000000  -0.00011158  -0.00000000         -0.00    -16.41     -0.00
  -0.00000000  -0.00000000  -0.00004508         -0.00     -0.00     -6.63

 !ASE

     Writing output data file calc.save

     General routines

     Parallel routines

   This run was terminated on:  13: 5:38   1Jan2019

   JOB DONE.
Job  /afs/slac/g/suncat/bin/suncat-tsmpirun -x LD_LIBRARY_PATH -wdir /scratch/qe649007_P8ojK pw.x -in pw.inp

TID   HOST_NAME   COMMAND_LINE            STATUS            TERMINATION_TIME
00000 suncat0056 pw.x -in pw.inp   Done                     01/01/2019 13:05:38
00001 suncat0056 pw.x -in pw.inp   Done                     01/01/2019 13:05:38
00002 suncat0056 pw.x -in pw.inp   Done                     01/01/2019 13:05:38
00003 suncat0056 pw.x -in pw.inp   Done                     01/01/2019 13:05:38
00004 suncat0056 pw.x -in pw.inp   Done                     01/01/2019 13:05:38
00005 suncat0056 pw.x -in pw.inp   Done                     01/01/2019 13:05:38
00006 suncat0056 pw.x -in pw.inp   Done                     01/01/2019 13:05:38
00007 suncat0056 pw.x -in pw.inp   Done                     01/01/2019 13:05:38
00008 suncat0052 pw.x -in pw.inp   Done                     01/01/2019 13:05:38
00009 suncat0052 pw.x -in pw.inp   Done                     01/01/2019 13:05:38
00010 suncat0052 pw.x -in pw.inp   Done                     01/01/2019 13:05:38
00011 suncat0052 pw.x -in pw.inp   Done                     01/01/2019 13:05:38
00012 suncat0052 pw.x -in pw.inp   Done                     01/01/2019 13:05:38
00013 suncat0052 pw.x -in pw.inp   Done                     01/01/2019 13:05:38
00014 suncat0052 pw.x -in pw.inp   Done                     01/01/2019 13:05:38
00015 suncat0052 pw.x -in pw.inp   Done                     01/01/2019 13:05:38
00016 suncat0048 pw.x -in pw.inp   Done                     01/01/2019 13:05:38
00017 suncat0048 pw.x -in pw.inp   Done                     01/01/2019 13:05:38
00018 suncat0048 pw.x -in pw.inp   Done                     01/01/2019 13:05:38
00019 suncat0048 pw.x -in pw.inp   Done                     01/01/2019 13:05:38
00020 suncat0048 pw.x -in pw.inp   Done                     01/01/2019 13:05:38
00021 suncat0048 pw.x -in pw.inp   Done                     01/01/2019 13:05:38
00022 suncat0048 pw.x -in pw.inp   Done                     01/01/2019 13:05:38
00023 suncat0048 pw.x -in pw.inp   Done                     01/01/2019 13:05:38
00024 suncat0047 pw.x -in pw.inp   Done                     01/01/2019 13:05:38
00025 suncat0047 pw.x -in pw.inp   Done                     01/01/2019 13:05:38
00026 suncat0047 pw.x -in pw.inp   Done                     01/01/2019 13:05:38
00027 suncat0047 pw.x -in pw.inp   Done                     01/01/2019 13:05:38
00028 suncat0047 pw.x -in pw.inp   Done                     01/01/2019 13:05:38
00029 suncat0047 pw.x -in pw.inp   Done                     01/01/2019 13:05:38
00030 suncat0047 pw.x -in pw.inp   Done                     01/01/2019 13:05:38
00031 suncat0047 pw.x -in pw.inp   Done                     01/01/2019 13:05:38
00032 suncat0046 pw.x -in pw.inp   Done                     01/01/2019 13:05:38
00033 suncat0046 pw.x -in pw.inp   Done                     01/01/2019 13:05:38
00034 suncat0046 pw.x -in pw.inp   Done                     01/01/2019 13:05:38
00035 suncat0046 pw.x -in pw.inp   Done                     01/01/2019 13:05:38
00036 suncat0046 pw.x -in pw.inp   Done                     01/01/2019 13:05:38
00037 suncat0046 pw.x -in pw.inp   Done                     01/01/2019 13:05:38
00038 suncat0046 pw.x -in pw.inp   Done                     01/01/2019 13:05:38
00039 suncat0046 pw.x -in pw.inp   Done                     01/01/2019 13:05:38
00040 suncat0044 pw.x -in pw.inp   Done                     01/01/2019 13:05:38
00041 suncat0044 pw.x -in pw.inp   Done                     01/01/2019 13:05:38
00042 suncat0044 pw.x -in pw.inp   Done                     01/01/2019 13:05:38
00043 suncat0044 pw.x -in pw.inp   Done                     01/01/2019 13:05:38
00044 suncat0044 pw.x -in pw.inp   Done                     01/01/2019 13:05:38
00045 suncat0044 pw.x -in pw.inp   Done                     01/01/2019 13:05:38
00046 suncat0044 pw.x -in pw.inp   Done                     01/01/2019 13:05:38
00047 suncat0044 pw.x -in pw.inp   Done                     01/01/2019 13:05:38
00048 suncat0215 pw.x -in pw.inp   Done                     01/01/2019 13:05:38
00049 suncat0215 pw.x -in pw.inp   Done                     01/01/2019 13:05:38
00050 suncat0215 pw.x -in pw.inp   Done                     01/01/2019 13:05:38
00051 suncat0215 pw.x -in pw.inp   Done                     01/01/2019 13:05:38
00052 suncat0215 pw.x -in pw.inp   Done                     01/01/2019 13:05:38
00053 suncat0215 pw.x -in pw.inp   Done                     01/01/2019 13:05:38
00054 suncat0215 pw.x -in pw.inp   Done                     01/01/2019 13:05:38
00055 suncat0215 pw.x -in pw.inp   Done                     01/01/2019 13:05:38
00056 suncat0210 pw.x -in pw.inp   Done                     01/01/2019 13:05:38
00057 suncat0210 pw.x -in pw.inp   Done                     01/01/2019 13:05:38
00058 suncat0210 pw.x -in pw.inp   Done                     01/01/2019 13:05:38
00059 suncat0210 pw.x -in pw.inp   Done                     01/01/2019 13:05:38
00060 suncat0210 pw.x -in pw.inp   Done                     01/01/2019 13:05:38
00061 suncat0210 pw.x -in pw.inp   Done                     01/01/2019 13:05:38
00062 suncat0210 pw.x -in pw.inp   Done                     01/01/2019 13:05:38
00063 suncat0210 pw.x -in pw.inp   Done                     01/01/2019 13:05:38