     Program PWSCF v.5.1rc2 (svn rev. 11289) starts on 29Dec2018 at 23:35: 4

     Current dimensions of program PWSCF are:
     Max number of different atomic species (ntypx) = 10
     Max number of k-points (npk) =  40000
     Max angular momentum in pseudopotentials (lmaxx) =  3
     Presently stress not available with electric field

     IMPORTANT: XC functional enforced from input :
     Exchange-correlation      = BEEF-VDW ( 1  4 27 13 2)
     Any further DFT definition will be discarded
     Please, verify this is what you really want

     Subspace diagonalization in iterative solution of the eigenvalue problem:
     a serial algorithm will be used

     bravais-lattice index     =            0
     lattice parameter (alat)  =       1.8897  a.u.
     unit-cell volume          =    5103.0102 (a.u.)^3
     number of atoms/cell      =           12
     number of atomic types    =            2
     number of electrons       =       156.00
     number of Kohn-Sham states=          108
     kinetic-energy cutoff     =      36.7493  Ry
     charge density cutoff     =     367.4932  Ry
     convergence threshold     =      1.0E-06
     mixing beta               =       0.1000
     number of iterations used =           10  plain     mixing
     Exchange-correlation      = BEEF-VDW ( 1  4 27 13 2)
     nstep                     =           50

     celldm(1)=   1.889726  celldm(2)=   0.000000  celldm(3)=   0.000000
     celldm(4)=   0.000000  celldm(5)=   0.000000  celldm(6)=   0.000000

     crystal axes: (cart. coord. in units of alat)
               a(1) = (   5.928795   0.000000   0.000000 )
               a(2) = (  -2.964398   5.134487   0.000000 )
               a(3) = (   0.000000   0.000000  24.840841 )

     reciprocal axes: (cart. coord. in units 2 pi/alat)
               b(1) = (  0.168668  0.097381  0.000000 )
               b(2) = (  0.000000  0.194761  0.000000 )
               b(3) = (  0.000000  0.000000  0.040256 )

     PseudoPot. # 1 for Au read from file:
     /afs/slac.stanford.edu/u/if/mamunm/psp/gbrv1.5pbe/Au.UPF
     MD5 check sum: 9d7f43293ad2c663164586bc4b293ffc
     Pseudo is Ultrasoft + core correction, Zval = 11.0
     Generated by new atomic code, or converted to UPF format
     Using radial grid of  985 points,  7 beta functions with:
                l(1) =   0
                l(2) =   0
                l(3) =   1
                l(4) =   1
                l(5) =   2
                l(6) =   2
                l(7) =   3
     Q(r) pseudized with  6 coefficients,  rinner =    1.900   1.900   1.900
                                                       1.900   1.900   1.900
                                                       1.900

     PseudoPot. # 2 for Ag read from file:
     /afs/slac.stanford.edu/u/if/mamunm/psp/gbrv1.5pbe/Ag.UPF
     MD5 check sum: d66d668201baa78d5eb5b04ef7011058
     Pseudo is Ultrasoft + core correction, Zval = 19.0
     Generated by new atomic code, or converted to UPF format
     Using radial grid of  887 points,  6 beta functions with:
                l(1) =   0
                l(2) =   0
                l(3) =   1
                l(4) =   1
                l(5) =   2
                l(6) =   2
     Q(r) pseudized with  6 coefficients,  rinner =    1.300   1.300   1.300
                                                       1.300   1.300

     vdW kernel table read from file vdW_kernel_table
     MD5 check sum: 095c7af220d748ca6e76c0b4c6cfb241

     atomic species   valence    mass     pseudopotential
        Au1           11.00   196.96657     Au( 1.00)
        Ag1           19.00   107.86820     Ag( 1.00)

     No symmetry found

   Cartesian axes

     site n.     atom                  positions (alat units)
         1           Au1 tau(   1) = (   0.0000000   0.0000000  10.0000000  )
         2           Au1 tau(   2) = (  -1.4821988   2.5672437  10.0000000  )
         3           Au1 tau(   3) = (   1.4821988   2.5672437  10.0000000  )
         4           Ag1 tau(   4) = (   2.9643976   0.0000000  10.0000000  )
         5           Au1 tau(   5) = (   2.9643976   1.7114958  12.4204205  )
         6           Au1 tau(   6) = (   1.4821988   4.2787394  12.4204205  )
         7           Au1 tau(   7) = (  -1.4821988   4.2787394  12.4204205  )
         8           Ag1 tau(   8) = (   0.0000000   1.7114958  12.4204205  )
         9           Au1 tau(   9) = (  -0.0000000   3.4229915  14.8408411  )
        10           Au1 tau(  10) = (   1.4821988   0.8557479  14.8408411  )
        11           Au1 tau(  11) = (   4.4465964   0.8557479  14.8408411  )
        12           Ag1 tau(  12) = (   2.9643976   3.4229915  14.8408411  )

     number of k points=    20  Fermi-Dirac smearing, width (Ry)=  0.0110
                       cart. coord. in units 2pi/alat
        k(    1) = (   0.0000000   0.0000000   0.0000000), wk =   0.0555556
        k(    2) = (   0.0000000   0.0324602   0.0000000), wk =   0.1111111
        k(    3) = (   0.0000000   0.0649205   0.0000000), wk =   0.1111111
        k(    4) = (   0.0000000  -0.0973807   0.0000000), wk =   0.0555556
        k(    5) = (   0.0281114   0.0162301   0.0000000), wk =   0.1111111
        k(    6) = (   0.0281114   0.0486904   0.0000000), wk =   0.1111111
        k(    7) = (   0.0281114   0.0811506   0.0000000), wk =   0.1111111
        k(    8) = (   0.0281114  -0.0811506   0.0000000), wk =   0.1111111
        k(    9) = (   0.0281114  -0.0486904   0.0000000), wk =   0.1111111
        k(   10) = (   0.0281114  -0.0162301   0.0000000), wk =   0.1111111
        k(   11) = (   0.0562228   0.0324602   0.0000000), wk =   0.1111111
        k(   12) = (   0.0562228   0.0649205   0.0000000), wk =   0.1111111
        k(   13) = (   0.0562228   0.0973807   0.0000000), wk =   0.1111111
        k(   14) = (   0.0562228  -0.0649205   0.0000000), wk =   0.1111111
        k(   15) = (   0.0562228  -0.0324602   0.0000000), wk =   0.1111111
        k(   16) = (   0.0562228   0.0000000   0.0000000), wk =   0.1111111
        k(   17) = (  -0.0843342  -0.0486904   0.0000000), wk =   0.0555556
        k(   18) = (  -0.0843342  -0.0162301   0.0000000), wk =   0.1111111
        k(   19) = (  -0.0843342   0.0162301   0.0000000), wk =   0.1111111
        k(   20) = (  -0.0843342  -0.1460711   0.0000000), wk =   0.0555556

     Largest allocated arrays     est. size (Mb)     dimensions
     Largest temporary arrays     est. size (Mb)     dimensions

     Check: negative/imaginary core charge=   -0.000002    0.000000

     Initial potential from superposition of free atoms
     Check: negative starting charge=   -0.001085

     starting charge  154.49876, renormalised to  156.00000

     negative rho (up, down):  1.095E-03 0.000E+00

     *
     * You are using vdW-DF for exchange-correlation in this calculation.
     * Please cite the following three references that made this development
     * possible:
     *
     *   M. Dion, H. Rydberg, E. Schroder, D. C. Langreth, and
     *   B. I. Lundqvist, Phys. Rev. Lett. 92, 246401 (2004).
     *
     *   T. Thonhauser, V. R. Cooper, S. Li, A. Puzder, P. Hyldgaard, and
     *   D. C. Langreth, Phys. Rev. B 76, 125112 (2007).
     *
     *   G. Roman-Perez and J. M. Soler, Phys. Rev. Lett. 103, 096102 (2009).
     *
     *
     * If you are using vdW-DF2, please also cite:
     *
     *   K. Lee, E. D. Murray, L. Kong, B. I. Lundqvist, and
     *   D. C. Langreth, Phys. Rev. B 82, 081101(R) (2010).
     *
     *
     * If you are calculating the stress with vdW-DF, please also cite:
     *
     *   R. Sabatini, E. Kucukbenli, B. Kolb, T. Thonhauser, and
     *   S. de Gironcoli, J. Phys.: Condens. Matter 24, 424209 (2012).
     *

     Carrying out vdW-DF run using the following parameters:

     Nqs =      20    Nr_points =    1024   r_max =   100.000
     q_mesh =
               0.00001000     0.04494208     0.09755937     0.15916263
               0.23128650     0.31572767     0.41458969     0.53033537
               0.66584808     0.82450364     1.01025438     1.22772762
               1.48234092     1.78043706     2.12944203     2.53805004
               3.01644009     3.57652955     4.23227104     5.00000000

     Gradients computed in reciprocal space

     Adding external electric field

     Computed dipole along edir(3) :
        Dipole                0.0000 Ry au,          0.0000 Debye
        Dipole field          0.0000 Ry au

        Potential amp.       -0.0000 Ry
        Total length         45.7688 bohr

     Starting wfc are  120 randomized atomic wfcs

     Self-consistent Calculation

     iteration #  1     ecut=    36.75 Ry     beta=0.10
     Davidson diagonalization with overlap
     ethr =  1.00E-02,  avg # of iterations =  7.8

     Threshold (ethr) on eigenvalues was too large:
     Diagonalizing with lowered threshold

     Davidson diagonalization with overlap
     ethr =  6.82E-04,  avg # of iterations =  1.6

[...]

     total energy              =   -1940.44830970 Ry
     Harris-Foulkes estimate   =   -1940.62169598 Ry
     estimated scf accuracy    <       1.12730588 Ry

[...]

     End of self-consistent calculation

          k = 0.0000 0.0000 0.0000 ( 19219 PWs)   bands (ev):

   -91.4168 -91.2116 -91.2115 -54.9297 -54.9297 -54.9060 -54.7194 -54.7194
   -54.7193 -54.7193 -54.6988 -54.6987  -7.3612  -5.9625  -5.8039  -5.6068
    -5.6068  -5.4626  -5.3935  -5.3935  -5.2701  -5.1389  -5.1389  -5.0905
    -4.9793  -4.9793  -4.8604  -4.1280  -4.1280  -4.0220  -3.9990  -3.9990
    -3.9787  -3.8898  -3.8766  -3.8766  -3.6327  -3.6327  -3.6167  -3.6167
    -3.4797  -3.4754  -3.4754  -3.4331  -3.0897  -2.8579  -2.8579  -2.7793
    -2.7793  -2.7781  -2.7781  -2.4809  -2.4501  -2.3880  -2.3880  -2.1636
    -2.1636  -2.1428  -2.0487  -2.0487  -1.9394  -1.9394  -1.8012  -1.8012
    -1.7708  -1.7708  -1.7556  -1.6440  -1.6440  -1.5381  -1.4996  -1.4996
    -1.2332  -1.2023  -0.9875   0.9639   1.0163   1.0163   1.0963   1.6314
     1.6314   1.9304   2.0416   2.0416   2.2045   3.4917   3.4917   4.3227
     4.4078   4.4078   4.8405   4.9350   5.1571   5.1571   5.2254   5.3179
     6.1217   6.2207   6.6761   8.4010   8.4570   8.4570   8.4598   8.6613
     8.7527   8.7527   9.2571   9.7666

[...]

          k =-0.0843-0.0487 0.0000 ( 19212 PWs)   bands (ev):

[...]

     the Fermi energy is     0.3896 ev

!    total energy              =   -1940.32728871 Ry
     Harris-Foulkes estimate   =   -1940.32728815 Ry
     estimated scf accuracy    <       0.00000095 Ry

     The total energy is the sum of the following terms:

     one-electron contribution =  -11793.27814487 Ry
     hartree contribution      =    5965.98864111 Ry
     xc contribution           =    -666.38327351 Ry
     ewald contribution        =    4553.36915616 Ry
     electric field correction =       0.00000000 Ry
     smearing contrib. (-TS)   =      -0.02366761 Ry

     convergence has been achieved in  13 iterations

 BEEF-vdW xc energy contributions
           1 :   -592.800851982273
           2 :    549.222833961651
           3 :   -472.131252516323
           4 :    377.766143398202
           5 :   -283.072044270777
           6 :    200.948264524991
[...]
                l(1) =   0
                l(2) =   0
                l(3) =   1
                l(4) =   1
                l(5) =   2
                l(6) =   2
                l(7) =   3
     Q(r) pseudized with  6 coefficients,  rinner =    1.900   1.900   1.900
                                                       1.900   1.900   1.900
                                                       1.900

     PseudoPot. # 2 for Ag read from file:
     /afs/slac.stanford.edu/u/if/mamunm/psp/gbrv1.5pbe/Ag.UPF
     MD5 check sum: d66d668201baa78d5eb5b04ef7011058
     Pseudo is Ultrasoft + core correction, Zval = 19.0
     Generated by new atomic code, or converted to UPF format
     Using radial grid of  887 points,  6 beta functions with:
                l(1) =   0
                l(2) =   0
                l(3) =   1
                l(4) =   1
                l(5) =   2
                l(6) =   2
     Q(r) pseudized with  6 coefficients,  rinner =    1.300   1.300   1.300
                                                       1.300   1.300

     vdW kernel table read from file vdW_kernel_table
     MD5 check sum: 095c7af220d748ca6e76c0b4c6cfb241

     atomic species   valence    mass     pseudopotential
        Au1           11.00   196.96657     Au( 1.00)
        Ag1           19.00   107.86820     Ag( 1.00)

     No symmetry found

   Cartesian axes

     site n.     atom                  positions (alat units)
         1           Au1 tau(   1) = (   0.0000000   0.0000000  10.0000000  )
         2           Au1 tau(   2) = (  -1.4821988   2.5672437  10.0000000  )
         3           Au1 tau(   3) = (   1.4821988   2.5672437  10.0000000  )
         4           Ag1 tau(   4) = (   2.9643976   0.0000000  10.0000000  )
         5           Au1 tau(   5) = (   2.9643976   1.7114958  12.4204205  )
         6           Au1 tau(   6) = (   1.4821988   4.2787394  12.4204205  )
         7           Au1 tau(   7) = (  -1.4821988   4.2787394  12.4204205  )
         8           Ag1 tau(   8) = (   0.0000000   1.7114958  12.4204205  )
         9           Au1 tau(   9) = (   0.0000030   3.4166367  14.8772130  )
        10           Au1 tau(  10) = (   1.4766972   0.8589189  14.8772158  )
        11           Au1 tau(  11) = (   4.4521160   0.8589197  14.8772458  )
        12           Ag1 tau(  12) = (   2.9643952   3.4229905  14.9049354  )

     number of k points=    20  Fermi-Dirac smearing, width (Ry)=  0.0110
                       cart. coord. in units 2pi/alat
        k(    1) = (   0.0000000   0.0000000   0.0000000), wk =   0.0555556
        k(    2) = (   0.0000000   0.0324602   0.0000000), wk =   0.1111111
        k(    3) = (   0.0000000   0.0649205   0.0000000), wk =   0.1111111
        k(    4) = (   0.0000000  -0.0973807   0.0000000), wk =   0.0555556
        k(    5) = (   0.0281114   0.0162301   0.0000000), wk =   0.1111111
        k(    6) = (   0.0281114   0.0486904   0.0000000), wk =   0.1111111
        k(    7) = (   0.0281114   0.0811506   0.0000000), wk =   0.1111111
        k(    8) = (   0.0281114  -0.0811506   0.0000000), wk =   0.1111111
        k(    9) = (   0.0281114  -0.0486904   0.0000000), wk =   0.1111111
        k(   10) = (   0.0281114  -0.0162301   0.0000000), wk =   0.1111111
        k(   11) = (   0.0562228   0.0324602   0.0000000), wk =   0.1111111
        k(   12) = (   0.0562228   0.0649205   0.0000000), wk =   0.1111111
        k(   13) = (   0.0562228   0.0973807   0.0000000), wk =   0.1111111
        k(   14) = (   0.0562228  -0.0649205   0.0000000), wk =   0.1111111
        k(   15) = (   0.0562228  -0.0324602   0.0000000), wk =   0.1111111
        k(   16) = (   0.0562228   0.0000000   0.0000000), wk =   0.1111111
        k(   17) = (  -0.0843342  -0.0486904   0.0000000), wk =   0.0555556
        k(   18) = (  -0.0843342  -0.0162301   0.0000000), wk =   0.1111111
        k(   19) = (  -0.0843342   0.0162301   0.0000000), wk =   0.1111111
        k(   20) = (  -0.0843342  -0.1460711   0.0000000), wk =   0.0555556

     Largest allocated arrays     est. size (Mb)     dimensions
     Largest temporary arrays     est. size (Mb)     dimensions

     Check: negative/imaginary core charge=   -0.000002    0.000000

     Initial potential from superposition of free atoms
     Check: negative starting charge=   -0.001057

     starting charge  154.49876, renormalised to  156.00000

[...]

     *
     * You are using vdW-DF for exchange-correlation in this calculation.
     * Please cite the following three references that made this development
     * possible:
     *
     *   M. Dion, H. Rydberg, E. Schroder, D. C. Langreth, and
     *   B. I. Lundqvist, Phys. Rev. Lett. 92, 246401 (2004).
     *
     *   T. Thonhauser, V. R. Cooper, S. Li, A. Puzder, P. Hyldgaard, and
     *   D. C. Langreth, Phys. Rev. B 76, 125112 (2007).
     *
     *   G. Roman-Perez and J. M. Soler, Phys. Rev. Lett. 103, 096102 (2009).
     *
     *
     * If you are using vdW-DF2, please also cite:
     *
     *   K. Lee, E. D. Murray, L. Kong, B. I. Lundqvist, and
     *   D. C. Langreth, Phys. Rev. B 82, 081101(R) (2010).
     *
     *
     * If you are calculating the stress with vdW-DF, please also cite:
     *
     *   R. Sabatini, E. Kucukbenli, B. Kolb, T. Thonhauser, and
     *   S. de Gironcoli, J. Phys.: Condens. Matter 24, 424209 (2012).
     *

     Carrying out vdW-DF run using the following parameters:

     Nqs =      20    Nr_points =    1024   r_max =   100.000
     q_mesh =
               0.00001000     0.04494208     0.09755937     0.15916263
               0.23128650     0.31572767     0.41458969     0.53033537
               0.66584808     0.82450364     1.01025438     1.22772762
               1.48234092     1.78043706     2.12944203     2.53805004
               3.01644009     3.57652955     4.23227104     5.00000000

     Gradients computed in reciprocal space

[...]

     Starting wfc are  120 randomized atomic wfcs

     Self-consistent Calculation

[...]

     Threshold (ethr) on eigenvalues was too large:
     Diagonalizing with lowered threshold

     Davidson diagonalization with overlap
     ethr =  6.86E-04,  avg # of iterations =  1.6

[...]

     total energy              =   -1940.34655433 Ry
     Harris-Foulkes estimate   =   -1940.34655466 Ry
     estimated scf accuracy    <       0.00000116 Ry

     iteration # 15     ecut=    36.75 Ry     beta=0.10
     Davidson diagonalization with overlap
     ethr =  7.41E-10,  avg # of iterations =  3.0

[...]

     negative rho (up, down):  1.110E-03 0.000E+00

     Adding external electric field

     Computed dipole along edir(3) :
        Dipole               -0.0038 Ry au,         -0.0098 Debye
        Dipole field         -0.0000 Ry au

        Potential amp.        0.0009 Ry
        Total length         45.7688 bohr

     End of self-consistent calculation

[...]

          k = 0.0562 0.0000 0.0000 ( 19189 PWs)   bands (ev):

[...]

          k =-0.0843-0.1461 0.0000 ( 19212 PWs)   bands (ev):

   -91.4120 -91.2193 -91.1753 -54.9252 -54.9251 -54.8981 -54.7277 -54.7276
   -54.7051 -54.6848 -54.6847 -54.6578  -6.0368  -5.8179  -5.0477  -5.0285
    -4.9221  -4.8807  -4.8448  -4.8166  -4.7982  -4.6603  -4.5904  -4.5637
    -4.4308  -4.4104  -4.2577  -4.2433  -4.1112  -4.0843  -4.0671  -4.0535
    -3.9987  -3.8663  -3.8107  -3.8013  -3.6036  -3.5496  -3.5076  -3.4974
    -3.4188  -3.3726  -3.3622  -3.3295  -3.3144  -3.2414  -3.2116  -3.1894
    -3.1606  -3.1335  -3.1258  -3.0633  -3.0491  -2.8950  -2.8853  -2.7504
    -2.7224  -2.7044  -2.6525  -2.6308  -2.6183  -2.5043  -2.4910  -2.3908
    -2.3640  -2.3345  -2.2670  -2.0991  -2.0288  -1.9243  -1.8989  -1.8345
    -1.8189  -1.6643  -1.6588  -1.4491   0.0409   0.4393   0.4923   0.8350
     1.4613   1.6863   3.3115   3.6241   3.6835   3.7803   5.6726   5.7083
     5.8423   6.1715   6.3070   6.4403   6.4681   6.5053   6.5239   6.6742
     6.8028   6.9072   7.6506   7.6717   7.7276   7.8327   7.8995   8.0815
     8.4540   8.4600   8.6462   9.0032

     the Fermi energy is     0.3815 ev

!    total energy              =   -1940.34655478 Ry
     Harris-Foulkes estimate   =   -1940.34655453 Ry
     estimated scf accuracy    <       0.00000015 Ry

     The total energy is the sum of the following terms:

     one-electron contribution =  -11716.70686810 Ry
     hartree contribution      =    5927.73747649 Ry
     xc contribution           =    -666.36697969 Ry
     ewald contribution        =    4515.01322285 Ry
     electric field correction =       0.00000004 Ry
     smearing contrib. (-TS)   =      -0.02340636 Ry

     convergence has been achieved in  15 iterations

 BEEF-vdW xc energy contributions
           1 :   -593.305302785431
           2 :    549.692665039193
           3 :   -472.558903695798
           4 :    378.179797479820
           5 :   -283.519121301881
           6 :    201.465851576677
           7 :   -138.401263491775
           8 :    94.4329041712186
           9 :   -65.6180078992998
          10 :    46.8314850738262
          11 :   -33.9883309419409
          12 :    24.8886857929156
          13 :   -18.7949405855563
          14 :    15.4160137298775
          15 :   -14.0844275553936
          16 :    13.5562295702739
          17 :   -12.4060280665968
          18 :    9.64797963192586
          19 :   -5.17945857519385
          20 :  -0.194675118862051
          21 :    5.14308689725840
          22 :   -8.39522111558244
          23 :    9.25599644791919
          24 :   -7.84039051948514
          25 :    4.95786360590887
          26 :   -1.73831364596651
          27 :  -0.818866469565592
          28 :    2.18046718574601
          29 :   -2.38162223618644
          30 :    1.87642970418301
          31 :   -48.4047912981468
          32 :   -35.2533455481727

     Forces acting on atoms (Ry/au):

     negative rho (up, down):  1.110E-03 0.000E+00
     atom    1 type  1   force =    -0.00000032    0.00283026   -0.00420624
     atom    2 type  1   force =     0.00245045   -0.00141545   -0.00420303
     atom    3 type  1   force =    -0.00245069   -0.00141460   -0.00420233
     atom    4 type  2   force =     0.00000039    0.00000049   -0.00693187
     atom    5 type  1   force =    -0.00000023    0.00023789    0.00483769
     atom    6 type  1   force =     0.00020707   -0.00011859    0.00483659
     atom    7 type  1   force =    -0.00020722   -0.00011892    0.00483598
     atom    8 type  2   force =     0.00000042   -0.00000046    0.00310142
     atom    9 type  1   force =     0.00000059   -0.00052575    0.00033015
     atom   10 type  1   force =    -0.00045367    0.00026363    0.00032470
     atom   11 type  1   force =     0.00045285    0.00026214    0.00032392
     atom   12 type  2   force =     0.00000034   -0.00000064    0.00095301

     Total force =     0.014392     Total SCF correction =     0.001284

     entering subroutine stress ...

     negative rho (up, down):  1.110E-03 0.000E+00
          total   stress  (Ry/bohr**3)                   (kbar)     P=   -8.63
  -0.00009323   0.00000000  -0.00000000        -13.72      0.00     -0.00
   0.00000000  -0.00009323   0.00000000          0.00    -13.72      0.00
  -0.00000000   0.00000000   0.00001042         -0.00      0.00      1.53

 !ASE

     Writing output data file calc.save

     General routines

     Parallel routines

   This run was terminated on:   0:56: 9  30Dec2018

   JOB DONE.
Job  /afs/slac/g/suncat/bin/suncat-tsmpirun -x LD_LIBRARY_PATH -wdir /scratch/qe648379_VaXLI pw.x -in pw.inp

TID   HOST_NAME   COMMAND_LINE            STATUS            TERMINATION_TIME
00000 suncat0082 pw.x -in pw.inp   Done                     12/30/2018 00:56:09
00001 suncat0082 pw.x -in pw.inp   Done                     12/30/2018 00:56:09
00002 suncat0082 pw.x -in pw.inp   Done                     12/30/2018 00:56:09
00003 suncat0082 pw.x -in pw.inp   Done                     12/30/2018 00:56:09
00004 suncat0082 pw.x -in pw.inp   Done                     12/30/2018 00:56:09
00005 suncat0082 pw.x -in pw.inp   Done                     12/30/2018 00:56:09
00006 suncat0082 pw.x -in pw.inp   Done                     12/30/2018 00:56:09
00007 suncat0082 pw.x -in pw.inp   Done                     12/30/2018 00:56:09
00008 suncat0077 pw.x -in pw.inp   Done                     12/30/2018 00:56:09
00009 suncat0077 pw.x -in pw.inp   Done                     12/30/2018 00:56:09
00010 suncat0077 pw.x -in pw.inp   Done                     12/30/2018 00:56:09
00011 suncat0077 pw.x -in pw.inp   Done                     12/30/2018 00:56:09
00012 suncat0077 pw.x -in pw.inp   Done                     12/30/2018 00:56:09
00013 suncat0077 pw.x -in pw.inp   Done                     12/30/2018 00:56:09
00014 suncat0077 pw.x -in pw.inp   Done                     12/30/2018 00:56:09
00015 suncat0077 pw.x -in pw.inp   Done                     12/30/2018 00:56:09
00016 suncat0069 pw.x -in pw.inp   Done                     12/30/2018 00:56:09
00017 suncat0069 pw.x -in pw.inp   Done                     12/30/2018 00:56:09
00018 suncat0069 pw.x -in pw.inp   Done                     12/30/2018 00:56:09
00019 suncat0069 pw.x -in pw.inp   Done                     12/30/2018 00:56:09
00020 suncat0069 pw.x -in pw.inp   Done                     12/30/2018 00:56:09
00021 suncat0069 pw.x -in pw.inp   Done                     12/30/2018 00:56:09
00022 suncat0069 pw.x -in pw.inp   Done                     12/30/2018 00:56:09
00023 suncat0069 pw.x -in pw.inp   Done                     12/30/2018 00:56:09
00024 suncat0017 pw.x -in pw.inp   Done                     12/30/2018 00:56:09
00025 suncat0017 pw.x -in pw.inp   Done                     12/30/2018 00:56:09
00026 suncat0017 pw.x -in pw.inp   Done                     12/30/2018 00:56:09
00027 suncat0017 pw.x -in pw.inp   Done                     12/30/2018 00:56:09
00028 suncat0017 pw.x -in pw.inp   Done                     12/30/2018 00:56:09
00029 suncat0017 pw.x -in pw.inp   Done                     12/30/2018 00:56:09
00030 suncat0017 pw.x -in pw.inp   Done                     12/30/2018 00:56:09
00031 suncat0017 pw.x -in pw.inp   Done                     12/30/2018 00:56:09
00032 suncat0016 pw.x -in pw.inp   Done                     12/30/2018 00:56:09
00033 suncat0016 pw.x -in pw.inp   Done                     12/30/2018 00:56:09
00034 suncat0016 pw.x -in pw.inp   Done                     12/30/2018 00:56:09
00035 suncat0016 pw.x -in pw.inp   Done                     12/30/2018 00:56:09
00036 suncat0016 pw.x -in pw.inp   Done                     12/30/2018 00:56:09
00037 suncat0016 pw.x -in pw.inp   Done                     12/30/2018 00:56:09
00038 suncat0016 pw.x -in pw.inp   Done                     12/30/2018 00:56:09
00039 suncat0016 pw.x -in pw.inp   Done                     12/30/2018 00:56:09
00040 suncat0184 pw.x -in pw.inp   Done                     12/30/2018 00:56:09
00041 suncat0184 pw.x -in pw.inp   Done                     12/30/2018 00:56:09
00042 suncat0184 pw.x -in pw.inp   Done                     12/30/2018 00:56:09
00043 suncat0184 pw.x -in pw.inp   Done                     12/30/2018 00:56:09
00044 suncat0184 pw.x -in pw.inp   Done                     12/30/2018 00:56:09
00045 suncat0184 pw.x -in pw.inp   Done                     12/30/2018 00:56:09
00046 suncat0184 pw.x -in pw.inp   Done                     12/30/2018 00:56:09
00047 suncat0184 pw.x -in pw.inp   Done                     12/30/2018 00:56:09
00048 suncat0172 pw.x -in pw.inp   Done                     12/30/2018 00:56:09
00049 suncat0172 pw.x -in pw.inp   Done                     12/30/2018 00:56:09
00050 suncat0172 pw.x -in pw.inp   Done                     12/30/2018 00:56:09
00051 suncat0172 pw.x -in pw.inp   Done                     12/30/2018 00:56:09
00052 suncat0172 pw.x -in pw.inp   Done                     12/30/2018 00:56:09
00053 suncat0172 pw.x -in pw.inp   Done                     12/30/2018 00:56:09
00054 suncat0172 pw.x -in pw.inp   Done                     12/30/2018 00:56:09
00055 suncat0172 pw.x -in pw.inp   Done                     12/30/2018 00:56:09
00056 suncat0171 pw.x -in pw.inp   Done                     12/30/2018 00:56:09
00057 suncat0171 pw.x -in pw.inp   Done                     12/30/2018 00:56:09
00058 suncat0171 pw.x -in pw.inp   Done                     12/30/2018 00:56:09
00059 suncat0171 pw.x -in pw.inp   Done                     12/30/2018 00:56:09
00060 suncat0171 pw.x -in pw.inp   Done                     12/30/2018 00:56:09
00061 suncat0171 pw.x -in pw.inp   Done                     12/30/2018 00:56:09
00062 suncat0171 pw.x -in pw.inp   Done                     12/30/2018 00:56:09
00063 suncat0171 pw.x -in pw.inp   Done                     12/30/2018 00:56:09