     Program PWSCF v.5.1rc2 (svn rev. 11289) starts on 31Dec2018 at  9: 9:14

     Current dimensions of program PWSCF are:
     Max number of different atomic species (ntypx) = 10
     Max number of k-points (npk) =  40000
     Max angular momentum in pseudopotentials (lmaxx) =  3
     Presently stress not available with electric field

     IMPORTANT: XC functional enforced from input :
     Exchange-correlation      = BEEF-VDW ( 1  4 27 13 2)
     Any further DFT definition will be discarded
     Please, verify this is what you really want

     Subspace diagonalization in iterative solution of the eigenvalue problem:
     a serial algorithm will be used

     bravais-lattice index     =            0
     lattice parameter (alat)  =       1.8897  a.u.
     unit-cell volume          =    6959.8104 (a.u.)^3
     number of atoms/cell      =           12
     number of atomic types    =            2
     number of electrons       =       162.00
     number of Kohn-Sham states=          111
     kinetic-energy cutoff     =      36.7493  Ry
     charge density cutoff     =     367.4932  Ry
     convergence threshold     =      1.0E-06
     mixing beta               =       0.1000
     number of iterations used =           10  plain     mixing
     Exchange-correlation      = BEEF-VDW ( 1  4 27 13 2)
     nstep                     =           50

     celldm(1)=   1.889726  celldm(2)=   0.000000  celldm(3)=   0.000000
     celldm(4)=   0.000000  celldm(5)=   0.000000  celldm(6)=   0.000000

     crystal axes: (cart. coord. in units of alat)
               a(1) = (   6.824222   0.000000   0.000000 )
               a(2) = (  -3.412111   5.909949   0.000000 )
               a(3) = (   0.000000   0.000000  25.571954 )

     reciprocal axes: (cart. coord. in units 2 pi/alat)
               b(1) = (  0.146537  0.084603  0.000000 )
               b(2) = (  0.000000  0.169206  0.000000 )
               b(3) = (  0.000000  0.000000  0.039105 )

     PseudoPot. # 1 for Pb read from file:
     /afs/slac.stanford.edu/u/if/mamunm/psp/gbrv1.5pbe/Pb.UPF
     MD5 check sum: 3d1c1779aa92214d1e8f3a7db79003e2
     Pseudo is Ultrasoft + core correction, Zval = 14.0
     Generated by new atomic code, or converted to UPF format
     Using radial grid of  899 points,  6 beta functions with:
                l(1) =   0
                l(2) =   0
                l(3) =   1
                l(4) =   1
                l(5) =   2
                l(6) =   2
     Q(r) pseudized with  6 coefficients,  rinner =    1.000   1.000   1.000
                                                       1.000   1.000

     PseudoPot. # 2 for Hf read from file:
     /afs/slac.stanford.edu/u/if/mamunm/psp/gbrv1.5pbe/Hf.UPF
     MD5 check sum: 8ee9378dfe14276e333edf04c5e4aa26
     Pseudo is Ultrasoft + core correction, Zval = 12.0
     Generated by new atomic code, or converted to UPF format
     Using radial grid of  921 points,  8 beta functions with:
                l(1) =   0
                l(2) =   0
                l(3) =   0
                l(4) =   1
                l(5) =   1
                l(6) =   2
                l(7) =   2
                l(8) =   3
     Q(r) pseudized with  6 coefficients,  rinner =    1.200   1.200   1.200
                                                       1.200   1.200   1.200
                                                       1.200

     vdW kernel table read from file vdW_kernel_table
     MD5 check sum: 095c7af220d748ca6e76c0b4c6cfb241

     atomic species   valence    mass     pseudopotential
        Pb1           14.00   207.20000     Pb( 1.00)
        Hf1           12.00   178.49000     Hf( 1.00)

     No symmetry found

   Cartesian axes

     site n.     atom                  positions (alat units)
         1           Pb1 tau(   1) = (   0.0000000   0.0000000  10.0000000  )
         2           Pb1 tau(   2) = (  -1.7060554   2.9549747  10.0000000  )
         3           Pb1 tau(   3) = (   1.7060554   2.9549747  10.0000000  )
         4           Hf1 tau(   4) = (   3.4121109   0.0000000  10.0000000  )
         5           Pb1 tau(   5) = (   3.4121109   1.9699831  12.7859769  )
         6           Pb1 tau(   6) = (   1.7060554   4.9249579  12.7859769  )
         7           Pb1 tau(   7) = (  -1.7060554   4.9249579  12.7859769  )
         8           Hf1 tau(   8) = (   0.0000000   1.9699831  12.7859769  )
         9           Pb1 tau(   9) = (   0.0000000   3.9399663  15.5719538  )
        10           Pb1 tau(  10) = (   1.7060554   0.9849916  15.5719538  )
        11           Pb1 tau(  11) = (   5.1181663   0.9849916  15.5719538  )
        12           Hf1 tau(  12) = (   3.4121109   3.9399663  15.5719538  )

     number of k points=    20  Fermi-Dirac smearing, width (Ry)=  0.0110
                       cart. coord. in units 2pi/alat
        k(    1) = (   0.0000000   0.0000000   0.0000000), wk =   0.0555556
        k(    2) = (   0.0000000   0.0282010   0.0000000), wk =   0.1111111
        k(    3) = (   0.0000000   0.0564021   0.0000000), wk =   0.1111111
        k(    4) = (   0.0000000  -0.0846031   0.0000000), wk =   0.0555556
        k(    5) = (   0.0244228   0.0141005   0.0000000), wk =   0.1111111
        k(    6) = (   0.0244228   0.0423015   0.0000000), wk =   0.1111111
        k(    7) = (   0.0244228   0.0705026   0.0000000), wk =   0.1111111
        k(    8) = (   0.0244228  -0.0705026   0.0000000), wk =   0.1111111
        k(    9) = (   0.0244228  -0.0423015   0.0000000), wk =   0.1111111
        k(   10) = (   0.0244228  -0.0141005   0.0000000), wk =   0.1111111
        k(   11) = (   0.0488456   0.0282010   0.0000000), wk =   0.1111111
        k(   12) = (   0.0488456   0.0564021   0.0000000), wk =   0.1111111
        k(   13) = (   0.0488456   0.0846031   0.0000000), wk =   0.1111111
        k(   14) = (   0.0488456  -0.0564021   0.0000000), wk =   0.1111111
        k(   15) = (   0.0488456  -0.0282010   0.0000000), wk =   0.1111111
        k(   16) = (   0.0488456   0.0000000   0.0000000), wk =   0.1111111
        k(   17) = (  -0.0732684  -0.0423015   0.0000000), wk =   0.0555556
        k(   18) = (  -0.0732684  -0.0141005   0.0000000), wk =   0.1111111
        k(   19) = (  -0.0732684   0.0141005   0.0000000), wk =   0.1111111
        k(   20) = (  -0.0732684  -0.1269046   0.0000000), wk =   0.0555556

     Largest allocated arrays     est. size (Mb)     dimensions
     Largest temporary arrays     est. size (Mb)     dimensions

     Check: negative/imaginary core charge=   -0.000002    0.000000

     Initial potential from superposition of free atoms
     Check: negative starting charge=   -0.472494

     starting charge  155.97883, renormalised to  162.00000

     negative rho (up, down):  4.907E-01 0.000E+00

     *
     * You are using vdW-DF for exchange-correlation in this calculation.
     * Please cite the following three references that made this development
     * possible:
     *
     *   M. Dion, H. Rydberg, E. Schroder, D. C. Langreth, and
     *   B. I. Lundqvist, Phys. Rev. Lett. 92, 246401 (2004).
     *
     *   T. Thonhauser, V. R. Cooper, S. Li, A. Puzder, P. Hyldgaard, and
     *   D. C. Langreth, Phys. Rev. B 76, 125112 (2007).
     *
     *   G. Roman-Perez and J. M. Soler, Phys. Rev. Lett. 103, 096102 (2009).
     *
     *
     * If you are using vdW-DF2, please also cite:
     *
     *   K. Lee, E. D. Murray, L. Kong, B. I. Lundqvist, and
     *   D. C. Langreth, Phys. Rev. B 82, 081101(R) (2010).
     *
     *
     * If you are calculating the stress with vdW-DF, please also cite:
     *
     *   R. Sabatini, E. Kucukbenli, B. Kolb, T. Thonhauser, and
     *   S. de Gironcoli, J. Phys.: Condens. Matter 24, 424209 (2012).
     *

     Carrying out vdW-DF run using the following parameters:

     Nqs =      20    Nr_points =    1024   r_max =   100.000
     q_mesh =
               0.00001000     0.04494208     0.09755937     0.15916263
               0.23128650     0.31572767     0.41458969     0.53033537
               0.66584808     0.82450364     1.01025438     1.22772762
               1.48234092     1.78043706     2.12944203     2.53805004
               3.01644009     3.57652955     4.23227104     5.00000000

     Gradients computed in reciprocal space

     Adding external electric field

     Computed dipole along edir(3) :
        Dipole               -0.0000 Ry au,         -0.0000 Debye
        Dipole field         -0.0000 Ry au

        Potential amp.        0.0000 Ry
        Total length         47.1159 bohr

     Starting wfc are  120 randomized atomic wfcs

     Self-consistent Calculation

     iteration #  1     ecut=    36.75 Ry     beta=0.10
     Davidson diagonalization with overlap
     ethr =  1.00E-02,  avg # of iterations =  6.0

[...]

     total energy              =   -1976.29547806 Ry
     Harris-Foulkes estimate   =   -1976.98876059 Ry
     estimated scf accuracy    <       4.55184217 Ry

[...]

     End of self-consistent calculation

          k = 0.0000 0.0000 0.0000 ( 26181 PWs)   bands (ev):

   -62.8236 -62.8233 -62.4454 -31.3246 -31.3243 -31.2156 -31.2156 -31.2153
   -31.2153 -30.9290 -30.9290 -30.8268 -16.2050 -16.1699 -16.1699 -16.1658
   -16.1393 -16.1235 -16.0715 -16.0715 -16.0702 -16.0702 -16.0434 -16.0434
   -16.0378 -16.0326 -15.9926 -15.9878 -15.9878 -15.9478 -15.9474 -15.9445
   -15.9445 -15.9195 -15.9195 -15.9110 -15.8985 -15.8985 -15.8773 -15.8773
   -15.8760 -15.8760 -15.8548 -15.8548 -15.8545 -15.8478 -15.8478 -15.8171
   -15.8171 -15.7779 -15.7779 -15.7606 -15.7606 -15.7572 -15.7471 -15.7009
   -15.6998  -9.8570  -8.7606  -7.5163  -6.8051  -6.8051  -6.2106  -6.2106
    -5.5979  -5.5979  -2.8193  -2.2782  -1.9842  -1.7412  -1.7412  -1.3417
    -0.7082  -0.7082  -0.5375  -0.5375  -0.3678   1.0803   1.0803   1.1496
     1.1496   1.1563   1.2533   1.8286   2.0538   2.0845   2.1335   2.1335
     2.2804   2.2804   2.3593   2.3593   2.7061   2.7061   3.5055   3.7346
     3.7346   4.0127   4.1851   4.2362   4.2362   4.4182   4.4351   4.8576
     5.2716   5.3856   5.3856   5.4777   5.6178   5.9773   5.9773

[...]

          k =-0.0733-0.0423 0.0000 ( 26150 PWs)   bands (ev):

[...]

     the Fermi energy is     1.3078 ev

!    total energy              =   -1975.61832560 Ry
     Harris-Foulkes estimate   =   -1975.61828557 Ry
     estimated scf accuracy    <       0.00000030 Ry

     The total energy is the sum of the following terms:

     one-electron contribution =   -9014.42126919 Ry
     hartree contribution      =    4554.29184864 Ry
     xc contribution           =    -819.44471490 Ry
     ewald contribution        =    3304.01237258 Ry
     electric field correction =       0.00000000 Ry
     smearing contrib. (-TS)   =      -0.05656273 Ry

     convergence has been achieved in  16 iterations

 BEEF-vdW xc energy contributions
           1 :   -733.605638879948
           2 :    681.693823020735
           3 :   -590.054965912641
           4 :    478.362201596268
           5 :   -366.967688248146
           6 :    270.881445272372
           7 :   -196.778570523207
           8 :    143.579675925833
           9 :   -105.627240549096
          10 :    76.5399966560469
[...]
     Pseudo is Ultrasoft + core correction, Zval = 14.0
     Generated by new atomic code, or converted to UPF format
     Using radial grid of  899 points,  6 beta functions with:
                l(1) =   0
                l(2) =   0
                l(3) =   1
                l(4) =   1
                l(5) =   2
                l(6) =   2
     Q(r) pseudized with  6 coefficients,  rinner =    1.000   1.000   1.000
                                                       1.000   1.000

     PseudoPot. # 2 for Hf read from file:
     /afs/slac.stanford.edu/u/if/mamunm/psp/gbrv1.5pbe/Hf.UPF
     MD5 check sum: 8ee9378dfe14276e333edf04c5e4aa26
     Pseudo is Ultrasoft + core correction, Zval = 12.0
     Generated by new atomic code, or converted to UPF format
     Using radial grid of  921 points,  8 beta functions with:
                l(1) =   0
                l(2) =   0
                l(3) =   0
                l(4) =   1
                l(5) =   1
                l(6) =   2
                l(7) =   2
                l(8) =   3
     Q(r) pseudized with  6 coefficients,  rinner =    1.200   1.200   1.200
                                                       1.200   1.200   1.200
                                                       1.200

     vdW kernel table read from file vdW_kernel_table
     MD5 check sum: 095c7af220d748ca6e76c0b4c6cfb241

     atomic species   valence    mass     pseudopotential
        Pb1           14.00   207.20000     Pb( 1.00)
        Hf1           12.00   178.49000     Hf( 1.00)

     No symmetry found

   Cartesian axes

     site n.     atom                  positions (alat units)
         1           Pb1 tau(   1) = (   0.0000000   0.0000000  10.0000000  )
         2           Pb1 tau(   2) = (  -1.7060554   2.9549747  10.0000000  )
         3           Pb1 tau(   3) = (   1.7060554   2.9549747  10.0000000  )
         4           Hf1 tau(   4) = (   3.4121109   0.0000000  10.0000000  )
         5           Pb1 tau(   5) = (   3.4121109   1.9699831  12.7859769  )
         6           Pb1 tau(   6) = (   1.7060554   4.9249579  12.7859769  )
         7           Pb1 tau(   7) = (  -1.7060554   4.9249579  12.7859769  )
         8           Hf1 tau(   8) = (   0.0000000   1.9699831  12.7859769  )
         9           Pb1 tau(   9) = (   0.0000142   3.8728323  15.6759440  )
        10           Pb1 tau(  10) = (   1.6478911   1.0185674  15.6759905  )
        11           Pb1 tau(  11) = (   5.1763217   1.0185776  15.6760060  )
        12           Hf1 tau(  12) = (   3.4121138   3.9399503  15.0970452  )

     number of k points=    20  Fermi-Dirac smearing, width (Ry)=  0.0110
                       cart. coord. in units 2pi/alat
        k(    1) = (   0.0000000   0.0000000   0.0000000), wk =   0.0555556
        k(    2) = (   0.0000000   0.0282010   0.0000000), wk =   0.1111111
        k(    3) = (   0.0000000   0.0564021   0.0000000), wk =   0.1111111
        k(    4) = (   0.0000000  -0.0846031   0.0000000), wk =   0.0555556
        k(    5) = (   0.0244228   0.0141005   0.0000000), wk =   0.1111111
        k(    6) = (   0.0244228   0.0423015   0.0000000), wk =   0.1111111
        k(    7) = (   0.0244228   0.0705026   0.0000000), wk =   0.1111111
        k(    8) = (   0.0244228  -0.0705026   0.0000000), wk =   0.1111111
        k(    9) = (   0.0244228  -0.0423015   0.0000000), wk =   0.1111111
        k(   10) = (   0.0244228  -0.0141005   0.0000000), wk =   0.1111111
        k(   11) = (   0.0488456   0.0282010   0.0000000), wk =   0.1111111
        k(   12) = (   0.0488456   0.0564021   0.0000000), wk =   0.1111111
        k(   13) = (   0.0488456   0.0846031   0.0000000), wk =   0.1111111
        k(   14) = (   0.0488456  -0.0564021   0.0000000), wk =   0.1111111
        k(   15) = (   0.0488456  -0.0282010   0.0000000), wk =   0.1111111
        k(   16) = (   0.0488456   0.0000000   0.0000000), wk =   0.1111111
        k(   17) = (  -0.0732684  -0.0423015   0.0000000), wk =   0.0555556
        k(   18) = (  -0.0732684  -0.0141005   0.0000000), wk =   0.1111111
        k(   19) = (  -0.0732684   0.0141005   0.0000000), wk =   0.1111111
        k(   20) = (  -0.0732684  -0.1269046   0.0000000), wk =   0.0555556

     Largest allocated arrays     est. size (Mb)     dimensions
     Largest temporary arrays     est. size (Mb)     dimensions

     Check: negative/imaginary core charge=   -0.000002    0.000000

     Initial potential from superposition of free atoms
     Check: negative starting charge=   -0.472677

     starting charge  155.97883, renormalised to  162.00000

[...]

     *
     * You are using vdW-DF for exchange-correlation in this calculation.
     * Please cite the following three references that made this development
     * possible:
     *
     *   M. Dion, H. Rydberg, E. Schroder, D. C. Langreth, and
     *   B. I. Lundqvist, Phys. Rev. Lett. 92, 246401 (2004).
     *
     *   T. Thonhauser, V. R. Cooper, S. Li, A. Puzder, P. Hyldgaard, and
     *   D. C. Langreth, Phys. Rev. B 76, 125112 (2007).
     *
     *   G. Roman-Perez and J. M. Soler, Phys. Rev. Lett. 103, 096102 (2009).
     *
     *
     * If you are using vdW-DF2, please also cite:
     *
     *   K. Lee, E. D. Murray, L. Kong, B. I. Lundqvist, and
     *   D. C. Langreth, Phys. Rev. B 82, 081101(R) (2010).
     *
     *
     * If you are calculating the stress with vdW-DF, please also cite:
     *
     *   R. Sabatini, E. Kucukbenli, B. Kolb, T. Thonhauser, and
     *   S. de Gironcoli, J. Phys.: Condens. Matter 24, 424209 (2012).
     *

     Carrying out vdW-DF run using the following parameters:

     Nqs =      20    Nr_points =    1024   r_max =   100.000
     q_mesh =
               0.00001000     0.04494208     0.09755937     0.15916263
               0.23128650     0.31572767     0.41458969     0.53033537
               0.66584808     0.82450364     1.01025438     1.22772762
               1.48234092     1.78043706     2.12944203     2.53805004
               3.01644009     3.57652955     4.23227104     5.00000000

     Gradients computed in reciprocal space

[...]

     Starting wfc are  120 randomized atomic wfcs

     Self-consistent Calculation

[...]

     total energy              =   -1975.65233363 Ry
     Harris-Foulkes estimate   =   -1975.65232058 Ry
     estimated scf accuracy    <       0.00000185 Ry

     iteration # 17     ecut=    36.75 Ry     beta=0.10
     Davidson diagonalization with overlap
     ethr =  1.14E-09,  avg # of iterations =  4.3

[...]

     negative rho (up, down):  5.047E-01 0.000E+00

     Adding external electric field

     Computed dipole along edir(3) :
        Dipole                0.0266 Ry au,          0.0675 Debye
        Dipole field          0.0000 Ry au

        Potential amp.       -0.0045 Ry
        Total length         47.1159 bohr

     End of self-consistent calculation

[...]

          k = 0.0488 0.0000 0.0000 ( 26203 PWs)   bands (ev):

[...]

          k =-0.0733-0.1269 0.0000 ( 26150 PWs)   bands (ev):

   -62.8769 -62.5187 -62.4601 -31.3812 -31.2607 -31.2605 -31.0072 -30.9794
   -30.9793 -30.9464 -30.9462 -30.8296 -16.1622 -16.1046 -16.0989 -16.0854
   -16.0704 -16.0633 -16.0465 -16.0311 -16.0286 -16.0253 -16.0023 -15.9909
   -15.9815 -15.9727 -15.9642 -15.9590 -15.9531 -15.9460 -15.9451 -15.9433
   -15.9344 -15.9201 -15.9151 -15.9124 -15.9021 -15.8991 -15.8986 -15.8883
   -15.8840 -15.8805 -15.8796 -15.8721 -15.8680 -15.8647 -15.8620 -15.8614
   -15.8552 -15.8366 -15.8324 -15.8312 -15.8156 -15.7959 -15.7715 -15.7471
   -15.7385  -8.9429  -8.6403  -7.9091  -7.4825  -7.0401  -7.0283  -6.5838
    -6.1827  -5.4729  -3.0180  -2.4055  -1.6087  -0.7862  -0.6424  -0.5328
    -0.3930  -0.3395  -0.2078   0.3296   0.3364   0.4491   0.8798   0.9070
     1.2487   1.3062   1.5337   1.7294   1.7527   1.8818   2.1299   2.2195
     2.2316   2.2773   2.5517   2.5919   2.7340   2.8859   3.3707   3.5526
     3.6174   3.7114   3.9273   4.2884   4.7304   4.7542   4.9371   5.2289
     5.2640   5.5638   5.5940   5.6970   5.7397   5.8404   5.9950

     the Fermi energy is     1.2872 ev

!    total energy              =   -1975.65236070 Ry
     Harris-Foulkes estimate   =   -1975.65233385 Ry
     estimated scf accuracy    <       0.00000064 Ry

     The total energy is the sum of the following terms:

     one-electron contribution =   -9039.19938843 Ry
     hartree contribution      =    4566.79395696 Ry
     xc contribution           =    -819.52560164 Ry
     ewald contribution        =    3316.33236289 Ry
     electric field correction =       0.00000127 Ry
     smearing contrib. (-TS)   =      -0.05369176 Ry

     convergence has been achieved in  17 iterations

 BEEF-vdW xc energy contributions
           1 :   -733.685442153893
           2 :    681.793312098995
           3 :   -590.185447324997
           4 :    478.513049407618
           5 :   -367.100008844855
           6 :    270.945329880385
           7 :   -196.744830903592
           8 :    143.463008109827
           9 :   -105.482511226506
          10 :    76.4330103910399
          11 :   -51.9609239258427
          12 :    30.5706832339173
          13 :   -12.8019228023898
          14 :  -0.320720486935670
          15 :    8.55128024006933
          16 :   -12.8471364326713
          17 :    14.9541822500203
          18 :   -16.5679100114044
          19 :    18.5744225300211
          20 :   -20.7567024400423
          21 :    22.0777932791814
          22 :   -21.3845271520879
          23 :    18.1704737972971
          24 :   -13.0152707059319
          25 :    7.46112078842634
          26 :   -3.37270784816178
          27 :    2.08778402080873
          28 :   -3.79295935365417
          29 :    7.44703011115359
          30 :   -11.2941804088068
          31 :   -56.8697803944939
          32 :   -41.5031061377887

     Forces acting on atoms (Ry/au):

     negative rho (up, down):  5.047E-01 0.000E+00
     atom    1 type  1   force =     0.00000206    0.01237491   -0.01179658
     atom    2 type  1   force =     0.01071585   -0.00619139   -0.01179177
     atom    3 type  1   force =    -0.01072125   -0.00618798   -0.01179163
     atom    4 type  2   force =     0.00000087    0.00000008    0.06385870
     atom    5 type  1   force =     0.00000247   -0.01381903   -0.00954802
     atom    6 type  1   force =    -0.01196440    0.00691171   -0.00954419
     atom    7 type  1   force =     0.01196066    0.00690926   -0.00953631
     atom    8 type  2   force =    -0.00000013   -0.00000041    0.00044580
     atom    9 type  1   force =     0.00000193    0.00009092   -0.00031892
     atom   10 type  1   force =     0.00008168   -0.00004275   -0.00032227
     atom   11 type  1   force =    -0.00007983   -0.00004647   -0.00032466
     atom   12 type  2   force =     0.00000008    0.00000116    0.00066984

     Total force =     0.076168     Total SCF correction =     0.001647

     entering subroutine stress ...

     negative rho (up, down):  5.047E-01 0.000E+00
          total   stress  (Ry/bohr**3)                   (kbar)     P=   -8.87
  -0.00007749   0.00000000   0.00000000        -11.40      0.00      0.00
   0.00000000  -0.00007749  -0.00000000          0.00    -11.40     -0.00
   0.00000000  -0.00000000  -0.00002582          0.00     -0.00     -3.80

 !ASE

     Writing output data file calc.save

     General routines

     Parallel routines

   This run was terminated on:  11: 9:48  31Dec2018

   JOB DONE.
Job  /afs/slac/g/suncat/bin/suncat-tsmpirun -x LD_LIBRARY_PATH -wdir /scratch/qe648726_e5tLQ pw.x -in pw.inp

TID   HOST_NAME   COMMAND_LINE            STATUS            TERMINATION_TIME
00000 suncat0169 pw.x -in pw.inp   Done                     12/31/2018 11:09:48
00001 suncat0169 pw.x -in pw.inp   Done                     12/31/2018 11:09:48
00002 suncat0169 pw.x -in pw.inp   Done                     12/31/2018 11:09:48
00003 suncat0169 pw.x -in pw.inp   Done                     12/31/2018 11:09:48
00004 suncat0169 pw.x -in pw.inp   Done                     12/31/2018 11:09:48
00005 suncat0169 pw.x -in pw.inp   Done                     12/31/2018 11:09:48
00006 suncat0169 pw.x -in pw.inp   Done                     12/31/2018 11:09:48
00007 suncat0169 pw.x -in pw.inp   Done                     12/31/2018 11:09:48
00008 suncat0168 pw.x -in pw.inp   Done                     12/31/2018 11:09:48
00009 suncat0168 pw.x -in pw.inp   Done                     12/31/2018 11:09:48
00010 suncat0168 pw.x -in pw.inp   Done                     12/31/2018 11:09:48
00011 suncat0168 pw.x -in pw.inp   Done                     12/31/2018 11:09:48
00012 suncat0168 pw.x -in pw.inp   Done                     12/31/2018 11:09:48
00013 suncat0168 pw.x -in pw.inp   Done                     12/31/2018 11:09:48
00014 suncat0168 pw.x -in pw.inp   Done                     12/31/2018 11:09:48
00015 suncat0168 pw.x -in pw.inp   Done                     12/31/2018 11:09:48
00016 suncat0161 pw.x -in pw.inp   Done                     12/31/2018 11:09:48
00017 suncat0161 pw.x -in pw.inp   Done                     12/31/2018 11:09:48
00018 suncat0161 pw.x -in pw.inp   Done                     12/31/2018 11:09:48
00019 suncat0161 pw.x -in pw.inp   Done                     12/31/2018 11:09:48
00020 suncat0161 pw.x -in pw.inp   Done                     12/31/2018 11:09:48
00021 suncat0161 pw.x -in pw.inp   Done                     12/31/2018 11:09:48
00022 suncat0161 pw.x -in pw.inp   Done                     12/31/2018 11:09:48
00023 suncat0161 pw.x -in pw.inp   Done                     12/31/2018 11:09:48
00024 suncat0137 pw.x -in pw.inp   Done                     12/31/2018 11:09:48
00025 suncat0137 pw.x -in pw.inp   Done                     12/31/2018 11:09:48
00026 suncat0137 pw.x -in pw.inp   Done                     12/31/2018 11:09:48
00027 suncat0137 pw.x -in pw.inp   Done                     12/31/2018 11:09:48
00028 suncat0137 pw.x -in pw.inp   Done                     12/31/2018 11:09:48
00029 suncat0137 pw.x -in pw.inp   Done                     12/31/2018 11:09:48
00030 suncat0137 pw.x -in pw.inp   Done                     12/31/2018 11:09:48
00031 suncat0137 pw.x -in pw.inp   Done                     12/31/2018 11:09:48
00032 suncat0117 pw.x -in pw.inp   Done                     12/31/2018 11:09:48
00033 suncat0117 pw.x -in pw.inp   Done                     12/31/2018 11:09:48
00034 suncat0117 pw.x -in pw.inp   Done                     12/31/2018 11:09:48
00035 suncat0117 pw.x -in pw.inp   Done                     12/31/2018 11:09:48
00036 suncat0117 pw.x -in pw.inp   Done                     12/31/2018 11:09:48
00037 suncat0117 pw.x -in pw.inp   Done                     12/31/2018 11:09:48
00038 suncat0117 pw.x -in pw.inp   Done                     12/31/2018 11:09:48
00039 suncat0117 pw.x -in pw.inp   Done                     12/31/2018 11:09:48
00040 suncat0250 pw.x -in pw.inp   Done                     12/31/2018 11:09:48
00041 suncat0250 pw.x -in pw.inp   Done                     12/31/2018 11:09:48
00042 suncat0250 pw.x -in pw.inp   Done                     12/31/2018 11:09:48
00043 suncat0250 pw.x -in pw.inp   Done                     12/31/2018 11:09:48
00044 suncat0250 pw.x -in pw.inp   Done                     12/31/2018 11:09:48
00045 suncat0250 pw.x -in pw.inp   Done                     12/31/2018 11:09:48
00046 suncat0250 pw.x -in pw.inp   Done                     12/31/2018 11:09:48
00047 suncat0250 pw.x -in pw.inp   Done                     12/31/2018 11:09:48
00048 suncat0249 pw.x -in pw.inp   Done                     12/31/2018 11:09:48
00049 suncat0249 pw.x -in pw.inp   Done                     12/31/2018 11:09:48
00050 suncat0249 pw.x -in pw.inp   Done                     12/31/2018 11:09:48
00051 suncat0249 pw.x -in pw.inp   Done                     12/31/2018 11:09:48
00052 suncat0249 pw.x -in pw.inp   Done                     12/31/2018 11:09:48
00053 suncat0249 pw.x -in pw.inp   Done                     12/31/2018 11:09:48
00054 suncat0249 pw.x -in pw.inp   Done                     12/31/2018 11:09:48
00055 suncat0249 pw.x -in pw.inp   Done                     12/31/2018 11:09:48
00056 suncat0231 pw.x -in pw.inp   Done                     12/31/2018 11:09:48
00057 suncat0231 pw.x -in pw.inp   Done                     12/31/2018 11:09:48
00058 suncat0231 pw.x -in pw.inp   Done                     12/31/2018 11:09:48
00059 suncat0231 pw.x -in pw.inp   Done                     12/31/2018 11:09:48
00060 suncat0231 pw.x -in pw.inp   Done                     12/31/2018 11:09:48
00061 suncat0231 pw.x -in pw.inp   Done                     12/31/2018 11:09:48
00062 suncat0231 pw.x -in pw.inp   Done                     12/31/2018 11:09:48
00063 suncat0231 pw.x -in pw.inp   Done                     12/31/2018 11:09:48