     Program PWSCF v.5.1rc2 (svn rev. 11289) starts on  1Jan2019 at 10:13:34

     Current dimensions of program PWSCF are:
     Max number of different atomic species (ntypx) = 10
     Max number of k-points (npk) =  40000
     Max angular momentum in pseudopotentials (lmaxx) =  3
     Presently stress not available with electric field

     IMPORTANT: XC functional enforced from input :
     Exchange-correlation      = BEEF-VDW ( 1  4 27 13 2)
     Any further DFT definition will be discarded
     Please, verify this is what you really want

     Subspace diagonalization in iterative solution of the eigenvalue problem:
     a serial algorithm will be used

     bravais-lattice index     =            0
     lattice parameter (alat)  =       1.8897  a.u.
     unit-cell volume          =    6592.8055 (a.u.)^3
     number of atoms/cell      =           12
     number of atomic types    =            2
     number of electrons       =       183.00
     number of Kohn-Sham states=          121
     kinetic-energy cutoff     =      36.7493  Ry
     charge density cutoff     =     367.4932  Ry
     convergence threshold     =      1.0E-06
     mixing beta               =       0.1000
     number of iterations used =           10  plain     mixing
     Exchange-correlation      = BEEF-VDW ( 1  4 27 13 2)
     nstep                     =           50

     celldm(1)=   1.889726  celldm(2)=   0.000000  celldm(3)=   0.000000
     celldm(4)=   0.000000  celldm(5)=   0.000000  celldm(6)=   0.000000

     crystal axes: (cart. coord. in units of alat)
               a(1) = (   6.659403   0.000000   0.000000 )
               a(2) = (  -3.329702   5.767213   0.000000 )
               a(3) = (   0.000000   0.000000  25.437380 )

     reciprocal axes: (cart. coord. in units 2 pi/alat)
               b(1) = (  0.150164  0.086697  0.000000 )
               b(2) = (  0.000000  0.173394  0.000000 )
               b(3) = (  0.000000  0.000000  0.039312 )

     PseudoPot. # 1 for Sn read from file:
     /afs/slac.stanford.edu/u/if/mamunm/psp/gbrv1.5pbe/Sn.UPF
     MD5 check sum: 469debedee59599fedebd795477fea03
     Pseudo is Ultrasoft + core correction, Zval = 14.0
     Generated by new atomic code, or converted to UPF format
     Using radial grid of  891 points,  6 beta functions with:
                l(1) =   0
                l(2) =   0
                l(3) =   1
                l(4) =   1
                l(5) =   2
                l(6) =   2
     Q(r) pseudized with  8 coefficients,  rinner =    1.350   1.350   1.350
                                                       1.350   1.350

     PseudoPot. # 2 for Ag read from file:
     /afs/slac.stanford.edu/u/if/mamunm/psp/gbrv1.5pbe/Ag.UPF
     MD5 check sum: d66d668201baa78d5eb5b04ef7011058
     Pseudo is Ultrasoft + core correction, Zval = 19.0
     Generated by new atomic code, or converted to UPF format
     Using radial grid of  887 points,  6 beta functions with:
                l(1) =   0
                l(2) =   0
                l(3) =   1
                l(4) =   1
                l(5) =   2
                l(6) =   2
     Q(r) pseudized with  6 coefficients,  rinner =    1.300   1.300   1.300
                                                       1.300   1.300

     vdW kernel table read from file vdW_kernel_table
     MD5 check sum: 095c7af220d748ca6e76c0b4c6cfb241

     atomic species   valence    mass     pseudopotential
        Sn1           14.00   118.71000     Sn( 1.00)
        Ag1           19.00   107.86820     Ag( 1.00)

     No symmetry found

   Cartesian axes

     site n.     atom                  positions (alat units)
         1           Sn1 tau(   1) = (   0.0000000   0.0000000  10.0000000  )
         2           Sn1 tau(   2) = (  -1.6648509   2.8836063  10.0000000  )
         3           Sn1 tau(   3) = (   1.6648509   2.8836063  10.0000000  )
         4           Ag1 tau(   4) = (   3.3297017   0.0000000  10.0000000  )
         5           Sn1 tau(   5) = (   3.3297017   1.9224042  12.7186901  )
         6           Sn1 tau(   6) = (   1.6648509   4.8060104  12.7186901  )
         7           Sn1 tau(   7) = (  -1.6648509   4.8060104  12.7186901  )
         8           Ag1 tau(   8) = (   0.0000000   1.9224042  12.7186901  )
         9           Sn1 tau(   9) = (  -0.0000000   3.8448084  15.4373801  )
        10           Sn1 tau(  10) = (   1.6648509   0.9612021  15.4373801  )
        11           Sn1 tau(  11) = (   4.9945526   0.9612021  15.4373801  )
        12           Ag1 tau(  12) = (   3.3297017   3.8448084  15.4373801  )

     number of k points=    20  Fermi-Dirac smearing, width (Ry)=  0.0110
                       cart. coord. in units 2pi/alat
        k(    1) = (   0.0000000   0.0000000   0.0000000), wk =   0.0555556
        k(    2) = (   0.0000000   0.0288990   0.0000000), wk =   0.1111111
        k(    3) = (   0.0000000   0.0577980   0.0000000), wk =   0.1111111
        k(    4) = (   0.0000000  -0.0866970   0.0000000), wk =   0.0555556
        k(    5) = (   0.0250273   0.0144495   0.0000000), wk =   0.1111111
        k(    6) = (   0.0250273   0.0433485   0.0000000), wk =   0.1111111
        k(    7) = (   0.0250273   0.0722475   0.0000000), wk =   0.1111111
        k(    8) = (   0.0250273  -0.0722475   0.0000000), wk =   0.1111111
        k(    9) = (   0.0250273  -0.0433485   0.0000000), wk =   0.1111111
        k(   10) = (   0.0250273  -0.0144495   0.0000000), wk =   0.1111111
        k(   11) = (   0.0500545   0.0288990   0.0000000), wk =   0.1111111
        k(   12) = (   0.0500545   0.0577980   0.0000000), wk =   0.1111111
        k(   13) = (   0.0500545   0.0866970   0.0000000), wk =   0.1111111
        k(   14) = (   0.0500545  -0.0577980   0.0000000), wk =   0.1111111
        k(   15) = (   0.0500545  -0.0288990   0.0000000), wk =   0.1111111
        k(   16) = (   0.0500545   0.0000000   0.0000000), wk =   0.1111111
        k(   17) = (  -0.0750818  -0.0433485   0.0000000), wk =   0.0555556
        k(   18) = (  -0.0750818  -0.0144495   0.0000000), wk =   0.1111111
        k(   19) = (  -0.0750818   0.0144495   0.0000000), wk =   0.1111111
        k(   20) = (  -0.0750818  -0.1300455   0.0000000), wk =   0.0555556

     Largest allocated arrays     est. size (Mb)     dimensions
     Largest temporary arrays     est. size (Mb)     dimensions

     Initial potential from superposition of free atoms
     Check: negative starting charge=   -0.001910

     starting charge  172.49945, renormalised to  183.00000

     negative rho (up, down):  2.026E-03 0.000E+00

     *
     * You are using vdW-DF for exchange-correlation in this calculation.
     * Please cite the following three references that made this development
     * possible:
     *
     *   M. Dion, H. Rydberg, E. Schroder, D. C. Langreth, and
     *   B. I. Lundqvist, Phys. Rev. Lett. 92, 246401 (2004).
     *
     *   T. Thonhauser, V. R. Cooper, S. Li, A. Puzder, P. Hyldgaard, and
     *   D. C. Langreth, Phys. Rev. B 76, 125112 (2007).
     *
     *   G. Roman-Perez and J. M. Soler, Phys. Rev. Lett. 103, 096102 (2009).
     *
     *
     * If you are using vdW-DF2, please also cite:
     *
     *   K. Lee, E. D. Murray, L. Kong, B. I. Lundqvist, and
     *   D. C. Langreth, Phys. Rev. B 82, 081101(R) (2010).
     *
     *
     * If you are calculating the stress with vdW-DF, please also cite:
     *
     *   R. Sabatini, E. Kucukbenli, B. Kolb, T. Thonhauser, and
     *   S. de Gironcoli, J. Phys.: Condens. Matter 24, 424209 (2012).
     *

     Carrying out vdW-DF run using the following parameters:

     Nqs =      20    Nr_points =    1024   r_max =   100.000
     q_mesh =
               0.00001000     0.04494208     0.09755937     0.15916263
               0.23128650     0.31572767     0.41458969     0.53033537
               0.66584808     0.82450364     1.01025438     1.22772762
               1.48234092     1.78043706     2.12944203     2.53805004
               3.01644009     3.57652955     4.23227104     5.00000000

     Gradients computed in reciprocal space

     Adding external electric field

     Computed dipole along edir(3) :
        Dipole                0.0000 Ry au,          0.0000 Debye
        Dipole field          0.0000 Ry au

        Potential amp.       -0.0000 Ry
        Total length         46.8679 bohr

     Starting wfc are  120 randomized atomic wfcs +    1 random wfc

     Self-consistent Calculation

     iteration #  1     ecut=    36.75 Ry     beta=0.10
     Davidson diagonalization with overlap
     ethr =  1.00E-02,  avg # of iterations =  9.9

[...]

     total energy              =   -2315.62928305 Ry
     Harris-Foulkes estimate   =   -2349.62336263 Ry
     estimated scf accuracy    <     189.21832660 Ry

[...]

     End of self-consistent calculation

          k = 0.0000 0.0000 0.0000 ( 24741 PWs)   bands (ev):

   -91.4935 -91.2863 -91.2863 -54.9990 -54.9789 -54.9789 -54.7952 -54.7952
   -54.7951 -54.7951 -54.7684 -54.7684 -21.3232 -21.3160 -21.3071 -21.3071
   -21.2944 -21.2944 -21.2857 -21.2639 -21.2590 -21.2590 -21.2493 -21.2468
   -21.2433 -21.2433 -21.2369 -21.2369 -21.2367 -21.2363 -21.2244 -21.2244
   -21.2032 -21.1992 -21.1992 -21.1981 -21.1981 -21.1967 -21.1967 -21.1783
   -21.1732 -21.1732 -21.1586 -21.1585 -21.1585 -21.1462 -21.1462 -21.1232
   -21.1232 -21.1214 -21.1147 -21.1120 -21.1120 -21.1053 -21.0776 -21.0776
   -21.0611  -9.3672  -8.2519  -6.8283  -6.0324  -6.0324  -5.4130  -5.4130
    -4.8071  -4.8071  -3.8672  -3.8025  -3.7476  -3.7476  -3.6585  -3.6585
    -3.5673  -3.5673  -3.3788  -3.2707  -3.2707  -3.2368  -3.2221  -3.2221
    -3.0295  -3.0295  -2.6424  -2.2717  -2.0707  -2.0707  -1.9735  -1.1090
    -1.1090  -0.7089  -0.6742  -0.6742   0.8398   0.8996   1.6984   2.2595
     2.2595   2.3682   2.3682   3.3572   3.7141   3.8775   3.9132   4.4951
     4.5958   4.5958   4.9354   5.0565   5.1694   5.1703   5.1703   5.9821
     5.9821   6.0531   6.4474   6.6448   6.8538   6.8538   6.9004   6.9145
     6.9145

[...]

          k =-0.0751-0.0433 0.0000 ( 24846 PWs)   bands (ev):

[...]

     the Fermi energy is     0.7433 ev

!    total energy              =   -2336.16857254 Ry
     Harris-Foulkes estimate   =   -2336.16857315 Ry
     estimated scf accuracy    <       0.00000048 Ry

     The total energy is the sum of the following terms:

     one-electron contribution =  -12820.97246323 Ry
     hartree contribution      =    6453.98447887 Ry
     xc contribution           =    -490.41835394 Ry
     ewald contribution        =    4521.26787132 Ry
     electric field correction =       0.00000000 Ry
     smearing contrib. (-TS)   =      -0.03010556 Ry

     convergence has been achieved in  16 iterations

 BEEF-vdW xc energy contributions
           1 :   -429.871327141183
           2 :    392.608112457120
           3 :   -329.696646083250
           4 :    259.080867875205
           5 :   -197.562974665805
           6 :    154.779611424425
           7 :   -131.135753046613
           8 :    120.050647957760
           9 :   -112.821835913563
          10 :    103.335377836314
          11 :   -90.3327527237631
          12 :    76.5530228638065
[...]
     Pseudo is Ultrasoft + core correction, Zval = 14.0
     Generated by new atomic code, or converted to UPF format
     Using radial grid of  891 points,  6 beta functions with:
                l(1) =   0
                l(2) =   0
                l(3) =   1
                l(4) =   1
                l(5) =   2
                l(6) =   2
     Q(r) pseudized with  8 coefficients,  rinner =    1.350   1.350   1.350
                                                       1.350   1.350

     PseudoPot. # 2 for Ag read from file:
     /afs/slac.stanford.edu/u/if/mamunm/psp/gbrv1.5pbe/Ag.UPF
     MD5 check sum: d66d668201baa78d5eb5b04ef7011058
     Pseudo is Ultrasoft + core correction, Zval = 19.0
     Generated by new atomic code, or converted to UPF format
     Using radial grid of  887 points,  6 beta functions with:
                l(1) =   0
                l(2) =   0
                l(3) =   1
                l(4) =   1
                l(5) =   2
                l(6) =   2
     Q(r) pseudized with  6 coefficients,  rinner =    1.300   1.300   1.300
                                                       1.300   1.300

     vdW kernel table read from file vdW_kernel_table
     MD5 check sum: 095c7af220d748ca6e76c0b4c6cfb241

     atomic species   valence    mass     pseudopotential
        Sn1           14.00   118.71000     Sn( 1.00)
        Ag1           19.00   107.86820     Ag( 1.00)

     No symmetry found

   Cartesian axes

     site n.     atom                  positions (alat units)
         1           Sn1 tau(   1) = (   0.0000000   0.0000000  10.0000000  )
         2           Sn1 tau(   2) = (  -1.6648509   2.8836063  10.0000000  )
         3           Sn1 tau(   3) = (   1.6648509   2.8836063  10.0000000  )
         4           Ag1 tau(   4) = (   3.3297017   0.0000000  10.0000000  )
         5           Sn1 tau(   5) = (   3.3297017   1.9224042  12.7186901  )
         6           Sn1 tau(   6) = (   1.6648509   4.8060104  12.7186901  )
         7           Sn1 tau(   7) = (  -1.6648509   4.8060104  12.7186901  )
         8           Ag1 tau(   8) = (   0.0000000   1.9224042  12.7186901  )
         9           Sn1 tau(   9) = (  -0.0000093   3.8152785  15.3497939  )
        10           Sn1 tau(  10) = (   1.6392160   0.9759882  15.3497651  )
        11           Sn1 tau(  11) = (   5.0201050   0.9759544  15.3497678  )
        12           Ag1 tau(  12) = (   3.3296995   3.8448116  15.1252997  )

     number of k points=    20  Fermi-Dirac smearing, width (Ry)=  0.0110
                       cart. coord. in units 2pi/alat
        k(    1) = (   0.0000000   0.0000000   0.0000000), wk =   0.0555556
        k(    2) = (   0.0000000   0.0288990   0.0000000), wk =   0.1111111
        k(    3) = (   0.0000000   0.0577980   0.0000000), wk =   0.1111111
        k(    4) = (   0.0000000  -0.0866970   0.0000000), wk =   0.0555556
        k(    5) = (   0.0250273   0.0144495   0.0000000), wk =   0.1111111
        k(    6) = (   0.0250273   0.0433485   0.0000000), wk =   0.1111111
        k(    7) = (   0.0250273   0.0722475   0.0000000), wk =   0.1111111
        k(    8) = (   0.0250273  -0.0722475   0.0000000), wk =   0.1111111
        k(    9) = (   0.0250273  -0.0433485   0.0000000), wk =   0.1111111
        k(   10) = (   0.0250273  -0.0144495   0.0000000), wk =   0.1111111
        k(   11) = (   0.0500545   0.0288990   0.0000000), wk =   0.1111111
        k(   12) = (   0.0500545   0.0577980   0.0000000), wk =   0.1111111
        k(   13) = (   0.0500545   0.0866970   0.0000000), wk =   0.1111111
        k(   14) = (   0.0500545  -0.0577980   0.0000000), wk =   0.1111111
        k(   15) = (   0.0500545  -0.0288990   0.0000000), wk =   0.1111111
        k(   16) = (   0.0500545   0.0000000   0.0000000), wk =   0.1111111
        k(   17) = (  -0.0750818  -0.0433485   0.0000000), wk =   0.0555556
        k(   18) = (  -0.0750818  -0.0144495   0.0000000), wk =   0.1111111
        k(   19) = (  -0.0750818   0.0144495   0.0000000), wk =   0.1111111
        k(   20) = (  -0.0750818  -0.1300455   0.0000000), wk =   0.0555556

     Largest allocated arrays     est. size (Mb)     dimensions
     Largest temporary arrays     est. size (Mb)     dimensions

     Initial potential from superposition of free atoms
     Check: negative starting charge=   -0.001905

     starting charge  172.49945, renormalised to  183.00000

[...]

     *
     * You are using vdW-DF for exchange-correlation in this calculation.
     * Please cite the following three references that made this development
     * possible:
     *
     *   M. Dion, H. Rydberg, E. Schroder, D. C. Langreth, and
     *   B. I. Lundqvist, Phys. Rev. Lett. 92, 246401 (2004).
     *
     *   T. Thonhauser, V. R. Cooper, S. Li, A. Puzder, P. Hyldgaard, and
     *   D. C. Langreth, Phys. Rev. B 76, 125112 (2007).
     *
     *   G. Roman-Perez and J. M. Soler, Phys. Rev. Lett. 103, 096102 (2009).
     *
     *
     * If you are using vdW-DF2, please also cite:
     *
     *   K. Lee, E. D. Murray, L. Kong, B. I. Lundqvist, and
     *   D. C. Langreth, Phys. Rev. B 82, 081101(R) (2010).
     *
     *
     * If you are calculating the stress with vdW-DF, please also cite:
     *
     *   R. Sabatini, E. Kucukbenli, B. Kolb, T. Thonhauser, and
     *   S. de Gironcoli, J. Phys.: Condens. Matter 24, 424209 (2012).
     *

     Carrying out vdW-DF run using the following parameters:

     Nqs =      20    Nr_points =    1024   r_max =   100.000
     q_mesh =
               0.00001000     0.04494208     0.09755937     0.15916263
               0.23128650     0.31572767     0.41458969     0.53033537
               0.66584808     0.82450364     1.01025438     1.22772762
               1.48234092     1.78043706     2.12944203     2.53805004
               3.01644009     3.57652955     4.23227104     5.00000000

     Gradients computed in reciprocal space

[...]

     Starting wfc are  120 randomized atomic wfcs +    1 random wfc

     Self-consistent Calculation

[...]

     total energy              =   -2336.17331706 Ry
     Harris-Foulkes estimate   =   -2336.17331765 Ry
     estimated scf accuracy    <       0.00000209 Ry

     iteration # 17     ecut=    36.75 Ry     beta=0.10
     Davidson diagonalization with overlap
     ethr =  1.14E-09,  avg # of iterations =  3.0

[...]

     negative rho (up, down):  1.186E-03 0.000E+00

     Adding external electric field

     Computed dipole along edir(3) :
        Dipole               -0.0086 Ry au,         -0.0217 Debye
        Dipole field         -0.0000 Ry au

        Potential amp.        0.0015 Ry
        Total length         46.8679 bohr

     End of self-consistent calculation

[...]

          k = 0.0501 0.0000 0.0000 ( 24800 PWs)   bands (ev):

[...]

          k =-0.0751-0.1300 0.0000 ( 24846 PWs)   bands (ev):

   -91.5398 -91.5078 -91.2835 -55.0501 -55.0222 -55.0222 -55.0071 -55.0054
   -55.0054 -54.7927 -54.7927 -54.7653 -21.3136 -21.2949 -21.2771 -21.2728
   -21.2642 -21.2624 -21.2581 -21.2537 -21.2507 -21.2443 -21.2429 -21.2392
   -21.2349 -21.2317 -21.2265 -21.2250 -21.2221 -21.2220 -21.2215 -21.2187
   -21.2161 -21.2149 -21.2126 -21.2091 -21.2010 -21.1977 -21.1947 -21.1902
   -21.1898 -21.1822 -21.1765 -21.1718 -21.1696 -21.1609 -21.1600 -21.1591
   -21.1523 -21.1426 -21.1412 -21.1372 -21.1335 -21.1286 -21.1131 -21.1083
   -21.0815  -8.5686  -8.2969  -7.3069  -7.0395  -6.4439  -6.2841  -5.7416
    -5.4711  -4.3612  -4.1938  -4.0463  -4.0272  -3.9528  -3.8852  -3.8499
    -3.8074  -3.7859  -3.6977  -3.6965  -3.6247  -3.5809  -3.4371  -3.3041
    -3.2035  -2.8298  -2.3744  -1.4412  -0.6100  -0.4546  -0.1954  -0.1922
    -0.0290   0.0943   0.4693   0.9418   1.0457   1.2617   1.6468   1.8656
     1.9471   2.0265   2.3607   2.5132   2.8423   3.2451   3.6624   3.7724
     4.0678   4.1769   4.4043   4.8178   4.9272   5.2195   5.3044   5.3192
     5.4114   5.4474   5.4641   5.8780   5.9034   5.9346   6.0377   6.3621
     6.3915

     the Fermi energy is     0.7513 ev

!    total energy              =   -2336.17331669 Ry
     Harris-Foulkes estimate   =   -2336.17331734 Ry
     estimated scf accuracy    <       0.00000077 Ry

     The total energy is the sum of the following terms:

     one-electron contribution =  -13093.94805577 Ry
     hartree contribution      =    6590.28876944 Ry
     xc contribution           =    -490.50329302 Ry
     ewald contribution        =    4658.01848374 Ry
     electric field correction =       0.00000014 Ry
     smearing contrib. (-TS)   =      -0.02922123 Ry

     convergence has been achieved in  17 iterations

 BEEF-vdW xc energy contributions
           1 :   -429.966176053835
           2 :    392.774133617031
           3 :   -329.946302143632
           4 :    259.352693594967
           5 :   -197.762125251103
           6 :    154.844451108469
           7 :   -131.080785199516
           8 :    119.956163027425
           9 :   -112.779148050274
          10 :    103.386325804620
          11 :   -90.4441785899619
          12 :    76.6433296983462
          13 :   -65.8609644807871
          14 :    60.2812902943060
          15 :   -59.1461737217583
          16 :    59.5668637694146
          17 :   -58.5511738798957
          18 :    54.8094309459749
          19 :   -49.2610961820884
          20 :    44.1052376875386
          21 :   -41.2243835286918
          22 :    40.9967240595264
          23 :   -42.2069718994805
          24 :    42.9736972924616
          25 :   -41.9931263770625
          26 :    39.2828321854684
          27 :   -36.0181190810931
          28 :    33.6611917472715
          29 :   -33.0065146835784
          30 :    33.7486019149729
          31 :   -38.4942439628470
          32 :   -27.9929647840346

     Forces acting on atoms (Ry/au):

     negative rho (up, down):  1.186E-03 0.000E+00
     atom    1 type  1   force =     0.00000029    0.00262529    0.00357920
     atom    2 type  1   force =     0.00227420   -0.00131125    0.00358295
     atom    3 type  1   force =    -0.00227228   -0.00131316    0.00358623
     atom    4 type  2   force =     0.00000029   -0.00000019    0.00797780
     atom    5 type  1   force =    -0.00000356   -0.00404390   -0.00614265
     atom    6 type  1   force =    -0.00350144    0.00201905   -0.00614361
     atom    7 type  1   force =     0.00350114    0.00202526   -0.00614194
     atom    8 type  2   force =     0.00000064    0.00000007   -0.00296085
     atom    9 type  1   force =     0.00000172   -0.00096841    0.00081732
     atom   10 type  1   force =    -0.00083717    0.00048138    0.00081365
     atom   11 type  1   force =     0.00083565    0.00048608    0.00081453
     atom   12 type  2   force =     0.00000051   -0.00000022    0.00021737

     Total force =     0.017283     Total SCF correction =     0.002900
     SCF correction compared to forces is large: reduce conv_thr to get better values

     entering subroutine stress ...

     negative rho (up, down):  1.186E-03 0.000E+00
          total   stress  (Ry/bohr**3)                   (kbar)     P=   -6.35
  -0.00004912  -0.00000000   0.00000000         -7.23     -0.00      0.00
  -0.00000000  -0.00004912   0.00000000         -0.00     -7.23      0.00
   0.00000000   0.00000000  -0.00003131          0.00      0.00     -4.61

 !ASE

     Writing output data file calc.save

     General routines

     Parallel routines

   This run was terminated on:  13: 6:19   1Jan2019

   JOB DONE.
Job  /afs/slac/g/suncat/bin/suncat-tsmpirun -x LD_LIBRARY_PATH -wdir /scratch/qe648991_5cwfB pw.x -in pw.inp

TID   HOST_NAME   COMMAND_LINE            STATUS            TERMINATION_TIME
00000 suncat0043 pw.x -in pw.inp   Done                     01/01/2019 13:06:19
00001 suncat0043 pw.x -in pw.inp   Done                     01/01/2019 13:06:19
00002 suncat0043 pw.x -in pw.inp   Done                     01/01/2019 13:06:19
00003 suncat0043 pw.x -in pw.inp   Done                     01/01/2019 13:06:19
00004 suncat0043 pw.x -in pw.inp   Done                     01/01/2019 13:06:19
00005 suncat0043 pw.x -in pw.inp   Done                     01/01/2019 13:06:19
00006 suncat0043 pw.x -in pw.inp   Done                     01/01/2019 13:06:19
00007 suncat0043 pw.x -in pw.inp   Done                     01/01/2019 13:06:19
00008 suncat0041 pw.x -in pw.inp   Done                     01/01/2019 13:06:19
00009 suncat0041 pw.x -in pw.inp   Done                     01/01/2019 13:06:19
00010 suncat0041 pw.x -in pw.inp   Done                     01/01/2019 13:06:19
00011 suncat0041 pw.x -in pw.inp   Done                     01/01/2019 13:06:19
00012 suncat0041 pw.x -in pw.inp   Done                     01/01/2019 13:06:19
00013 suncat0041 pw.x -in pw.inp   Done                     01/01/2019 13:06:19
00014 suncat0041 pw.x -in pw.inp   Done                     01/01/2019 13:06:19
00015 suncat0041 pw.x -in pw.inp   Done                     01/01/2019 13:06:19
00016 suncat0039 pw.x -in pw.inp   Done                     01/01/2019 13:06:19
00017 suncat0039 pw.x -in pw.inp   Done                     01/01/2019 13:06:19
00018 suncat0039 pw.x -in pw.inp   Done                     01/01/2019 13:06:19
00019 suncat0039 pw.x -in pw.inp   Done                     01/01/2019 13:06:19
00020 suncat0039 pw.x -in pw.inp   Done                     01/01/2019 13:06:19
00021 suncat0039 pw.x -in pw.inp   Done                     01/01/2019 13:06:19
00022 suncat0039 pw.x -in pw.inp   Done                     01/01/2019 13:06:19
00023 suncat0039 pw.x -in pw.inp   Done                     01/01/2019 13:06:19
00024 suncat0025 pw.x -in pw.inp   Done                     01/01/2019 13:06:19
00025 suncat0025 pw.x -in pw.inp   Done                     01/01/2019 13:06:19
00026 suncat0025 pw.x -in pw.inp   Done                     01/01/2019 13:06:19
00027 suncat0025 pw.x -in pw.inp   Done                     01/01/2019 13:06:19
00028 suncat0025 pw.x -in pw.inp   Done                     01/01/2019 13:06:19
00029 suncat0025 pw.x -in pw.inp   Done                     01/01/2019 13:06:19
00030 suncat0025 pw.x -in pw.inp   Done                     01/01/2019 13:06:19
00031 suncat0025 pw.x -in pw.inp   Done                     01/01/2019 13:06:19
00032 suncat0013 pw.x -in pw.inp   Done                     01/01/2019 13:06:19
00033 suncat0013 pw.x -in pw.inp   Done                     01/01/2019 13:06:19
00034 suncat0013 pw.x -in pw.inp   Done                     01/01/2019 13:06:19
00035 suncat0013 pw.x -in pw.inp   Done                     01/01/2019 13:06:19
00036 suncat0013 pw.x -in pw.inp   Done                     01/01/2019 13:06:19
00037 suncat0013 pw.x -in pw.inp   Done                     01/01/2019 13:06:19
00038 suncat0013 pw.x -in pw.inp   Done                     01/01/2019 13:06:19
00039 suncat0013 pw.x -in pw.inp   Done                     01/01/2019 13:06:19
00040 suncat0008 pw.x -in pw.inp   Done                     01/01/2019 13:06:19
00041 suncat0008 pw.x -in pw.inp   Done                     01/01/2019 13:06:19
00042 suncat0008 pw.x -in pw.inp   Done                     01/01/2019 13:06:19
00043 suncat0008 pw.x -in pw.inp   Done                     01/01/2019 13:06:19
00044 suncat0008 pw.x -in pw.inp   Done                     01/01/2019 13:06:19
00045 suncat0008 pw.x -in pw.inp   Done                     01/01/2019 13:06:19
00046 suncat0008 pw.x -in pw.inp   Done                     01/01/2019 13:06:19
00047 suncat0008 pw.x -in pw.inp   Done                     01/01/2019 13:06:19
00048 suncat0117 pw.x -in pw.inp   Done                     01/01/2019 13:06:19
00049 suncat0117 pw.x -in pw.inp   Done                     01/01/2019 13:06:19
00050 suncat0117 pw.x -in pw.inp   Done                     01/01/2019 13:06:19
00051 suncat0117 pw.x -in pw.inp   Done                     01/01/2019 13:06:19
00052 suncat0117 pw.x -in pw.inp   Done                     01/01/2019 13:06:19
00053 suncat0117 pw.x -in pw.inp   Done                     01/01/2019 13:06:19
00054 suncat0117 pw.x -in pw.inp   Done                     01/01/2019 13:06:19
00055 suncat0117 pw.x -in pw.inp   Done                     01/01/2019 13:06:19
00056 suncat0250 pw.x -in pw.inp   Done                     01/01/2019 13:06:19
00057 suncat0250 pw.x -in pw.inp   Done                     01/01/2019 13:06:19
00058 suncat0250 pw.x -in pw.inp   Done                     01/01/2019 13:06:19
00059 suncat0250 pw.x -in pw.inp   Done                     01/01/2019 13:06:19
00060 suncat0250 pw.x -in pw.inp   Done                     01/01/2019 13:06:19
00061 suncat0250 pw.x -in pw.inp   Done                     01/01/2019 13:06:19
00062 suncat0250 pw.x -in pw.inp   Done                     01/01/2019 13:06:19
00063 suncat0250 pw.x -in pw.inp   Done                     01/01/2019 13:06:19