     Program PWSCF v.5.1rc2 (svn rev. 11289) starts on  1Jan2019 at 23:50:12

     Current dimensions of program PWSCF are:
     Max number of different atomic species (ntypx) = 10
     Max number of k-points (npk) =  40000
     Max angular momentum in pseudopotentials (lmaxx) =  3
     Presently stress not available with electric field

     IMPORTANT: XC functional enforced from input :
     Exchange-correlation      = BEEF-VDW ( 1  4 27 13 2)
     Any further DFT definition will be discarded
     Please, verify this is what you really want

     Subspace diagonalization in iterative solution of the eigenvalue problem:
     a serial algorithm will be used

     bravais-lattice index     =            0
     lattice parameter (alat)  =       1.8897  a.u.
     unit-cell volume          =    4676.8407 (a.u.)^3
     number of atoms/cell      =           12
     number of atomic types    =            2
     number of electrons       =       153.00
     number of Kohn-Sham states=          106
     kinetic-energy cutoff     =      36.7493  Ry
     charge density cutoff     =     367.4932  Ry
     convergence threshold     =      1.0E-06
     mixing beta               =       0.1000
     number of iterations used =           10  plain     mixing
     Exchange-correlation      = BEEF-VDW ( 1  4 27 13 2)
     nstep                     =           50

     celldm(1)=   1.889726  celldm(2)=   0.000000  celldm(3)=   0.000000
     celldm(4)=   0.000000  celldm(5)=   0.000000  celldm(6)=   0.000000

     crystal axes: (cart. coord. in units of alat)
               a(1) = (   5.697528   0.000000   0.000000 )
               a(2) = (  -2.848764   4.934204   0.000000 )
               a(3) = (   0.000000   0.000000  24.652012 )

     reciprocal axes: (cart. coord. in units 2 pi/alat)
               b(1) = (  0.175515  0.101333  0.000000 )
               b(2) = (  0.000000  0.202667  0.000000 )
               b(3) = (  0.000000  0.000000  0.040565 )

     PseudoPot. # 1 for Ti read from file:
     /afs/slac.stanford.edu/u/if/mamunm/psp/gbrv1.5pbe/Ti.UPF
     MD5 check sum: 88a00a6731bd790ddea75d31a80cb452
     Pseudo is Ultrasoft + core correction, Zval = 12.0
     Generated by new atomic code, or converted to UPF format
     Using radial grid of  851 points,  6 beta functions with:
                l(1) =   0
                l(2) =   0
                l(3) =   1
                l(4) =   1
                l(5) =   2
                l(6) =   2
     Q(r) pseudized with  6 coefficients,  rinner =    1.000   1.000   1.000
                                                       1.000   1.000

     PseudoPot. # 2 for Tc read from file:
     /afs/slac.stanford.edu/u/if/mamunm/psp/gbrv1.5pbe/Tc.UPF
     MD5 check sum: 9eb49e5b028550b2339a02317eb7b844
     Pseudo is Ultrasoft + core correction, Zval = 15.0
     Generated by new atomic code, or converted to UPF format
     Using radial grid of  965 points,  6 beta functions with:
                l(1) =   0
                l(2) =   0
                l(3) =   1
                l(4) =   1
                l(5) =   2
                l(6) =   2
     Q(r) pseudized with  8 coefficients,  rinner =    1.300   1.300   1.300
                                                       1.300   1.300

     vdW kernel table read from file vdW_kernel_table
     MD5 check sum: 095c7af220d748ca6e76c0b4c6cfb241

     atomic species   valence    mass     pseudopotential
        Ti1           12.00    47.86700     Ti( 1.00)
        Tc1           15.00    97.90721     Tc( 1.00)

     No symmetry found

   Cartesian axes

     site n.     atom                  positions (alat units)
         1           Ti1 tau(   1) = (   0.0000000   0.0000000  10.0000000  )
         2           Ti1 tau(   2) = (  -1.4243821   2.4671021  10.0000000  )
         3           Ti1 tau(   3) = (   1.4243821   2.4671021  10.0000000  )
         4           Tc1 tau(   4) = (   2.8487641   0.0000000  10.0000000  )
         5           Ti1 tau(   5) = (   2.8487641   1.6447347  12.3260062  )
         6           Ti1 tau(   6) = (   1.4243821   4.1118368  12.3260062  )
         7           Ti1 tau(   7) = (  -1.4243821   4.1118368  12.3260062  )
         8           Tc1 tau(   8) = (   0.0000000   1.6447347  12.3260062  )
         9           Ti1 tau(   9) = (  -0.0000000   3.2894694  14.6520123  )
        10           Ti1 tau(  10) = (   1.4243821   0.8223674  14.6520123  )
        11           Ti1 tau(  11) = (   4.2731462   0.8223674  14.6520123  )
        12           Tc1 tau(  12) = (   2.8487641   3.2894694  14.6520123  )

     number of k points=    20  Fermi-Dirac smearing, width (Ry)=  0.0110
                       cart. coord. in units 2pi/alat
        k(    1) = (   0.0000000   0.0000000   0.0000000), wk =   0.0555556
        k(    2) = (   0.0000000   0.0337778   0.0000000), wk =   0.1111111
        k(    3) = (   0.0000000   0.0675556   0.0000000), wk =   0.1111111
        k(    4) = (   0.0000000  -0.1013335   0.0000000), wk =   0.0555556
        k(    5) = (   0.0292525   0.0168889   0.0000000), wk =   0.1111111
        k(    6) = (   0.0292525   0.0506667   0.0000000), wk =   0.1111111
        k(    7) = (   0.0292525   0.0844446   0.0000000), wk =   0.1111111
        k(    8) = (   0.0292525  -0.0844446   0.0000000), wk =   0.1111111
        k(    9) = (   0.0292525  -0.0506667   0.0000000), wk =   0.1111111
        k(   10) = (   0.0292525  -0.0168889   0.0000000), wk =   0.1111111
        k(   11) = (   0.0585049   0.0337778   0.0000000), wk =   0.1111111
        k(   12) = (   0.0585049   0.0675556   0.0000000), wk =   0.1111111
        k(   13) = (   0.0585049   0.1013335   0.0000000), wk =   0.1111111
        k(   14) = (   0.0585049  -0.0675556   0.0000000), wk =   0.1111111
        k(   15) = (   0.0585049  -0.0337778   0.0000000), wk =   0.1111111
        k(   16) = (   0.0585049   0.0000000   0.0000000), wk =   0.1111111
        k(   17) = (  -0.0877574  -0.0506667   0.0000000), wk =   0.0555556
        k(   18) = (  -0.0877574  -0.0168889   0.0000000), wk =   0.1111111
        k(   19) = (  -0.0877574   0.0168889   0.0000000), wk =   0.1111111
        k(   20) = (  -0.0877574  -0.1520002   0.0000000), wk =   0.0555556

     Largest allocated arrays     est. size (Mb)     dimensions
     Largest temporary arrays     est. size (Mb)     dimensions

     Check: negative/imaginary core charge=   -0.000012    0.000000

     Initial potential from superposition of free atoms
     Check: negative starting charge=   -0.386635

     starting charge  140.99952, renormalised to  153.00000

     negative rho (up, down):  4.195E-01 0.000E+00

     *
     * You are using vdW-DF for exchange-correlation in this calculation.
     * Please cite the following three references that made this development
     * possible:
     *
     *   M. Dion, H. Rydberg, E. Schroder, D. C. Langreth, and
     *   B. I. Lundqvist, Phys. Rev. Lett. 92, 246401 (2004).
     *
     *   T. Thonhauser, V. R. Cooper, S. Li, A. Puzder, P. Hyldgaard, and
     *   D. C. Langreth, Phys. Rev. B 76, 125112 (2007).
     *
     *   G. Roman-Perez and J. M. Soler, Phys. Rev. Lett. 103, 096102 (2009).
     *
     *
     * If you are using vdW-DF2, please also cite:
     *
     *   K. Lee, E. D. Murray, L. Kong, B. I. Lundqvist, and
     *   D. C. Langreth, Phys. Rev. B 82, 081101(R) (2010).
     *
     *
     * If you are calculating the stress with vdW-DF, please also cite:
     *
     *   R. Sabatini, E. Kucukbenli, B. Kolb, T. Thonhauser, and
     *   S. de Gironcoli, J. Phys.: Condens. Matter 24, 424209 (2012).
     *

     Carrying out vdW-DF run using the following parameters:

     Nqs =      20    Nr_points =    1024   r_max =   100.000
     q_mesh =
               0.00001000     0.04494208     0.09755937     0.15916263
               0.23128650     0.31572767     0.41458969     0.53033537
               0.66584808     0.82450364     1.01025438     1.22772762
               1.48234092     1.78043706     2.12944203     2.53805004
               3.01644009     3.57652955     4.23227104     5.00000000

     Gradients computed in reciprocal space

     Adding external electric field

     Computed dipole along edir(3) :
        Dipole                0.0000 Ry au,          0.0000 Debye
        Dipole field          0.0000 Ry au

        Potential amp.       -0.0000 Ry
        Total length         45.4209 bohr

     Starting wfc are  129 randomized atomic wfcs

     Self-consistent Calculation

     iteration #  1     ecut=    36.75 Ry     beta=0.10
     Davidson diagonalization with overlap
     ethr =  1.00E-02,  avg # of iterations =  4.3

[...]

     total energy              =   -1605.54549840 Ry
     Harris-Foulkes estimate   =   -1609.68498249 Ry
     estimated scf accuracy    <      24.14807362 Ry

[...]

     iteration #  7     ecut=    36.75 Ry     beta=0.10
     Davidson diagonalization with overlap
     c_bands:  1 eigenvalues not converged
     ethr =  3.17E-04,  avg # of iterations =  4.3

[...]

     iteration # 12     ecut=    36.75 Ry     beta=0.10
     Davidson diagonalization with overlap
     c_bands:  1 eigenvalues not converged
     c_bands:  1 eigenvalues not converged
     c_bands:  1 eigenvalues not converged
     ethr =  6.64E-06,  avg # of iterations =  9.3

[...]

     End of self-consistent calculation

          k = 0.0000 0.0000 0.0000 ( 17663 PWs)   bands (ev):

   -65.4436 -65.2109 -65.2108 -55.9314 -55.9220 -55.8495 -55.8494 -55.8471
   -55.8470 -55.7928 -55.7251 -55.7251 -37.4660 -37.4660 -37.4468 -37.2487
   -37.2487 -37.2470 -37.2470 -37.2235 -37.2168 -32.4307 -32.3782 -32.3199
   -32.2607 -32.2607 -32.2428 -32.2253 -32.2253 -32.2061 -32.1972 -32.1971
   -32.1381 -32.1381 -32.0212 -32.0212 -31.9719 -31.9461 -31.8942 -31.8788
   -31.8788 -31.8375 -31.8375 -31.8321 -31.8321 -31.8032 -31.7468 -31.7467
    -4.4958  -3.1274  -2.2425  -2.0633  -2.0633  -1.8248  -1.8248  -1.4607
    -1.3721  -1.3721  -1.3663  -1.2543  -1.2543  -1.0857  -0.8220  -0.4782
    -0.4782   0.0488   0.3767   0.3767   0.4184   0.6836   1.1045   1.2233
     1.3503   1.5366   1.5366   1.6321   1.6321   1.6505   1.6505   1.7107
     1.7107   1.7667   1.7781   1.7781   1.9842   2.1092   2.3501   2.3501
     2.6030   2.6030   2.9371   3.0428   3.1008   3.1008   3.2057   3.2057
     3.4690   3.4837   3.4837   3.7117   3.7117   4.0017   4.0017   4.1763
     4.1764   4.4769

[...]

          k =-0.0878-0.0507 0.0000 ( 17556 PWs)   bands (ev):

[...]

     the Fermi energy is     1.1809 ev

!    total energy              =   -1604.79438069 Ry
     Harris-Foulkes estimate   =   -1604.79437729 Ry
     estimated scf accuracy    <       0.00000037 Ry

     The total energy is the sum of the following terms:

     one-electron contribution =  -12500.10707030 Ry
     hartree contribution      =    6238.42937240 Ry
     xc contribution           =    -267.77934227 Ry
     ewald contribution        =    4924.79200485 Ry
     electric field correction =       0.00000001 Ry
     smearing contrib. (-TS)   =      -0.12934538 Ry

     convergence has been achieved in  22 iterations

 BEEF-vdW xc energy contributions
           1 :   -231.721275291185
[...]

     PseudoPot. # 1 for Ti read from file:
     /afs/slac.stanford.edu/u/if/mamunm/psp/gbrv1.5pbe/Ti.UPF
     MD5 check sum: 88a00a6731bd790ddea75d31a80cb452
     Pseudo is Ultrasoft + core correction, Zval = 12.0
     Generated by new atomic code, or converted to UPF format
     Using radial grid of  851 points,  6 beta functions with:
                l(1) =   0
                l(2) =   0
                l(3) =   1
                l(4) =   1
                l(5) =   2
                l(6) =   2
     Q(r) pseudized with  6 coefficients,  rinner =    1.000   1.000   1.000
                                                       1.000   1.000

     PseudoPot. # 2 for Tc read from file:
     /afs/slac.stanford.edu/u/if/mamunm/psp/gbrv1.5pbe/Tc.UPF
     MD5 check sum: 9eb49e5b028550b2339a02317eb7b844
     Pseudo is Ultrasoft + core correction, Zval = 15.0
     Generated by new atomic code, or converted to UPF format
     Using radial grid of  965 points,  6 beta functions with:
                l(1) =   0
                l(2) =   0
                l(3) =   1
                l(4) =   1
                l(5) =   2
                l(6) =   2
     Q(r) pseudized with  8 coefficients,  rinner =    1.300   1.300   1.300
                                                       1.300   1.300

     vdW kernel table read from file vdW_kernel_table
     MD5 check sum: 095c7af220d748ca6e76c0b4c6cfb241

     atomic species   valence    mass     pseudopotential
        Ti1           12.00    47.86700     Ti( 1.00)
        Tc1           15.00    97.90721     Tc( 1.00)

     No symmetry found

   Cartesian axes

     site n.     atom                  positions (alat units)
         1           Ti1 tau(   1) = (   0.0000000   0.0000000  10.0000000  )
         2           Ti1 tau(   2) = (  -1.4243821   2.4671021  10.0000000  )
         3           Ti1 tau(   3) = (   1.4243821   2.4671021  10.0000000  )
         4           Tc1 tau(   4) = (   2.8487641   0.0000000  10.0000000  )
         5           Ti1 tau(   5) = (   2.8487641   1.6447347  12.3260062  )
         6           Ti1 tau(   6) = (   1.4243821   4.1118368  12.3260062  )
         7           Ti1 tau(   7) = (  -1.4243821   4.1118368  12.3260062  )
         8           Tc1 tau(   8) = (   0.0000000   1.6447347  12.3260062  )
         9           Ti1 tau(   9) = (  -0.0000131   3.2589936  14.6576086  )
        10           Ti1 tau(  10) = (   1.3979758   0.8376090  14.6576062  )
        11           Ti1 tau(  11) = (   4.2995292   0.8376077  14.6576185  )
        12           Tc1 tau(  12) = (   2.8487503   3.2894703  14.2735850  )

     number of k points=    20  Fermi-Dirac smearing, width (Ry)=  0.0110
                       cart. coord. in units 2pi/alat
        k(    1) = (   0.0000000   0.0000000   0.0000000), wk =   0.0555556
        k(    2) = (   0.0000000   0.0337778   0.0000000), wk =   0.1111111
        k(    3) = (   0.0000000   0.0675556   0.0000000), wk =   0.1111111
        k(    4) = (   0.0000000  -0.1013335   0.0000000), wk =   0.0555556
        k(    5) = (   0.0292525   0.0168889   0.0000000), wk =   0.1111111
        k(    6) = (   0.0292525   0.0506667   0.0000000), wk =   0.1111111
        k(    7) = (   0.0292525   0.0844446   0.0000000), wk =   0.1111111
        k(    8) = (   0.0292525  -0.0844446   0.0000000), wk =   0.1111111
        k(    9) = (   0.0292525  -0.0506667   0.0000000), wk =   0.1111111
        k(   10) = (   0.0292525  -0.0168889   0.0000000), wk =   0.1111111
        k(   11) = (   0.0585049   0.0337778   0.0000000), wk =   0.1111111
        k(   12) = (   0.0585049   0.0675556   0.0000000), wk =   0.1111111
        k(   13) = (   0.0585049   0.1013335   0.0000000), wk =   0.1111111
        k(   14) = (   0.0585049  -0.0675556   0.0000000), wk =   0.1111111
        k(   15) = (   0.0585049  -0.0337778   0.0000000), wk =   0.1111111
        k(   16) = (   0.0585049   0.0000000   0.0000000), wk =   0.1111111
        k(   17) = (  -0.0877574  -0.0506667   0.0000000), wk =   0.0555556
        k(   18) = (  -0.0877574  -0.0168889   0.0000000), wk =   0.1111111
        k(   19) = (  -0.0877574   0.0168889   0.0000000), wk =   0.1111111
        k(   20) = (  -0.0877574  -0.1520002   0.0000000), wk =   0.0555556

     Largest allocated arrays     est. size (Mb)     dimensions
     Largest temporary arrays     est. size (Mb)     dimensions

     Check: negative/imaginary core charge=   -0.000012    0.000000

     Initial potential from superposition of free atoms
     Check: negative starting charge=   -0.387190

     starting charge  140.99952, renormalised to  153.00000

[...]

     *
     * You are using vdW-DF for exchange-correlation in this calculation.
     * Please cite the following three references that made this development
     * possible:
     *
     *   M. Dion, H. Rydberg, E. Schroder, D. C. Langreth, and
     *   B. I. Lundqvist, Phys. Rev. Lett. 92, 246401 (2004).
     *
     *   T. Thonhauser, V. R. Cooper, S. Li, A. Puzder, P. Hyldgaard, and
     *   D. C. Langreth, Phys. Rev. B 76, 125112 (2007).
     *
     *   G. Roman-Perez and J. M. Soler, Phys. Rev. Lett. 103, 096102 (2009).
     *
     *
     * If you are using vdW-DF2, please also cite:
     *
     *   K. Lee, E. D. Murray, L. Kong, B. I. Lundqvist, and
     *   D. C. Langreth, Phys. Rev. B 82, 081101(R) (2010).
     *
     *
     * If you are calculating the stress with vdW-DF, please also cite:
     *
     *   R. Sabatini, E. Kucukbenli, B. Kolb, T. Thonhauser, and
     *   S. de Gironcoli, J. Phys.: Condens. Matter 24, 424209 (2012).
     *

     Carrying out vdW-DF run using the following parameters:

     Nqs =      20    Nr_points =    1024   r_max =   100.000
     q_mesh =
               0.00001000     0.04494208     0.09755937     0.15916263
               0.23128650     0.31572767     0.41458969     0.53033537
               0.66584808     0.82450364     1.01025438     1.22772762
               1.48234092     1.78043706     2.12944203     2.53805004
               3.01644009     3.57652955     4.23227104     5.00000000

     Gradients computed in reciprocal space

[...]

     Starting wfc are  129 randomized atomic wfcs

     Self-consistent Calculation

[...]

     total energy              =   -1604.81324550 Ry
     Harris-Foulkes estimate   =   -1604.81324440 Ry
     estimated scf accuracy    <       0.00000143 Ry

     iteration # 23     ecut=    36.75 Ry     beta=0.10
     Davidson diagonalization with overlap
     ethr =  9.36E-10,  avg # of iterations =  2.0

[...]

     negative rho (up, down):  3.951E-01 0.000E+00

     Adding external electric field

     Computed dipole along edir(3) :
        Dipole                0.0805 Ry au,          0.2045 Debye
        Dipole field          0.0002 Ry au

        Potential amp.       -0.0196 Ry
        Total length         45.4209 bohr

     End of self-consistent calculation

[...]

          k = 0.0585 0.0000 0.0000 ( 17605 PWs)   bands (ev):

[...]

          k =-0.0878-0.1520 0.0000 ( 17556 PWs)   bands (ev):

   -65.4121 -65.1558 -65.1022 -55.8529 -55.8238 -55.8052 -55.7990 -55.7794
   -55.7534 -55.6261 -55.6030 -55.5789 -37.4295 -37.4234 -37.4164 -37.2279
   -37.2175 -37.2124 -37.1385 -37.1318 -37.1105 -32.2348 -32.2238 -32.2124
   -32.1756 -32.1509 -32.1332 -32.0961 -32.0885 -32.0702 -32.0677 -32.0269
   -32.0246 -32.0081 -31.9913 -31.9727 -31.9705 -31.9540 -31.8457 -31.8092
   -31.8072 -31.7935 -31.7744 -31.7623 -31.7488 -31.7398 -31.7326 -31.6239
    -2.9257  -2.7807  -1.8772  -1.6704  -1.5030  -1.4194  -1.1494  -1.1396
    -1.0326  -0.8146  -0.7657  -0.5943  -0.5529  -0.4058  -0.3320  -0.1828
    -0.1396  -0.0199   0.0353   0.2544   0.3355   0.4086   0.5636   0.6218
     0.7377   0.8598   1.0134   1.0571   1.1717   1.1780   1.2640   1.3113
     1.4310   1.5592   1.5602   1.6528   1.8890   1.8902   2.0289   2.1037
     2.2418   2.3703   2.5773   2.7189   2.7265   2.8018   2.8223   2.9731
     3.0634   3.1361   3.2187   3.2206   3.2605   3.3297   3.4331   3.5670
     3.7116   3.8345

     the Fermi energy is     1.2652 ev

!    total energy              =   -1604.81324893 Ry
     Harris-Foulkes estimate   =   -1604.81324523 Ry
     estimated scf accuracy    <       0.00000054 Ry

     The total energy is the sum of the following terms:

     one-electron contribution =  -12681.65952104 Ry
     hartree contribution      =    6329.66550466 Ry
     xc contribution           =    -267.96361074 Ry
     ewald contribution        =    5015.27065790 Ry
     electric field correction =       0.00001739 Ry
     smearing contrib. (-TS)   =      -0.12629710 Ry

     convergence has been achieved in  23 iterations

 BEEF-vdW xc energy contributions
           1 :   -232.061342012002
           2 :    209.640174748993
           3 :   -171.839423806384
           4 :    129.166600232076
           5 :   -90.9345821895100
           6 :    61.9234588079216
           7 :   -41.9262931378403
           8 :    27.6988234439567
           9 :   -15.7376913952134
          10 :    4.20482080788526
          11 :    6.70588255813846
          12 :   -15.6889403070276
          13 :    21.6095947196710
          14 :   -24.3041290380410
          15 :    24.5209653465814
          16 :   -23.2799053016508
          17 :    21.2353825423899
          18 :   -18.5270611065317
          19 :    15.1145647318839
          20 :   -11.2205379003128
          21 :    7.45407701779163
          22 :   -4.52428510842236
          23 :    2.79422463849647
          24 :   -2.05173643843671
          25 :    1.67055292754208
          26 :   -1.03831645949458
          27 :  -6.997809381670095E-002
          28 :    1.42715946497970
          29 :   -2.62297956294896
          30 :    3.44049628818840
          31 :   -23.6229781324529
          32 :   -16.9850683764318

     Forces acting on atoms (Ry/au):

     negative rho (up, down):  3.951E-01 0.000E+00
     atom    1 type  1   force =     0.00000063    0.00712087   -0.00041975
     atom    2 type  1   force =     0.00616641   -0.00355886   -0.00042115
     atom    3 type  1   force =    -0.00616618   -0.00355919   -0.00042027
     atom    4 type  2   force =     0.00000092    0.00000118    0.02997657
     atom    5 type  1   force =     0.00000065   -0.01432910   -0.01341561
     atom    6 type  1   force =    -0.01241031    0.00716459   -0.01341484
     atom    7 type  1   force =     0.01241085    0.00716381   -0.01341468
     atom    8 type  2   force =    -0.00000237   -0.00000284    0.01061584
     atom    9 type  1   force =     0.00000049   -0.00027330    0.00051856
     atom   10 type  1   force =    -0.00023760    0.00013701    0.00051784
     atom   11 type  1   force =     0.00023646    0.00013596    0.00051710
     atom   12 type  2   force =     0.00000006   -0.00000012   -0.00063961

     Total force =     0.048179     Total SCF correction =     0.002240

     entering subroutine stress ...

     negative rho (up, down):  3.951E-01 0.000E+00
          total   stress  (Ry/bohr**3)                   (kbar)     P=  -11.97
  -0.00010692   0.00000000   0.00000000        -15.73      0.00      0.00
   0.00000000  -0.00010692   0.00000000          0.00    -15.73      0.00
   0.00000000   0.00000000  -0.00003023          0.00      0.00     -4.45

 !ASE

     Writing output data file calc.save

     General routines

     Parallel routines

   This run was terminated on:   1:29:43   2Jan2019

   JOB DONE.
Job  /afs/slac/g/suncat/bin/suncat-tsmpirun -x LD_LIBRARY_PATH -wdir /scratch/qe649231_WODA3 pw.x -in pw.inp

TID   HOST_NAME   COMMAND_LINE            STATUS            TERMINATION_TIME
00000 suncat0058 pw.x -in pw.inp   Done                     01/02/2019 01:29:43
00001 suncat0058 pw.x -in pw.inp   Done                     01/02/2019 01:29:43
00002 suncat0058 pw.x -in pw.inp   Done                     01/02/2019 01:29:43
00003 suncat0058 pw.x -in pw.inp   Done                     01/02/2019 01:29:43
00004 suncat0058 pw.x -in pw.inp   Done                     01/02/2019 01:29:43
00005 suncat0058 pw.x -in pw.inp   Done                     01/02/2019 01:29:43
00006 suncat0058 pw.x -in pw.inp   Done                     01/02/2019 01:29:43
00007 suncat0058 pw.x -in pw.inp   Done                     01/02/2019 01:29:43
00008 suncat0056 pw.x -in pw.inp   Done                     01/02/2019 01:29:43
00009 suncat0056 pw.x -in pw.inp   Done                     01/02/2019 01:29:43
00010 suncat0056 pw.x -in pw.inp   Done                     01/02/2019 01:29:43
00011 suncat0056 pw.x -in pw.inp   Done                     01/02/2019 01:29:43
00012 suncat0056 pw.x -in pw.inp   Done                     01/02/2019 01:29:43
00013 suncat0056 pw.x -in pw.inp   Done                     01/02/2019 01:29:43
00014 suncat0056 pw.x -in pw.inp   Done                     01/02/2019 01:29:43
00015 suncat0056 pw.x -in pw.inp   Done                     01/02/2019 01:29:43
00016 suncat0054 pw.x -in pw.inp   Done                     01/02/2019 01:29:43
00017 suncat0054 pw.x -in pw.inp   Done                     01/02/2019 01:29:43
00018 suncat0054 pw.x -in pw.inp   Done                     01/02/2019 01:29:43
00019 suncat0054 pw.x -in pw.inp   Done                     01/02/2019 01:29:43
00020 suncat0054 pw.x -in pw.inp   Done                     01/02/2019 01:29:43
00021 suncat0054 pw.x -in pw.inp   Done                     01/02/2019 01:29:43
00022 suncat0054 pw.x -in pw.inp   Done                     01/02/2019 01:29:43
00023 suncat0054 pw.x -in pw.inp   Done                     01/02/2019 01:29:43
00024 suncat0052 pw.x -in pw.inp   Done                     01/02/2019 01:29:43
00025 suncat0052 pw.x -in pw.inp   Done                     01/02/2019 01:29:43
00026 suncat0052 pw.x -in pw.inp   Done                     01/02/2019 01:29:43
00027 suncat0052 pw.x -in pw.inp   Done                     01/02/2019 01:29:43
00028 suncat0052 pw.x -in pw.inp   Done                     01/02/2019 01:29:43
00029 suncat0052 pw.x -in pw.inp   Done                     01/02/2019 01:29:43
00030 suncat0052 pw.x -in pw.inp   Done                     01/02/2019 01:29:43
00031 suncat0052 pw.x -in pw.inp   Done                     01/02/2019 01:29:43
00032 suncat0048 pw.x -in pw.inp   Done                     01/02/2019 01:29:43
00033 suncat0048 pw.x -in pw.inp   Done                     01/02/2019 01:29:43
00034 suncat0048 pw.x -in pw.inp   Done                     01/02/2019 01:29:43
00035 suncat0048 pw.x -in pw.inp   Done                     01/02/2019 01:29:43
00036 suncat0048 pw.x -in pw.inp   Done                     01/02/2019 01:29:43
00037 suncat0048 pw.x -in pw.inp   Done                     01/02/2019 01:29:43
00038 suncat0048 pw.x -in pw.inp   Done                     01/02/2019 01:29:43
00039 suncat0048 pw.x -in pw.inp   Done                     01/02/2019 01:29:43
00040 suncat0047 pw.x -in pw.inp   Done                     01/02/2019 01:29:43
00041 suncat0047 pw.x -in pw.inp   Done                     01/02/2019 01:29:43
00042 suncat0047 pw.x -in pw.inp   Done                     01/02/2019 01:29:43
00043 suncat0047 pw.x -in pw.inp   Done                     01/02/2019 01:29:43
00044 suncat0047 pw.x -in pw.inp   Done                     01/02/2019 01:29:43
00045 suncat0047 pw.x -in pw.inp   Done                     01/02/2019 01:29:43
00046 suncat0047 pw.x -in pw.inp   Done                     01/02/2019 01:29:43
00047 suncat0047 pw.x -in pw.inp   Done                     01/02/2019 01:29:43
00048 suncat0121 pw.x -in pw.inp   Done                     01/02/2019 01:29:43
00049 suncat0121 pw.x -in pw.inp   Done                     01/02/2019 01:29:43
00050 suncat0121 pw.x -in pw.inp   Done                     01/02/2019 01:29:43
00051 suncat0121 pw.x -in pw.inp   Done                     01/02/2019 01:29:43
00052 suncat0121 pw.x -in pw.inp   Done                     01/02/2019 01:29:43
00053 suncat0121 pw.x -in pw.inp   Done                     01/02/2019 01:29:43
00054 suncat0121 pw.x -in pw.inp   Done                     01/02/2019 01:29:43
00055 suncat0121 pw.x -in pw.inp   Done                     01/02/2019 01:29:43
00056 suncat0115 pw.x -in pw.inp   Done                     01/02/2019 01:29:43
00057 suncat0115 pw.x -in pw.inp   Done                     01/02/2019 01:29:43
00058 suncat0115 pw.x -in pw.inp   Done                     01/02/2019 01:29:43
00059 suncat0115 pw.x -in pw.inp   Done                     01/02/2019 01:29:43
00060 suncat0115 pw.x -in pw.inp   Done                     01/02/2019 01:29:43
00061 suncat0115 pw.x -in pw.inp   Done                     01/02/2019 01:29:43
00062 suncat0115 pw.x -in pw.inp   Done                     01/02/2019 01:29:43
00063 suncat0115 pw.x -in pw.inp   Done                     01/02/2019 01:29:43