     Program PWSCF v.5.1rc2 (svn rev. 11289) starts on 31Dec2018 at 16:12:33

     Current dimensions of program PWSCF are:
     Max number of different atomic species (ntypx) = 10
     Max number of k-points (npk) =  40000
     Max angular momentum in pseudopotentials (lmaxx) =  3
     Presently stress not available with electric field

     IMPORTANT: XC functional enforced from input :
     Exchange-correlation      = BEEF-VDW ( 1  4 27 13 2)
     Any further DFT definition will be discarded
     Please, verify this is what you really want

     Subspace diagonalization in iterative solution of the eigenvalue problem:
     a serial algorithm will be used

     Generating pointlists ...
     new r_m :   0.4125 (alat units)  0.7795 (a.u.) for type    1
     new r_m :   0.4125 (alat units)  0.7795 (a.u.) for type    2

     bravais-lattice index     =            0
     lattice parameter (alat)  =       1.8897  a.u.
     unit-cell volume          =    4486.6459 (a.u.)^3
     number of atoms/cell      =           12
     number of atomic types    =            2
     number of electrons       =       189.00
     number of Kohn-Sham states=          124
     kinetic-energy cutoff     =      36.7493  Ry
     charge density cutoff     =     367.4932  Ry
     convergence threshold     =      1.0E-06
     mixing beta               =       0.1000
     number of iterations used =           10  plain     mixing
     Exchange-correlation      = BEEF-VDW ( 1  4 27 13 2)
     nstep                     =           50

     celldm(1)=   1.889726  celldm(2)=   0.000000  celldm(3)=   0.000000
     celldm(4)=   0.000000  celldm(5)=   0.000000  celldm(6)=   0.000000

     crystal axes: (cart. coord. in units of alat)
               a(1) = (   5.590401   0.000000   0.000000 )
               a(2) = (  -2.795200   4.841429   0.000000 )
               a(3) = (   0.000000   0.000000  24.564543 )

     reciprocal axes: (cart. coord. in units 2 pi/alat)
               b(1) = (  0.178878  0.103275  0.000000 )
               b(2) = (  0.000000  0.206551  0.000000 )
               b(3) = (  0.000000  0.000000  0.040709 )

     PseudoPot. # 1 for Pt read from file:
     /afs/slac.stanford.edu/u/if/mamunm/psp/gbrv1.5pbe/Pt.UPF
     MD5 check sum: f09d6de1a584b5a045c4fc126da2d0c4
     Pseudo is Ultrasoft + core correction, Zval = 16.0
     Generated by new atomic code, or converted to UPF format
     Using radial grid of  985 points,  6 beta functions with:
                l(1) =   0
                l(2) =   0
                l(3) =   1
                l(4) =   1
                l(5) =   2
                l(6) =   2
     Q(r) pseudized with  8 coefficients,  rinner =    1.300   1.300   1.300
                                                       1.300   1.300

     PseudoPot. # 2 for Mn read from file:
     /afs/slac.stanford.edu/u/if/mamunm/psp/gbrv1.5pbe/Mn.UPF
     MD5 check sum: 82ef2b46521d7a7d9e736dc3972e4928
     Pseudo is Ultrasoft + core correction, Zval = 15.0
     Generated by new atomic code, or converted to UPF format
     Using radial grid of  859 points,  6 beta functions with:
                l(1) =   0
                l(2) =   0
                l(3) =   1
                l(4) =   1
                l(5) =   2
                l(6) =   2
     Q(r) pseudized with  8 coefficients,  rinner =    0.950   0.950   0.950
                                                       0.950   0.950

     vdW kernel table read from file vdW_kernel_table
     MD5 check sum: 095c7af220d748ca6e76c0b4c6cfb241

     atomic species   valence    mass     pseudopotential
        Pt1           16.00   195.08400     Pt( 1.00)
        Mn1           15.00    54.93804     Mn( 1.00)

     Starting magnetic structure
     atomic species   magnetization
        Pt1          0.125
        Mn1          0.133

     No symmetry found

   Cartesian axes

     site n.     atom                  positions (alat units)
         1           Pt1 tau(   1) = (   0.0000000   0.0000000  10.0000000  )
         2           Pt1 tau(   2) = (  -1.3976002   2.4207145  10.0000000  )
         3           Pt1 tau(   3) = (   1.3976002   2.4207145  10.0000000  )
         4           Mn1 tau(   4) = (   2.7952004   0.0000000  10.0000000  )
         5           Pt1 tau(   5) = (   2.7952004   1.6138097  12.2822715  )
         6           Pt1 tau(   6) = (   1.3976002   4.0345242  12.2822715  )
         7           Pt1 tau(   7) = (  -1.3976002   4.0345242  12.2822715  )
         8           Mn1 tau(   8) = (   0.0000000   1.6138097  12.2822715  )
         9           Pt1 tau(   9) = (  -0.0000000   3.2276193  14.5645431  )
        10           Pt1 tau(  10) = (   1.3976002   0.8069048  14.5645431  )
        11           Pt1 tau(  11) = (   4.1928005   0.8069048  14.5645431  )
        12           Mn1 tau(  12) = (   2.7952004   3.2276193  14.5645431  )

     number of k points=    40  Fermi-Dirac smearing, width (Ry)=  0.0110
                       cart. coord. in units 2pi/alat
        k(    1) = (   0.0000000   0.0000000   0.0000000), wk =   0.0277778
        k(    2) = (   0.0000000   0.0344251   0.0000000), wk =   0.0555556
        k(    3) = (   0.0000000   0.0688502   0.0000000), wk =   0.0555556
        k(    4) = (   0.0000000  -0.1032753   0.0000000), wk =   0.0277778
        k(    5) = (   0.0298130   0.0172125   0.0000000), wk =   0.0555556
        k(    6) = (   0.0298130   0.0516376   0.0000000), wk =   0.0555556
        k(    7) = (   0.0298130   0.0860627   0.0000000), wk =   0.0555556
        k(    8) = (   0.0298130  -0.0860627   0.0000000), wk =   0.0555556
        k(    9) = (   0.0298130  -0.0516376   0.0000000), wk =   0.0555556
        k(   10) = (   0.0298130  -0.0172125   0.0000000), wk =   0.0555556
        k(   11) = (   0.0596260   0.0344251   0.0000000), wk =   0.0555556
        k(   12) = (   0.0596260   0.0688502   0.0000000), wk =   0.0555556
        k(   13) = (   0.0596260   0.1032753   0.0000000), wk =   0.0555556
        k(   14) = (   0.0596260  -0.0688502   0.0000000), wk =   0.0555556
        k(   15) = (   0.0596260  -0.0344251   0.0000000), wk =   0.0555556
        k(   16) = (   0.0596260   0.0000000   0.0000000), wk =   0.0555556
        k(   17) = (  -0.0894390  -0.0516376   0.0000000), wk =   0.0277778
        k(   18) = (  -0.0894390  -0.0172125   0.0000000), wk =   0.0555556
        k(   19) = (  -0.0894390   0.0172125   0.0000000), wk =   0.0555556
        k(   20) = (  -0.0894390  -0.1549129   0.0000000), wk =   0.0277778
        k(   21) = (   0.0000000   0.0000000   0.0000000), wk =   0.0277778
        k(   22) = (   0.0000000   0.0344251   0.0000000), wk =   0.0555556
        k(   23) = (   0.0000000   0.0688502   0.0000000), wk =   0.0555556
        k(   24) = (   0.0000000  -0.1032753   0.0000000), wk =   0.0277778
        k(   25) = (   0.0298130   0.0172125   0.0000000), wk =   0.0555556
        k(   26) = (   0.0298130   0.0516376   0.0000000), wk =   0.0555556
        k(   27) = (   0.0298130   0.0860627   0.0000000), wk =   0.0555556
        k(   28) = (   0.0298130  -0.0860627   0.0000000), wk =   0.0555556
        k(   29) = (   0.0298130  -0.0516376   0.0000000), wk =   0.0555556
        k(   30) = (   0.0298130  -0.0172125   0.0000000), wk =   0.0555556
        k(   31) = (   0.0596260   0.0344251   0.0000000), wk =   0.0555556
        k(   32) = (   0.0596260   0.0688502   0.0000000), wk =   0.0555556
        k(   33) = (   0.0596260   0.1032753   0.0000000), wk =   0.0555556
        k(   34) = (   0.0596260  -0.0688502   0.0000000), wk =   0.0555556
        k(   35) = (   0.0596260  -0.0344251   0.0000000), wk =   0.0555556
        k(   36) = (   0.0596260   0.0000000   0.0000000), wk =   0.0555556
        k(   37) = (  -0.0894390  -0.0516376   0.0000000), wk =   0.0277778
        k(   38) = (  -0.0894390  -0.0172125   0.0000000), wk =   0.0555556
        k(   39) = (  -0.0894390   0.0172125   0.0000000), wk =   0.0555556
        k(   40) = (  -0.0894390  -0.1549129   0.0000000), wk =   0.0277778

     Largest allocated arrays     est. size (Mb)     dimensions
     Largest temporary arrays     est. size (Mb)     dimensions

     Check: negative/imaginary core charge=   -0.000003    0.000000

     Initial potential from superposition of free atoms
     Check: negative starting charge=(component1):   -0.928102
     Check: negative starting charge=(component2):   -0.721861

     starting charge  182.99964, renormalised to  189.00000

     negative rho (up, down):  9.585E-01 7.455E-01

     *
     * You are using vdW-DF for exchange-correlation in this calculation.
     * Please cite the following three references that made this development
     * possible:
     *
     *   M. Dion, H. Rydberg, E. Schroder, D. C. Langreth, and
     *   B. I. Lundqvist, Phys. Rev. Lett. 92, 246401 (2004).
     *
     *   T. Thonhauser, V. R. Cooper, S. Li, A. Puzder, P. Hyldgaard, and
     *   D. C. Langreth, Phys. Rev. B 76, 125112 (2007).
     *
     *   G. Roman-Perez and J. M. Soler, Phys. Rev. Lett. 103, 096102 (2009).
     *
     *
     * If you are using vdW-DF2, please also cite:
     *
     *   K. Lee, E. D. Murray, L. Kong, B. I. Lundqvist, and
     *   D. C. Langreth, Phys. Rev. B 82, 081101(R) (2010).
     *
     *
     * If you are calculating the stress with vdW-DF, please also cite:
     *
     *   R. Sabatini, E. Kucukbenli, B. Kolb, T. Thonhauser, and
     *   S. de Gironcoli, J. Phys.: Condens. Matter 24, 424209 (2012).
     *

     Carrying out vdW-DF run using the following parameters:

     Nqs =      20    Nr_points =    1024   r_max =   100.000
     q_mesh =
               0.00001000     0.04494208     0.09755937     0.15916263
               0.23128650     0.31572767     0.41458969     0.53033537
               0.66584808     0.82450364     1.01025438     1.22772762
               1.48234092     1.78043706     2.12944203     2.53805004
               3.01644009     3.57652955     4.23227104     5.00000000

     Gradients computed in reciprocal space

     Adding external electric field

     Computed dipole along edir(3) :
        Dipole                0.0000 Ry au,          0.0000 Debye
        Dipole field          0.0000 Ry au

        Potential amp.       -0.0000 Ry
        Total length         45.2598 bohr

[...]

     Starting wfc are  147 randomized atomic wfcs

     Self-consistent Calculation

     iteration #  1     ecut=    36.75 Ry     beta=0.10
     Davidson diagonalization with overlap
     ethr =  1.00E-02,  avg # of iterations =  7.7

[...]

     Magnetic moment per site:
     atom:    1    charge:    2.1053    magn:    0.2462    constr:    0.0000
     atom:    2    charge:    2.1053    magn:    0.2462    constr:    0.0000
     atom:    3    charge:    2.1053    magn:    0.2462    constr:    0.0000
     atom:    4    charge:    6.1477    magn:    0.8146    constr:    0.0000
     atom:    5    charge:    2.1037    magn:    0.2459    constr:    0.0000
     atom:    6    charge:    2.1037    magn:    0.2459    constr:    0.0000
     atom:    7    charge:    2.1037    magn:    0.2459    constr:    0.0000
     atom:    8    charge:    6.1370    magn:    0.8141    constr:    0.0000
[...]
        k(    3) = (   0.0000000   0.0688502   0.0000000), wk =   0.0555556
        k(    4) = (   0.0000000  -0.1032753   0.0000000), wk =   0.0277778
        k(    5) = (   0.0298130   0.0172125   0.0000000), wk =   0.0555556
        k(    6) = (   0.0298130   0.0516376   0.0000000), wk =   0.0555556
        k(    7) = (   0.0298130   0.0860627   0.0000000), wk =   0.0555556
        k(    8) = (   0.0298130  -0.0860627   0.0000000), wk =   0.0555556
        k(    9) = (   0.0298130  -0.0516376   0.0000000), wk =   0.0555556
        k(   10) = (   0.0298130  -0.0172125   0.0000000), wk =   0.0555556
        k(   11) = (   0.0596260   0.0344251   0.0000000), wk =   0.0555556
        k(   12) = (   0.0596260   0.0688502   0.0000000), wk =   0.0555556
        k(   13) = (   0.0596260   0.1032753   0.0000000), wk =   0.0555556
        k(   14) = (   0.0596260  -0.0688502   0.0000000), wk =   0.0555556
        k(   15) = (   0.0596260  -0.0344251   0.0000000), wk =   0.0555556
        k(   16) = (   0.0596260   0.0000000   0.0000000), wk =   0.0555556
        k(   17) = (  -0.0894390  -0.0516376   0.0000000), wk =   0.0277778
        k(   18) = (  -0.0894390  -0.0172125   0.0000000), wk =   0.0555556
        k(   19) = (  -0.0894390   0.0172125   0.0000000), wk =   0.0555556
        k(   20) = (  -0.0894390  -0.1549129   0.0000000), wk =   0.0277778
        k(   21) = (   0.0000000   0.0000000   0.0000000), wk =   0.0277778
        k(   22) = (   0.0000000   0.0344251   0.0000000), wk =   0.0555556
        k(   23) = (   0.0000000   0.0688502   0.0000000), wk =   0.0555556
        k(   24) = (   0.0000000  -0.1032753   0.0000000), wk =   0.0277778
        k(   25) = (   0.0298130   0.0172125   0.0000000), wk =   0.0555556
        k(   26) = (   0.0298130   0.0516376   0.0000000), wk =   0.0555556
        k(   27) = (   0.0298130   0.0860627   0.0000000), wk =   0.0555556
        k(   28) = (   0.0298130  -0.0860627   0.0000000), wk =   0.0555556
        k(   29) = (   0.0298130  -0.0516376   0.0000000), wk =   0.0555556
        k(   30) = (   0.0298130  -0.0172125   0.0000000), wk =   0.0555556
        k(   31) = (   0.0596260   0.0344251   0.0000000), wk =   0.0555556
        k(   32) = (   0.0596260   0.0688502   0.0000000), wk =   0.0555556
        k(   33) = (   0.0596260   0.1032753   0.0000000), wk =   0.0555556
        k(   34) = (   0.0596260  -0.0688502   0.0000000), wk =   0.0555556
        k(   35) = (   0.0596260  -0.0344251   0.0000000), wk =   0.0555556
        k(   36) = (   0.0596260   0.0000000   0.0000000), wk =   0.0555556
        k(   37) = (  -0.0894390  -0.0516376   0.0000000), wk =   0.0277778
        k(   38) = (  -0.0894390  -0.0172125   0.0000000), wk =   0.0555556
        k(   39) = (  -0.0894390   0.0172125   0.0000000), wk =   0.0555556
        k(   40) = (  -0.0894390  -0.1549129   0.0000000), wk =   0.0277778

     Largest allocated arrays     est. size (Mb)     dimensions
     Largest temporary arrays     est. size (Mb)     dimensions

     Check: negative/imaginary core charge=   -0.000003    0.000000

     Initial potential from superposition of free atoms
     Check: negative starting charge=(component1):   -0.927193
     Check: negative starting charge=(component2):   -0.721154

     starting charge  182.99964, renormalised to  189.00000

[...]

     *
     * You are using vdW-DF for exchange-correlation in this calculation.
     * Please cite the following three references that made this development
     * possible:
     *
     *   M. Dion, H. Rydberg, E. Schroder, D. C. Langreth, and
     *   B. I. Lundqvist, Phys. Rev. Lett. 92, 246401 (2004).
     *
     *   T. Thonhauser, V. R. Cooper, S. Li, A. Puzder, P. Hyldgaard, and
     *   D. C. Langreth, Phys. Rev. B 76, 125112 (2007).
     *
     *   G. Roman-Perez and J. M. Soler, Phys. Rev. Lett. 103, 096102 (2009).
     *
     *
     * If you are using vdW-DF2, please also cite:
     *
     *   K. Lee, E. D. Murray, L. Kong, B. I. Lundqvist, and
     *   D. C. Langreth, Phys. Rev. B 82, 081101(R) (2010).
     *
     *
     * If you are calculating the stress with vdW-DF, please also cite:
     *
     *   R. Sabatini, E. Kucukbenli, B. Kolb, T. Thonhauser, and
     *   S. de Gironcoli, J. Phys.: Condens. Matter 24, 424209 (2012).
     *

     Carrying out vdW-DF run using the following parameters:

     Nqs =      20    Nr_points =    1024   r_max =   100.000
     q_mesh =
               0.00001000     0.04494208     0.09755937     0.15916263
               0.23128650     0.31572767     0.41458969     0.53033537
               0.66584808     0.82450364     1.01025438     1.22772762
               1.48234092     1.78043706     2.12944203     2.53805004
               3.01644009     3.57652955     4.23227104     5.00000000

     Gradients computed in reciprocal space

[...]

     Starting wfc are  147 randomized atomic wfcs

     Self-consistent Calculation

[...]

     total energy              =   -2547.75520902 Ry
     Harris-Foulkes estimate   =   -2547.75520718 Ry
     estimated scf accuracy    <       0.00000103 Ry

[...]

     iteration # 25     ecut=    36.75 Ry     beta=0.10
     Davidson diagonalization with overlap
     ethr =  5.45E-10,  avg # of iterations =  1.2

[...]

     negative rho (up, down):  7.972E-01 7.838E-01

[...]

     Adding external electric field

     Computed dipole along edir(3) :
        Dipole                0.0042 Ry au,          0.0107 Debye
        Dipole field          0.0000 Ry au

        Potential amp.       -0.0011 Ry
        Total length         45.2598 bohr

     Magnetic moment per site:
     atom:    1    charge:    2.0962    magn:    0.0120    constr:    0.0000
     atom:    2    charge:    2.0962    magn:    0.0120    constr:    0.0000
     atom:    3    charge:    2.0962    magn:    0.0120    constr:    0.0000
     atom:    4    charge:    6.0166    magn:    1.6493    constr:    0.0000
     atom:    5    charge:    2.0977    magn:    0.0163    constr:    0.0000
     atom:    6    charge:    2.0977    magn:    0.0163    constr:    0.0000
     atom:    7    charge:    2.0977    magn:    0.0163    constr:    0.0000
     atom:    8    charge:    6.0103    magn:    1.6096    constr:    0.0000
     atom:    9    charge:    2.0975    magn:    0.0119    constr:    0.0000
     atom:   10    charge:    2.0975    magn:    0.0119    constr:    0.0000
     atom:   11    charge:    2.0975    magn:    0.0119    constr:    0.0000
     atom:   12    charge:    6.0131    magn:    1.6521    constr:    0.0000

     End of self-consistent calculation

 ------ SPIN UP ------------

[...]

 ------ SPIN DOWN ----------

[...]

          k = 0.0596 0.0000 0.0000 ( 16864 PWs)   bands (ev):

[...]

          k =-0.0894-0.1549 0.0000 ( 16904 PWs)   bands (ev):

   -75.4876 -75.4855 -75.3875 -51.2096 -51.1238 -51.0874 -51.0821 -51.0648
   -51.0534 -51.0382 -51.0328 -50.9584 -50.9148 -50.8922 -50.8222 -50.7970
   -50.7946 -50.7851 -50.7770 -50.7713 -50.7679 -50.7559 -50.6924 -50.6797
   -50.5841 -50.5745 -50.5697 -50.5608 -50.5564 -50.5497 -44.2802 -44.2795
   -44.2785 -44.2777 -44.2533 -44.2498 -44.1875 -44.1858 -44.1473  -5.1645
    -4.7932  -3.8227  -3.4749  -3.4046  -3.2569  -3.2498  -3.0247  -2.9418
    -2.8078  -2.7311  -2.7145  -2.4419  -2.2968  -2.2353  -2.1927  -2.1665
    -2.1659  -1.8315  -1.7072  -1.3812  -1.3576  -1.3227  -1.2823  -1.2714
    -1.1859  -1.0966  -1.0382  -1.0026  -0.9850  -0.9160  -0.8166  -0.7702
    -0.6120  -0.3749  -0.3444  -0.2267  -0.1657  -0.1324  -0.0481   0.1041
     0.2041   0.3529   0.3550   0.8327   0.8350   0.9767   1.0409   1.4784
     1.7015   1.7678   1.9097   2.5770   2.5927   2.8693   2.9286   2.9762
     3.0550   3.0927   3.2723   3.3736   3.4069   3.4830   3.8360   3.8803
     3.9317   4.1501   4.7441   4.9116   5.2648   5.9887   6.0549   6.5132
     6.8888   7.5102   7.5278   8.1219   8.1223   8.1954   8.2134   9.1812
     9.2241   9.3036   9.3256   9.3992

     the Fermi energy is     1.5274 ev

!    total energy              =   -2547.75521658 Ry
     Harris-Foulkes estimate   =   -2547.75520904 Ry
     estimated scf accuracy    <       0.00000061 Ry

     The total energy is the sum of the following terms:

     one-electron contribution =  -19769.98222161 Ry
     hartree contribution      =    9911.12736416 Ry
     xc contribution           =    -610.76009352 Ry
     ewald contribution        =    7921.92507251 Ry
     electric field correction =       0.00000005 Ry
     smearing contrib. (-TS)   =      -0.06533817 Ry

     total magnetization       =    13.86 Bohr mag/cell
     absolute magnetization    =    14.34 Bohr mag/cell

     convergence has been achieved in  25 iterations

 BEEF-vdW xc energy contributions
           1 :   -542.498662399895
           2 :    502.783375168320
           3 :   -432.661679018432
           4 :    346.868211946989
           5 :   -260.389834232290
           6 :    184.440862799960
           7 :   -124.743438642826
           8 :    81.8470988787926
           9 :   -52.7166705423028
          10 :    32.7719931020565
          11 :   -17.7790080155228
          12 :    5.11116293952091
          13 :    5.87484030657049
          14 :   -14.3795066557647
          15 :    19.2603531721679
          16 :   -20.0914870771456
          17 :    17.6011089025757
          18 :   -13.3662238766350
          19 :    9.09875231729052
          20 :   -6.03322257309810
          21 :    4.67171825861590
          22 :   -4.86069463264266
          23 :    6.01340474169524
          24 :   -7.36833905233811
          25 :    8.24048448008932
          26 :   -8.25230577468392
          27 :    7.45274069467996
          28 :   -6.24927436851203
          29 :    5.16262348017494
          30 :   -4.55776338437431
          31 :   -44.9121484132635
          32 :   -32.9525218957175

     Forces acting on atoms (Ry/au):

     negative rho (up, down):  7.972E-01 7.838E-01
     atom    1 type  1   force =     0.00000003    0.01511397    0.00046524
     atom    2 type  1   force =     0.01308921   -0.00755690    0.00046512
     atom    3 type  1   force =    -0.01308916   -0.00755689    0.00046527
     atom    4 type  2   force =    -0.00000001   -0.00000014   -0.00459313
     atom    5 type  1   force =     0.00000004    0.00044092    0.00166292
     atom    6 type  1   force =     0.00038171   -0.00022051    0.00166275
     atom    7 type  1   force =    -0.00038176   -0.00022047    0.00166308
     atom    8 type  2   force =     0.00000001   -0.00000010   -0.00344018
     atom    9 type  1   force =    -0.00000043    0.00020851    0.00041173
     atom   10 type  1   force =     0.00018053   -0.00010459    0.00041172
     atom   11 type  1   force =    -0.00018049   -0.00010396    0.00041174
     atom   12 type  2   force =     0.00000032    0.00000015    0.00041374

     Total force =     0.026992     Total SCF correction =     0.001639

     entering subroutine stress ...

     negative rho (up, down):  7.972E-01 7.838E-01
          total   stress  (Ry/bohr**3)                   (kbar)     P=  -14.90
  -0.00014755   0.00000000   0.00000000        -21.71      0.00      0.00
   0.00000000  -0.00014755  -0.00000000          0.00    -21.71     -0.00
   0.00000000  -0.00000000  -0.00000871          0.00     -0.00     -1.28

 !ASE

     Writing output data file calc.save

     General routines

     Parallel routines

   This run was terminated on:  20:40:31  31Dec2018

   JOB DONE.
Job  /afs/slac/g/suncat/bin/suncat-tsmpirun -x LD_LIBRARY_PATH -wdir /scratch/qe648810_7s9Hh pw.x -in pw.inp

TID   HOST_NAME   COMMAND_LINE            STATUS            TERMINATION_TIME
00000 suncat0169 pw.x -in pw.inp   Done                     12/31/2018 20:40:31
00001 suncat0169 pw.x -in pw.inp   Done                     12/31/2018 20:40:31
00002 suncat0169 pw.x -in pw.inp   Done                     12/31/2018 20:40:31
00003 suncat0169 pw.x -in pw.inp   Done                     12/31/2018 20:40:31
00004 suncat0169 pw.x -in pw.inp   Done                     12/31/2018 20:40:31
00005 suncat0169 pw.x -in pw.inp   Done                     12/31/2018 20:40:31
00006 suncat0169 pw.x -in pw.inp   Done                     12/31/2018 20:40:31
00007 suncat0169 pw.x -in pw.inp   Done                     12/31/2018 20:40:31
00008 suncat0168 pw.x -in pw.inp   Done                     12/31/2018 20:40:31
00009 suncat0168 pw.x -in pw.inp   Done                     12/31/2018 20:40:31
00010 suncat0168 pw.x -in pw.inp   Done                     12/31/2018 20:40:31
00011 suncat0168 pw.x -in pw.inp   Done                     12/31/2018 20:40:31
00012 suncat0168 pw.x -in pw.inp   Done                     12/31/2018 20:40:31
00013 suncat0168 pw.x -in pw.inp   Done                     12/31/2018 20:40:31
00014 suncat0168 pw.x -in pw.inp   Done                     12/31/2018 20:40:31
00015 suncat0168 pw.x -in pw.inp   Done                     12/31/2018 20:40:31
00016 suncat0161 pw.x -in pw.inp   Done                     12/31/2018 20:40:31
00017 suncat0161 pw.x -in pw.inp   Done                     12/31/2018 20:40:31
00018 suncat0161 pw.x -in pw.inp   Done                     12/31/2018 20:40:31
00019 suncat0161 pw.x -in pw.inp   Done                     12/31/2018 20:40:31
00020 suncat0161 pw.x -in pw.inp   Done                     12/31/2018 20:40:31
00021 suncat0161 pw.x -in pw.inp   Done                     12/31/2018 20:40:31
00022 suncat0161 pw.x -in pw.inp   Done                     12/31/2018 20:40:31
00023 suncat0161 pw.x -in pw.inp   Done                     12/31/2018 20:40:31
00024 suncat0137 pw.x -in pw.inp   Done                     12/31/2018 20:40:31
00025 suncat0137 pw.x -in pw.inp   Done                     12/31/2018 20:40:31
00026 suncat0137 pw.x -in pw.inp   Done                     12/31/2018 20:40:31
00027 suncat0137 pw.x -in pw.inp   Done                     12/31/2018 20:40:31
00028 suncat0137 pw.x -in pw.inp   Done                     12/31/2018 20:40:31
00029 suncat0137 pw.x -in pw.inp   Done                     12/31/2018 20:40:31
00030 suncat0137 pw.x -in pw.inp   Done                     12/31/2018 20:40:31
00031 suncat0137 pw.x -in pw.inp   Done                     12/31/2018 20:40:31
00032 suncat0117 pw.x -in pw.inp   Done                     12/31/2018 20:40:31
00033 suncat0117 pw.x -in pw.inp   Done                     12/31/2018 20:40:31
00034 suncat0117 pw.x -in pw.inp   Done                     12/31/2018 20:40:31
00035 suncat0117 pw.x -in pw.inp   Done                     12/31/2018 20:40:31
00036 suncat0117 pw.x -in pw.inp   Done                     12/31/2018 20:40:31
00037 suncat0117 pw.x -in pw.inp   Done                     12/31/2018 20:40:31
00038 suncat0117 pw.x -in pw.inp   Done                     12/31/2018 20:40:31
00039 suncat0117 pw.x -in pw.inp   Done                     12/31/2018 20:40:31
00040 suncat0250 pw.x -in pw.inp   Done                     12/31/2018 20:40:31
00041 suncat0250 pw.x -in pw.inp   Done                     12/31/2018 20:40:31
00042 suncat0250 pw.x -in pw.inp   Done                     12/31/2018 20:40:31
00043 suncat0250 pw.x -in pw.inp   Done                     12/31/2018 20:40:31
00044 suncat0250 pw.x -in pw.inp   Done                     12/31/2018 20:40:31
00045 suncat0250 pw.x -in pw.inp   Done                     12/31/2018 20:40:31
00046 suncat0250 pw.x -in pw.inp   Done                     12/31/2018 20:40:31
00047 suncat0250 pw.x -in pw.inp   Done                     12/31/2018 20:40:31
00048 suncat0249 pw.x -in pw.inp   Done                     12/31/2018 20:40:31
00049 suncat0249 pw.x -in pw.inp   Done                     12/31/2018 20:40:31
00050 suncat0249 pw.x -in pw.inp   Done                     12/31/2018 20:40:31
00051 suncat0249 pw.x -in pw.inp   Done                     12/31/2018 20:40:31
00052 suncat0249 pw.x -in pw.inp   Done                     12/31/2018 20:40:31
00053 suncat0249 pw.x -in pw.inp   Done                     12/31/2018 20:40:31
00054 suncat0249 pw.x -in pw.inp   Done                     12/31/2018 20:40:31
00055 suncat0249 pw.x -in pw.inp   Done                     12/31/2018 20:40:31
00056 suncat0231 pw.x -in pw.inp   Done                     12/31/2018 20:40:31
00057 suncat0231 pw.x -in pw.inp   Done                     12/31/2018 20:40:31
00058 suncat0231 pw.x -in pw.inp   Done                     12/31/2018 20:40:31
00059 suncat0231 pw.x -in pw.inp   Done                     12/31/2018 20:40:31
00060 suncat0231 pw.x -in pw.inp   Done                     12/31/2018 20:40:31
00061 suncat0231 pw.x -in pw.inp   Done                     12/31/2018 20:40:31
00062 suncat0231 pw.x -in pw.inp   Done                     12/31/2018 20:40:31
00063 suncat0231 pw.x -in pw.inp   Done                     12/31/2018 20:40:31