     Program PWSCF v.5.1rc2 (svn rev. 11289) starts on 19Dec2018 at 21: 4:30

     Current dimensions of program PWSCF are:
     Max number of different atomic species (ntypx) = 10
     Max number of k-points (npk) =  40000
     Max angular momentum in pseudopotentials (lmaxx) =  3
     Presently stress not available with electric field

     IMPORTANT: XC functional enforced from input :
     Exchange-correlation      = BEEF-VDW ( 1  4 27 13 2)
     Any further DFT definition will be discarded
     Please, verify this is what you really want

     Subspace diagonalization in iterative solution of the eigenvalue problem:
     a serial algorithm will be used

     bravais-lattice index     =            0
     lattice parameter (alat)  =       1.8897  a.u.
     unit-cell volume          =    5502.2970 (a.u.)^3
     number of atoms/cell      =           12
     number of atomic types    =            2
     number of electrons       =       147.00
     number of Kohn-Sham states=          103
     kinetic-energy cutoff     =      36.7493  Ry
     charge density cutoff     =     367.4932  Ry
     convergence threshold     =      1.0E-06
     mixing beta               =       0.1000
     number of iterations used =           10  plain     mixing
     Exchange-correlation      = BEEF-VDW ( 1  4 27 13 2)
     nstep                     =           50

     celldm(1)=   1.889726  celldm(2)=   0.000000  celldm(3)=   0.000000
     celldm(4)=   0.000000  celldm(5)=   0.000000  celldm(6)=   0.000000

     crystal axes: (cart. coord. in units of alat)
               a(1) = (   6.135563   0.000000   0.000000 )
               a(2) = (  -3.067782   5.313554   0.000000 )
               a(3) = (   0.000000   0.000000  25.009667 )

     reciprocal axes: (cart. coord. in units 2 pi/alat)
               b(1) = (  0.162984  0.094099  0.000000 )
               b(2) = (  0.000000  0.188198  0.000000 )
               b(3) = (  0.000000  0.000000  0.039985 )

     PseudoPot. # 1 for Cd read from file:
     /afs/slac.stanford.edu/u/if/mamunm/psp/gbrv1.5pbe/Cd.UPF
     MD5 check sum: 17164a7926edb8e0dc231208abae86a6
     Pseudo is Ultrasoft + core correction, Zval = 12.0
     Generated by new atomic code, or converted to UPF format
     Using radial grid of  889 points,  6 beta functions with:
                l(1) =   0
                l(2) =   0
                l(3) =   1
                l(4) =   1
                l(5) =   2
                l(6) =   2
     Q(r) pseudized with  6 coefficients,  rinner =    1.000   1.000   1.000
                                                       1.000   1.000

     PseudoPot. # 2 for Nb read from file:
     /afs/slac.stanford.edu/u/if/mamunm/psp/gbrv1.5pbe/Nb.UPF
     MD5 check sum: 573aab8a2fa660278ed4a62cd769473f
     Pseudo is Ultrasoft + core correction, Zval = 13.0
     Generated by new atomic code, or converted to UPF format
     Using radial grid of  887 points,  6 beta functions with:
                l(1) =   0
                l(2) =   0
                l(3) =   1
                l(4) =   1
                l(5) =   2
                l(6) =   2
     Q(r) pseudized with  6 coefficients,  rinner =    1.000   1.000   1.000
                                                       1.000   1.000

     vdW kernel table read from file vdW_kernel_table
     MD5 check sum: 095c7af220d748ca6e76c0b4c6cfb241

     atomic species   valence    mass     pseudopotential
        Cd1           12.00   112.41400     Cd( 1.00)
        Nb1           13.00    92.90637     Nb( 1.00)

     No symmetry found

   Cartesian axes

     site n.     atom                  positions (alat units)
         1           Cd1 tau(   1) = (   0.0000000   0.0000000  10.0000000  )
         2           Cd1 tau(   2) = (  -1.5338909   2.6567769  10.0000000  )
         3           Cd1 tau(   3) = (   1.5338909   2.6567769  10.0000000  )
         4           Nb1 tau(   4) = (   3.0677817   0.0000000  10.0000000  )
         5           Cd1 tau(   5) = (   3.0677817   1.7711846  12.5048333  )
         6           Cd1 tau(   6) = (   1.5338909   4.4279615  12.5048333  )
         7           Cd1 tau(   7) = (  -1.5338909   4.4279615  12.5048333  )
         8           Nb1 tau(   8) = (   0.0000000   1.7711846  12.5048333  )
         9           Cd1 tau(   9) = (  -0.0000000   3.5423692  15.0096665  )
        10           Cd1 tau(  10) = (   1.5338909   0.8855923  15.0096665  )
        11           Cd1 tau(  11) = (   4.6016726   0.8855923  15.0096665  )
        12           Nb1 tau(  12) = (   3.0677817   3.5423692  15.0096665  )

     number of k points=    20  Fermi-Dirac smearing, width (Ry)=  0.0110
                       cart. coord. in units 2pi/alat
        k(    1) = (   0.0000000   0.0000000   0.0000000), wk =   0.0555556
        k(    2) = (   0.0000000   0.0313663   0.0000000), wk =   0.1111111
        k(    3) = (   0.0000000   0.0627327   0.0000000), wk =   0.1111111
        k(    4) = (   0.0000000  -0.0940990   0.0000000), wk =   0.0555556
        k(    5) = (   0.0271640   0.0156832   0.0000000), wk =   0.1111111
        k(    6) = (   0.0271640   0.0470495   0.0000000), wk =   0.1111111
        k(    7) = (   0.0271640   0.0784158   0.0000000), wk =   0.1111111
        k(    8) = (   0.0271640  -0.0784158   0.0000000), wk =   0.1111111
        k(    9) = (   0.0271640  -0.0470495   0.0000000), wk =   0.1111111
        k(   10) = (   0.0271640  -0.0156832   0.0000000), wk =   0.1111111
        k(   11) = (   0.0543281   0.0313663   0.0000000), wk =   0.1111111
        k(   12) = (   0.0543281   0.0627327   0.0000000), wk =   0.1111111
        k(   13) = (   0.0543281   0.0940990   0.0000000), wk =   0.1111111
        k(   14) = (   0.0543281  -0.0627327   0.0000000), wk =   0.1111111
        k(   15) = (   0.0543281  -0.0313663   0.0000000), wk =   0.1111111
        k(   16) = (   0.0543281   0.0000000   0.0000000), wk =   0.1111111
        k(   17) = (  -0.0814921  -0.0470495   0.0000000), wk =   0.0555556
        k(   18) = (  -0.0814921  -0.0156832   0.0000000), wk =   0.1111111
        k(   19) = (  -0.0814921   0.0156832   0.0000000), wk =   0.1111111
        k(   20) = (  -0.0814921  -0.1411485   0.0000000), wk =   0.0555556

     Largest allocated arrays     est. size (Mb)     dimensions
     Largest temporary arrays     est. size (Mb)     dimensions

     Initial potential from superposition of free atoms
     Check: negative starting charge=   -0.201947

     starting charge  142.49143, renormalised to  147.00000

     negative rho (up, down):  2.083E-01 0.000E+00

     *
     * You are using vdW-DF for exchange-correlation in this calculation.
     * Please cite the following three references that made this development
     * possible:
     *
     *   M. Dion, H. Rydberg, E. Schroder, D. C. Langreth, and
     *   B. I. Lundqvist, Phys. Rev. Lett. 92, 246401 (2004).
     *
     *   T. Thonhauser, V. R. Cooper, S. Li, A. Puzder, P. Hyldgaard, and
     *   D. C. Langreth, Phys. Rev. B 76, 125112 (2007).
     *
     *   G. Roman-Perez and J. M. Soler, Phys. Rev. Lett. 103, 096102 (2009).
     *
     *
     * If you are using vdW-DF2, please also cite:
     *
     *   K. Lee, E. D. Murray, L. Kong, B. I. Lundqvist, and
     *   D. C. Langreth, Phys. Rev. B 82, 081101(R) (2010).
     *
     *
     * If you are calculating the stress with vdW-DF, please also cite:
     *
     *   R. Sabatini, E. Kucukbenli, B. Kolb, T. Thonhauser, and
     *   S. de Gironcoli, J. Phys.: Condens. Matter 24, 424209 (2012).
     *

     Carrying out vdW-DF run using the following parameters:

     Nqs =      20    Nr_points =    1024   r_max =   100.000
     q_mesh =
               0.00001000     0.04494208     0.09755937     0.15916263
               0.23128650     0.31572767     0.41458969     0.53033537
               0.66584808     0.82450364     1.01025438     1.22772762
               1.48234092     1.78043706     2.12944203     2.53805004
               3.01644009     3.57652955     4.23227104     5.00000000

     Gradients computed in reciprocal space

     Adding external electric field

     Computed dipole along edir(3) :
        Dipole               -0.0000 Ry au,         -0.0000 Debye
        Dipole field         -0.0000 Ry au

        Potential amp.        0.0000 Ry
        Total length         46.0799 bohr

     Starting wfc are  120 randomized atomic wfcs

     Self-consistent Calculation

     iteration #  1     ecut=    36.75 Ry     beta=0.10
     Davidson diagonalization with overlap
     ethr =  1.00E-02,  avg # of iterations =  8.4

[...]

     total energy              =   -1400.18956105 Ry
     Harris-Foulkes estimate   =   -1400.80167943 Ry
     estimated scf accuracy    <       3.74481945 Ry

[...]

     End of self-consistent calculation

          k = 0.0000 0.0000 0.0000 ( 20695 PWs)   bands (ev):

   -54.5230 -54.4191 -54.4190 -30.5956 -30.5693 -30.5679 -30.5140 -30.5140
   -30.3653 -30.3653 -30.3649 -30.3649  -8.5253  -8.3853  -8.3788  -8.3788
    -8.3415  -8.3196  -8.2438  -8.1829  -8.1829  -8.1316  -8.1316  -8.0974
    -8.0974  -8.0065  -7.9348  -7.9348  -7.9227  -7.8136  -7.7879  -7.7879
    -7.7259  -7.7008  -7.6119  -7.6119  -7.5691  -7.5691  -7.5266  -7.5266
    -7.4712  -7.4712  -7.4382  -7.4019  -7.4019  -7.3693  -7.3693  -7.3536
    -7.3536  -7.1743  -7.1743  -7.1306  -7.0759  -7.0759  -7.0368  -6.9609
    -6.9510  -6.6713  -5.0281  -2.8008  -1.4223  -1.4223  -1.0169  -1.0169
    -0.8537  -0.3827  -0.3827  -0.3735   0.1731   0.3408   0.3408   0.6355
     1.2316   1.2609   1.2609   1.3891   1.3891   1.5043   1.5043   2.1876
     2.1876   2.2230   2.3421   2.5530   2.5531   4.1645   4.3070   4.3070
     4.3083   4.3083   4.3624   4.4631   4.8572   5.0534   5.0686   5.0686
     5.4183   5.8496   6.3061   7.1475   7.1475   7.3248   7.4443

[...]

          k =-0.0815-0.0470 0.0000 ( 20704 PWs)   bands (ev):

[...]

     the Fermi energy is     0.9731 ev

!    total energy              =   -1400.05865059 Ry
     Harris-Foulkes estimate   =   -1400.06217474 Ry
     estimated scf accuracy    <       0.00000050 Ry

     The total energy is the sum of the following terms:

     one-electron contribution =   -9496.73132802 Ry
     hartree contribution      =    4817.20599331 Ry
     xc contribution           =    -424.26112914 Ry
     ewald contribution        =    3703.80215464 Ry
     electric field correction =       0.00000000 Ry
     smearing contrib. (-TS)   =      -0.07434138 Ry

     convergence has been achieved in  15 iterations

 BEEF-vdW xc energy contributions
           1 :   -370.680005869500
           2 :    339.010404729221
           3 :   -285.368387147016
           4 :    224.741074850761
           5 :   -171.188068201767
           6 :    132.857841706127
           7 :   -110.338922171899
           8 :    98.5269850360303
           9 :   -90.5371474650154
          10 :    81.4285826681368
          11 :   -69.9935093522790
          12 :    58.1298188371232
          13 :   -48.6798758567564
          14 :    43.2640916652730
          15 :   -41.3521320489568
          16 :    40.8534671850840
          17 :   -39.5805208324017
          18 :    36.5404078814351
[...]
               b(2) = (  0.000000  0.188198  0.000000 )
               b(3) = (  0.000000  0.000000  0.039985 )

     PseudoPot. # 1 for Cd read from file:
     /afs/slac.stanford.edu/u/if/mamunm/psp/gbrv1.5pbe/Cd.UPF
     MD5 check sum: 17164a7926edb8e0dc231208abae86a6
     Pseudo is Ultrasoft + core correction, Zval = 12.0
     Generated by new atomic code, or converted to UPF format
     Using radial grid of  889 points,  6 beta functions with:
                l(1) =   0
                l(2) =   0
                l(3) =   1
                l(4) =   1
                l(5) =   2
                l(6) =   2
     Q(r) pseudized with  6 coefficients,  rinner =    1.000   1.000   1.000
                                                       1.000   1.000

     PseudoPot. # 2 for Nb read from file:
     /afs/slac.stanford.edu/u/if/mamunm/psp/gbrv1.5pbe/Nb.UPF
     MD5 check sum: 573aab8a2fa660278ed4a62cd769473f
     Pseudo is Ultrasoft + core correction, Zval = 13.0
     Generated by new atomic code, or converted to UPF format
     Using radial grid of  887 points,  6 beta functions with:
                l(1) =   0
                l(2) =   0
                l(3) =   1
                l(4) =   1
                l(5) =   2
                l(6) =   2
     Q(r) pseudized with  6 coefficients,  rinner =    1.000   1.000   1.000
                                                       1.000   1.000

     vdW kernel table read from file vdW_kernel_table
     MD5 check sum: 095c7af220d748ca6e76c0b4c6cfb241

     atomic species   valence    mass     pseudopotential
        Cd1           12.00   112.41400     Cd( 1.00)
        Nb1           13.00    92.90637     Nb( 1.00)

     No symmetry found

   Cartesian axes

     site n.     atom                  positions (alat units)
         1           Cd1 tau(   1) = (   0.0000000   0.0000000  10.0000000  )
         2           Cd1 tau(   2) = (  -1.5338909   2.6567769  10.0000000  )
         3           Cd1 tau(   3) = (   1.5338909   2.6567769  10.0000000  )
         4           Nb1 tau(   4) = (   3.0677817   0.0000000  10.0000000  )
         5           Cd1 tau(   5) = (   3.0677817   1.7711846  12.5048333  )
         6           Cd1 tau(   6) = (   1.5338909   4.4279615  12.5048333  )
         7           Cd1 tau(   7) = (  -1.5338909   4.4279615  12.5048333  )
         8           Nb1 tau(   8) = (   0.0000000   1.7711846  12.5048333  )
         9           Cd1 tau(   9) = (   0.0000130   3.5450663  15.1810468  )
        10           Cd1 tau(  10) = (   1.5362442   0.8841582  15.1809991  )
        11           Cd1 tau(  11) = (   4.5993353   0.8842171  15.1811042  )
        12           Nb1 tau(  12) = (   3.0677886   3.5423469  14.8270059  )

     number of k points=    20  Fermi-Dirac smearing, width (Ry)=  0.0110
                       cart. coord. in units 2pi/alat
        k(    1) = (   0.0000000   0.0000000   0.0000000), wk =   0.0555556
        k(    2) = (   0.0000000   0.0313663   0.0000000), wk =   0.1111111
        k(    3) = (   0.0000000   0.0627327   0.0000000), wk =   0.1111111
        k(    4) = (   0.0000000  -0.0940990   0.0000000), wk =   0.0555556
        k(    5) = (   0.0271640   0.0156832   0.0000000), wk =   0.1111111
        k(    6) = (   0.0271640   0.0470495   0.0000000), wk =   0.1111111
        k(    7) = (   0.0271640   0.0784158   0.0000000), wk =   0.1111111
        k(    8) = (   0.0271640  -0.0784158   0.0000000), wk =   0.1111111
        k(    9) = (   0.0271640  -0.0470495   0.0000000), wk =   0.1111111
        k(   10) = (   0.0271640  -0.0156832   0.0000000), wk =   0.1111111
        k(   11) = (   0.0543281   0.0313663   0.0000000), wk =   0.1111111
        k(   12) = (   0.0543281   0.0627327   0.0000000), wk =   0.1111111
        k(   13) = (   0.0543281   0.0940990   0.0000000), wk =   0.1111111
        k(   14) = (   0.0543281  -0.0627327   0.0000000), wk =   0.1111111
        k(   15) = (   0.0543281  -0.0313663   0.0000000), wk =   0.1111111
        k(   16) = (   0.0543281   0.0000000   0.0000000), wk =   0.1111111
        k(   17) = (  -0.0814921  -0.0470495   0.0000000), wk =   0.0555556
        k(   18) = (  -0.0814921  -0.0156832   0.0000000), wk =   0.1111111
        k(   19) = (  -0.0814921   0.0156832   0.0000000), wk =   0.1111111
        k(   20) = (  -0.0814921  -0.1411485   0.0000000), wk =   0.0555556

     Largest allocated arrays     est. size (Mb)     dimensions
     Largest temporary arrays     est. size (Mb)     dimensions

     Initial potential from superposition of free atoms
     Check: negative starting charge=   -0.201935

     starting charge  142.49143, renormalised to  147.00000

[...]

     *
     * You are using vdW-DF for exchange-correlation in this calculation.
     * Please cite the following three references that made this development
     * possible:
     *
     *   M. Dion, H. Rydberg, E. Schroder, D. C. Langreth, and
     *   B. I. Lundqvist, Phys. Rev. Lett. 92, 246401 (2004).
     *
     *   T. Thonhauser, V. R. Cooper, S. Li, A. Puzder, P. Hyldgaard, and
     *   D. C. Langreth, Phys. Rev. B 76, 125112 (2007).
     *
     *   G. Roman-Perez and J. M. Soler, Phys. Rev. Lett. 103, 096102 (2009).
     *
     *
     * If you are using vdW-DF2, please also cite:
     *
     *   K. Lee, E. D. Murray, L. Kong, B. I. Lundqvist, and
     *   D. C. Langreth, Phys. Rev. B 82, 081101(R) (2010).
     *
     *
     * If you are calculating the stress with vdW-DF, please also cite:
     *
     *   R. Sabatini, E. Kucukbenli, B. Kolb, T. Thonhauser, and
     *   S. de Gironcoli, J. Phys.: Condens. Matter 24, 424209 (2012).
     *

     Carrying out vdW-DF run using the following parameters:

     Nqs =      20    Nr_points =    1024   r_max =   100.000
     q_mesh =
               0.00001000     0.04494208     0.09755937     0.15916263
               0.23128650     0.31572767     0.41458969     0.53033537
               0.66584808     0.82450364     1.01025438     1.22772762
               1.48234092     1.78043706     2.12944203     2.53805004
               3.01644009     3.57652955     4.23227104     5.00000000

     Gradients computed in reciprocal space

[...]

     Starting wfc are  120 randomized atomic wfcs

     Self-consistent Calculation

[...]

     total energy              =   -1400.07752136 Ry
     Harris-Foulkes estimate   =   -1400.07752190 Ry
     estimated scf accuracy    <       0.00000236 Ry

     iteration # 17     ecut=    36.75 Ry     beta=0.10
     Davidson diagonalization with overlap
     ethr =  1.60E-09,  avg # of iterations =  2.4

[...]

     negative rho (up, down):  2.095E-01 0.000E+00

     Adding external electric field

     Computed dipole along edir(3) :
        Dipole               -0.0476 Ry au,         -0.1209 Debye
        Dipole field         -0.0001 Ry au

        Potential amp.        0.0100 Ry
        Total length         46.0799 bohr

     End of self-consistent calculation

[...]

          k = 0.0543 0.0000 0.0000 ( 20669 PWs)   bands (ev):

[...]

          k =-0.0815-0.1411 0.0000 ( 20704 PWs)   bands (ev):

   -54.6341 -54.4425 -54.3581 -30.6921 -30.6174 -30.6161 -30.5802 -30.4813
   -30.3978 -30.3967 -30.3206 -30.3197  -8.2952  -8.2137  -8.1917  -8.1127
    -8.0859  -8.0648  -8.0215  -7.9803  -7.9589  -7.9435  -7.9421  -7.9395
    -7.8810  -7.8546  -7.8048  -7.7775  -7.7615  -7.7411  -7.7201  -7.7087
    -7.7029  -7.6791  -7.6586  -7.6300  -7.6228  -7.6052  -7.5746  -7.5578
    -7.5550  -7.5371  -7.5235  -7.5106  -7.4985  -7.4906  -7.4676  -7.4510
    -7.4508  -7.4400  -7.4159  -7.3679  -7.3249  -7.3145  -7.2015  -7.1246
    -7.0315  -5.1281  -4.9493  -3.7180  -3.4423  -2.5527  -1.8744  -1.5706
    -1.2075  -0.9303  -0.6170   0.0422   0.1982   0.4720   0.4765   0.5373
     0.6328   0.7770   0.9947   1.1041   1.5790   1.6060   2.0576   2.1584
     2.7043   2.8332   3.1157   3.2859   3.4064   3.5957   4.7790   4.9680
     5.0974   5.3312   5.5031   5.6156   5.6881   5.7539   5.8325   5.8646
     6.0647   6.0987   6.5490   6.5523   6.8551   7.0492   7.0569

     the Fermi energy is     0.9136 ev

!    total energy              =   -1400.07751935 Ry
     Harris-Foulkes estimate   =   -1400.07752236 Ry
     estimated scf accuracy    <       0.00000077 Ry

     The total energy is the sum of the following terms:

     one-electron contribution =   -9387.31836804 Ry
     hartree contribution      =    4762.52109356 Ry
     xc contribution           =    -424.21549450 Ry
     ewald contribution        =    3649.01288010 Ry
     electric field correction =       0.00000517 Ry
     smearing contrib. (-TS)   =      -0.07763564 Ry

     convergence has been achieved in  17 iterations

 BEEF-vdW xc energy contributions
           1 :   -370.748621685753
           2 :    339.035772896657
           3 :   -285.346993805371
           4 :    224.713487408872
           5 :   -171.206170449239
           6 :    132.945108769749
           7 :   -110.472881771924
           8 :    98.6557885482482
           9 :   -90.6177004902518
          10 :    81.4583686389835
          11 :   -70.0117356548283
          12 :    58.1868688425877
          13 :   -48.7983050058291
          14 :    43.4210313348565
          15 :   -41.4961453949943
          16 :    40.9428497923751
          17 :   -39.6144761610583
          18 :    36.5600622138430
          19 :   -32.3664335958305
          20 :    28.5221005609943
          21 :   -26.3414073399078
          22 :    26.1559329955624
          23 :   -27.2173672013581
          24 :    28.2623527992374
          25 :   -28.3101733440564
          26 :    27.1856243071468
          27 :   -25.4984596912353
          28 :    24.1621529654836
          29 :   -23.7956129010943
          30 :    24.3721866492800
          31 :   -34.5724065700045
          32 :   -25.4031618667296

     Forces acting on atoms (Ry/au):

     negative rho (up, down):  2.095E-01 0.000E+00
     atom    1 type  1   force =     0.00000528   -0.00154878   -0.01444648
     atom    2 type  1   force =    -0.00134139    0.00077738   -0.01444612
     atom    3 type  1   force =     0.00134310    0.00077690   -0.01445429
     atom    4 type  2   force =    -0.00000036   -0.00000056    0.03403060
     atom    5 type  1   force =     0.00000357   -0.01039151   -0.00140578
     atom    6 type  1   force =    -0.00899281    0.00519474   -0.00140088
     atom    7 type  1   force =     0.00899412    0.00519097   -0.00141246
     atom    8 type  2   force =    -0.00000163    0.00000056    0.01374974
     atom    9 type  1   force =    -0.00000218    0.00030321    0.00038923
     atom   10 type  1   force =     0.00026464   -0.00014646    0.00039198
     atom   11 type  1   force =    -0.00026941   -0.00015351    0.00038737
     atom   12 type  2   force =    -0.00000292   -0.00000295   -0.00138290

     Total force =     0.048093     Total SCF correction =     0.002718

     entering subroutine stress ...

     negative rho (up, down):  2.095E-01 0.000E+00
          total   stress  (Ry/bohr**3)                   (kbar)     P=   -6.53
  -0.00006035   0.00000000  -0.00000000         -8.88      0.00     -0.00
   0.00000000  -0.00006035   0.00000000          0.00     -8.88      0.00
  -0.00000000   0.00000000  -0.00001249         -0.00      0.00     -1.84

 !ASE

     Writing output data file calc.save

     General routines

     Parallel routines

   This run was terminated on:  22:27:22  19Dec2018

   JOB DONE.
Job  /afs/slac/g/suncat/bin/suncat-tsmpirun -x LD_LIBRARY_PATH -wdir /scratch/qe773442_mm1YG pw.x -in pw.inp

TID   HOST_NAME   COMMAND_LINE            STATUS            TERMINATION_TIME
00000 suncat0192 pw.x -in pw.inp   Done                     12/19/2018 22:27:22
00001 suncat0192 pw.x -in pw.inp   Done                     12/19/2018 22:27:22
00002 suncat0192 pw.x -in pw.inp   Done                     12/19/2018 22:27:22
00003 suncat0192 pw.x -in pw.inp   Done                     12/19/2018 22:27:22
00004 suncat0192 pw.x -in pw.inp   Done                     12/19/2018 22:27:22
00005 suncat0192 pw.x -in pw.inp   Done                     12/19/2018 22:27:22
00006 suncat0192 pw.x -in pw.inp   Done                     12/19/2018 22:27:22
00007 suncat0192 pw.x -in pw.inp   Done                     12/19/2018 22:27:22
00008 suncat0191 pw.x -in pw.inp   Done                     12/19/2018 22:27:22
00009 suncat0191 pw.x -in pw.inp   Done                     12/19/2018 22:27:22
00010 suncat0191 pw.x -in pw.inp   Done                     12/19/2018 22:27:22
00011 suncat0191 pw.x -in pw.inp   Done                     12/19/2018 22:27:22
00012 suncat0191 pw.x -in pw.inp   Done                     12/19/2018 22:27:22
00013 suncat0191 pw.x -in pw.inp   Done                     12/19/2018 22:27:22
00014 suncat0191 pw.x -in pw.inp   Done                     12/19/2018 22:27:22
00015 suncat0191 pw.x -in pw.inp   Done                     12/19/2018 22:27:22
00016 suncat0190 pw.x -in pw.inp   Done                     12/19/2018 22:27:22
00017 suncat0190 pw.x -in pw.inp   Done                     12/19/2018 22:27:22
00018 suncat0190 pw.x -in pw.inp   Done                     12/19/2018 22:27:22
00019 suncat0190 pw.x -in pw.inp   Done                     12/19/2018 22:27:22
00020 suncat0190 pw.x -in pw.inp   Done                     12/19/2018 22:27:22
00021 suncat0190 pw.x -in pw.inp   Done                     12/19/2018 22:27:22
00022 suncat0190 pw.x -in pw.inp   Done                     12/19/2018 22:27:22
00023 suncat0190 pw.x -in pw.inp   Done                     12/19/2018 22:27:22
00024 suncat0009 pw.x -in pw.inp   Done                     12/19/2018 22:27:22
00025 suncat0009 pw.x -in pw.inp   Done                     12/19/2018 22:27:22
00026 suncat0009 pw.x -in pw.inp   Done                     12/19/2018 22:27:22
00027 suncat0009 pw.x -in pw.inp   Done                     12/19/2018 22:27:22
00028 suncat0009 pw.x -in pw.inp   Done                     12/19/2018 22:27:22
00029 suncat0009 pw.x -in pw.inp   Done                     12/19/2018 22:27:22
00030 suncat0009 pw.x -in pw.inp   Done                     12/19/2018 22:27:22
00031 suncat0009 pw.x -in pw.inp   Done                     12/19/2018 22:27:22
00032 suncat0008 pw.x -in pw.inp   Done                     12/19/2018 22:27:22
00033 suncat0008 pw.x -in pw.inp   Done                     12/19/2018 22:27:22
00034 suncat0008 pw.x -in pw.inp   Done                     12/19/2018 22:27:22
00035 suncat0008 pw.x -in pw.inp   Done                     12/19/2018 22:27:22
00036 suncat0008 pw.x -in pw.inp   Done                     12/19/2018 22:27:22
00037 suncat0008 pw.x -in pw.inp   Done                     12/19/2018 22:27:22
00038 suncat0008 pw.x -in pw.inp   Done                     12/19/2018 22:27:22
00039 suncat0008 pw.x -in pw.inp   Done                     12/19/2018 22:27:22
00040 suncat0007 pw.x -in pw.inp   Done                     12/19/2018 22:27:22
00041 suncat0007 pw.x -in pw.inp   Done                     12/19/2018 22:27:22
00042 suncat0007 pw.x -in pw.inp   Done                     12/19/2018 22:27:22
00043 suncat0007 pw.x -in pw.inp   Done                     12/19/2018 22:27:22
00044 suncat0007 pw.x -in pw.inp   Done                     12/19/2018 22:27:22
00045 suncat0007 pw.x -in pw.inp   Done                     12/19/2018 22:27:22
00046 suncat0007 pw.x -in pw.inp   Done                     12/19/2018 22:27:22
00047 suncat0007 pw.x -in pw.inp   Done                     12/19/2018 22:27:22
00048 suncat0006 pw.x -in pw.inp   Done                     12/19/2018 22:27:22
00049 suncat0006 pw.x -in pw.inp   Done                     12/19/2018 22:27:22
00050 suncat0006 pw.x -in pw.inp   Done                     12/19/2018 22:27:22
00051 suncat0006 pw.x -in pw.inp   Done                     12/19/2018 22:27:22
00052 suncat0006 pw.x -in pw.inp   Done                     12/19/2018 22:27:22
00053 suncat0006 pw.x -in pw.inp   Done                     12/19/2018 22:27:22
00054 suncat0006 pw.x -in pw.inp   Done                     12/19/2018 22:27:22
00055 suncat0006 pw.x -in pw.inp   Done                     12/19/2018 22:27:22
00056 suncat0005 pw.x -in pw.inp   Done                     12/19/2018 22:27:22
00057 suncat0005 pw.x -in pw.inp   Done                     12/19/2018 22:27:22
00058 suncat0005 pw.x -in pw.inp   Done                     12/19/2018 22:27:22
00059 suncat0005 pw.x -in pw.inp   Done                     12/19/2018 22:27:22
00060 suncat0005 pw.x -in pw.inp   Done                     12/19/2018 22:27:22
00061 suncat0005 pw.x -in pw.inp   Done                     12/19/2018 22:27:22
00062 suncat0005 pw.x -in pw.inp   Done                     12/19/2018 22:27:22
00063 suncat0005 pw.x -in pw.inp   Done                     12/19/2018 22:27:22