     Program PWSCF v.5.1rc2 (svn rev. 11289) starts on 27Dec2018 at  8:30:39

     Current dimensions of program PWSCF are:
     Max number of different atomic species (ntypx) = 10
     Max number of k-points (npk) =  40000
     Max angular momentum in pseudopotentials (lmaxx) =  3
     Presently stress not available with electric field

     IMPORTANT: XC functional enforced from input :
     Exchange-correlation      = BEEF-VDW ( 1  4 27 13 2)
     Any further DFT definition will be discarded
     Please, verify this is what you really want

     Subspace diagonalization in iterative solution of the eigenvalue problem:
     a serial algorithm will be used

     Generating pointlists ...
     new r_m :   0.4125 (alat units)  0.7795 (a.u.) for type    1
     new r_m :   0.4125 (alat units)  0.7795 (a.u.) for type    2

     bravais-lattice index     =            0
     lattice parameter (alat)  =       1.8897  a.u.
     unit-cell volume          =    3815.2227 (a.u.)^3
     number of atoms/cell      =           12
     number of atomic types    =            2
     number of electrons       =       210.00
     number of Kohn-Sham states=          135
     kinetic-energy cutoff     =      36.7493  Ry
     charge density cutoff     =     367.4932  Ry
     convergence threshold     =      1.0E-06
     mixing beta               =       0.1000
     number of iterations used =           10  plain     mixing
     Exchange-correlation      = BEEF-VDW ( 1  4 27 13 2)
     nstep                     =           50

     celldm(1)=   1.889726  celldm(2)=   0.000000  celldm(3)=   0.000000
     celldm(4)=   0.000000  celldm(5)=   0.000000  celldm(6)=   0.000000

     crystal axes: (cart. coord. in units of alat)
               a(1) = (   5.189824   0.000000   0.000000 )
               a(2) = (  -2.594912   4.494520   0.000000 )
               a(3) = (   0.000000   0.000000  24.237474 )

     reciprocal axes: (cart. coord. in units 2 pi/alat)
               b(1) = (  0.192685  0.111247  0.000000 )
               b(2) = (  0.000000  0.222493  0.000000 )
               b(3) = (  0.000000  0.000000  0.041258 )

     PseudoPot. # 1 for Ni read from file:
     /afs/slac.stanford.edu/u/if/mamunm/psp/gbrv1.5pbe/Ni.UPF
     MD5 check sum: 1ee80287db30b12d2bc1f57a5b5d6409
     Pseudo is Ultrasoft + core correction, Zval = 18.0
     Generated by new atomic code, or converted to UPF format
     Using radial grid of  865 points,  6 beta functions with:
                l(1) =   0
                l(2) =   0
                l(3) =   1
                l(4) =   1
                l(5) =   2
                l(6) =   2
     Q(r) pseudized with 10 coefficients,  rinner =    0.980   0.980   0.980
                                                       0.980   0.980

     PseudoPot. # 2 for Pt read from file:
     /afs/slac.stanford.edu/u/if/mamunm/psp/gbrv1.5pbe/Pt.UPF
     MD5 check sum: f09d6de1a584b5a045c4fc126da2d0c4
     Pseudo is Ultrasoft + core correction, Zval = 16.0
     Generated by new atomic code, or converted to UPF format
     Using radial grid of  985 points,  6 beta functions with:
                l(1) =   0
                l(2) =   0
                l(3) =   1
                l(4) =   1
                l(5) =   2
                l(6) =   2
     Q(r) pseudized with  8 coefficients,  rinner =    1.300   1.300   1.300
                                                       1.300   1.300

     vdW kernel table read from file vdW_kernel_table
     MD5 check sum: 095c7af220d748ca6e76c0b4c6cfb241

     atomic species   valence    mass     pseudopotential
        Ni1           18.00    58.69340     Ni( 1.00)
        Pt1           16.00   195.08400     Pt( 1.00)

     Starting magnetic structure
     atomic species   magnetization
        Ni1          0.111
        Pt1          0.125

     No symmetry found

   Cartesian axes

     site n.     atom                  positions (alat units)
         1           Ni1 tau(   1) = (   0.0000000   0.0000000  10.0000000  )
         2           Ni1 tau(   2) = (  -1.2974561   2.2472598  10.0000000  )
         3           Ni1 tau(   3) = (   1.2974561   2.2472598  10.0000000  )
         4           Pt1 tau(   4) = (   2.5949121   0.0000000  10.0000000  )
         5           Ni1 tau(   5) = (   2.5949121   1.4981732  12.1187369  )
         6           Ni1 tau(   6) = (   1.2974561   3.7454331  12.1187369  )
         7           Ni1 tau(   7) = (  -1.2974561   3.7454331  12.1187369  )
         8           Pt1 tau(   8) = (   0.0000000   1.4981732  12.1187369  )
         9           Ni1 tau(   9) = (  -0.0000000   2.9963465  14.2374738  )
        10           Ni1 tau(  10) = (   1.2974561   0.7490866  14.2374738  )
        11           Ni1 tau(  11) = (   3.8923682   0.7490866  14.2374738  )
        12           Pt1 tau(  12) = (   2.5949121   2.9963465  14.2374738  )

     number of k points=    40  Fermi-Dirac smearing, width (Ry)=  0.0110
                       cart. coord. in units 2pi/alat
        k(    1) = (   0.0000000   0.0000000   0.0000000), wk =   0.0277778
        k(    2) = (   0.0000000   0.0370822   0.0000000), wk =   0.0555556
        k(    3) = (   0.0000000   0.0741644   0.0000000), wk =   0.0555556
        k(    4) = (   0.0000000  -0.1112466   0.0000000), wk =   0.0277778
        k(    5) = (   0.0321141   0.0185411   0.0000000), wk =   0.0555556
        k(    6) = (   0.0321141   0.0556233   0.0000000), wk =   0.0555556
        k(    7) = (   0.0321141   0.0927055   0.0000000), wk =   0.0555556
        k(    8) = (   0.0321141  -0.0927055   0.0000000), wk =   0.0555556
        k(    9) = (   0.0321141  -0.0556233   0.0000000), wk =   0.0555556
        k(   10) = (   0.0321141  -0.0185411   0.0000000), wk =   0.0555556
        k(   11) = (   0.0642283   0.0370822   0.0000000), wk =   0.0555556
        k(   12) = (   0.0642283   0.0741644   0.0000000), wk =   0.0555556
        k(   13) = (   0.0642283   0.1112466   0.0000000), wk =   0.0555556
        k(   14) = (   0.0642283  -0.0741644   0.0000000), wk =   0.0555556
        k(   15) = (   0.0642283  -0.0370822   0.0000000), wk =   0.0555556
        k(   16) = (   0.0642283   0.0000000   0.0000000), wk =   0.0555556
        k(   17) = (  -0.0963424  -0.0556233   0.0000000), wk =   0.0277778
        k(   18) = (  -0.0963424  -0.0185411   0.0000000), wk =   0.0555556
        k(   19) = (  -0.0963424   0.0185411   0.0000000), wk =   0.0555556
        k(   20) = (  -0.0963424  -0.1668699   0.0000000), wk =   0.0277778
        k(   21) = (   0.0000000   0.0000000   0.0000000), wk =   0.0277778
        k(   22) = (   0.0000000   0.0370822   0.0000000), wk =   0.0555556
        k(   23) = (   0.0000000   0.0741644   0.0000000), wk =   0.0555556
        k(   24) = (   0.0000000  -0.1112466   0.0000000), wk =   0.0277778
        k(   25) = (   0.0321141   0.0185411   0.0000000), wk =   0.0555556
        k(   26) = (   0.0321141   0.0556233   0.0000000), wk =   0.0555556
        k(   27) = (   0.0321141   0.0927055   0.0000000), wk =   0.0555556
        k(   28) = (   0.0321141  -0.0927055   0.0000000), wk =   0.0555556
        k(   29) = (   0.0321141  -0.0556233   0.0000000), wk =   0.0555556
        k(   30) = (   0.0321141  -0.0185411   0.0000000), wk =   0.0555556
        k(   31) = (   0.0642283   0.0370822   0.0000000), wk =   0.0555556
        k(   32) = (   0.0642283   0.0741644   0.0000000), wk =   0.0555556
        k(   33) = (   0.0642283   0.1112466   0.0000000), wk =   0.0555556
        k(   34) = (   0.0642283  -0.0741644   0.0000000), wk =   0.0555556
        k(   35) = (   0.0642283  -0.0370822   0.0000000), wk =   0.0555556
        k(   36) = (   0.0642283   0.0000000   0.0000000), wk =   0.0555556
        k(   37) = (  -0.0963424  -0.0556233   0.0000000), wk =   0.0277778
        k(   38) = (  -0.0963424  -0.0185411   0.0000000), wk =   0.0555556
        k(   39) = (  -0.0963424   0.0185411   0.0000000), wk =   0.0555556
        k(   40) = (  -0.0963424  -0.1668699   0.0000000), wk =   0.0277778

     Largest allocated arrays     est. size (Mb)     dimensions
     Largest temporary arrays     est. size (Mb)     dimensions

     Check: negative/imaginary core charge=   -0.000002    0.000000

     Initial potential from superposition of free atoms
     Check: negative starting charge=(component1):   -0.312656
     Check: negative starting charge=(component2):   -0.243185

     starting charge  190.49997, renormalised to  210.00000

     negative rho (up, down):  3.447E-01 2.681E-01

     *
     * You are using vdW-DF for exchange-correlation in this calculation.
     * Please cite the following three references that made this development
     * possible:
     *
     *   M. Dion, H. Rydberg, E. Schroder, D. C. Langreth, and
     *   B. I. Lundqvist, Phys. Rev. Lett. 92, 246401 (2004).
     *
     *   T. Thonhauser, V. R. Cooper, S. Li, A. Puzder, P. Hyldgaard, and
     *   D. C. Langreth, Phys. Rev. B 76, 125112 (2007).
     *
     *   G. Roman-Perez and J. M. Soler, Phys. Rev. Lett. 103, 096102 (2009).
     *
     *
     * If you are using vdW-DF2, please also cite:
     *
     *   K. Lee, E. D. Murray, L. Kong, B. I. Lundqvist, and
     *   D. C. Langreth, Phys. Rev. B 82, 081101(R) (2010).
     *
     *
     * If you are calculating the stress with vdW-DF, please also cite:
     *
     *   R. Sabatini, E. Kucukbenli, B. Kolb, T. Thonhauser, and
     *   S. de Gironcoli, J. Phys.: Condens. Matter 24, 424209 (2012).
     *

     Carrying out vdW-DF run using the following parameters:

     Nqs =      20    Nr_points =    1024   r_max =   100.000
     q_mesh =
               0.00001000     0.04494208     0.09755937     0.15916263
               0.23128650     0.31572767     0.41458969     0.53033537
               0.66584808     0.82450364     1.01025438     1.22772762
               1.48234092     1.78043706     2.12944203     2.53805004
               3.01644009     3.57652955     4.23227104     5.00000000

     Gradients computed in reciprocal space

     Adding external electric field

     Computed dipole along edir(3) :
        Dipole                0.0000 Ry au,          0.0000 Debye
        Dipole field          0.0000 Ry au

        Potential amp.       -0.0000 Ry
        Total length         44.6571 bohr

[...]

     Starting wfc are  153 randomized atomic wfcs

     Self-consistent Calculation

     iteration #  1     ecut=    36.75 Ry     beta=0.10
     Davidson diagonalization with overlap
     ethr =  1.00E-02,  avg # of iterations =  7.4

[...]

     Magnetic moment per site:
     atom:    1    charge:    9.7926    magn:    1.0371    constr:    0.0000
     atom:    2    charge:    9.7926    magn:    1.0370    constr:    0.0000
     atom:    3    charge:    9.7926    magn:    1.0371    constr:    0.0000
     atom:    4    charge:    2.2239    magn:    0.2582    constr:    0.0000
     atom:    5    charge:    9.8009    magn:    1.0376    constr:    0.0000
     atom:    6    charge:    9.8009    magn:    1.0377    constr:    0.0000
     atom:    7    charge:    9.8009    magn:    1.0377    constr:    0.0000
     atom:    8    charge:    2.2341    magn:    0.2587    constr:    0.0000
[...]
        k(    6) = (   0.0321141   0.0556233   0.0000000), wk =   0.0555556
        k(    7) = (   0.0321141   0.0927055   0.0000000), wk =   0.0555556
        k(    8) = (   0.0321141  -0.0927055   0.0000000), wk =   0.0555556
        k(    9) = (   0.0321141  -0.0556233   0.0000000), wk =   0.0555556
        k(   10) = (   0.0321141  -0.0185411   0.0000000), wk =   0.0555556
        k(   11) = (   0.0642283   0.0370822   0.0000000), wk =   0.0555556
        k(   12) = (   0.0642283   0.0741644   0.0000000), wk =   0.0555556
        k(   13) = (   0.0642283   0.1112466   0.0000000), wk =   0.0555556
        k(   14) = (   0.0642283  -0.0741644   0.0000000), wk =   0.0555556
        k(   15) = (   0.0642283  -0.0370822   0.0000000), wk =   0.0555556
        k(   16) = (   0.0642283   0.0000000   0.0000000), wk =   0.0555556
        k(   17) = (  -0.0963424  -0.0556233   0.0000000), wk =   0.0277778
        k(   18) = (  -0.0963424  -0.0185411   0.0000000), wk =   0.0555556
        k(   19) = (  -0.0963424   0.0185411   0.0000000), wk =   0.0555556
        k(   20) = (  -0.0963424  -0.1668699   0.0000000), wk =   0.0277778
        k(   21) = (   0.0000000   0.0000000   0.0000000), wk =   0.0277778
        k(   22) = (   0.0000000   0.0370822   0.0000000), wk =   0.0555556
        k(   23) = (   0.0000000   0.0741644   0.0000000), wk =   0.0555556
        k(   24) = (   0.0000000  -0.1112466   0.0000000), wk =   0.0277778
        k(   25) = (   0.0321141   0.0185411   0.0000000), wk =   0.0555556
        k(   26) = (   0.0321141   0.0556233   0.0000000), wk =   0.0555556
        k(   27) = (   0.0321141   0.0927055   0.0000000), wk =   0.0555556
        k(   28) = (   0.0321141  -0.0927055   0.0000000), wk =   0.0555556
        k(   29) = (   0.0321141  -0.0556233   0.0000000), wk =   0.0555556
        k(   30) = (   0.0321141  -0.0185411   0.0000000), wk =   0.0555556
        k(   31) = (   0.0642283   0.0370822   0.0000000), wk =   0.0555556
        k(   32) = (   0.0642283   0.0741644   0.0000000), wk =   0.0555556
        k(   33) = (   0.0642283   0.1112466   0.0000000), wk =   0.0555556
        k(   34) = (   0.0642283  -0.0741644   0.0000000), wk =   0.0555556
        k(   35) = (   0.0642283  -0.0370822   0.0000000), wk =   0.0555556
        k(   36) = (   0.0642283   0.0000000   0.0000000), wk =   0.0555556
        k(   37) = (  -0.0963424  -0.0556233   0.0000000), wk =   0.0277778
        k(   38) = (  -0.0963424  -0.0185411   0.0000000), wk =   0.0555556
        k(   39) = (  -0.0963424   0.0185411   0.0000000), wk =   0.0555556
        k(   40) = (  -0.0963424  -0.1668699   0.0000000), wk =   0.0277778

     Largest allocated arrays     est. size (Mb)     dimensions
     Largest temporary arrays     est. size (Mb)     dimensions

     Check: negative/imaginary core charge=   -0.000002    0.000000

     Initial potential from superposition of free atoms
     Check: negative starting charge=(component1):   -0.311926
     Check: negative starting charge=(component2):   -0.242617

     starting charge  190.49997, renormalised to  210.00000

[...]

     *
     * You are using vdW-DF for exchange-correlation in this calculation.
     * Please cite the following three references that made this development
     * possible:
     *
     *   M. Dion, H. Rydberg, E. Schroder, D. C. Langreth, and
     *   B. I. Lundqvist, Phys. Rev. Lett. 92, 246401 (2004).
     *
     *   T. Thonhauser, V. R. Cooper, S. Li, A. Puzder, P. Hyldgaard, and
     *   D. C. Langreth, Phys. Rev. B 76, 125112 (2007).
     *
     *   G. Roman-Perez and J. M. Soler, Phys. Rev. Lett. 103, 096102 (2009).
     *
     *
     * If you are using vdW-DF2, please also cite:
     *
     *   K. Lee, E. D. Murray, L. Kong, B. I. Lundqvist, and
     *   D. C. Langreth, Phys. Rev. B 82, 081101(R) (2010).
     *
     *
     * If you are calculating the stress with vdW-DF, please also cite:
     *
     *   R. Sabatini, E. Kucukbenli, B. Kolb, T. Thonhauser, and
     *   S. de Gironcoli, J. Phys.: Condens. Matter 24, 424209 (2012).
     *

     Carrying out vdW-DF run using the following parameters:

     Nqs =      20    Nr_points =    1024   r_max =   100.000
     q_mesh =
               0.00001000     0.04494208     0.09755937     0.15916263
               0.23128650     0.31572767     0.41458969     0.53033537
               0.66584808     0.82450364     1.01025438     1.22772762
               1.48234092     1.78043706     2.12944203     2.53805004
               3.01644009     3.57652955     4.23227104     5.00000000

     Gradients computed in reciprocal space

[...]

     Starting wfc are  153 randomized atomic wfcs

     Self-consistent Calculation

[...]

     total energy              =   -3736.85709971 Ry
     Harris-Foulkes estimate   =   -3736.85709888 Ry
     estimated scf accuracy    <       0.00000107 Ry

[...]

     iteration # 40     ecut=    36.75 Ry     beta=0.10
     Davidson diagonalization with overlap
     ethr =  5.11E-10,  avg # of iterations =  1.1

[...]

     negative rho (up, down):  2.701E-01 2.613E-01

[...]

     Adding external electric field

     Computed dipole along edir(3) :
        Dipole               -0.0036 Ry au,         -0.0093 Debye
        Dipole field         -0.0000 Ry au

        Potential amp.        0.0011 Ry
        Total length         44.6571 bohr

     Magnetic moment per site:
     atom:    1    charge:    9.3584    magn:    0.4541    constr:    0.0000
     atom:    2    charge:    9.3584    magn:    0.4541    constr:    0.0000
     atom:    3    charge:    9.3586    magn:    0.4540    constr:    0.0000
     atom:    4    charge:    2.1047    magn:    0.0301    constr:    0.0000
     atom:    5    charge:    9.3649    magn:    0.4938    constr:    0.0000
     atom:    6    charge:    9.3649    magn:    0.4938    constr:    0.0000
     atom:    7    charge:    9.3649    magn:    0.4938    constr:    0.0000
     atom:    8    charge:    2.1153    magn:    0.0389    constr:    0.0000
     atom:    9    charge:    9.3514    magn:    0.4559    constr:    0.0000
     atom:   10    charge:    9.3519    magn:    0.4557    constr:    0.0000
     atom:   11    charge:    9.3518    magn:    0.4558    constr:    0.0000
     atom:   12    charge:    2.0989    magn:    0.0299    constr:    0.0000

     End of self-consistent calculation

 ------ SPIN UP ------------

[...]

 ------ SPIN DOWN ----------

[...]

          k = 0.0642 0.0000 0.0000 ( 14347 PWs)   bands (ev):

[...]

          k =-0.0963-0.1669 0.0000 ( 14302 PWs)   bands (ev):

  -101.8964-101.8932-101.8899-101.7113-101.7070-101.7040-101.6901-101.6868
  -101.6837 -62.3297 -62.3087 -62.3067 -62.3032 -62.3006 -62.2983 -62.2970
   -62.2787 -62.2465 -62.1856 -62.1680 -62.1665 -62.1597 -62.1549 -62.1477
   -62.1396 -62.1344 -62.1306 -62.1148 -62.1032 -62.0840 -62.0233 -62.0199
   -62.0157 -62.0009 -61.9972 -61.9938 -51.9097 -51.8978 -51.8964 -51.5511
   -51.5497 -51.5325 -51.5311 -51.3999 -51.3764  -5.7374  -5.3600  -4.3180
    -3.8620  -3.6721  -3.6402  -3.2425  -3.1404  -3.0935  -2.9308  -2.7469
    -2.6037  -2.5007  -2.4599  -2.3704  -2.1365  -2.1239  -1.9742  -1.9286
    -1.5579  -1.4906  -1.4801  -1.4283  -1.2311  -1.2133  -1.0043  -0.9156
    -0.7915  -0.7699  -0.7556  -0.6338  -0.6119  -0.6085  -0.5538  -0.5226
    -0.4829  -0.4416  -0.3857  -0.3503  -0.3127  -0.1164  -0.0016   0.0007
     0.0336   0.1478   0.1611   0.2424   0.2665   0.2675   0.3402   0.3700
     0.4244   0.5626   0.5842   0.6205   0.6232   0.6796   0.7182   0.9089
     0.9921   1.0147   1.0944   1.1037   1.3743   2.4039   2.4122   2.5497
     3.2383   3.5036   3.8763   4.9260   4.9676   5.8518   5.8969   6.9974
     7.0140   7.5464   7.5648   7.7421   7.7525   8.4385   8.7735   8.8026
     8.9687   9.2076   9.3235   9.4216   9.4219   9.5090   9.9480

     the Fermi energy is     0.8804 ev

!    total energy              =   -3736.85710216 Ry
     Harris-Foulkes estimate   =   -3736.85709977 Ry
     estimated scf accuracy    <       0.00000085 Ry

     The total energy is the sum of the following terms:

     one-electron contribution =  -30466.22655984 Ry
     hartree contribution      =   15250.34064865 Ry
     xc contribution           =    -506.82164108 Ry
     ewald contribution        =   11985.96147055 Ry
     electric field correction =       0.00000004 Ry
     smearing contrib. (-TS)   =      -0.11102049 Ry

     total magnetization       =     7.81 Bohr mag/cell
     absolute magnetization    =     8.83 Bohr mag/cell

     convergence has been achieved in  40 iterations

 BEEF-vdW xc energy contributions
           1 :   -448.215919106033
           2 :    410.040692891041
           3 :   -344.695977033631
           4 :    269.268988383829
           5 :   -199.977716706446
           6 :    146.627898083371
           7 :   -110.819551480147
           8 :    88.0281662639298
           9 :   -71.7854637722251
          10 :    57.4186882427069
          11 :   -43.5904524115786
          12 :    31.4443278701240
          13 :   -22.5747042117179
          14 :    17.3970034686722
          15 :   -14.8617920904172
          16 :    13.3314087066268
          17 :   -11.7209493271187
          18 :    10.0064927145492
          19 :   -8.84441194800411
          20 :    8.71990505566430
          21 :   -9.35390666582299
          22 :    9.80930472880129
          23 :   -9.18081191850899
          24 :    7.29781604274774
          25 :   -4.89853433988503
          26 :    3.13665203193091
          27 :   -2.79131634502784
          28 :    3.74142175960151
          29 :   -5.07030062555725
          30 :    5.70142591612586
          31 :   -36.9609913121317
          32 :   -26.3415405494757

     Forces acting on atoms (Ry/au):

     negative rho (up, down):  2.701E-01 2.613E-01
     atom    1 type  1   force =    -0.00000573   -0.00792477    0.00547376
     atom    2 type  1   force =    -0.00685062    0.00397674    0.00547437
     atom    3 type  1   force =     0.00684326    0.00397862    0.00546082
     atom    4 type  2   force =    -0.00000519    0.00000586   -0.00395606
     atom    5 type  1   force =     0.00004869    0.00216092   -0.00239102
     atom    6 type  1   force =     0.00179996   -0.00105964   -0.00232122
     atom    7 type  1   force =    -0.00181045   -0.00112105   -0.00237086
     atom    8 type  2   force =    -0.00000734    0.00001851   -0.00226701
     atom    9 type  1   force =    -0.00004306   -0.00099104   -0.00070585
     atom   10 type  1   force =    -0.00086453    0.00049082   -0.00070142
     atom   11 type  1   force =     0.00085486    0.00053617   -0.00066283
     atom   12 type  2   force =     0.00004014   -0.00007115   -0.00103266

     Total force =     0.018290     Total SCF correction =     0.002435
     SCF correction compared to forces is large: reduce conv_thr to get better values

     entering subroutine stress ...

     negative rho (up, down):  2.701E-01 2.613E-01
          total   stress  (Ry/bohr**3)                   (kbar)     P=  -57.64
  -0.00042091   0.00000001  -0.00000000        -61.92      0.00     -0.00
   0.00000001  -0.00042101   0.00000001          0.00    -61.93      0.00
  -0.00000000   0.00000001  -0.00033358         -0.00      0.00    -49.07

 !ASE

     Writing output data file calc.save

     General routines

     Parallel routines

   This run was terminated on:  11:14:25  27Dec2018

   JOB DONE.
Job  /afs/slac/g/suncat/bin/suncat-tsmpirun -x LD_LIBRARY_PATH -wdir /scratch/qe110274_eUe2Q pw.x -in pw.inp

TID   HOST_NAME   COMMAND_LINE            STATUS            TERMINATION_TIME
00000 suncat0083 pw.x -in pw.inp   Done                     12/27/2018 11:14:25
00001 suncat0083 pw.x -in pw.inp   Done                     12/27/2018 11:14:25
00002 suncat0083 pw.x -in pw.inp   Done                     12/27/2018 11:14:25
00003 suncat0083 pw.x -in pw.inp   Done                     12/27/2018 11:14:25
00004 suncat0083 pw.x -in pw.inp   Done                     12/27/2018 11:14:25
00005 suncat0083 pw.x -in pw.inp   Done                     12/27/2018 11:14:25
00006 suncat0083 pw.x -in pw.inp   Done                     12/27/2018 11:14:25
00007 suncat0083 pw.x -in pw.inp   Done                     12/27/2018 11:14:25
00008 suncat0081 pw.x -in pw.inp   Done                     12/27/2018 11:14:25
00009 suncat0081 pw.x -in pw.inp   Done                     12/27/2018 11:14:25
00010 suncat0081 pw.x -in pw.inp   Done                     12/27/2018 11:14:25
00011 suncat0081 pw.x -in pw.inp   Done                     12/27/2018 11:14:25
00012 suncat0081 pw.x -in pw.inp   Done                     12/27/2018 11:14:25
00013 suncat0081 pw.x -in pw.inp   Done                     12/27/2018 11:14:25
00014 suncat0081 pw.x -in pw.inp   Done                     12/27/2018 11:14:25
00015 suncat0081 pw.x -in pw.inp   Done                     12/27/2018 11:14:25
00016 suncat0076 pw.x -in pw.inp   Done                     12/27/2018 11:14:25
00017 suncat0076 pw.x -in pw.inp   Done                     12/27/2018 11:14:25
00018 suncat0076 pw.x -in pw.inp   Done                     12/27/2018 11:14:25
00019 suncat0076 pw.x -in pw.inp   Done                     12/27/2018 11:14:25
00020 suncat0076 pw.x -in pw.inp   Done                     12/27/2018 11:14:25
00021 suncat0076 pw.x -in pw.inp   Done                     12/27/2018 11:14:25
00022 suncat0076 pw.x -in pw.inp   Done                     12/27/2018 11:14:25
00023 suncat0076 pw.x -in pw.inp   Done                     12/27/2018 11:14:25
00024 suncat0041 pw.x -in pw.inp   Done                     12/27/2018 11:14:25
00025 suncat0041 pw.x -in pw.inp   Done                     12/27/2018 11:14:25
00026 suncat0041 pw.x -in pw.inp   Done                     12/27/2018 11:14:25
00027 suncat0041 pw.x -in pw.inp   Done                     12/27/2018 11:14:25
00028 suncat0041 pw.x -in pw.inp   Done                     12/27/2018 11:14:25
00029 suncat0041 pw.x -in pw.inp   Done                     12/27/2018 11:14:25
00030 suncat0041 pw.x -in pw.inp   Done                     12/27/2018 11:14:25
00031 suncat0041 pw.x -in pw.inp   Done                     12/27/2018 11:14:25
00032 suncat0039 pw.x -in pw.inp   Done                     12/27/2018 11:14:25
00033 suncat0039 pw.x -in pw.inp   Done                     12/27/2018 11:14:25
00034 suncat0039 pw.x -in pw.inp   Done                     12/27/2018 11:14:25
00035 suncat0039 pw.x -in pw.inp   Done                     12/27/2018 11:14:25
00036 suncat0039 pw.x -in pw.inp   Done                     12/27/2018 11:14:25
00037 suncat0039 pw.x -in pw.inp   Done                     12/27/2018 11:14:25
00038 suncat0039 pw.x -in pw.inp   Done                     12/27/2018 11:14:25
00039 suncat0039 pw.x -in pw.inp   Done                     12/27/2018 11:14:25
00040 suncat0034 pw.x -in pw.inp   Done                     12/27/2018 11:14:25
00041 suncat0034 pw.x -in pw.inp   Done                     12/27/2018 11:14:25
00042 suncat0034 pw.x -in pw.inp   Done                     12/27/2018 11:14:25
00043 suncat0034 pw.x -in pw.inp   Done                     12/27/2018 11:14:25
00044 suncat0034 pw.x -in pw.inp   Done                     12/27/2018 11:14:25
00045 suncat0034 pw.x -in pw.inp   Done                     12/27/2018 11:14:25
00046 suncat0034 pw.x -in pw.inp   Done                     12/27/2018 11:14:25
00047 suncat0034 pw.x -in pw.inp   Done                     12/27/2018 11:14:25
00048 suncat0029 pw.x -in pw.inp   Done                     12/27/2018 11:14:25
00049 suncat0029 pw.x -in pw.inp   Done                     12/27/2018 11:14:25
00050 suncat0029 pw.x -in pw.inp   Done                     12/27/2018 11:14:25
00051 suncat0029 pw.x -in pw.inp   Done                     12/27/2018 11:14:25
00052 suncat0029 pw.x -in pw.inp   Done                     12/27/2018 11:14:25
00053 suncat0029 pw.x -in pw.inp   Done                     12/27/2018 11:14:25
00054 suncat0029 pw.x -in pw.inp   Done                     12/27/2018 11:14:25
00055 suncat0029 pw.x -in pw.inp   Done                     12/27/2018 11:14:25
00056 suncat0199 pw.x -in pw.inp   Done                     12/27/2018 11:14:25
00057 suncat0199 pw.x -in pw.inp   Done                     12/27/2018 11:14:25
00058 suncat0199 pw.x -in pw.inp   Done                     12/27/2018 11:14:25
00059 suncat0199 pw.x -in pw.inp   Done                     12/27/2018 11:14:25
00060 suncat0199 pw.x -in pw.inp   Done                     12/27/2018 11:14:25
00061 suncat0199 pw.x -in pw.inp   Done                     12/27/2018 11:14:25
00062 suncat0199 pw.x -in pw.inp   Done                     12/27/2018 11:14:25
00063 suncat0199 pw.x -in pw.inp   Done                     12/27/2018 11:14:25