     Program PWSCF v.5.1rc2 (svn rev. 11289) starts on 27Dec2018 at 15:36: 9

     Current dimensions of program PWSCF are:
     Max number of different atomic species (ntypx) = 10
     Max number of k-points (npk) =  40000
     Max angular momentum in pseudopotentials (lmaxx) =  3
     Presently stress not available with electric field

     IMPORTANT: XC functional enforced from input :
     Exchange-correlation      = BEEF-VDW ( 1  4 27 13 2)
     Any further DFT definition will be discarded
     Please, verify this is what you really want

     Subspace diagonalization in iterative solution of the eigenvalue problem:
     a serial algorithm will be used

     bravais-lattice index     =            0
     lattice parameter (alat)  =       1.8897  a.u.
     unit-cell volume          =    7085.6962 (a.u.)^3
     number of atoms/cell      =           12
     number of atomic types    =            2
     number of electrons       =       159.00
     number of Kohn-Sham states=          109
     kinetic-energy cutoff     =      36.7493  Ry
     charge density cutoff     =     367.4932  Ry
     convergence threshold     =      1.0E-06
     mixing beta               =       0.1000
     number of iterations used =           10  plain     mixing
     Exchange-correlation      = BEEF-VDW ( 1  4 27 13 2)
     nstep                     =           50

     celldm(1)=   1.889726  celldm(2)=   0.000000  celldm(3)=   0.000000
     celldm(4)=   0.000000  celldm(5)=   0.000000  celldm(6)=   0.000000

     crystal axes: (cart. coord. in units of alat)
               a(1) = (   6.879584   0.000000   0.000000 )
               a(2) = (  -3.439792   5.957895   0.000000 )
               a(3) = (   0.000000   0.000000  25.617157 )

     reciprocal axes: (cart. coord. in units 2 pi/alat)
               b(1) = (  0.145358  0.083922  0.000000 )
               b(2) = (  0.000000  0.167845  0.000000 )
               b(3) = (  0.000000  0.000000  0.039036 )

     PseudoPot. # 1 for Pb read from file:
     /afs/slac.stanford.edu/u/if/mamunm/psp/gbrv1.5pbe/Pb.UPF
     MD5 check sum: 3d1c1779aa92214d1e8f3a7db79003e2
     Pseudo is Ultrasoft + core correction, Zval = 14.0
     Generated by new atomic code, or converted to UPF format
     Using radial grid of  899 points,  6 beta functions with:
                l(1) =   0
                l(2) =   0
                l(3) =   1
                l(4) =   1
                l(5) =   2
                l(6) =   2
     Q(r) pseudized with  6 coefficients,  rinner =    1.000   1.000   1.000
                                                       1.000   1.000

     PseudoPot. # 2 for Sc read from file:
     /afs/slac.stanford.edu/u/if/mamunm/psp/gbrv1.5pbe/Sc.UPF
     MD5 check sum: db30a2753ba66ef00f23801d899b7e7f
     Pseudo is Ultrasoft + core correction, Zval = 11.0
     Generated by new atomic code, or converted to UPF format
     Using radial grid of  849 points,  6 beta functions with:
                l(1) =   0
                l(2) =   0
                l(3) =   1
                l(4) =   1
                l(5) =   2
                l(6) =   2
     Q(r) pseudized with  6 coefficients,  rinner =    1.200   1.200   1.200
                                                       1.200   1.200

     vdW kernel table read from file vdW_kernel_table
     MD5 check sum: 095c7af220d748ca6e76c0b4c6cfb241

     atomic species   valence    mass     pseudopotential
        Pb1           14.00   207.20000     Pb( 1.00)
        Sc1           11.00    44.95591     Sc( 1.00)

     No symmetry found

   Cartesian axes

     site n.     atom                  positions (alat units)
         1           Pb1 tau(   1) = (   0.0000000   0.0000000  10.0000000  )
         2           Pb1 tau(   2) = (  -1.7198960   2.9789473  10.0000000  )
         3           Pb1 tau(   3) = (   1.7198960   2.9789473  10.0000000  )
         4           Sc1 tau(   4) = (   3.4397920   0.0000000  10.0000000  )
         5           Pb1 tau(   5) = (   3.4397920   1.9859649  12.8085784  )
         6           Pb1 tau(   6) = (   1.7198960   4.9649121  12.8085784  )
         7           Pb1 tau(   7) = (  -1.7198960   4.9649121  12.8085784  )
         8           Sc1 tau(   8) = (   0.0000000   1.9859649  12.8085784  )
         9           Pb1 tau(   9) = (  -0.0000000   3.9719297  15.6171569  )
        10           Pb1 tau(  10) = (   1.7198960   0.9929824  15.6171569  )
        11           Pb1 tau(  11) = (   5.1596881   0.9929824  15.6171569  )
        12           Sc1 tau(  12) = (   3.4397920   3.9719297  15.6171569  )

     number of k points=    20  Fermi-Dirac smearing, width (Ry)=  0.0110
                       cart. coord. in units 2pi/alat
        k(    1) = (   0.0000000   0.0000000   0.0000000), wk =   0.0555556
        k(    2) = (   0.0000000   0.0279741   0.0000000), wk =   0.1111111
        k(    3) = (   0.0000000   0.0559482   0.0000000), wk =   0.1111111
        k(    4) = (   0.0000000  -0.0839223   0.0000000), wk =   0.0555556
        k(    5) = (   0.0242263   0.0139870   0.0000000), wk =   0.1111111
        k(    6) = (   0.0242263   0.0419611   0.0000000), wk =   0.1111111
        k(    7) = (   0.0242263   0.0699352   0.0000000), wk =   0.1111111
        k(    8) = (   0.0242263  -0.0699352   0.0000000), wk =   0.1111111
        k(    9) = (   0.0242263  -0.0419611   0.0000000), wk =   0.1111111
        k(   10) = (   0.0242263  -0.0139870   0.0000000), wk =   0.1111111
        k(   11) = (   0.0484525   0.0279741   0.0000000), wk =   0.1111111
        k(   12) = (   0.0484525   0.0559482   0.0000000), wk =   0.1111111
        k(   13) = (   0.0484525   0.0839223   0.0000000), wk =   0.1111111
        k(   14) = (   0.0484525  -0.0559482   0.0000000), wk =   0.1111111
        k(   15) = (   0.0484525  -0.0279741   0.0000000), wk =   0.1111111
        k(   16) = (   0.0484525  -0.0000000   0.0000000), wk =   0.1111111
        k(   17) = (  -0.0726788  -0.0419611   0.0000000), wk =   0.0555556
        k(   18) = (  -0.0726788  -0.0139870   0.0000000), wk =   0.1111111
        k(   19) = (  -0.0726788   0.0139870   0.0000000), wk =   0.1111111
        k(   20) = (  -0.0726788  -0.1258834   0.0000000), wk =   0.0555556

     Largest allocated arrays     est. size (Mb)     dimensions
     Largest temporary arrays     est. size (Mb)     dimensions

     Check: negative/imaginary core charge=   -0.000001    0.000000

     Initial potential from superposition of free atoms
     Check: negative starting charge=   -0.150059

     starting charge  158.97163, renormalised to  159.00000

     negative rho (up, down):  1.501E-01 0.000E+00

     *
     * You are using vdW-DF for exchange-correlation in this calculation.
     * Please cite the following three references that made this development
     * possible:
     *
     *   M. Dion, H. Rydberg, E. Schroder, D. C. Langreth, and
     *   B. I. Lundqvist, Phys. Rev. Lett. 92, 246401 (2004).
     *
     *   T. Thonhauser, V. R. Cooper, S. Li, A. Puzder, P. Hyldgaard, and
     *   D. C. Langreth, Phys. Rev. B 76, 125112 (2007).
     *
     *   G. Roman-Perez and J. M. Soler, Phys. Rev. Lett. 103, 096102 (2009).
     *
     *
     * If you are using vdW-DF2, please also cite:
     *
     *   K. Lee, E. D. Murray, L. Kong, B. I. Lundqvist, and
     *   D. C. Langreth, Phys. Rev. B 82, 081101(R) (2010).
     *
     *
     * If you are calculating the stress with vdW-DF, please also cite:
     *
     *   R. Sabatini, E. Kucukbenli, B. Kolb, T. Thonhauser, and
     *   S. de Gironcoli, J. Phys.: Condens. Matter 24, 424209 (2012).
     *

     Carrying out vdW-DF run using the following parameters:

     Nqs =      20    Nr_points =    1024   r_max =   100.000
     q_mesh =
               0.00001000     0.04494208     0.09755937     0.15916263
               0.23128650     0.31572767     0.41458969     0.53033537
               0.66584808     0.82450364     1.01025438     1.22772762
               1.48234092     1.78043706     2.12944203     2.53805004
               3.01644009     3.57652955     4.23227104     5.00000000

     Gradients computed in reciprocal space

     Adding external electric field

     Computed dipole along edir(3) :
        Dipole               -0.0000 Ry au,         -0.0000 Debye
        Dipole field         -0.0000 Ry au

        Potential amp.        0.0000 Ry
        Total length         47.1992 bohr

     Starting wfc are  120 randomized atomic wfcs

     Self-consistent Calculation

     iteration #  1     ecut=    36.75 Ry     beta=0.10
     Davidson diagonalization with overlap
     ethr =  1.00E-02,  avg # of iterations =  3.0

     Threshold (ethr) on eigenvalues was too large:
     Diagonalizing with lowered threshold

     Davidson diagonalization with overlap
     ethr =  3.48E-04,  avg # of iterations =  4.2

[...]

     total energy              =   -1778.62833250 Ry
     Harris-Foulkes estimate   =   -1778.72605818 Ry
     estimated scf accuracy    <       0.59555492 Ry

[...]

     End of self-consistent calculation

          k = 0.0000 0.0000 0.0000 ( 26709 PWs)   bands (ev):

   -49.9739 -49.9739 -49.6051 -28.6422 -28.6419 -28.4863 -28.4863 -28.4862
   -28.4862 -28.2005 -28.2005 -28.1188 -16.3883 -16.3563 -16.3563 -16.3472
   -16.3257 -16.3110 -16.2652 -16.2652 -16.2650 -16.2650 -16.2423 -16.2423
   -16.2370 -16.2277 -16.1961 -16.1920 -16.1920 -16.1523 -16.1495 -16.1495
   -16.1469 -16.1219 -16.1204 -16.1204 -16.1165 -16.1165 -16.0869 -16.0869
   -16.0844 -16.0844 -16.0698 -16.0688 -16.0688 -16.0634 -16.0634 -16.0281
   -16.0281 -15.9973 -15.9973 -15.9781 -15.9760 -15.9760 -15.9728 -15.9236
   -15.9224  -9.8108  -8.7941  -7.6210  -6.9190  -6.9190  -6.3668  -6.3668
    -5.7743  -5.7743  -2.7662  -2.1128  -1.9312  -1.7740  -1.7740  -1.4443
    -0.8276  -0.8276  -0.6029  -0.6029  -0.1202   1.1450   1.1450   1.2295
     1.2295   1.5802   1.8461   1.9387   1.9387   1.9666   2.0257   2.0257
     2.0443   2.0443   2.0625   2.2942   2.3210   2.3210   3.0735   3.2670
     3.2670   3.5435   3.5435   3.8578   3.9495   4.1843   4.2042   4.6822
     4.9475   4.9475   5.0679   5.2301   5.4765

[...]

          k =-0.0727-0.0420 0.0000 ( 26606 PWs)   bands (ev):

[...]

     the Fermi energy is     1.0450 ev

!    total energy              =   -1778.67784195 Ry
     Harris-Foulkes estimate   =   -1778.67775976 Ry
     estimated scf accuracy    <       0.00000059 Ry

     The total energy is the sum of the following terms:

     one-electron contribution =   -8601.62358496 Ry
     hartree contribution      =    4348.02274929 Ry
     xc contribution           =    -629.30708903 Ry
     ewald contribution        =    3104.28100959 Ry
     electric field correction =       0.00000000 Ry
     smearing contrib. (-TS)   =      -0.05092684 Ry

     convergence has been achieved in  15 iterations

 BEEF-vdW xc energy contributions
           1 :   -559.260713083009
           2 :    517.836361070944
           3 :   -445.790700248300
           4 :    359.995503668016
           5 :   -276.872010356435
           6 :    207.364462581522
           7 :   -155.168416217177
           8 :    118.017628515567
           9 :   -90.6293697972923
[...]
     Generated by new atomic code, or converted to UPF format
     Using radial grid of  899 points,  6 beta functions with:
                l(1) =   0
                l(2) =   0
                l(3) =   1
                l(4) =   1
                l(5) =   2
                l(6) =   2
     Q(r) pseudized with  6 coefficients,  rinner =    1.000   1.000   1.000
                                                       1.000   1.000

     PseudoPot. # 2 for Sc read from file:
     /afs/slac.stanford.edu/u/if/mamunm/psp/gbrv1.5pbe/Sc.UPF
     MD5 check sum: db30a2753ba66ef00f23801d899b7e7f
     Pseudo is Ultrasoft + core correction, Zval = 11.0
     Generated by new atomic code, or converted to UPF format
     Using radial grid of  849 points,  6 beta functions with:
                l(1) =   0
                l(2) =   0
                l(3) =   1
                l(4) =   1
                l(5) =   2
                l(6) =   2
     Q(r) pseudized with  6 coefficients,  rinner =    1.200   1.200   1.200
                                                       1.200   1.200

     vdW kernel table read from file vdW_kernel_table
     MD5 check sum: 095c7af220d748ca6e76c0b4c6cfb241

     atomic species   valence    mass     pseudopotential
        Pb1           14.00   207.20000     Pb( 1.00)
        Sc1           11.00    44.95591     Sc( 1.00)

     No symmetry found

   Cartesian axes

     site n.     atom                  positions (alat units)
         1           Pb1 tau(   1) = (   0.0000000   0.0000000  10.0000000  )
         2           Pb1 tau(   2) = (  -1.7198960   2.9789473  10.0000000  )
         3           Pb1 tau(   3) = (   1.7198960   2.9789473  10.0000000  )
         4           Sc1 tau(   4) = (   3.4397920   0.0000000  10.0000000  )
         5           Pb1 tau(   5) = (   3.4397920   1.9859649  12.8085784  )
         6           Pb1 tau(   6) = (   1.7198960   4.9649121  12.8085784  )
         7           Pb1 tau(   7) = (  -1.7198960   4.9649121  12.8085784  )
         8           Sc1 tau(   8) = (   0.0000000   1.9859649  12.8085784  )
         9           Pb1 tau(   9) = (  -0.0000315   3.9050859  15.7087929  )
        10           Pb1 tau(  10) = (   1.6620434   1.0263922  15.7087696  )
        11           Pb1 tau(  11) = (   5.2175333   1.0263876  15.7088243  )
        12           Sc1 tau(  12) = (   3.4397671   3.9719335  15.2292879  )

     number of k points=    20  Fermi-Dirac smearing, width (Ry)=  0.0110
                       cart. coord. in units 2pi/alat
        k(    1) = (   0.0000000   0.0000000   0.0000000), wk =   0.0555556
        k(    2) = (   0.0000000   0.0279741   0.0000000), wk =   0.1111111
        k(    3) = (   0.0000000   0.0559482   0.0000000), wk =   0.1111111
        k(    4) = (   0.0000000  -0.0839223   0.0000000), wk =   0.0555556
        k(    5) = (   0.0242263   0.0139870   0.0000000), wk =   0.1111111
        k(    6) = (   0.0242263   0.0419611   0.0000000), wk =   0.1111111
        k(    7) = (   0.0242263   0.0699352   0.0000000), wk =   0.1111111
        k(    8) = (   0.0242263  -0.0699352   0.0000000), wk =   0.1111111
        k(    9) = (   0.0242263  -0.0419611   0.0000000), wk =   0.1111111
        k(   10) = (   0.0242263  -0.0139870   0.0000000), wk =   0.1111111
        k(   11) = (   0.0484525   0.0279741   0.0000000), wk =   0.1111111
        k(   12) = (   0.0484525   0.0559482   0.0000000), wk =   0.1111111
        k(   13) = (   0.0484525   0.0839223   0.0000000), wk =   0.1111111
        k(   14) = (   0.0484525  -0.0559482   0.0000000), wk =   0.1111111
        k(   15) = (   0.0484525  -0.0279741   0.0000000), wk =   0.1111111
        k(   16) = (   0.0484525  -0.0000000   0.0000000), wk =   0.1111111
        k(   17) = (  -0.0726788  -0.0419611   0.0000000), wk =   0.0555556
        k(   18) = (  -0.0726788  -0.0139870   0.0000000), wk =   0.1111111
        k(   19) = (  -0.0726788   0.0139870   0.0000000), wk =   0.1111111
        k(   20) = (  -0.0726788  -0.1258834   0.0000000), wk =   0.0555556

     Largest allocated arrays     est. size (Mb)     dimensions
     Largest temporary arrays     est. size (Mb)     dimensions

     Check: negative/imaginary core charge=   -0.000001    0.000000

     Initial potential from superposition of free atoms
     Check: negative starting charge=   -0.150308

     starting charge  158.97163, renormalised to  159.00000

[...]

     *
     * You are using vdW-DF for exchange-correlation in this calculation.
     * Please cite the following three references that made this development
     * possible:
     *
     *   M. Dion, H. Rydberg, E. Schroder, D. C. Langreth, and
     *   B. I. Lundqvist, Phys. Rev. Lett. 92, 246401 (2004).
     *
     *   T. Thonhauser, V. R. Cooper, S. Li, A. Puzder, P. Hyldgaard, and
     *   D. C. Langreth, Phys. Rev. B 76, 125112 (2007).
     *
     *   G. Roman-Perez and J. M. Soler, Phys. Rev. Lett. 103, 096102 (2009).
     *
     *
     * If you are using vdW-DF2, please also cite:
     *
     *   K. Lee, E. D. Murray, L. Kong, B. I. Lundqvist, and
     *   D. C. Langreth, Phys. Rev. B 82, 081101(R) (2010).
     *
     *
     * If you are calculating the stress with vdW-DF, please also cite:
     *
     *   R. Sabatini, E. Kucukbenli, B. Kolb, T. Thonhauser, and
     *   S. de Gironcoli, J. Phys.: Condens. Matter 24, 424209 (2012).
     *

     Carrying out vdW-DF run using the following parameters:

     Nqs =      20    Nr_points =    1024   r_max =   100.000
     q_mesh =
               0.00001000     0.04494208     0.09755937     0.15916263
               0.23128650     0.31572767     0.41458969     0.53033537
               0.66584808     0.82450364     1.01025438     1.22772762
               1.48234092     1.78043706     2.12944203     2.53805004
               3.01644009     3.57652955     4.23227104     5.00000000

     Gradients computed in reciprocal space

[...]

     Starting wfc are  120 randomized atomic wfcs

     Self-consistent Calculation

[...]

     Threshold (ethr) on eigenvalues was too large:
     Diagonalizing with lowered threshold

     Davidson diagonalization with overlap
     ethr =  3.60E-04,  avg # of iterations =  4.3

[...]

     total energy              =   -1778.69709570 Ry
     Harris-Foulkes estimate   =   -1778.69704488 Ry
     estimated scf accuracy    <       0.00000103 Ry

     iteration # 16     ecut=    36.75 Ry     beta=0.10
     Davidson diagonalization with overlap
     ethr =  6.46E-10,  avg # of iterations =  3.2

[...]

     negative rho (up, down):  1.636E-01 0.000E+00

     Adding external electric field

     Computed dipole along edir(3) :
        Dipole               -0.0497 Ry au,         -0.1263 Debye
        Dipole field         -0.0001 Ry au

        Potential amp.        0.0083 Ry
        Total length         47.1992 bohr

     End of self-consistent calculation

[...]

          k = 0.0485-0.0000 0.0000 ( 26669 PWs)   bands (ev):

[...]

          k =-0.0727-0.1259 0.0000 ( 26606 PWs)   bands (ev):

   -50.0409 -49.7799 -49.6668 -28.7053 -28.5532 -28.5530 -28.4006 -28.3360
   -28.3358 -28.2630 -28.2628 -28.1760 -16.3891 -16.3445 -16.3343 -16.3257
   -16.3101 -16.3020 -16.2836 -16.2716 -16.2701 -16.2647 -16.2497 -16.2396
   -16.2299 -16.2231 -16.2169 -16.2112 -16.2107 -16.2026 -16.1993 -16.1950
   -16.1865 -16.1798 -16.1725 -16.1702 -16.1651 -16.1616 -16.1607 -16.1521
   -16.1479 -16.1478 -16.1423 -16.1394 -16.1343 -16.1275 -16.1266 -16.1213
   -16.1164 -16.1080 -16.1037 -16.0942 -16.0816 -16.0631 -16.0382 -16.0201
   -16.0076  -9.0027  -8.7155  -8.0652  -7.5958  -7.1947  -7.1506  -6.7803
    -6.4158  -5.7103  -2.5844  -2.1105  -1.4413  -0.7246  -0.5609  -0.4515
    -0.2430  -0.2417  -0.0467   0.3984   0.4919   0.4984   0.7787   1.0624
     1.1701   1.2622   1.3960   1.5087   1.6562   1.8258   1.9389   1.9636
     1.9930   2.0727   2.1725   2.2458   2.3312   2.4683   2.8700   2.9594
     2.9807   3.1848   3.5656   3.7267   3.9202   4.1163   4.3410   4.5091
     4.6350   4.9275   5.0695   5.1850   5.4407

     the Fermi energy is     0.9774 ev

!    total energy              =   -1778.69713004 Ry
     Harris-Foulkes estimate   =   -1778.69709483 Ry
     estimated scf accuracy    <       0.00000087 Ry

     The total energy is the sum of the following terms:

     one-electron contribution =   -8606.89566364 Ry
     hartree contribution      =    4350.47275523 Ry
     xc contribution           =    -629.33023406 Ry
     ewald contribution        =    3107.10401800 Ry
     electric field correction =       0.00000438 Ry
     smearing contrib. (-TS)   =      -0.04800995 Ry

     convergence has been achieved in  16 iterations

 BEEF-vdW xc energy contributions
           1 :   -559.282855236291
           2 :    517.858892102291
           3 :   -445.812530151522
           4 :    360.012717759331
           5 :   -276.882463539332
           6 :    207.372004271955
           7 :   -155.176789989600
           8 :    118.021150020172
           9 :   -90.6155976150303
          10 :    67.7053430240294
          11 :   -46.1307117634956
          12 :    25.4711640267747
          13 :   -7.39362499170829
          14 :   -5.80368175495983
          15 :    12.7459316962289
          16 :   -13.9266313814628
          17 :    11.5962634106218
          18 :   -8.67538415737681
          19 :    7.32242091216312
          20 :   -8.00533638763943
          21 :    9.60310588619825
          22 :   -10.3977805397217
          23 :    9.26991343687757
          24 :   -6.36233794897055
          25 :    2.89851318354272
          26 :  -0.391368729887745
          27 :  -0.216853975716617
          28 :  -0.996636648467188
          29 :    3.07122426275089
          30 :   -4.73372123376225
          31 :   -45.9847324456478
          32 :   -33.6490299467847

     Forces acting on atoms (Ry/au):

     negative rho (up, down):  1.636E-01 0.000E+00
     atom    1 type  1   force =     0.00000051    0.00705134   -0.00883373
     atom    2 type  1   force =     0.00611134   -0.00352329   -0.00884855
     atom    3 type  1   force =    -0.00610931   -0.00352759   -0.00884691
     atom    4 type  2   force =    -0.00000105    0.00000123    0.04307524
     atom    5 type  1   force =     0.00000347   -0.00797422   -0.00458175
     atom    6 type  1   force =    -0.00690442    0.00399244   -0.00459530
     atom    7 type  1   force =     0.00690456    0.00398099   -0.00459428
     atom    8 type  2   force =    -0.00000149    0.00000090    0.00042901
     atom    9 type  1   force =    -0.00000077    0.00127167   -0.00044914
     atom   10 type  1   force =     0.00110015   -0.00063853   -0.00044512
     atom   11 type  1   force =    -0.00110253   -0.00063594   -0.00044923
     atom   12 type  2   force =    -0.00000045    0.00000098   -0.00186025

     Total force =     0.050024     Total SCF correction =     0.004082

     entering subroutine stress ...

     negative rho (up, down):  1.636E-01 0.000E+00
          total   stress  (Ry/bohr**3)                   (kbar)     P=   -7.12
  -0.00006627   0.00000000   0.00000000         -9.75      0.00      0.00
   0.00000000  -0.00006627   0.00000000          0.00     -9.75      0.00
   0.00000000   0.00000000  -0.00001273          0.00      0.00     -1.87

 !ASE

     Writing output data file calc.save

     General routines

     Parallel routines

   This run was terminated on:  16:38: 5  27Dec2018

   JOB DONE.
Job  /afs/slac/g/suncat/bin/suncat-tsmpirun -x LD_LIBRARY_PATH -wdir /scratch/qe110412_TpoZT pw.x -in pw.inp

TID   HOST_NAME   COMMAND_LINE            STATUS            TERMINATION_TIME
00000 suncat0277 pw.x -in pw.inp   Done                     12/27/2018 16:38:05
00001 suncat0277 pw.x -in pw.inp   Done                     12/27/2018 16:38:05
00002 suncat0277 pw.x -in pw.inp   Done                     12/27/2018 16:38:05
00003 suncat0277 pw.x -in pw.inp   Done                     12/27/2018 16:38:05
00004 suncat0277 pw.x -in pw.inp   Done                     12/27/2018 16:38:05
00005 suncat0277 pw.x -in pw.inp   Done                     12/27/2018 16:38:05
00006 suncat0277 pw.x -in pw.inp   Done                     12/27/2018 16:38:05
00007 suncat0277 pw.x -in pw.inp   Done                     12/27/2018 16:38:05
00008 suncat0276 pw.x -in pw.inp   Done                     12/27/2018 16:38:05
00009 suncat0276 pw.x -in pw.inp   Done                     12/27/2018 16:38:05
00010 suncat0276 pw.x -in pw.inp   Done                     12/27/2018 16:38:05
00011 suncat0276 pw.x -in pw.inp   Done                     12/27/2018 16:38:05
00012 suncat0276 pw.x -in pw.inp   Done                     12/27/2018 16:38:05
00013 suncat0276 pw.x -in pw.inp   Done                     12/27/2018 16:38:05
00014 suncat0276 pw.x -in pw.inp   Done                     12/27/2018 16:38:05
00015 suncat0276 pw.x -in pw.inp   Done                     12/27/2018 16:38:05
00016 suncat0274 pw.x -in pw.inp   Done                     12/27/2018 16:38:05
00017 suncat0274 pw.x -in pw.inp   Done                     12/27/2018 16:38:05
00018 suncat0274 pw.x -in pw.inp   Done                     12/27/2018 16:38:05
00019 suncat0274 pw.x -in pw.inp   Done                     12/27/2018 16:38:05
00020 suncat0274 pw.x -in pw.inp   Done                     12/27/2018 16:38:05
00021 suncat0274 pw.x -in pw.inp   Done                     12/27/2018 16:38:05
00022 suncat0274 pw.x -in pw.inp   Done                     12/27/2018 16:38:05
00023 suncat0274 pw.x -in pw.inp   Done                     12/27/2018 16:38:05
00024 suncat0273 pw.x -in pw.inp   Done                     12/27/2018 16:38:05
00025 suncat0273 pw.x -in pw.inp   Done                     12/27/2018 16:38:05
00026 suncat0273 pw.x -in pw.inp   Done                     12/27/2018 16:38:05
00027 suncat0273 pw.x -in pw.inp   Done                     12/27/2018 16:38:05
00028 suncat0273 pw.x -in pw.inp   Done                     12/27/2018 16:38:05
00029 suncat0273 pw.x -in pw.inp   Done                     12/27/2018 16:38:05
00030 suncat0273 pw.x -in pw.inp   Done                     12/27/2018 16:38:05
00031 suncat0273 pw.x -in pw.inp   Done                     12/27/2018 16:38:05
00032 suncat0230 pw.x -in pw.inp   Done                     12/27/2018 16:38:05
00033 suncat0230 pw.x -in pw.inp   Done                     12/27/2018 16:38:05
00034 suncat0230 pw.x -in pw.inp   Done                     12/27/2018 16:38:05
00035 suncat0230 pw.x -in pw.inp   Done                     12/27/2018 16:38:05
00036 suncat0230 pw.x -in pw.inp   Done                     12/27/2018 16:38:05
00037 suncat0230 pw.x -in pw.inp   Done                     12/27/2018 16:38:05
00038 suncat0230 pw.x -in pw.inp   Done                     12/27/2018 16:38:05
00039 suncat0230 pw.x -in pw.inp   Done                     12/27/2018 16:38:05
00040 suncat0229 pw.x -in pw.inp   Done                     12/27/2018 16:38:05
00041 suncat0229 pw.x -in pw.inp   Done                     12/27/2018 16:38:05
00042 suncat0229 pw.x -in pw.inp   Done                     12/27/2018 16:38:05
00043 suncat0229 pw.x -in pw.inp   Done                     12/27/2018 16:38:05
00044 suncat0229 pw.x -in pw.inp   Done                     12/27/2018 16:38:05
00045 suncat0229 pw.x -in pw.inp   Done                     12/27/2018 16:38:05
00046 suncat0229 pw.x -in pw.inp   Done                     12/27/2018 16:38:05
00047 suncat0229 pw.x -in pw.inp   Done                     12/27/2018 16:38:05
00048 suncat0205 pw.x -in pw.inp   Done                     12/27/2018 16:38:05
00049 suncat0205 pw.x -in pw.inp   Done                     12/27/2018 16:38:05
00050 suncat0205 pw.x -in pw.inp   Done                     12/27/2018 16:38:05
00051 suncat0205 pw.x -in pw.inp   Done                     12/27/2018 16:38:05
00052 suncat0205 pw.x -in pw.inp   Done                     12/27/2018 16:38:05
00053 suncat0205 pw.x -in pw.inp   Done                     12/27/2018 16:38:05
00054 suncat0205 pw.x -in pw.inp   Done                     12/27/2018 16:38:05
00055 suncat0205 pw.x -in pw.inp   Done                     12/27/2018 16:38:05
00056 suncat0204 pw.x -in pw.inp   Done                     12/27/2018 16:38:05
00057 suncat0204 pw.x -in pw.inp   Done                     12/27/2018 16:38:05
00058 suncat0204 pw.x -in pw.inp   Done                     12/27/2018 16:38:05
00059 suncat0204 pw.x -in pw.inp   Done                     12/27/2018 16:38:05
00060 suncat0204 pw.x -in pw.inp   Done                     12/27/2018 16:38:05
00061 suncat0204 pw.x -in pw.inp   Done                     12/27/2018 16:38:05
00062 suncat0204 pw.x -in pw.inp   Done                     12/27/2018 16:38:05
00063 suncat0204 pw.x -in pw.inp   Done                     12/27/2018 16:38:05