     Program PWSCF v.5.1rc2 (svn rev. 11289) starts on 25Dec2018 at  4: 4:36

     Current dimensions of program PWSCF are:
     Max number of different atomic species (ntypx) = 10
     Max number of k-points (npk) =  40000
     Max angular momentum in pseudopotentials (lmaxx) =  3
     Presently stress not available with electric field

     IMPORTANT: XC functional enforced from input :
     Exchange-correlation      = BEEF-VDW ( 1  4 27 13 2)
     Any further DFT definition will be discarded
     Please, verify this is what you really want

     Subspace diagonalization in iterative solution of the eigenvalue problem:
     a serial algorithm will be used

     Found symmetry operation: I + ( -0.5000 -0.5000  0.0000)
     This is a supercell, fractional translations are disabled

     bravais-lattice index     =            0
     lattice parameter (alat)  =       1.8897  a.u.
     unit-cell volume          =    5873.9067 (a.u.)^3
     number of atoms/cell      =           12
     number of atomic types    =            2
     number of electrons       =       162.00
     number of Kohn-Sham states=          111
     kinetic-energy cutoff     =      36.7493  Ry
     charge density cutoff     =     367.4932  Ry
     convergence threshold     =      1.0E-06
     mixing beta               =       0.1000
     number of iterations used =           10  plain     mixing
     Exchange-correlation      = BEEF-VDW ( 1  4 27 13 2)
     nstep                     =           50

     celldm(1)=   1.889726  celldm(2)=   0.000000  celldm(3)=   0.000000
     celldm(4)=   0.000000  celldm(5)=   0.000000  celldm(6)=   0.000000

     crystal axes: (cart. coord. in units of alat)
               a(1) = (   6.081118   0.000000   0.000000 )
               a(2) = (   2.026825   5.733409   0.000000 )
               a(3) = (   0.000000   0.000000  24.965146 )

     reciprocal axes: (cart. coord. in units 2 pi/alat)
               b(1) = (  0.164443 -0.058133  0.000000 )
               b(2) = (  0.000000  0.174416  0.000000 )
               b(3) = (  0.000000  0.000000  0.040056 )

     PseudoPot. # 1 for Y  read from file:
     /afs/slac.stanford.edu/u/if/mamunm/psp/gbrv1.5pbe/Y.UPF
     MD5 check sum: d034151ed7554c50b6e82763ed42c788
     Pseudo is Ultrasoft + core correction, Zval = 11.0
     Generated by new atomic code, or converted to UPF format
     Using radial grid of  885 points,  6 beta functions with:
                l(1) =   0
                l(2) =   0
                l(3) =   1
                l(4) =   1
                l(5) =   2
                l(6) =   2
     Q(r) pseudized with  8 coefficients,  rinner =    1.200   1.200   1.200
                                                       1.200   1.200

     PseudoPot. # 2 for Pt read from file:
     /afs/slac.stanford.edu/u/if/mamunm/psp/gbrv1.5pbe/Pt.UPF
     MD5 check sum: f09d6de1a584b5a045c4fc126da2d0c4
     Pseudo is Ultrasoft + core correction, Zval = 16.0
     Generated by new atomic code, or converted to UPF format
     Using radial grid of  985 points,  6 beta functions with:
                l(1) =   0
                l(2) =   0
                l(3) =   1
                l(4) =   1
                l(5) =   2
                l(6) =   2
     Q(r) pseudized with  8 coefficients,  rinner =    1.300   1.300   1.300
                                                       1.300   1.300

     vdW kernel table read from file vdW_kernel_table
     MD5 check sum: 095c7af220d748ca6e76c0b4c6cfb241

     atomic species   valence    mass     pseudopotential
        Y1            11.00    88.90584     Y ( 1.00)
        Pt1           16.00   195.08400     Pt( 1.00)

     No symmetry found

   Cartesian axes

     site n.     atom                  positions (alat units)
         1           Y1  tau(   1) = (   0.0000000   0.0000000  10.0000000  )
         2           Y1  tau(   2) = (   4.0539713   2.8667044  10.0000000  )
         3           Pt1 tau(   3) = (   3.0405589   0.0000000  10.0000000  )
         4           Pt1 tau(   4) = (   1.0134123   2.8667044  10.0000000  )
         5           Y1  tau(   5) = (   6.0811179   4.3001704  12.4825731  )
         6           Y1  tau(   6) = (   2.0271466   1.4334660  12.4825731  )
         7           Pt1 tau(   7) = (   3.0405589   4.3001704  12.4825731  )
         8           Pt1 tau(   8) = (   5.0677055   1.4334660  12.4825731  )
         9           Y1  tau(   9) = (   4.0542932   2.8669321  14.9651462  )
        10           Y1  tau(  10) = (   0.0003220   0.0002277  14.9651462  )
        11           Pt1 tau(  11) = (   1.0137343   2.8669321  14.9651462  )
        12           Pt1 tau(  12) = (   3.0408809   0.0002277  14.9651462  )

     number of k points=    20  Fermi-Dirac smearing, width (Ry)=  0.0110
                       cart. coord. in units 2pi/alat
        k(    1) = (   0.0000000   0.0000000   0.0000000), wk =   0.0555556
        k(    2) = (   0.0000000   0.0290694   0.0000000), wk =   0.1111111
        k(    3) = (   0.0000000   0.0581388   0.0000000), wk =   0.1111111
        k(    4) = (   0.0000000  -0.0872082   0.0000000), wk =   0.0555556
        k(    5) = (   0.0274072  -0.0096888   0.0000000), wk =   0.1111111
        k(    6) = (   0.0274072   0.0193806   0.0000000), wk =   0.1111111
        k(    7) = (   0.0274072   0.0484500   0.0000000), wk =   0.1111111
        k(    8) = (   0.0274072  -0.0968969   0.0000000), wk =   0.1111111
        k(    9) = (   0.0274072  -0.0678275   0.0000000), wk =   0.1111111
        k(   10) = (   0.0274072  -0.0387582   0.0000000), wk =   0.1111111
        k(   11) = (   0.0548145  -0.0193775   0.0000000), wk =   0.1111111
        k(   12) = (   0.0548145   0.0096918   0.0000000), wk =   0.1111111
        k(   13) = (   0.0548145   0.0387612   0.0000000), wk =   0.1111111
        k(   14) = (   0.0548145  -0.1065857   0.0000000), wk =   0.1111111
        k(   15) = (   0.0548145  -0.0775163   0.0000000), wk =   0.1111111
        k(   16) = (   0.0548145  -0.0484469   0.0000000), wk =   0.1111111
        k(   17) = (  -0.0822217   0.0290663   0.0000000), wk =   0.0555556
        k(   18) = (  -0.0822217   0.0581357   0.0000000), wk =   0.1111111
        k(   19) = (  -0.0822217   0.0872051   0.0000000), wk =   0.1111111
        k(   20) = (  -0.0822217  -0.0581418   0.0000000), wk =   0.0555556

     Largest allocated arrays     est. size (Mb)     dimensions
     Largest temporary arrays     est. size (Mb)     dimensions

     Check: negative/imaginary core charge=   -0.000001    0.000000

     Initial potential from superposition of free atoms
     Check: negative starting charge=   -1.105532

     starting charge  158.97312, renormalised to  162.00000

     negative rho (up, down):  1.127E+00 0.000E+00

     *
     * You are using vdW-DF for exchange-correlation in this calculation.
     * Please cite the following three references that made this development
     * possible:
     *
     *   M. Dion, H. Rydberg, E. Schroder, D. C. Langreth, and
     *   B. I. Lundqvist, Phys. Rev. Lett. 92, 246401 (2004).
     *
     *   T. Thonhauser, V. R. Cooper, S. Li, A. Puzder, P. Hyldgaard, and
     *   D. C. Langreth, Phys. Rev. B 76, 125112 (2007).
     *
     *   G. Roman-Perez and J. M. Soler, Phys. Rev. Lett. 103, 096102 (2009).
     *
     *
     * If you are using vdW-DF2, please also cite:
     *
     *   K. Lee, E. D. Murray, L. Kong, B. I. Lundqvist, and
     *   D. C. Langreth, Phys. Rev. B 82, 081101(R) (2010).
     *
     *
     * If you are calculating the stress with vdW-DF, please also cite:
     *
     *   R. Sabatini, E. Kucukbenli, B. Kolb, T. Thonhauser, and
     *   S. de Gironcoli, J. Phys.: Condens. Matter 24, 424209 (2012).
     *

     Carrying out vdW-DF run using the following parameters:

     Nqs =      20    Nr_points =    1024   r_max =   100.000
     q_mesh =
               0.00001000     0.04494208     0.09755937     0.15916263
               0.23128650     0.31572767     0.41458969     0.53033537
               0.66584808     0.82450364     1.01025438     1.22772762
               1.48234092     1.78043706     2.12944203     2.53805004
               3.01644009     3.57652955     4.23227104     5.00000000

     Gradients computed in reciprocal space

     Adding external electric field

     Computed dipole along edir(3) :
        Dipole                0.0000 Ry au,          0.0000 Debye
        Dipole field          0.0000 Ry au

        Potential amp.       -0.0000 Ry
        Total length         45.9979 bohr

     Starting wfc are  150 randomized atomic wfcs

     Self-consistent Calculation

     iteration #  1     ecut=    36.75 Ry     beta=0.10
     Davidson diagonalization with overlap
     ethr =  1.00E-02,  avg # of iterations =  2.0

[...]

     total energy              =   -1837.31552801 Ry
     Harris-Foulkes estimate   =   -1838.61822221 Ry
     estimated scf accuracy    <       7.95855470 Ry

[...]

     End of self-consistent calculation

          k = 0.0000 0.0000 0.0000 ( 22061 PWs)   bands (ev):

   -50.9107 -50.9094 -50.9012 -50.8873 -50.8751 -50.8741 -50.5541 -50.5540
   -50.5532 -50.5530 -50.4696 -50.4694 -50.4559 -50.4558 -50.3864 -50.3861
   -50.3851 -50.3850 -41.6559 -41.6544 -41.6282 -41.6278 -41.0847 -41.0579
   -21.7174 -21.7110 -21.6888 -21.6841 -21.6637 -21.6408 -21.5416 -21.5204
   -21.5179 -21.4876 -21.3731 -21.3720 -21.2169 -21.0383 -21.0300 -20.9957
   -20.9805 -20.8612  -4.4339  -3.1138  -2.7992  -2.5954  -2.5251  -2.2446
    -2.2336  -2.1735  -2.1637  -2.1446  -1.8179  -1.7538  -1.7036  -1.5140
    -1.4258  -1.3856  -1.2032  -1.1862  -1.1726  -1.0321  -0.9740  -0.9608
    -0.9399  -0.7414  -0.6878  -0.5154  -0.5004  -0.3039  -0.1997  -0.0698
    -0.0288   0.1572   0.2059   0.6485   0.9616   0.9643   1.5351   2.2623
     2.2809   2.4762   2.7634   2.8336   3.2196   3.2471   3.2999   3.3239
     3.3320   3.3503   3.5436   3.8250   4.1522   4.2523   4.3129   4.3367
     4.3551   4.5577   4.6421   4.7793   4.9154   5.0063   5.1592   5.2203
     5.6781   5.7431   5.7837   5.7869   6.1110   6.3784   6.3934

[...]

          k =-0.0822 0.0291 0.0000 ( 22118 PWs)   bands (ev):

[...]

     the Fermi energy is     1.9281 ev

!    total energy              =   -1837.26894190 Ry
     Harris-Foulkes estimate   =   -1837.26892849 Ry
     estimated scf accuracy    <       0.00000010 Ry

     The total energy is the sum of the following terms:

     one-electron contribution =  -10965.62426983 Ry
     hartree contribution      =    5498.89677322 Ry
     xc contribution           =    -521.60218694 Ry
     ewald contribution        =    4151.10405100 Ry
     electric field correction =       0.00000000 Ry
     smearing contrib. (-TS)   =      -0.04330936 Ry

     convergence has been achieved in  16 iterations

 BEEF-vdW xc energy contributions
           1 :   -461.443966036037
           2 :    424.395471146998
           3 :   -358.914616006549
           4 :    278.768257927827
           5 :   -198.125929689493
           6 :    127.740356848894
           7 :   -73.2744536523127
           8 :    35.6345840438550
           9 :   -12.5035171085274
          10 :   0.146120520443674
[...]
     /afs/slac.stanford.edu/u/if/mamunm/psp/gbrv1.5pbe/Y.UPF
     MD5 check sum: d034151ed7554c50b6e82763ed42c788
     Pseudo is Ultrasoft + core correction, Zval = 11.0
     Generated by new atomic code, or converted to UPF format
     Using radial grid of  885 points,  6 beta functions with:
                l(1) =   0
                l(2) =   0
                l(3) =   1
                l(4) =   1
                l(5) =   2
                l(6) =   2
     Q(r) pseudized with  8 coefficients,  rinner =    1.200   1.200   1.200
                                                       1.200   1.200

     PseudoPot. # 2 for Pt read from file:
     /afs/slac.stanford.edu/u/if/mamunm/psp/gbrv1.5pbe/Pt.UPF
     MD5 check sum: f09d6de1a584b5a045c4fc126da2d0c4
     Pseudo is Ultrasoft + core correction, Zval = 16.0
     Generated by new atomic code, or converted to UPF format
     Using radial grid of  985 points,  6 beta functions with:
                l(1) =   0
                l(2) =   0
                l(3) =   1
                l(4) =   1
                l(5) =   2
                l(6) =   2
     Q(r) pseudized with  8 coefficients,  rinner =    1.300   1.300   1.300
                                                       1.300   1.300

     vdW kernel table read from file vdW_kernel_table
     MD5 check sum: 095c7af220d748ca6e76c0b4c6cfb241

     atomic species   valence    mass     pseudopotential
        Y1            11.00    88.90584     Y ( 1.00)
        Pt1           16.00   195.08400     Pt( 1.00)

     No symmetry found

   Cartesian axes

     site n.     atom                  positions (alat units)
         1           Y1  tau(   1) = (   0.0000000   0.0000000  10.0000000  )
         2           Y1  tau(   2) = (   4.0539713   2.8667044  10.0000000  )
         3           Pt1 tau(   3) = (   3.0405589   0.0000000  10.0000000  )
         4           Pt1 tau(   4) = (   1.0134123   2.8667044  10.0000000  )
         5           Y1  tau(   5) = (   6.0811179   4.3001704  12.4825731  )
         6           Y1  tau(   6) = (   2.0271466   1.4334660  12.4825731  )
         7           Pt1 tau(   7) = (   3.0405589   4.3001704  12.4825731  )
         8           Pt1 tau(   8) = (   5.0677055   1.4334660  12.4825731  )
         9           Y1  tau(   9) = (   4.0542000   2.8668872  14.9633652  )
        10           Y1  tau(  10) = (   0.0002322   0.0001388  14.9633724  )
        11           Pt1 tau(  11) = (   1.0136783   2.8668747  14.7519795  )
        12           Pt1 tau(  12) = (   3.0407932   0.0001770  14.7519711  )

     number of k points=    20  Fermi-Dirac smearing, width (Ry)=  0.0110
                       cart. coord. in units 2pi/alat
        k(    1) = (   0.0000000   0.0000000   0.0000000), wk =   0.0555556
        k(    2) = (   0.0000000   0.0290694   0.0000000), wk =   0.1111111
        k(    3) = (   0.0000000   0.0581388   0.0000000), wk =   0.1111111
        k(    4) = (   0.0000000  -0.0872082   0.0000000), wk =   0.0555556
        k(    5) = (   0.0274072  -0.0096888   0.0000000), wk =   0.1111111
        k(    6) = (   0.0274072   0.0193806   0.0000000), wk =   0.1111111
        k(    7) = (   0.0274072   0.0484500   0.0000000), wk =   0.1111111
        k(    8) = (   0.0274072  -0.0968969   0.0000000), wk =   0.1111111
        k(    9) = (   0.0274072  -0.0678275   0.0000000), wk =   0.1111111
        k(   10) = (   0.0274072  -0.0387582   0.0000000), wk =   0.1111111
        k(   11) = (   0.0548145  -0.0193775   0.0000000), wk =   0.1111111
        k(   12) = (   0.0548145   0.0096918   0.0000000), wk =   0.1111111
        k(   13) = (   0.0548145   0.0387612   0.0000000), wk =   0.1111111
        k(   14) = (   0.0548145  -0.1065857   0.0000000), wk =   0.1111111
        k(   15) = (   0.0548145  -0.0775163   0.0000000), wk =   0.1111111
        k(   16) = (   0.0548145  -0.0484469   0.0000000), wk =   0.1111111
        k(   17) = (  -0.0822217   0.0290663   0.0000000), wk =   0.0555556
        k(   18) = (  -0.0822217   0.0581357   0.0000000), wk =   0.1111111
        k(   19) = (  -0.0822217   0.0872051   0.0000000), wk =   0.1111111
        k(   20) = (  -0.0822217  -0.0581418   0.0000000), wk =   0.0555556

     Largest allocated arrays     est. size (Mb)     dimensions
     Largest temporary arrays     est. size (Mb)     dimensions

     Check: negative/imaginary core charge=   -0.000001    0.000000

     Initial potential from superposition of free atoms
     Check: negative starting charge=   -1.107618

     starting charge  158.97312, renormalised to  162.00000

[...]

     *
     * You are using vdW-DF for exchange-correlation in this calculation.
     * Please cite the following three references that made this development
     * possible:
     *
     *   M. Dion, H. Rydberg, E. Schroder, D. C. Langreth, and
     *   B. I. Lundqvist, Phys. Rev. Lett. 92, 246401 (2004).
     *
     *   T. Thonhauser, V. R. Cooper, S. Li, A. Puzder, P. Hyldgaard, and
     *   D. C. Langreth, Phys. Rev. B 76, 125112 (2007).
     *
     *   G. Roman-Perez and J. M. Soler, Phys. Rev. Lett. 103, 096102 (2009).
     *
     *
     * If you are using vdW-DF2, please also cite:
     *
     *   K. Lee, E. D. Murray, L. Kong, B. I. Lundqvist, and
     *   D. C. Langreth, Phys. Rev. B 82, 081101(R) (2010).
     *
     *
     * If you are calculating the stress with vdW-DF, please also cite:
     *
     *   R. Sabatini, E. Kucukbenli, B. Kolb, T. Thonhauser, and
     *   S. de Gironcoli, J. Phys.: Condens. Matter 24, 424209 (2012).
     *

     Carrying out vdW-DF run using the following parameters:

     Nqs =      20    Nr_points =    1024   r_max =   100.000
     q_mesh =
               0.00001000     0.04494208     0.09755937     0.15916263
               0.23128650     0.31572767     0.41458969     0.53033537
               0.66584808     0.82450364     1.01025438     1.22772762
               1.48234092     1.78043706     2.12944203     2.53805004
               3.01644009     3.57652955     4.23227104     5.00000000

     Gradients computed in reciprocal space

[...]

     Starting wfc are  150 randomized atomic wfcs

     Self-consistent Calculation

[...]

     total energy              =   -1837.28269238 Ry
     Harris-Foulkes estimate   =   -1837.28268745 Ry
     estimated scf accuracy    <       0.00000105 Ry

     iteration # 16     ecut=    36.75 Ry     beta=0.10
     Davidson diagonalization with overlap
     ethr =  6.48E-10,  avg # of iterations =  3.5

[...]

     negative rho (up, down):  1.048E+00 0.000E+00

     Adding external electric field

     Computed dipole along edir(3) :
        Dipole                0.0989 Ry au,          0.2514 Debye
        Dipole field          0.0002 Ry au

        Potential amp.       -0.0195 Ry
        Total length         45.9979 bohr

     End of self-consistent calculation

[...]

          k = 0.0548-0.0484 0.0000 ( 22105 PWs)   bands (ev):

[...]

          k =-0.0822-0.0581 0.0000 ( 22134 PWs)   bands (ev):

   -50.8059 -50.8044 -50.7935 -50.7794 -50.7650 -50.7634 -50.5932 -50.5915
   -50.5526 -50.5384 -50.4917 -50.4903 -50.4348 -50.4331 -50.3439 -50.3301
   -50.2562 -50.2550 -41.5698 -41.5567 -41.5442 -41.5312 -40.7897 -40.7625
   -21.6392 -21.6282 -21.6280 -21.5824 -21.5771 -21.5467 -21.4855 -21.4527
   -21.4238 -21.4021 -21.2865 -21.2786 -20.9607 -20.7880 -20.7646 -20.7416
   -20.7395 -20.5901  -2.8868  -2.6270  -2.2837  -2.0974  -1.8136  -1.6733
    -1.6017  -1.5638  -1.4426  -1.3891  -1.3850  -1.3610  -1.2835  -1.2004
    -1.0675  -1.0314  -1.0161  -0.8791  -0.8268  -0.7545  -0.7525  -0.7466
    -0.6883  -0.5787  -0.5006  -0.4717  -0.4210  -0.3835  -0.2978  -0.2067
    -0.0460  -0.0084   0.1002   0.2634   0.2949   0.7130   0.8719   1.1650
     1.1910   1.2664   1.3940   1.6707   1.8730   2.2123   2.4778   2.5125
     2.9300   2.9323   3.2262   3.4056   3.5089   3.7228   3.7711   3.9709
     4.1390   4.2620   4.2914   4.5086   4.5831   4.6535   4.9190   5.1988
     5.4830   5.7560   5.9010   5.9906   6.2288   6.4324   6.6994

     the Fermi energy is     2.0181 ev

!    total energy              =   -1837.28270425 Ry
     Harris-Foulkes estimate   =   -1837.28269219 Ry
     estimated scf accuracy    <       0.00000035 Ry

     The total energy is the sum of the following terms:

     one-electron contribution =  -11160.11850549 Ry
     hartree contribution      =    5596.68304560 Ry
     xc contribution           =    -521.70949996 Ry
     ewald contribution        =    4247.90408867 Ry
     electric field correction =       0.00002094 Ry
     smearing contrib. (-TS)   =      -0.04185402 Ry

     convergence has been achieved in  16 iterations

 BEEF-vdW xc energy contributions
           1 :   -461.560740974167
           2 :    424.583424302055
           3 :   -359.184231728266
           4 :    279.054902839085
           5 :   -198.328147956365
           6 :    127.783807017786
           7 :   -73.1600245492471
           8 :    35.4379122368517
           9 :   -12.3273045101317
          10 :   6.094451886542629E-002
          11 :    5.15954427953494
          12 :   -6.39943058123163
          13 :    5.82470823735628
          14 :   -4.82817848457603
          15 :    4.17856957660763
          16 :   -4.15159733577667
          17 :    4.69708646637974
          18 :   -5.64645747521098
          19 :    6.86291766199986
          20 :   -8.26108573312229
          21 :    9.71124773142208
          22 :   -10.9377487061973
          23 :    11.5228229355835
          24 :   -11.0627736637138
          25 :    9.40094430543178
          26 :   -6.79236518377900
          27 :    3.87375901944392
          28 :   -1.43505521182328
          29 :   0.103023701324787
          30 :  -9.655926580626328E-002
          31 :   -39.7864296157584
          32 :   -28.5098950155299

     Forces acting on atoms (Ry/au):

     negative rho (up, down):  1.048E+00 0.000E+00
     atom    1 type  1   force =     0.00001174    0.00000652   -0.00667101
     atom    2 type  1   force =     0.00000964    0.00000958   -0.00667145
     atom    3 type  2   force =     0.00000351    0.00000277    0.02859063
     atom    4 type  2   force =     0.00000295    0.00000234    0.02858918
     atom    5 type  1   force =    -0.00000358   -0.00000594   -0.02202678
     atom    6 type  1   force =    -0.00000700   -0.00000216   -0.02202706
     atom    7 type  2   force =    -0.00000033   -0.00000044    0.00031808
     atom    8 type  2   force =    -0.00000106   -0.00000088    0.00031967
     atom    9 type  1   force =    -0.00000081   -0.00000781   -0.00103214
     atom   10 type  1   force =    -0.00000582    0.00000276   -0.00103302
     atom   11 type  2   force =    -0.00000621   -0.00000312    0.00082205
     atom   12 type  2   force =    -0.00000303   -0.00000363    0.00082186

     Total force =     0.051941     Total SCF correction =     0.001507

     entering subroutine stress ...

     negative rho (up, down):  1.048E+00 0.000E+00
          total   stress  (Ry/bohr**3)                   (kbar)     P=  -12.18
  -0.00011950  -0.00004970  -0.00000003        -17.58     -7.31     -0.00
  -0.00004970  -0.00008436  -0.00000002         -7.31    -12.41     -0.00
  -0.00000003  -0.00000002  -0.00004456         -0.00     -0.00     -6.56

 !ASE

     Writing output data file calc.save

     General routines

     Parallel routines

   This run was terminated on:   6:19: 2  25Dec2018

   JOB DONE.
Job  /afs/slac/g/suncat/bin/suncat-tsmpirun -x LD_LIBRARY_PATH -wdir /scratch/qe109190_lpUCz pw.x -in pw.inp

TID   HOST_NAME   COMMAND_LINE            STATUS            TERMINATION_TIME
00000 suncat0075 pw.x -in pw.inp   Done                     12/25/2018 06:19:02
00001 suncat0075 pw.x -in pw.inp   Done                     12/25/2018 06:19:02
00002 suncat0075 pw.x -in pw.inp   Done                     12/25/2018 06:19:02
00003 suncat0075 pw.x -in pw.inp   Done                     12/25/2018 06:19:02
00004 suncat0075 pw.x -in pw.inp   Done                     12/25/2018 06:19:02
00005 suncat0075 pw.x -in pw.inp   Done                     12/25/2018 06:19:02
00006 suncat0075 pw.x -in pw.inp   Done                     12/25/2018 06:19:02
00007 suncat0075 pw.x -in pw.inp   Done                     12/25/2018 06:19:02
00008 suncat0074 pw.x -in pw.inp   Done                     12/25/2018 06:19:02
00009 suncat0074 pw.x -in pw.inp   Done                     12/25/2018 06:19:02
00010 suncat0074 pw.x -in pw.inp   Done                     12/25/2018 06:19:02
00011 suncat0074 pw.x -in pw.inp   Done                     12/25/2018 06:19:02
00012 suncat0074 pw.x -in pw.inp   Done                     12/25/2018 06:19:02
00013 suncat0074 pw.x -in pw.inp   Done                     12/25/2018 06:19:02
00014 suncat0074 pw.x -in pw.inp   Done                     12/25/2018 06:19:02
00015 suncat0074 pw.x -in pw.inp   Done                     12/25/2018 06:19:02
00016 suncat0071 pw.x -in pw.inp   Done                     12/25/2018 06:19:02
00017 suncat0071 pw.x -in pw.inp   Done                     12/25/2018 06:19:02
00018 suncat0071 pw.x -in pw.inp   Done                     12/25/2018 06:19:02
00019 suncat0071 pw.x -in pw.inp   Done                     12/25/2018 06:19:02
00020 suncat0071 pw.x -in pw.inp   Done                     12/25/2018 06:19:02
00021 suncat0071 pw.x -in pw.inp   Done                     12/25/2018 06:19:02
00022 suncat0071 pw.x -in pw.inp   Done                     12/25/2018 06:19:02
00023 suncat0071 pw.x -in pw.inp   Done                     12/25/2018 06:19:02
00024 suncat0020 pw.x -in pw.inp   Done                     12/25/2018 06:19:02
00025 suncat0020 pw.x -in pw.inp   Done                     12/25/2018 06:19:02
00026 suncat0020 pw.x -in pw.inp   Done                     12/25/2018 06:19:02
00027 suncat0020 pw.x -in pw.inp   Done                     12/25/2018 06:19:02
00028 suncat0020 pw.x -in pw.inp   Done                     12/25/2018 06:19:02
00029 suncat0020 pw.x -in pw.inp   Done                     12/25/2018 06:19:02
00030 suncat0020 pw.x -in pw.inp   Done                     12/25/2018 06:19:02
00031 suncat0020 pw.x -in pw.inp   Done                     12/25/2018 06:19:02
00032 suncat0121 pw.x -in pw.inp   Done                     12/25/2018 06:19:02
00033 suncat0121 pw.x -in pw.inp   Done                     12/25/2018 06:19:02
00034 suncat0121 pw.x -in pw.inp   Done                     12/25/2018 06:19:02
00035 suncat0121 pw.x -in pw.inp   Done                     12/25/2018 06:19:02
00036 suncat0121 pw.x -in pw.inp   Done                     12/25/2018 06:19:02
00037 suncat0121 pw.x -in pw.inp   Done                     12/25/2018 06:19:02
00038 suncat0121 pw.x -in pw.inp   Done                     12/25/2018 06:19:02
00039 suncat0121 pw.x -in pw.inp   Done                     12/25/2018 06:19:02
00040 suncat0115 pw.x -in pw.inp   Done                     12/25/2018 06:19:02
00041 suncat0115 pw.x -in pw.inp   Done                     12/25/2018 06:19:02
00042 suncat0115 pw.x -in pw.inp   Done                     12/25/2018 06:19:02
00043 suncat0115 pw.x -in pw.inp   Done                     12/25/2018 06:19:02
00044 suncat0115 pw.x -in pw.inp   Done                     12/25/2018 06:19:02
00045 suncat0115 pw.x -in pw.inp   Done                     12/25/2018 06:19:02
00046 suncat0115 pw.x -in pw.inp   Done                     12/25/2018 06:19:02
00047 suncat0115 pw.x -in pw.inp   Done                     12/25/2018 06:19:02
00048 suncat0228 pw.x -in pw.inp   Done                     12/25/2018 06:19:02
00049 suncat0228 pw.x -in pw.inp   Done                     12/25/2018 06:19:02
00050 suncat0228 pw.x -in pw.inp   Done                     12/25/2018 06:19:02
00051 suncat0228 pw.x -in pw.inp   Done                     12/25/2018 06:19:02
00052 suncat0228 pw.x -in pw.inp   Done                     12/25/2018 06:19:02
00053 suncat0228 pw.x -in pw.inp   Done                     12/25/2018 06:19:02
00054 suncat0228 pw.x -in pw.inp   Done                     12/25/2018 06:19:02
00055 suncat0228 pw.x -in pw.inp   Done                     12/25/2018 06:19:02
00056 suncat0227 pw.x -in pw.inp   Done                     12/25/2018 06:19:02
00057 suncat0227 pw.x -in pw.inp   Done                     12/25/2018 06:19:02
00058 suncat0227 pw.x -in pw.inp   Done                     12/25/2018 06:19:02
00059 suncat0227 pw.x -in pw.inp   Done                     12/25/2018 06:19:02
00060 suncat0227 pw.x -in pw.inp   Done                     12/25/2018 06:19:02
00061 suncat0227 pw.x -in pw.inp   Done                     12/25/2018 06:19:02
00062 suncat0227 pw.x -in pw.inp   Done                     12/25/2018 06:19:02
00063 suncat0227 pw.x -in pw.inp   Done                     12/25/2018 06:19:02