     Program PWSCF v.5.1rc2 (svn rev. 11289) starts on 20Dec2018 at  8:35:16

     Current dimensions of program PWSCF are:
     Max number of different atomic species (ntypx) = 10
     Max number of k-points (npk) =  40000
     Max angular momentum in pseudopotentials (lmaxx) =  3
     Presently stress not available with electric field

     IMPORTANT: XC functional enforced from input :
     Exchange-correlation      = BEEF-VDW ( 1  4 27 13 2)
     Any further DFT definition will be discarded
     Please, verify this is what you really want

     Subspace diagonalization in iterative solution of the eigenvalue problem:
     a serial algorithm will be used

     Generating pointlists ...
     new r_m :   0.4125 (alat units)  0.7795 (a.u.) for type    1
     new r_m :   0.4125 (alat units)  0.7795 (a.u.) for type    2

     bravais-lattice index     =            0
     lattice parameter (alat)  =       1.8897  a.u.
     unit-cell volume          =    3652.0288 (a.u.)^3
     number of atoms/cell      =           12
     number of atomic types    =            2
     number of electrons       =       195.00
     number of Kohn-Sham states=          127
     kinetic-energy cutoff     =      36.7493  Ry
     charge density cutoff     =     367.4932  Ry
     convergence threshold     =      1.0E-06
     mixing beta               =       0.1000
     number of iterations used =           10  plain     mixing
     Exchange-correlation      = BEEF-VDW ( 1  4 27 13 2)
     nstep                     =           50

     celldm(1)=   1.889726  celldm(2)=   0.000000  celldm(3)=   0.000000
     celldm(4)=   0.000000  celldm(5)=   0.000000  celldm(6)=   0.000000

     crystal axes: (cart. coord. in units of alat)
               a(1) = (   5.086477   0.000000   0.000000 )
               a(2) = (  -2.543239   4.405019   0.000000 )
               a(3) = (   0.000000   0.000000  24.153091 )

     reciprocal axes: (cart. coord. in units 2 pi/alat)
               b(1) = (  0.196600  0.113507  0.000000 )
               b(2) = (  0.000000  0.227014  0.000000 )
               b(3) = (  0.000000  0.000000  0.041403 )

     PseudoPot. # 1 for Co read from file:
     /afs/slac.stanford.edu/u/if/mamunm/psp/gbrv1.5pbe/Co.UPF
     MD5 check sum: 5f91765df6ddd3222702df6e7b74a16d
     Pseudo is Ultrasoft + core correction, Zval = 17.0
     Generated by new atomic code, or converted to UPF format
     Using radial grid of  863 points,  6 beta functions with:
                l(1) =   0
                l(2) =   0
                l(3) =   1
                l(4) =   1
                l(5) =   2
                l(6) =   2
     Q(r) pseudized with  8 coefficients,  rinner =    1.200   1.200   1.200
                                                       1.200   1.200

     PseudoPot. # 2 for Mo read from file:
     /afs/slac.stanford.edu/u/if/mamunm/psp/gbrv1.5pbe/Mo.UPF
     MD5 check sum: 30c4dcd161f5d35cd49bb5239c51a633
     Pseudo is Ultrasoft + core correction, Zval = 14.0
     Generated by new atomic code, or converted to UPF format
     Using radial grid of  889 points,  6 beta functions with:
                l(1) =   0
                l(2) =   0
                l(3) =   1
                l(4) =   1
                l(5) =   2
                l(6) =   2
     Q(r) pseudized with  6 coefficients,  rinner =    1.000   1.000   1.000
                                                       1.000   1.000

     vdW kernel table read from file vdW_kernel_table
     MD5 check sum: 095c7af220d748ca6e76c0b4c6cfb241

     atomic species   valence    mass     pseudopotential
        Co1           17.00    58.93319     Co( 1.00)
        Mo1           14.00    95.95000     Mo( 1.00)

     Starting magnetic structure
     atomic species   magnetization
        Co1          0.118
        Mo1          0.143

     No symmetry found

   Cartesian axes

     site n.     atom                  positions (alat units)
         1           Co1 tau(   1) = (   0.0000000   0.0000000  10.0000000  )
         2           Co1 tau(   2) = (  -1.2716193   2.2025093  10.0000000  )
         3           Co1 tau(   3) = (   1.2716193   2.2025093  10.0000000  )
         4           Mo1 tau(   4) = (   2.5432387   0.0000000  10.0000000  )
         5           Co1 tau(   5) = (   2.5432387   1.4683395  12.0765457  )
         6           Co1 tau(   6) = (   1.2716193   3.6708489  12.0765457  )
         7           Co1 tau(   7) = (  -1.2716193   3.6708489  12.0765457  )
         8           Mo1 tau(   8) = (   0.0000000   1.4683395  12.0765457  )
         9           Co1 tau(   9) = (  -0.0000000   2.9366791  14.1530914  )
        10           Co1 tau(  10) = (   1.2716193   0.7341698  14.1530914  )
        11           Co1 tau(  11) = (   3.8148580   0.7341698  14.1530914  )
        12           Mo1 tau(  12) = (   2.5432387   2.9366791  14.1530914  )

     number of k points=    40  Fermi-Dirac smearing, width (Ry)=  0.0110
                       cart. coord. in units 2pi/alat
        k(    1) = (   0.0000000   0.0000000   0.0000000), wk =   0.0277778
        k(    2) = (   0.0000000   0.0378356   0.0000000), wk =   0.0555556
        k(    3) = (   0.0000000   0.0756713   0.0000000), wk =   0.0555556
        k(    4) = (   0.0000000  -0.1135069   0.0000000), wk =   0.0277778
        k(    5) = (   0.0327666   0.0189178   0.0000000), wk =   0.0555556
        k(    6) = (   0.0327666   0.0567534   0.0000000), wk =   0.0555556
        k(    7) = (   0.0327666   0.0945891   0.0000000), wk =   0.0555556
        k(    8) = (   0.0327666  -0.0945891   0.0000000), wk =   0.0555556
        k(    9) = (   0.0327666  -0.0567534   0.0000000), wk =   0.0555556
        k(   10) = (   0.0327666  -0.0189178   0.0000000), wk =   0.0555556
        k(   11) = (   0.0655332   0.0378356   0.0000000), wk =   0.0555556
        k(   12) = (   0.0655332   0.0756713   0.0000000), wk =   0.0555556
        k(   13) = (   0.0655332   0.1135069   0.0000000), wk =   0.0555556
        k(   14) = (   0.0655332  -0.0756713   0.0000000), wk =   0.0555556
        k(   15) = (   0.0655332  -0.0378356   0.0000000), wk =   0.0555556
        k(   16) = (   0.0655332  -0.0000000   0.0000000), wk =   0.0555556
        k(   17) = (  -0.0982999  -0.0567534   0.0000000), wk =   0.0277778
        k(   18) = (  -0.0982999  -0.0189178   0.0000000), wk =   0.0555556
        k(   19) = (  -0.0982999   0.0189178   0.0000000), wk =   0.0555556
        k(   20) = (  -0.0982999  -0.1702603   0.0000000), wk =   0.0277778
        k(   21) = (   0.0000000   0.0000000   0.0000000), wk =   0.0277778
        k(   22) = (   0.0000000   0.0378356   0.0000000), wk =   0.0555556
        k(   23) = (   0.0000000   0.0756713   0.0000000), wk =   0.0555556
        k(   24) = (   0.0000000  -0.1135069   0.0000000), wk =   0.0277778
        k(   25) = (   0.0327666   0.0189178   0.0000000), wk =   0.0555556
        k(   26) = (   0.0327666   0.0567534   0.0000000), wk =   0.0555556
        k(   27) = (   0.0327666   0.0945891   0.0000000), wk =   0.0555556
        k(   28) = (   0.0327666  -0.0945891   0.0000000), wk =   0.0555556
        k(   29) = (   0.0327666  -0.0567534   0.0000000), wk =   0.0555556
        k(   30) = (   0.0327666  -0.0189178   0.0000000), wk =   0.0555556
        k(   31) = (   0.0655332   0.0378356   0.0000000), wk =   0.0555556
        k(   32) = (   0.0655332   0.0756713   0.0000000), wk =   0.0555556
        k(   33) = (   0.0655332   0.1135069   0.0000000), wk =   0.0555556
        k(   34) = (   0.0655332  -0.0756713   0.0000000), wk =   0.0555556
        k(   35) = (   0.0655332  -0.0378356   0.0000000), wk =   0.0555556
        k(   36) = (   0.0655332  -0.0000000   0.0000000), wk =   0.0555556
        k(   37) = (  -0.0982999  -0.0567534   0.0000000), wk =   0.0277778
        k(   38) = (  -0.0982999  -0.0189178   0.0000000), wk =   0.0555556
        k(   39) = (  -0.0982999   0.0189178   0.0000000), wk =   0.0555556
        k(   40) = (  -0.0982999  -0.1702603   0.0000000), wk =   0.0277778

     Largest allocated arrays     est. size (Mb)     dimensions
     Largest temporary arrays     est. size (Mb)     dimensions

     Check: negative/imaginary core charge=   -0.000005    0.000000

     Initial potential from superposition of free atoms
     Check: negative starting charge=(component1):   -0.001388
     Check: negative starting charge=(component2):   -0.001042

     starting charge  185.99675, renormalised to  195.00000

     negative rho (up, down):  1.455E-03 1.092E-03

     *
     * You are using vdW-DF for exchange-correlation in this calculation.
     * Please cite the following three references that made this development
     * possible:
     *
     *   M. Dion, H. Rydberg, E. Schroder, D. C. Langreth, and
     *   B. I. Lundqvist, Phys. Rev. Lett. 92, 246401 (2004).
     *
     *   T. Thonhauser, V. R. Cooper, S. Li, A. Puzder, P. Hyldgaard, and
     *   D. C. Langreth, Phys. Rev. B 76, 125112 (2007).
     *
     *   G. Roman-Perez and J. M. Soler, Phys. Rev. Lett. 103, 096102 (2009).
     *
     *
     * If you are using vdW-DF2, please also cite:
     *
     *   K. Lee, E. D. Murray, L. Kong, B. I. Lundqvist, and
     *   D. C. Langreth, Phys. Rev. B 82, 081101(R) (2010).
     *
     *
     * If you are calculating the stress with vdW-DF, please also cite:
     *
     *   R. Sabatini, E. Kucukbenli, B. Kolb, T. Thonhauser, and
     *   S. de Gironcoli, J. Phys.: Condens. Matter 24, 424209 (2012).
     *

     Carrying out vdW-DF run using the following parameters:

     Nqs =      20    Nr_points =    1024   r_max =   100.000
     q_mesh =
               0.00001000     0.04494208     0.09755937     0.15916263
               0.23128650     0.31572767     0.41458969     0.53033537
               0.66584808     0.82450364     1.01025438     1.22772762
               1.48234092     1.78043706     2.12944203     2.53805004
               3.01644009     3.57652955     4.23227104     5.00000000

     Gradients computed in reciprocal space

     Adding external electric field

     Computed dipole along edir(3) :
        Dipole               -0.0000 Ry au,         -0.0000 Debye
        Dipole field         -0.0000 Ry au

        Potential amp.        0.0000 Ry
        Total length         44.5017 bohr

[...]

     Starting wfc are  156 randomized atomic wfcs

     Self-consistent Calculation

     iteration #  1     ecut=    36.75 Ry     beta=0.10
     Davidson diagonalization with overlap
     ethr =  1.00E-02,  avg # of iterations =  7.6

[...]

     Magnetic moment per site:
     atom:    1    charge:    8.4224    magn:    0.9644    constr:    0.0000
     atom:    2    charge:    8.4224    magn:    0.9644    constr:    0.0000
     atom:    3    charge:    8.4224    magn:    0.9644    constr:    0.0000
     atom:    4    charge:    1.9630    magn:    0.2554    constr:    0.0000
     atom:    5    charge:    8.4394    magn:    0.9582    constr:    0.0000
     atom:    6    charge:    8.4394    magn:    0.9583    constr:    0.0000
     atom:    7    charge:    8.4394    magn:    0.9583    constr:    0.0000
     atom:    8    charge:    1.9690    magn:    0.2550    constr:    0.0000
[...]
        k(    5) = (   0.0327666   0.0189178   0.0000000), wk =   0.0555556
        k(    6) = (   0.0327666   0.0567534   0.0000000), wk =   0.0555556
        k(    7) = (   0.0327666   0.0945891   0.0000000), wk =   0.0555556
        k(    8) = (   0.0327666  -0.0945891   0.0000000), wk =   0.0555556
        k(    9) = (   0.0327666  -0.0567534   0.0000000), wk =   0.0555556
        k(   10) = (   0.0327666  -0.0189178   0.0000000), wk =   0.0555556
        k(   11) = (   0.0655332   0.0378356   0.0000000), wk =   0.0555556
        k(   12) = (   0.0655332   0.0756713   0.0000000), wk =   0.0555556
        k(   13) = (   0.0655332   0.1135069   0.0000000), wk =   0.0555556
        k(   14) = (   0.0655332  -0.0756713   0.0000000), wk =   0.0555556
        k(   15) = (   0.0655332  -0.0378356   0.0000000), wk =   0.0555556
        k(   16) = (   0.0655332  -0.0000000   0.0000000), wk =   0.0555556
        k(   17) = (  -0.0982999  -0.0567534   0.0000000), wk =   0.0277778
        k(   18) = (  -0.0982999  -0.0189178   0.0000000), wk =   0.0555556
        k(   19) = (  -0.0982999   0.0189178   0.0000000), wk =   0.0555556
        k(   20) = (  -0.0982999  -0.1702603   0.0000000), wk =   0.0277778
        k(   21) = (   0.0000000   0.0000000   0.0000000), wk =   0.0277778
        k(   22) = (   0.0000000   0.0378356   0.0000000), wk =   0.0555556
        k(   23) = (   0.0000000   0.0756713   0.0000000), wk =   0.0555556
        k(   24) = (   0.0000000  -0.1135069   0.0000000), wk =   0.0277778
        k(   25) = (   0.0327666   0.0189178   0.0000000), wk =   0.0555556
        k(   26) = (   0.0327666   0.0567534   0.0000000), wk =   0.0555556
        k(   27) = (   0.0327666   0.0945891   0.0000000), wk =   0.0555556
        k(   28) = (   0.0327666  -0.0945891   0.0000000), wk =   0.0555556
        k(   29) = (   0.0327666  -0.0567534   0.0000000), wk =   0.0555556
        k(   30) = (   0.0327666  -0.0189178   0.0000000), wk =   0.0555556
        k(   31) = (   0.0655332   0.0378356   0.0000000), wk =   0.0555556
        k(   32) = (   0.0655332   0.0756713   0.0000000), wk =   0.0555556
        k(   33) = (   0.0655332   0.1135069   0.0000000), wk =   0.0555556
        k(   34) = (   0.0655332  -0.0756713   0.0000000), wk =   0.0555556
        k(   35) = (   0.0655332  -0.0378356   0.0000000), wk =   0.0555556
        k(   36) = (   0.0655332  -0.0000000   0.0000000), wk =   0.0555556
        k(   37) = (  -0.0982999  -0.0567534   0.0000000), wk =   0.0277778
        k(   38) = (  -0.0982999  -0.0189178   0.0000000), wk =   0.0555556
        k(   39) = (  -0.0982999   0.0189178   0.0000000), wk =   0.0555556
        k(   40) = (  -0.0982999  -0.1702603   0.0000000), wk =   0.0277778

     Largest allocated arrays     est. size (Mb)     dimensions
     Largest temporary arrays     est. size (Mb)     dimensions

     Check: negative/imaginary core charge=   -0.000005    0.000000

     Initial potential from superposition of free atoms
     Check: negative starting charge=(component1):   -0.001392
     Check: negative starting charge=(component2):   -0.001045

     starting charge  185.99675, renormalised to  195.00000

[...]

     *
     * You are using vdW-DF for exchange-correlation in this calculation.
     * Please cite the following three references that made this development
     * possible:
     *
     *   M. Dion, H. Rydberg, E. Schroder, D. C. Langreth, and
     *   B. I. Lundqvist, Phys. Rev. Lett. 92, 246401 (2004).
     *
     *   T. Thonhauser, V. R. Cooper, S. Li, A. Puzder, P. Hyldgaard, and
     *   D. C. Langreth, Phys. Rev. B 76, 125112 (2007).
     *
     *   G. Roman-Perez and J. M. Soler, Phys. Rev. Lett. 103, 096102 (2009).
     *
     *
     * If you are using vdW-DF2, please also cite:
     *
     *   K. Lee, E. D. Murray, L. Kong, B. I. Lundqvist, and
     *   D. C. Langreth, Phys. Rev. B 82, 081101(R) (2010).
     *
     *
     * If you are calculating the stress with vdW-DF, please also cite:
     *
     *   R. Sabatini, E. Kucukbenli, B. Kolb, T. Thonhauser, and
     *   S. de Gironcoli, J. Phys.: Condens. Matter 24, 424209 (2012).
     *

     Carrying out vdW-DF run using the following parameters:

     Nqs =      20    Nr_points =    1024   r_max =   100.000
     q_mesh =
               0.00001000     0.04494208     0.09755937     0.15916263
               0.23128650     0.31572767     0.41458969     0.53033537
               0.66584808     0.82450364     1.01025438     1.22772762
               1.48234092     1.78043706     2.12944203     2.53805004
               3.01644009     3.57652955     4.23227104     5.00000000

     Gradients computed in reciprocal space

[...]

     Starting wfc are  156 randomized atomic wfcs

     Self-consistent Calculation

[...]

     total energy              =   -3115.51683032 Ry
     Harris-Foulkes estimate   =   -3115.51682993 Ry
     estimated scf accuracy    <       0.00000100 Ry

[...]

     iteration # 47     ecut=    36.75 Ry     beta=0.10
     Davidson diagonalization with overlap
     ethr =  5.14E-10,  avg # of iterations =  1.7

[...]

     negative rho (up, down):  1.239E-03 1.164E-03

[...]

     Adding external electric field

     Computed dipole along edir(3) :
        Dipole                0.0032 Ry au,          0.0080 Debye
        Dipole field          0.0000 Ry au

        Potential amp.       -0.0010 Ry
        Total length         44.5017 bohr

     Magnetic moment per site:
     atom:    1    charge:    8.2818    magn:    0.5534    constr:    0.0000
     atom:    2    charge:    8.2818    magn:    0.5534    constr:    0.0000
     atom:    3    charge:    8.2816    magn:    0.5535    constr:    0.0000
     atom:    4    charge:    1.8641    magn:   -0.0389    constr:    0.0000
     atom:    5    charge:    8.2788    magn:    0.3314    constr:    0.0000
     atom:    6    charge:    8.2787    magn:    0.3314    constr:    0.0000
     atom:    7    charge:    8.2787    magn:    0.3314    constr:    0.0000
     atom:    8    charge:    1.8694    magn:   -0.0237    constr:    0.0000
     atom:    9    charge:    8.2793    magn:    0.5276    constr:    0.0000
     atom:   10    charge:    8.2793    magn:    0.5276    constr:    0.0000
     atom:   11    charge:    8.2793    magn:    0.5274    constr:    0.0000
     atom:   12    charge:    1.8627    magn:   -0.0370    constr:    0.0000

     End of self-consistent calculation

 ------ SPIN UP ------------

[...]

 ------ SPIN DOWN ----------

[...]

          k = 0.0655-0.0000 0.0000 ( 13747 PWs)   bands (ev):

[...]

          k =-0.0983-0.1703 0.0000 ( 13722 PWs)   bands (ev):

   -93.4216 -93.4146 -93.4075 -92.9336 -92.9264 -92.9196 -92.9032 -92.8963
   -92.8892 -60.3531 -60.2603 -60.2488 -56.8897 -56.8518 -56.8256 -56.7589
   -56.7432 -56.7189 -56.6397 -56.6170 -56.5827 -56.4136 -56.3927 -56.3904
   -56.3738 -56.3689 -56.3497 -56.2560 -56.2205 -56.2158 -56.1853 -56.1790
   -56.1636 -56.1495 -56.1479 -56.1345 -56.1206 -56.1172 -56.0892 -34.4452
   -34.4315 -34.3664 -34.3604 -34.3506 -34.2890 -34.2799 -34.2771 -34.2714
    -4.5164  -4.4459  -3.2865  -2.8759  -2.8418  -2.7812  -2.5254  -2.2564
    -2.0760  -1.9523  -1.8364  -1.6393  -1.5677  -1.4912  -1.4601  -1.1667
    -1.1292  -1.0915  -0.9272  -0.8603  -0.8155  -0.5551  -0.4799  -0.2969
    -0.1703  -0.1608  -0.0827  -0.0728  -0.0127   0.0341   0.0711   0.0772
     0.1411   0.1866   0.2444   0.2637   0.3050   0.3455   0.3872   0.5261
     0.6410   0.8117   0.8402   0.9759   1.1024   1.1512   1.1655   1.1889
     1.4709   1.4907   1.5769   1.6811   1.7215   1.8690   1.9442   2.0111
     2.0362   2.0862   2.3519   2.4594   2.6188   2.6704   2.8123   3.4386
     3.6635   3.8125   4.2188   5.1309   5.7082   6.0061   6.0413   6.2732
     7.3993   7.4751   7.5148   7.5523   8.0157   8.0587   8.1697

     the Fermi energy is     1.3462 ev

!    total energy              =   -3115.51683163 Ry
     Harris-Foulkes estimate   =   -3115.51683052 Ry
     estimated scf accuracy    <       0.00000086 Ry

     The total energy is the sum of the following terms:

     one-electron contribution =  -27341.65180460 Ry
     hartree contribution      =   13675.07138148 Ry
     xc contribution           =    -363.79065369 Ry
     ewald contribution        =   10914.94391791 Ry
     electric field correction =       0.00000003 Ry
     smearing contrib. (-TS)   =      -0.08967276 Ry

     total magnetization       =     5.95 Bohr mag/cell
     absolute magnetization    =     9.86 Bohr mag/cell

     convergence has been achieved in  47 iterations

 BEEF-vdW xc energy contributions
           1 :   -319.154819267232
           2 :    289.959040291513
           3 :   -240.025629770354
           4 :    182.507210983831
           5 :   -129.925442468788
           6 :    89.8320588841427
           7 :   -63.3220477561521
           8 :    46.5792499187314
           9 :   -34.1978765499999
          10 :    22.3224700164165
          11 :   -10.1303809630942
          12 :  -0.729507605583763
          13 :    7.95626610733098
          14 :   -10.4028391826559
          15 :    8.82784055707720
          16 :   -5.37314598292761
          17 :    2.28864428392126
          18 :  -0.793336439426866
          19 :   0.709148924708018
          20 :  -0.969285234305062
          21 :   0.545510230813989
          22 :   0.825365008292067
          23 :   -2.54317682279367
          24 :    3.63579458222398
          25 :   -3.45396130118320
          26 :    2.08521956121803
          27 :  -0.254572006313026
          28 :   -1.18025264666124
          29 :    1.76565849210556
          30 :   -1.67786531345530
          31 :   -28.5779609686662
          32 :   -20.3029292933064

     Forces acting on atoms (Ry/au):

     negative rho (up, down):  1.239E-03 1.164E-03
     atom    1 type  1   force =     0.00001054   -0.00317336    0.00570220
     atom    2 type  1   force =    -0.00273780    0.00160108    0.00569497
     atom    3 type  1   force =     0.00273740    0.00158887    0.00569148
     atom    4 type  2   force =     0.00000233    0.00000079    0.00611977
     atom    5 type  1   force =    -0.00003731   -0.00065275   -0.00614673
     atom    6 type  1   force =    -0.00058746    0.00029269   -0.00614667
     atom    7 type  1   force =     0.00060298    0.00034498   -0.00610104
     atom    8 type  2   force =     0.00001031    0.00000645   -0.00492094
     atom    9 type  1   force =    -0.00005289    0.00010059   -0.00024485
     atom   10 type  1   force =     0.00005323   -0.00010652   -0.00025067
     atom   11 type  1   force =    -0.00002747   -0.00003026   -0.00018064
     atom   12 type  2   force =     0.00002614    0.00002743    0.00078313

     Total force =     0.017438     Total SCF correction =     0.003248
     SCF correction compared to forces is large: reduce conv_thr to get better values

     entering subroutine stress ...

     negative rho (up, down):  1.239E-03 1.164E-03
          total   stress  (Ry/bohr**3)                   (kbar)     P=  -18.55
  -0.00015769  -0.00000000  -0.00000002        -23.20     -0.00     -0.00
  -0.00000000  -0.00015768  -0.00000002         -0.00    -23.20     -0.00
  -0.00000002  -0.00000002  -0.00006298         -0.00     -0.00     -9.27

 !ASE

     Writing output data file calc.save

     General routines

     Parallel routines

   This run was terminated on:  11:16: 4  20Dec2018

   JOB DONE.
Job  /afs/slac/g/suncat/bin/suncat-tsmpirun -x LD_LIBRARY_PATH -wdir /scratch/qe773519_P6Ubs pw.x -in pw.inp

TID   HOST_NAME   COMMAND_LINE            STATUS            TERMINATION_TIME
00000 suncat0061 pw.x -in pw.inp   Done                     12/20/2018 11:16:04
00001 suncat0061 pw.x -in pw.inp   Done                     12/20/2018 11:16:04
00002 suncat0061 pw.x -in pw.inp   Done                     12/20/2018 11:16:04
00003 suncat0061 pw.x -in pw.inp   Done                     12/20/2018 11:16:04
00004 suncat0061 pw.x -in pw.inp   Done                     12/20/2018 11:16:04
00005 suncat0061 pw.x -in pw.inp   Done                     12/20/2018 11:16:04
00006 suncat0061 pw.x -in pw.inp   Done                     12/20/2018 11:16:04
00007 suncat0061 pw.x -in pw.inp   Done                     12/20/2018 11:16:04
00008 suncat0060 pw.x -in pw.inp   Done                     12/20/2018 11:16:04
00009 suncat0060 pw.x -in pw.inp   Done                     12/20/2018 11:16:04
00010 suncat0060 pw.x -in pw.inp   Done                     12/20/2018 11:16:04
00011 suncat0060 pw.x -in pw.inp   Done                     12/20/2018 11:16:04
00012 suncat0060 pw.x -in pw.inp   Done                     12/20/2018 11:16:04
00013 suncat0060 pw.x -in pw.inp   Done                     12/20/2018 11:16:04
00014 suncat0060 pw.x -in pw.inp   Done                     12/20/2018 11:16:04
00015 suncat0060 pw.x -in pw.inp   Done                     12/20/2018 11:16:04
00016 suncat0059 pw.x -in pw.inp   Done                     12/20/2018 11:16:04
00017 suncat0059 pw.x -in pw.inp   Done                     12/20/2018 11:16:04
00018 suncat0059 pw.x -in pw.inp   Done                     12/20/2018 11:16:04
00019 suncat0059 pw.x -in pw.inp   Done                     12/20/2018 11:16:04
00020 suncat0059 pw.x -in pw.inp   Done                     12/20/2018 11:16:04
00021 suncat0059 pw.x -in pw.inp   Done                     12/20/2018 11:16:04
00022 suncat0059 pw.x -in pw.inp   Done                     12/20/2018 11:16:04
00023 suncat0059 pw.x -in pw.inp   Done                     12/20/2018 11:16:04
00024 suncat0058 pw.x -in pw.inp   Done                     12/20/2018 11:16:04
00025 suncat0058 pw.x -in pw.inp   Done                     12/20/2018 11:16:04
00026 suncat0058 pw.x -in pw.inp   Done                     12/20/2018 11:16:04
00027 suncat0058 pw.x -in pw.inp   Done                     12/20/2018 11:16:04
00028 suncat0058 pw.x -in pw.inp   Done                     12/20/2018 11:16:04
00029 suncat0058 pw.x -in pw.inp   Done                     12/20/2018 11:16:04
00030 suncat0058 pw.x -in pw.inp   Done                     12/20/2018 11:16:04
00031 suncat0058 pw.x -in pw.inp   Done                     12/20/2018 11:16:04
00032 suncat0196 pw.x -in pw.inp   Done                     12/20/2018 11:16:04
00033 suncat0196 pw.x -in pw.inp   Done                     12/20/2018 11:16:04
00034 suncat0196 pw.x -in pw.inp   Done                     12/20/2018 11:16:04
00035 suncat0196 pw.x -in pw.inp   Done                     12/20/2018 11:16:04
00036 suncat0196 pw.x -in pw.inp   Done                     12/20/2018 11:16:04
00037 suncat0196 pw.x -in pw.inp   Done                     12/20/2018 11:16:04
00038 suncat0196 pw.x -in pw.inp   Done                     12/20/2018 11:16:04
00039 suncat0196 pw.x -in pw.inp   Done                     12/20/2018 11:16:04
00040 suncat0195 pw.x -in pw.inp   Done                     12/20/2018 11:16:04
00041 suncat0195 pw.x -in pw.inp   Done                     12/20/2018 11:16:04
00042 suncat0195 pw.x -in pw.inp   Done                     12/20/2018 11:16:04
00043 suncat0195 pw.x -in pw.inp   Done                     12/20/2018 11:16:04
00044 suncat0195 pw.x -in pw.inp   Done                     12/20/2018 11:16:04
00045 suncat0195 pw.x -in pw.inp   Done                     12/20/2018 11:16:04
00046 suncat0195 pw.x -in pw.inp   Done                     12/20/2018 11:16:04
00047 suncat0195 pw.x -in pw.inp   Done                     12/20/2018 11:16:04
00048 suncat0194 pw.x -in pw.inp   Done                     12/20/2018 11:16:04
00049 suncat0194 pw.x -in pw.inp   Done                     12/20/2018 11:16:04
00050 suncat0194 pw.x -in pw.inp   Done                     12/20/2018 11:16:04
00051 suncat0194 pw.x -in pw.inp   Done                     12/20/2018 11:16:04
00052 suncat0194 pw.x -in pw.inp   Done                     12/20/2018 11:16:04
00053 suncat0194 pw.x -in pw.inp   Done                     12/20/2018 11:16:04
00054 suncat0194 pw.x -in pw.inp   Done                     12/20/2018 11:16:04
00055 suncat0194 pw.x -in pw.inp   Done                     12/20/2018 11:16:04
00056 suncat0193 pw.x -in pw.inp   Done                     12/20/2018 11:16:04
00057 suncat0193 pw.x -in pw.inp   Done                     12/20/2018 11:16:04
00058 suncat0193 pw.x -in pw.inp   Done                     12/20/2018 11:16:04
00059 suncat0193 pw.x -in pw.inp   Done                     12/20/2018 11:16:04
00060 suncat0193 pw.x -in pw.inp   Done                     12/20/2018 11:16:04
00061 suncat0193 pw.x -in pw.inp   Done                     12/20/2018 11:16:04
00062 suncat0193 pw.x -in pw.inp   Done                     12/20/2018 11:16:04
00063 suncat0193 pw.x -in pw.inp   Done                     12/20/2018 11:16:04