     Program PWSCF v.5.1rc2 (svn rev. 11289) starts on 19Dec2018 at 16:57: 6

     Current dimensions of program PWSCF are:
     Max number of different atomic species (ntypx) = 10
     Max number of k-points (npk) =  40000
     Max angular momentum in pseudopotentials (lmaxx) =  3
     Presently stress not available with electric field

     IMPORTANT: XC functional enforced from input :
     Exchange-correlation      = BEEF-VDW ( 1  4 27 13 2)
     Any further DFT definition will be discarded
     Please, verify this is what you really want

     Subspace diagonalization in iterative solution of the eigenvalue problem:
     a serial algorithm will be used

     bravais-lattice index     =            0
     lattice parameter (alat)  =       1.8897  a.u.
     unit-cell volume          =    5134.5250 (a.u.)^3
     number of atoms/cell      =           12
     number of atomic types    =            2
     number of electrons       =        63.00
     number of Kohn-Sham states=           61
     kinetic-energy cutoff     =      36.7493  Ry
     charge density cutoff     =     367.4932  Ry
     convergence threshold     =      1.0E-06
     mixing beta               =       0.1000
     number of iterations used =           10  plain     mixing
     Exchange-correlation      = BEEF-VDW ( 1  4 27 13 2)
     nstep                     =           50

     celldm(1)=   1.889726  celldm(2)=   0.000000  celldm(3)=   0.000000
     celldm(4)=   0.000000  celldm(5)=   0.000000  celldm(6)=   0.000000

     crystal axes: (cart. coord. in units of alat)
               a(1) = (   5.945448   0.000000   0.000000 )
               a(2) = (  -2.972724   5.148909   0.000000 )
               a(3) = (   0.000000   0.000000  24.854438 )

     reciprocal axes: (cart. coord. in units 2 pi/alat)
               b(1) = (  0.168196  0.097108  0.000000 )
               b(2) = (  0.000000  0.194216  0.000000 )
               b(3) = (  0.000000  0.000000  0.040234 )

     PseudoPot. # 1 for Al read from file:
     /afs/slac.stanford.edu/u/if/mamunm/psp/gbrv1.5pbe/Al.UPF
     MD5 check sum: 0a6289f5291fc8f409219462bc851e1f
     Pseudo is Ultrasoft + core correction, Zval =  3.0
     Generated by new atomic code, or converted to UPF format
     Using radial grid of  893 points,  3 beta functions with:
                l(1) =   0
                l(2) =   1
                l(3) =   2
     Q(r) pseudized with  8 coefficients,  rinner =    0.900   0.900   0.900
                                                       0.900   0.900

     PseudoPot. # 2 for Cd read from file:
     /afs/slac.stanford.edu/u/if/mamunm/psp/gbrv1.5pbe/Cd.UPF
     MD5 check sum: 17164a7926edb8e0dc231208abae86a6
     Pseudo is Ultrasoft + core correction, Zval = 12.0
     Generated by new atomic code, or converted to UPF format
     Using radial grid of  889 points,  6 beta functions with:
                l(1) =   0
                l(2) =   0
                l(3) =   1
                l(4) =   1
                l(5) =   2
                l(6) =   2
     Q(r) pseudized with  6 coefficients,  rinner =    1.000   1.000   1.000
                                                       1.000   1.000

     vdW kernel table read from file vdW_kernel_table
     MD5 check sum: 095c7af220d748ca6e76c0b4c6cfb241

     atomic species   valence    mass     pseudopotential
        Al1            3.00    26.98154     Al( 1.00)
        Cd1           12.00   112.41400     Cd( 1.00)

     No symmetry found

   Cartesian axes

     site n.     atom                  positions (alat units)
         1           Al1 tau(   1) = (   0.0000000   0.0000000  10.0000000  )
         2           Al1 tau(   2) = (  -1.4863619   2.5744543  10.0000000  )
         3           Al1 tau(   3) = (   1.4863619   2.5744543  10.0000000  )
         4           Cd1 tau(   4) = (   2.9727238   0.0000000  10.0000000  )
         5           Al1 tau(   5) = (   2.9727238   1.7163029  12.4272188  )
         6           Al1 tau(   6) = (   1.4863619   4.2907572  12.4272188  )
         7           Al1 tau(   7) = (  -1.4863619   4.2907572  12.4272188  )
         8           Cd1 tau(   8) = (   0.0000000   1.7163029  12.4272188  )
         9           Al1 tau(   9) = (  -0.0000000   3.4326057  14.8544376  )
        10           Al1 tau(  10) = (   1.4863619   0.8581514  14.8544376  )
        11           Al1 tau(  11) = (   4.4590856   0.8581514  14.8544376  )
        12           Cd1 tau(  12) = (   2.9727238   3.4326057  14.8544376  )

     number of k points=    20  Fermi-Dirac smearing, width (Ry)=  0.0110
                       cart. coord. in units 2pi/alat
        k(    1) = (   0.0000000   0.0000000   0.0000000), wk =   0.0555556
        k(    2) = (   0.0000000   0.0323693   0.0000000), wk =   0.1111111
        k(    3) = (   0.0000000   0.0647386   0.0000000), wk =   0.1111111
        k(    4) = (   0.0000000  -0.0971080   0.0000000), wk =   0.0555556
        k(    5) = (   0.0280327   0.0161847   0.0000000), wk =   0.1111111
        k(    6) = (   0.0280327   0.0485540   0.0000000), wk =   0.1111111
        k(    7) = (   0.0280327   0.0809233   0.0000000), wk =   0.1111111
        k(    8) = (   0.0280327  -0.0809233   0.0000000), wk =   0.1111111
        k(    9) = (   0.0280327  -0.0485540   0.0000000), wk =   0.1111111
        k(   10) = (   0.0280327  -0.0161847   0.0000000), wk =   0.1111111
        k(   11) = (   0.0560653   0.0323693   0.0000000), wk =   0.1111111
        k(   12) = (   0.0560653   0.0647386   0.0000000), wk =   0.1111111
        k(   13) = (   0.0560653   0.0971080   0.0000000), wk =   0.1111111
        k(   14) = (   0.0560653  -0.0647386   0.0000000), wk =   0.1111111
        k(   15) = (   0.0560653  -0.0323693   0.0000000), wk =   0.1111111
        k(   16) = (   0.0560653   0.0000000   0.0000000), wk =   0.1111111
        k(   17) = (  -0.0840980  -0.0485540   0.0000000), wk =   0.0555556
        k(   18) = (  -0.0840980  -0.0161847   0.0000000), wk =   0.1111111
        k(   19) = (  -0.0840980   0.0161847   0.0000000), wk =   0.1111111
        k(   20) = (  -0.0840980  -0.1456619   0.0000000), wk =   0.0555556

     Largest allocated arrays     est. size (Mb)     dimensions
     Largest temporary arrays     est. size (Mb)     dimensions

     Initial potential from superposition of free atoms
     Check: negative starting charge=   -0.066376

     starting charge   61.47769, renormalised to   63.00000

     negative rho (up, down):  6.802E-02 0.000E+00

     *
     * You are using vdW-DF for exchange-correlation in this calculation.
     * Please cite the following three references that made this development
     * possible:
     *
     *   M. Dion, H. Rydberg, E. Schroder, D. C. Langreth, and
     *   B. I. Lundqvist, Phys. Rev. Lett. 92, 246401 (2004).
     *
     *   T. Thonhauser, V. R. Cooper, S. Li, A. Puzder, P. Hyldgaard, and
     *   D. C. Langreth, Phys. Rev. B 76, 125112 (2007).
     *
     *   G. Roman-Perez and J. M. Soler, Phys. Rev. Lett. 103, 096102 (2009).
     *
     *
     * If you are using vdW-DF2, please also cite:
     *
     *   K. Lee, E. D. Murray, L. Kong, B. I. Lundqvist, and
     *   D. C. Langreth, Phys. Rev. B 82, 081101(R) (2010).
     *
     *
     * If you are calculating the stress with vdW-DF, please also cite:
     *
     *   R. Sabatini, E. Kucukbenli, B. Kolb, T. Thonhauser, and
     *   S. de Gironcoli, J. Phys.: Condens. Matter 24, 424209 (2012).
     *

     Carrying out vdW-DF run using the following parameters:

     Nqs =      20    Nr_points =    1024   r_max =   100.000
     q_mesh =
               0.00001000     0.04494208     0.09755937     0.15916263
               0.23128650     0.31572767     0.41458969     0.53033537
               0.66584808     0.82450364     1.01025438     1.22772762
               1.48234092     1.78043706     2.12944203     2.53805004
               3.01644009     3.57652955     4.23227104     5.00000000

     Gradients computed in reciprocal space

     Adding external electric field

     Computed dipole along edir(3) :
        Dipole               -0.0000 Ry au,         -0.0000 Debye
        Dipole field         -0.0000 Ry au

        Potential amp.        0.0000 Ry
        Total length         45.7939 bohr

     Starting wfc are   63 randomized atomic wfcs

     Self-consistent Calculation

     iteration #  1     ecut=    36.75 Ry     beta=0.10
     Davidson diagonalization with overlap
     ethr =  1.00E-02,  avg # of iterations =  7.2

     Threshold (ethr) on eigenvalues was too large:
     Diagonalizing with lowered threshold

     Davidson diagonalization with overlap
     ethr =  6.93E-04,  avg # of iterations =  3.1

[...]

     total energy              =    -409.91200508 Ry
     Harris-Foulkes estimate   =    -409.97768147 Ry
     estimated scf accuracy    <       0.43790967 Ry

[...]

     End of self-consistent calculation

          k = 0.0000 0.0000 0.0000 ( 19291 PWs)   bands (ev):

   -10.2543  -9.8615  -9.8469  -9.8469  -9.7775  -9.7775  -9.6840  -9.6058
    -9.6058  -9.5640  -9.5640  -9.5489  -9.5012  -9.5012  -9.4618  -9.4618
    -8.4542  -5.8844  -4.5053  -4.4215  -4.4215  -4.3559  -4.3559  -4.1844
    -3.2600  -3.0871  -3.0871  -2.9629  -2.4971  -2.4971  -2.3906  -0.6827
    -0.6827  -0.3440  -0.3440  -0.2709  -0.1123   0.4864   2.3225   2.4630
     2.4631   2.4973   2.4973   2.7254   2.8586   3.2385   3.8155   4.1148
     4.7809   5.1910   5.1910   5.4435   5.5954   6.0933   6.0933   6.1421
     6.1681   6.1684   6.1834   6.1834   7.0942

[...]

          k =-0.0841-0.0486 0.0000 ( 19348 PWs)   bands (ev):

[...]

     the Fermi energy is    -0.4722 ev

!    total energy              =    -409.89795153 Ry
     Harris-Foulkes estimate   =    -409.89794971 Ry
     estimated scf accuracy    <       0.00000019 Ry

     The total energy is the sum of the following terms:

     one-electron contribution =   -1937.44612022 Ry
     hartree contribution      =     995.76814677 Ry
     xc contribution           =    -161.80320089 Ry
     ewald contribution        =     693.61619164 Ry
     electric field correction =       0.00000000 Ry
     smearing contrib. (-TS)   =      -0.03296882 Ry

     convergence has been achieved in  12 iterations

 BEEF-vdW xc energy contributions
           1 :   -139.556714873945
           2 :    125.833673457263
           3 :   -103.353259055765
           4 :    79.2601078647249
           5 :   -59.3728541476982
           6 :    46.0577232747743
           7 :   -38.3474425128736
           8 :    33.6907640634983
           9 :   -29.8836655164442
          10 :    26.0113932402094
          11 :   -22.2274448772028
          12 :    19.0091444847084
          13 :   -16.6230113661989
          14 :    15.0461126058806
          15 :   -14.1136613103844
          16 :    13.5982054754246
          17 :   -13.1918567047080
          18 :    12.5624433999501
          19 :   -11.5566129151839
          20 :    10.3743221055609
          21 :   -9.47966151923961
          22 :    9.24449174720317
          23 :   -9.61314557404629
          24 :    10.1033362872818
          25 :   -10.1718001674201
          26 :    9.64048973533326
[...]
               a(1) = (   5.945448   0.000000   0.000000 )
               a(2) = (  -2.972724   5.148909   0.000000 )
               a(3) = (   0.000000   0.000000  24.854438 )

     reciprocal axes: (cart. coord. in units 2 pi/alat)
               b(1) = (  0.168196  0.097108  0.000000 )
               b(2) = (  0.000000  0.194216  0.000000 )
               b(3) = (  0.000000  0.000000  0.040234 )

     PseudoPot. # 1 for Al read from file:
     /afs/slac.stanford.edu/u/if/mamunm/psp/gbrv1.5pbe/Al.UPF
     MD5 check sum: 0a6289f5291fc8f409219462bc851e1f
     Pseudo is Ultrasoft + core correction, Zval =  3.0
     Generated by new atomic code, or converted to UPF format
     Using radial grid of  893 points,  3 beta functions with:
                l(1) =   0
                l(2) =   1
                l(3) =   2
     Q(r) pseudized with  8 coefficients,  rinner =    0.900   0.900   0.900
                                                       0.900   0.900

     PseudoPot. # 2 for Cd read from file:
     /afs/slac.stanford.edu/u/if/mamunm/psp/gbrv1.5pbe/Cd.UPF
     MD5 check sum: 17164a7926edb8e0dc231208abae86a6
     Pseudo is Ultrasoft + core correction, Zval = 12.0
     Generated by new atomic code, or converted to UPF format
     Using radial grid of  889 points,  6 beta functions with:
                l(1) =   0
                l(2) =   0
                l(3) =   1
                l(4) =   1
                l(5) =   2
                l(6) =   2
     Q(r) pseudized with  6 coefficients,  rinner =    1.000   1.000   1.000
                                                       1.000   1.000

     vdW kernel table read from file vdW_kernel_table
     MD5 check sum: 095c7af220d748ca6e76c0b4c6cfb241

     atomic species   valence    mass     pseudopotential
        Al1            3.00    26.98154     Al( 1.00)
        Cd1           12.00   112.41400     Cd( 1.00)

     No symmetry found

   Cartesian axes

     site n.     atom                  positions (alat units)
         1           Al1 tau(   1) = (   0.0000000   0.0000000  10.0000000  )
         2           Al1 tau(   2) = (  -1.4863619   2.5744543  10.0000000  )
         3           Al1 tau(   3) = (   1.4863619   2.5744543  10.0000000  )
         4           Cd1 tau(   4) = (   2.9727238   0.0000000  10.0000000  )
         5           Al1 tau(   5) = (   2.9727238   1.7163029  12.4272188  )
         6           Al1 tau(   6) = (   1.4863619   4.2907572  12.4272188  )
         7           Al1 tau(   7) = (  -1.4863619   4.2907572  12.4272188  )
         8           Cd1 tau(   8) = (   0.0000000   1.7163029  12.4272188  )
         9           Al1 tau(   9) = (  -0.0000164   3.4748558  14.7771224  )
        10           Al1 tau(  10) = (   1.5229231   0.8370180  14.7771241  )
        11           Al1 tau(  11) = (   4.4224984   0.8370233  14.7771238  )
        12           Cd1 tau(  12) = (   2.9727601   3.4326161  15.1535977  )

     number of k points=    20  Fermi-Dirac smearing, width (Ry)=  0.0110
                       cart. coord. in units 2pi/alat
        k(    1) = (   0.0000000   0.0000000   0.0000000), wk =   0.0555556
        k(    2) = (   0.0000000   0.0323693   0.0000000), wk =   0.1111111
        k(    3) = (   0.0000000   0.0647386   0.0000000), wk =   0.1111111
        k(    4) = (   0.0000000  -0.0971080   0.0000000), wk =   0.0555556
        k(    5) = (   0.0280327   0.0161847   0.0000000), wk =   0.1111111
        k(    6) = (   0.0280327   0.0485540   0.0000000), wk =   0.1111111
        k(    7) = (   0.0280327   0.0809233   0.0000000), wk =   0.1111111
        k(    8) = (   0.0280327  -0.0809233   0.0000000), wk =   0.1111111
        k(    9) = (   0.0280327  -0.0485540   0.0000000), wk =   0.1111111
        k(   10) = (   0.0280327  -0.0161847   0.0000000), wk =   0.1111111
        k(   11) = (   0.0560653   0.0323693   0.0000000), wk =   0.1111111
        k(   12) = (   0.0560653   0.0647386   0.0000000), wk =   0.1111111
        k(   13) = (   0.0560653   0.0971080   0.0000000), wk =   0.1111111
        k(   14) = (   0.0560653  -0.0647386   0.0000000), wk =   0.1111111
        k(   15) = (   0.0560653  -0.0323693   0.0000000), wk =   0.1111111
        k(   16) = (   0.0560653   0.0000000   0.0000000), wk =   0.1111111
        k(   17) = (  -0.0840980  -0.0485540   0.0000000), wk =   0.0555556
        k(   18) = (  -0.0840980  -0.0161847   0.0000000), wk =   0.1111111
        k(   19) = (  -0.0840980   0.0161847   0.0000000), wk =   0.1111111
        k(   20) = (  -0.0840980  -0.1456619   0.0000000), wk =   0.0555556

     Largest allocated arrays     est. size (Mb)     dimensions
     Largest temporary arrays     est. size (Mb)     dimensions

     Initial potential from superposition of free atoms
     Check: negative starting charge=   -0.064104

     starting charge   61.47769, renormalised to   63.00000

[...]

     *
     * You are using vdW-DF for exchange-correlation in this calculation.
     * Please cite the following three references that made this development
     * possible:
     *
     *   M. Dion, H. Rydberg, E. Schroder, D. C. Langreth, and
     *   B. I. Lundqvist, Phys. Rev. Lett. 92, 246401 (2004).
     *
     *   T. Thonhauser, V. R. Cooper, S. Li, A. Puzder, P. Hyldgaard, and
     *   D. C. Langreth, Phys. Rev. B 76, 125112 (2007).
     *
     *   G. Roman-Perez and J. M. Soler, Phys. Rev. Lett. 103, 096102 (2009).
     *
     *
     * If you are using vdW-DF2, please also cite:
     *
     *   K. Lee, E. D. Murray, L. Kong, B. I. Lundqvist, and
     *   D. C. Langreth, Phys. Rev. B 82, 081101(R) (2010).
     *
     *
     * If you are calculating the stress with vdW-DF, please also cite:
     *
     *   R. Sabatini, E. Kucukbenli, B. Kolb, T. Thonhauser, and
     *   S. de Gironcoli, J. Phys.: Condens. Matter 24, 424209 (2012).
     *

     Carrying out vdW-DF run using the following parameters:

     Nqs =      20    Nr_points =    1024   r_max =   100.000
     q_mesh =
               0.00001000     0.04494208     0.09755937     0.15916263
               0.23128650     0.31572767     0.41458969     0.53033537
               0.66584808     0.82450364     1.01025438     1.22772762
               1.48234092     1.78043706     2.12944203     2.53805004
               3.01644009     3.57652955     4.23227104     5.00000000

     Gradients computed in reciprocal space

[...]

     Starting wfc are   63 randomized atomic wfcs

     Self-consistent Calculation

[...]

     Threshold (ethr) on eigenvalues was too large:
     Diagonalizing with lowered threshold

     Davidson diagonalization with overlap
     ethr =  7.52E-04,  avg # of iterations =  3.7

[...]

     total energy              =    -409.90612784 Ry
     Harris-Foulkes estimate   =    -409.90612934 Ry
     estimated scf accuracy    <       0.00000199 Ry

     iteration # 12     ecut=    36.75 Ry     beta=0.10
     Davidson diagonalization with overlap
     ethr =  3.16E-09,  avg # of iterations =  2.5

[...]

     negative rho (up, down):  6.737E-02 0.000E+00

     Adding external electric field

     Computed dipole along edir(3) :
        Dipole                0.0095 Ry au,          0.0242 Debye
        Dipole field          0.0000 Ry au

        Potential amp.       -0.0021 Ry
        Total length         45.7939 bohr

     End of self-consistent calculation

[...]

          k = 0.0561 0.0000 0.0000 ( 19307 PWs)   bands (ev):

[...]

          k =-0.0841-0.1457 0.0000 ( 19348 PWs)   bands (ev):

    -9.9421  -9.8284  -9.8177  -9.7921  -9.7654  -9.6336  -9.5787  -9.5668
    -9.5482  -9.4932  -9.4686  -9.4145  -9.4137  -9.3944  -9.3452  -8.7341
    -8.5582  -7.1563  -6.9488  -5.9697  -5.5576  -4.6792  -4.5068  -4.2679
    -4.0682  -1.9969  -1.9061  -1.5610  -1.4130  -0.4214  -0.2612  -0.1877
    -0.0526   0.8265   0.9181   1.2166   1.3744   1.5376   1.6700   1.7010
     1.8608   2.4399   2.7935   3.5016   3.5214   3.5636   3.6068   3.6574
     3.7957   4.1146   4.3849   4.4821   4.4970   4.5273   4.6673   5.1570
     5.1687   5.4494   5.5188   5.9941   6.1381

     the Fermi energy is    -0.4736 ev

!    total energy              =    -409.90612629 Ry
     Harris-Foulkes estimate   =    -409.90612813 Ry
     estimated scf accuracy    <       0.00000043 Ry

     The total energy is the sum of the following terms:

     one-electron contribution =   -1900.92468963 Ry
     hartree contribution      =     977.56294351 Ry
     xc contribution           =    -161.80239212 Ry
     ewald contribution        =     675.29122745 Ry
     electric field correction =       0.00000022 Ry
     smearing contrib. (-TS)   =      -0.03321572 Ry

     convergence has been achieved in  12 iterations

 BEEF-vdW xc energy contributions
           1 :   -139.597451568227
           2 :    125.852818240061
           3 :   -103.352057442545
           4 :    79.2641979796441
           5 :   -59.4110288048606
           6 :    46.1364305000488
           7 :   -38.4415814635709
           8 :    33.7578623751472
           9 :   -29.8911959251693
          10 :    25.9585695803765
          11 :   -22.1463999309752
          12 :    18.9440742285141
          13 :   -16.6012220631820
          14 :    15.0610827230534
          15 :   -14.1323157234361
          16 :    13.5875207935709
          17 :   -13.1456366577608
          18 :    12.5078662606406
          19 :   -11.5347974472382
          20 :    10.4096265362079
          21 :   -9.56158139282113
          22 :    9.33609210197025
          23 :   -9.67835791869666
          24 :    10.1311476596826
          25 :   -10.1800584686813
          26 :    9.65833698431112
          27 :   -8.86270674045761
          28 :    8.28761977845934
          29 :   -8.21986984390458
          30 :    8.53875158162219
          31 :   -14.5082519333670
          32 :   -10.5885249239309

     Forces acting on atoms (Ry/au):

     negative rho (up, down):  6.737E-02 0.000E+00
     atom    1 type  1   force =    -0.00000139   -0.00483936    0.00440374
     atom    2 type  1   force =    -0.00419236    0.00241969    0.00440381
     atom    3 type  1   force =     0.00418958    0.00241960    0.00440403
     atom    4 type  2   force =    -0.00000045   -0.00000306   -0.01682593
     atom    5 type  1   force =    -0.00000162    0.00809200    0.00139207
     atom    6 type  1   force =     0.00700649   -0.00404636    0.00139195
     atom    7 type  1   force =    -0.00700938   -0.00404610    0.00139063
     atom    8 type  2   force =     0.00000114   -0.00000491   -0.00280876
     atom    9 type  1   force =     0.00000346   -0.00048668    0.00060904
     atom   10 type  1   force =    -0.00041953    0.00024729    0.00060922
     atom   11 type  1   force =     0.00041814    0.00024246    0.00060916
     atom   12 type  2   force =     0.00000590    0.00000543    0.00042104

     Total force =     0.024974     Total SCF correction =     0.001169

     entering subroutine stress ...

     negative rho (up, down):  6.737E-02 0.000E+00
          total   stress  (Ry/bohr**3)                   (kbar)     P=   -8.60
  -0.00008710   0.00000000   0.00000000        -12.81      0.00      0.00
   0.00000000  -0.00008710  -0.00000000          0.00    -12.81     -0.00
   0.00000000  -0.00000000  -0.00000126          0.00     -0.00     -0.18

 !ASE

     Writing output data file calc.save

     General routines

     Parallel routines

   This run was terminated on:  17:49: 8  19Dec2018

   JOB DONE.
Job  /afs/slac/g/suncat/bin/suncat-tsmpirun -x LD_LIBRARY_PATH -wdir /scratch/qe773232_CRd9X pw.x -in pw.inp

TID   HOST_NAME   COMMAND_LINE            STATUS            TERMINATION_TIME
00000 suncat0046 pw.x -in pw.inp   Done                     12/19/2018 17:49:08
00001 suncat0046 pw.x -in pw.inp   Done                     12/19/2018 17:49:08
00002 suncat0046 pw.x -in pw.inp   Done                     12/19/2018 17:49:08
00003 suncat0046 pw.x -in pw.inp   Done                     12/19/2018 17:49:08
00004 suncat0046 pw.x -in pw.inp   Done                     12/19/2018 17:49:08
00005 suncat0046 pw.x -in pw.inp   Done                     12/19/2018 17:49:08
00006 suncat0046 pw.x -in pw.inp   Done                     12/19/2018 17:49:08
00007 suncat0046 pw.x -in pw.inp   Done                     12/19/2018 17:49:08
00008 suncat0044 pw.x -in pw.inp   Done                     12/19/2018 17:49:08
00009 suncat0044 pw.x -in pw.inp   Done                     12/19/2018 17:49:08
00010 suncat0044 pw.x -in pw.inp   Done                     12/19/2018 17:49:08
00011 suncat0044 pw.x -in pw.inp   Done                     12/19/2018 17:49:08
00012 suncat0044 pw.x -in pw.inp   Done                     12/19/2018 17:49:08
00013 suncat0044 pw.x -in pw.inp   Done                     12/19/2018 17:49:08
00014 suncat0044 pw.x -in pw.inp   Done                     12/19/2018 17:49:08
00015 suncat0044 pw.x -in pw.inp   Done                     12/19/2018 17:49:08
00016 suncat0043 pw.x -in pw.inp   Done                     12/19/2018 17:49:08
00017 suncat0043 pw.x -in pw.inp   Done                     12/19/2018 17:49:08
00018 suncat0043 pw.x -in pw.inp   Done                     12/19/2018 17:49:08
00019 suncat0043 pw.x -in pw.inp   Done                     12/19/2018 17:49:08
00020 suncat0043 pw.x -in pw.inp   Done                     12/19/2018 17:49:08
00021 suncat0043 pw.x -in pw.inp   Done                     12/19/2018 17:49:08
00022 suncat0043 pw.x -in pw.inp   Done                     12/19/2018 17:49:08
00023 suncat0043 pw.x -in pw.inp   Done                     12/19/2018 17:49:08
00024 suncat0042 pw.x -in pw.inp   Done                     12/19/2018 17:49:08
00025 suncat0042 pw.x -in pw.inp   Done                     12/19/2018 17:49:08
00026 suncat0042 pw.x -in pw.inp   Done                     12/19/2018 17:49:08
00027 suncat0042 pw.x -in pw.inp   Done                     12/19/2018 17:49:08
00028 suncat0042 pw.x -in pw.inp   Done                     12/19/2018 17:49:08
00029 suncat0042 pw.x -in pw.inp   Done                     12/19/2018 17:49:08
00030 suncat0042 pw.x -in pw.inp   Done                     12/19/2018 17:49:08
00031 suncat0042 pw.x -in pw.inp   Done                     12/19/2018 17:49:08
00032 suncat0041 pw.x -in pw.inp   Done                     12/19/2018 17:49:08
00033 suncat0041 pw.x -in pw.inp   Done                     12/19/2018 17:49:08
00034 suncat0041 pw.x -in pw.inp   Done                     12/19/2018 17:49:08
00035 suncat0041 pw.x -in pw.inp   Done                     12/19/2018 17:49:08
00036 suncat0041 pw.x -in pw.inp   Done                     12/19/2018 17:49:08
00037 suncat0041 pw.x -in pw.inp   Done                     12/19/2018 17:49:08
00038 suncat0041 pw.x -in pw.inp   Done                     12/19/2018 17:49:08
00039 suncat0041 pw.x -in pw.inp   Done                     12/19/2018 17:49:08
00040 suncat0036 pw.x -in pw.inp   Done                     12/19/2018 17:49:08
00041 suncat0036 pw.x -in pw.inp   Done                     12/19/2018 17:49:08
00042 suncat0036 pw.x -in pw.inp   Done                     12/19/2018 17:49:08
00043 suncat0036 pw.x -in pw.inp   Done                     12/19/2018 17:49:08
00044 suncat0036 pw.x -in pw.inp   Done                     12/19/2018 17:49:08
00045 suncat0036 pw.x -in pw.inp   Done                     12/19/2018 17:49:08
00046 suncat0036 pw.x -in pw.inp   Done                     12/19/2018 17:49:08
00047 suncat0036 pw.x -in pw.inp   Done                     12/19/2018 17:49:08
00048 suncat0035 pw.x -in pw.inp   Done                     12/19/2018 17:49:08
00049 suncat0035 pw.x -in pw.inp   Done                     12/19/2018 17:49:08
00050 suncat0035 pw.x -in pw.inp   Done                     12/19/2018 17:49:08
00051 suncat0035 pw.x -in pw.inp   Done                     12/19/2018 17:49:08
00052 suncat0035 pw.x -in pw.inp   Done                     12/19/2018 17:49:08
00053 suncat0035 pw.x -in pw.inp   Done                     12/19/2018 17:49:08
00054 suncat0035 pw.x -in pw.inp   Done                     12/19/2018 17:49:08
00055 suncat0035 pw.x -in pw.inp   Done                     12/19/2018 17:49:08
00056 suncat0034 pw.x -in pw.inp   Done                     12/19/2018 17:49:08
00057 suncat0034 pw.x -in pw.inp   Done                     12/19/2018 17:49:08
00058 suncat0034 pw.x -in pw.inp   Done                     12/19/2018 17:49:08
00059 suncat0034 pw.x -in pw.inp   Done                     12/19/2018 17:49:08
00060 suncat0034 pw.x -in pw.inp   Done                     12/19/2018 17:49:08
00061 suncat0034 pw.x -in pw.inp   Done                     12/19/2018 17:49:08
00062 suncat0034 pw.x -in pw.inp   Done                     12/19/2018 17:49:08
00063 suncat0034 pw.x -in pw.inp   Done                     12/19/2018 17:49:08