     Program PWSCF v.5.1rc2 (svn rev. 11289) starts on 18Dec2018 at 16:49:48

     Current dimensions of program PWSCF are:
     Max number of different atomic species (ntypx) = 10
     Max number of k-points (npk) =  40000
     Max angular momentum in pseudopotentials (lmaxx) =  3
     Presently stress not available with electric field

     IMPORTANT: XC functional enforced from input :
     Exchange-correlation      = BEEF-VDW ( 1  4 27 13 2)
     Any further DFT definition will be discarded
     Please, verify this is what you really want

     Subspace diagonalization in iterative solution of the eigenvalue problem:
     a serial algorithm will be used

     Found symmetry operation: I + ( -0.5000  0.0000  0.0000)
     This is a supercell, fractional translations are disabled

     bravais-lattice index     =            0
     lattice parameter (alat)  =       1.8897  a.u.
     unit-cell volume          =    4796.4104 (a.u.)^3
     number of atoms/cell      =           12
     number of atomic types    =            2
     number of electrons       =       198.00
     number of Kohn-Sham states=          129
     kinetic-energy cutoff     =      36.7493  Ry
     charge density cutoff     =     367.4932  Ry
     convergence threshold     =      1.0E-06
     mixing beta               =       0.1000
     number of iterations used =           10  plain     mixing
     Exchange-correlation      = BEEF-VDW ( 1  4 27 13 2)
     nstep                     =           50

     celldm(1)=   1.889726  celldm(2)=   0.000000  celldm(3)=   0.000000
     celldm(4)=   0.000000  celldm(5)=   0.000000  celldm(6)=   0.000000

     crystal axes: (cart. coord. in units of alat)
               a(1) = (   5.399750   0.000000   0.000000 )
               a(2) = (  -2.699875   5.338081   0.000000 )
               a(3) = (   0.000000   0.000000  24.658173 )

     reciprocal axes: (cart. coord. in units 2 pi/alat)
               b(1) = (  0.185194  0.093667  0.000000 )
               b(2) = (  0.000000  0.187333  0.000000 )
               b(3) = (  0.000000  0.000000  0.040555 )

     PseudoPot. # 1 for Ag read from file:
     /afs/slac.stanford.edu/u/if/mamunm/psp/gbrv1.5pbe/Ag.UPF
     MD5 check sum: d66d668201baa78d5eb5b04ef7011058
     Pseudo is Ultrasoft + core correction, Zval = 19.0
     Generated by new atomic code, or converted to UPF format
     Using radial grid of  887 points,  6 beta functions with:
                l(1) =   0
                l(2) =   0
                l(3) =   1
                l(4) =   1
                l(5) =   2
                l(6) =   2
     Q(r) pseudized with  6 coefficients,  rinner =    1.300   1.300   1.300
                                                       1.300   1.300

     PseudoPot. # 2 for W  read from file:
     /afs/slac.stanford.edu/u/if/mamunm/psp/gbrv1.5pbe/W.UPF
     MD5 check sum: 9c083fa34c2a2ea0f02f1f893e16e1c8
     Pseudo is Ultrasoft + core correction, Zval = 14.0
     Generated by new atomic code, or converted to UPF format
     Using radial grid of  923 points,  8 beta functions with:
                l(1) =   0
                l(2) =   0
                l(3) =   0
                l(4) =   1
                l(5) =   1
                l(6) =   2
                l(7) =   2
                l(8) =   3
     Q(r) pseudized with  6 coefficients,  rinner =    1.350   1.350   1.350
                                                       1.350   1.350   1.350
                                                       1.350

     vdW kernel table read from file vdW_kernel_table
     MD5 check sum: 095c7af220d748ca6e76c0b4c6cfb241

     atomic species   valence    mass     pseudopotential
        Ag1           19.00   107.86820     Ag( 1.00)
        W1            14.00   183.84000     W ( 1.00)

     No symmetry found

   Cartesian axes

     site n.     atom                  positions (alat units)
         1           Ag1 tau(   1) = (   0.0000000   0.0000000  10.0000000  )
         2           Ag1 tau(   2) = (   2.6998749   0.0000000  10.0000000  )
         3           W1  tau(   3) = (   1.3499375   2.6690407  10.0000000  )
         4           W1  tau(   4) = (  -1.3499375   2.6690407  10.0000000  )
         5           Ag1 tau(   5) = (   2.6998749   1.3655327  12.3290867  )
         6           Ag1 tau(   6) = (   0.0000000   1.3655327  12.3290867  )
         7           W1  tau(   7) = (  -1.3499375   4.0345734  12.3290867  )
         8           W1  tau(   8) = (   1.3499375   4.0345734  12.3290867  )
         9           Ag1 tau(   9) = (   0.0000000   2.7310654  14.6581735  )
        10           Ag1 tau(  10) = (   2.6998749   2.7310654  14.6581735  )
        11           W1  tau(  11) = (   4.0498124   0.0620247  14.6581735  )
        12           W1  tau(  12) = (   1.3499375   0.0620247  14.6581735  )

     number of k points=    20  Fermi-Dirac smearing, width (Ry)=  0.0110
                       cart. coord. in units 2pi/alat
        k(    1) = (   0.0000000   0.0000000   0.0000000), wk =   0.0555556
        k(    2) = (   0.0000000   0.0312222   0.0000000), wk =   0.1111111
        k(    3) = (   0.0000000   0.0624444   0.0000000), wk =   0.1111111
        k(    4) = (   0.0000000  -0.0936666   0.0000000), wk =   0.0555556
        k(    5) = (   0.0308656   0.0156111   0.0000000), wk =   0.1111111
        k(    6) = (   0.0308656   0.0468333   0.0000000), wk =   0.1111111
        k(    7) = (   0.0308656   0.0780555   0.0000000), wk =   0.1111111
        k(    8) = (   0.0308656  -0.0780555   0.0000000), wk =   0.1111111
        k(    9) = (   0.0308656  -0.0468333   0.0000000), wk =   0.1111111
        k(   10) = (   0.0308656  -0.0156111   0.0000000), wk =   0.1111111
        k(   11) = (   0.0617313   0.0312222   0.0000000), wk =   0.1111111
        k(   12) = (   0.0617313   0.0624444   0.0000000), wk =   0.1111111
        k(   13) = (   0.0617313   0.0936666   0.0000000), wk =   0.1111111
        k(   14) = (   0.0617313  -0.0624444   0.0000000), wk =   0.1111111
        k(   15) = (   0.0617313  -0.0312222   0.0000000), wk =   0.1111111
        k(   16) = (   0.0617313   0.0000000   0.0000000), wk =   0.1111111
        k(   17) = (  -0.0925969  -0.0468333   0.0000000), wk =   0.0555556
        k(   18) = (  -0.0925969  -0.0156111   0.0000000), wk =   0.1111111
        k(   19) = (  -0.0925969   0.0156111   0.0000000), wk =   0.1111111
        k(   20) = (  -0.0925969  -0.1404999   0.0000000), wk =   0.0555556

     Largest allocated arrays     est. size (Mb)     dimensions
     Largest temporary arrays     est. size (Mb)     dimensions

     Initial potential from superposition of free atoms
     Check: negative starting charge=   -0.381864

     starting charge  194.39768, renormalised to  198.00000

     negative rho (up, down):  3.889E-01 0.000E+00

     *
     * You are using vdW-DF for exchange-correlation in this calculation.
     * Please cite the following three references that made this development
     * possible:
     *
     *   M. Dion, H. Rydberg, E. Schroder, D. C. Langreth, and
     *   B. I. Lundqvist, Phys. Rev. Lett. 92, 246401 (2004).
     *
     *   T. Thonhauser, V. R. Cooper, S. Li, A. Puzder, P. Hyldgaard, and
     *   D. C. Langreth, Phys. Rev. B 76, 125112 (2007).
     *
     *   G. Roman-Perez and J. M. Soler, Phys. Rev. Lett. 103, 096102 (2009).
     *
     *
     * If you are using vdW-DF2, please also cite:
     *
     *   K. Lee, E. D. Murray, L. Kong, B. I. Lundqvist, and
     *   D. C. Langreth, Phys. Rev. B 82, 081101(R) (2010).
     *
     *
     * If you are calculating the stress with vdW-DF, please also cite:
     *
     *   R. Sabatini, E. Kucukbenli, B. Kolb, T. Thonhauser, and
     *   S. de Gironcoli, J. Phys.: Condens. Matter 24, 424209 (2012).
     *

     Carrying out vdW-DF run using the following parameters:

     Nqs =      20    Nr_points =    1024   r_max =   100.000
     q_mesh =
               0.00001000     0.04494208     0.09755937     0.15916263
               0.23128650     0.31572767     0.41458969     0.53033537
               0.66584808     0.82450364     1.01025438     1.22772762
               1.48234092     1.78043706     2.12944203     2.53805004
               3.01644009     3.57652955     4.23227104     5.00000000

     Gradients computed in reciprocal space

     Adding external electric field

     Computed dipole along edir(3) :
        Dipole                0.0000 Ry au,          0.0000 Debye
        Dipole field          0.0000 Ry au

        Potential amp.       -0.0000 Ry
        Total length         45.4323 bohr

     Starting wfc are  156 randomized atomic wfcs

     Self-consistent Calculation

     iteration #  1     ecut=    36.75 Ry     beta=0.10
     Davidson diagonalization with overlap
     ethr =  1.00E-02,  avg # of iterations =  7.5

[...]

     total energy              =   -2741.29481180 Ry
     Harris-Foulkes estimate   =   -2743.47144941 Ry
     estimated scf accuracy    <      12.54964686 Ry

[...]

     End of self-consistent calculation

          k = 0.0000 0.0000 0.0000 ( 18011 PWs)   bands (ev):

   -90.7077 -90.6929 -90.3396 -90.3395 -90.3247 -90.3246 -72.6847 -72.6168
   -72.6035 -72.5965 -72.5371 -72.5301 -54.2886 -54.2041 -54.1871 -54.1745
   -54.1575 -54.1084 -53.9321 -53.9320 -53.8316 -53.8294 -53.8149 -53.8127
   -53.7775 -53.7688 -53.7612 -53.7529 -53.7521 -53.7519 -37.2251 -37.0661
   -36.9937 -36.9850 -36.9482 -36.8487 -36.7799 -36.7421 -36.7281 -36.7018
   -36.6763 -36.6253 -36.5985 -36.3788 -36.2888 -36.2672 -36.0511 -36.0466
    -5.9246  -4.5857  -4.5202  -4.4730  -4.4464  -4.4320  -4.1486  -4.0494
    -3.9597  -3.9166  -3.8970  -3.8757  -3.7235  -3.6288  -3.3636  -3.2459
    -3.1486  -3.1314  -2.9227  -2.7427  -2.5835  -2.4394  -2.3899  -2.3854
    -2.2792  -2.1236  -2.0164  -1.8827  -1.8736  -1.7152  -1.5054  -1.2844
    -1.0512  -1.0415  -0.9752  -0.5479  -0.3621  -0.2198  -0.2110  -0.0766
     0.2404   0.2710   0.7759   1.1020   1.1916   1.4111   1.5365   1.6196
     1.7009   2.2997   2.3451   2.3866   2.5670   2.6517   3.2868   3.2954
     3.3343   3.4930   3.5630   3.6324   3.7048   4.0515   4.5182   4.5858
     4.6037   4.8339   4.8942   5.2536   5.3020   5.4147   5.7759   6.1009
     6.1673   6.2608   6.8134   6.8322   6.9478   7.0705   7.7248   8.3259
     8.3307

[...]

          k =-0.0926-0.0468 0.0000 ( 18066 PWs)   bands (ev):

[...]

     the Fermi energy is     1.8757 ev

!    total energy              =   -2741.73855487 Ry
     Harris-Foulkes estimate   =   -2741.73855615 Ry
     estimated scf accuracy    <       0.00000057 Ry

     The total energy is the sum of the following terms:

     one-electron contribution =  -20589.31412076 Ry
     hartree contribution      =   10280.13917211 Ry
     xc contribution           =    -435.24641449 Ry
     ewald contribution        =    8002.75184677 Ry
     electric field correction =       0.00000000 Ry
     smearing contrib. (-TS)   =      -0.06903851 Ry

     convergence has been achieved in  16 iterations

 BEEF-vdW xc energy contributions
           1 :   -380.744980274700
           2 :    349.548077709844
           3 :   -295.630411657139
           4 :    232.463813650127
[...]

[...]

     Found symmetry operation: I + ( -0.5000  0.0000  0.0000)
     This is a supercell, fractional translations are disabled

[...]

     iteration # 11     ecut=    36.75 Ry     beta=0.10
     Davidson diagonalization with overlap
     c_bands:  1 eigenvalues not converged
     ethr =  8.50E-07,  avg # of iterations =  2.9

[...]

     Program PWSCF v.5.1rc2 (svn rev. 11289) starts on 18Dec2018 at 19:18:29

     Current dimensions of program PWSCF are:
     Max number of different atomic species (ntypx) = 10
     Max number of k-points (npk) =  40000
     Max angular momentum in pseudopotentials (lmaxx) =  3
     Presently stress not available with electric field

     IMPORTANT: XC functional enforced from input :
     Exchange-correlation      = BEEF-VDW ( 1  4 27 13 2)
     Any further DFT definition will be discarded
     Please, verify this is what you really want

     Subspace diagonalization in iterative solution of the eigenvalue problem:
     a serial algorithm will be used

     bravais-lattice index     =            0
     lattice parameter (alat)  =       1.8897  a.u.
     unit-cell volume          =    4796.4104 (a.u.)^3
     number of atoms/cell      =           12
     number of atomic types    =            2
     number of electrons       =       198.00
     number of Kohn-Sham states=          129
     kinetic-energy cutoff     =      36.7493  Ry
     charge density cutoff     =     367.4932  Ry
     convergence threshold     =      1.0E-06
     mixing beta               =       0.1000
     number of iterations used =           10  plain     mixing
     Exchange-correlation      = BEEF-VDW ( 1  4 27 13 2)
     nstep                     =           50

     celldm(1)=   1.889726  celldm(2)=   0.000000  celldm(3)=   0.000000
     celldm(4)=   0.000000  celldm(5)=   0.000000  celldm(6)=   0.000000

     crystal axes: (cart. coord. in units of alat)
               a(1) = (   5.399750   0.000000   0.000000 )
               a(2) = (  -2.699875   5.338081   0.000000 )
               a(3) = (   0.000000   0.000000  24.658173 )

     reciprocal axes: (cart. coord. in units 2 pi/alat)
               b(1) = (  0.185194  0.093667  0.000000 )
               b(2) = (  0.000000  0.187333  0.000000 )
               b(3) = (  0.000000  0.000000  0.040555 )

     PseudoPot. # 1 for Ag read from file:
     /afs/slac.stanford.edu/u/if/mamunm/psp/gbrv1.5pbe/Ag.UPF
     MD5 check sum: d66d668201baa78d5eb5b04ef7011058
     Pseudo is Ultrasoft + core correction, Zval = 19.0
     Generated by new atomic code, or converted to UPF format
     Using radial grid of  887 points,  6 beta functions with:
                l(1) =   0
                l(2) =   0
                l(3) =   1
                l(4) =   1
                l(5) =   2
                l(6) =   2
     Q(r) pseudized with  6 coefficients,  rinner =    1.300   1.300   1.300
                                                       1.300   1.300

     PseudoPot. # 2 for W  read from file:
     /afs/slac.stanford.edu/u/if/mamunm/psp/gbrv1.5pbe/W.UPF
     MD5 check sum: 9c083fa34c2a2ea0f02f1f893e16e1c8
     Pseudo is Ultrasoft + core correction, Zval = 14.0
     Generated by new atomic code, or converted to UPF format
     Using radial grid of  923 points,  8 beta functions with:
                l(1) =   0
                l(2) =   0
                l(3) =   0
                l(4) =   1
                l(5) =   1
                l(6) =   2
                l(7) =   2
                l(8) =   3
     Q(r) pseudized with  6 coefficients,  rinner =    1.350   1.350   1.350
                                                       1.350   1.350   1.350
                                                       1.350

     vdW kernel table read from file vdW_kernel_table
     MD5 check sum: 095c7af220d748ca6e76c0b4c6cfb241

     atomic species   valence    mass     pseudopotential
        Ag1           19.00   107.86820     Ag( 1.00)
        W1            14.00   183.84000     W ( 1.00)

     No symmetry found

   Cartesian axes

     site n.     atom                  positions (alat units)
         1           Ag1 tau(   1) = (   0.0000000   0.0000000  10.0000000  )
         2           Ag1 tau(   2) = (   2.6998749   0.0000000  10.0000000  )
         3           W1  tau(   3) = (   1.3499375   2.6690407  10.0000000  )
         4           W1  tau(   4) = (  -1.3499375   2.6690407  10.0000000  )
         5           Ag1 tau(   5) = (   2.6998749   1.3655327  12.3290867  )
         6           Ag1 tau(   6) = (   0.0000000   1.3655327  12.3290867  )
         7           W1  tau(   7) = (  -1.3499375   4.0345734  12.3290867  )
         8           W1  tau(   8) = (   1.3499375   4.0345734  12.3290867  )
         9           Ag1 tau(   9) = (   0.0005763   2.6668301  14.8532545  )
        10           Ag1 tau(  10) = (   2.7001324   2.6668308  14.8532553  )
        11           W1  tau(  11) = (   1.3493990   5.2695551  14.5329257  )
        12           W1  tau(  12) = (  -1.3504785   5.2695956  14.5329567  )

     number of k points=    20  Fermi-Dirac smearing, width (Ry)=  0.0110
                       cart. coord. in units 2pi/alat
        k(    1) = (   0.0000000   0.0000000   0.0000000), wk =   0.0555556
        k(    2) = (   0.0000000   0.0312222   0.0000000), wk =   0.1111111
        k(    3) = (   0.0000000   0.0624444   0.0000000), wk =   0.1111111
        k(    4) = (   0.0000000  -0.0936666   0.0000000), wk =   0.0555556
        k(    5) = (   0.0308656   0.0156111   0.0000000), wk =   0.1111111
        k(    6) = (   0.0308656   0.0468333   0.0000000), wk =   0.1111111
        k(    7) = (   0.0308656   0.0780555   0.0000000), wk =   0.1111111
        k(    8) = (   0.0308656  -0.0780555   0.0000000), wk =   0.1111111
        k(    9) = (   0.0308656  -0.0468333   0.0000000), wk =   0.1111111
        k(   10) = (   0.0308656  -0.0156111   0.0000000), wk =   0.1111111
        k(   11) = (   0.0617313   0.0312222   0.0000000), wk =   0.1111111
        k(   12) = (   0.0617313   0.0624444   0.0000000), wk =   0.1111111
        k(   13) = (   0.0617313   0.0936666   0.0000000), wk =   0.1111111
        k(   14) = (   0.0617313  -0.0624444   0.0000000), wk =   0.1111111
        k(   15) = (   0.0617313  -0.0312222   0.0000000), wk =   0.1111111
        k(   16) = (   0.0617313   0.0000000   0.0000000), wk =   0.1111111
        k(   17) = (  -0.0925969  -0.0468333   0.0000000), wk =   0.0555556
        k(   18) = (  -0.0925969  -0.0156111   0.0000000), wk =   0.1111111
        k(   19) = (  -0.0925969   0.0156111   0.0000000), wk =   0.1111111
        k(   20) = (  -0.0925969  -0.1404999   0.0000000), wk =   0.0555556

     Largest allocated arrays     est. size (Mb)     dimensions
     Largest temporary arrays     est. size (Mb)     dimensions

     Initial potential from superposition of free atoms
     Check: negative starting charge=   -0.382113

     starting charge  194.39768, renormalised to  198.00000

[...]

     *
     * You are using vdW-DF for exchange-correlation in this calculation.
     * Please cite the following three references that made this development
     * possible:
     *
     *   M. Dion, H. Rydberg, E. Schroder, D. C. Langreth, and
     *   B. I. Lundqvist, Phys. Rev. Lett. 92, 246401 (2004).
     *
     *   T. Thonhauser, V. R. Cooper, S. Li, A. Puzder, P. Hyldgaard, and
     *   D. C. Langreth, Phys. Rev. B 76, 125112 (2007).
     *
     *   G. Roman-Perez and J. M. Soler, Phys. Rev. Lett. 103, 096102 (2009).
     *
     *
     * If you are using vdW-DF2, please also cite:
     *
     *   K. Lee, E. D. Murray, L. Kong, B. I. Lundqvist, and
     *   D. C. Langreth, Phys. Rev. B 82, 081101(R) (2010).
     *
     *
     * If you are calculating the stress with vdW-DF, please also cite:
     *
     *   R. Sabatini, E. Kucukbenli, B. Kolb, T. Thonhauser, and
     *   S. de Gironcoli, J. Phys.: Condens. Matter 24, 424209 (2012).
     *

     Carrying out vdW-DF run using the following parameters:

     Nqs =      20    Nr_points =    1024   r_max =   100.000
     q_mesh =
               0.00001000     0.04494208     0.09755937     0.15916263
               0.23128650     0.31572767     0.41458969     0.53033537
               0.66584808     0.82450364     1.01025438     1.22772762
               1.48234092     1.78043706     2.12944203     2.53805004
               3.01644009     3.57652955     4.23227104     5.00000000

     Gradients computed in reciprocal space

[...]

     Starting wfc are  156 randomized atomic wfcs

     Self-consistent Calculation

[...]

     total energy              =   -2741.76268575 Ry
     Harris-Foulkes estimate   =   -2741.76268580 Ry
     estimated scf accuracy    <       0.00000185 Ry

     iteration # 17     ecut=    36.75 Ry     beta=0.10
     Davidson diagonalization with overlap
     ethr =  9.32E-10,  avg # of iterations =  2.0

[...]

     negative rho (up, down):  3.948E-01 0.000E+00

     Adding external electric field

     Computed dipole along edir(3) :
        Dipole               -0.0113 Ry au,         -0.0288 Debye
        Dipole field         -0.0000 Ry au

        Potential amp.        0.0027 Ry
        Total length         45.4323 bohr

     End of self-consistent calculation

[...]

          k = 0.0617 0.0000 0.0000 ( 18052 PWs)   bands (ev):

[...]

          k =-0.0926-0.1405 0.0000 ( 18066 PWs)   bands (ev):

   -90.7255 -90.7255 -90.3854 -90.3854 -90.1304 -90.1303 -72.6554 -72.6554
   -72.6214 -72.6214 -72.4846 -72.4846 -54.2287 -54.2287 -54.2174 -54.2174
   -54.1842 -54.1842 -53.8972 -53.8972 -53.8745 -53.8745 -53.8174 -53.8174
   -53.6604 -53.6602 -53.6310 -53.6309 -53.5437 -53.5437 -37.1660 -37.1659
   -36.8050 -36.8050 -36.7806 -36.7805 -36.7636 -36.7636 -36.7043 -36.7043
   -36.5883 -36.5883 -36.5874 -36.5874 -36.5019 -36.5019 -36.1889 -36.1889
    -4.3357  -4.3357  -3.8383  -3.8383  -3.7356  -3.7355  -3.6542  -3.6541
    -3.4534  -3.4534  -3.3077  -3.3076  -3.1925  -3.1923  -2.8890  -2.8889
    -2.8777  -2.8775  -2.7210  -2.7207  -2.6407  -2.6404  -2.5902  -2.5900
    -2.4268  -2.4263  -2.3189  -2.3186  -2.2320  -2.2319  -2.1211  -2.1205
    -1.5545  -1.5542  -1.1091  -1.1091  -0.3970  -0.3969  -0.1175  -0.1174
     0.2861   0.2862   0.6093   0.6094   1.1940   1.1941   1.3808   1.3808
     1.4863   1.4864   1.7443   1.7443   1.8221   1.8223   2.0329   2.0329
     2.2290   2.2290   2.9036   2.9036   3.6495   3.6496   3.9950   3.9951
     4.5527   4.5527   4.6461   4.6461   5.0271   5.0271   6.1086   6.1087
     6.8128   6.8129   7.6085   7.6086   8.0993   8.0993   8.3483   8.3483
     8.7500

     the Fermi energy is     1.8524 ev

!    total energy              =   -2741.76268482 Ry
     Harris-Foulkes estimate   =   -2741.76268604 Ry
     estimated scf accuracy    <       0.00000048 Ry

     The total energy is the sum of the following terms:

     one-electron contribution =  -20411.88596625 Ry
     hartree contribution      =   10191.54877059 Ry
     xc contribution           =    -435.35335805 Ry
     ewald contribution        =    7913.99442979 Ry
     electric field correction =       0.00000034 Ry
     smearing contrib. (-TS)   =      -0.06656124 Ry

     convergence has been achieved in  17 iterations

 BEEF-vdW xc energy contributions
           1 :   -380.841164062048
           2 :    349.617891900996
           3 :   -295.670264350402
           4 :    232.489614997163
           5 :   -173.505228461338
           6 :    127.745794057902
           7 :   -97.8529392195322
           8 :    80.8692124636137
           9 :   -71.0030342465504
          10 :    62.8201023237510
          11 :   -53.3930141510745
          12 :    42.6914290888191
          13 :   -32.4830432096271
          14 :    24.6698924063680
          15 :   -20.0519843398984
          16 :    18.0441021731986
          17 :   -17.2488301401731
          18 :    16.3545997218280
          19 :   -14.7829911524778
          20 :    12.7758190677287
          21 :   -10.9969805365776
          22 :    9.98042841575744
          23 :   -9.77999324630139
          24 :    9.98792813574050
          25 :   -10.0444757642542
          26 :    9.60098387008907
          27 :   -8.70792635486725
          28 :    7.73472560660173
          29 :   -7.10256746581365
          30 :    7.01262550234679
          31 :   -35.8529486728362
          32 :   -26.5604465672869

     Forces acting on atoms (Ry/au):

     negative rho (up, down):  3.948E-01 0.000E+00
     atom    1 type  1   force =    -0.00000497   -0.01211994   -0.03142036
     atom    2 type  1   force =    -0.00000535   -0.01211995   -0.03142039
     atom    3 type  2   force =    -0.00002374    0.01627844    0.03527307
     atom    4 type  2   force =    -0.00002403    0.01628058    0.03527388
     atom    5 type  1   force =     0.00002925    0.01340104    0.01037313
     atom    6 type  1   force =     0.00002697    0.01340086    0.01037321
     atom    7 type  2   force =     0.00004601   -0.01751028   -0.01451863
     atom    8 type  2   force =     0.00004580   -0.01751409   -0.01453385
     atom    9 type  1   force =    -0.00017223   -0.00132689    0.00030376
     atom   10 type  1   force =     0.00005221   -0.00132762    0.00030372
     atom   11 type  2   force =     0.00001503    0.00129090    0.00000488
     atom   12 type  2   force =     0.00001505    0.00126694   -0.00001240

     Total force =     0.083087     Total SCF correction =     0.003397

     entering subroutine stress ...

     negative rho (up, down):  3.948E-01 0.000E+00
          total   stress  (Ry/bohr**3)                   (kbar)     P=  -20.05
  -0.00018131   0.00000000  -0.00000004        -26.67      0.00     -0.01
   0.00000000  -0.00017132  -0.00000841          0.00    -25.20     -1.24
  -0.00000004  -0.00000841  -0.00005621         -0.01     -1.24     -8.27

 !ASE

     Writing output data file calc.save

     General routines

     Parallel routines

   This run was terminated on:  19:36:52  18Dec2018

   JOB DONE.
Job  /afs/slac/g/suncat/bin/suncat-tsmpirun -x LD_LIBRARY_PATH -wdir /scratch/qe529568_HdOAK pw.x -in pw.inp

TID   HOST_NAME   COMMAND_LINE            STATUS            TERMINATION_TIME
00000 suncat0032 pw.x -in pw.inp   Done                     12/18/2018 19:36:52
00001 suncat0032 pw.x -in pw.inp   Done                     12/18/2018 19:36:52
00002 suncat0032 pw.x -in pw.inp   Done                     12/18/2018 19:36:52
00003 suncat0032 pw.x -in pw.inp   Done                     12/18/2018 19:36:52
00004 suncat0032 pw.x -in pw.inp   Done                     12/18/2018 19:36:52
00005 suncat0032 pw.x -in pw.inp   Done                     12/18/2018 19:36:52
00006 suncat0032 pw.x -in pw.inp   Done                     12/18/2018 19:36:52
00007 suncat0032 pw.x -in pw.inp   Done                     12/18/2018 19:36:52
00008 suncat0031 pw.x -in pw.inp   Done                     12/18/2018 19:36:52
00009 suncat0031 pw.x -in pw.inp   Done                     12/18/2018 19:36:52
00010 suncat0031 pw.x -in pw.inp   Done                     12/18/2018 19:36:52
00011 suncat0031 pw.x -in pw.inp   Done                     12/18/2018 19:36:52
00012 suncat0031 pw.x -in pw.inp   Done                     12/18/2018 19:36:52
00013 suncat0031 pw.x -in pw.inp   Done                     12/18/2018 19:36:52
00014 suncat0031 pw.x -in pw.inp   Done                     12/18/2018 19:36:52
00015 suncat0031 pw.x -in pw.inp   Done                     12/18/2018 19:36:52
00016 suncat0030 pw.x -in pw.inp   Done                     12/18/2018 19:36:52
00017 suncat0030 pw.x -in pw.inp   Done                     12/18/2018 19:36:52
00018 suncat0030 pw.x -in pw.inp   Done                     12/18/2018 19:36:52
00019 suncat0030 pw.x -in pw.inp   Done                     12/18/2018 19:36:52
00020 suncat0030 pw.x -in pw.inp   Done                     12/18/2018 19:36:52
00021 suncat0030 pw.x -in pw.inp   Done                     12/18/2018 19:36:52
00022 suncat0030 pw.x -in pw.inp   Done                     12/18/2018 19:36:52
00023 suncat0030 pw.x -in pw.inp   Done                     12/18/2018 19:36:52
00024 suncat0029 pw.x -in pw.inp   Done                     12/18/2018 19:36:52
00025 suncat0029 pw.x -in pw.inp   Done                     12/18/2018 19:36:52
00026 suncat0029 pw.x -in pw.inp   Done                     12/18/2018 19:36:52
00027 suncat0029 pw.x -in pw.inp   Done                     12/18/2018 19:36:52
00028 suncat0029 pw.x -in pw.inp   Done                     12/18/2018 19:36:52
00029 suncat0029 pw.x -in pw.inp   Done                     12/18/2018 19:36:52
00030 suncat0029 pw.x -in pw.inp   Done                     12/18/2018 19:36:52
00031 suncat0029 pw.x -in pw.inp   Done                     12/18/2018 19:36:52