     Program PWSCF v.5.1rc2 (svn rev. 11289) starts on 30Dec2018 at  8:24: 4

     Current dimensions of program PWSCF are:
     Max number of different atomic species (ntypx) = 10
     Max number of k-points (npk) =  40000
     Max angular momentum in pseudopotentials (lmaxx) =  3
     Presently stress not available with electric field

     IMPORTANT: XC functional enforced from input :
     Exchange-correlation      = BEEF-VDW ( 1  4 27 13 2)
     Any further DFT definition will be discarded
     Please, verify this is what you really want

     Subspace diagonalization in iterative solution of the eigenvalue problem:
     a serial algorithm will be used

     bravais-lattice index     =            0
     lattice parameter (alat)  =       1.8897  a.u.
     unit-cell volume          =    5884.8470 (a.u.)^3
     number of atoms/cell      =           12
     number of atomic types    =            2
     number of electrons       =       144.00
     number of Kohn-Sham states=          102
     kinetic-energy cutoff     =      36.7493  Ry
     charge density cutoff     =     367.4932  Ry
     convergence threshold     =      1.0E-06
     mixing beta               =       0.1000
     number of iterations used =           10  plain     mixing
     Exchange-correlation      = BEEF-VDW ( 1  4 27 13 2)
     nstep                     =           50

     celldm(1)=   1.889726  celldm(2)=   0.000000  celldm(3)=   0.000000
     celldm(4)=   0.000000  celldm(5)=   0.000000  celldm(6)=   0.000000

     crystal axes: (cart. coord. in units of alat)
               a(1) = (   6.325669   0.000000   0.000000 )
               a(2) = (  -3.162835   5.478190   0.000000 )
               a(3) = (   0.000000   0.000000  25.164887 )

     reciprocal axes: (cart. coord. in units 2 pi/alat)
               b(1) = (  0.158086  0.091271  0.000000 )
               b(2) = (  0.000000  0.182542  0.000000 )
               b(3) = (  0.000000  0.000000  0.039738 )

     PseudoPot. # 1 for Hg read from file:
     /afs/slac.stanford.edu/u/if/mamunm/psp/gbrv1.5pbe/Hg.UPF
     MD5 check sum: 8f42caffe07f7fd9c0a564347f8c5498
     Pseudo is Ultrasoft + core correction, Zval = 12.0
     Generated by new atomic code, or converted to UPF format
     Using radial grid of  985 points,  6 beta functions with:
                l(1) =   0
                l(2) =   0
                l(3) =   1
                l(4) =   1
                l(5) =   2
                l(6) =   2
     Q(r) pseudized with  8 coefficients,  rinner =    2.000   2.000   2.000
                                                       2.000   2.000

     PseudoPot. # 2 for Hf read from file:
     /afs/slac.stanford.edu/u/if/mamunm/psp/gbrv1.5pbe/Hf.UPF
     MD5 check sum: 8ee9378dfe14276e333edf04c5e4aa26
     Pseudo is Ultrasoft + core correction, Zval = 12.0
     Generated by new atomic code, or converted to UPF format
     Using radial grid of  921 points,  8 beta functions with:
                l(1) =   0
                l(2) =   0
                l(3) =   0
                l(4) =   1
                l(5) =   1
                l(6) =   2
                l(7) =   2
                l(8) =   3
     Q(r) pseudized with  6 coefficients,  rinner =    1.200   1.200   1.200
                                                       1.200   1.200   1.200
                                                       1.200

     vdW kernel table read from file vdW_kernel_table
     MD5 check sum: 095c7af220d748ca6e76c0b4c6cfb241

     atomic species   valence    mass     pseudopotential
        Hg1           12.00   200.59200     Hg( 1.00)
        Hf1           12.00   178.49000     Hf( 1.00)

     No symmetry found

   Cartesian axes

     site n.     atom                  positions (alat units)
         1           Hg1 tau(   1) = (   0.0000000   0.0000000  10.0000000  )
         2           Hg1 tau(   2) = (  -1.5814173   2.7390951  10.0000000  )
         3           Hg1 tau(   3) = (   1.5814173   2.7390951  10.0000000  )
         4           Hf1 tau(   4) = (   3.1628346   0.0000000  10.0000000  )
         5           Hg1 tau(   5) = (   3.1628346   1.8260634  12.5824436  )
         6           Hg1 tau(   6) = (   1.5814173   4.5651585  12.5824436  )
         7           Hg1 tau(   7) = (  -1.5814173   4.5651585  12.5824436  )
         8           Hf1 tau(   8) = (  -0.0000000   1.8260634  12.5824436  )
         9           Hg1 tau(   9) = (  -0.0000000   3.6521268  15.1648873  )
        10           Hg1 tau(  10) = (   1.5814173   0.9130317  15.1648873  )
        11           Hg1 tau(  11) = (   4.7442519   0.9130317  15.1648873  )
        12           Hf1 tau(  12) = (   3.1628346   3.6521268  15.1648873  )

     number of k points=    20  Fermi-Dirac smearing, width (Ry)=  0.0110
                       cart. coord. in units 2pi/alat
        k(    1) = (   0.0000000   0.0000000   0.0000000), wk =   0.0555556
        k(    2) = (   0.0000000   0.0304237   0.0000000), wk =   0.1111111
        k(    3) = (   0.0000000   0.0608473   0.0000000), wk =   0.1111111
        k(    4) = (   0.0000000  -0.0912710   0.0000000), wk =   0.0555556
        k(    5) = (   0.0263477   0.0152118   0.0000000), wk =   0.1111111
        k(    6) = (   0.0263477   0.0456355   0.0000000), wk =   0.1111111
        k(    7) = (   0.0263477   0.0760592   0.0000000), wk =   0.1111111
        k(    8) = (   0.0263477  -0.0760592   0.0000000), wk =   0.1111111
        k(    9) = (   0.0263477  -0.0456355   0.0000000), wk =   0.1111111
        k(   10) = (   0.0263477  -0.0152118   0.0000000), wk =   0.1111111
        k(   11) = (   0.0526953   0.0304237   0.0000000), wk =   0.1111111
        k(   12) = (   0.0526953   0.0608473   0.0000000), wk =   0.1111111
        k(   13) = (   0.0526953   0.0912710   0.0000000), wk =   0.1111111
        k(   14) = (   0.0526953  -0.0608473   0.0000000), wk =   0.1111111
        k(   15) = (   0.0526953  -0.0304237   0.0000000), wk =   0.1111111
        k(   16) = (   0.0526953   0.0000000   0.0000000), wk =   0.1111111
        k(   17) = (  -0.0790430  -0.0456355   0.0000000), wk =   0.0555556
        k(   18) = (  -0.0790430  -0.0152118   0.0000000), wk =   0.1111111
        k(   19) = (  -0.0790430   0.0152118   0.0000000), wk =   0.1111111
        k(   20) = (  -0.0790430  -0.1369065   0.0000000), wk =   0.0555556

     Largest allocated arrays     est. size (Mb)     dimensions
     Largest temporary arrays     est. size (Mb)     dimensions

     Check: negative/imaginary core charge=   -0.000002    0.000000

     Initial potential from superposition of free atoms
     Check: negative starting charge=   -0.325406

     starting charge  137.99947, renormalised to  144.00000

     negative rho (up, down):  3.396E-01 0.000E+00

     *
     * You are using vdW-DF for exchange-correlation in this calculation.
     * Please cite the following three references that made this development
     * possible:
     *
     *   M. Dion, H. Rydberg, E. Schroder, D. C. Langreth, and
     *   B. I. Lundqvist, Phys. Rev. Lett. 92, 246401 (2004).
     *
     *   T. Thonhauser, V. R. Cooper, S. Li, A. Puzder, P. Hyldgaard, and
     *   D. C. Langreth, Phys. Rev. B 76, 125112 (2007).
     *
     *   G. Roman-Perez and J. M. Soler, Phys. Rev. Lett. 103, 096102 (2009).
     *
     *
     * If you are using vdW-DF2, please also cite:
     *
     *   K. Lee, E. D. Murray, L. Kong, B. I. Lundqvist, and
     *   D. C. Langreth, Phys. Rev. B 82, 081101(R) (2010).
     *
     *
     * If you are calculating the stress with vdW-DF, please also cite:
     *
     *   R. Sabatini, E. Kucukbenli, B. Kolb, T. Thonhauser, and
     *   S. de Gironcoli, J. Phys.: Condens. Matter 24, 424209 (2012).
     *

     Carrying out vdW-DF run using the following parameters:

     Nqs =      20    Nr_points =    1024   r_max =   100.000
     q_mesh =
               0.00001000     0.04494208     0.09755937     0.15916263
               0.23128650     0.31572767     0.41458969     0.53033537
               0.66584808     0.82450364     1.01025438     1.22772762
               1.48234092     1.78043706     2.12944203     2.53805004
               3.01644009     3.57652955     4.23227104     5.00000000

     Gradients computed in reciprocal space

     Adding external electric field

     Computed dipole along edir(3) :
        Dipole               -0.0000 Ry au,         -0.0000 Debye
        Dipole field         -0.0000 Ry au

        Potential amp.        0.0000 Ry
        Total length         46.3659 bohr

     Starting wfc are  120 randomized atomic wfcs

     Self-consistent Calculation

     iteration #  1     ecut=    36.75 Ry     beta=0.10
     Davidson diagonalization with overlap
     ethr =  1.00E-02,  avg # of iterations =  8.1

[...]

     total energy              =   -1463.80080317 Ry
     Harris-Foulkes estimate   =   -1465.10582882 Ry
     estimated scf accuracy    <       7.88146250 Ry

[...]

     End of self-consistent calculation

          k = 0.0000 0.0000 0.0000 ( 22135 PWs)   bands (ev):

   -62.7472 -62.7470 -62.7329 -31.3244 -31.3238 -31.2601 -31.1499 -31.1499
   -31.1229 -31.1229 -31.1226 -31.1225  -7.6724  -7.1437  -7.0832  -7.0489
    -7.0197  -7.0135  -7.0132  -6.9233  -6.8770  -6.8770  -6.7814  -6.7811
    -6.7137  -6.6926  -6.6926  -6.3982  -6.3870  -6.3870  -6.2347  -6.1918
    -6.1918  -6.0955  -6.0677  -6.0169  -6.0164  -5.9129  -5.9126  -5.8503
    -5.8503  -5.7884  -5.7882  -5.6813  -5.6100  -5.6100  -5.5561  -5.5561
    -5.5223  -5.5221  -5.4337  -5.3287  -5.3286  -5.2889  -5.1398  -5.1331
    -5.1331  -4.9997  -4.9790  -3.2195  -1.8054  -1.8054  -1.4800  -1.4800
    -0.7618  -0.6058  -0.6058  -0.2757   0.3530   0.3745   0.3745   0.7096
     1.5537   1.6122   1.6122   1.7358   1.7358   2.2601   2.2601   2.4177
     2.4177   2.8419   3.0857   3.2613   3.2613   3.9069   4.1202   4.1202
     4.1289   4.1290   4.2509   4.3996   4.6037   4.6816   4.7462   4.7463
     4.9747   5.9079   6.3011   6.9443   6.9443   7.2910

[...]

          k =-0.0790-0.0456 0.0000 ( 22056 PWs)   bands (ev):

[...]

     the Fermi energy is     1.1403 ev

!    total energy              =   -1463.36595135 Ry
     Harris-Foulkes estimate   =   -1463.36595034 Ry
     estimated scf accuracy    <       0.00000020 Ry

     The total energy is the sum of the following terms:

     one-electron contribution =   -8381.73566434 Ry
     hartree contribution      =    4254.79892752 Ry
     xc contribution           =    -595.68160555 Ry
     ewald contribution        =    3259.31740071 Ry
     electric field correction =       0.00000000 Ry
     smearing contrib. (-TS)   =      -0.06500969 Ry

     convergence has been achieved in  17 iterations

 BEEF-vdW xc energy contributions
           1 :   -528.716559873614
           2 :    488.759030796748
           3 :   -418.626092342226
           4 :    333.964050488371
           5 :   -250.757643875392
           6 :    180.636954461064
           7 :   -128.713030973999
           8 :    94.1341458132619
           9 :   -72.4583853382991
          10 :    58.4142436208236
          11 :   -47.8954380599806
          12 :    38.6752030922476
[...]
     MD5 check sum: 8f42caffe07f7fd9c0a564347f8c5498
     Pseudo is Ultrasoft + core correction, Zval = 12.0
     Generated by new atomic code, or converted to UPF format
     Using radial grid of  985 points,  6 beta functions with:
                l(1) =   0
                l(2) =   0
                l(3) =   1
                l(4) =   1
                l(5) =   2
                l(6) =   2
     Q(r) pseudized with  8 coefficients,  rinner =    2.000   2.000   2.000
                                                       2.000   2.000

     PseudoPot. # 2 for Hf read from file:
     /afs/slac.stanford.edu/u/if/mamunm/psp/gbrv1.5pbe/Hf.UPF
     MD5 check sum: 8ee9378dfe14276e333edf04c5e4aa26
     Pseudo is Ultrasoft + core correction, Zval = 12.0
     Generated by new atomic code, or converted to UPF format
     Using radial grid of  921 points,  8 beta functions with:
                l(1) =   0
                l(2) =   0
                l(3) =   0
                l(4) =   1
                l(5) =   1
                l(6) =   2
                l(7) =   2
                l(8) =   3
     Q(r) pseudized with  6 coefficients,  rinner =    1.200   1.200   1.200
                                                       1.200   1.200   1.200
                                                       1.200

     vdW kernel table read from file vdW_kernel_table
     MD5 check sum: 095c7af220d748ca6e76c0b4c6cfb241

     atomic species   valence    mass     pseudopotential
        Hg1           12.00   200.59200     Hg( 1.00)
        Hf1           12.00   178.49000     Hf( 1.00)

     No symmetry found

   Cartesian axes

     site n.     atom                  positions (alat units)
         1           Hg1 tau(   1) = (   0.0000000   0.0000000  10.0000000  )
         2           Hg1 tau(   2) = (  -1.5814173   2.7390951  10.0000000  )
         3           Hg1 tau(   3) = (   1.5814173   2.7390951  10.0000000  )
         4           Hf1 tau(   4) = (   3.1628346   0.0000000  10.0000000  )
         5           Hg1 tau(   5) = (   3.1628346   1.8260634  12.5824436  )
         6           Hg1 tau(   6) = (   1.5814173   4.5651585  12.5824436  )
         7           Hg1 tau(   7) = (  -1.5814173   4.5651585  12.5824436  )
         8           Hf1 tau(   8) = (  -0.0000000   1.8260634  12.5824436  )
         9           Hg1 tau(   9) = (   0.0000186   3.6535716  15.4446230  )
        10           Hg1 tau(  10) = (   1.5827033   0.9122520  15.4446433  )
        11           Hg1 tau(  11) = (   4.7429652   0.9122173  15.4446663  )
        12           Hf1 tau(  12) = (   3.1628565   3.6522986  14.8938693  )

     number of k points=    20  Fermi-Dirac smearing, width (Ry)=  0.0110
                       cart. coord. in units 2pi/alat
        k(    1) = (   0.0000000   0.0000000   0.0000000), wk =   0.0555556
        k(    2) = (   0.0000000   0.0304237   0.0000000), wk =   0.1111111
        k(    3) = (   0.0000000   0.0608473   0.0000000), wk =   0.1111111
        k(    4) = (   0.0000000  -0.0912710   0.0000000), wk =   0.0555556
        k(    5) = (   0.0263477   0.0152118   0.0000000), wk =   0.1111111
        k(    6) = (   0.0263477   0.0456355   0.0000000), wk =   0.1111111
        k(    7) = (   0.0263477   0.0760592   0.0000000), wk =   0.1111111
        k(    8) = (   0.0263477  -0.0760592   0.0000000), wk =   0.1111111
        k(    9) = (   0.0263477  -0.0456355   0.0000000), wk =   0.1111111
        k(   10) = (   0.0263477  -0.0152118   0.0000000), wk =   0.1111111
        k(   11) = (   0.0526953   0.0304237   0.0000000), wk =   0.1111111
        k(   12) = (   0.0526953   0.0608473   0.0000000), wk =   0.1111111
        k(   13) = (   0.0526953   0.0912710   0.0000000), wk =   0.1111111
        k(   14) = (   0.0526953  -0.0608473   0.0000000), wk =   0.1111111
        k(   15) = (   0.0526953  -0.0304237   0.0000000), wk =   0.1111111
        k(   16) = (   0.0526953   0.0000000   0.0000000), wk =   0.1111111
        k(   17) = (  -0.0790430  -0.0456355   0.0000000), wk =   0.0555556
        k(   18) = (  -0.0790430  -0.0152118   0.0000000), wk =   0.1111111
        k(   19) = (  -0.0790430   0.0152118   0.0000000), wk =   0.1111111
        k(   20) = (  -0.0790430  -0.1369065   0.0000000), wk =   0.0555556

     Largest allocated arrays     est. size (Mb)     dimensions
     Largest temporary arrays     est. size (Mb)     dimensions

     Check: negative/imaginary core charge=   -0.000002    0.000000

     Initial potential from superposition of free atoms
     Check: negative starting charge=   -0.324364

     starting charge  137.99947, renormalised to  144.00000

[...]

     *
     * You are using vdW-DF for exchange-correlation in this calculation.
     * Please cite the following three references that made this development
     * possible:
     *
     *   M. Dion, H. Rydberg, E. Schroder, D. C. Langreth, and
     *   B. I. Lundqvist, Phys. Rev. Lett. 92, 246401 (2004).
     *
     *   T. Thonhauser, V. R. Cooper, S. Li, A. Puzder, P. Hyldgaard, and
     *   D. C. Langreth, Phys. Rev. B 76, 125112 (2007).
     *
     *   G. Roman-Perez and J. M. Soler, Phys. Rev. Lett. 103, 096102 (2009).
     *
     *
     * If you are using vdW-DF2, please also cite:
     *
     *   K. Lee, E. D. Murray, L. Kong, B. I. Lundqvist, and
     *   D. C. Langreth, Phys. Rev. B 82, 081101(R) (2010).
     *
     *
     * If you are calculating the stress with vdW-DF, please also cite:
     *
     *   R. Sabatini, E. Kucukbenli, B. Kolb, T. Thonhauser, and
     *   S. de Gironcoli, J. Phys.: Condens. Matter 24, 424209 (2012).
     *

     Carrying out vdW-DF run using the following parameters:

     Nqs =      20    Nr_points =    1024   r_max =   100.000
     q_mesh =
               0.00001000     0.04494208     0.09755937     0.15916263
               0.23128650     0.31572767     0.41458969     0.53033537
               0.66584808     0.82450364     1.01025438     1.22772762
               1.48234092     1.78043706     2.12944203     2.53805004
               3.01644009     3.57652955     4.23227104     5.00000000

     Gradients computed in reciprocal space

[...]

     Starting wfc are  120 randomized atomic wfcs

     Self-consistent Calculation

[...]

     total energy              =   -1463.39110937 Ry
     Harris-Foulkes estimate   =   -1463.39110912 Ry
     estimated scf accuracy    <       0.00000426 Ry

     iteration # 17     ecut=    36.75 Ry     beta=0.10
     Davidson diagonalization with overlap
     ethr =  2.96E-09,  avg # of iterations =  2.5

[...]

     negative rho (up, down):  3.432E-01 0.000E+00

     Adding external electric field

     Computed dipole along edir(3) :
        Dipole               -0.0919 Ry au,         -0.2336 Debye
        Dipole field         -0.0002 Ry au

        Potential amp.        0.0182 Ry
        Total length         46.3659 bohr

     End of self-consistent calculation

[...]

          k = 0.0527 0.0000 0.0000 ( 22147 PWs)   bands (ev):

[...]

          k =-0.0790-0.1369 0.0000 ( 22056 PWs)   bands (ev):

   -62.8850 -62.7763 -62.6435 -31.4111 -31.3484 -31.2815 -31.2809 -31.1833
   -31.1633 -31.1626 -31.0567 -31.0563  -7.0312  -6.8666  -6.8346  -6.7095
    -6.6963  -6.6542  -6.6474  -6.5898  -6.5813  -6.5573  -6.5554  -6.4747
    -6.4690  -6.3450  -6.3328  -6.2682  -6.2636  -6.2272  -6.2141  -6.1067
    -6.0945  -6.0800  -5.9981  -5.9893  -5.9765  -5.9740  -5.9572  -5.9317
    -5.9160  -5.9057  -5.8869  -5.8615  -5.8318  -5.8143  -5.7963  -5.7845
    -5.7509  -5.6974  -5.6877  -5.6056  -5.5565  -5.5432  -5.4729  -5.4271
    -5.3803  -5.2715  -5.1624  -4.3331  -4.0611  -3.1930  -2.4451  -2.3327
    -1.4981  -1.4463  -0.7317  -0.2895   0.3250   0.7804   0.8596   0.9784
     1.1179   1.2767   1.5131   1.5813   1.8753   2.0650   2.5556   2.7415
     3.2001   3.2171   3.4892   3.5475   3.7438   3.8960   4.2235   4.6609
     4.8343   4.9903   5.1220   5.2035   5.4273   5.6724   5.6784   5.7851
     5.9928   6.0364   6.2037   6.3271   6.8064   6.8530

     the Fermi energy is     1.0660 ev

!    total energy              =   -1463.39111109 Ry
     Harris-Foulkes estimate   =   -1463.39111038 Ry
     estimated scf accuracy    <       0.00000096 Ry

     The total energy is the sum of the following terms:

     one-electron contribution =   -8201.71852442 Ry
     hartree contribution      =    4164.67844276 Ry
     xc contribution           =    -595.62769781 Ry
     ewald contribution        =    3169.34633716 Ry
     electric field correction =       0.00001804 Ry
     smearing contrib. (-TS)   =      -0.06968682 Ry

     convergence has been achieved in  17 iterations

 BEEF-vdW xc energy contributions
           1 :   -528.693053158276
           2 :    488.645479639942
           3 :   -418.417258653268
           4 :    333.745917985266
           5 :   -250.639885860130
           6 :    180.674244821886
           7 :   -128.865810178585
           8 :    94.2894155097017
           9 :   -72.4987327954120
          10 :    58.2940366085209
          11 :   -47.6730098607204
          12 :    38.4773988722042
          13 :   -30.0078147837319
          14 :    22.2344465286292
          15 :   -15.1898271315988
          16 :    8.77022256929854
          17 :   -2.85326787969916
          18 :   -2.51819075161075
          19 :    7.06166380544744
          20 :   -10.3430220572839
          21 :    11.9662119987876
          22 :   -11.7819662458481
          23 :    10.0301039417827
          24 :   -7.36033773170084
          25 :    4.69731342090972
          26 :   -2.97119161987416
          27 :    2.79202056223585
          28 :   -4.20581067315436
          29 :    6.65730249320302
          30 :   -9.20724196517017
          31 :   -44.6886457579787
          32 :   -32.6667979841645

     Forces acting on atoms (Ry/au):

     negative rho (up, down):  3.432E-01 0.000E+00
     atom    1 type  1   force =    -0.00000047   -0.00075738   -0.01469057
     atom    2 type  1   force =    -0.00065861    0.00038032   -0.01468536
     atom    3 type  1   force =     0.00066051    0.00038237   -0.01468638
     atom    4 type  2   force =    -0.00000030   -0.00000865    0.02712384
     atom    5 type  1   force =    -0.00000271   -0.01362779    0.00284816
     atom    6 type  1   force =    -0.01181278    0.00682003    0.00283798
     atom    7 type  1   force =     0.01181385    0.00682518    0.00283574
     atom    8 type  2   force =    -0.00000017   -0.00001025    0.00685479
     atom    9 type  1   force =    -0.00000242   -0.00010215    0.00065677
     atom   10 type  1   force =    -0.00008156    0.00006006    0.00066262
     atom   11 type  1   force =     0.00008304    0.00006332    0.00066210
     atom   12 type  2   force =     0.00000163   -0.00002505   -0.00041970

     Total force =     0.044891     Total SCF correction =     0.001946

     entering subroutine stress ...

     negative rho (up, down):  3.432E-01 0.000E+00
          total   stress  (Ry/bohr**3)                   (kbar)     P=   -5.46
  -0.00005927   0.00000000  -0.00000000         -8.72      0.00     -0.00
   0.00000000  -0.00005934  -0.00000001          0.00     -8.73     -0.00
  -0.00000000  -0.00000001   0.00000733         -0.00     -0.00      1.08

 !ASE

     Writing output data file calc.save

     General routines

     Parallel routines

   This run was terminated on:  11:24:12  30Dec2018

   JOB DONE.
Job  /afs/slac/g/suncat/bin/suncat-tsmpirun -x LD_LIBRARY_PATH -wdir /scratch/qe648489_zZ8pu pw.x -in pw.inp

TID   HOST_NAME   COMMAND_LINE            STATUS            TERMINATION_TIME
00000 suncat0060 pw.x -in pw.inp   Done                     12/30/2018 11:24:12
00001 suncat0060 pw.x -in pw.inp   Done                     12/30/2018 11:24:12
00002 suncat0060 pw.x -in pw.inp   Done                     12/30/2018 11:24:12
00003 suncat0060 pw.x -in pw.inp   Done                     12/30/2018 11:24:12
00004 suncat0060 pw.x -in pw.inp   Done                     12/30/2018 11:24:12
00005 suncat0060 pw.x -in pw.inp   Done                     12/30/2018 11:24:12
00006 suncat0060 pw.x -in pw.inp   Done                     12/30/2018 11:24:12
00007 suncat0060 pw.x -in pw.inp   Done                     12/30/2018 11:24:12
00008 suncat0164 pw.x -in pw.inp   Done                     12/30/2018 11:24:12
00009 suncat0164 pw.x -in pw.inp   Done                     12/30/2018 11:24:12
00010 suncat0164 pw.x -in pw.inp   Done                     12/30/2018 11:24:12
00011 suncat0164 pw.x -in pw.inp   Done                     12/30/2018 11:24:12
00012 suncat0164 pw.x -in pw.inp   Done                     12/30/2018 11:24:12
00013 suncat0164 pw.x -in pw.inp   Done                     12/30/2018 11:24:12
00014 suncat0164 pw.x -in pw.inp   Done                     12/30/2018 11:24:12
00015 suncat0164 pw.x -in pw.inp   Done                     12/30/2018 11:24:12
00016 suncat0159 pw.x -in pw.inp   Done                     12/30/2018 11:24:12
00017 suncat0159 pw.x -in pw.inp   Done                     12/30/2018 11:24:12
00018 suncat0159 pw.x -in pw.inp   Done                     12/30/2018 11:24:12
00019 suncat0159 pw.x -in pw.inp   Done                     12/30/2018 11:24:12
00020 suncat0159 pw.x -in pw.inp   Done                     12/30/2018 11:24:12
00021 suncat0159 pw.x -in pw.inp   Done                     12/30/2018 11:24:12
00022 suncat0159 pw.x -in pw.inp   Done                     12/30/2018 11:24:12
00023 suncat0159 pw.x -in pw.inp   Done                     12/30/2018 11:24:12
00024 suncat0155 pw.x -in pw.inp   Done                     12/30/2018 11:24:12
00025 suncat0155 pw.x -in pw.inp   Done                     12/30/2018 11:24:12
00026 suncat0155 pw.x -in pw.inp   Done                     12/30/2018 11:24:12
00027 suncat0155 pw.x -in pw.inp   Done                     12/30/2018 11:24:12
00028 suncat0155 pw.x -in pw.inp   Done                     12/30/2018 11:24:12
00029 suncat0155 pw.x -in pw.inp   Done                     12/30/2018 11:24:12
00030 suncat0155 pw.x -in pw.inp   Done                     12/30/2018 11:24:12
00031 suncat0155 pw.x -in pw.inp   Done                     12/30/2018 11:24:12
00032 suncat0241 pw.x -in pw.inp   Done                     12/30/2018 11:24:12
00033 suncat0241 pw.x -in pw.inp   Done                     12/30/2018 11:24:12
00034 suncat0241 pw.x -in pw.inp   Done                     12/30/2018 11:24:12
00035 suncat0241 pw.x -in pw.inp   Done                     12/30/2018 11:24:12
00036 suncat0241 pw.x -in pw.inp   Done                     12/30/2018 11:24:12
00037 suncat0241 pw.x -in pw.inp   Done                     12/30/2018 11:24:12
00038 suncat0241 pw.x -in pw.inp   Done                     12/30/2018 11:24:12
00039 suncat0241 pw.x -in pw.inp   Done                     12/30/2018 11:24:12
00040 suncat0240 pw.x -in pw.inp   Done                     12/30/2018 11:24:12
00041 suncat0240 pw.x -in pw.inp   Done                     12/30/2018 11:24:12
00042 suncat0240 pw.x -in pw.inp   Done                     12/30/2018 11:24:12
00043 suncat0240 pw.x -in pw.inp   Done                     12/30/2018 11:24:12
00044 suncat0240 pw.x -in pw.inp   Done                     12/30/2018 11:24:12
00045 suncat0240 pw.x -in pw.inp   Done                     12/30/2018 11:24:12
00046 suncat0240 pw.x -in pw.inp   Done                     12/30/2018 11:24:12
00047 suncat0240 pw.x -in pw.inp   Done                     12/30/2018 11:24:12
00048 suncat0239 pw.x -in pw.inp   Done                     12/30/2018 11:24:12
00049 suncat0239 pw.x -in pw.inp   Done                     12/30/2018 11:24:12
00050 suncat0239 pw.x -in pw.inp   Done                     12/30/2018 11:24:12
00051 suncat0239 pw.x -in pw.inp   Done                     12/30/2018 11:24:12
00052 suncat0239 pw.x -in pw.inp   Done                     12/30/2018 11:24:12
00053 suncat0239 pw.x -in pw.inp   Done                     12/30/2018 11:24:12
00054 suncat0239 pw.x -in pw.inp   Done                     12/30/2018 11:24:12
00055 suncat0239 pw.x -in pw.inp   Done                     12/30/2018 11:24:12
00056 suncat0098 pw.x -in pw.inp   Done                     12/30/2018 11:24:12
00057 suncat0098 pw.x -in pw.inp   Done                     12/30/2018 11:24:12
00058 suncat0098 pw.x -in pw.inp   Done                     12/30/2018 11:24:12
00059 suncat0098 pw.x -in pw.inp   Done                     12/30/2018 11:24:12
00060 suncat0098 pw.x -in pw.inp   Done                     12/30/2018 11:24:12
00061 suncat0098 pw.x -in pw.inp   Done                     12/30/2018 11:24:12
00062 suncat0098 pw.x -in pw.inp   Done                     12/30/2018 11:24:12
00063 suncat0098 pw.x -in pw.inp   Done                     12/30/2018 11:24:12