     Program PWSCF v.5.1rc2 (svn rev. 11289) starts on 19Dec2018 at  6: 9: 7

     Current dimensions of program PWSCF are:
     Max number of different atomic species (ntypx) = 10
     Max number of k-points (npk) =  40000
     Max angular momentum in pseudopotentials (lmaxx) =  3
     Presently stress not available with electric field

     IMPORTANT: XC functional enforced from input :
     Exchange-correlation      = BEEF-VDW ( 1  4 27 13 2)
     Any further DFT definition will be discarded
     Please, verify this is what you really want

     Subspace diagonalization in iterative solution of the eigenvalue problem:
     a serial algorithm will be used

     Found symmetry operation: I + ( -0.5000 -0.5000  0.0000)
     This is a supercell, fractional translations are disabled

     Generating pointlists ...
     new r_m :   0.4125 (alat units)  0.7795 (a.u.) for type    1
     new r_m :   0.4125 (alat units)  0.7795 (a.u.) for type    2

     bravais-lattice index     =            0
     lattice parameter (alat)  =       1.8897  a.u.
     unit-cell volume          =    3685.0593 (a.u.)^3
     number of atoms/cell      =           12
     number of atomic types    =            2
     number of electrons       =       180.00
     number of Kohn-Sham states=          120
     kinetic-energy cutoff     =      36.7493  Ry
     charge density cutoff     =     367.4932  Ry
     convergence threshold     =      1.0E-06
     mixing beta               =       0.1000
     number of iterations used =           10  plain     mixing
     Exchange-correlation      = BEEF-VDW ( 1  4 27 13 2)
     nstep                     =           50

     celldm(1)=   1.889726  celldm(2)=   0.000000  celldm(3)=   0.000000
     celldm(4)=   0.000000  celldm(5)=   0.000000  celldm(6)=   0.000000

     crystal axes: (cart. coord. in units of alat)
               a(1) = (   5.064328   0.000000   0.000000 )
               a(2) = (   2.395766   4.461808   0.000000 )
               a(3) = (   0.000000   0.000000  24.166579 )

     reciprocal axes: (cart. coord. in units 2 pi/alat)
               b(1) = (  0.197460 -0.106026  0.000000 )
               b(2) = (  0.000000  0.224124  0.000000 )
               b(3) = (  0.000000  0.000000  0.041379 )

     PseudoPot. # 1 for Co read from file:
     /afs/slac.stanford.edu/u/if/mamunm/psp/gbrv1.5pbe/Co.UPF
     MD5 check sum: 5f91765df6ddd3222702df6e7b74a16d
     Pseudo is Ultrasoft + core correction, Zval = 17.0
     Generated by new atomic code, or converted to UPF format
     Using radial grid of  863 points,  6 beta functions with:
                l(1) =   0
                l(2) =   0
                l(3) =   1
                l(4) =   1
                l(5) =   2
                l(6) =   2
     Q(r) pseudized with  8 coefficients,  rinner =    1.200   1.200   1.200
                                                       1.200   1.200

     PseudoPot. # 2 for V  read from file:
     /afs/slac.stanford.edu/u/if/mamunm/psp/gbrv1.5pbe/V.UPF
     MD5 check sum: 22b79981416ebb76fdaf5b1b8640f6fb
     Pseudo is Ultrasoft + core correction, Zval = 13.0
     Generated by new atomic code, or converted to UPF format
     Using radial grid of  853 points,  6 beta functions with:
                l(1) =   0
                l(2) =   0
                l(3) =   1
                l(4) =   1
                l(5) =   2
                l(6) =   2
     Q(r) pseudized with  8 coefficients,  rinner =    1.100   1.100   1.100
                                                       1.100   1.100

     vdW kernel table read from file vdW_kernel_table
     MD5 check sum: 095c7af220d748ca6e76c0b4c6cfb241

     atomic species   valence    mass     pseudopotential
        Co1           17.00    58.93319     Co( 1.00)
        V1            13.00    50.94150     V ( 1.00)

     Starting magnetic structure
     atomic species   magnetization
        Co1          0.118
        V1           0.154

     No symmetry found

   Cartesian axes

     site n.     atom                  positions (alat units)
         1           Co1 tau(   1) = (   0.0000000   0.0000000  10.0000000  )
         2           Co1 tau(   2) = (   3.7300473   2.2309038  10.0000000  )
         3           V1  tau(   3) = (   2.5321642   0.0000000  10.0000000  )
         4           V1  tau(   4) = (   1.1978831   2.2309038  10.0000000  )
         5           Co1 tau(   5) = (   5.0643285   3.0289239  12.0832896  )
         6           Co1 tau(   6) = (   1.3342811   0.7980201  12.0832896  )
         7           V1  tau(   7) = (   2.5321642   3.0289239  12.0832896  )
         8           V1  tau(   8) = (   3.8664453   0.7980201  12.0832896  )
         9           Co1 tau(   9) = (   2.6685622   1.5960402  14.1665792  )
        10           Co1 tau(  10) = (   6.3986096   3.8269440  14.1665792  )
        11           V1  tau(  11) = (   5.2007265   1.5960402  14.1665792  )
        12           V1  tau(  12) = (   3.8664453   3.8269440  14.1665792  )

     number of k points=    40  Fermi-Dirac smearing, width (Ry)=  0.0110
                       cart. coord. in units 2pi/alat
        k(    1) = (   0.0000000   0.0000000   0.0000000), wk =   0.0277778
        k(    2) = (   0.0000000   0.0373541   0.0000000), wk =   0.0555556
        k(    3) = (   0.0000000   0.0747081   0.0000000), wk =   0.0555556
        k(    4) = (   0.0000000  -0.1120622   0.0000000), wk =   0.0277778
        k(    5) = (   0.0329099  -0.0176710   0.0000000), wk =   0.0555556
        k(    6) = (   0.0329099   0.0196831   0.0000000), wk =   0.0555556
        k(    7) = (   0.0329099   0.0570372   0.0000000), wk =   0.0555556
        k(    8) = (   0.0329099  -0.1297332   0.0000000), wk =   0.0555556
        k(    9) = (   0.0329099  -0.0923791   0.0000000), wk =   0.0555556
        k(   10) = (   0.0329099  -0.0550250   0.0000000), wk =   0.0555556
        k(   11) = (   0.0658198  -0.0353419   0.0000000), wk =   0.0555556
        k(   12) = (   0.0658198   0.0020121   0.0000000), wk =   0.0555556
        k(   13) = (   0.0658198   0.0393662   0.0000000), wk =   0.0555556
        k(   14) = (   0.0658198  -0.1474042   0.0000000), wk =   0.0555556
        k(   15) = (   0.0658198  -0.1100501   0.0000000), wk =   0.0555556
        k(   16) = (   0.0658198  -0.0726960   0.0000000), wk =   0.0555556
        k(   17) = (  -0.0987298   0.0530129   0.0000000), wk =   0.0277778
        k(   18) = (  -0.0987298   0.0903670   0.0000000), wk =   0.0555556
        k(   19) = (  -0.0987298   0.1277211   0.0000000), wk =   0.0555556
        k(   20) = (  -0.0987298  -0.0590493   0.0000000), wk =   0.0277778
        k(   21) = (   0.0000000   0.0000000   0.0000000), wk =   0.0277778
        k(   22) = (   0.0000000   0.0373541   0.0000000), wk =   0.0555556
        k(   23) = (   0.0000000   0.0747081   0.0000000), wk =   0.0555556
        k(   24) = (   0.0000000  -0.1120622   0.0000000), wk =   0.0277778
        k(   25) = (   0.0329099  -0.0176710   0.0000000), wk =   0.0555556
        k(   26) = (   0.0329099   0.0196831   0.0000000), wk =   0.0555556
        k(   27) = (   0.0329099   0.0570372   0.0000000), wk =   0.0555556
        k(   28) = (   0.0329099  -0.1297332   0.0000000), wk =   0.0555556
        k(   29) = (   0.0329099  -0.0923791   0.0000000), wk =   0.0555556
        k(   30) = (   0.0329099  -0.0550250   0.0000000), wk =   0.0555556
        k(   31) = (   0.0658198  -0.0353419   0.0000000), wk =   0.0555556
        k(   32) = (   0.0658198   0.0020121   0.0000000), wk =   0.0555556
        k(   33) = (   0.0658198   0.0393662   0.0000000), wk =   0.0555556
        k(   34) = (   0.0658198  -0.1474042   0.0000000), wk =   0.0555556
        k(   35) = (   0.0658198  -0.1100501   0.0000000), wk =   0.0555556
        k(   36) = (   0.0658198  -0.0726960   0.0000000), wk =   0.0555556
        k(   37) = (  -0.0987298   0.0530129   0.0000000), wk =   0.0277778
        k(   38) = (  -0.0987298   0.0903670   0.0000000), wk =   0.0555556
        k(   39) = (  -0.0987298   0.1277211   0.0000000), wk =   0.0555556
        k(   40) = (  -0.0987298  -0.0590493   0.0000000), wk =   0.0277778

     Largest allocated arrays     est. size (Mb)     dimensions
     Largest temporary arrays     est. size (Mb)     dimensions

     Check: negative/imaginary core charge=   -0.000004    0.000000

     Initial potential from superposition of free atoms
     Check: negative starting charge=(component1):   -0.003335
     Check: negative starting charge=(component2):   -0.002446

     starting charge  173.99259, renormalised to  180.00000

     negative rho (up, down):  3.451E-03 2.531E-03

     *
     * You are using vdW-DF for exchange-correlation in this calculation.
     * Please cite the following three references that made this development
     * possible:
     *
     *   M. Dion, H. Rydberg, E. Schroder, D. C. Langreth, and
     *   B. I. Lundqvist, Phys. Rev. Lett. 92, 246401 (2004).
     *
     *   T. Thonhauser, V. R. Cooper, S. Li, A. Puzder, P. Hyldgaard, and
     *   D. C. Langreth, Phys. Rev. B 76, 125112 (2007).
     *
     *   G. Roman-Perez and J. M. Soler, Phys. Rev. Lett. 103, 096102 (2009).
     *
     *
     * If you are using vdW-DF2, please also cite:
     *
     *   K. Lee, E. D. Murray, L. Kong, B. I. Lundqvist, and
     *   D. C. Langreth, Phys. Rev. B 82, 081101(R) (2010).
     *
     *
     * If you are calculating the stress with vdW-DF, please also cite:
     *
     *   R. Sabatini, E. Kucukbenli, B. Kolb, T. Thonhauser, and
     *   S. de Gironcoli, J. Phys.: Condens. Matter 24, 424209 (2012).
     *

     Carrying out vdW-DF run using the following parameters:

     Nqs =      20    Nr_points =    1024   r_max =   100.000
     q_mesh =
               0.00001000     0.04494208     0.09755937     0.15916263
               0.23128650     0.31572767     0.41458969     0.53033537
               0.66584808     0.82450364     1.01025438     1.22772762
               1.48234092     1.78043706     2.12944203     2.53805004
               3.01644009     3.57652955     4.23227104     5.00000000

     Gradients computed in reciprocal space

     Adding external electric field

     Computed dipole along edir(3) :
        Dipole               -0.0000 Ry au,         -0.0000 Debye
        Dipole field         -0.0000 Ry au

        Potential amp.        0.0000 Ry
        Total length         44.5265 bohr

[...]

     Starting wfc are  138 randomized atomic wfcs

     Self-consistent Calculation

     iteration #  1     ecut=    36.75 Ry     beta=0.10
     Davidson diagonalization with overlap
     ethr =  1.00E-02,  avg # of iterations =  4.0

[...]

     Magnetic moment per site:
     atom:    1    charge:    8.3525    magn:    0.9616    constr:    0.0000
     atom:    2    charge:    8.3525    magn:    0.9616    constr:    0.0000
     atom:    3    charge:    4.1395    magn:    0.5967    constr:    0.0000
     atom:    4    charge:    4.1395    magn:    0.5967    constr:    0.0000
     atom:    5    charge:    8.3663    magn:    0.9638    constr:    0.0000
     atom:    6    charge:    8.3663    magn:    0.9638    constr:    0.0000
[...]
                l(4) =   1
                l(5) =   2
                l(6) =   2
     Q(r) pseudized with  8 coefficients,  rinner =    1.200   1.200   1.200
                                                       1.200   1.200

     PseudoPot. # 2 for V  read from file:
     /afs/slac.stanford.edu/u/if/mamunm/psp/gbrv1.5pbe/V.UPF
     MD5 check sum: 22b79981416ebb76fdaf5b1b8640f6fb
     Pseudo is Ultrasoft + core correction, Zval = 13.0
     Generated by new atomic code, or converted to UPF format
     Using radial grid of  853 points,  6 beta functions with:
                l(1) =   0
                l(2) =   0
                l(3) =   1
                l(4) =   1
                l(5) =   2
                l(6) =   2
     Q(r) pseudized with  8 coefficients,  rinner =    1.100   1.100   1.100
                                                       1.100   1.100

     vdW kernel table read from file vdW_kernel_table
     MD5 check sum: 095c7af220d748ca6e76c0b4c6cfb241

     atomic species   valence    mass     pseudopotential
        Co1           17.00    58.93319     Co( 1.00)
        V1            13.00    50.94150     V ( 1.00)

     Starting magnetic structure
     atomic species   magnetization
        Co1          0.118
        V1           0.154

     No symmetry found

   Cartesian axes

     site n.     atom                  positions (alat units)
         1           Co1 tau(   1) = (   0.0000000   0.0000000  10.0000000  )
         2           Co1 tau(   2) = (   3.7300473   2.2309038  10.0000000  )
         3           V1  tau(   3) = (   2.5321642   0.0000000  10.0000000  )
         4           V1  tau(   4) = (   1.1978831   2.2309038  10.0000000  )
         5           Co1 tau(   5) = (   5.0643285   3.0289239  12.0832896  )
         6           Co1 tau(   6) = (   1.3342811   0.7980201  12.0832896  )
         7           V1  tau(   7) = (   2.5321642   3.0289239  12.0832896  )
         8           V1  tau(   8) = (   3.8664453   0.7980201  12.0832896  )
         9           Co1 tau(   9) = (   2.8656215   1.7139074  14.0785937  )
        10           Co1 tau(  10) = (   6.5955655   3.9447299  14.0785663  )
        11           V1  tau(  11) = (   5.4194183   1.7267614  14.1564261  )
        12           V1  tau(  12) = (   4.0848626   3.9576515  14.1564291  )

     number of k points=    40  Fermi-Dirac smearing, width (Ry)=  0.0110
                       cart. coord. in units 2pi/alat
        k(    1) = (   0.0000000   0.0000000   0.0000000), wk =   0.0277778
        k(    2) = (   0.0000000   0.0373541   0.0000000), wk =   0.0555556
        k(    3) = (   0.0000000   0.0747081   0.0000000), wk =   0.0555556
        k(    4) = (   0.0000000  -0.1120622   0.0000000), wk =   0.0277778
        k(    5) = (   0.0329099  -0.0176710   0.0000000), wk =   0.0555556
        k(    6) = (   0.0329099   0.0196831   0.0000000), wk =   0.0555556
        k(    7) = (   0.0329099   0.0570372   0.0000000), wk =   0.0555556
        k(    8) = (   0.0329099  -0.1297332   0.0000000), wk =   0.0555556
        k(    9) = (   0.0329099  -0.0923791   0.0000000), wk =   0.0555556
        k(   10) = (   0.0329099  -0.0550250   0.0000000), wk =   0.0555556
        k(   11) = (   0.0658198  -0.0353419   0.0000000), wk =   0.0555556
        k(   12) = (   0.0658198   0.0020121   0.0000000), wk =   0.0555556
        k(   13) = (   0.0658198   0.0393662   0.0000000), wk =   0.0555556
        k(   14) = (   0.0658198  -0.1474042   0.0000000), wk =   0.0555556
        k(   15) = (   0.0658198  -0.1100501   0.0000000), wk =   0.0555556
        k(   16) = (   0.0658198  -0.0726960   0.0000000), wk =   0.0555556
        k(   17) = (  -0.0987298   0.0530129   0.0000000), wk =   0.0277778
        k(   18) = (  -0.0987298   0.0903670   0.0000000), wk =   0.0555556
        k(   19) = (  -0.0987298   0.1277211   0.0000000), wk =   0.0555556
        k(   20) = (  -0.0987298  -0.0590493   0.0000000), wk =   0.0277778
        k(   21) = (   0.0000000   0.0000000   0.0000000), wk =   0.0277778
        k(   22) = (   0.0000000   0.0373541   0.0000000), wk =   0.0555556
        k(   23) = (   0.0000000   0.0747081   0.0000000), wk =   0.0555556
        k(   24) = (   0.0000000  -0.1120622   0.0000000), wk =   0.0277778
        k(   25) = (   0.0329099  -0.0176710   0.0000000), wk =   0.0555556
        k(   26) = (   0.0329099   0.0196831   0.0000000), wk =   0.0555556
        k(   27) = (   0.0329099   0.0570372   0.0000000), wk =   0.0555556
        k(   28) = (   0.0329099  -0.1297332   0.0000000), wk =   0.0555556
        k(   29) = (   0.0329099  -0.0923791   0.0000000), wk =   0.0555556
        k(   30) = (   0.0329099  -0.0550250   0.0000000), wk =   0.0555556
        k(   31) = (   0.0658198  -0.0353419   0.0000000), wk =   0.0555556
        k(   32) = (   0.0658198   0.0020121   0.0000000), wk =   0.0555556
        k(   33) = (   0.0658198   0.0393662   0.0000000), wk =   0.0555556
        k(   34) = (   0.0658198  -0.1474042   0.0000000), wk =   0.0555556
        k(   35) = (   0.0658198  -0.1100501   0.0000000), wk =   0.0555556
        k(   36) = (   0.0658198  -0.0726960   0.0000000), wk =   0.0555556
        k(   37) = (  -0.0987298   0.0530129   0.0000000), wk =   0.0277778
        k(   38) = (  -0.0987298   0.0903670   0.0000000), wk =   0.0555556
        k(   39) = (  -0.0987298   0.1277211   0.0000000), wk =   0.0555556
        k(   40) = (  -0.0987298  -0.0590493   0.0000000), wk =   0.0277778

     Largest allocated arrays     est. size (Mb)     dimensions
     Largest temporary arrays     est. size (Mb)     dimensions

     Check: negative/imaginary core charge=   -0.000004    0.000000

     Initial potential from superposition of free atoms
     Check: negative starting charge=(component1):   -0.003011
     Check: negative starting charge=(component2):   -0.002208

     starting charge  173.99259, renormalised to  180.00000

[...]

     *
     * You are using vdW-DF for exchange-correlation in this calculation.
     * Please cite the following three references that made this development
     * possible:
     *
     *   M. Dion, H. Rydberg, E. Schroder, D. C. Langreth, and
     *   B. I. Lundqvist, Phys. Rev. Lett. 92, 246401 (2004).
     *
     *   T. Thonhauser, V. R. Cooper, S. Li, A. Puzder, P. Hyldgaard, and
     *   D. C. Langreth, Phys. Rev. B 76, 125112 (2007).
     *
     *   G. Roman-Perez and J. M. Soler, Phys. Rev. Lett. 103, 096102 (2009).
     *
     *
     * If you are using vdW-DF2, please also cite:
     *
     *   K. Lee, E. D. Murray, L. Kong, B. I. Lundqvist, and
     *   D. C. Langreth, Phys. Rev. B 82, 081101(R) (2010).
     *
     *
     * If you are calculating the stress with vdW-DF, please also cite:
     *
     *   R. Sabatini, E. Kucukbenli, B. Kolb, T. Thonhauser, and
     *   S. de Gironcoli, J. Phys.: Condens. Matter 24, 424209 (2012).
     *

     Carrying out vdW-DF run using the following parameters:

     Nqs =      20    Nr_points =    1024   r_max =   100.000
     q_mesh =
               0.00001000     0.04494208     0.09755937     0.15916263
               0.23128650     0.31572767     0.41458969     0.53033537
               0.66584808     0.82450364     1.01025438     1.22772762
               1.48234092     1.78043706     2.12944203     2.53805004
               3.01644009     3.57652955     4.23227104     5.00000000

     Gradients computed in reciprocal space

[...]

     Starting wfc are  138 randomized atomic wfcs

     Self-consistent Calculation

[...]

     total energy              =   -2671.69876690 Ry
     Harris-Foulkes estimate   =   -2671.69879117 Ry
     estimated scf accuracy    <       0.00000284 Ry

[...]

     iteration #116     ecut=    36.75 Ry     beta=0.10
     Davidson diagonalization with overlap
     ethr =  1.40E-09,  avg # of iterations =  3.0

[...]

     negative rho (up, down):  4.081E-03 3.208E-03

[...]

     Adding external electric field

     Computed dipole along edir(3) :
        Dipole                0.0309 Ry au,          0.0785 Debye
        Dipole field          0.0001 Ry au

        Potential amp.       -0.0094 Ry
        Total length         44.5265 bohr

     Magnetic moment per site:
     atom:    1    charge:    8.2830    magn:    0.3076    constr:    0.0000
     atom:    2    charge:    8.2829    magn:    0.3076    constr:    0.0000
     atom:    3    charge:    4.0031    magn:   -0.1258    constr:    0.0000
     atom:    4    charge:    4.0031    magn:   -0.1258    constr:    0.0000
     atom:    5    charge:    8.2706    magn:   -0.0188    constr:    0.0000
     atom:    6    charge:    8.2707    magn:   -0.0189    constr:    0.0000
     atom:    7    charge:    3.9943    magn:   -0.0185    constr:    0.0000
     atom:    8    charge:    3.9943    magn:   -0.0185    constr:    0.0000
     atom:    9    charge:    8.2786    magn:    0.0444    constr:    0.0000
     atom:   10    charge:    8.2786    magn:    0.0444    constr:    0.0000
     atom:   11    charge:    4.0008    magn:   -0.0224    constr:    0.0000
     atom:   12    charge:    4.0008    magn:   -0.0224    constr:    0.0000

     End of self-consistent calculation

 ------ SPIN UP ------------

[...]

 ------ SPIN DOWN ----------

[...]

          k = 0.0658-0.0727 0.0000 ( 13824 PWs)   bands (ev):

[...]

          k =-0.0987-0.0590 0.0000 ( 13934 PWs)   bands (ev):

   -94.0231 -94.0128 -93.6410 -93.6307 -93.2831 -93.2727 -63.5026 -63.4220
   -63.4193 -63.3679 -63.3393 -63.2843 -57.3795 -57.3704 -57.3587 -57.2623
   -57.2537 -57.2513 -57.0063 -56.9979 -56.9654 -56.9115 -56.9023 -56.8574
   -56.6849 -56.6763 -56.6233 -56.5337 -56.5238 -56.5144 -37.4768 -37.4742
   -37.4235 -37.4016 -37.3643 -37.3469 -37.3245 -37.2804 -37.2433 -37.2428
   -37.2078 -37.1688 -37.1524 -37.0406 -36.9817 -36.8853 -36.8409 -36.7847
    -4.2658  -4.0690  -2.7775  -2.6295  -2.3937  -2.0863  -2.0297  -2.0285
    -1.9871  -1.8716  -1.6222  -1.4330  -1.3468  -1.2761  -1.2156  -1.1302
    -1.0961  -0.9200  -0.7638  -0.6763  -0.6357  -0.5349  -0.4688  -0.2265
    -0.2096  -0.1618  -0.1381  -0.1218  -0.1054  -0.0580   0.0127   0.1287
     0.1580   0.1903   0.2431   0.2450   0.2913   0.4488   0.5429   0.6161
     0.6516   0.7010   0.7641   0.7671   0.7783   0.9799   1.0695   1.2603
     1.5273   1.6937   1.7834   1.7932   2.0173   2.2316   2.5101   2.5123
     2.5818   2.6489   2.7861   2.8360   2.9366   3.0711   3.1744   3.1776
     3.3830   3.8915   4.1272   4.4511   5.5553   5.6466   5.7498   5.8073

     the Fermi energy is     1.1102 ev

!    total energy              =   -2671.69879850 Ry
     Harris-Foulkes estimate   =   -2671.69879771 Ry
     estimated scf accuracy    <       0.00000080 Ry

     The total energy is the sum of the following terms:

     one-electron contribution =  -23132.02862609 Ry
     hartree contribution      =   11564.07214828 Ry
     xc contribution           =    -324.66975500 Ry
     ewald contribution        =    9221.03933418 Ry
     electric field correction =       0.00000325 Ry
     smearing contrib. (-TS)   =      -0.11190312 Ry

     total magnetization       =    -0.27 Bohr mag/cell
     absolute magnetization    =     2.96 Bohr mag/cell

     convergence has been achieved in 116 iterations

 BEEF-vdW xc energy contributions
           1 :   -283.702774673185
           2 :    256.499857964580
           3 :   -210.528289914459
           4 :    158.701086393756
           5 :   -112.889786303742
           6 :    79.6456194419959
           7 :   -59.0420184614253
           8 :    46.6187432886652
           9 :   -36.9085080916317
          10 :    26.4897753065635
          11 :   -15.1701800947137
          12 :    5.09460524618441
          13 :    1.28304071409457
          14 :   -3.00625816582419
          15 :    1.17900375697991
          16 :    1.82758137601076
          17 :   -3.83762106072061
          18 :    4.00085430229046
          19 :   -2.96254466978496
          20 :    2.10968776496844
          21 :   -2.50280838689218
          22 :    4.18652906242187
          23 :   -6.25634438517659
          24 :    7.53041842673520
          25 :   -7.33616600341190
          26 :    5.89584165737733
          27 :   -4.11582693793321
          28 :    2.96646639315895
          29 :   -2.88943299389655
          30 :    3.59573738442492
          31 :   -26.0385405459804
          32 :   -18.4042629104743

     Forces acting on atoms (Ry/au):

     negative rho (up, down):  4.081E-03 3.208E-03
     atom    1 type  1   force =    -0.00017546   -0.00008908    0.01274197
     atom    2 type  1   force =    -0.00014475   -0.00010215    0.01272543
     atom    3 type  2   force =    -0.00802235   -0.00479692   -0.00065507
     atom    4 type  2   force =    -0.00801964   -0.00479740   -0.00064894
     atom    5 type  1   force =     0.00207133    0.00123565   -0.00078523
     atom    6 type  1   force =     0.00199350    0.00119606   -0.00077129
     atom    7 type  2   force =     0.00562579    0.00336057   -0.01069784
     atom    8 type  2   force =     0.00562656    0.00336930   -0.01069017
     atom    9 type  1   force =     0.00038549    0.00018762    0.00008128
     atom   10 type  1   force =     0.00038097    0.00026979    0.00011161
     atom   11 type  2   force =     0.00011613    0.00009377   -0.00070744
     atom   12 type  2   force =     0.00016241    0.00007279   -0.00070431

     Total force =     0.028784     Total SCF correction =     0.002148

     entering subroutine stress ...

     negative rho (up, down):  4.081E-03 3.208E-03
          total   stress  (Ry/bohr**3)                   (kbar)     P=  -17.00
  -0.00016173  -0.00002711   0.00001902        -23.79     -3.99      2.80
  -0.00002711  -0.00013261   0.00001137         -3.99    -19.51      1.67
   0.00001902   0.00001137  -0.00005231          2.80      1.67     -7.70

 !ASE

     Writing output data file calc.save

     General routines

     Parallel routines

   This run was terminated on:  23:21:14  19Dec2018

   JOB DONE.
Job  /afs/slac/g/suncat/bin/suncat-tsmpirun -x LD_LIBRARY_PATH -wdir /scratch/qe529706_2NLxa pw.x -in pw.inp

TID   HOST_NAME   COMMAND_LINE            STATUS            TERMINATION_TIME
00000 suncat0020 pw.x -in pw.inp   Done                     12/19/2018 23:21:14
00001 suncat0020 pw.x -in pw.inp   Done                     12/19/2018 23:21:14
00002 suncat0020 pw.x -in pw.inp   Done                     12/19/2018 23:21:14
00003 suncat0020 pw.x -in pw.inp   Done                     12/19/2018 23:21:14
00004 suncat0020 pw.x -in pw.inp   Done                     12/19/2018 23:21:14
00005 suncat0020 pw.x -in pw.inp   Done                     12/19/2018 23:21:14
00006 suncat0020 pw.x -in pw.inp   Done                     12/19/2018 23:21:14
00007 suncat0020 pw.x -in pw.inp   Done                     12/19/2018 23:21:14
00008 suncat0019 pw.x -in pw.inp   Done                     12/19/2018 23:21:14
00009 suncat0019 pw.x -in pw.inp   Done                     12/19/2018 23:21:14
00010 suncat0019 pw.x -in pw.inp   Done                     12/19/2018 23:21:14
00011 suncat0019 pw.x -in pw.inp   Done                     12/19/2018 23:21:14
00012 suncat0019 pw.x -in pw.inp   Done                     12/19/2018 23:21:14
00013 suncat0019 pw.x -in pw.inp   Done                     12/19/2018 23:21:14
00014 suncat0019 pw.x -in pw.inp   Done                     12/19/2018 23:21:14
00015 suncat0019 pw.x -in pw.inp   Done                     12/19/2018 23:21:14
00016 suncat0018 pw.x -in pw.inp   Done                     12/19/2018 23:21:14
00017 suncat0018 pw.x -in pw.inp   Done                     12/19/2018 23:21:14
00018 suncat0018 pw.x -in pw.inp   Done                     12/19/2018 23:21:14
00019 suncat0018 pw.x -in pw.inp   Done                     12/19/2018 23:21:14
00020 suncat0018 pw.x -in pw.inp   Done                     12/19/2018 23:21:14
00021 suncat0018 pw.x -in pw.inp   Done                     12/19/2018 23:21:14
00022 suncat0018 pw.x -in pw.inp   Done                     12/19/2018 23:21:14
00023 suncat0018 pw.x -in pw.inp   Done                     12/19/2018 23:21:14
00024 suncat0017 pw.x -in pw.inp   Done                     12/19/2018 23:21:14
00025 suncat0017 pw.x -in pw.inp   Done                     12/19/2018 23:21:14
00026 suncat0017 pw.x -in pw.inp   Done                     12/19/2018 23:21:14
00027 suncat0017 pw.x -in pw.inp   Done                     12/19/2018 23:21:14
00028 suncat0017 pw.x -in pw.inp   Done                     12/19/2018 23:21:14
00029 suncat0017 pw.x -in pw.inp   Done                     12/19/2018 23:21:14
00030 suncat0017 pw.x -in pw.inp   Done                     12/19/2018 23:21:14
00031 suncat0017 pw.x -in pw.inp   Done                     12/19/2018 23:21:14