     Program PWSCF v.5.1rc2 (svn rev. 11289) starts on  1Jan2019 at 18:51:15

     Current dimensions of program PWSCF are:
     Max number of different atomic species (ntypx) = 10
     Max number of k-points (npk) =  40000
     Max angular momentum in pseudopotentials (lmaxx) =  3
     Presently stress not available with electric field

     IMPORTANT: XC functional enforced from input :
     Exchange-correlation      = BEEF-VDW ( 1  4 27 13 2)
     Any further DFT definition will be discarded
     Please, verify this is what you really want

     Subspace diagonalization in iterative solution of the eigenvalue problem:
     a serial algorithm will be used

     bravais-lattice index     =            0
     lattice parameter (alat)  =       1.8897  a.u.
     unit-cell volume          =    4300.5808 (a.u.)^3
     number of atoms/cell      =           12
     number of atomic types    =            2
     number of electrons       =       192.00
     number of Kohn-Sham states=          126
     kinetic-energy cutoff     =      36.7493  Ry
     charge density cutoff     =     367.4932  Ry
     convergence threshold     =      1.0E-06
     mixing beta               =       0.1000
     number of iterations used =           10  plain     mixing
     Exchange-correlation      = BEEF-VDW ( 1  4 27 13 2)
     nstep                     =           50

     celldm(1)=   1.889726  celldm(2)=   0.000000  celldm(3)=   0.000000
     celldm(4)=   0.000000  celldm(5)=   0.000000  celldm(6)=   0.000000

     crystal axes: (cart. coord. in units of alat)
               a(1) = (   5.483045   0.000000   0.000000 )
               a(2) = (  -2.741523   4.748457   0.000000 )
               a(3) = (   0.000000   0.000000  24.476888 )

     reciprocal axes: (cart. coord. in units 2 pi/alat)
               b(1) = (  0.182380  0.105297  0.000000 )
               b(2) = (  0.000000  0.210595  0.000000 )
               b(3) = (  0.000000  0.000000  0.040855 )

     PseudoPot. # 1 for Tc read from file:
     /afs/slac.stanford.edu/u/if/mamunm/psp/gbrv1.5pbe/Tc.UPF
     MD5 check sum: 9eb49e5b028550b2339a02317eb7b844
     Pseudo is Ultrasoft + core correction, Zval = 15.0
     Generated by new atomic code, or converted to UPF format
     Using radial grid of  965 points,  6 beta functions with:
                l(1) =   0
                l(2) =   0
                l(3) =   1
                l(4) =   1
                l(5) =   2
                l(6) =   2
     Q(r) pseudized with  8 coefficients,  rinner =    1.300   1.300   1.300
                                                       1.300   1.300

     PseudoPot. # 2 for Ga read from file:
     /afs/slac.stanford.edu/u/if/mamunm/psp/gbrv1.5pbe/Ga.UPF
     MD5 check sum: ccd671392a58a050fbb373893b4fcd66
     Pseudo is Ultrasoft + core correction, Zval = 19.0
     Generated by new atomic code, or converted to UPF format
     Using radial grid of  871 points,  6 beta functions with:
                l(1) =   0
                l(2) =   0
                l(3) =   1
                l(4) =   1
                l(5) =   2
                l(6) =   2
     Q(r) pseudized with  8 coefficients,  rinner =    1.250   1.250   1.250
                                                       1.250   1.250

     vdW kernel table read from file vdW_kernel_table
     MD5 check sum: 095c7af220d748ca6e76c0b4c6cfb241

     atomic species   valence    mass     pseudopotential
        Tc1           15.00    97.90721     Tc( 1.00)
        Ga1           19.00    69.72300     Ga( 1.00)

     No symmetry found

   Cartesian axes

     site n.     atom                  positions (alat units)
         1           Tc1 tau(   1) = (   0.0000000   0.0000000  10.0000000  )
         2           Tc1 tau(   2) = (  -1.3707613   2.3742283  10.0000000  )
         3           Tc1 tau(   3) = (   1.3707613   2.3742283  10.0000000  )
         4           Ga1 tau(   4) = (   2.7415227   0.0000000  10.0000000  )
         5           Tc1 tau(   5) = (   2.7415227   1.5828189  12.2384439  )
         6           Tc1 tau(   6) = (   1.3707613   3.9570472  12.2384439  )
         7           Tc1 tau(   7) = (  -1.3707613   3.9570472  12.2384439  )
         8           Ga1 tau(   8) = (   0.0000000   1.5828189  12.2384439  )
         9           Tc1 tau(   9) = (  -0.0000000   3.1656377  14.4768878  )
        10           Tc1 tau(  10) = (   1.3707613   0.7914094  14.4768878  )
        11           Tc1 tau(  11) = (   4.1122840   0.7914094  14.4768878  )
        12           Ga1 tau(  12) = (   2.7415227   3.1656377  14.4768878  )

     number of k points=    20  Fermi-Dirac smearing, width (Ry)=  0.0110
                       cart. coord. in units 2pi/alat
        k(    1) = (   0.0000000   0.0000000   0.0000000), wk =   0.0555556
        k(    2) = (   0.0000000   0.0350991   0.0000000), wk =   0.1111111
        k(    3) = (   0.0000000   0.0701982   0.0000000), wk =   0.1111111
        k(    4) = (   0.0000000  -0.1052974   0.0000000), wk =   0.0555556
        k(    5) = (   0.0303967   0.0175496   0.0000000), wk =   0.1111111
        k(    6) = (   0.0303967   0.0526487   0.0000000), wk =   0.1111111
        k(    7) = (   0.0303967   0.0877478   0.0000000), wk =   0.1111111
        k(    8) = (   0.0303967  -0.0877478   0.0000000), wk =   0.1111111
        k(    9) = (   0.0303967  -0.0526487   0.0000000), wk =   0.1111111
        k(   10) = (   0.0303967  -0.0175496   0.0000000), wk =   0.1111111
        k(   11) = (   0.0607935   0.0350991   0.0000000), wk =   0.1111111
        k(   12) = (   0.0607935   0.0701982   0.0000000), wk =   0.1111111
        k(   13) = (   0.0607935   0.1052974   0.0000000), wk =   0.1111111
        k(   14) = (   0.0607935  -0.0701982   0.0000000), wk =   0.1111111
        k(   15) = (   0.0607935  -0.0350991   0.0000000), wk =   0.1111111
        k(   16) = (   0.0607935   0.0000000   0.0000000), wk =   0.1111111
        k(   17) = (  -0.0911902  -0.0526487   0.0000000), wk =   0.0555556
        k(   18) = (  -0.0911902  -0.0175496   0.0000000), wk =   0.1111111
        k(   19) = (  -0.0911902   0.0175496   0.0000000), wk =   0.1111111
        k(   20) = (  -0.0911902  -0.1579461   0.0000000), wk =   0.0555556

     Largest allocated arrays     est. size (Mb)     dimensions
     Largest temporary arrays     est. size (Mb)     dimensions

     Check: negative/imaginary core charge=   -0.000019    0.000000

     Initial potential from superposition of free atoms
     Check: negative starting charge=   -1.130194

     starting charge  179.99975, renormalised to  192.00000

     negative rho (up, down):  1.206E+00 0.000E+00

     *
     * You are using vdW-DF for exchange-correlation in this calculation.
     * Please cite the following three references that made this development
     * possible:
     *
     *   M. Dion, H. Rydberg, E. Schroder, D. C. Langreth, and
     *   B. I. Lundqvist, Phys. Rev. Lett. 92, 246401 (2004).
     *
     *   T. Thonhauser, V. R. Cooper, S. Li, A. Puzder, P. Hyldgaard, and
     *   D. C. Langreth, Phys. Rev. B 76, 125112 (2007).
     *
     *   G. Roman-Perez and J. M. Soler, Phys. Rev. Lett. 103, 096102 (2009).
     *
     *
     * If you are using vdW-DF2, please also cite:
     *
     *   K. Lee, E. D. Murray, L. Kong, B. I. Lundqvist, and
     *   D. C. Langreth, Phys. Rev. B 82, 081101(R) (2010).
     *
     *
     * If you are calculating the stress with vdW-DF, please also cite:
     *
     *   R. Sabatini, E. Kucukbenli, B. Kolb, T. Thonhauser, and
     *   S. de Gironcoli, J. Phys.: Condens. Matter 24, 424209 (2012).
     *

     Carrying out vdW-DF run using the following parameters:

     Nqs =      20    Nr_points =    1024   r_max =   100.000
     q_mesh =
               0.00001000     0.04494208     0.09755937     0.15916263
               0.23128650     0.31572767     0.41458969     0.53033537
               0.66584808     0.82450364     1.01025438     1.22772762
               1.48234092     1.78043706     2.12944203     2.53805004
               3.01644009     3.57652955     4.23227104     5.00000000

     Gradients computed in reciprocal space

     Adding external electric field

     Computed dipole along edir(3) :
        Dipole                0.0000 Ry au,          0.0000 Debye
        Dipole field          0.0000 Ry au

        Potential amp.       -0.0000 Ry
        Total length         45.0982 bohr

     Starting wfc are  153 randomized atomic wfcs

     Self-consistent Calculation

     iteration #  1     ecut=    36.75 Ry     beta=0.10
     Davidson diagonalization with overlap
     ethr =  1.00E-02,  avg # of iterations =  7.2

[...]

     total energy              =   -2783.38478123 Ry
     Harris-Foulkes estimate   =   -2845.99479108 Ry
     estimated scf accuracy    <     344.86152664 Ry

[...]

     End of self-consistent calculation

          k = 0.0000 0.0000 0.0000 ( 16073 PWs)   bands (ev):

   -92.5932 -92.5932 -92.5919 -92.2933 -92.2926 -92.2580 -92.2580 -92.2572
   -92.2572 -65.3861 -65.2778 -65.2777 -65.1448 -65.1351 -65.0442 -65.0441
   -65.0418 -65.0417 -37.8434 -37.6249 -37.5912 -37.5911 -37.5697 -37.4929
   -37.4929 -37.4883 -37.2985 -37.2984 -37.1610 -37.1609 -37.1515 -37.1290
   -37.0292 -37.0291 -36.9715 -36.9714 -36.9299 -36.9124 -36.9124 -36.8939
   -36.8590 -36.7596 -36.7595 -36.7540 -36.7540 -13.0099 -13.0099 -13.0073
   -12.9836 -12.9836 -12.6723 -12.6601 -12.6537 -12.6537 -12.6467 -12.6467
   -12.6363 -12.6363 -12.6278 -12.6278  -7.0699  -5.6915  -5.5136  -3.5354
    -2.8448  -2.6694  -2.0636  -2.0610  -2.0610  -1.8244  -1.8244  -1.7565
    -1.7565  -1.6012  -1.3643  -1.3643  -0.6832  -0.6832  -0.1105  -0.1104
    -0.0599  -0.0544   0.5619   0.6129   0.6129   0.8686   0.9674   0.9674
     1.5121   1.5573   1.8145   1.8145   2.0356   2.0356   2.1430   2.1430
     2.2362   2.3523   2.3524   2.7173   2.7173   2.8453   2.8453   3.1518
     3.1519   3.5746   3.8333   3.8334   3.8908   4.0393   4.2266   4.5849
     4.5904   4.5904   4.8534   4.9508   5.2227   5.2227   5.4795   5.6297
     5.9239   6.2830   6.5616   7.3418   7.4007   8.3593

[...]

          k =-0.0912-0.0526 0.0000 ( 16164 PWs)   bands (ev):

[...]

     the Fermi energy is     1.9050 ev

!    total energy              =   -2827.27289030 Ry
     Harris-Foulkes estimate   =   -2827.27288423 Ry
     estimated scf accuracy    <       0.00000084 Ry

     The total energy is the sum of the following terms:

     one-electron contribution =  -21978.35873390 Ry
     hartree contribution      =   10990.84047423 Ry
     xc contribution           =    -447.25243607 Ry
     ewald contribution        =    8607.57799394 Ry
     electric field correction =       0.00000011 Ry
     smearing contrib. (-TS)   =      -0.08018862 Ry

     convergence has been achieved in  19 iterations

 BEEF-vdW xc energy contributions
           1 :   -394.683144357163
           2 :    361.576706846895
           3 :   -303.844158912837
           4 :    234.826711081273
           5 :   -167.801332471116
           6 :    111.736050187644
           7 :   -69.6080621760960
           8 :    39.4543335244232
           9 :   -17.1666354718517
[...]
     Pseudo is Ultrasoft + core correction, Zval = 15.0
     Generated by new atomic code, or converted to UPF format
     Using radial grid of  965 points,  6 beta functions with:
                l(1) =   0
                l(2) =   0
                l(3) =   1
                l(4) =   1
                l(5) =   2
                l(6) =   2
     Q(r) pseudized with  8 coefficients,  rinner =    1.300   1.300   1.300
                                                       1.300   1.300

     PseudoPot. # 2 for Ga read from file:
     /afs/slac.stanford.edu/u/if/mamunm/psp/gbrv1.5pbe/Ga.UPF
     MD5 check sum: ccd671392a58a050fbb373893b4fcd66
     Pseudo is Ultrasoft + core correction, Zval = 19.0
     Generated by new atomic code, or converted to UPF format
     Using radial grid of  871 points,  6 beta functions with:
                l(1) =   0
                l(2) =   0
                l(3) =   1
                l(4) =   1
                l(5) =   2
                l(6) =   2
     Q(r) pseudized with  8 coefficients,  rinner =    1.250   1.250   1.250
                                                       1.250   1.250

     vdW kernel table read from file vdW_kernel_table
     MD5 check sum: 095c7af220d748ca6e76c0b4c6cfb241

     atomic species   valence    mass     pseudopotential
        Tc1           15.00    97.90721     Tc( 1.00)
        Ga1           19.00    69.72300     Ga( 1.00)

     No symmetry found

   Cartesian axes

     site n.     atom                  positions (alat units)
         1           Tc1 tau(   1) = (   0.0000000   0.0000000  10.0000000  )
         2           Tc1 tau(   2) = (  -1.3707613   2.3742283  10.0000000  )
         3           Tc1 tau(   3) = (   1.3707613   2.3742283  10.0000000  )
         4           Ga1 tau(   4) = (   2.7415227   0.0000000  10.0000000  )
         5           Tc1 tau(   5) = (   2.7415227   1.5828189  12.2384439  )
         6           Tc1 tau(   6) = (   1.3707613   3.9570472  12.2384439  )
         7           Tc1 tau(   7) = (  -1.3707613   3.9570472  12.2384439  )
         8           Ga1 tau(   8) = (   0.0000000   1.5828189  12.2384439  )
         9           Tc1 tau(   9) = (  -0.0000482   3.2484446  14.4250286  )
        10           Tc1 tau(  10) = (   1.4425242   0.7500731  14.4250879  )
        11           Tc1 tau(  11) = (   4.0405007   0.7501167  14.4250433  )
        12           Ga1 tau(  12) = (   2.7414967   3.1657068  14.6703343  )

     number of k points=    20  Fermi-Dirac smearing, width (Ry)=  0.0110
                       cart. coord. in units 2pi/alat
        k(    1) = (   0.0000000   0.0000000   0.0000000), wk =   0.0555556
        k(    2) = (   0.0000000   0.0350991   0.0000000), wk =   0.1111111
        k(    3) = (   0.0000000   0.0701982   0.0000000), wk =   0.1111111
        k(    4) = (   0.0000000  -0.1052974   0.0000000), wk =   0.0555556
        k(    5) = (   0.0303967   0.0175496   0.0000000), wk =   0.1111111
        k(    6) = (   0.0303967   0.0526487   0.0000000), wk =   0.1111111
        k(    7) = (   0.0303967   0.0877478   0.0000000), wk =   0.1111111
        k(    8) = (   0.0303967  -0.0877478   0.0000000), wk =   0.1111111
        k(    9) = (   0.0303967  -0.0526487   0.0000000), wk =   0.1111111
        k(   10) = (   0.0303967  -0.0175496   0.0000000), wk =   0.1111111
        k(   11) = (   0.0607935   0.0350991   0.0000000), wk =   0.1111111
        k(   12) = (   0.0607935   0.0701982   0.0000000), wk =   0.1111111
        k(   13) = (   0.0607935   0.1052974   0.0000000), wk =   0.1111111
        k(   14) = (   0.0607935  -0.0701982   0.0000000), wk =   0.1111111
        k(   15) = (   0.0607935  -0.0350991   0.0000000), wk =   0.1111111
        k(   16) = (   0.0607935   0.0000000   0.0000000), wk =   0.1111111
        k(   17) = (  -0.0911902  -0.0526487   0.0000000), wk =   0.0555556
        k(   18) = (  -0.0911902  -0.0175496   0.0000000), wk =   0.1111111
        k(   19) = (  -0.0911902   0.0175496   0.0000000), wk =   0.1111111
        k(   20) = (  -0.0911902  -0.1579461   0.0000000), wk =   0.0555556

     Largest allocated arrays     est. size (Mb)     dimensions
     Largest temporary arrays     est. size (Mb)     dimensions

     Check: negative/imaginary core charge=   -0.000019    0.000000

     Initial potential from superposition of free atoms
     Check: negative starting charge=   -1.133087

     starting charge  179.99975, renormalised to  192.00000

[...]

     *
     * You are using vdW-DF for exchange-correlation in this calculation.
     * Please cite the following three references that made this development
     * possible:
     *
     *   M. Dion, H. Rydberg, E. Schroder, D. C. Langreth, and
     *   B. I. Lundqvist, Phys. Rev. Lett. 92, 246401 (2004).
     *
     *   T. Thonhauser, V. R. Cooper, S. Li, A. Puzder, P. Hyldgaard, and
     *   D. C. Langreth, Phys. Rev. B 76, 125112 (2007).
     *
     *   G. Roman-Perez and J. M. Soler, Phys. Rev. Lett. 103, 096102 (2009).
     *
     *
     * If you are using vdW-DF2, please also cite:
     *
     *   K. Lee, E. D. Murray, L. Kong, B. I. Lundqvist, and
     *   D. C. Langreth, Phys. Rev. B 82, 081101(R) (2010).
     *
     *
     * If you are calculating the stress with vdW-DF, please also cite:
     *
     *   R. Sabatini, E. Kucukbenli, B. Kolb, T. Thonhauser, and
     *   S. de Gironcoli, J. Phys.: Condens. Matter 24, 424209 (2012).
     *

     Carrying out vdW-DF run using the following parameters:

     Nqs =      20    Nr_points =    1024   r_max =   100.000
     q_mesh =
               0.00001000     0.04494208     0.09755937     0.15916263
               0.23128650     0.31572767     0.41458969     0.53033537
               0.66584808     0.82450364     1.01025438     1.22772762
               1.48234092     1.78043706     2.12944203     2.53805004
               3.01644009     3.57652955     4.23227104     5.00000000

     Gradients computed in reciprocal space

[...]

     Starting wfc are  153 randomized atomic wfcs

     Self-consistent Calculation

[...]

     total energy              =   -2827.28560125 Ry
     Harris-Foulkes estimate   =   -2827.28559977 Ry
     estimated scf accuracy    <       0.00000121 Ry

     iteration # 19     ecut=    36.75 Ry     beta=0.10
     Davidson diagonalization with overlap
     ethr =  6.32E-10,  avg # of iterations =  1.1

[...]

     negative rho (up, down):  1.185E+00 0.000E+00

     Adding external electric field

     Computed dipole along edir(3) :
        Dipole                0.0362 Ry au,          0.0919 Debye
        Dipole field          0.0001 Ry au

        Potential amp.       -0.0095 Ry
        Total length         45.0982 bohr

     End of self-consistent calculation

[...]

          k = 0.0608 0.0000 0.0000 ( 16194 PWs)   bands (ev):

[...]

          k =-0.0912-0.1579 0.0000 ( 16164 PWs)   bands (ev):

   -92.5490 -92.5489 -92.5476 -92.3261 -92.2737 -92.2736 -92.2551 -92.2189
   -92.2188 -65.3219 -65.2854 -65.2460 -65.1457 -65.0815 -65.0606 -65.0577
   -65.0290 -64.9963 -37.6902 -37.6067 -37.5368 -37.4840 -37.4445 -37.3926
   -37.3788 -37.3295 -37.3172 -37.2943 -37.2211 -37.1576 -37.0976 -37.0566
   -37.0503 -37.0385 -37.0287 -37.0153 -36.9867 -36.9505 -36.9490 -36.9271
   -36.9053 -36.8664 -36.8529 -36.7674 -36.7350 -12.9601 -12.9459 -12.9424
   -12.9301 -12.9288 -12.6711 -12.6448 -12.6446 -12.6343 -12.6244 -12.6189
   -12.5971 -12.5967 -12.5881 -12.5801  -5.8093  -5.1853  -4.6263  -3.2330
    -2.7534  -2.6512  -2.4300  -2.1081  -1.7070  -1.5661  -1.5306  -1.4246
    -1.3250  -1.2622  -1.1676  -0.9434  -0.6701  -0.6556  -0.6306  -0.5714
    -0.1705  -0.0499   0.1544   0.2935   0.3618   0.4369   0.4929   0.5954
     0.6988   0.7598   0.8371   0.9578   1.0040   1.6224   1.6617   1.7313
     1.8539   1.9267   2.1180   2.1941   2.3148   2.3945   2.4617   2.5510
     2.6058   3.0248   3.1344   3.4437   3.6567   3.7945   3.8147   4.5475
     4.7058   5.3487   5.8583   5.9341   5.9631   6.2168   6.7939   7.2382
     7.3096   7.6917   7.7187   7.8390   7.8670   8.1904

     the Fermi energy is     1.9530 ev

!    total energy              =   -2827.28560745 Ry
     Harris-Foulkes estimate   =   -2827.28560124 Ry
     estimated scf accuracy    <       0.00000074 Ry

     The total energy is the sum of the following terms:

     one-electron contribution =  -21912.21857146 Ry
     hartree contribution      =   10957.88520633 Ry
     xc contribution           =    -447.29636917 Ry
     ewald contribution        =    8574.42289400 Ry
     electric field correction =       0.00000382 Ry
     smearing contrib. (-TS)   =      -0.07877098 Ry

     convergence has been achieved in  19 iterations

 BEEF-vdW xc energy contributions
           1 :   -394.729646851230
           2 :    361.635801785324
           3 :   -303.920827196353
           4 :    234.911679175281
           5 :   -167.869466450706
           6 :    111.752633828175
           7 :   -69.5420185155124
           8 :    39.2960968087928
           9 :   -16.9407802462345
          10 :  -0.964638241338832
          11 :    15.7525238525125
          12 :   -26.8495615507218
          13 :    32.9996890768681
          14 :   -33.5433086122013
          15 :    28.9968076915379
          16 :   -20.8472686448572
          17 :    10.9316246484738
          18 :  -0.916917048677874
          19 :   -7.88968082099700
          20 :    14.4852951255422
          21 :   -18.1316896564586
          22 :    18.4640195210022
          23 :   -15.6753347469372
          24 :    10.5571973455237
          25 :   -4.27195267333502
          26 :   -2.06873284056849
          27 :    7.75824394036266
          28 :   -12.5587113520949
          29 :    16.4478962230114
          30 :   -19.2668628126959
          31 :   -34.6101026720195
          32 :   -24.9094747313873

     Forces acting on atoms (Ry/au):

     negative rho (up, down):  1.185E+00 0.000E+00
     atom    1 type  1   force =    -0.00000676   -0.02058685    0.00974069
     atom    2 type  1   force =    -0.01783158    0.01029129    0.00973969
     atom    3 type  1   force =     0.01782373    0.01029505    0.00974554
     atom    4 type  2   force =    -0.00001223   -0.00000625   -0.03159864
     atom    5 type  1   force =     0.00000188    0.00982828    0.00018628
     atom    6 type  1   force =     0.00850664   -0.00491052    0.00019183
     atom    7 type  1   force =    -0.00851558   -0.00491794    0.00018299
     atom    8 type  2   force =     0.00004469    0.00001285   -0.00053219
     atom    9 type  1   force =     0.00000371    0.00023660    0.00020963
     atom   10 type  1   force =     0.00019383   -0.00012683    0.00019630
     atom   11 type  1   force =    -0.00019768   -0.00013332    0.00021273
     atom   12 type  2   force =    -0.00001065    0.00001764    0.00172515

     Total force =     0.053367     Total SCF correction =     0.005288

     entering subroutine stress ...

     negative rho (up, down):  1.185E+00 0.000E+00
          total   stress  (Ry/bohr**3)                   (kbar)     P=  -28.91
  -0.00029043   0.00000000   0.00000000        -42.72      0.00      0.00
   0.00000000  -0.00029043  -0.00000001          0.00    -42.72     -0.00
   0.00000000  -0.00000001  -0.00000868          0.00     -0.00     -1.28

 !ASE

     Writing output data file calc.save

     General routines

     Parallel routines

   This run was terminated on:  21: 3:55   1Jan2019

   JOB DONE.
Job  /afs/slac/g/suncat/bin/suncat-tsmpirun -x LD_LIBRARY_PATH -wdir /scratch/qe649148_SRoNX pw.x -in pw.inp

TID   HOST_NAME   COMMAND_LINE            STATUS            TERMINATION_TIME
00000 suncat0154 pw.x -in pw.inp   Done                     01/01/2019 21:03:55
00001 suncat0154 pw.x -in pw.inp   Done                     01/01/2019 21:03:55
00002 suncat0154 pw.x -in pw.inp   Done                     01/01/2019 21:03:55
00003 suncat0154 pw.x -in pw.inp   Done                     01/01/2019 21:03:55
00004 suncat0154 pw.x -in pw.inp   Done                     01/01/2019 21:03:55
00005 suncat0154 pw.x -in pw.inp   Done                     01/01/2019 21:03:55
00006 suncat0154 pw.x -in pw.inp   Done                     01/01/2019 21:03:55
00007 suncat0154 pw.x -in pw.inp   Done                     01/01/2019 21:03:55
00008 suncat0143 pw.x -in pw.inp   Done                     01/01/2019 21:03:55
00009 suncat0143 pw.x -in pw.inp   Done                     01/01/2019 21:03:55
00010 suncat0143 pw.x -in pw.inp   Done                     01/01/2019 21:03:55
00011 suncat0143 pw.x -in pw.inp   Done                     01/01/2019 21:03:55
00012 suncat0143 pw.x -in pw.inp   Done                     01/01/2019 21:03:55
00013 suncat0143 pw.x -in pw.inp   Done                     01/01/2019 21:03:55
00014 suncat0143 pw.x -in pw.inp   Done                     01/01/2019 21:03:55
00015 suncat0143 pw.x -in pw.inp   Done                     01/01/2019 21:03:55
00016 suncat0108 pw.x -in pw.inp   Done                     01/01/2019 21:03:55
00017 suncat0108 pw.x -in pw.inp   Done                     01/01/2019 21:03:55
00018 suncat0108 pw.x -in pw.inp   Done                     01/01/2019 21:03:55
00019 suncat0108 pw.x -in pw.inp   Done                     01/01/2019 21:03:55
00020 suncat0108 pw.x -in pw.inp   Done                     01/01/2019 21:03:55
00021 suncat0108 pw.x -in pw.inp   Done                     01/01/2019 21:03:55
00022 suncat0108 pw.x -in pw.inp   Done                     01/01/2019 21:03:55
00023 suncat0108 pw.x -in pw.inp   Done                     01/01/2019 21:03:55
00024 suncat0252 pw.x -in pw.inp   Done                     01/01/2019 21:03:55
00025 suncat0252 pw.x -in pw.inp   Done                     01/01/2019 21:03:55
00026 suncat0252 pw.x -in pw.inp   Done                     01/01/2019 21:03:55
00027 suncat0252 pw.x -in pw.inp   Done                     01/01/2019 21:03:55
00028 suncat0252 pw.x -in pw.inp   Done                     01/01/2019 21:03:55
00029 suncat0252 pw.x -in pw.inp   Done                     01/01/2019 21:03:55
00030 suncat0252 pw.x -in pw.inp   Done                     01/01/2019 21:03:55
00031 suncat0252 pw.x -in pw.inp   Done                     01/01/2019 21:03:55
00032 suncat0226 pw.x -in pw.inp   Done                     01/01/2019 21:03:55
00033 suncat0226 pw.x -in pw.inp   Done                     01/01/2019 21:03:55
00034 suncat0226 pw.x -in pw.inp   Done                     01/01/2019 21:03:55
00035 suncat0226 pw.x -in pw.inp   Done                     01/01/2019 21:03:55
00036 suncat0226 pw.x -in pw.inp   Done                     01/01/2019 21:03:55
00037 suncat0226 pw.x -in pw.inp   Done                     01/01/2019 21:03:55
00038 suncat0226 pw.x -in pw.inp   Done                     01/01/2019 21:03:55
00039 suncat0226 pw.x -in pw.inp   Done                     01/01/2019 21:03:55
00040 suncat0225 pw.x -in pw.inp   Done                     01/01/2019 21:03:55
00041 suncat0225 pw.x -in pw.inp   Done                     01/01/2019 21:03:55
00042 suncat0225 pw.x -in pw.inp   Done                     01/01/2019 21:03:55
00043 suncat0225 pw.x -in pw.inp   Done                     01/01/2019 21:03:55
00044 suncat0225 pw.x -in pw.inp   Done                     01/01/2019 21:03:55
00045 suncat0225 pw.x -in pw.inp   Done                     01/01/2019 21:03:55
00046 suncat0225 pw.x -in pw.inp   Done                     01/01/2019 21:03:55
00047 suncat0225 pw.x -in pw.inp   Done                     01/01/2019 21:03:55
00048 suncat0224 pw.x -in pw.inp   Done                     01/01/2019 21:03:55
00049 suncat0224 pw.x -in pw.inp   Done                     01/01/2019 21:03:55
00050 suncat0224 pw.x -in pw.inp   Done                     01/01/2019 21:03:55
00051 suncat0224 pw.x -in pw.inp   Done                     01/01/2019 21:03:55
00052 suncat0224 pw.x -in pw.inp   Done                     01/01/2019 21:03:55
00053 suncat0224 pw.x -in pw.inp   Done                     01/01/2019 21:03:55
00054 suncat0224 pw.x -in pw.inp   Done                     01/01/2019 21:03:55
00055 suncat0224 pw.x -in pw.inp   Done                     01/01/2019 21:03:55
00056 suncat0223 pw.x -in pw.inp   Done                     01/01/2019 21:03:55
00057 suncat0223 pw.x -in pw.inp   Done                     01/01/2019 21:03:55
00058 suncat0223 pw.x -in pw.inp   Done                     01/01/2019 21:03:55
00059 suncat0223 pw.x -in pw.inp   Done                     01/01/2019 21:03:55
00060 suncat0223 pw.x -in pw.inp   Done                     01/01/2019 21:03:55
00061 suncat0223 pw.x -in pw.inp   Done                     01/01/2019 21:03:55
00062 suncat0223 pw.x -in pw.inp   Done                     01/01/2019 21:03:55
00063 suncat0223 pw.x -in pw.inp   Done                     01/01/2019 21:03:55