     Program PWSCF v.5.1rc2 (svn rev. 11289) starts on 24Dec2018 at 19:50:27

     Current dimensions of program PWSCF are:
     Max number of different atomic species (ntypx) = 10
     Max number of k-points (npk) =  40000
     Max angular momentum in pseudopotentials (lmaxx) =  3
     Presently stress not available with electric field

     IMPORTANT: XC functional enforced from input :
     Exchange-correlation      = BEEF-VDW ( 1  4 27 13 2)
     Any further DFT definition will be discarded
     Please, verify this is what you really want

     Subspace diagonalization in iterative solution of the eigenvalue problem:
     a serial algorithm will be used

     Found symmetry operation: I + ( -0.5000 -0.5000  0.0000)
     This is a supercell, fractional translations are disabled

     bravais-lattice index     =            0
     lattice parameter (alat)  =       1.8897  a.u.
     unit-cell volume          =    6129.3800 (a.u.)^3
     number of atoms/cell      =           12
     number of atomic types    =            2
     number of electrons       =       180.00
     number of Kohn-Sham states=          120
     kinetic-energy cutoff     =      36.7493  Ry
     charge density cutoff     =     367.4932  Ry
     convergence threshold     =      1.0E-06
     mixing beta               =       0.1000
     number of iterations used =           10  plain     mixing
     Exchange-correlation      = BEEF-VDW ( 1  4 27 13 2)
     nstep                     =           50

     celldm(1)=   1.889726  celldm(2)=   0.000000  celldm(3)=   0.000000
     celldm(4)=   0.000000  celldm(5)=   0.000000  celldm(6)=   0.000000

     crystal axes: (cart. coord. in units of alat)
               a(1) = (   6.200803   0.000000   0.000000 )
               a(2) = (   2.073188   5.843959   0.000000 )
               a(3) = (   0.000000   0.000000  25.064836 )

     reciprocal axes: (cart. coord. in units 2 pi/alat)
               b(1) = (  0.161269 -0.057212  0.000000 )
               b(2) = (  0.000000  0.171117  0.000000 )
               b(3) = (  0.000000  0.000000  0.039897 )

     PseudoPot. # 1 for Ga read from file:
     /afs/slac.stanford.edu/u/if/mamunm/psp/gbrv1.5pbe/Ga.UPF
     MD5 check sum: ccd671392a58a050fbb373893b4fcd66
     Pseudo is Ultrasoft + core correction, Zval = 19.0
     Generated by new atomic code, or converted to UPF format
     Using radial grid of  871 points,  6 beta functions with:
                l(1) =   0
                l(2) =   0
                l(3) =   1
                l(4) =   1
                l(5) =   2
                l(6) =   2
     Q(r) pseudized with  8 coefficients,  rinner =    1.250   1.250   1.250
                                                       1.250   1.250

     PseudoPot. # 2 for Y  read from file:
     /afs/slac.stanford.edu/u/if/mamunm/psp/gbrv1.5pbe/Y.UPF
     MD5 check sum: d034151ed7554c50b6e82763ed42c788
     Pseudo is Ultrasoft + core correction, Zval = 11.0
     Generated by new atomic code, or converted to UPF format
     Using radial grid of  885 points,  6 beta functions with:
                l(1) =   0
                l(2) =   0
                l(3) =   1
                l(4) =   1
                l(5) =   2
                l(6) =   2
     Q(r) pseudized with  8 coefficients,  rinner =    1.200   1.200   1.200
                                                       1.200   1.200

     vdW kernel table read from file vdW_kernel_table
     MD5 check sum: 095c7af220d748ca6e76c0b4c6cfb241

     atomic species   valence    mass     pseudopotential
        Ga1           19.00    69.72300     Ga( 1.00)
        Y1            11.00    88.90584     Y ( 1.00)

     No symmetry found

   Cartesian axes

     site n.     atom                  positions (alat units)
         1           Ga1 tau(   1) = (   0.0000000   0.0000000  10.0000000  )
         2           Ga1 tau(   2) = (   4.1369957   2.9219793  10.0000000  )
         3           Y1  tau(   3) = (   3.1004016   0.0000000  10.0000000  )
         4           Y1  tau(   4) = (   1.0365941   2.9219793  10.0000000  )
         5           Ga1 tau(   5) = (   6.2008032   4.3796561  12.5324180  )
         6           Ga1 tau(   6) = (   2.0638075   1.4576768  12.5324180  )
         7           Y1  tau(   7) = (   3.1004016   4.3796561  12.5324180  )
         8           Y1  tau(   8) = (   5.1642091   1.4576768  12.5324180  )
         9           Ga1 tau(   9) = (   4.1276150   2.9153536  15.0648361  )
        10           Ga1 tau(  10) = (   8.2646107   5.8373328  15.0648361  )
        11           Y1  tau(  11) = (   7.2280166   2.9153536  15.0648361  )
        12           Y1  tau(  12) = (   5.1642091   5.8373328  15.0648361  )

     number of k points=    20  Fermi-Dirac smearing, width (Ry)=  0.0110
                       cart. coord. in units 2pi/alat
        k(    1) = (   0.0000000   0.0000000   0.0000000), wk =   0.0555556
        k(    2) = (   0.0000000   0.0285195   0.0000000), wk =   0.1111111
        k(    3) = (   0.0000000   0.0570390   0.0000000), wk =   0.1111111
        k(    4) = (   0.0000000  -0.0855584   0.0000000), wk =   0.0555556
        k(    5) = (   0.0268782  -0.0095353   0.0000000), wk =   0.1111111
        k(    6) = (   0.0268782   0.0189842   0.0000000), wk =   0.1111111
        k(    7) = (   0.0268782   0.0475037   0.0000000), wk =   0.1111111
        k(    8) = (   0.0268782  -0.0950937   0.0000000), wk =   0.1111111
        k(    9) = (   0.0268782  -0.0665742   0.0000000), wk =   0.1111111
        k(   10) = (   0.0268782  -0.0380547   0.0000000), wk =   0.1111111
        k(   11) = (   0.0537565  -0.0190705   0.0000000), wk =   0.1111111
        k(   12) = (   0.0537565   0.0094490   0.0000000), wk =   0.1111111
        k(   13) = (   0.0537565   0.0379684   0.0000000), wk =   0.1111111
        k(   14) = (   0.0537565  -0.1046290   0.0000000), wk =   0.1111111
        k(   15) = (   0.0537565  -0.0761095   0.0000000), wk =   0.1111111
        k(   16) = (   0.0537565  -0.0475900   0.0000000), wk =   0.1111111
        k(   17) = (  -0.0806347   0.0286058   0.0000000), wk =   0.0555556
        k(   18) = (  -0.0806347   0.0571253   0.0000000), wk =   0.1111111
        k(   19) = (  -0.0806347   0.0856447   0.0000000), wk =   0.1111111
        k(   20) = (  -0.0806347  -0.0569527   0.0000000), wk =   0.0555556

     Largest allocated arrays     est. size (Mb)     dimensions
     Largest temporary arrays     est. size (Mb)     dimensions

     Initial potential from superposition of free atoms
     Check: negative starting charge=   -0.000903

     starting charge  173.97318, renormalised to  180.00000

     negative rho (up, down):  9.347E-04 0.000E+00

     *
     * You are using vdW-DF for exchange-correlation in this calculation.
     * Please cite the following three references that made this development
     * possible:
     *
     *   M. Dion, H. Rydberg, E. Schroder, D. C. Langreth, and
     *   B. I. Lundqvist, Phys. Rev. Lett. 92, 246401 (2004).
     *
     *   T. Thonhauser, V. R. Cooper, S. Li, A. Puzder, P. Hyldgaard, and
     *   D. C. Langreth, Phys. Rev. B 76, 125112 (2007).
     *
     *   G. Roman-Perez and J. M. Soler, Phys. Rev. Lett. 103, 096102 (2009).
     *
     *
     * If you are using vdW-DF2, please also cite:
     *
     *   K. Lee, E. D. Murray, L. Kong, B. I. Lundqvist, and
     *   D. C. Langreth, Phys. Rev. B 82, 081101(R) (2010).
     *
     *
     * If you are calculating the stress with vdW-DF, please also cite:
     *
     *   R. Sabatini, E. Kucukbenli, B. Kolb, T. Thonhauser, and
     *   S. de Gironcoli, J. Phys.: Condens. Matter 24, 424209 (2012).
     *

     Carrying out vdW-DF run using the following parameters:

     Nqs =      20    Nr_points =    1024   r_max =   100.000
     q_mesh =
               0.00001000     0.04494208     0.09755937     0.15916263
               0.23128650     0.31572767     0.41458969     0.53033537
               0.66584808     0.82450364     1.01025438     1.22772762
               1.48234092     1.78043706     2.12944203     2.53805004
               3.01644009     3.57652955     4.23227104     5.00000000

     Gradients computed in reciprocal space

     Adding external electric field

     Computed dipole along edir(3) :
        Dipole               -0.0000 Ry au,         -0.0000 Debye
        Dipole field         -0.0000 Ry au

        Potential amp.        0.0000 Ry
        Total length         46.1815 bohr

     Starting wfc are  150 randomized atomic wfcs

     Self-consistent Calculation

     iteration #  1     ecut=    36.75 Ry     beta=0.10
     Davidson diagonalization with overlap
     ethr =  1.00E-02,  avg # of iterations =  4.0

[...]

     total energy              =   -3063.36272933 Ry
     Harris-Foulkes estimate   =   -3066.86507172 Ry
     estimated scf accuracy    <      19.67667344 Ry

[...]

     End of self-consistent calculation

          k = 0.0000 0.0000 0.0000 ( 23073 PWs)   bands (ev):

   -93.5752 -93.5751 -93.5751 -93.5750 -93.5704 -93.5704 -93.4417 -93.4416
   -93.4416 -93.4416 -93.4295 -93.4295 -93.4294 -93.4294 -93.4158 -93.4157
   -93.4157 -93.4156 -42.5210 -42.5204 -42.4992 -42.4991 -42.0286 -42.0065
   -22.5831 -22.5755 -22.5626 -22.5370 -22.5199 -22.5178 -22.4586 -22.4376
   -22.4372 -22.4102 -22.2259 -22.2252 -22.1637 -22.0173 -21.9873 -21.9852
   -21.9342 -21.8501 -13.9345 -13.9285 -13.9279 -13.9198 -13.9179 -13.9123
   -13.9108 -13.8995 -13.8932 -13.8669 -13.7807 -13.7801 -13.7798 -13.7797
   -13.7787 -13.7688 -13.7668 -13.7631 -13.7590 -13.7586 -13.7583 -13.7579
   -13.7569 -13.7537 -13.7472 -13.7455 -13.7436 -13.7404 -13.7146 -13.7125
    -7.0455  -5.7984  -4.9919  -4.8828  -4.5243  -4.3855  -1.2114  -0.9622
    -0.5786  -0.4627  -0.4375  -0.2304  -0.0225   0.1736   0.4420   0.5868
     0.6823   0.8688   1.0999   1.1472   1.1956   1.5080   1.5562   1.6648
     1.9967   2.0355   2.4436   2.8650   2.8735   2.8786   2.9316   3.0702
     3.0710   3.4173   3.5552   3.8720   3.9158   4.1158   4.1363   4.2357
     4.2470   4.2812   4.5005   4.5225   4.5404   4.5513   4.7993   4.9176

[...]

          k =-0.0806 0.0286 0.0000 ( 23062 PWs)   bands (ev):

[...]

     the Fermi energy is     0.9341 ev

!    total energy              =   -3062.08934930 Ry
     Harris-Foulkes estimate   =   -3062.08934612 Ry
     estimated scf accuracy    <       0.00000015 Ry

     The total energy is the sum of the following terms:

     one-electron contribution =  -14830.25606818 Ry
     hartree contribution      =    7417.13703451 Ry
     xc contribution           =    -468.20520756 Ry
     ewald contribution        =    4819.29747933 Ry
     electric field correction =       0.00000000 Ry
     smearing contrib. (-TS)   =      -0.06258741 Ry

     convergence has been achieved in  16 iterations

 BEEF-vdW xc energy contributions
           1 :   -415.090098548384
           2 :    375.778841063405
           3 :   -308.963809045266
           4 :    232.614438801181
           5 :   -163.112913901909
           6 :    109.619252570740
           7 :   -72.9551101109082
           8 :    48.5512375270559
           9 :   -30.9877051220403
          10 :    17.3249260554119
[...]
     Using radial grid of  871 points,  6 beta functions with:
                l(1) =   0
                l(2) =   0
                l(3) =   1
                l(4) =   1
                l(5) =   2
                l(6) =   2
     Q(r) pseudized with  8 coefficients,  rinner =    1.250   1.250   1.250
                                                       1.250   1.250

     PseudoPot. # 2 for Y  read from file:
     /afs/slac.stanford.edu/u/if/mamunm/psp/gbrv1.5pbe/Y.UPF
     MD5 check sum: d034151ed7554c50b6e82763ed42c788
     Pseudo is Ultrasoft + core correction, Zval = 11.0
     Generated by new atomic code, or converted to UPF format
     Using radial grid of  885 points,  6 beta functions with:
                l(1) =   0
                l(2) =   0
                l(3) =   1
                l(4) =   1
                l(5) =   2
                l(6) =   2
     Q(r) pseudized with  8 coefficients,  rinner =    1.200   1.200   1.200
                                                       1.200   1.200

     vdW kernel table read from file vdW_kernel_table
     MD5 check sum: 095c7af220d748ca6e76c0b4c6cfb241

     atomic species   valence    mass     pseudopotential
        Ga1           19.00    69.72300     Ga( 1.00)
        Y1            11.00    88.90584     Y ( 1.00)

     No symmetry found

   Cartesian axes

     site n.     atom                  positions (alat units)
         1           Ga1 tau(   1) = (   0.0000000   0.0000000  10.0000000  )
         2           Ga1 tau(   2) = (   4.1369957   2.9219793  10.0000000  )
         3           Y1  tau(   3) = (   3.1004016   0.0000000  10.0000000  )
         4           Y1  tau(   4) = (   1.0365941   2.9219793  10.0000000  )
         5           Ga1 tau(   5) = (   6.2008032   4.3796561  12.5324180  )
         6           Ga1 tau(   6) = (   2.0638075   1.4576768  12.5324180  )
         7           Y1  tau(   7) = (   3.1004016   4.3796561  12.5324180  )
         8           Y1  tau(   8) = (   5.1642091   1.4576768  12.5324180  )
         9           Ga1 tau(   9) = (   4.1255653   2.9137303  15.1765266  )
        10           Ga1 tau(  10) = (   8.2624383   5.8359817  15.1765798  )
        11           Y1  tau(  11) = (   7.2291013   2.9161361  15.0773101  )
        12           Y1  tau(  12) = (   5.1651337   5.8379724  15.0772671  )

     number of k points=    20  Fermi-Dirac smearing, width (Ry)=  0.0110
                       cart. coord. in units 2pi/alat
        k(    1) = (   0.0000000   0.0000000   0.0000000), wk =   0.0555556
        k(    2) = (   0.0000000   0.0285195   0.0000000), wk =   0.1111111
        k(    3) = (   0.0000000   0.0570390   0.0000000), wk =   0.1111111
        k(    4) = (   0.0000000  -0.0855584   0.0000000), wk =   0.0555556
        k(    5) = (   0.0268782  -0.0095353   0.0000000), wk =   0.1111111
        k(    6) = (   0.0268782   0.0189842   0.0000000), wk =   0.1111111
        k(    7) = (   0.0268782   0.0475037   0.0000000), wk =   0.1111111
        k(    8) = (   0.0268782  -0.0950937   0.0000000), wk =   0.1111111
        k(    9) = (   0.0268782  -0.0665742   0.0000000), wk =   0.1111111
        k(   10) = (   0.0268782  -0.0380547   0.0000000), wk =   0.1111111
        k(   11) = (   0.0537565  -0.0190705   0.0000000), wk =   0.1111111
        k(   12) = (   0.0537565   0.0094490   0.0000000), wk =   0.1111111
        k(   13) = (   0.0537565   0.0379684   0.0000000), wk =   0.1111111
        k(   14) = (   0.0537565  -0.1046290   0.0000000), wk =   0.1111111
        k(   15) = (   0.0537565  -0.0761095   0.0000000), wk =   0.1111111
        k(   16) = (   0.0537565  -0.0475900   0.0000000), wk =   0.1111111
        k(   17) = (  -0.0806347   0.0286058   0.0000000), wk =   0.0555556
        k(   18) = (  -0.0806347   0.0571253   0.0000000), wk =   0.1111111
        k(   19) = (  -0.0806347   0.0856447   0.0000000), wk =   0.1111111
        k(   20) = (  -0.0806347  -0.0569527   0.0000000), wk =   0.0555556

     Largest allocated arrays     est. size (Mb)     dimensions
     Largest temporary arrays     est. size (Mb)     dimensions

     Initial potential from superposition of free atoms
     Check: negative starting charge=   -0.000879

     starting charge  173.97318, renormalised to  180.00000

[...]

     *
     * You are using vdW-DF for exchange-correlation in this calculation.
     * Please cite the following three references that made this development
     * possible:
     *
     *   M. Dion, H. Rydberg, E. Schroder, D. C. Langreth, and
     *   B. I. Lundqvist, Phys. Rev. Lett. 92, 246401 (2004).
     *
     *   T. Thonhauser, V. R. Cooper, S. Li, A. Puzder, P. Hyldgaard, and
     *   D. C. Langreth, Phys. Rev. B 76, 125112 (2007).
     *
     *   G. Roman-Perez and J. M. Soler, Phys. Rev. Lett. 103, 096102 (2009).
     *
     *
     * If you are using vdW-DF2, please also cite:
     *
     *   K. Lee, E. D. Murray, L. Kong, B. I. Lundqvist, and
     *   D. C. Langreth, Phys. Rev. B 82, 081101(R) (2010).
     *
     *
     * If you are calculating the stress with vdW-DF, please also cite:
     *
     *   R. Sabatini, E. Kucukbenli, B. Kolb, T. Thonhauser, and
     *   S. de Gironcoli, J. Phys.: Condens. Matter 24, 424209 (2012).
     *

     Carrying out vdW-DF run using the following parameters:

     Nqs =      20    Nr_points =    1024   r_max =   100.000
     q_mesh =
               0.00001000     0.04494208     0.09755937     0.15916263
               0.23128650     0.31572767     0.41458969     0.53033537
               0.66584808     0.82450364     1.01025438     1.22772762
               1.48234092     1.78043706     2.12944203     2.53805004
               3.01644009     3.57652955     4.23227104     5.00000000

     Gradients computed in reciprocal space

[...]

     Starting wfc are  150 randomized atomic wfcs

     Self-consistent Calculation

[...]

     iteration # 11     ecut=    36.75 Ry     beta=0.10
     Davidson diagonalization with overlap
     c_bands:  1 eigenvalues not converged
     ethr =  1.41E-06,  avg # of iterations =  6.7

[...]

     total energy              =   -3062.09153345 Ry
     Harris-Foulkes estimate   =   -3062.09153380 Ry
     estimated scf accuracy    <       0.00000362 Ry

     iteration # 16     ecut=    36.75 Ry     beta=0.10
     Davidson diagonalization with overlap
     ethr =  2.01E-09,  avg # of iterations =  3.0

[...]

     negative rho (up, down):  5.734E-04 0.000E+00

     Adding external electric field

     Computed dipole along edir(3) :
        Dipole               -0.0310 Ry au,         -0.0787 Debye
        Dipole field         -0.0001 Ry au

        Potential amp.        0.0059 Ry
        Total length         46.1815 bohr

     End of self-consistent calculation

[...]

          k = 0.0538-0.0476 0.0000 ( 23068 PWs)   bands (ev):

[...]

          k =-0.0806-0.0570 0.0000 ( 22988 PWs)   bands (ev):

   -93.5788 -93.5788 -93.5778 -93.5778 -93.5731 -93.5731 -93.4723 -93.4722
   -93.4605 -93.4605 -93.4494 -93.4493 -93.4465 -93.4464 -93.4376 -93.4376
   -93.4183 -93.4183 -42.5439 -42.5231 -42.5213 -42.5005 -42.0924 -42.0698
   -22.6174 -22.5740 -22.5695 -22.5483 -22.5420 -22.5239 -22.5016 -22.4598
   -22.4454 -22.4122 -22.2494 -22.2265 -22.2200 -22.0801 -22.0396 -22.0238
   -22.0049 -21.9107 -13.9296 -13.9283 -13.9172 -13.9134 -13.9129 -13.9128
   -13.9062 -13.8972 -13.8954 -13.8675 -13.8064 -13.8045 -13.7921 -13.7896
   -13.7868 -13.7831 -13.7823 -13.7809 -13.7776 -13.7763 -13.7716 -13.7653
   -13.7623 -13.7600 -13.7542 -13.7540 -13.7489 -13.7448 -13.7436 -13.7183
    -5.7436  -5.5327  -4.9906  -4.9832  -4.2163  -3.0959  -2.6217  -2.5968
    -1.9791  -1.4009  -1.3554  -1.3550  -1.1805  -0.6045  -0.3393   0.1535
     0.8268   0.9119   0.9475   1.5099   1.6643   1.7200   1.8109   1.9510
     1.9553   2.1352   2.2300   2.2837   2.3082   2.6076   2.6458   2.6770
     3.4550   3.6358   3.9091   4.0923   4.1503   4.5868   4.6247   4.6459
     4.6541   4.7641   4.7876   5.3203   5.3601   5.3987   5.4196   5.7893

     the Fermi energy is     0.9050 ev

!    total energy              =   -3062.09153702 Ry
     Harris-Foulkes estimate   =   -3062.09153391 Ry
     estimated scf accuracy    <       0.00000064 Ry

     The total energy is the sum of the following terms:

     one-electron contribution =  -14693.92289501 Ry
     hartree contribution      =    7348.84656979 Ry
     xc contribution           =    -468.15899695 Ry
     ewald contribution        =    4751.20715133 Ry
     electric field correction =       0.00000197 Ry
     smearing contrib. (-TS)   =      -0.06336814 Ry

     convergence has been achieved in  16 iterations

 BEEF-vdW xc energy contributions
           1 :   -415.042478218334
           2 :    375.707712804203
           3 :   -308.867888663307
           4 :    232.518103466526
           5 :   -163.048529114662
           6 :    109.602442300032
           7 :   -72.9716201658889
           8 :    48.5669712842087
           9 :   -30.9754197586356
          10 :    17.2857546918167
          11 :   -7.63191761281314
          12 :    3.32706487023108
          13 :   -4.41704568449188
          14 :    8.57363740638823
          15 :   -12.0388063561119
          16 :    11.7558358067835
          17 :   -7.06250107277651
          18 :  -0.203419412071298
          19 :    7.11236057569340
          20 :   -11.4831201972647
          21 :    12.9192106870715
          22 :   -12.5122779891697
          23 :    11.6561120050983
          24 :   -10.9643699496525
          25 :    10.0570623934196
          26 :   -8.23074136854348
          27 :    5.35367512471771
          28 :   -2.22731275784793
          29 :   0.133984397233803
          30 :   5.657612953922353E-002
          31 :   -33.7765979765507
          32 :   -23.0606667524591

     Forces acting on atoms (Ry/au):

     negative rho (up, down):  5.734E-04 0.000E+00
     atom    1 type  1   force =     0.00012914    0.00011492   -0.00932480
     atom    2 type  1   force =     0.00015446    0.00007879   -0.00932082
     atom    3 type  2   force =    -0.00013871   -0.00009510   -0.00154626
     atom    4 type  2   force =    -0.00012539   -0.00009101   -0.00154429
     atom    5 type  1   force =    -0.00008328   -0.00004683    0.00255837
     atom    6 type  1   force =    -0.00007515   -0.00005934    0.00255882
     atom    7 type  2   force =     0.00013634    0.00009699    0.00850672
     atom    8 type  2   force =     0.00014453    0.00010047    0.00851204
     atom    9 type  1   force =     0.00007664    0.00005165    0.00023418
     atom   10 type  1   force =     0.00005455    0.00004224    0.00023155
     atom   11 type  2   force =    -0.00013329   -0.00009850   -0.00043516
     atom   12 type  2   force =    -0.00013985   -0.00009428   -0.00043034

     Total force =     0.018365     Total SCF correction =     0.001549

     entering subroutine stress ...

     negative rho (up, down):  5.734E-04 0.000E+00
          total   stress  (Ry/bohr**3)                   (kbar)     P=   -5.08
  -0.00007026  -0.00003076   0.00000004        -10.33     -4.53      0.01
  -0.00003076  -0.00004843   0.00000003         -4.53     -7.12      0.00
   0.00000004   0.00000003   0.00001508          0.01      0.00      2.22

 !ASE

     Writing output data file calc.save

     General routines

     Parallel routines

   This run was terminated on:  22:45:23  24Dec2018

   JOB DONE.
Job  /afs/slac/g/suncat/bin/suncat-tsmpirun -x LD_LIBRARY_PATH -wdir /scratch/qe108990_eOYIo pw.x -in pw.inp

TID   HOST_NAME   COMMAND_LINE            STATUS            TERMINATION_TIME
00000 suncat0083 pw.x -in pw.inp   Done                     12/24/2018 22:45:23
00001 suncat0083 pw.x -in pw.inp   Done                     12/24/2018 22:45:23
00002 suncat0083 pw.x -in pw.inp   Done                     12/24/2018 22:45:23
00003 suncat0083 pw.x -in pw.inp   Done                     12/24/2018 22:45:23
00004 suncat0083 pw.x -in pw.inp   Done                     12/24/2018 22:45:23
00005 suncat0083 pw.x -in pw.inp   Done                     12/24/2018 22:45:23
00006 suncat0083 pw.x -in pw.inp   Done                     12/24/2018 22:45:23
00007 suncat0083 pw.x -in pw.inp   Done                     12/24/2018 22:45:23
00008 suncat0070 pw.x -in pw.inp   Done                     12/24/2018 22:45:23
00009 suncat0070 pw.x -in pw.inp   Done                     12/24/2018 22:45:23
00010 suncat0070 pw.x -in pw.inp   Done                     12/24/2018 22:45:23
00011 suncat0070 pw.x -in pw.inp   Done                     12/24/2018 22:45:23
00012 suncat0070 pw.x -in pw.inp   Done                     12/24/2018 22:45:23
00013 suncat0070 pw.x -in pw.inp   Done                     12/24/2018 22:45:23
00014 suncat0070 pw.x -in pw.inp   Done                     12/24/2018 22:45:23
00015 suncat0070 pw.x -in pw.inp   Done                     12/24/2018 22:45:23
00016 suncat0039 pw.x -in pw.inp   Done                     12/24/2018 22:45:23
00017 suncat0039 pw.x -in pw.inp   Done                     12/24/2018 22:45:23
00018 suncat0039 pw.x -in pw.inp   Done                     12/24/2018 22:45:23
00019 suncat0039 pw.x -in pw.inp   Done                     12/24/2018 22:45:23
00020 suncat0039 pw.x -in pw.inp   Done                     12/24/2018 22:45:23
00021 suncat0039 pw.x -in pw.inp   Done                     12/24/2018 22:45:23
00022 suncat0039 pw.x -in pw.inp   Done                     12/24/2018 22:45:23
00023 suncat0039 pw.x -in pw.inp   Done                     12/24/2018 22:45:23
00024 suncat0034 pw.x -in pw.inp   Done                     12/24/2018 22:45:23
00025 suncat0034 pw.x -in pw.inp   Done                     12/24/2018 22:45:23
00026 suncat0034 pw.x -in pw.inp   Done                     12/24/2018 22:45:23
00027 suncat0034 pw.x -in pw.inp   Done                     12/24/2018 22:45:23
00028 suncat0034 pw.x -in pw.inp   Done                     12/24/2018 22:45:23
00029 suncat0034 pw.x -in pw.inp   Done                     12/24/2018 22:45:23
00030 suncat0034 pw.x -in pw.inp   Done                     12/24/2018 22:45:23
00031 suncat0034 pw.x -in pw.inp   Done                     12/24/2018 22:45:23
00032 suncat0027 pw.x -in pw.inp   Done                     12/24/2018 22:45:23
00033 suncat0027 pw.x -in pw.inp   Done                     12/24/2018 22:45:23
00034 suncat0027 pw.x -in pw.inp   Done                     12/24/2018 22:45:23
00035 suncat0027 pw.x -in pw.inp   Done                     12/24/2018 22:45:23
00036 suncat0027 pw.x -in pw.inp   Done                     12/24/2018 22:45:23
00037 suncat0027 pw.x -in pw.inp   Done                     12/24/2018 22:45:23
00038 suncat0027 pw.x -in pw.inp   Done                     12/24/2018 22:45:23
00039 suncat0027 pw.x -in pw.inp   Done                     12/24/2018 22:45:23
00040 suncat0021 pw.x -in pw.inp   Done                     12/24/2018 22:45:23
00041 suncat0021 pw.x -in pw.inp   Done                     12/24/2018 22:45:23
00042 suncat0021 pw.x -in pw.inp   Done                     12/24/2018 22:45:23
00043 suncat0021 pw.x -in pw.inp   Done                     12/24/2018 22:45:23
00044 suncat0021 pw.x -in pw.inp   Done                     12/24/2018 22:45:23
00045 suncat0021 pw.x -in pw.inp   Done                     12/24/2018 22:45:23
00046 suncat0021 pw.x -in pw.inp   Done                     12/24/2018 22:45:23
00047 suncat0021 pw.x -in pw.inp   Done                     12/24/2018 22:45:23
00048 suncat0191 pw.x -in pw.inp   Done                     12/24/2018 22:45:23
00049 suncat0191 pw.x -in pw.inp   Done                     12/24/2018 22:45:23
00050 suncat0191 pw.x -in pw.inp   Done                     12/24/2018 22:45:23
00051 suncat0191 pw.x -in pw.inp   Done                     12/24/2018 22:45:23
00052 suncat0191 pw.x -in pw.inp   Done                     12/24/2018 22:45:23
00053 suncat0191 pw.x -in pw.inp   Done                     12/24/2018 22:45:23
00054 suncat0191 pw.x -in pw.inp   Done                     12/24/2018 22:45:23
00055 suncat0191 pw.x -in pw.inp   Done                     12/24/2018 22:45:23
00056 suncat0267 pw.x -in pw.inp   Done                     12/24/2018 22:45:23
00057 suncat0267 pw.x -in pw.inp   Done                     12/24/2018 22:45:23
00058 suncat0267 pw.x -in pw.inp   Done                     12/24/2018 22:45:23
00059 suncat0267 pw.x -in pw.inp   Done                     12/24/2018 22:45:23
00060 suncat0267 pw.x -in pw.inp   Done                     12/24/2018 22:45:23
00061 suncat0267 pw.x -in pw.inp   Done                     12/24/2018 22:45:23
00062 suncat0267 pw.x -in pw.inp   Done                     12/24/2018 22:45:23
00063 suncat0267 pw.x -in pw.inp   Done                     12/24/2018 22:45:23