     Program PWSCF v.5.1rc2 (svn rev. 11289) starts on  2Jan2019 at 20:18:15

     Current dimensions of program PWSCF are:
     Max number of different atomic species (ntypx) = 10
     Max number of k-points (npk) =  40000
     Max angular momentum in pseudopotentials (lmaxx) =  3
     Presently stress not available with electric field

     IMPORTANT: XC functional enforced from input :
     Exchange-correlation      = BEEF-VDW ( 1  4 27 13 2)
     Any further DFT definition will be discarded
     Please, verify this is what you really want

     Subspace diagonalization in iterative solution of the eigenvalue problem:
     a serial algorithm will be used

     bravais-lattice index     =            0
     lattice parameter (alat)  =       1.8897  a.u.
     unit-cell volume          =    5649.5027 (a.u.)^3
     number of atoms/cell      =           12
     number of atomic types    =            2
     number of electrons       =       150.00
     number of Kohn-Sham states=          105
     kinetic-energy cutoff     =      36.7493  Ry
     charge density cutoff     =     367.4932  Ry
     convergence threshold     =      1.0E-06
     mixing beta               =       0.1000
     number of iterations used =           10  plain     mixing
     Exchange-correlation      = BEEF-VDW ( 1  4 27 13 2)
     nstep                     =           50

     celldm(1)=   1.889726  celldm(2)=   0.000000  celldm(3)=   0.000000
     celldm(4)=   0.000000  celldm(5)=   0.000000  celldm(6)=   0.000000

     crystal axes: (cart. coord. in units of alat)
               a(1) = (   6.209596   0.000000   0.000000 )
               a(2) = (  -3.104798   5.377668   0.000000 )
               a(3) = (   0.000000   0.000000  25.070114 )

     reciprocal axes: (cart. coord. in units 2 pi/alat)
               b(1) = (  0.161041  0.092977  0.000000 )
               b(2) = (  0.000000  0.185954  0.000000 )
               b(3) = (  0.000000  0.000000  0.039888 )

     PseudoPot. # 1 for Zr read from file:
     /afs/slac.stanford.edu/u/if/mamunm/psp/gbrv1.5pbe/Zr.UPF
     MD5 check sum: 5db81b1e868ab7776c4564c113de050b
     Pseudo is Ultrasoft + core correction, Zval = 12.0
     Generated by new atomic code, or converted to UPF format
     Using radial grid of  887 points,  6 beta functions with:
                l(1) =   0
                l(2) =   0
                l(3) =   1
                l(4) =   1
                l(5) =   2
                l(6) =   2
     Q(r) pseudized with  6 coefficients,  rinner =    1.200   1.200   1.200
                                                       1.200   1.200

     PseudoPot. # 2 for Mo read from file:
     /afs/slac.stanford.edu/u/if/mamunm/psp/gbrv1.5pbe/Mo.UPF
     MD5 check sum: 30c4dcd161f5d35cd49bb5239c51a633
     Pseudo is Ultrasoft + core correction, Zval = 14.0
     Generated by new atomic code, or converted to UPF format
     Using radial grid of  889 points,  6 beta functions with:
                l(1) =   0
                l(2) =   0
                l(3) =   1
                l(4) =   1
                l(5) =   2
                l(6) =   2
     Q(r) pseudized with  6 coefficients,  rinner =    1.000   1.000   1.000
                                                       1.000   1.000

     vdW kernel table read from file vdW_kernel_table
     MD5 check sum: 095c7af220d748ca6e76c0b4c6cfb241

     atomic species   valence    mass     pseudopotential
        Zr1           12.00    91.22400     Zr( 1.00)
        Mo1           14.00    95.95000     Mo( 1.00)

     No symmetry found

   Cartesian axes

     site n.     atom                  positions (alat units)
         1           Zr1 tau(   1) = (   0.0000000   0.0000000  10.0000000  )
         2           Zr1 tau(   2) = (  -1.5523990   2.6888339  10.0000000  )
         3           Zr1 tau(   3) = (   1.5523990   2.6888339  10.0000000  )
         4           Mo1 tau(   4) = (   3.1047980   0.0000000  10.0000000  )
         5           Zr1 tau(   5) = (   3.1047980   1.7925559  12.5350569  )
         6           Zr1 tau(   6) = (   1.5523990   4.4813898  12.5350569  )
         7           Zr1 tau(   7) = (  -1.5523990   4.4813898  12.5350569  )
         8           Mo1 tau(   8) = (   0.0000000   1.7925559  12.5350569  )
         9           Zr1 tau(   9) = (  -0.0000000   3.5851119  15.0701138  )
        10           Zr1 tau(  10) = (   1.5523990   0.8962780  15.0701138  )
        11           Zr1 tau(  11) = (   4.6571969   0.8962780  15.0701138  )
        12           Mo1 tau(  12) = (   3.1047980   3.5851119  15.0701138  )

     number of k points=    20  Fermi-Dirac smearing, width (Ry)=  0.0110
                       cart. coord. in units 2pi/alat
        k(    1) = (   0.0000000   0.0000000   0.0000000), wk =   0.0555556
        k(    2) = (   0.0000000   0.0309924   0.0000000), wk =   0.1111111
        k(    3) = (   0.0000000   0.0619847   0.0000000), wk =   0.1111111
        k(    4) = (   0.0000000  -0.0929771   0.0000000), wk =   0.0555556
        k(    5) = (   0.0268402   0.0154962   0.0000000), wk =   0.1111111
        k(    6) = (   0.0268402   0.0464886   0.0000000), wk =   0.1111111
        k(    7) = (   0.0268402   0.0774809   0.0000000), wk =   0.1111111
        k(    8) = (   0.0268402  -0.0774809   0.0000000), wk =   0.1111111
        k(    9) = (   0.0268402  -0.0464886   0.0000000), wk =   0.1111111
        k(   10) = (   0.0268402  -0.0154962   0.0000000), wk =   0.1111111
        k(   11) = (   0.0536804   0.0309924   0.0000000), wk =   0.1111111
        k(   12) = (   0.0536804   0.0619847   0.0000000), wk =   0.1111111
        k(   13) = (   0.0536804   0.0929771   0.0000000), wk =   0.1111111
        k(   14) = (   0.0536804  -0.0619847   0.0000000), wk =   0.1111111
        k(   15) = (   0.0536804  -0.0309924   0.0000000), wk =   0.1111111
        k(   16) = (   0.0536804   0.0000000   0.0000000), wk =   0.1111111
        k(   17) = (  -0.0805205  -0.0464886   0.0000000), wk =   0.0555556
        k(   18) = (  -0.0805205  -0.0154962   0.0000000), wk =   0.1111111
        k(   19) = (  -0.0805205   0.0154962   0.0000000), wk =   0.1111111
        k(   20) = (  -0.0805205  -0.1394657   0.0000000), wk =   0.0555556

     Largest allocated arrays     est. size (Mb)     dimensions
     Largest temporary arrays     est. size (Mb)     dimensions

     Initial potential from superposition of free atoms
     Check: negative starting charge=   -0.553520

     starting charge  149.97747, renormalised to  150.00000

     negative rho (up, down):  5.536E-01 0.000E+00

     *
     * You are using vdW-DF for exchange-correlation in this calculation.
     * Please cite the following three references that made this development
     * possible:
     *
     *   M. Dion, H. Rydberg, E. Schroder, D. C. Langreth, and
     *   B. I. Lundqvist, Phys. Rev. Lett. 92, 246401 (2004).
     *
     *   T. Thonhauser, V. R. Cooper, S. Li, A. Puzder, P. Hyldgaard, and
     *   D. C. Langreth, Phys. Rev. B 76, 125112 (2007).
     *
     *   G. Roman-Perez and J. M. Soler, Phys. Rev. Lett. 103, 096102 (2009).
     *
     *
     * If you are using vdW-DF2, please also cite:
     *
     *   K. Lee, E. D. Murray, L. Kong, B. I. Lundqvist, and
     *   D. C. Langreth, Phys. Rev. B 82, 081101(R) (2010).
     *
     *
     * If you are calculating the stress with vdW-DF, please also cite:
     *
     *   R. Sabatini, E. Kucukbenli, B. Kolb, T. Thonhauser, and
     *   S. de Gironcoli, J. Phys.: Condens. Matter 24, 424209 (2012).
     *

     Carrying out vdW-DF run using the following parameters:

     Nqs =      20    Nr_points =    1024   r_max =   100.000
     q_mesh =
               0.00001000     0.04494208     0.09755937     0.15916263
               0.23128650     0.31572767     0.41458969     0.53033537
               0.66584808     0.82450364     1.01025438     1.22772762
               1.48234092     1.78043706     2.12944203     2.53805004
               3.01644009     3.57652955     4.23227104     5.00000000

     Gradients computed in reciprocal space

     Adding external electric field

     Computed dipole along edir(3) :
        Dipole               -0.0000 Ry au,         -0.0000 Debye
        Dipole field         -0.0000 Ry au

        Potential amp.        0.0000 Ry
        Total length         46.1913 bohr

     Starting wfc are  156 randomized atomic wfcs

     Self-consistent Calculation

     iteration #  1     ecut=    36.75 Ry     beta=0.10
     Davidson diagonalization with overlap
     ethr =  1.00E-02,  avg # of iterations =  2.0

[...]

     total energy              =   -1316.55851948 Ry
     Harris-Foulkes estimate   =   -1318.10157996 Ry
     estimated scf accuracy    <       8.62038128 Ry

[...]

     End of self-consistent calculation

          k = 0.0000 0.0000 0.0000 ( 21283 PWs)   bands (ev):

   -59.1595 -59.0368 -59.0368 -47.5556 -47.5491 -47.4533 -47.4533 -47.4518
   -47.4518 -47.2396 -47.1464 -47.1464 -33.1866 -33.1866 -33.1611 -33.0878
   -33.0843 -33.0618 -33.0618 -33.0608 -33.0608 -26.0112 -25.9543 -25.7851
   -25.7073 -25.7073 -25.6322 -25.6322 -25.6197 -25.6197 -25.6039 -25.5867
   -25.4775 -25.4775 -25.2584 -25.2584 -25.2444 -25.2156 -25.1015 -25.1015
   -25.0929 -25.0929 -25.0723 -25.0347 -25.0347 -24.9063 -24.8281 -24.8281
    -3.4791  -2.3069  -1.6334  -1.3724  -1.2797  -1.2797  -1.1581  -1.0747
    -1.0747  -0.6883  -0.6513  -0.6513  -0.6182  -0.6182  -0.5899   0.3563
     0.3563   0.4488   1.1882   1.2703   1.2703   1.3711   1.6720   1.8362
     2.0172   2.2129   2.2129   2.3323   2.3323   2.3373   2.3373   2.4285
     2.4285   2.4934   2.4934   2.5372   2.8369   2.9729   3.0588   3.0588
     3.4535   3.4535   3.7562   3.7847   3.7847   4.1140   4.1140   4.2549
     4.3397   4.9409   4.9409   4.9694   4.9694   5.2811   5.4220   5.6926
     5.6927

[...]

          k =-0.0805-0.0465 0.0000 ( 21256 PWs)   bands (ev):

[...]

     the Fermi energy is     1.6643 ev

!    total energy              =   -1317.36870974 Ry
     Harris-Foulkes estimate   =   -1317.36870995 Ry
     estimated scf accuracy    <       0.00000014 Ry

     The total energy is the sum of the following terms:

     one-electron contribution =   -9619.31406253 Ry
     hartree contribution      =    4801.42720224 Ry
     xc contribution           =    -225.36475504 Ry
     ewald contribution        =    3726.00233850 Ry
     electric field correction =       0.00000000 Ry
     smearing contrib. (-TS)   =      -0.11943291 Ry

     convergence has been achieved in  20 iterations

 BEEF-vdW xc energy contributions
           1 :   -193.166164337773
           2 :    175.276345986810
           3 :   -144.946814429393
           4 :    110.562452909824
           5 :   -79.9768100293345
           6 :    57.7776339250210
           7 :   -44.4139295287225
           8 :    37.2077720794562
           9 :   -32.4222083473472
          10 :    27.2240275615455
          11 :   -20.6994147382887
          12 :    13.6817888804923
          13 :   -7.76214527521367
          14 :    4.14530656634972
          15 :   -2.96839708830259
          16 :    3.34324820454654
          17 :   -3.97186119938456
[...]
               b(3) = (  0.000000  0.000000  0.039888 )

     PseudoPot. # 1 for Zr read from file:
     /afs/slac.stanford.edu/u/if/mamunm/psp/gbrv1.5pbe/Zr.UPF
     MD5 check sum: 5db81b1e868ab7776c4564c113de050b
     Pseudo is Ultrasoft + core correction, Zval = 12.0
     Generated by new atomic code, or converted to UPF format
     Using radial grid of  887 points,  6 beta functions with:
                l(1) =   0
                l(2) =   0
                l(3) =   1
                l(4) =   1
                l(5) =   2
                l(6) =   2
     Q(r) pseudized with  6 coefficients,  rinner =    1.200   1.200   1.200
                                                       1.200   1.200

     PseudoPot. # 2 for Mo read from file:
     /afs/slac.stanford.edu/u/if/mamunm/psp/gbrv1.5pbe/Mo.UPF
     MD5 check sum: 30c4dcd161f5d35cd49bb5239c51a633
     Pseudo is Ultrasoft + core correction, Zval = 14.0
     Generated by new atomic code, or converted to UPF format
     Using radial grid of  889 points,  6 beta functions with:
                l(1) =   0
                l(2) =   0
                l(3) =   1
                l(4) =   1
                l(5) =   2
                l(6) =   2
     Q(r) pseudized with  6 coefficients,  rinner =    1.000   1.000   1.000
                                                       1.000   1.000

     vdW kernel table read from file vdW_kernel_table
     MD5 check sum: 095c7af220d748ca6e76c0b4c6cfb241

     atomic species   valence    mass     pseudopotential
        Zr1           12.00    91.22400     Zr( 1.00)
        Mo1           14.00    95.95000     Mo( 1.00)

     No symmetry found

   Cartesian axes

     site n.     atom                  positions (alat units)
         1           Zr1 tau(   1) = (   0.0000000   0.0000000  10.0000000  )
         2           Zr1 tau(   2) = (  -1.5523990   2.6888339  10.0000000  )
         3           Zr1 tau(   3) = (   1.5523990   2.6888339  10.0000000  )
         4           Mo1 tau(   4) = (   3.1047980   0.0000000  10.0000000  )
         5           Zr1 tau(   5) = (   3.1047980   1.7925559  12.5350569  )
         6           Zr1 tau(   6) = (   1.5523990   4.4813898  12.5350569  )
         7           Zr1 tau(   7) = (  -1.5523990   4.4813898  12.5350569  )
         8           Mo1 tau(   8) = (   0.0000000   1.7925559  12.5350569  )
         9           Zr1 tau(   9) = (   0.0000057   3.5278020  15.0695640  )
        10           Zr1 tau(  10) = (   1.5027678   0.9249353  15.0695627  )
        11           Zr1 tau(  11) = (   4.7068265   0.9249307  15.0695577  )
        12           Mo1 tau(  12) = (   3.1047996   3.5851127  14.7095915  )

     number of k points=    20  Fermi-Dirac smearing, width (Ry)=  0.0110
                       cart. coord. in units 2pi/alat
        k(    1) = (   0.0000000   0.0000000   0.0000000), wk =   0.0555556
        k(    2) = (   0.0000000   0.0309924   0.0000000), wk =   0.1111111
        k(    3) = (   0.0000000   0.0619847   0.0000000), wk =   0.1111111
        k(    4) = (   0.0000000  -0.0929771   0.0000000), wk =   0.0555556
        k(    5) = (   0.0268402   0.0154962   0.0000000), wk =   0.1111111
        k(    6) = (   0.0268402   0.0464886   0.0000000), wk =   0.1111111
        k(    7) = (   0.0268402   0.0774809   0.0000000), wk =   0.1111111
        k(    8) = (   0.0268402  -0.0774809   0.0000000), wk =   0.1111111
        k(    9) = (   0.0268402  -0.0464886   0.0000000), wk =   0.1111111
        k(   10) = (   0.0268402  -0.0154962   0.0000000), wk =   0.1111111
        k(   11) = (   0.0536804   0.0309924   0.0000000), wk =   0.1111111
        k(   12) = (   0.0536804   0.0619847   0.0000000), wk =   0.1111111
        k(   13) = (   0.0536804   0.0929771   0.0000000), wk =   0.1111111
        k(   14) = (   0.0536804  -0.0619847   0.0000000), wk =   0.1111111
        k(   15) = (   0.0536804  -0.0309924   0.0000000), wk =   0.1111111
        k(   16) = (   0.0536804   0.0000000   0.0000000), wk =   0.1111111
        k(   17) = (  -0.0805205  -0.0464886   0.0000000), wk =   0.0555556
        k(   18) = (  -0.0805205  -0.0154962   0.0000000), wk =   0.1111111
        k(   19) = (  -0.0805205   0.0154962   0.0000000), wk =   0.1111111
        k(   20) = (  -0.0805205  -0.1394657   0.0000000), wk =   0.0555556

     Largest allocated arrays     est. size (Mb)     dimensions
     Largest temporary arrays     est. size (Mb)     dimensions

     Initial potential from superposition of free atoms
     Check: negative starting charge=   -0.551731

     starting charge  149.97747, renormalised to  150.00000

[...]

     *
     * You are using vdW-DF for exchange-correlation in this calculation.
     * Please cite the following three references that made this development
     * possible:
     *
     *   M. Dion, H. Rydberg, E. Schroder, D. C. Langreth, and
     *   B. I. Lundqvist, Phys. Rev. Lett. 92, 246401 (2004).
     *
     *   T. Thonhauser, V. R. Cooper, S. Li, A. Puzder, P. Hyldgaard, and
     *   D. C. Langreth, Phys. Rev. B 76, 125112 (2007).
     *
     *   G. Roman-Perez and J. M. Soler, Phys. Rev. Lett. 103, 096102 (2009).
     *
     *
     * If you are using vdW-DF2, please also cite:
     *
     *   K. Lee, E. D. Murray, L. Kong, B. I. Lundqvist, and
     *   D. C. Langreth, Phys. Rev. B 82, 081101(R) (2010).
     *
     *
     * If you are calculating the stress with vdW-DF, please also cite:
     *
     *   R. Sabatini, E. Kucukbenli, B. Kolb, T. Thonhauser, and
     *   S. de Gironcoli, J. Phys.: Condens. Matter 24, 424209 (2012).
     *

     Carrying out vdW-DF run using the following parameters:

     Nqs =      20    Nr_points =    1024   r_max =   100.000
     q_mesh =
               0.00001000     0.04494208     0.09755937     0.15916263
               0.23128650     0.31572767     0.41458969     0.53033537
               0.66584808     0.82450364     1.01025438     1.22772762
               1.48234092     1.78043706     2.12944203     2.53805004
               3.01644009     3.57652955     4.23227104     5.00000000

     Gradients computed in reciprocal space

[...]

     Starting wfc are  156 randomized atomic wfcs

     Self-consistent Calculation

[...]

     total energy              =   -1317.38875397 Ry
     Harris-Foulkes estimate   =   -1317.38875316 Ry
     estimated scf accuracy    <       0.00000173 Ry

     iteration # 18     ecut=    36.75 Ry     beta=0.10
     Davidson diagonalization with overlap
     ethr =  1.15E-09,  avg # of iterations =  2.0

[...]

     negative rho (up, down):  5.667E-01 0.000E+00

     Adding external electric field

     Computed dipole along edir(3) :
        Dipole                0.0900 Ry au,          0.2287 Debye
        Dipole field          0.0002 Ry au

        Potential amp.       -0.0185 Ry
        Total length         46.1913 bohr

     End of self-consistent calculation

[...]

          k = 0.0537 0.0000 0.0000 ( 21237 PWs)   bands (ev):

[...]

          k =-0.0805-0.1395 0.0000 ( 21256 PWs)   bands (ev):

   -59.1241 -58.9599 -58.8664 -47.5087 -47.4606 -47.4499 -47.4317 -47.4167
   -47.3834 -47.0689 -47.0373 -47.0051 -33.1496 -33.1461 -33.1296 -33.0055
   -32.9864 -32.9828 -32.9338 -32.9306 -32.9186 -25.7866 -25.7319 -25.6641
   -25.6086 -25.5694 -25.5346 -25.5240 -25.4804 -25.4743 -25.4712 -25.4322
   -25.4012 -25.3930 -25.3609 -25.3523 -25.3447 -25.3069 -25.0997 -25.0703
   -25.0625 -25.0170 -24.9723 -24.9468 -24.9443 -24.9307 -24.9060 -24.7216
    -1.9632  -1.9066  -1.0008  -0.9797  -0.5406  -0.5173  -0.4187  -0.3715
    -0.3416  -0.3027   0.1534   0.1591   0.2125   0.3139   0.4542   0.4905
     0.6742   0.7474   0.8547   0.9188   0.9277   1.0714   1.1676   1.2761
     1.2965   1.3510   1.5447   1.6058   1.7142   1.7323   1.8161   1.8639
     2.0096   2.1126   2.2216   2.2665   2.5210   2.5397   2.7970   2.8931
     2.9578   3.2122   3.4188   3.4963   3.6247   3.6665   3.7283   3.9499
     3.9817   4.1430   4.2586   4.4190   4.4531   4.4647   4.6536   4.8620
     5.0582

     the Fermi energy is     1.7252 ev

!    total energy              =   -1317.38875433 Ry
     Harris-Foulkes estimate   =   -1317.38875306 Ry
     estimated scf accuracy    <       0.00000085 Ry

     The total energy is the sum of the following terms:

     one-electron contribution =   -9756.02606081 Ry
     hartree contribution      =    4870.19526764 Ry
     xc contribution           =    -225.52098253 Ry
     ewald contribution        =    3794.07838958 Ry
     electric field correction =       0.00001801 Ry
     smearing contrib. (-TS)   =      -0.11538622 Ry

     convergence has been achieved in  18 iterations

 BEEF-vdW xc energy contributions
           1 :   -193.375974359910
           2 :    175.536009486050
           3 :   -145.266654114207
           4 :    110.896880983432
           5 :   -80.2418245285386
           6 :    57.8962850952357
           7 :   -44.3667194126378
           8 :    37.0537192888351
           9 :   -32.2708609143138
          10 :    27.1721837057029
          11 :   -20.7739629828279
          12 :    13.8277099558869
          13 :   -7.88207872337776
          14 :    4.16106289520201
          15 :   -2.86401829833193
          16 :    3.16707344846995
          17 :   -3.80295613364584
          18 :    3.79323439983878
          19 :   -2.89708778513835
          20 :    1.56589170818049
          21 :  -0.517835399448273
          22 :   0.240243786144873
          23 :  -0.718577277833646
          24 :    1.50348328297665
          25 :   -2.02168191215938
          26 :    1.91264102156634
          27 :   -1.19724049121024
          28 :   0.204281953871401
          29 :   0.666264550657701
          30 :   -1.18328543803747
          31 :   -22.2622077583336
          32 :   -16.7226692780070

     Forces acting on atoms (Ry/au):

     negative rho (up, down):  5.667E-01 0.000E+00
     atom    1 type  1   force =    -0.00000037    0.01605516   -0.00190189
     atom    2 type  1   force =     0.01390361   -0.00802791   -0.00190088
     atom    3 type  1   force =    -0.01390380   -0.00802764   -0.00190136
     atom    4 type  2   force =    -0.00000028   -0.00000024    0.03581379
     atom    5 type  1   force =     0.00000033   -0.01643892   -0.01102820
     atom    6 type  1   force =    -0.01423651    0.00821967   -0.01102730
     atom    7 type  1   force =     0.01423655    0.00821864   -0.01102780
     atom    8 type  2   force =    -0.00000049    0.00000039    0.00437958
     atom    9 type  1   force =    -0.00000010   -0.00030457   -0.00025330
     atom   10 type  1   force =    -0.00026333    0.00015189   -0.00025377
     atom   11 type  1   force =     0.00026420    0.00015293   -0.00025382
     atom   12 type  2   force =     0.00000019    0.00000060   -0.00064504

     Total force =     0.057117     Total SCF correction =     0.002227

     entering subroutine stress ...

     negative rho (up, down):  5.667E-01 0.000E+00
          total   stress  (Ry/bohr**3)                   (kbar)     P=  -10.95
  -0.00009788   0.00000000   0.00000000        -14.40      0.00      0.00
   0.00000000  -0.00009788   0.00000000          0.00    -14.40      0.00
   0.00000000   0.00000000  -0.00002747          0.00      0.00     -4.04

 !ASE

     Writing output data file calc.save

     General routines

     Parallel routines

   This run was terminated on:  22:10:15   2Jan2019

   JOB DONE.
Job  /afs/slac/g/suncat/bin/suncat-tsmpirun -x LD_LIBRARY_PATH -wdir /scratch/qe649550_t0sml pw.x -in pw.inp

TID   HOST_NAME   COMMAND_LINE            STATUS            TERMINATION_TIME
00000 suncat0259 pw.x -in pw.inp   Done                     01/02/2019 22:10:15
00001 suncat0259 pw.x -in pw.inp   Done                     01/02/2019 22:10:15
00002 suncat0259 pw.x -in pw.inp   Done                     01/02/2019 22:10:15
00003 suncat0259 pw.x -in pw.inp   Done                     01/02/2019 22:10:15
00004 suncat0259 pw.x -in pw.inp   Done                     01/02/2019 22:10:15
00005 suncat0259 pw.x -in pw.inp   Done                     01/02/2019 22:10:15
00006 suncat0259 pw.x -in pw.inp   Done                     01/02/2019 22:10:15
00007 suncat0259 pw.x -in pw.inp   Done                     01/02/2019 22:10:15
00008 suncat0256 pw.x -in pw.inp   Done                     01/02/2019 22:10:15
00009 suncat0256 pw.x -in pw.inp   Done                     01/02/2019 22:10:15
00010 suncat0256 pw.x -in pw.inp   Done                     01/02/2019 22:10:15
00011 suncat0256 pw.x -in pw.inp   Done                     01/02/2019 22:10:15
00012 suncat0256 pw.x -in pw.inp   Done                     01/02/2019 22:10:15
00013 suncat0256 pw.x -in pw.inp   Done                     01/02/2019 22:10:15
00014 suncat0256 pw.x -in pw.inp   Done                     01/02/2019 22:10:15
00015 suncat0256 pw.x -in pw.inp   Done                     01/02/2019 22:10:15
00016 suncat0255 pw.x -in pw.inp   Done                     01/02/2019 22:10:15
00017 suncat0255 pw.x -in pw.inp   Done                     01/02/2019 22:10:15
00018 suncat0255 pw.x -in pw.inp   Done                     01/02/2019 22:10:15
00019 suncat0255 pw.x -in pw.inp   Done                     01/02/2019 22:10:15
00020 suncat0255 pw.x -in pw.inp   Done                     01/02/2019 22:10:15
00021 suncat0255 pw.x -in pw.inp   Done                     01/02/2019 22:10:15
00022 suncat0255 pw.x -in pw.inp   Done                     01/02/2019 22:10:15
00023 suncat0255 pw.x -in pw.inp   Done                     01/02/2019 22:10:15
00024 suncat0232 pw.x -in pw.inp   Done                     01/02/2019 22:10:15
00025 suncat0232 pw.x -in pw.inp   Done                     01/02/2019 22:10:15
00026 suncat0232 pw.x -in pw.inp   Done                     01/02/2019 22:10:15
00027 suncat0232 pw.x -in pw.inp   Done                     01/02/2019 22:10:15
00028 suncat0232 pw.x -in pw.inp   Done                     01/02/2019 22:10:15
00029 suncat0232 pw.x -in pw.inp   Done                     01/02/2019 22:10:15
00030 suncat0232 pw.x -in pw.inp   Done                     01/02/2019 22:10:15
00031 suncat0232 pw.x -in pw.inp   Done                     01/02/2019 22:10:15
00032 suncat0220 pw.x -in pw.inp   Done                     01/02/2019 22:10:15
00033 suncat0220 pw.x -in pw.inp   Done                     01/02/2019 22:10:15
00034 suncat0220 pw.x -in pw.inp   Done                     01/02/2019 22:10:15
00035 suncat0220 pw.x -in pw.inp   Done                     01/02/2019 22:10:15
00036 suncat0220 pw.x -in pw.inp   Done                     01/02/2019 22:10:15
00037 suncat0220 pw.x -in pw.inp   Done                     01/02/2019 22:10:15
00038 suncat0220 pw.x -in pw.inp   Done                     01/02/2019 22:10:15
00039 suncat0220 pw.x -in pw.inp   Done                     01/02/2019 22:10:15
00040 suncat0219 pw.x -in pw.inp   Done                     01/02/2019 22:10:15
00041 suncat0219 pw.x -in pw.inp   Done                     01/02/2019 22:10:15
00042 suncat0219 pw.x -in pw.inp   Done                     01/02/2019 22:10:15
00043 suncat0219 pw.x -in pw.inp   Done                     01/02/2019 22:10:15
00044 suncat0219 pw.x -in pw.inp   Done                     01/02/2019 22:10:15
00045 suncat0219 pw.x -in pw.inp   Done                     01/02/2019 22:10:15
00046 suncat0219 pw.x -in pw.inp   Done                     01/02/2019 22:10:15
00047 suncat0219 pw.x -in pw.inp   Done                     01/02/2019 22:10:15
00048 suncat0201 pw.x -in pw.inp   Done                     01/02/2019 22:10:15
00049 suncat0201 pw.x -in pw.inp   Done                     01/02/2019 22:10:15
00050 suncat0201 pw.x -in pw.inp   Done                     01/02/2019 22:10:15
00051 suncat0201 pw.x -in pw.inp   Done                     01/02/2019 22:10:15
00052 suncat0201 pw.x -in pw.inp   Done                     01/02/2019 22:10:15
00053 suncat0201 pw.x -in pw.inp   Done                     01/02/2019 22:10:15
00054 suncat0201 pw.x -in pw.inp   Done                     01/02/2019 22:10:15
00055 suncat0201 pw.x -in pw.inp   Done                     01/02/2019 22:10:15
00056 suncat0200 pw.x -in pw.inp   Done                     01/02/2019 22:10:15
00057 suncat0200 pw.x -in pw.inp   Done                     01/02/2019 22:10:15
00058 suncat0200 pw.x -in pw.inp   Done                     01/02/2019 22:10:15
00059 suncat0200 pw.x -in pw.inp   Done                     01/02/2019 22:10:15
00060 suncat0200 pw.x -in pw.inp   Done                     01/02/2019 22:10:15
00061 suncat0200 pw.x -in pw.inp   Done                     01/02/2019 22:10:15
00062 suncat0200 pw.x -in pw.inp   Done                     01/02/2019 22:10:15
00063 suncat0200 pw.x -in pw.inp   Done                     01/02/2019 22:10:15