     Program PWSCF v.5.1rc2 (svn rev. 11289) starts on 31Dec2018 at 23:48:41

     Current dimensions of program PWSCF are:
     Max number of different atomic species (ntypx) = 10
     Max number of k-points (npk) =  40000
     Max angular momentum in pseudopotentials (lmaxx) =  3
     Presently stress not available with electric field

     IMPORTANT: XC functional enforced from input :
     Exchange-correlation      = BEEF-VDW ( 1  4 27 13 2)
     Any further DFT definition will be discarded
     Please, verify this is what you really want

     Subspace diagonalization in iterative solution of the eigenvalue problem:
     a serial algorithm will be used

     bravais-lattice index     =            0
     lattice parameter (alat)  =       1.8897  a.u.
     unit-cell volume          =    4368.0544 (a.u.)^3
     number of atoms/cell      =           12
     number of atomic types    =            2
     number of electrons       =       201.00
     number of Kohn-Sham states=          130
     kinetic-energy cutoff     =      36.7493  Ry
     charge density cutoff     =     367.4932  Ry
     convergence threshold     =      1.0E-06
     mixing beta               =       0.1000
     number of iterations used =           10  plain     mixing
     Exchange-correlation      = BEEF-VDW ( 1  4 27 13 2)
     nstep                     =           50

     celldm(1)=   1.889726  celldm(2)=   0.000000  celldm(3)=   0.000000
     celldm(4)=   0.000000  celldm(5)=   0.000000  celldm(6)=   0.000000

     crystal axes: (cart. coord. in units of alat)
               a(1) = (   5.522278   0.000000   0.000000 )
               a(2) = (  -2.761139   4.782433   0.000000 )
               a(3) = (   0.000000   0.000000  24.508921 )

     reciprocal axes: (cart. coord. in units 2 pi/alat)
               b(1) = (  0.181085  0.104549  0.000000 )
               b(2) = (  0.000000  0.209099  0.000000 )
               b(3) = (  0.000000  0.000000  0.040801 )

     PseudoPot. # 1 for Ru read from file:
     /afs/slac.stanford.edu/u/if/mamunm/psp/gbrv1.5pbe/Ru.UPF
     MD5 check sum: 7158a806dd851261a58e6920c40ebe78
     Pseudo is Ultrasoft + core correction, Zval = 16.0
     Generated by new atomic code, or converted to UPF format
     Using radial grid of  967 points,  6 beta functions with:
                l(1) =   0
                l(2) =   0
                l(3) =   1
                l(4) =   1
                l(5) =   2
                l(6) =   2
     Q(r) pseudized with  8 coefficients,  rinner =    1.300   1.300   1.300
                                                       1.300   1.300

     PseudoPot. # 2 for Ag read from file:
     /afs/slac.stanford.edu/u/if/mamunm/psp/gbrv1.5pbe/Ag.UPF
     MD5 check sum: d66d668201baa78d5eb5b04ef7011058
     Pseudo is Ultrasoft + core correction, Zval = 19.0
     Generated by new atomic code, or converted to UPF format
     Using radial grid of  887 points,  6 beta functions with:
                l(1) =   0
                l(2) =   0
                l(3) =   1
                l(4) =   1
                l(5) =   2
                l(6) =   2
     Q(r) pseudized with  6 coefficients,  rinner =    1.300   1.300   1.300
                                                       1.300   1.300

     vdW kernel table read from file vdW_kernel_table
     MD5 check sum: 095c7af220d748ca6e76c0b4c6cfb241

     atomic species   valence    mass     pseudopotential
        Ru1           16.00   101.07000     Ru( 1.00)
        Ag1           19.00   107.86820     Ag( 1.00)

     No symmetry found

   Cartesian axes

     site n.     atom                  positions (alat units)
         1           Ru1 tau(   1) = (   0.0000000   0.0000000  10.0000000  )
         2           Ru1 tau(   2) = (  -1.3805696   2.3912167  10.0000000  )
         3           Ru1 tau(   3) = (   1.3805696   2.3912167  10.0000000  )
         4           Ag1 tau(   4) = (   2.7611392   0.0000000  10.0000000  )
         5           Ru1 tau(   5) = (   2.7611392   1.5941445  12.2544607  )
         6           Ru1 tau(   6) = (   1.3805696   3.9853612  12.2544607  )
         7           Ru1 tau(   7) = (  -1.3805696   3.9853612  12.2544607  )
         8           Ag1 tau(   8) = (   0.0000000   1.5941445  12.2544607  )
         9           Ru1 tau(   9) = (  -0.0000000   3.1882890  14.5089215  )
        10           Ru1 tau(  10) = (   1.3805696   0.7970722  14.5089215  )
        11           Ru1 tau(  11) = (   4.1417088   0.7970722  14.5089215  )
        12           Ag1 tau(  12) = (   2.7611392   3.1882890  14.5089215  )

     number of k points=    20  Fermi-Dirac smearing, width (Ry)=  0.0110
                       cart. coord. in units 2pi/alat
        k(    1) = (   0.0000000   0.0000000   0.0000000), wk =   0.0555556
        k(    2) = (   0.0000000   0.0348498   0.0000000), wk =   0.1111111
        k(    3) = (   0.0000000   0.0696995   0.0000000), wk =   0.1111111
        k(    4) = (   0.0000000  -0.1045493   0.0000000), wk =   0.0555556
        k(    5) = (   0.0301808   0.0174249   0.0000000), wk =   0.1111111
        k(    6) = (   0.0301808   0.0522746   0.0000000), wk =   0.1111111
        k(    7) = (   0.0301808   0.0871244   0.0000000), wk =   0.1111111
        k(    8) = (   0.0301808  -0.0871244   0.0000000), wk =   0.1111111
        k(    9) = (   0.0301808  -0.0522746   0.0000000), wk =   0.1111111
        k(   10) = (   0.0301808  -0.0174249   0.0000000), wk =   0.1111111
        k(   11) = (   0.0603616   0.0348498   0.0000000), wk =   0.1111111
        k(   12) = (   0.0603616   0.0696995   0.0000000), wk =   0.1111111
        k(   13) = (   0.0603616   0.1045493   0.0000000), wk =   0.1111111
        k(   14) = (   0.0603616  -0.0696995   0.0000000), wk =   0.1111111
        k(   15) = (   0.0603616  -0.0348498   0.0000000), wk =   0.1111111
        k(   16) = (   0.0603616   0.0000000   0.0000000), wk =   0.1111111
        k(   17) = (  -0.0905423  -0.0522746   0.0000000), wk =   0.0555556
        k(   18) = (  -0.0905423  -0.0174249   0.0000000), wk =   0.1111111
        k(   19) = (  -0.0905423   0.0174249   0.0000000), wk =   0.1111111
        k(   20) = (  -0.0905423  -0.1568239   0.0000000), wk =   0.0555556

     Largest allocated arrays     est. size (Mb)     dimensions
     Largest temporary arrays     est. size (Mb)     dimensions

     Initial potential from superposition of free atoms
     Check: negative starting charge=   -0.660442

     starting charge  190.49972, renormalised to  201.00000

     negative rho (up, down):  6.968E-01 0.000E+00

     *
     * You are using vdW-DF for exchange-correlation in this calculation.
     * Please cite the following three references that made this development
     * possible:
     *
     *   M. Dion, H. Rydberg, E. Schroder, D. C. Langreth, and
     *   B. I. Lundqvist, Phys. Rev. Lett. 92, 246401 (2004).
     *
     *   T. Thonhauser, V. R. Cooper, S. Li, A. Puzder, P. Hyldgaard, and
     *   D. C. Langreth, Phys. Rev. B 76, 125112 (2007).
     *
     *   G. Roman-Perez and J. M. Soler, Phys. Rev. Lett. 103, 096102 (2009).
     *
     *
     * If you are using vdW-DF2, please also cite:
     *
     *   K. Lee, E. D. Murray, L. Kong, B. I. Lundqvist, and
     *   D. C. Langreth, Phys. Rev. B 82, 081101(R) (2010).
     *
     *
     * If you are calculating the stress with vdW-DF, please also cite:
     *
     *   R. Sabatini, E. Kucukbenli, B. Kolb, T. Thonhauser, and
     *   S. de Gironcoli, J. Phys.: Condens. Matter 24, 424209 (2012).
     *

     Carrying out vdW-DF run using the following parameters:

     Nqs =      20    Nr_points =    1024   r_max =   100.000
     q_mesh =
               0.00001000     0.04494208     0.09755937     0.15916263
               0.23128650     0.31572767     0.41458969     0.53033537
               0.66584808     0.82450364     1.01025438     1.22772762
               1.48234092     1.78043706     2.12944203     2.53805004
               3.01644009     3.57652955     4.23227104     5.00000000

     Gradients computed in reciprocal space

     Adding external electric field

     Computed dipole along edir(3) :
        Dipole                0.0000 Ry au,          0.0000 Debye
        Dipole field          0.0000 Ry au

        Potential amp.       -0.0000 Ry
        Total length         45.1573 bohr

     Starting wfc are  156 randomized atomic wfcs

     Self-consistent Calculation

     iteration #  1     ecut=    36.75 Ry     beta=0.10
     Davidson diagonalization with overlap
     ethr =  1.00E-02,  avg # of iterations =  7.8

[...]

     total energy              =   -2637.05707714 Ry
     Harris-Foulkes estimate   =   -2655.61937801 Ry
     estimated scf accuracy    <     104.40162945 Ry

[...]

     End of self-consistent calculation

          k = 0.0000 0.0000 0.0000 ( 16367 PWs)   bands (ev):

   -90.5736 -90.2367 -90.2362 -70.9907 -70.9293 -70.9292 -70.6298 -70.6274
   -70.5697 -70.5696 -70.5691 -70.5691 -54.0603 -54.0603 -54.0493 -53.7639
   -53.7639 -53.7633 -53.7633 -53.6254 -53.6246 -41.2421 -41.0539 -41.0539
   -41.0320 -40.9571 -40.9571 -40.9469 -40.8991 -40.7670 -40.6845 -40.6845
   -40.6657 -40.6656 -40.6317 -40.6316 -40.5170 -40.4586 -40.4585 -40.4451
   -40.4200 -40.4199 -40.3972 -40.3865 -40.3844 -40.3843 -40.3782 -40.3781
    -4.8164  -4.0886  -4.0886  -3.9098  -3.8665  -3.8665  -3.6486  -3.6021
    -3.5789  -3.5789  -3.4764  -3.4764  -3.1171  -3.0142  -2.7631  -2.7631
    -2.6645  -2.6645  -2.5159  -1.7827  -1.5286  -1.2252  -1.1392  -1.0084
    -1.0084  -0.7980  -0.7980  -0.4917  -0.4916  -0.2771  -0.2771   0.1756
     0.1756   0.2028   0.2846   0.3050   0.3051   0.8066   0.8589   0.8589
     1.3444   1.4387   1.4387   1.7786   1.8525   2.0856   2.0857   2.1761
     2.1761   2.2495   2.2495   2.5301   2.5302   2.5604   2.5604   2.7122
     2.7122   2.9172   3.0538   3.1408   3.1409   3.5276   3.8253   3.8424
     3.8424   3.8829   4.0324   5.5089   5.6019   5.8001   5.8001   5.8378
     5.8378   6.3746   6.5939   7.0990   8.0123   8.8325   8.8486   8.9517
     9.4806   9.4810

[...]

          k =-0.0905-0.0523 0.0000 ( 16444 PWs)   bands (ev):

[...]

     the Fermi energy is     1.9756 ev

!    total energy              =   -2645.45187355 Ry
     Harris-Foulkes estimate   =   -2645.45187497 Ry
     estimated scf accuracy    <       0.00000092 Ry

     The total energy is the sum of the following terms:

     one-electron contribution =  -23140.20140137 Ry
     hartree contribution      =   11567.36791676 Ry
     xc contribution           =    -331.40670388 Ry
     ewald contribution        =    9258.90538565 Ry
     electric field correction =       0.00000000 Ry
     smearing contrib. (-TS)   =      -0.11707071 Ry

     convergence has been achieved in  19 iterations

 BEEF-vdW xc energy contributions
           1 :   -287.426223035644
           2 :    262.962415012494
           3 :   -220.952755063722
           4 :    172.371174552698
           5 :   -128.149721789883
           6 :    95.6447902360923
           7 :   -76.9241193875056
           8 :    69.2501333444096
           9 :   -67.2387792307513
          10 :    65.5625303958956
[...]
     Pseudo is Ultrasoft + core correction, Zval = 16.0
     Generated by new atomic code, or converted to UPF format
     Using radial grid of  967 points,  6 beta functions with:
                l(1) =   0
                l(2) =   0
                l(3) =   1
                l(4) =   1
                l(5) =   2
                l(6) =   2
     Q(r) pseudized with  8 coefficients,  rinner =    1.300   1.300   1.300
                                                       1.300   1.300

     PseudoPot. # 2 for Ag read from file:
     /afs/slac.stanford.edu/u/if/mamunm/psp/gbrv1.5pbe/Ag.UPF
     MD5 check sum: d66d668201baa78d5eb5b04ef7011058
     Pseudo is Ultrasoft + core correction, Zval = 19.0
     Generated by new atomic code, or converted to UPF format
     Using radial grid of  887 points,  6 beta functions with:
                l(1) =   0
                l(2) =   0
                l(3) =   1
                l(4) =   1
                l(5) =   2
                l(6) =   2
     Q(r) pseudized with  6 coefficients,  rinner =    1.300   1.300   1.300
                                                       1.300   1.300

     vdW kernel table read from file vdW_kernel_table
     MD5 check sum: 095c7af220d748ca6e76c0b4c6cfb241

     atomic species   valence    mass     pseudopotential
        Ru1           16.00   101.07000     Ru( 1.00)
        Ag1           19.00   107.86820     Ag( 1.00)

     No symmetry found

   Cartesian axes

     site n.     atom                  positions (alat units)
         1           Ru1 tau(   1) = (   0.0000000   0.0000000  10.0000000  )
         2           Ru1 tau(   2) = (  -1.3805696   2.3912167  10.0000000  )
         3           Ru1 tau(   3) = (   1.3805696   2.3912167  10.0000000  )
         4           Ag1 tau(   4) = (   2.7611392   0.0000000  10.0000000  )
         5           Ru1 tau(   5) = (   2.7611392   1.5941445  12.2544607  )
         6           Ru1 tau(   6) = (   1.3805696   3.9853612  12.2544607  )
         7           Ru1 tau(   7) = (  -1.3805696   3.9853612  12.2544607  )
         8           Ag1 tau(   8) = (   0.0000000   1.5941445  12.2544607  )
         9           Ru1 tau(   9) = (  -0.0000039   3.2991691  14.3916524  )
        10           Ru1 tau(  10) = (   1.4765586   0.7416339  14.3916409  )
        11           Ru1 tau(  11) = (   4.0456875   0.7416207  14.3916289  )
        12           Ag1 tau(  12) = (   2.7611402   3.1882784  14.7259021  )

     number of k points=    20  Fermi-Dirac smearing, width (Ry)=  0.0110
                       cart. coord. in units 2pi/alat
        k(    1) = (   0.0000000   0.0000000   0.0000000), wk =   0.0555556
        k(    2) = (   0.0000000   0.0348498   0.0000000), wk =   0.1111111
        k(    3) = (   0.0000000   0.0696995   0.0000000), wk =   0.1111111
        k(    4) = (   0.0000000  -0.1045493   0.0000000), wk =   0.0555556
        k(    5) = (   0.0301808   0.0174249   0.0000000), wk =   0.1111111
        k(    6) = (   0.0301808   0.0522746   0.0000000), wk =   0.1111111
        k(    7) = (   0.0301808   0.0871244   0.0000000), wk =   0.1111111
        k(    8) = (   0.0301808  -0.0871244   0.0000000), wk =   0.1111111
        k(    9) = (   0.0301808  -0.0522746   0.0000000), wk =   0.1111111
        k(   10) = (   0.0301808  -0.0174249   0.0000000), wk =   0.1111111
        k(   11) = (   0.0603616   0.0348498   0.0000000), wk =   0.1111111
        k(   12) = (   0.0603616   0.0696995   0.0000000), wk =   0.1111111
        k(   13) = (   0.0603616   0.1045493   0.0000000), wk =   0.1111111
        k(   14) = (   0.0603616  -0.0696995   0.0000000), wk =   0.1111111
        k(   15) = (   0.0603616  -0.0348498   0.0000000), wk =   0.1111111
        k(   16) = (   0.0603616   0.0000000   0.0000000), wk =   0.1111111
        k(   17) = (  -0.0905423  -0.0522746   0.0000000), wk =   0.0555556
        k(   18) = (  -0.0905423  -0.0174249   0.0000000), wk =   0.1111111
        k(   19) = (  -0.0905423   0.0174249   0.0000000), wk =   0.1111111
        k(   20) = (  -0.0905423  -0.1568239   0.0000000), wk =   0.0555556

     Largest allocated arrays     est. size (Mb)     dimensions
     Largest temporary arrays     est. size (Mb)     dimensions

     Initial potential from superposition of free atoms
     Check: negative starting charge=   -0.657253

     starting charge  190.49972, renormalised to  201.00000

[...]

     *
     * You are using vdW-DF for exchange-correlation in this calculation.
     * Please cite the following three references that made this development
     * possible:
     *
     *   M. Dion, H. Rydberg, E. Schroder, D. C. Langreth, and
     *   B. I. Lundqvist, Phys. Rev. Lett. 92, 246401 (2004).
     *
     *   T. Thonhauser, V. R. Cooper, S. Li, A. Puzder, P. Hyldgaard, and
     *   D. C. Langreth, Phys. Rev. B 76, 125112 (2007).
     *
     *   G. Roman-Perez and J. M. Soler, Phys. Rev. Lett. 103, 096102 (2009).
     *
     *
     * If you are using vdW-DF2, please also cite:
     *
     *   K. Lee, E. D. Murray, L. Kong, B. I. Lundqvist, and
     *   D. C. Langreth, Phys. Rev. B 82, 081101(R) (2010).
     *
     *
     * If you are calculating the stress with vdW-DF, please also cite:
     *
     *   R. Sabatini, E. Kucukbenli, B. Kolb, T. Thonhauser, and
     *   S. de Gironcoli, J. Phys.: Condens. Matter 24, 424209 (2012).
     *

     Carrying out vdW-DF run using the following parameters:

     Nqs =      20    Nr_points =    1024   r_max =   100.000
     q_mesh =
               0.00001000     0.04494208     0.09755937     0.15916263
               0.23128650     0.31572767     0.41458969     0.53033537
               0.66584808     0.82450364     1.01025438     1.22772762
               1.48234092     1.78043706     2.12944203     2.53805004
               3.01644009     3.57652955     4.23227104     5.00000000

     Gradients computed in reciprocal space

[...]

     Starting wfc are  156 randomized atomic wfcs

     Self-consistent Calculation

[...]

     total energy              =   -2645.47934867 Ry
     Harris-Foulkes estimate   =   -2645.47934875 Ry
     estimated scf accuracy    <       0.00000143 Ry

     iteration # 21     ecut=    36.75 Ry     beta=0.10
     Davidson diagonalization with overlap
     ethr =  7.14E-10,  avg # of iterations =  1.2

[...]

     negative rho (up, down):  6.797E-01 0.000E+00

     Adding external electric field

     Computed dipole along edir(3) :
        Dipole                0.0252 Ry au,          0.0640 Debye
        Dipole field          0.0001 Ry au

        Potential amp.       -0.0065 Ry
        Total length         45.1573 bohr

     End of self-consistent calculation

[...]

          k = 0.0604 0.0000 0.0000 ( 16448 PWs)   bands (ev):

[...]

          k =-0.0905-0.1568 0.0000 ( 16444 PWs)   bands (ev):

   -90.6166 -90.2045 -89.9783 -70.9827 -70.9610 -70.9394 -70.7431 -70.6843
   -70.6732 -70.5480 -70.5281 -70.5083 -54.1059 -54.0972 -54.0967 -53.7322
   -53.7317 -53.5913 -53.5190 -53.5186 -53.3479 -41.2328 -41.1473 -41.0698
   -41.0369 -40.9902 -40.9439 -40.9179 -40.8941 -40.8473 -40.7795 -40.7354
   -40.7051 -40.6761 -40.5917 -40.5680 -40.5604 -40.5397 -40.5334 -40.5269
   -40.4867 -40.4849 -40.4592 -40.4494 -40.3961 -40.3740 -40.3668 -40.3293
    -3.8337  -3.6137  -3.5231  -3.4360  -3.3884  -3.3823  -3.2229  -3.0453
    -3.0418  -3.0074  -2.7738  -2.7462  -2.7044  -2.6285  -2.4369  -2.3519
    -2.3163  -2.2023  -2.1023  -1.8675  -1.7380  -1.4617  -1.3924  -1.1297
    -1.0820  -0.9985  -0.9277  -0.8916  -0.7154  -0.6650  -0.4716  -0.4284
    -0.2260  -0.0193   0.1482   0.1803   0.2335   0.2703   0.3946   0.4263
     0.5390   0.6613   0.7092   0.7863   0.8968   0.9425   1.0700   1.1515
     1.2999   1.4347   1.5156   1.7833   1.8423   1.9517   2.0043   2.0065
     2.0467   2.1234   2.3559   2.4259   2.4756   2.8387   3.1469   3.5988
     4.2756   4.3821   4.5205   5.6068   5.7220   6.1884   6.3275   6.7213
     7.6819   7.7742   7.9254   7.9762   8.5089   8.5822   8.6912   8.7061
     9.7575   9.7916

     the Fermi energy is     2.0127 ev

!    total energy              =   -2645.47934755 Ry
     Harris-Foulkes estimate   =   -2645.47934926 Ry
     estimated scf accuracy    <       0.00000089 Ry

     The total energy is the sum of the following terms:

     one-electron contribution =  -23207.84084804 Ry
     hartree contribution      =   11601.20913232 Ry
     xc contribution           =    -331.55488333 Ry
     ewald contribution        =    9292.82095207 Ry
     electric field correction =       0.00000182 Ry
     smearing contrib. (-TS)   =      -0.11370239 Ry

     convergence has been achieved in  21 iterations

 BEEF-vdW xc energy contributions
           1 :   -287.577300455693
           2 :    263.155096140674
           3 :   -221.204895036097
           4 :    172.658797162949
           5 :   -128.406043899933
           6 :    95.7837681801741
           7 :   -76.8817070520585
           8 :    69.0235633566059
           9 :   -66.9013866121847
          10 :    65.2414614171975
          11 :   -60.8405705386999
          12 :    53.2661314594522
          13 :   -44.2168992665116
          14 :    36.1146953146924
          15 :   -30.7187520156358
          16 :    28.3728887834640
          17 :   -28.0878933055906
          18 :    28.2430366217542
          19 :   -27.4591211002523
          20 :    25.2005782269606
          21 :   -21.8695017303646
          22 :    18.4305470521379
          23 :   -15.8257405920100
          24 :    14.4977198390660
          25 :   -14.2396475937402
          26 :    14.3953612931978
          27 :   -14.2583558854478
          28 :    13.4374189556233
          29 :   -12.0059688064677
          30 :    10.3875656402490
          31 :   -29.4816066734601
          32 :   -22.1306889076370

     Forces acting on atoms (Ry/au):

     negative rho (up, down):  6.797E-01 0.000E+00
     atom    1 type  1   force =     0.00000574   -0.02933322    0.02041239
     atom    2 type  1   force =    -0.02540393    0.01466473    0.02041460
     atom    3 type  1   force =     0.02541610    0.01466471    0.02041893
     atom    4 type  2   force =     0.00000430   -0.00001046   -0.04106819
     atom    5 type  1   force =    -0.00000717    0.01592264   -0.00552844
     atom    6 type  1   force =     0.01380019   -0.00796914   -0.00553573
     atom    7 type  1   force =    -0.01378595   -0.00795442   -0.00552352
     atom    8 type  2   force =    -0.00002004    0.00000820   -0.00667779
     atom    9 type  1   force =     0.00000486   -0.00063145    0.00054360
     atom   10 type  1   force =    -0.00054653    0.00032671    0.00055223
     atom   11 type  1   force =     0.00052528    0.00030733    0.00053716
     atom   12 type  2   force =     0.00000715    0.00000438    0.00145476

     Total force =     0.080126     Total SCF correction =     0.005954

     entering subroutine stress ...

     negative rho (up, down):  6.797E-01 0.000E+00
          total   stress  (Ry/bohr**3)                   (kbar)     P=  -14.51
  -0.00013357   0.00000000   0.00000000        -19.65      0.00      0.00
   0.00000000  -0.00013357  -0.00000000          0.00    -19.65     -0.00
   0.00000000  -0.00000000  -0.00002872          0.00     -0.00     -4.22

 !ASE

     Writing output data file calc.save

     General routines

     Parallel routines

   This run was terminated on:   2: 3:45   1Jan2019

   JOB DONE.
Job  /afs/slac/g/suncat/bin/suncat-tsmpirun -x LD_LIBRARY_PATH -wdir /scratch/qe648899_hkxjk pw.x -in pw.inp

TID   HOST_NAME   COMMAND_LINE            STATUS            TERMINATION_TIME
00000 suncat0121 pw.x -in pw.inp   Done                     01/01/2019 02:03:45
00001 suncat0121 pw.x -in pw.inp   Done                     01/01/2019 02:03:45
00002 suncat0121 pw.x -in pw.inp   Done                     01/01/2019 02:03:45
00003 suncat0121 pw.x -in pw.inp   Done                     01/01/2019 02:03:45
00004 suncat0121 pw.x -in pw.inp   Done                     01/01/2019 02:03:45
00005 suncat0121 pw.x -in pw.inp   Done                     01/01/2019 02:03:45
00006 suncat0121 pw.x -in pw.inp   Done                     01/01/2019 02:03:45
00007 suncat0121 pw.x -in pw.inp   Done                     01/01/2019 02:03:45
00008 suncat0115 pw.x -in pw.inp   Done                     01/01/2019 02:03:45
00009 suncat0115 pw.x -in pw.inp   Done                     01/01/2019 02:03:45
00010 suncat0115 pw.x -in pw.inp   Done                     01/01/2019 02:03:45
00011 suncat0115 pw.x -in pw.inp   Done                     01/01/2019 02:03:45
00012 suncat0115 pw.x -in pw.inp   Done                     01/01/2019 02:03:45
00013 suncat0115 pw.x -in pw.inp   Done                     01/01/2019 02:03:45
00014 suncat0115 pw.x -in pw.inp   Done                     01/01/2019 02:03:45
00015 suncat0115 pw.x -in pw.inp   Done                     01/01/2019 02:03:45
00016 suncat0228 pw.x -in pw.inp   Done                     01/01/2019 02:03:45
00017 suncat0228 pw.x -in pw.inp   Done                     01/01/2019 02:03:45
00018 suncat0228 pw.x -in pw.inp   Done                     01/01/2019 02:03:45
00019 suncat0228 pw.x -in pw.inp   Done                     01/01/2019 02:03:45
00020 suncat0228 pw.x -in pw.inp   Done                     01/01/2019 02:03:45
00021 suncat0228 pw.x -in pw.inp   Done                     01/01/2019 02:03:45
00022 suncat0228 pw.x -in pw.inp   Done                     01/01/2019 02:03:45
00023 suncat0228 pw.x -in pw.inp   Done                     01/01/2019 02:03:45
00024 suncat0227 pw.x -in pw.inp   Done                     01/01/2019 02:03:45
00025 suncat0227 pw.x -in pw.inp   Done                     01/01/2019 02:03:45
00026 suncat0227 pw.x -in pw.inp   Done                     01/01/2019 02:03:45
00027 suncat0227 pw.x -in pw.inp   Done                     01/01/2019 02:03:45
00028 suncat0227 pw.x -in pw.inp   Done                     01/01/2019 02:03:45
00029 suncat0227 pw.x -in pw.inp   Done                     01/01/2019 02:03:45
00030 suncat0227 pw.x -in pw.inp   Done                     01/01/2019 02:03:45
00031 suncat0227 pw.x -in pw.inp   Done                     01/01/2019 02:03:45
00032 suncat0217 pw.x -in pw.inp   Done                     01/01/2019 02:03:45
00033 suncat0217 pw.x -in pw.inp   Done                     01/01/2019 02:03:45
00034 suncat0217 pw.x -in pw.inp   Done                     01/01/2019 02:03:45
00035 suncat0217 pw.x -in pw.inp   Done                     01/01/2019 02:03:45
00036 suncat0217 pw.x -in pw.inp   Done                     01/01/2019 02:03:45
00037 suncat0217 pw.x -in pw.inp   Done                     01/01/2019 02:03:45
00038 suncat0217 pw.x -in pw.inp   Done                     01/01/2019 02:03:45
00039 suncat0217 pw.x -in pw.inp   Done                     01/01/2019 02:03:45
00040 suncat0216 pw.x -in pw.inp   Done                     01/01/2019 02:03:45
00041 suncat0216 pw.x -in pw.inp   Done                     01/01/2019 02:03:45
00042 suncat0216 pw.x -in pw.inp   Done                     01/01/2019 02:03:45
00043 suncat0216 pw.x -in pw.inp   Done                     01/01/2019 02:03:45
00044 suncat0216 pw.x -in pw.inp   Done                     01/01/2019 02:03:45
00045 suncat0216 pw.x -in pw.inp   Done                     01/01/2019 02:03:45
00046 suncat0216 pw.x -in pw.inp   Done                     01/01/2019 02:03:45
00047 suncat0216 pw.x -in pw.inp   Done                     01/01/2019 02:03:45
00048 suncat0215 pw.x -in pw.inp   Done                     01/01/2019 02:03:45
00049 suncat0215 pw.x -in pw.inp   Done                     01/01/2019 02:03:45
00050 suncat0215 pw.x -in pw.inp   Done                     01/01/2019 02:03:45
00051 suncat0215 pw.x -in pw.inp   Done                     01/01/2019 02:03:45
00052 suncat0215 pw.x -in pw.inp   Done                     01/01/2019 02:03:45
00053 suncat0215 pw.x -in pw.inp   Done                     01/01/2019 02:03:45
00054 suncat0215 pw.x -in pw.inp   Done                     01/01/2019 02:03:45
00055 suncat0215 pw.x -in pw.inp   Done                     01/01/2019 02:03:45
00056 suncat0210 pw.x -in pw.inp   Done                     01/01/2019 02:03:45
00057 suncat0210 pw.x -in pw.inp   Done                     01/01/2019 02:03:45
00058 suncat0210 pw.x -in pw.inp   Done                     01/01/2019 02:03:45
00059 suncat0210 pw.x -in pw.inp   Done                     01/01/2019 02:03:45
00060 suncat0210 pw.x -in pw.inp   Done                     01/01/2019 02:03:45
00061 suncat0210 pw.x -in pw.inp   Done                     01/01/2019 02:03:45
00062 suncat0210 pw.x -in pw.inp   Done                     01/01/2019 02:03:45
00063 suncat0210 pw.x -in pw.inp   Done                     01/01/2019 02:03:45