     Program PWSCF v.5.1rc2 (svn rev. 11289) starts on  2Jan2019 at 19:34:43

     Current dimensions of program PWSCF are:
     Max number of different atomic species (ntypx) = 10
     Max number of k-points (npk) =  40000
     Max angular momentum in pseudopotentials (lmaxx) =  3
     Presently stress not available with electric field

     IMPORTANT: XC functional enforced from input :
     Exchange-correlation      = BEEF-VDW ( 1  4 27 13 2)
     Any further DFT definition will be discarded
     Please, verify this is what you really want

     Subspace diagonalization in iterative solution of the eigenvalue problem:
     a serial algorithm will be used

     bravais-lattice index     =            0
     lattice parameter (alat)  =       1.8897  a.u.
     unit-cell volume          =    5461.7050 (a.u.)^3
     number of atoms/cell      =           12
     number of atomic types    =            2
     number of electrons       =       165.00
     number of Kohn-Sham states=          112
     kinetic-energy cutoff     =      36.7493  Ry
     charge density cutoff     =     367.4932  Ry
     convergence threshold     =      1.0E-06
     mixing beta               =       0.1000
     number of iterations used =           10  plain     mixing
     Exchange-correlation      = BEEF-VDW ( 1  4 27 13 2)
     nstep                     =           50

     celldm(1)=   1.889726  celldm(2)=   0.000000  celldm(3)=   0.000000
     celldm(4)=   0.000000  celldm(5)=   0.000000  celldm(6)=   0.000000

     crystal axes: (cart. coord. in units of alat)
               a(1) = (   6.114948   0.000000   0.000000 )
               a(2) = (  -3.057474   5.295700   0.000000 )
               a(3) = (   0.000000   0.000000  24.992834 )

     reciprocal axes: (cart. coord. in units 2 pi/alat)
               b(1) = (  0.163534  0.094416  0.000000 )
               b(2) = (  0.000000  0.188832  0.000000 )
               b(3) = (  0.000000  0.000000  0.040011 )

     PseudoPot. # 1 for Zr read from file:
     /afs/slac.stanford.edu/u/if/mamunm/psp/gbrv1.5pbe/Zr.UPF
     MD5 check sum: 5db81b1e868ab7776c4564c113de050b
     Pseudo is Ultrasoft + core correction, Zval = 12.0
     Generated by new atomic code, or converted to UPF format
     Using radial grid of  887 points,  6 beta functions with:
                l(1) =   0
                l(2) =   0
                l(3) =   1
                l(4) =   1
                l(5) =   2
                l(6) =   2
     Q(r) pseudized with  6 coefficients,  rinner =    1.200   1.200   1.200
                                                       1.200   1.200

     PseudoPot. # 2 for Cu read from file:
     /afs/slac.stanford.edu/u/if/mamunm/psp/gbrv1.5pbe/Cu.UPF
     MD5 check sum: 6e991ff952a84172a2a52a1c1e996048
     Pseudo is Ultrasoft + core correction, Zval = 19.0
     Generated by new atomic code, or converted to UPF format
     Using radial grid of  867 points,  6 beta functions with:
                l(1) =   0
                l(2) =   0
                l(3) =   1
                l(4) =   1
                l(5) =   2
                l(6) =   2
     Q(r) pseudized with  8 coefficients,  rinner =    1.150   1.150   1.150
                                                       1.150   1.150

     vdW kernel table read from file vdW_kernel_table
     MD5 check sum: 095c7af220d748ca6e76c0b4c6cfb241

     atomic species   valence    mass     pseudopotential
        Zr1           12.00    91.22400     Zr( 1.00)
        Cu1           19.00    63.54600     Cu( 1.00)

     No symmetry found

   Cartesian axes

     site n.     atom                  positions (alat units)
         1           Zr1 tau(   1) = (   0.0000000   0.0000000  10.0000000  )
         2           Zr1 tau(   2) = (  -1.5287369   2.6478501  10.0000000  )
         3           Zr1 tau(   3) = (   1.5287369   2.6478501  10.0000000  )
         4           Cu1 tau(   4) = (   3.0574739   0.0000000  10.0000000  )
         5           Zr1 tau(   5) = (   3.0574739   1.7652334  12.4964170  )
         6           Zr1 tau(   6) = (   1.5287369   4.4130834  12.4964170  )
         7           Zr1 tau(   7) = (  -1.5287369   4.4130834  12.4964170  )
         8           Cu1 tau(   8) = (   0.0000000   1.7652334  12.4964170  )
         9           Zr1 tau(   9) = (   0.0000000   3.5304667  14.9928339  )
        10           Zr1 tau(  10) = (   1.5287369   0.8826167  14.9928339  )
        11           Zr1 tau(  11) = (   4.5862108   0.8826167  14.9928339  )
        12           Cu1 tau(  12) = (   3.0574739   3.5304667  14.9928339  )

     number of k points=    20  Fermi-Dirac smearing, width (Ry)=  0.0110
                       cart. coord. in units 2pi/alat
        k(    1) = (   0.0000000   0.0000000   0.0000000), wk =   0.0555556
        k(    2) = (   0.0000000   0.0314721   0.0000000), wk =   0.1111111
        k(    3) = (   0.0000000   0.0629441   0.0000000), wk =   0.1111111
        k(    4) = (   0.0000000  -0.0944162   0.0000000), wk =   0.0555556
        k(    5) = (   0.0272556   0.0157360   0.0000000), wk =   0.1111111
        k(    6) = (   0.0272556   0.0472081   0.0000000), wk =   0.1111111
        k(    7) = (   0.0272556   0.0786802   0.0000000), wk =   0.1111111
        k(    8) = (   0.0272556  -0.0786802   0.0000000), wk =   0.1111111
        k(    9) = (   0.0272556  -0.0472081   0.0000000), wk =   0.1111111
        k(   10) = (   0.0272556  -0.0157360   0.0000000), wk =   0.1111111
        k(   11) = (   0.0545112   0.0314721   0.0000000), wk =   0.1111111
        k(   12) = (   0.0545112   0.0629441   0.0000000), wk =   0.1111111
        k(   13) = (   0.0545112   0.0944162   0.0000000), wk =   0.1111111
        k(   14) = (   0.0545112  -0.0629441   0.0000000), wk =   0.1111111
        k(   15) = (   0.0545112  -0.0314721   0.0000000), wk =   0.1111111
        k(   16) = (   0.0545112   0.0000000   0.0000000), wk =   0.1111111
        k(   17) = (  -0.0817668  -0.0472081   0.0000000), wk =   0.0555556
        k(   18) = (  -0.0817668  -0.0157360   0.0000000), wk =   0.1111111
        k(   19) = (  -0.0817668   0.0157360   0.0000000), wk =   0.1111111
        k(   20) = (  -0.0817668  -0.1416243   0.0000000), wk =   0.0555556

     Largest allocated arrays     est. size (Mb)     dimensions
     Largest temporary arrays     est. size (Mb)     dimensions

     Initial potential from superposition of free atoms
     Check: negative starting charge=   -0.555474

     starting charge  161.98065, renormalised to  165.00000

     negative rho (up, down):  5.658E-01 0.000E+00

     *
     * You are using vdW-DF for exchange-correlation in this calculation.
     * Please cite the following three references that made this development
     * possible:
     *
     *   M. Dion, H. Rydberg, E. Schroder, D. C. Langreth, and
     *   B. I. Lundqvist, Phys. Rev. Lett. 92, 246401 (2004).
     *
     *   T. Thonhauser, V. R. Cooper, S. Li, A. Puzder, P. Hyldgaard, and
     *   D. C. Langreth, Phys. Rev. B 76, 125112 (2007).
     *
     *   G. Roman-Perez and J. M. Soler, Phys. Rev. Lett. 103, 096102 (2009).
     *
     *
     * If you are using vdW-DF2, please also cite:
     *
     *   K. Lee, E. D. Murray, L. Kong, B. I. Lundqvist, and
     *   D. C. Langreth, Phys. Rev. B 82, 081101(R) (2010).
     *
     *
     * If you are calculating the stress with vdW-DF, please also cite:
     *
     *   R. Sabatini, E. Kucukbenli, B. Kolb, T. Thonhauser, and
     *   S. de Gironcoli, J. Phys.: Condens. Matter 24, 424209 (2012).
     *

     Carrying out vdW-DF run using the following parameters:

     Nqs =      20    Nr_points =    1024   r_max =   100.000
     q_mesh =
               0.00001000     0.04494208     0.09755937     0.15916263
               0.23128650     0.31572767     0.41458969     0.53033537
               0.66584808     0.82450364     1.01025438     1.22772762
               1.48234092     1.78043706     2.12944203     2.53805004
               3.01644009     3.57652955     4.23227104     5.00000000

     Gradients computed in reciprocal space

     Adding external electric field

     Computed dipole along edir(3) :
        Dipole                0.0000 Ry au,          0.0000 Debye
        Dipole field          0.0000 Ry au

        Potential amp.       -0.0000 Ry
        Total length         46.0489 bohr

     Starting wfc are  156 randomized atomic wfcs

     Self-consistent Calculation

     iteration #  1     ecut=    36.75 Ry     beta=0.10
     Davidson diagonalization with overlap
     ethr =  1.00E-02,  avg # of iterations =  2.0

[...]

     total energy              =   -2112.37740101 Ry
     Harris-Foulkes estimate   =   -2113.65950698 Ry
     estimated scf accuracy    <       7.23804520 Ry

[...]

     End of self-consistent calculation

          k = 0.0000 0.0000 0.0000 ( 20587 PWs)   bands (ev):

  -111.1403-111.0013-111.0012 -68.5192 -68.5070 -68.5070 -68.3929 -68.3929
   -68.3928 -68.3928 -68.3662 -68.3661 -47.7667 -47.7592 -47.6455 -47.6455
   -47.6437 -47.6437 -47.3711 -47.2592 -47.2592 -26.2320 -26.1716 -26.0289
   -25.9507 -25.9507 -25.8749 -25.8749 -25.8725 -25.8725 -25.8451 -25.8431
   -25.7165 -25.7165 -25.4411 -25.4411 -25.4324 -25.4027 -25.2152 -25.2152
   -25.2020 -25.2020 -25.1909 -25.1528 -25.1528 -25.0213 -24.9014 -24.9014
    -4.0753  -2.9029  -2.4629  -1.8063  -1.7569  -1.7569  -1.7476  -1.6261
    -1.6261  -1.4826  -1.4826  -1.4718  -1.4718  -1.4457  -1.2478  -1.1581
    -1.1581  -1.0872  -1.0872  -0.9567  -0.4420   0.0863   0.2341   0.3372
     0.3372   0.6573   0.6573   0.7418   0.7418   0.8845   0.8845   1.3406
     1.3593   1.3639   1.3639   1.9694   1.9694   2.1444   2.2262   2.2565
     2.2565   2.6884   2.6884   2.8183   2.8302   3.1596   3.1596   3.6008
     4.2302   4.2569   4.2569   4.4855   4.4855   4.6421   4.6757   4.6757
     4.7518   4.7518   4.8772   5.0788   5.0788   5.0965   5.4684   5.4685

[...]

          k =-0.0818-0.0472 0.0000 ( 20580 PWs)   bands (ev):

[...]

     the Fermi energy is     1.4530 ev

!    total energy              =   -2112.41110892 Ry
     Harris-Foulkes estimate   =   -2112.41111000 Ry
     estimated scf accuracy    <       0.00000088 Ry

     The total energy is the sum of the following terms:

     one-electron contribution =  -13016.74389982 Ry
     hartree contribution      =    6507.36633555 Ry
     xc contribution           =    -285.44826490 Ry
     ewald contribution        =    4682.51169439 Ry
     electric field correction =       0.00000000 Ry
     smearing contrib. (-TS)   =      -0.09697414 Ry

     convergence has been achieved in  21 iterations

 BEEF-vdW xc energy contributions
           1 :   -248.127389197938
           2 :    224.853953898274
           3 :   -185.441555783009
           4 :    140.786343024811
           5 :   -100.855103246220
           6 :    71.1360090142638
           7 :   -51.7515816696394
           8 :    39.1636833070449
           9 :   -29.1013978171704
          10 :    18.9810891943866
          11 :   -8.71647604883208
          12 :  -0.106080163807746
          13 :    5.83155209967549
          14 :   -8.01841527807295
          15 :    7.69560178903134
[...]

     PseudoPot. # 1 for Zr read from file:
     /afs/slac.stanford.edu/u/if/mamunm/psp/gbrv1.5pbe/Zr.UPF
     MD5 check sum: 5db81b1e868ab7776c4564c113de050b
     Pseudo is Ultrasoft + core correction, Zval = 12.0
     Generated by new atomic code, or converted to UPF format
     Using radial grid of  887 points,  6 beta functions with:
                l(1) =   0
                l(2) =   0
                l(3) =   1
                l(4) =   1
                l(5) =   2
                l(6) =   2
     Q(r) pseudized with  6 coefficients,  rinner =    1.200   1.200   1.200
                                                       1.200   1.200

     PseudoPot. # 2 for Cu read from file:
     /afs/slac.stanford.edu/u/if/mamunm/psp/gbrv1.5pbe/Cu.UPF
     MD5 check sum: 6e991ff952a84172a2a52a1c1e996048
     Pseudo is Ultrasoft + core correction, Zval = 19.0
     Generated by new atomic code, or converted to UPF format
     Using radial grid of  867 points,  6 beta functions with:
                l(1) =   0
                l(2) =   0
                l(3) =   1
                l(4) =   1
                l(5) =   2
                l(6) =   2
     Q(r) pseudized with  8 coefficients,  rinner =    1.150   1.150   1.150
                                                       1.150   1.150

     vdW kernel table read from file vdW_kernel_table
     MD5 check sum: 095c7af220d748ca6e76c0b4c6cfb241

     atomic species   valence    mass     pseudopotential
        Zr1           12.00    91.22400     Zr( 1.00)
        Cu1           19.00    63.54600     Cu( 1.00)

     No symmetry found

   Cartesian axes

     site n.     atom                  positions (alat units)
         1           Zr1 tau(   1) = (   0.0000000   0.0000000  10.0000000  )
         2           Zr1 tau(   2) = (  -1.5287369   2.6478501  10.0000000  )
         3           Zr1 tau(   3) = (   1.5287369   2.6478501  10.0000000  )
         4           Cu1 tau(   4) = (   3.0574739   0.0000000  10.0000000  )
         5           Zr1 tau(   5) = (   3.0574739   1.7652334  12.4964170  )
         6           Zr1 tau(   6) = (   1.5287369   4.4130834  12.4964170  )
         7           Zr1 tau(   7) = (  -1.5287369   4.4130834  12.4964170  )
         8           Cu1 tau(   8) = (   0.0000000   1.7652334  12.4964170  )
         9           Zr1 tau(   9) = (   0.0000020   3.4802978  14.9593655  )
        10           Zr1 tau(  10) = (   1.4852961   0.9076938  14.9593667  )
        11           Zr1 tau(  11) = (   4.6296566   0.9076952  14.9593644  )
        12           Cu1 tau(  12) = (   3.0574818   3.5304586  14.7934412  )

     number of k points=    20  Fermi-Dirac smearing, width (Ry)=  0.0110
                       cart. coord. in units 2pi/alat
        k(    1) = (   0.0000000   0.0000000   0.0000000), wk =   0.0555556
        k(    2) = (   0.0000000   0.0314721   0.0000000), wk =   0.1111111
        k(    3) = (   0.0000000   0.0629441   0.0000000), wk =   0.1111111
        k(    4) = (   0.0000000  -0.0944162   0.0000000), wk =   0.0555556
        k(    5) = (   0.0272556   0.0157360   0.0000000), wk =   0.1111111
        k(    6) = (   0.0272556   0.0472081   0.0000000), wk =   0.1111111
        k(    7) = (   0.0272556   0.0786802   0.0000000), wk =   0.1111111
        k(    8) = (   0.0272556  -0.0786802   0.0000000), wk =   0.1111111
        k(    9) = (   0.0272556  -0.0472081   0.0000000), wk =   0.1111111
        k(   10) = (   0.0272556  -0.0157360   0.0000000), wk =   0.1111111
        k(   11) = (   0.0545112   0.0314721   0.0000000), wk =   0.1111111
        k(   12) = (   0.0545112   0.0629441   0.0000000), wk =   0.1111111
        k(   13) = (   0.0545112   0.0944162   0.0000000), wk =   0.1111111
        k(   14) = (   0.0545112  -0.0629441   0.0000000), wk =   0.1111111
        k(   15) = (   0.0545112  -0.0314721   0.0000000), wk =   0.1111111
        k(   16) = (   0.0545112   0.0000000   0.0000000), wk =   0.1111111
        k(   17) = (  -0.0817668  -0.0472081   0.0000000), wk =   0.0555556
        k(   18) = (  -0.0817668  -0.0157360   0.0000000), wk =   0.1111111
        k(   19) = (  -0.0817668   0.0157360   0.0000000), wk =   0.1111111
        k(   20) = (  -0.0817668  -0.1416243   0.0000000), wk =   0.0555556

     Largest allocated arrays     est. size (Mb)     dimensions
     Largest temporary arrays     est. size (Mb)     dimensions

     Initial potential from superposition of free atoms
     Check: negative starting charge=   -0.550393

     starting charge  161.98065, renormalised to  165.00000

[...]

     *
     * You are using vdW-DF for exchange-correlation in this calculation.
     * Please cite the following three references that made this development
     * possible:
     *
     *   M. Dion, H. Rydberg, E. Schroder, D. C. Langreth, and
     *   B. I. Lundqvist, Phys. Rev. Lett. 92, 246401 (2004).
     *
     *   T. Thonhauser, V. R. Cooper, S. Li, A. Puzder, P. Hyldgaard, and
     *   D. C. Langreth, Phys. Rev. B 76, 125112 (2007).
     *
     *   G. Roman-Perez and J. M. Soler, Phys. Rev. Lett. 103, 096102 (2009).
     *
     *
     * If you are using vdW-DF2, please also cite:
     *
     *   K. Lee, E. D. Murray, L. Kong, B. I. Lundqvist, and
     *   D. C. Langreth, Phys. Rev. B 82, 081101(R) (2010).
     *
     *
     * If you are calculating the stress with vdW-DF, please also cite:
     *
     *   R. Sabatini, E. Kucukbenli, B. Kolb, T. Thonhauser, and
     *   S. de Gironcoli, J. Phys.: Condens. Matter 24, 424209 (2012).
     *

     Carrying out vdW-DF run using the following parameters:

     Nqs =      20    Nr_points =    1024   r_max =   100.000
     q_mesh =
               0.00001000     0.04494208     0.09755937     0.15916263
               0.23128650     0.31572767     0.41458969     0.53033537
               0.66584808     0.82450364     1.01025438     1.22772762
               1.48234092     1.78043706     2.12944203     2.53805004
               3.01644009     3.57652955     4.23227104     5.00000000

     Gradients computed in reciprocal space

[...]

     Starting wfc are  156 randomized atomic wfcs

     Self-consistent Calculation

[...]

     total energy              =   -2112.41997554 Ry
     Harris-Foulkes estimate   =   -2112.41997471 Ry
     estimated scf accuracy    <       0.00000157 Ry

     iteration # 19     ecut=    36.75 Ry     beta=0.10
     Davidson diagonalization with overlap
     ethr =  9.50E-10,  avg # of iterations =  3.0

[...]

     negative rho (up, down):  5.600E-01 0.000E+00

     Adding external electric field

     Computed dipole along edir(3) :
        Dipole                0.0262 Ry au,          0.0667 Debye
        Dipole field          0.0001 Ry au

        Potential amp.       -0.0056 Ry
        Total length         46.0489 bohr

     End of self-consistent calculation

[...]

          k = 0.0545 0.0000 0.0000 ( 20513 PWs)   bands (ev):

[...]

          k =-0.0818-0.1416 0.0000 ( 20580 PWs)   bands (ev):

  -111.1358-111.1067-110.9787 -68.5187 -68.4992 -68.4992 -68.4948 -68.4839
   -68.4839 -68.3696 -68.3696 -68.3448 -47.6946 -47.6810 -47.6556 -47.6284
   -47.6156 -47.5919 -47.2896 -47.2533 -47.2152 -26.0161 -25.9645 -25.9335
   -25.8504 -25.8433 -25.7804 -25.7416 -25.7259 -25.7166 -25.6830 -25.6762
   -25.6415 -25.6100 -25.5875 -25.5705 -25.5477 -25.5247 -25.3113 -25.2609
   -25.2394 -25.2111 -25.2012 -25.1355 -25.1048 -25.0891 -25.0704 -24.8870
    -2.7284  -2.6048  -1.8385  -1.5860  -1.4995  -1.4387  -1.4001  -1.3595
    -1.3133  -1.3068  -1.2682  -1.2625  -1.2370  -1.2057  -1.1505  -1.1278
    -1.0925  -1.0522  -1.0418  -0.8222  -0.7155  -0.2260  -0.0875   0.2638
     0.4539   0.6201   0.6605   0.8120   0.8482   0.8772   0.9735   1.0718
     1.2591   1.3371   1.4729   1.4997   1.5727   1.6122   1.7362   1.8856
     1.9543   2.1944   2.4833   2.5058   2.6032   2.6629   2.7438   2.8769
     3.1542   3.8402   3.9091   3.9346   4.0210   4.0345   4.1840   4.3005
     4.3975   4.4310   4.5530   4.6743   4.8315   5.0028   5.1041   5.1536

     the Fermi energy is     1.4805 ev

!    total energy              =   -2112.41997764 Ry
     Harris-Foulkes estimate   =   -2112.41997588 Ry
     estimated scf accuracy    <       0.00000073 Ry

     The total energy is the sum of the following terms:

     one-electron contribution =  -13173.28974740 Ry
     hartree contribution      =    6585.77710625 Ry
     xc contribution           =    -285.51484070 Ry
     ewald contribution        =    4760.70323613 Ry
     electric field correction =       0.00000158 Ry
     smearing contrib. (-TS)   =      -0.09573350 Ry

     convergence has been achieved in  19 iterations

 BEEF-vdW xc energy contributions
           1 :   -248.238324111370
           2 :    225.001880366048
           3 :   -185.629016273689
           4 :    140.974462410512
           5 :   -100.989485678119
           6 :    71.1864183197749
           7 :   -51.7368182943761
           8 :    39.1423173730180
           9 :   -29.1330435610770
          10 :    19.0847838911991
          11 :   -8.85663590207537
          12 :   5.702199897200444E-003
          13 :    5.79455880183036
          14 :   -8.04886480319840
          15 :    7.73604512816127
          16 :   -6.60848288576051
          17 :    6.09696876736007
          18 :   -6.57838825742590
          19 :    7.42179845019149
          20 :   -7.66703746806490
          21 :    6.79519663796344
          22 :   -5.06978420219912
          23 :    3.28773492465314
          24 :   -2.19688365757656
          25 :    2.01979132044465
          26 :   -2.38968765548799
          27 :    2.68502996304983
          28 :   -2.48630543611893
          29 :    1.83207036653374
          30 :   -1.12606921579874
          31 :   -24.8465484484249
          32 :   -18.0060716543064

     Forces acting on atoms (Ry/au):

     negative rho (up, down):  5.600E-01 0.000E+00
     atom    1 type  1   force =     0.00000029    0.01958283   -0.00005354
     atom    2 type  1   force =     0.01695957   -0.00979157   -0.00005384
     atom    3 type  1   force =    -0.01695924   -0.00979149   -0.00005325
     atom    4 type  2   force =     0.00000079    0.00000062    0.02194685
     atom    5 type  1   force =    -0.00000017   -0.00158843   -0.00532158
     atom    6 type  1   force =    -0.00137542    0.00079374   -0.00532176
     atom    7 type  1   force =     0.00137574    0.00079420   -0.00532161
     atom    8 type  2   force =    -0.00000111    0.00000017   -0.00468678
     atom    9 type  1   force =     0.00000017    0.00018608   -0.00059888
     atom   10 type  1   force =     0.00016157   -0.00009333   -0.00059870
     atom   11 type  1   force =    -0.00016101   -0.00009314   -0.00059855
     atom   12 type  2   force =    -0.00000118    0.00000032    0.00066164

     Total force =     0.041812     Total SCF correction =     0.002999

     entering subroutine stress ...

     negative rho (up, down):  5.600E-01 0.000E+00
          total   stress  (Ry/bohr**3)                   (kbar)     P=  -10.22
  -0.00008470   0.00000000  -0.00000000        -12.46      0.00     -0.00
   0.00000000  -0.00008470   0.00000000          0.00    -12.46      0.00
  -0.00000000   0.00000000  -0.00003895         -0.00      0.00     -5.73

 !ASE

     Writing output data file calc.save

     General routines

     Parallel routines

   This run was terminated on:  21: 8: 9   2Jan2019

   JOB DONE.
Job  /afs/slac/g/suncat/bin/suncat-tsmpirun -x LD_LIBRARY_PATH -wdir /scratch/qe649535_CWRBK pw.x -in pw.inp

TID   HOST_NAME   COMMAND_LINE            STATUS            TERMINATION_TIME
00000 suncat0062 pw.x -in pw.inp   Done                     01/02/2019 21:08:09
00001 suncat0062 pw.x -in pw.inp   Done                     01/02/2019 21:08:09
00002 suncat0062 pw.x -in pw.inp   Done                     01/02/2019 21:08:09
00003 suncat0062 pw.x -in pw.inp   Done                     01/02/2019 21:08:09
00004 suncat0062 pw.x -in pw.inp   Done                     01/02/2019 21:08:09
00005 suncat0062 pw.x -in pw.inp   Done                     01/02/2019 21:08:09
00006 suncat0062 pw.x -in pw.inp   Done                     01/02/2019 21:08:09
00007 suncat0062 pw.x -in pw.inp   Done                     01/02/2019 21:08:09
00008 suncat0061 pw.x -in pw.inp   Done                     01/02/2019 21:08:09
00009 suncat0061 pw.x -in pw.inp   Done                     01/02/2019 21:08:09
00010 suncat0061 pw.x -in pw.inp   Done                     01/02/2019 21:08:09
00011 suncat0061 pw.x -in pw.inp   Done                     01/02/2019 21:08:09
00012 suncat0061 pw.x -in pw.inp   Done                     01/02/2019 21:08:09
00013 suncat0061 pw.x -in pw.inp   Done                     01/02/2019 21:08:09
00014 suncat0061 pw.x -in pw.inp   Done                     01/02/2019 21:08:09
00015 suncat0061 pw.x -in pw.inp   Done                     01/02/2019 21:08:09
00016 suncat0060 pw.x -in pw.inp   Done                     01/02/2019 21:08:09
00017 suncat0060 pw.x -in pw.inp   Done                     01/02/2019 21:08:09
00018 suncat0060 pw.x -in pw.inp   Done                     01/02/2019 21:08:09
00019 suncat0060 pw.x -in pw.inp   Done                     01/02/2019 21:08:09
00020 suncat0060 pw.x -in pw.inp   Done                     01/02/2019 21:08:09
00021 suncat0060 pw.x -in pw.inp   Done                     01/02/2019 21:08:09
00022 suncat0060 pw.x -in pw.inp   Done                     01/02/2019 21:08:09
00023 suncat0060 pw.x -in pw.inp   Done                     01/02/2019 21:08:09
00024 suncat0057 pw.x -in pw.inp   Done                     01/02/2019 21:08:09
00025 suncat0057 pw.x -in pw.inp   Done                     01/02/2019 21:08:09
00026 suncat0057 pw.x -in pw.inp   Done                     01/02/2019 21:08:09
00027 suncat0057 pw.x -in pw.inp   Done                     01/02/2019 21:08:09
00028 suncat0057 pw.x -in pw.inp   Done                     01/02/2019 21:08:09
00029 suncat0057 pw.x -in pw.inp   Done                     01/02/2019 21:08:09
00030 suncat0057 pw.x -in pw.inp   Done                     01/02/2019 21:08:09
00031 suncat0057 pw.x -in pw.inp   Done                     01/02/2019 21:08:09
00032 suncat0016 pw.x -in pw.inp   Done                     01/02/2019 21:08:09
00033 suncat0016 pw.x -in pw.inp   Done                     01/02/2019 21:08:09
00034 suncat0016 pw.x -in pw.inp   Done                     01/02/2019 21:08:09
00035 suncat0016 pw.x -in pw.inp   Done                     01/02/2019 21:08:09
00036 suncat0016 pw.x -in pw.inp   Done                     01/02/2019 21:08:09
00037 suncat0016 pw.x -in pw.inp   Done                     01/02/2019 21:08:09
00038 suncat0016 pw.x -in pw.inp   Done                     01/02/2019 21:08:09
00039 suncat0016 pw.x -in pw.inp   Done                     01/02/2019 21:08:09
00040 suncat0198 pw.x -in pw.inp   Done                     01/02/2019 21:08:09
00041 suncat0198 pw.x -in pw.inp   Done                     01/02/2019 21:08:09
00042 suncat0198 pw.x -in pw.inp   Done                     01/02/2019 21:08:09
00043 suncat0198 pw.x -in pw.inp   Done                     01/02/2019 21:08:09
00044 suncat0198 pw.x -in pw.inp   Done                     01/02/2019 21:08:09
00045 suncat0198 pw.x -in pw.inp   Done                     01/02/2019 21:08:09
00046 suncat0198 pw.x -in pw.inp   Done                     01/02/2019 21:08:09
00047 suncat0198 pw.x -in pw.inp   Done                     01/02/2019 21:08:09
00048 suncat0194 pw.x -in pw.inp   Done                     01/02/2019 21:08:09
00049 suncat0194 pw.x -in pw.inp   Done                     01/02/2019 21:08:09
00050 suncat0194 pw.x -in pw.inp   Done                     01/02/2019 21:08:09
00051 suncat0194 pw.x -in pw.inp   Done                     01/02/2019 21:08:09
00052 suncat0194 pw.x -in pw.inp   Done                     01/02/2019 21:08:09
00053 suncat0194 pw.x -in pw.inp   Done                     01/02/2019 21:08:09
00054 suncat0194 pw.x -in pw.inp   Done                     01/02/2019 21:08:09
00055 suncat0194 pw.x -in pw.inp   Done                     01/02/2019 21:08:09
00056 suncat0193 pw.x -in pw.inp   Done                     01/02/2019 21:08:09
00057 suncat0193 pw.x -in pw.inp   Done                     01/02/2019 21:08:09
00058 suncat0193 pw.x -in pw.inp   Done                     01/02/2019 21:08:09
00059 suncat0193 pw.x -in pw.inp   Done                     01/02/2019 21:08:09
00060 suncat0193 pw.x -in pw.inp   Done                     01/02/2019 21:08:09
00061 suncat0193 pw.x -in pw.inp   Done                     01/02/2019 21:08:09
00062 suncat0193 pw.x -in pw.inp   Done                     01/02/2019 21:08:09
00063 suncat0193 pw.x -in pw.inp   Done                     01/02/2019 21:08:09