     Program PWSCF v.5.1rc2 (svn rev. 11289) starts on 20Dec2018 at  8:51:11

     Current dimensions of program PWSCF are:
     Max number of different atomic species (ntypx) = 10
     Max number of k-points (npk) =  40000
     Max angular momentum in pseudopotentials (lmaxx) =  3
     Presently stress not available with electric field

     IMPORTANT: XC functional enforced from input :
     Exchange-correlation      = BEEF-VDW ( 1  4 27 13 2)
     Any further DFT definition will be discarded
     Please, verify this is what you really want

     Subspace diagonalization in iterative solution of the eigenvalue problem:
     a serial algorithm will be used

     Generating pointlists ...
     new r_m :   0.4125 (alat units)  0.7795 (a.u.) for type    1
     new r_m :   0.4125 (alat units)  0.7795 (a.u.) for type    2

     bravais-lattice index     =            0
     lattice parameter (alat)  =       1.8897  a.u.
     unit-cell volume          =    3615.9162 (a.u.)^3
     number of atoms/cell      =           12
     number of atomic types    =            2
     number of electrons       =       198.00
     number of Kohn-Sham states=          129
     kinetic-energy cutoff     =      36.7493  Ry
     charge density cutoff     =     367.4932  Ry
     convergence threshold     =      1.0E-06
     mixing beta               =       0.1000
     number of iterations used =           10  plain     mixing
     Exchange-correlation      = BEEF-VDW ( 1  4 27 13 2)
     nstep                     =           50

     celldm(1)=   1.889726  celldm(2)=   0.000000  celldm(3)=   0.000000
     celldm(4)=   0.000000  celldm(5)=   0.000000  celldm(6)=   0.000000

     crystal axes: (cart. coord. in units of alat)
               a(1) = (   5.063254   0.000000   0.000000 )
               a(2) = (  -2.531627   4.384907   0.000000 )
               a(3) = (   0.000000   0.000000  24.134130 )

     reciprocal axes: (cart. coord. in units 2 pi/alat)
               b(1) = (  0.197501  0.114028  0.000000 )
               b(2) = (  0.000000  0.228055  0.000000 )
               b(3) = (  0.000000  0.000000  0.041435 )

     PseudoPot. # 1 for Co read from file:
     /afs/slac.stanford.edu/u/if/mamunm/psp/gbrv1.5pbe/Co.UPF
     MD5 check sum: 5f91765df6ddd3222702df6e7b74a16d
     Pseudo is Ultrasoft + core correction, Zval = 17.0
     Generated by new atomic code, or converted to UPF format
     Using radial grid of  863 points,  6 beta functions with:
                l(1) =   0
                l(2) =   0
                l(3) =   1
                l(4) =   1
                l(5) =   2
                l(6) =   2
     Q(r) pseudized with  8 coefficients,  rinner =    1.200   1.200   1.200
                                                       1.200   1.200

     PseudoPot. # 2 for Rh read from file:
     /afs/slac.stanford.edu/u/if/mamunm/psp/gbrv1.5pbe/Rh.UPF
     MD5 check sum: 761627e959a2e3a1f56b0b5fe687810e
     Pseudo is Ultrasoft + core correction, Zval = 15.0
     Generated by new atomic code, or converted to UPF format
     Using radial grid of  969 points,  7 beta functions with:
                l(1) =   0
                l(2) =   0
                l(3) =   1
                l(4) =   1
                l(5) =   2
                l(6) =   2
                l(7) =   2
     Q(r) pseudized with  8 coefficients,  rinner =    1.200   1.200   1.200
                                                       1.200   1.200

     vdW kernel table read from file vdW_kernel_table
     MD5 check sum: 095c7af220d748ca6e76c0b4c6cfb241

     atomic species   valence    mass     pseudopotential
        Co1           17.00    58.93319     Co( 1.00)
        Rh1           15.00   102.90550     Rh( 1.00)

     Starting magnetic structure
     atomic species   magnetization
        Co1          0.118
        Rh1          0.133

     No symmetry found

   Cartesian axes

     site n.     atom                  positions (alat units)
         1           Co1 tau(   1) = (   0.0000000   0.0000000  10.0000000  )
         2           Co1 tau(   2) = (  -1.2658136   2.1924534  10.0000000  )
         3           Co1 tau(   3) = (   1.2658136   2.1924534  10.0000000  )
         4           Rh1 tau(   4) = (   2.5316271   0.0000000  10.0000000  )
         5           Co1 tau(   5) = (   2.5316271   1.4616356  12.0670649  )
         6           Co1 tau(   6) = (   1.2658136   3.6540890  12.0670649  )
         7           Co1 tau(   7) = (  -1.2658136   3.6540890  12.0670649  )
         8           Rh1 tau(   8) = (   0.0000000   1.4616356  12.0670649  )
         9           Co1 tau(   9) = (  -0.0000000   2.9232712  14.1341298  )
        10           Co1 tau(  10) = (   1.2658136   0.7308178  14.1341298  )
        11           Co1 tau(  11) = (   3.7974407   0.7308178  14.1341298  )
        12           Rh1 tau(  12) = (   2.5316271   2.9232712  14.1341298  )

     number of k points=    40  Fermi-Dirac smearing, width (Ry)=  0.0110
                       cart. coord. in units 2pi/alat
        k(    1) = (   0.0000000   0.0000000   0.0000000), wk =   0.0277778
        k(    2) = (   0.0000000   0.0380092   0.0000000), wk =   0.0555556
        k(    3) = (   0.0000000   0.0760183   0.0000000), wk =   0.0555556
        k(    4) = (   0.0000000  -0.1140275   0.0000000), wk =   0.0277778
        k(    5) = (   0.0329169   0.0190046   0.0000000), wk =   0.0555556
        k(    6) = (   0.0329169   0.0570138   0.0000000), wk =   0.0555556
        k(    7) = (   0.0329169   0.0950229   0.0000000), wk =   0.0555556
        k(    8) = (   0.0329169  -0.0950229   0.0000000), wk =   0.0555556
        k(    9) = (   0.0329169  -0.0570138   0.0000000), wk =   0.0555556
        k(   10) = (   0.0329169  -0.0190046   0.0000000), wk =   0.0555556
        k(   11) = (   0.0658338   0.0380092   0.0000000), wk =   0.0555556
        k(   12) = (   0.0658338   0.0760183   0.0000000), wk =   0.0555556
        k(   13) = (   0.0658338   0.1140275   0.0000000), wk =   0.0555556
        k(   14) = (   0.0658338  -0.0760183   0.0000000), wk =   0.0555556
        k(   15) = (   0.0658338  -0.0380092   0.0000000), wk =   0.0555556
        k(   16) = (   0.0658338   0.0000000   0.0000000), wk =   0.0555556
        k(   17) = (  -0.0987507  -0.0570138   0.0000000), wk =   0.0277778
        k(   18) = (  -0.0987507  -0.0190046   0.0000000), wk =   0.0555556
        k(   19) = (  -0.0987507   0.0190046   0.0000000), wk =   0.0555556
        k(   20) = (  -0.0987507  -0.1710413   0.0000000), wk =   0.0277778
        k(   21) = (   0.0000000   0.0000000   0.0000000), wk =   0.0277778
        k(   22) = (   0.0000000   0.0380092   0.0000000), wk =   0.0555556
        k(   23) = (   0.0000000   0.0760183   0.0000000), wk =   0.0555556
        k(   24) = (   0.0000000  -0.1140275   0.0000000), wk =   0.0277778
        k(   25) = (   0.0329169   0.0190046   0.0000000), wk =   0.0555556
        k(   26) = (   0.0329169   0.0570138   0.0000000), wk =   0.0555556
        k(   27) = (   0.0329169   0.0950229   0.0000000), wk =   0.0555556
        k(   28) = (   0.0329169  -0.0950229   0.0000000), wk =   0.0555556
        k(   29) = (   0.0329169  -0.0570138   0.0000000), wk =   0.0555556
        k(   30) = (   0.0329169  -0.0190046   0.0000000), wk =   0.0555556
        k(   31) = (   0.0658338   0.0380092   0.0000000), wk =   0.0555556
        k(   32) = (   0.0658338   0.0760183   0.0000000), wk =   0.0555556
        k(   33) = (   0.0658338   0.1140275   0.0000000), wk =   0.0555556
        k(   34) = (   0.0658338  -0.0760183   0.0000000), wk =   0.0555556
        k(   35) = (   0.0658338  -0.0380092   0.0000000), wk =   0.0555556
        k(   36) = (   0.0658338   0.0000000   0.0000000), wk =   0.0555556
        k(   37) = (  -0.0987507  -0.0570138   0.0000000), wk =   0.0277778
        k(   38) = (  -0.0987507  -0.0190046   0.0000000), wk =   0.0555556
        k(   39) = (  -0.0987507   0.0190046   0.0000000), wk =   0.0555556
        k(   40) = (  -0.0987507  -0.1710413   0.0000000), wk =   0.0277778

     Largest allocated arrays     est. size (Mb)     dimensions
     Largest temporary arrays     est. size (Mb)     dimensions

     Check: negative/imaginary core charge=   -0.000005    0.000000

     Initial potential from superposition of free atoms
     Check: negative starting charge=(component1):   -0.092089
     Check: negative starting charge=(component2):   -0.070413

     starting charge  187.49964, renormalised to  198.00000

     negative rho (up, down):  9.725E-02 7.436E-02

     *
     * You are using vdW-DF for exchange-correlation in this calculation.
     * Please cite the following three references that made this development
     * possible:
     *
     *   M. Dion, H. Rydberg, E. Schroder, D. C. Langreth, and
     *   B. I. Lundqvist, Phys. Rev. Lett. 92, 246401 (2004).
     *
     *   T. Thonhauser, V. R. Cooper, S. Li, A. Puzder, P. Hyldgaard, and
     *   D. C. Langreth, Phys. Rev. B 76, 125112 (2007).
     *
     *   G. Roman-Perez and J. M. Soler, Phys. Rev. Lett. 103, 096102 (2009).
     *
     *
     * If you are using vdW-DF2, please also cite:
     *
     *   K. Lee, E. D. Murray, L. Kong, B. I. Lundqvist, and
     *   D. C. Langreth, Phys. Rev. B 82, 081101(R) (2010).
     *
     *
     * If you are calculating the stress with vdW-DF, please also cite:
     *
     *   R. Sabatini, E. Kucukbenli, B. Kolb, T. Thonhauser, and
     *   S. de Gironcoli, J. Phys.: Condens. Matter 24, 424209 (2012).
     *

     Carrying out vdW-DF run using the following parameters:

     Nqs =      20    Nr_points =    1024   r_max =   100.000
     q_mesh =
               0.00001000     0.04494208     0.09755937     0.15916263
               0.23128650     0.31572767     0.41458969     0.53033537
               0.66584808     0.82450364     1.01025438     1.22772762
               1.48234092     1.78043706     2.12944203     2.53805004
               3.01644009     3.57652955     4.23227104     5.00000000

     Gradients computed in reciprocal space

     Adding external electric field

     Computed dipole along edir(3) :
        Dipole                0.0000 Ry au,          0.0000 Debye
        Dipole field          0.0000 Ry au

        Potential amp.       -0.0000 Ry
        Total length         44.4667 bohr

[...]

     Starting wfc are  153 randomized atomic wfcs

     Self-consistent Calculation

     iteration #  1     ecut=    36.75 Ry     beta=0.10
     Davidson diagonalization with overlap
     ethr =  1.00E-02,  avg # of iterations =  6.9

[...]

     Magnetic moment per site:
     atom:    1    charge:    8.4482    magn:    0.9616    constr:    0.0000
     atom:    2    charge:    8.4482    magn:    0.9616    constr:    0.0000
     atom:    3    charge:    8.4482    magn:    0.9616    constr:    0.0000
     atom:    4    charge:    2.8271    magn:    0.3484    constr:    0.0000
     atom:    5    charge:    8.4528    magn:    0.9555    constr:    0.0000
     atom:    6    charge:    8.4528    magn:    0.9555    constr:    0.0000
     atom:    7    charge:    8.4528    magn:    0.9555    constr:    0.0000
[...]
        k(    4) = (   0.0000000  -0.1140275   0.0000000), wk =   0.0277778
        k(    5) = (   0.0329169   0.0190046   0.0000000), wk =   0.0555556
        k(    6) = (   0.0329169   0.0570138   0.0000000), wk =   0.0555556
        k(    7) = (   0.0329169   0.0950229   0.0000000), wk =   0.0555556
        k(    8) = (   0.0329169  -0.0950229   0.0000000), wk =   0.0555556
        k(    9) = (   0.0329169  -0.0570138   0.0000000), wk =   0.0555556
        k(   10) = (   0.0329169  -0.0190046   0.0000000), wk =   0.0555556
        k(   11) = (   0.0658338   0.0380092   0.0000000), wk =   0.0555556
        k(   12) = (   0.0658338   0.0760183   0.0000000), wk =   0.0555556
        k(   13) = (   0.0658338   0.1140275   0.0000000), wk =   0.0555556
        k(   14) = (   0.0658338  -0.0760183   0.0000000), wk =   0.0555556
        k(   15) = (   0.0658338  -0.0380092   0.0000000), wk =   0.0555556
        k(   16) = (   0.0658338   0.0000000   0.0000000), wk =   0.0555556
        k(   17) = (  -0.0987507  -0.0570138   0.0000000), wk =   0.0277778
        k(   18) = (  -0.0987507  -0.0190046   0.0000000), wk =   0.0555556
        k(   19) = (  -0.0987507   0.0190046   0.0000000), wk =   0.0555556
        k(   20) = (  -0.0987507  -0.1710413   0.0000000), wk =   0.0277778
        k(   21) = (   0.0000000   0.0000000   0.0000000), wk =   0.0277778
        k(   22) = (   0.0000000   0.0380092   0.0000000), wk =   0.0555556
        k(   23) = (   0.0000000   0.0760183   0.0000000), wk =   0.0555556
        k(   24) = (   0.0000000  -0.1140275   0.0000000), wk =   0.0277778
        k(   25) = (   0.0329169   0.0190046   0.0000000), wk =   0.0555556
        k(   26) = (   0.0329169   0.0570138   0.0000000), wk =   0.0555556
        k(   27) = (   0.0329169   0.0950229   0.0000000), wk =   0.0555556
        k(   28) = (   0.0329169  -0.0950229   0.0000000), wk =   0.0555556
        k(   29) = (   0.0329169  -0.0570138   0.0000000), wk =   0.0555556
        k(   30) = (   0.0329169  -0.0190046   0.0000000), wk =   0.0555556
        k(   31) = (   0.0658338   0.0380092   0.0000000), wk =   0.0555556
        k(   32) = (   0.0658338   0.0760183   0.0000000), wk =   0.0555556
        k(   33) = (   0.0658338   0.1140275   0.0000000), wk =   0.0555556
        k(   34) = (   0.0658338  -0.0760183   0.0000000), wk =   0.0555556
        k(   35) = (   0.0658338  -0.0380092   0.0000000), wk =   0.0555556
        k(   36) = (   0.0658338   0.0000000   0.0000000), wk =   0.0555556
        k(   37) = (  -0.0987507  -0.0570138   0.0000000), wk =   0.0277778
        k(   38) = (  -0.0987507  -0.0190046   0.0000000), wk =   0.0555556
        k(   39) = (  -0.0987507   0.0190046   0.0000000), wk =   0.0555556
        k(   40) = (  -0.0987507  -0.1710413   0.0000000), wk =   0.0277778

     Largest allocated arrays     est. size (Mb)     dimensions
     Largest temporary arrays     est. size (Mb)     dimensions

     Check: negative/imaginary core charge=   -0.000005    0.000000

     Initial potential from superposition of free atoms
     Check: negative starting charge=(component1):   -0.091829
     Check: negative starting charge=(component2):   -0.070215

     starting charge  187.49964, renormalised to  198.00000

[...]

     *
     * You are using vdW-DF for exchange-correlation in this calculation.
     * Please cite the following three references that made this development
     * possible:
     *
     *   M. Dion, H. Rydberg, E. Schroder, D. C. Langreth, and
     *   B. I. Lundqvist, Phys. Rev. Lett. 92, 246401 (2004).
     *
     *   T. Thonhauser, V. R. Cooper, S. Li, A. Puzder, P. Hyldgaard, and
     *   D. C. Langreth, Phys. Rev. B 76, 125112 (2007).
     *
     *   G. Roman-Perez and J. M. Soler, Phys. Rev. Lett. 103, 096102 (2009).
     *
     *
     * If you are using vdW-DF2, please also cite:
     *
     *   K. Lee, E. D. Murray, L. Kong, B. I. Lundqvist, and
     *   D. C. Langreth, Phys. Rev. B 82, 081101(R) (2010).
     *
     *
     * If you are calculating the stress with vdW-DF, please also cite:
     *
     *   R. Sabatini, E. Kucukbenli, B. Kolb, T. Thonhauser, and
     *   S. de Gironcoli, J. Phys.: Condens. Matter 24, 424209 (2012).
     *

     Carrying out vdW-DF run using the following parameters:

     Nqs =      20    Nr_points =    1024   r_max =   100.000
     q_mesh =
               0.00001000     0.04494208     0.09755937     0.15916263
               0.23128650     0.31572767     0.41458969     0.53033537
               0.66584808     0.82450364     1.01025438     1.22772762
               1.48234092     1.78043706     2.12944203     2.53805004
               3.01644009     3.57652955     4.23227104     5.00000000

     Gradients computed in reciprocal space

[...]

     Starting wfc are  153 randomized atomic wfcs

     Self-consistent Calculation

[...]

     total energy              =   -3212.30718783 Ry
     Harris-Foulkes estimate   =   -3212.30718719 Ry
     estimated scf accuracy    <       0.00000134 Ry

[...]

     iteration # 32     ecut=    36.75 Ry     beta=0.10
     Davidson diagonalization with overlap
     ethr =  6.79E-10,  avg # of iterations =  1.4

[...]

     negative rho (up, down):  7.879E-02 9.251E-02

[...]

     Adding external electric field

     Computed dipole along edir(3) :
        Dipole               -0.0076 Ry au,         -0.0193 Debye
        Dipole field         -0.0000 Ry au

        Potential amp.        0.0024 Ry
        Total length         44.4667 bohr

     Magnetic moment per site:
     atom:    1    charge:    8.2862    magn:    1.0423    constr:    0.0000
     atom:    2    charge:    8.2864    magn:    1.0422    constr:    0.0000
     atom:    3    charge:    8.2863    magn:    1.0423    constr:    0.0000
     atom:    4    charge:    2.7019    magn:    0.1303    constr:    0.0000
     atom:    5    charge:    8.2844    magn:    1.0638    constr:    0.0000
     atom:    6    charge:    8.2846    magn:    1.0636    constr:    0.0000
     atom:    7    charge:    8.2845    magn:    1.0638    constr:    0.0000
     atom:    8    charge:    2.7073    magn:    0.1512    constr:    0.0000
     atom:    9    charge:    8.2883    magn:    1.0449    constr:    0.0000
     atom:   10    charge:    8.2883    magn:    1.0449    constr:    0.0000
     atom:   11    charge:    8.2883    magn:    1.0449    constr:    0.0000
     atom:   12    charge:    2.7015    magn:    0.1306    constr:    0.0000

     End of self-consistent calculation

 ------ SPIN UP ------------

[...]

 ------ SPIN DOWN ----------

[...]

          k = 0.0658 0.0000 0.0000 ( 13617 PWs)   bands (ev):

[...]

          k =-0.0988-0.1710 0.0000 ( 13630 PWs)   bands (ev):

   -92.8435 -92.8361 -92.8279 -92.6746 -92.6738 -92.6664 -92.6655 -92.6587
   -92.6584 -56.2775 -56.2152 -56.2129 -56.2114 -56.2078 -56.2004 -56.1956
   -56.1918 -56.1219 -56.1018 -56.0928 -56.0524 -56.0480 -56.0425 -56.0406
   -56.0316 -56.0298 -56.0197 -56.0106 -56.0025 -55.9988 -55.9949 -55.9939
   -55.9870 -55.9803 -55.9435 -55.9408 -45.0359 -45.0317 -45.0253 -44.7796
   -44.7756 -44.7238 -44.7198 -44.6482 -44.5725  -4.8502  -4.8009  -3.5447
    -3.1127  -3.0449  -2.9122  -2.6267  -2.3720  -2.3571  -2.2202  -1.9068
    -1.8196  -1.8180  -1.6556  -1.5358  -1.4145  -1.2829  -1.2035  -1.1409
    -0.9727  -0.7901  -0.7102  -0.6123  -0.5332  -0.4816  -0.3954  -0.2609
    -0.0983  -0.0833  -0.0298   0.0596   0.0873   0.1823   0.2260   0.2271
     0.2477   0.2974   0.4254   0.5290   0.6147   0.8771   0.9019   0.9263
     1.0359   1.0756   1.1493   1.2598   1.3050   1.3269   1.4136   1.4350
     1.5080   1.6517   1.6922   1.7035   1.7306   1.7533   1.7781   2.1049
     2.1533   2.2402   2.2958   2.3258   2.5722   3.4255   3.6190   3.8282
     4.4711   4.7023   5.0488   5.5358   5.6175   6.8390   6.8586   7.3344
     7.3374   7.8269   7.8555   8.0378   8.0382   9.0828   9.1147   9.2917
     9.6798

     the Fermi energy is     1.1812 ev

!    total energy              =   -3212.30718901 Ry
     Harris-Foulkes estimate   =   -3212.30718785 Ry
     estimated scf accuracy    <       0.00000076 Ry

     The total energy is the sum of the following terms:

     one-electron contribution =  -28208.13259783 Ry
     hartree contribution      =   14119.83747625 Ry
     xc contribution           =    -397.35111239 Ry
     ewald contribution        =   11273.42625432 Ry
     electric field correction =       0.00000020 Ry
     smearing contrib. (-TS)   =      -0.08720957 Ry

     total magnetization       =    19.01 Bohr mag/cell
     absolute magnetization    =    20.77 Bohr mag/cell

     convergence has been achieved in  32 iterations

 BEEF-vdW xc energy contributions
           1 :   -349.201891098133
           2 :    317.690151551176
           3 :   -263.854769457018
           4 :    201.905394068101
           5 :   -145.216030793928
           6 :    101.683765805221
           7 :   -72.2900302660090
           8 :    52.9481646893254
           9 :   -38.1272051748327
          10 :    24.0943074988624
          11 :   -10.2584040012017
          12 :   -1.62497411689372
          13 :    9.40745501171591
          14 :   -12.2778031194305
          15 :    11.2870607891711
          16 :   -8.61328603326137
          17 :    6.25315940781093
          18 :   -5.06042200853955
          19 :    4.65328000614909
          20 :   -4.09810199719357
          21 :    2.78556314200671
          22 :  -0.899285739662446
          23 :  -0.776117290499485
          24 :    1.46862605719423
          25 :  -0.976416028579422
          26 :  -0.220035254435174
          27 :    1.31780967446372
          28 :   -1.73841527347645
          29 :    1.46831663872047
          30 :  -0.989035807705761
          31 :   -30.6000878635044
          32 :   -21.6901561778321

     Forces acting on atoms (Ry/au):

     negative rho (up, down):  7.879E-02 9.251E-02
     atom    1 type  1   force =     0.00004369   -0.01064262   -0.00206834
     atom    2 type  1   force =    -0.00927644    0.00531239   -0.00198879
     atom    3 type  1   force =     0.00928237    0.00526495   -0.00202984
     atom    4 type  2   force =     0.00000561   -0.00000403   -0.02496160
     atom    5 type  1   force =    -0.00002492    0.00484887    0.00747152
     atom    6 type  1   force =     0.00419589   -0.00243126    0.00744060
     atom    7 type  1   force =    -0.00419912   -0.00240471    0.00747156
     atom    8 type  2   force =    -0.00000158    0.00000643    0.00666330
     atom    9 type  1   force =    -0.00008516    0.00013223    0.00035373
     atom   10 type  1   force =     0.00019260   -0.00005117    0.00032509
     atom   11 type  1   force =    -0.00021378    0.00003565    0.00033653
     atom   12 type  2   force =     0.00008085   -0.00006673    0.00098623

     Total force =     0.035499     Total SCF correction =     0.002314

     entering subroutine stress ...

     negative rho (up, down):  7.879E-02 9.251E-02
          total   stress  (Ry/bohr**3)                   (kbar)     P=   -4.54
  -0.00002456  -0.00000002   0.00000000         -3.61     -0.00      0.00
  -0.00000002  -0.00002462   0.00000001         -0.00     -3.62      0.00
   0.00000000   0.00000001  -0.00004350          0.00      0.00     -6.40

 !ASE

     Writing output data file calc.save

     General routines

     Parallel routines

   This run was terminated on:  10:48:31  20Dec2018

   JOB DONE.
Job  /afs/slac/g/suncat/bin/suncat-tsmpirun -x LD_LIBRARY_PATH -wdir /scratch/qe773534_QgQKF pw.x -in pw.inp

TID   HOST_NAME   COMMAND_LINE            STATUS            TERMINATION_TIME
00000 suncat0129 pw.x -in pw.inp   Done                     12/20/2018 10:48:31
00001 suncat0129 pw.x -in pw.inp   Done                     12/20/2018 10:48:31
00002 suncat0129 pw.x -in pw.inp   Done                     12/20/2018 10:48:31
00003 suncat0129 pw.x -in pw.inp   Done                     12/20/2018 10:48:31
00004 suncat0129 pw.x -in pw.inp   Done                     12/20/2018 10:48:31
00005 suncat0129 pw.x -in pw.inp   Done                     12/20/2018 10:48:31
00006 suncat0129 pw.x -in pw.inp   Done                     12/20/2018 10:48:31
00007 suncat0129 pw.x -in pw.inp   Done                     12/20/2018 10:48:31
00008 suncat0124 pw.x -in pw.inp   Done                     12/20/2018 10:48:31
00009 suncat0124 pw.x -in pw.inp   Done                     12/20/2018 10:48:31
00010 suncat0124 pw.x -in pw.inp   Done                     12/20/2018 10:48:31
00011 suncat0124 pw.x -in pw.inp   Done                     12/20/2018 10:48:31
00012 suncat0124 pw.x -in pw.inp   Done                     12/20/2018 10:48:31
00013 suncat0124 pw.x -in pw.inp   Done                     12/20/2018 10:48:31
00014 suncat0124 pw.x -in pw.inp   Done                     12/20/2018 10:48:31
00015 suncat0124 pw.x -in pw.inp   Done                     12/20/2018 10:48:31
00016 suncat0123 pw.x -in pw.inp   Done                     12/20/2018 10:48:31
00017 suncat0123 pw.x -in pw.inp   Done                     12/20/2018 10:48:31
00018 suncat0123 pw.x -in pw.inp   Done                     12/20/2018 10:48:31
00019 suncat0123 pw.x -in pw.inp   Done                     12/20/2018 10:48:31
00020 suncat0123 pw.x -in pw.inp   Done                     12/20/2018 10:48:31
00021 suncat0123 pw.x -in pw.inp   Done                     12/20/2018 10:48:31
00022 suncat0123 pw.x -in pw.inp   Done                     12/20/2018 10:48:31
00023 suncat0123 pw.x -in pw.inp   Done                     12/20/2018 10:48:31
00024 suncat0122 pw.x -in pw.inp   Done                     12/20/2018 10:48:31
00025 suncat0122 pw.x -in pw.inp   Done                     12/20/2018 10:48:31
00026 suncat0122 pw.x -in pw.inp   Done                     12/20/2018 10:48:31
00027 suncat0122 pw.x -in pw.inp   Done                     12/20/2018 10:48:31
00028 suncat0122 pw.x -in pw.inp   Done                     12/20/2018 10:48:31
00029 suncat0122 pw.x -in pw.inp   Done                     12/20/2018 10:48:31
00030 suncat0122 pw.x -in pw.inp   Done                     12/20/2018 10:48:31
00031 suncat0122 pw.x -in pw.inp   Done                     12/20/2018 10:48:31
00032 suncat0214 pw.x -in pw.inp   Done                     12/20/2018 10:48:31
00033 suncat0214 pw.x -in pw.inp   Done                     12/20/2018 10:48:31
00034 suncat0214 pw.x -in pw.inp   Done                     12/20/2018 10:48:31
00035 suncat0214 pw.x -in pw.inp   Done                     12/20/2018 10:48:31
00036 suncat0214 pw.x -in pw.inp   Done                     12/20/2018 10:48:31
00037 suncat0214 pw.x -in pw.inp   Done                     12/20/2018 10:48:31
00038 suncat0214 pw.x -in pw.inp   Done                     12/20/2018 10:48:31
00039 suncat0214 pw.x -in pw.inp   Done                     12/20/2018 10:48:31
00040 suncat0213 pw.x -in pw.inp   Done                     12/20/2018 10:48:31
00041 suncat0213 pw.x -in pw.inp   Done                     12/20/2018 10:48:31
00042 suncat0213 pw.x -in pw.inp   Done                     12/20/2018 10:48:31
00043 suncat0213 pw.x -in pw.inp   Done                     12/20/2018 10:48:31
00044 suncat0213 pw.x -in pw.inp   Done                     12/20/2018 10:48:31
00045 suncat0213 pw.x -in pw.inp   Done                     12/20/2018 10:48:31
00046 suncat0213 pw.x -in pw.inp   Done                     12/20/2018 10:48:31
00047 suncat0213 pw.x -in pw.inp   Done                     12/20/2018 10:48:31
00048 suncat0209 pw.x -in pw.inp   Done                     12/20/2018 10:48:31
00049 suncat0209 pw.x -in pw.inp   Done                     12/20/2018 10:48:31
00050 suncat0209 pw.x -in pw.inp   Done                     12/20/2018 10:48:31
00051 suncat0209 pw.x -in pw.inp   Done                     12/20/2018 10:48:31
00052 suncat0209 pw.x -in pw.inp   Done                     12/20/2018 10:48:31
00053 suncat0209 pw.x -in pw.inp   Done                     12/20/2018 10:48:31
00054 suncat0209 pw.x -in pw.inp   Done                     12/20/2018 10:48:31
00055 suncat0209 pw.x -in pw.inp   Done                     12/20/2018 10:48:31
00056 suncat0203 pw.x -in pw.inp   Done                     12/20/2018 10:48:31
00057 suncat0203 pw.x -in pw.inp   Done                     12/20/2018 10:48:31
00058 suncat0203 pw.x -in pw.inp   Done                     12/20/2018 10:48:31
00059 suncat0203 pw.x -in pw.inp   Done                     12/20/2018 10:48:31
00060 suncat0203 pw.x -in pw.inp   Done                     12/20/2018 10:48:31
00061 suncat0203 pw.x -in pw.inp   Done                     12/20/2018 10:48:31
00062 suncat0203 pw.x -in pw.inp   Done                     12/20/2018 10:48:31
00063 suncat0203 pw.x -in pw.inp   Done                     12/20/2018 10:48:31