     Program PWSCF v.5.1rc2 (svn rev. 11289) starts on  2Jan2019 at  0:39: 3

     Current dimensions of program PWSCF are:
     Max number of different atomic species (ntypx) = 10
     Max number of k-points (npk) =  40000
     Max angular momentum in pseudopotentials (lmaxx) =  3
     Presently stress not available with electric field

     IMPORTANT: XC functional enforced from input :
     Exchange-correlation      = BEEF-VDW ( 1  4 27 13 2)
     Any further DFT definition will be discarded
     Please, verify this is what you really want

     Subspace diagonalization in iterative solution of the eigenvalue problem:
     a serial algorithm will be used

     bravais-lattice index     =            0
     lattice parameter (alat)  =       1.8897  a.u.
     unit-cell volume          =    7278.7060 (a.u.)^3
     number of atoms/cell      =           12
     number of atomic types    =            2
     number of electrons       =       174.00
     number of Kohn-Sham states=          117
     kinetic-energy cutoff     =      36.7493  Ry
     charge density cutoff     =     367.4932  Ry
     convergence threshold     =      1.0E-06
     mixing beta               =       0.1000
     number of iterations used =           10  plain     mixing
     Exchange-correlation      = BEEF-VDW ( 1  4 27 13 2)
     nstep                     =           50

     celldm(1)=   1.889726  celldm(2)=   0.000000  celldm(3)=   0.000000
     celldm(4)=   0.000000  celldm(5)=   0.000000  celldm(6)=   0.000000

     crystal axes: (cart. coord. in units of alat)
               a(1) = (   6.963362   0.000000   0.000000 )
               a(2) = (  -3.481681   6.030448   0.000000 )
               a(3) = (   0.000000   0.000000  25.685561 )

     reciprocal axes: (cart. coord. in units 2 pi/alat)
               b(1) = (  0.143609  0.082913  0.000000 )
               b(2) = (  0.000000  0.165825  0.000000 )
               b(3) = (  0.000000  0.000000  0.038932 )

     PseudoPot. # 1 for Tl read from file:
     /afs/slac.stanford.edu/u/if/mamunm/psp/gbrv1.5pbe/Tl.UPF
     MD5 check sum: b76cf1f7e72655a2b2c53cf6385d7059
     Pseudo is Ultrasoft + core correction, Zval = 13.0
     Generated by new atomic code, or converted to UPF format
     Using radial grid of  899 points,  6 beta functions with:
                l(1) =   0
                l(2) =   0
                l(3) =   1
                l(4) =   1
                l(5) =   2
                l(6) =   2
     Q(r) pseudized with  6 coefficients,  rinner =    1.100   1.100   1.100
                                                       1.100   1.100

     PseudoPot. # 2 for Ga read from file:
     /afs/slac.stanford.edu/u/if/mamunm/psp/gbrv1.5pbe/Ga.UPF
     MD5 check sum: ccd671392a58a050fbb373893b4fcd66
     Pseudo is Ultrasoft + core correction, Zval = 19.0
     Generated by new atomic code, or converted to UPF format
     Using radial grid of  871 points,  6 beta functions with:
                l(1) =   0
                l(2) =   0
                l(3) =   1
                l(4) =   1
                l(5) =   2
                l(6) =   2
     Q(r) pseudized with  8 coefficients,  rinner =    1.250   1.250   1.250
                                                       1.250   1.250

     vdW kernel table read from file vdW_kernel_table
     MD5 check sum: 095c7af220d748ca6e76c0b4c6cfb241

     atomic species   valence    mass     pseudopotential
        Tl1           13.00   204.38000     Tl( 1.00)
        Ga1           19.00    69.72300     Ga( 1.00)

     No symmetry found

   Cartesian axes

     site n.     atom                  positions (alat units)
         1           Tl1 tau(   1) = (   0.0000000   0.0000000  10.0000000  )
         2           Tl1 tau(   2) = (  -1.7408404   3.0152240  10.0000000  )
         3           Tl1 tau(   3) = (   1.7408404   3.0152240  10.0000000  )
         4           Ga1 tau(   4) = (   0.0000000   6.0304480  10.0000000  )
         5           Tl1 tau(   5) = (   3.4816808   2.0101493  12.8427805  )
         6           Tl1 tau(   6) = (   1.7408404   5.0253733  12.8427805  )
         7           Tl1 tau(   7) = (  -1.7408404   5.0253733  12.8427805  )
         8           Ga1 tau(   8) = (   0.0000000   2.0101493  12.8427805  )
         9           Tl1 tau(   9) = (   0.0000000   4.0202987  15.6855609  )
        10           Tl1 tau(  10) = (   1.7408404   1.0050747  15.6855609  )
        11           Tl1 tau(  11) = (   5.2225212   1.0050747  15.6855609  )
        12           Ga1 tau(  12) = (   3.4816808   4.0202987  15.6855609  )

     number of k points=    20  Fermi-Dirac smearing, width (Ry)=  0.0110
                       cart. coord. in units 2pi/alat
        k(    1) = (   0.0000000   0.0000000   0.0000000), wk =   0.0555556
        k(    2) = (   0.0000000   0.0276375   0.0000000), wk =   0.1111111
        k(    3) = (   0.0000000   0.0552751   0.0000000), wk =   0.1111111
        k(    4) = (   0.0000000  -0.0829126   0.0000000), wk =   0.0555556
        k(    5) = (   0.0239348   0.0138188   0.0000000), wk =   0.1111111
        k(    6) = (   0.0239348   0.0414563   0.0000000), wk =   0.1111111
        k(    7) = (   0.0239348   0.0690938   0.0000000), wk =   0.1111111
        k(    8) = (   0.0239348  -0.0690938   0.0000000), wk =   0.1111111
        k(    9) = (   0.0239348  -0.0414563   0.0000000), wk =   0.1111111
        k(   10) = (   0.0239348  -0.0138188   0.0000000), wk =   0.1111111
        k(   11) = (   0.0478696   0.0276375   0.0000000), wk =   0.1111111
        k(   12) = (   0.0478696   0.0552751   0.0000000), wk =   0.1111111
        k(   13) = (   0.0478696   0.0829126   0.0000000), wk =   0.1111111
        k(   14) = (   0.0478696  -0.0552751   0.0000000), wk =   0.1111111
        k(   15) = (   0.0478696  -0.0276375   0.0000000), wk =   0.1111111
        k(   16) = (   0.0478696   0.0000000   0.0000000), wk =   0.1111111
        k(   17) = (  -0.0718044  -0.0414563   0.0000000), wk =   0.0555556
        k(   18) = (  -0.0718044  -0.0138188   0.0000000), wk =   0.1111111
        k(   19) = (  -0.0718044   0.0138188   0.0000000), wk =   0.1111111
        k(   20) = (  -0.0718044  -0.1243689   0.0000000), wk =   0.0555556

     Largest allocated arrays     est. size (Mb)     dimensions
     Largest temporary arrays     est. size (Mb)     dimensions

     Check: negative/imaginary core charge=   -0.000001    0.000000

     Initial potential from superposition of free atoms
     Check: negative starting charge=   -0.457195

     starting charge  170.95620, renormalised to  174.00000

     negative rho (up, down):  4.653E-01 0.000E+00

     *
     * You are using vdW-DF for exchange-correlation in this calculation.
     * Please cite the following three references that made this development
     * possible:
     *
     *   M. Dion, H. Rydberg, E. Schroder, D. C. Langreth, and
     *   B. I. Lundqvist, Phys. Rev. Lett. 92, 246401 (2004).
     *
     *   T. Thonhauser, V. R. Cooper, S. Li, A. Puzder, P. Hyldgaard, and
     *   D. C. Langreth, Phys. Rev. B 76, 125112 (2007).
     *
     *   G. Roman-Perez and J. M. Soler, Phys. Rev. Lett. 103, 096102 (2009).
     *
     *
     * If you are using vdW-DF2, please also cite:
     *
     *   K. Lee, E. D. Murray, L. Kong, B. I. Lundqvist, and
     *   D. C. Langreth, Phys. Rev. B 82, 081101(R) (2010).
     *
     *
     * If you are calculating the stress with vdW-DF, please also cite:
     *
     *   R. Sabatini, E. Kucukbenli, B. Kolb, T. Thonhauser, and
     *   S. de Gironcoli, J. Phys.: Condens. Matter 24, 424209 (2012).
     *

     Carrying out vdW-DF run using the following parameters:

     Nqs =      20    Nr_points =    1024   r_max =   100.000
     q_mesh =
               0.00001000     0.04494208     0.09755937     0.15916263
               0.23128650     0.31572767     0.41458969     0.53033537
               0.66584808     0.82450364     1.01025438     1.22772762
               1.48234092     1.78043706     2.12944203     2.53805004
               3.01644009     3.57652955     4.23227104     5.00000000

     Gradients computed in reciprocal space

     Adding external electric field

     Computed dipole along edir(3) :
        Dipole                0.0000 Ry au,          0.0000 Debye
        Dipole field          0.0000 Ry au

        Potential amp.       -0.0000 Ry
        Total length         47.3252 bohr

     Starting wfc are  117 randomized atomic wfcs

     Self-consistent Calculation

     iteration #  1     ecut=    36.75 Ry     beta=0.10
     Davidson diagonalization with overlap
     ethr =  1.00E-02,  avg # of iterations =  9.6

[...]

     total energy              =   -2571.21985088 Ry
     Harris-Foulkes estimate   =   -2571.52528213 Ry
     estimated scf accuracy    <       1.87867104 Ry

[...]

     End of self-consistent calculation

          k = 0.0000 0.0000 0.0000 ( 27441 PWs)   bands (ev):

   -94.5551 -94.5550 -94.5316 -94.5315 -94.5314 -94.5314 -94.3699 -94.3698
   -94.3632 -14.8663 -14.8656 -14.8574 -14.8571 -14.8564 -14.8562 -14.8428
   -14.8426 -14.8422 -14.8420 -14.6883 -14.6877 -14.6821 -14.6815 -14.6814
   -11.6193 -11.6042 -11.5717 -11.5717 -11.5665 -11.5230 -11.5230 -11.4941
   -11.4803 -11.4527 -11.4493 -11.4493 -11.4330 -11.4330 -11.3983 -11.3640
   -11.3640 -11.3627 -11.3627 -11.3617 -11.2505 -11.2505 -11.2472 -11.2446
   -11.2364 -11.2364 -11.2283 -11.2212 -11.2212 -11.1994 -11.1994 -11.1487
   -11.1487 -11.1320 -11.1320 -11.1044 -11.1044 -11.0486 -11.0486 -11.0404
   -11.0111 -11.0008 -10.9765 -10.9765 -10.9097  -8.5962  -7.5160  -5.8789
    -4.8801  -4.8801  -4.5073  -4.5073  -4.4480  -4.2007  -3.7473  -3.7473
    -3.5094  -1.6152  -1.5617  -1.5617  -1.2405  -0.4859  -0.4551  -0.4551
    -0.4200  -0.3804  -0.3804   1.1008   2.8240   2.8747   3.0240   3.1865
     3.1865   3.2155   3.2155   3.4871   4.1810   4.3769   4.4961   4.4961
     4.8660   5.1059   5.3214   5.3215   5.4883   5.4883   5.9559   5.9667
     6.2922   6.3923   6.3968   6.3973   6.6804

[...]

          k =-0.0718-0.0415 0.0000 ( 27378 PWs)   bands (ev):

[...]

     the Fermi energy is     0.4167 ev

!    total energy              =   -2570.90874857 Ry
     Harris-Foulkes estimate   =   -2570.91397725 Ry
     estimated scf accuracy    <       0.00000039 Ry

     The total energy is the sum of the following terms:

     one-electron contribution =  -10956.87764369 Ry
     hartree contribution      =    5538.93409667 Ry
     xc contribution           =    -724.76696961 Ry
     ewald contribution        =    3571.85000454 Ry
     electric field correction =       0.00000000 Ry
     smearing contrib. (-TS)   =      -0.04823647 Ry

     convergence has been achieved in  14 iterations

 BEEF-vdW xc energy contributions
           1 :   -646.076515235338
           2 :    596.677249794910
           3 :   -511.051137445982
           4 :    409.791603887418
           5 :   -312.853966397143
           6 :    233.030957659324
           7 :   -173.606133945674
           8 :    130.417351063644
           9 :   -96.5267185230452
          10 :    66.7090821720972
          11 :   -39.5966563095928
          12 :    16.9286083602307
[...]
     Pseudo is Ultrasoft + core correction, Zval = 13.0
     Generated by new atomic code, or converted to UPF format
     Using radial grid of  899 points,  6 beta functions with:
                l(1) =   0
                l(2) =   0
                l(3) =   1
                l(4) =   1
                l(5) =   2
                l(6) =   2
     Q(r) pseudized with  6 coefficients,  rinner =    1.100   1.100   1.100
                                                       1.100   1.100

     PseudoPot. # 2 for Ga read from file:
     /afs/slac.stanford.edu/u/if/mamunm/psp/gbrv1.5pbe/Ga.UPF
     MD5 check sum: ccd671392a58a050fbb373893b4fcd66
     Pseudo is Ultrasoft + core correction, Zval = 19.0
     Generated by new atomic code, or converted to UPF format
     Using radial grid of  871 points,  6 beta functions with:
                l(1) =   0
                l(2) =   0
                l(3) =   1
                l(4) =   1
                l(5) =   2
                l(6) =   2
     Q(r) pseudized with  8 coefficients,  rinner =    1.250   1.250   1.250
                                                       1.250   1.250

     vdW kernel table read from file vdW_kernel_table
     MD5 check sum: 095c7af220d748ca6e76c0b4c6cfb241

     atomic species   valence    mass     pseudopotential
        Tl1           13.00   204.38000     Tl( 1.00)
        Ga1           19.00    69.72300     Ga( 1.00)

     No symmetry found

   Cartesian axes

     site n.     atom                  positions (alat units)
         1           Tl1 tau(   1) = (   0.0000000   0.0000000  10.0000000  )
         2           Tl1 tau(   2) = (  -1.7408404   3.0152240  10.0000000  )
         3           Tl1 tau(   3) = (   1.7408404   3.0152240  10.0000000  )
         4           Ga1 tau(   4) = (   0.0000000   6.0304480  10.0000000  )
         5           Tl1 tau(   5) = (   3.4816808   2.0101493  12.8427805  )
         6           Tl1 tau(   6) = (   1.7408404   5.0253733  12.8427805  )
         7           Tl1 tau(   7) = (  -1.7408404   5.0253733  12.8427805  )
         8           Ga1 tau(   8) = (   0.0000000   2.0101493  12.8427805  )
         9           Tl1 tau(   9) = (  -0.0000180   4.0014142  15.7909310  )
        10           Tl1 tau(  10) = (   1.7232711   1.0152183  15.7893470  )
        11           Tl1 tau(  11) = (   5.2398556   1.0150461  15.7896093  )
        12           Ga1 tau(  12) = (   3.4818638   4.0209073  15.4513688  )

     number of k points=    20  Fermi-Dirac smearing, width (Ry)=  0.0110
                       cart. coord. in units 2pi/alat
        k(    1) = (   0.0000000   0.0000000   0.0000000), wk =   0.0555556
        k(    2) = (   0.0000000   0.0276375   0.0000000), wk =   0.1111111
        k(    3) = (   0.0000000   0.0552751   0.0000000), wk =   0.1111111
        k(    4) = (   0.0000000  -0.0829126   0.0000000), wk =   0.0555556
        k(    5) = (   0.0239348   0.0138188   0.0000000), wk =   0.1111111
        k(    6) = (   0.0239348   0.0414563   0.0000000), wk =   0.1111111
        k(    7) = (   0.0239348   0.0690938   0.0000000), wk =   0.1111111
        k(    8) = (   0.0239348  -0.0690938   0.0000000), wk =   0.1111111
        k(    9) = (   0.0239348  -0.0414563   0.0000000), wk =   0.1111111
        k(   10) = (   0.0239348  -0.0138188   0.0000000), wk =   0.1111111
        k(   11) = (   0.0478696   0.0276375   0.0000000), wk =   0.1111111
        k(   12) = (   0.0478696   0.0552751   0.0000000), wk =   0.1111111
        k(   13) = (   0.0478696   0.0829126   0.0000000), wk =   0.1111111
        k(   14) = (   0.0478696  -0.0552751   0.0000000), wk =   0.1111111
        k(   15) = (   0.0478696  -0.0276375   0.0000000), wk =   0.1111111
        k(   16) = (   0.0478696   0.0000000   0.0000000), wk =   0.1111111
        k(   17) = (  -0.0718044  -0.0414563   0.0000000), wk =   0.0555556
        k(   18) = (  -0.0718044  -0.0138188   0.0000000), wk =   0.1111111
        k(   19) = (  -0.0718044   0.0138188   0.0000000), wk =   0.1111111
        k(   20) = (  -0.0718044  -0.1243689   0.0000000), wk =   0.0555556

     Largest allocated arrays     est. size (Mb)     dimensions
     Largest temporary arrays     est. size (Mb)     dimensions

     Check: negative/imaginary core charge=   -0.000001    0.000000

     Initial potential from superposition of free atoms
     Check: negative starting charge=   -0.459003

     starting charge  170.95620, renormalised to  174.00000

[...]

     *
     * You are using vdW-DF for exchange-correlation in this calculation.
     * Please cite the following three references that made this development
     * possible:
     *
     *   M. Dion, H. Rydberg, E. Schroder, D. C. Langreth, and
     *   B. I. Lundqvist, Phys. Rev. Lett. 92, 246401 (2004).
     *
     *   T. Thonhauser, V. R. Cooper, S. Li, A. Puzder, P. Hyldgaard, and
     *   D. C. Langreth, Phys. Rev. B 76, 125112 (2007).
     *
     *   G. Roman-Perez and J. M. Soler, Phys. Rev. Lett. 103, 096102 (2009).
     *
     *
     * If you are using vdW-DF2, please also cite:
     *
     *   K. Lee, E. D. Murray, L. Kong, B. I. Lundqvist, and
     *   D. C. Langreth, Phys. Rev. B 82, 081101(R) (2010).
     *
     *
     * If you are calculating the stress with vdW-DF, please also cite:
     *
     *   R. Sabatini, E. Kucukbenli, B. Kolb, T. Thonhauser, and
     *   S. de Gironcoli, J. Phys.: Condens. Matter 24, 424209 (2012).
     *

     Carrying out vdW-DF run using the following parameters:

     Nqs =      20    Nr_points =    1024   r_max =   100.000
     q_mesh =
               0.00001000     0.04494208     0.09755937     0.15916263
               0.23128650     0.31572767     0.41458969     0.53033537
               0.66584808     0.82450364     1.01025438     1.22772762
               1.48234092     1.78043706     2.12944203     2.53805004
               3.01644009     3.57652955     4.23227104     5.00000000

     Gradients computed in reciprocal space

[...]

     Starting wfc are  117 randomized atomic wfcs

     Self-consistent Calculation

[...]

     total energy              =   -2570.91671477 Ry
     Harris-Foulkes estimate   =   -2570.91669906 Ry
     estimated scf accuracy    <       0.00000131 Ry

     iteration # 16     ecut=    36.75 Ry     beta=0.10
     Davidson diagonalization with overlap
     ethr =  5.85E-10,  avg # of iterations =  2.0

[...]

     negative rho (up, down):  4.762E-01 0.000E+00

     Adding external electric field

     Computed dipole along edir(3) :
        Dipole                0.0145 Ry au,          0.0369 Debye
        Dipole field          0.0000 Ry au

        Potential amp.       -0.0024 Ry
        Total length         47.3252 bohr

     End of self-consistent calculation

[...]

          k = 0.0479 0.0000 0.0000 ( 27419 PWs)   bands (ev):

[...]

          k =-0.0718-0.1244 0.0000 ( 27378 PWs)   bands (ev):

   -94.5432 -94.5197 -94.5196 -94.4718 -94.4540 -94.4538 -94.3614 -94.3613
   -94.3534 -14.8534 -14.8451 -14.8448 -14.8301 -14.8287 -14.7856 -14.7800
   -14.7798 -14.7664 -14.7652 -14.6782 -14.6768 -14.6708 -14.6707 -14.6704
   -11.5533 -11.5367 -11.4713 -11.4647 -11.4384 -11.4124 -11.4084 -11.4055
   -11.3933 -11.3912 -11.3841 -11.3672 -11.3547 -11.3513 -11.3402 -11.3282
   -11.3258 -11.3239 -11.3141 -11.3108 -11.3069 -11.3030 -11.3003 -11.2925
   -11.2890 -11.2485 -11.2461 -11.2338 -11.2160 -11.2054 -11.1967 -11.1784
   -11.1707 -11.1685 -11.1550 -11.1470 -11.1376 -11.1342 -11.1276 -11.1251
   -11.0920 -11.0858 -11.0427 -11.0359 -10.9449  -7.5389  -7.3827  -6.4923
    -6.3673  -5.4009  -5.3981  -4.9858  -4.7799  -4.5865  -4.2969  -3.5977
    -3.3895  -0.1273  -0.0838   0.1896   0.2114   0.3098   0.3224   1.0137
     1.0771   1.4460   1.6027   1.7410   1.8245   2.4333   2.7136   2.7167
     2.7557   2.9624   3.2567   3.2921   3.3659   3.6046   3.6580   4.0393
     4.0771   4.1218   4.2248   4.4437   4.4856   4.6948   4.7918   5.2380
     5.2708   5.3487   5.4348   5.7203   5.8263

     the Fermi energy is     0.4321 ev

!    total energy              =   -2570.91674332 Ry
     Harris-Foulkes estimate   =   -2570.91671490 Ry
     estimated scf accuracy    <       0.00000040 Ry

     The total energy is the sum of the following terms:

     one-electron contribution =  -10961.14340364 Ry
     hartree contribution      =    5541.15609368 Ry
     xc contribution           =    -724.75930523 Ry
     ewald contribution        =    3573.87788780 Ry
     electric field correction =       0.00000036 Ry
     smearing contrib. (-TS)   =      -0.04801629 Ry

     convergence has been achieved in  16 iterations

 BEEF-vdW xc energy contributions
           1 :   -646.219078254696
           2 :    596.806696013756
           3 :   -511.170097528040
           4 :    409.918366439423
           5 :   -313.006228895362
           6 :    233.209216587668
           7 :   -173.791359213591
           8 :    130.583522884529
           9 :   -96.6593473661594
          10 :    66.8168175713550
          11 :   -39.7064346188441
          12 :    17.0681103443667
          13 :   -1.25934486958272
          14 :   -7.03717214499954
          15 :    9.53153020788545
          16 :   -9.34809454253718
          17 :    9.29047847534912
          18 :   -10.5827555738763
          19 :    12.7596941283946
          20 :   -14.5459896390926
          21 :    14.9801320178357
          22 :   -14.0504225066106
          23 :    12.5534360214147
          24 :   -11.4396833532264
          25 :    11.1756624536066
          26 :   -11.5380645853670
          27 :    11.8818481196322
          28 :   -11.6146641001078
          29 :    10.5362239710879
          30 :   -8.87602130843504
          31 :   -50.9096326654009
          32 :   -36.5861835237869

     Forces acting on atoms (Ry/au):

     negative rho (up, down):  4.762E-01 0.000E+00
     atom    1 type  1   force =    -0.00000017    0.00367841   -0.00335893
     atom    2 type  1   force =     0.00317749   -0.00182077   -0.00340626
     atom    3 type  1   force =    -0.00317461   -0.00181884   -0.00340358
     atom    4 type  2   force =    -0.00000046    0.00001739    0.00626794
     atom    5 type  1   force =     0.00000057   -0.00406079    0.00123671
     atom    6 type  1   force =    -0.00351549    0.00203656    0.00130913
     atom    7 type  1   force =     0.00351283    0.00203925    0.00130222
     atom    8 type  2   force =     0.00000131    0.00002143    0.00235223
     atom    9 type  1   force =    -0.00000080   -0.00002340   -0.00050962
     atom   10 type  1   force =    -0.00001656   -0.00003316   -0.00054312
     atom   11 type  1   force =     0.00001686   -0.00003193   -0.00054201
     atom   12 type  2   force =    -0.00000097   -0.00000414   -0.00070471

     Total force =     0.013244     Total SCF correction =     0.001363
     SCF correction compared to forces is large: reduce conv_thr to get better values

     entering subroutine stress ...

     negative rho (up, down):  4.762E-01 0.000E+00
          total   stress  (Ry/bohr**3)                   (kbar)     P=   -7.34
  -0.00005666   0.00000000  -0.00000000         -8.34      0.00     -0.00
   0.00000000  -0.00005651   0.00000001          0.00     -8.31      0.00
  -0.00000000   0.00000001  -0.00003659         -0.00      0.00     -5.38

 !ASE

     Writing output data file calc.save

     General routines

     Parallel routines

   This run was terminated on:   3:44:56   2Jan2019

   JOB DONE.
Job  /afs/slac/g/suncat/bin/suncat-tsmpirun -x LD_LIBRARY_PATH -wdir /scratch/qe649247_jaSkh pw.x -in pw.inp

TID   HOST_NAME   COMMAND_LINE            STATUS            TERMINATION_TIME
00000 suncat0043 pw.x -in pw.inp   Done                     01/02/2019 03:44:56
00001 suncat0043 pw.x -in pw.inp   Done                     01/02/2019 03:44:56
00002 suncat0043 pw.x -in pw.inp   Done                     01/02/2019 03:44:56
00003 suncat0043 pw.x -in pw.inp   Done                     01/02/2019 03:44:56
00004 suncat0043 pw.x -in pw.inp   Done                     01/02/2019 03:44:56
00005 suncat0043 pw.x -in pw.inp   Done                     01/02/2019 03:44:56
00006 suncat0043 pw.x -in pw.inp   Done                     01/02/2019 03:44:56
00007 suncat0043 pw.x -in pw.inp   Done                     01/02/2019 03:44:56
00008 suncat0041 pw.x -in pw.inp   Done                     01/02/2019 03:44:56
00009 suncat0041 pw.x -in pw.inp   Done                     01/02/2019 03:44:56
00010 suncat0041 pw.x -in pw.inp   Done                     01/02/2019 03:44:56
00011 suncat0041 pw.x -in pw.inp   Done                     01/02/2019 03:44:56
00012 suncat0041 pw.x -in pw.inp   Done                     01/02/2019 03:44:56
00013 suncat0041 pw.x -in pw.inp   Done                     01/02/2019 03:44:56
00014 suncat0041 pw.x -in pw.inp   Done                     01/02/2019 03:44:56
00015 suncat0041 pw.x -in pw.inp   Done                     01/02/2019 03:44:56
00016 suncat0039 pw.x -in pw.inp   Done                     01/02/2019 03:44:56
00017 suncat0039 pw.x -in pw.inp   Done                     01/02/2019 03:44:56
00018 suncat0039 pw.x -in pw.inp   Done                     01/02/2019 03:44:56
00019 suncat0039 pw.x -in pw.inp   Done                     01/02/2019 03:44:56
00020 suncat0039 pw.x -in pw.inp   Done                     01/02/2019 03:44:56
00021 suncat0039 pw.x -in pw.inp   Done                     01/02/2019 03:44:56
00022 suncat0039 pw.x -in pw.inp   Done                     01/02/2019 03:44:56
00023 suncat0039 pw.x -in pw.inp   Done                     01/02/2019 03:44:56
00024 suncat0025 pw.x -in pw.inp   Done                     01/02/2019 03:44:56
00025 suncat0025 pw.x -in pw.inp   Done                     01/02/2019 03:44:56
00026 suncat0025 pw.x -in pw.inp   Done                     01/02/2019 03:44:56
00027 suncat0025 pw.x -in pw.inp   Done                     01/02/2019 03:44:56
00028 suncat0025 pw.x -in pw.inp   Done                     01/02/2019 03:44:56
00029 suncat0025 pw.x -in pw.inp   Done                     01/02/2019 03:44:56
00030 suncat0025 pw.x -in pw.inp   Done                     01/02/2019 03:44:56
00031 suncat0025 pw.x -in pw.inp   Done                     01/02/2019 03:44:56
00032 suncat0013 pw.x -in pw.inp   Done                     01/02/2019 03:44:56
00033 suncat0013 pw.x -in pw.inp   Done                     01/02/2019 03:44:56
00034 suncat0013 pw.x -in pw.inp   Done                     01/02/2019 03:44:56
00035 suncat0013 pw.x -in pw.inp   Done                     01/02/2019 03:44:56
00036 suncat0013 pw.x -in pw.inp   Done                     01/02/2019 03:44:56
00037 suncat0013 pw.x -in pw.inp   Done                     01/02/2019 03:44:56
00038 suncat0013 pw.x -in pw.inp   Done                     01/02/2019 03:44:56
00039 suncat0013 pw.x -in pw.inp   Done                     01/02/2019 03:44:56
00040 suncat0008 pw.x -in pw.inp   Done                     01/02/2019 03:44:56
00041 suncat0008 pw.x -in pw.inp   Done                     01/02/2019 03:44:56
00042 suncat0008 pw.x -in pw.inp   Done                     01/02/2019 03:44:56
00043 suncat0008 pw.x -in pw.inp   Done                     01/02/2019 03:44:56
00044 suncat0008 pw.x -in pw.inp   Done                     01/02/2019 03:44:56
00045 suncat0008 pw.x -in pw.inp   Done                     01/02/2019 03:44:56
00046 suncat0008 pw.x -in pw.inp   Done                     01/02/2019 03:44:56
00047 suncat0008 pw.x -in pw.inp   Done                     01/02/2019 03:44:56
00048 suncat0117 pw.x -in pw.inp   Done                     01/02/2019 03:44:56
00049 suncat0117 pw.x -in pw.inp   Done                     01/02/2019 03:44:56
00050 suncat0117 pw.x -in pw.inp   Done                     01/02/2019 03:44:56
00051 suncat0117 pw.x -in pw.inp   Done                     01/02/2019 03:44:56
00052 suncat0117 pw.x -in pw.inp   Done                     01/02/2019 03:44:56
00053 suncat0117 pw.x -in pw.inp   Done                     01/02/2019 03:44:56
00054 suncat0117 pw.x -in pw.inp   Done                     01/02/2019 03:44:56
00055 suncat0117 pw.x -in pw.inp   Done                     01/02/2019 03:44:56
00056 suncat0250 pw.x -in pw.inp   Done                     01/02/2019 03:44:56
00057 suncat0250 pw.x -in pw.inp   Done                     01/02/2019 03:44:56
00058 suncat0250 pw.x -in pw.inp   Done                     01/02/2019 03:44:56
00059 suncat0250 pw.x -in pw.inp   Done                     01/02/2019 03:44:56
00060 suncat0250 pw.x -in pw.inp   Done                     01/02/2019 03:44:56
00061 suncat0250 pw.x -in pw.inp   Done                     01/02/2019 03:44:56
00062 suncat0250 pw.x -in pw.inp   Done                     01/02/2019 03:44:56
00063 suncat0250 pw.x -in pw.inp   Done                     01/02/2019 03:44:56