     Program PWSCF v.5.1rc2 (svn rev. 11289) starts on  2Jan2019 at 20:59:26

     Current dimensions of program PWSCF are:
     Max number of different atomic species (ntypx) = 10
     Max number of k-points (npk) =  40000
     Max angular momentum in pseudopotentials (lmaxx) =  3
     Presently stress not available with electric field

     IMPORTANT: XC functional enforced from input :
     Exchange-correlation      = BEEF-VDW ( 1  4 27 13 2)
     Any further DFT definition will be discarded
     Please, verify this is what you really want

     Subspace diagonalization in iterative solution of the eigenvalue problem:
     a serial algorithm will be used

     bravais-lattice index     =            0
     lattice parameter (alat)  =       1.8897  a.u.
     unit-cell volume          =    5535.9919 (a.u.)^3
     number of atoms/cell      =           12
     number of atomic types    =            2
     number of electrons       =       153.00
     number of Kohn-Sham states=          106
     kinetic-energy cutoff     =      36.7493  Ry
     charge density cutoff     =     367.4932  Ry
     convergence threshold     =      1.0E-06
     mixing beta               =       0.1000
     number of iterations used =           10  plain     mixing
     Exchange-correlation      = BEEF-VDW ( 1  4 27 13 2)
     nstep                     =           50

     celldm(1)=   1.889726  celldm(2)=   0.000000  celldm(3)=   0.000000
     celldm(4)=   0.000000  celldm(5)=   0.000000  celldm(6)=   0.000000

     crystal axes: (cart. coord. in units of alat)
               a(1) = (   6.152609   0.000000   0.000000 )
               a(2) = (  -3.076305   5.328316   0.000000 )
               a(3) = (   0.000000   0.000000  25.023585 )

     reciprocal axes: (cart. coord. in units 2 pi/alat)
               b(1) = (  0.162533  0.093838  0.000000 )
               b(2) = (  0.000000  0.187677  0.000000 )
               b(3) = (  0.000000  0.000000  0.039962 )

     PseudoPot. # 1 for Zr read from file:
     /afs/slac.stanford.edu/u/if/mamunm/psp/gbrv1.5pbe/Zr.UPF
     MD5 check sum: 5db81b1e868ab7776c4564c113de050b
     Pseudo is Ultrasoft + core correction, Zval = 12.0
     Generated by new atomic code, or converted to UPF format
     Using radial grid of  887 points,  6 beta functions with:
                l(1) =   0
                l(2) =   0
                l(3) =   1
                l(4) =   1
                l(5) =   2
                l(6) =   2
     Q(r) pseudized with  6 coefficients,  rinner =    1.200   1.200   1.200
                                                       1.200   1.200

     PseudoPot. # 2 for Re read from file:
     /afs/slac.stanford.edu/u/if/mamunm/psp/gbrv1.5pbe/Re.UPF
     MD5 check sum: 85f993410f3e006da9d71c142b4ad953
     Pseudo is Ultrasoft + core correction, Zval = 15.0
     Generated by new atomic code, or converted to UPF format
     Using radial grid of  981 points,  8 beta functions with:
                l(1) =   0
                l(2) =   0
                l(3) =   1
                l(4) =   1
                l(5) =   2
                l(6) =   2
                l(7) =   3
                l(8) =   3
     Q(r) pseudized with  8 coefficients,  rinner =    1.150   1.150   1.150
                                                       1.150   1.150   1.150
                                                       1.150

     vdW kernel table read from file vdW_kernel_table
     MD5 check sum: 095c7af220d748ca6e76c0b4c6cfb241

     atomic species   valence    mass     pseudopotential
        Zr1           12.00    91.22400     Zr( 1.00)
        Re1           15.00   186.20700     Re( 1.00)

     No symmetry found

   Cartesian axes

     site n.     atom                  positions (alat units)
         1           Zr1 tau(   1) = (   0.0000000   0.0000000  10.0000000  )
         2           Zr1 tau(   2) = (   4.6144571   2.6641580  10.0000000  )
         3           Zr1 tau(   3) = (   1.5381524   2.6641580  10.0000000  )
         4           Re1 tau(   4) = (   3.0763047   0.0000000  10.0000000  )
         5           Zr1 tau(   5) = (   3.0763047   1.7761053  12.5117923  )
         6           Zr1 tau(   6) = (   1.5381524   4.4402634  12.5117923  )
         7           Zr1 tau(   7) = (  -1.5381524   4.4402634  12.5117923  )
         8           Re1 tau(   8) = (   0.0000000   1.7761053  12.5117923  )
         9           Zr1 tau(   9) = (  -0.0000000   3.5522107  15.0235845  )
        10           Zr1 tau(  10) = (   1.5381524   0.8880527  15.0235845  )
        11           Zr1 tau(  11) = (   4.6144571   0.8880527  15.0235845  )
        12           Re1 tau(  12) = (   3.0763047   3.5522107  15.0235845  )

     number of k points=    20  Fermi-Dirac smearing, width (Ry)=  0.0110
                       cart. coord. in units 2pi/alat
        k(    1) = (   0.0000000   0.0000000   0.0000000), wk =   0.0555556
        k(    2) = (   0.0000000   0.0312794   0.0000000), wk =   0.1111111
        k(    3) = (   0.0000000   0.0625589   0.0000000), wk =   0.1111111
        k(    4) = (   0.0000000  -0.0938383   0.0000000), wk =   0.0555556
        k(    5) = (   0.0270888   0.0156397   0.0000000), wk =   0.1111111
        k(    6) = (   0.0270888   0.0469191   0.0000000), wk =   0.1111111
        k(    7) = (   0.0270888   0.0781986   0.0000000), wk =   0.1111111
        k(    8) = (   0.0270888  -0.0781986   0.0000000), wk =   0.1111111
        k(    9) = (   0.0270888  -0.0469191   0.0000000), wk =   0.1111111
        k(   10) = (   0.0270888  -0.0156397   0.0000000), wk =   0.1111111
        k(   11) = (   0.0541776   0.0312794   0.0000000), wk =   0.1111111
        k(   12) = (   0.0541776   0.0625589   0.0000000), wk =   0.1111111
        k(   13) = (   0.0541776   0.0938383   0.0000000), wk =   0.1111111
        k(   14) = (   0.0541776  -0.0625589   0.0000000), wk =   0.1111111
        k(   15) = (   0.0541776  -0.0312794   0.0000000), wk =   0.1111111
        k(   16) = (   0.0541776   0.0000000   0.0000000), wk =   0.1111111
        k(   17) = (  -0.0812663  -0.0469191   0.0000000), wk =   0.0555556
        k(   18) = (  -0.0812663  -0.0156397   0.0000000), wk =   0.1111111
        k(   19) = (  -0.0812663   0.0156397   0.0000000), wk =   0.1111111
        k(   20) = (  -0.0812663  -0.1407574   0.0000000), wk =   0.0555556

     Largest allocated arrays     est. size (Mb)     dimensions
     Largest temporary arrays     est. size (Mb)     dimensions

     Initial potential from superposition of free atoms
     Check: negative starting charge=   -0.945654

     starting charge  151.48052, renormalised to  153.00000

     negative rho (up, down):  9.551E-01 0.000E+00

     *
     * You are using vdW-DF for exchange-correlation in this calculation.
     * Please cite the following three references that made this development
     * possible:
     *
     *   M. Dion, H. Rydberg, E. Schroder, D. C. Langreth, and
     *   B. I. Lundqvist, Phys. Rev. Lett. 92, 246401 (2004).
     *
     *   T. Thonhauser, V. R. Cooper, S. Li, A. Puzder, P. Hyldgaard, and
     *   D. C. Langreth, Phys. Rev. B 76, 125112 (2007).
     *
     *   G. Roman-Perez and J. M. Soler, Phys. Rev. Lett. 103, 096102 (2009).
     *
     *
     * If you are using vdW-DF2, please also cite:
     *
     *   K. Lee, E. D. Murray, L. Kong, B. I. Lundqvist, and
     *   D. C. Langreth, Phys. Rev. B 82, 081101(R) (2010).
     *
     *
     * If you are calculating the stress with vdW-DF, please also cite:
     *
     *   R. Sabatini, E. Kucukbenli, B. Kolb, T. Thonhauser, and
     *   S. de Gironcoli, J. Phys.: Condens. Matter 24, 424209 (2012).
     *

     Carrying out vdW-DF run using the following parameters:

     Nqs =      20    Nr_points =    1024   r_max =   100.000
     q_mesh =
               0.00001000     0.04494208     0.09755937     0.15916263
               0.23128650     0.31572767     0.41458969     0.53033537
               0.66584808     0.82450364     1.01025438     1.22772762
               1.48234092     1.78043706     2.12944203     2.53805004
               3.01644009     3.57652955     4.23227104     5.00000000

     Gradients computed in reciprocal space

     Adding external electric field

     Computed dipole along edir(3) :
        Dipole                0.0000 Ry au,          0.0000 Debye
        Dipole field          0.0000 Ry au

        Potential amp.       -0.0000 Ry
        Total length         46.1055 bohr

     Starting wfc are  156 randomized atomic wfcs

     Self-consistent Calculation

     iteration #  1     ecut=    36.75 Ry     beta=0.10
     Davidson diagonalization with overlap
     ethr =  1.00E-02,  avg # of iterations =  2.0

[...]

     total energy              =   -1473.41368091 Ry
     Harris-Foulkes estimate   =   -1474.68658094 Ry
     estimated scf accuracy    <       7.19077424 Ry

[...]

     End of self-consistent calculation

          k = 0.0000 0.0000 0.0000 ( 20851 PWs)   bands (ev):

   -78.1974 -77.9997 -77.9996 -47.3693 -47.3602 -47.2537 -47.2537 -47.2515
   -47.2515 -47.0840 -46.9813 -46.9812 -39.8638 -39.8638 -39.8380 -39.6887
   -39.6873 -39.6726 -39.6726 -39.6721 -39.6721 -25.8782 -25.8058 -25.6487
   -25.5493 -25.5493 -25.4800 -25.4664 -25.4664 -25.4579 -25.4579 -25.4067
   -25.2859 -25.2859 -25.0905 -25.0905 -25.0353 -24.9980 -24.8911 -24.8805
   -24.8805 -24.8799 -24.8799 -24.8447 -24.8447 -24.7163 -24.6479 -24.6479
    -3.9517  -2.7227  -2.2471  -1.4924  -1.3989  -1.3989  -1.3588  -1.1317
    -1.1317  -0.8359  -0.7280  -0.7280  -0.7202  -0.7202  -0.6873   0.2866
     0.2866   0.5015   1.0698   1.1240   1.1240   1.3420   1.7390   1.8817
     1.9989   2.2475   2.2475   2.3787   2.3787   2.4031   2.4031   2.5174
     2.5174   2.5948   2.5948   2.6478   2.9879   3.1358   3.1358   3.1594
     3.5679   3.5679   3.8593   3.8593   3.9915   4.2470   4.2470   4.2519
     4.5954   5.2013   5.2013   5.2212   5.2212   5.5299   5.5815   5.9266
     5.9570   5.9570

[...]

          k =-0.0813-0.0469 0.0000 ( 20792 PWs)   bands (ev):

[...]

     the Fermi energy is     1.8431 ev

!    total energy              =   -1473.99625805 Ry
     Harris-Foulkes estimate   =   -1473.99625752 Ry
     estimated scf accuracy    <       0.00000031 Ry

     The total energy is the sum of the following terms:

     one-electron contribution =  -10225.23649297 Ry
     hartree contribution      =    5102.72383555 Ry
     xc contribution           =    -327.67814824 Ry
     ewald contribution        =    3976.30631393 Ry
     electric field correction =       0.00000000 Ry
     smearing contrib. (-TS)   =      -0.11176633 Ry

     convergence has been achieved in  20 iterations

 BEEF-vdW xc energy contributions
           1 :   -285.849321594622
           2 :    262.222434605859
           3 :   -221.185392698679
           4 :    172.532915200374
           5 :   -125.917099572740
           6 :    87.8160551277855
           7 :   -60.3134114910534
           8 :    41.8120412109456
           9 :   -28.9432930958412
          10 :    18.5832700112683
          11 :   -9.10685493011800
          12 :   0.545765584291814
          13 :    6.12446750974345
[...]
     /afs/slac.stanford.edu/u/if/mamunm/psp/gbrv1.5pbe/Zr.UPF
     MD5 check sum: 5db81b1e868ab7776c4564c113de050b
     Pseudo is Ultrasoft + core correction, Zval = 12.0
     Generated by new atomic code, or converted to UPF format
     Using radial grid of  887 points,  6 beta functions with:
                l(1) =   0
                l(2) =   0
                l(3) =   1
                l(4) =   1
                l(5) =   2
                l(6) =   2
     Q(r) pseudized with  6 coefficients,  rinner =    1.200   1.200   1.200
                                                       1.200   1.200

     PseudoPot. # 2 for Re read from file:
     /afs/slac.stanford.edu/u/if/mamunm/psp/gbrv1.5pbe/Re.UPF
     MD5 check sum: 85f993410f3e006da9d71c142b4ad953
     Pseudo is Ultrasoft + core correction, Zval = 15.0
     Generated by new atomic code, or converted to UPF format
     Using radial grid of  981 points,  8 beta functions with:
                l(1) =   0
                l(2) =   0
                l(3) =   1
                l(4) =   1
                l(5) =   2
                l(6) =   2
                l(7) =   3
                l(8) =   3
     Q(r) pseudized with  8 coefficients,  rinner =    1.150   1.150   1.150
                                                       1.150   1.150   1.150
                                                       1.150

     vdW kernel table read from file vdW_kernel_table
     MD5 check sum: 095c7af220d748ca6e76c0b4c6cfb241

     atomic species   valence    mass     pseudopotential
        Zr1           12.00    91.22400     Zr( 1.00)
        Re1           15.00   186.20700     Re( 1.00)

     No symmetry found

   Cartesian axes

     site n.     atom                  positions (alat units)
         1           Zr1 tau(   1) = (   0.0000000   0.0000000  10.0000000  )
         2           Zr1 tau(   2) = (   4.6144571   2.6641580  10.0000000  )
         3           Zr1 tau(   3) = (   1.5381524   2.6641580  10.0000000  )
         4           Re1 tau(   4) = (   3.0763047   0.0000000  10.0000000  )
         5           Zr1 tau(   5) = (   3.0763047   1.7761053  12.5117923  )
         6           Zr1 tau(   6) = (   1.5381524   4.4402634  12.5117923  )
         7           Zr1 tau(   7) = (  -1.5381524   4.4402634  12.5117923  )
         8           Re1 tau(   8) = (   0.0000000   1.7761053  12.5117923  )
         9           Zr1 tau(   9) = (   0.0000367   3.4893513  15.0386749  )
        10           Zr1 tau(  10) = (   1.4837396   0.9194974  15.0386805  )
        11           Zr1 tau(  11) = (   4.6689194   0.9194883  15.0386451  )
        12           Re1 tau(  12) = (   3.0762175   3.5521906  14.6280405  )

     number of k points=    20  Fermi-Dirac smearing, width (Ry)=  0.0110
                       cart. coord. in units 2pi/alat
        k(    1) = (   0.0000000   0.0000000   0.0000000), wk =   0.0555556
        k(    2) = (   0.0000000   0.0312794   0.0000000), wk =   0.1111111
        k(    3) = (   0.0000000   0.0625589   0.0000000), wk =   0.1111111
        k(    4) = (   0.0000000  -0.0938383   0.0000000), wk =   0.0555556
        k(    5) = (   0.0270888   0.0156397   0.0000000), wk =   0.1111111
        k(    6) = (   0.0270888   0.0469191   0.0000000), wk =   0.1111111
        k(    7) = (   0.0270888   0.0781986   0.0000000), wk =   0.1111111
        k(    8) = (   0.0270888  -0.0781986   0.0000000), wk =   0.1111111
        k(    9) = (   0.0270888  -0.0469191   0.0000000), wk =   0.1111111
        k(   10) = (   0.0270888  -0.0156397   0.0000000), wk =   0.1111111
        k(   11) = (   0.0541776   0.0312794   0.0000000), wk =   0.1111111
        k(   12) = (   0.0541776   0.0625589   0.0000000), wk =   0.1111111
        k(   13) = (   0.0541776   0.0938383   0.0000000), wk =   0.1111111
        k(   14) = (   0.0541776  -0.0625589   0.0000000), wk =   0.1111111
        k(   15) = (   0.0541776  -0.0312794   0.0000000), wk =   0.1111111
        k(   16) = (   0.0541776   0.0000000   0.0000000), wk =   0.1111111
        k(   17) = (  -0.0812663  -0.0469191   0.0000000), wk =   0.0555556
        k(   18) = (  -0.0812663  -0.0156397   0.0000000), wk =   0.1111111
        k(   19) = (  -0.0812663   0.0156397   0.0000000), wk =   0.1111111
        k(   20) = (  -0.0812663  -0.1407574   0.0000000), wk =   0.0555556

     Largest allocated arrays     est. size (Mb)     dimensions
     Largest temporary arrays     est. size (Mb)     dimensions

     Initial potential from superposition of free atoms
     Check: negative starting charge=   -0.940194

     starting charge  151.48052, renormalised to  153.00000

[...]

     *
     * You are using vdW-DF for exchange-correlation in this calculation.
     * Please cite the following three references that made this development
     * possible:
     *
     *   M. Dion, H. Rydberg, E. Schroder, D. C. Langreth, and
     *   B. I. Lundqvist, Phys. Rev. Lett. 92, 246401 (2004).
     *
     *   T. Thonhauser, V. R. Cooper, S. Li, A. Puzder, P. Hyldgaard, and
     *   D. C. Langreth, Phys. Rev. B 76, 125112 (2007).
     *
     *   G. Roman-Perez and J. M. Soler, Phys. Rev. Lett. 103, 096102 (2009).
     *
     *
     * If you are using vdW-DF2, please also cite:
     *
     *   K. Lee, E. D. Murray, L. Kong, B. I. Lundqvist, and
     *   D. C. Langreth, Phys. Rev. B 82, 081101(R) (2010).
     *
     *
     * If you are calculating the stress with vdW-DF, please also cite:
     *
     *   R. Sabatini, E. Kucukbenli, B. Kolb, T. Thonhauser, and
     *   S. de Gironcoli, J. Phys.: Condens. Matter 24, 424209 (2012).
     *

     Carrying out vdW-DF run using the following parameters:

     Nqs =      20    Nr_points =    1024   r_max =   100.000
     q_mesh =
               0.00001000     0.04494208     0.09755937     0.15916263
               0.23128650     0.31572767     0.41458969     0.53033537
               0.66584808     0.82450364     1.01025438     1.22772762
               1.48234092     1.78043706     2.12944203     2.53805004
               3.01644009     3.57652955     4.23227104     5.00000000

     Gradients computed in reciprocal space

[...]

     Starting wfc are  156 randomized atomic wfcs

     Self-consistent Calculation

[...]

     total energy              =   -1474.03023727 Ry
     Harris-Foulkes estimate   =   -1474.03023727 Ry
     estimated scf accuracy    <       0.00000112 Ry

     iteration # 19     ecut=    36.75 Ry     beta=0.10
     Davidson diagonalization with overlap
     ethr =  7.33E-10,  avg # of iterations =  2.0

[...]

     negative rho (up, down):  9.604E-01 0.000E+00

     Adding external electric field

     Computed dipole along edir(3) :
        Dipole                0.0998 Ry au,          0.2538 Debye
        Dipole field          0.0002 Ry au

        Potential amp.       -0.0209 Ry
        Total length         46.1055 bohr

     End of self-consistent calculation

[...]

          k = 0.0542 0.0000 0.0000 ( 20817 PWs)   bands (ev):

[...]

          k =-0.0813-0.1408 0.0000 ( 20792 PWs)   bands (ev):

   -78.1559 -77.8892 -77.8429 -47.3071 -47.2504 -47.2363 -47.2189 -47.1990
   -47.1617 -46.8787 -46.8432 -46.8070 -39.8198 -39.8185 -39.8018 -39.5749
   -39.5653 -39.5641 -39.5582 -39.5572 -39.5544 -25.6157 -25.5517 -25.4856
   -25.4174 -25.3868 -25.3361 -25.3326 -25.2907 -25.2737 -25.2699 -25.2268
   -25.1929 -25.1844 -25.1497 -25.1370 -25.1343 -25.1281 -24.8933 -24.8670
   -24.8312 -24.8187 -24.7769 -24.7452 -24.7312 -24.7248 -24.6961 -24.5103
    -2.5361  -2.2997  -1.4684  -1.0710  -0.7418  -0.6727  -0.4869  -0.4620
    -0.4268  -0.3333  -0.0055   0.0466   0.0519   0.2280   0.3628   0.4084
     0.5779   0.7646   0.7703   0.8522   0.9355   1.0094   1.1261   1.2196
     1.2683   1.3486   1.6095   1.7389   1.7920   1.8151   1.9194   2.0170
     2.1257   2.1915   2.2485   2.3461   2.6400   2.6766   2.9086   3.0253
     3.0440   3.3567   3.5464   3.6540   3.7936   3.8542   3.8936   4.1134
     4.1967   4.3491   4.4902   4.6555   4.6653   4.7046   4.9144   5.1232
     5.2750   5.3356

     the Fermi energy is     1.9266 ev

!    total energy              =   -1474.03023610 Ry
     Harris-Foulkes estimate   =   -1474.03023587 Ry
     estimated scf accuracy    <       0.00000047 Ry

     The total energy is the sum of the following terms:

     one-electron contribution =  -10375.19908347 Ry
     hartree contribution      =    5178.21491413 Ry
     xc contribution           =    -327.85667471 Ry
     ewald contribution        =    4050.91734718 Ry
     electric field correction =       0.00002263 Ry
     smearing contrib. (-TS)   =      -0.10676185 Ry

     convergence has been achieved in  19 iterations

 BEEF-vdW xc energy contributions
           1 :   -286.211790454503
           2 :    262.640747485959
           3 :   -221.674775667973
           4 :    173.050720481005
           5 :   -126.375981817524
           6 :    88.1245423762551
           7 :   -60.4283777105051
           8 :    41.7719682834761
           9 :   -28.8550325446109
          10 :    18.5641146674911
          11 :   -9.21751611385224
          12 :   0.759020117444209
          13 :    5.89978454397624
          14 :   -9.86120652968521
          15 :    10.9768737712706
          16 :   -9.99885350297905
          17 :    8.17567050600888
          18 :   -6.62411481978233
          19 :    5.87351063896182
          20 :   -5.80485136781510
          21 :    5.93433641708526
          22 :   -5.80717462725579
          23 :    5.25906197939912
          24 :   -4.43623101256662
          25 :    3.62659353200661
          26 :   -3.04825172565972
          27 :    2.73126281406741
          28 :   -2.54583908381284
          29 :    2.33057190184536
          30 :   -2.01815838060367
          31 :   -28.3710100422880
          32 :   -21.0813283643427

     Forces acting on atoms (Ry/au):

     negative rho (up, down):  9.604E-01 0.000E+00
     atom    1 type  1   force =     0.00000180    0.02623958   -0.00676585
     atom    2 type  1   force =     0.02272446   -0.01311854   -0.00676750
     atom    3 type  1   force =    -0.02272364   -0.01311985   -0.00676849
     atom    4 type  2   force =    -0.00000296   -0.00000139    0.04893152
     atom    5 type  1   force =     0.00000222   -0.01572883   -0.00939163
     atom    6 type  1   force =    -0.01362046    0.00786791   -0.00939625
     atom    7 type  1   force =     0.01361561    0.00786313   -0.00938086
     atom    8 type  2   force =    -0.00000379   -0.00000332    0.00329137
     atom    9 type  1   force =    -0.00000091   -0.00081960   -0.00098439
     atom   10 type  1   force =    -0.00070947    0.00040923   -0.00098520
     atom   11 type  1   force =     0.00071250    0.00041260   -0.00098594
     atom   12 type  2   force =     0.00000463   -0.00000094   -0.00079678

     Total force =     0.074967     Total SCF correction =     0.002226

     entering subroutine stress ...

     negative rho (up, down):  9.604E-01 0.000E+00
          total   stress  (Ry/bohr**3)                   (kbar)     P=  -13.89
  -0.00012444   0.00000000   0.00000001        -18.31      0.00      0.00
   0.00000000  -0.00012444   0.00000000          0.00    -18.31      0.00
   0.00000001   0.00000000  -0.00003430          0.00      0.00     -5.05

 !ASE

     Writing output data file calc.save

     General routines

     Parallel routines

   This run was terminated on:  22:26:11   2Jan2019

   JOB DONE.
Job  /afs/slac/g/suncat/bin/suncat-tsmpirun -x LD_LIBRARY_PATH -wdir /scratch/qe649561_dtPU1 pw.x -in pw.inp

TID   HOST_NAME   COMMAND_LINE            STATUS            TERMINATION_TIME
00000 suncat0178 pw.x -in pw.inp   Done                     01/02/2019 22:26:11
00001 suncat0178 pw.x -in pw.inp   Done                     01/02/2019 22:26:11
00002 suncat0178 pw.x -in pw.inp   Done                     01/02/2019 22:26:11
00003 suncat0178 pw.x -in pw.inp   Done                     01/02/2019 22:26:11
00004 suncat0178 pw.x -in pw.inp   Done                     01/02/2019 22:26:11
00005 suncat0178 pw.x -in pw.inp   Done                     01/02/2019 22:26:11
00006 suncat0178 pw.x -in pw.inp   Done                     01/02/2019 22:26:11
00007 suncat0178 pw.x -in pw.inp   Done                     01/02/2019 22:26:11
00008 suncat0177 pw.x -in pw.inp   Done                     01/02/2019 22:26:11
00009 suncat0177 pw.x -in pw.inp   Done                     01/02/2019 22:26:11
00010 suncat0177 pw.x -in pw.inp   Done                     01/02/2019 22:26:11
00011 suncat0177 pw.x -in pw.inp   Done                     01/02/2019 22:26:11
00012 suncat0177 pw.x -in pw.inp   Done                     01/02/2019 22:26:11
00013 suncat0177 pw.x -in pw.inp   Done                     01/02/2019 22:26:11
00014 suncat0177 pw.x -in pw.inp   Done                     01/02/2019 22:26:11
00015 suncat0177 pw.x -in pw.inp   Done                     01/02/2019 22:26:11
00016 suncat0113 pw.x -in pw.inp   Done                     01/02/2019 22:26:11
00017 suncat0113 pw.x -in pw.inp   Done                     01/02/2019 22:26:11
00018 suncat0113 pw.x -in pw.inp   Done                     01/02/2019 22:26:11
00019 suncat0113 pw.x -in pw.inp   Done                     01/02/2019 22:26:11
00020 suncat0113 pw.x -in pw.inp   Done                     01/02/2019 22:26:11
00021 suncat0113 pw.x -in pw.inp   Done                     01/02/2019 22:26:11
00022 suncat0113 pw.x -in pw.inp   Done                     01/02/2019 22:26:11
00023 suncat0113 pw.x -in pw.inp   Done                     01/02/2019 22:26:11
00024 suncat0267 pw.x -in pw.inp   Done                     01/02/2019 22:26:11
00025 suncat0267 pw.x -in pw.inp   Done                     01/02/2019 22:26:11
00026 suncat0267 pw.x -in pw.inp   Done                     01/02/2019 22:26:11
00027 suncat0267 pw.x -in pw.inp   Done                     01/02/2019 22:26:11
00028 suncat0267 pw.x -in pw.inp   Done                     01/02/2019 22:26:11
00029 suncat0267 pw.x -in pw.inp   Done                     01/02/2019 22:26:11
00030 suncat0267 pw.x -in pw.inp   Done                     01/02/2019 22:26:11
00031 suncat0267 pw.x -in pw.inp   Done                     01/02/2019 22:26:11
00032 suncat0254 pw.x -in pw.inp   Done                     01/02/2019 22:26:11
00033 suncat0254 pw.x -in pw.inp   Done                     01/02/2019 22:26:11
00034 suncat0254 pw.x -in pw.inp   Done                     01/02/2019 22:26:11
00035 suncat0254 pw.x -in pw.inp   Done                     01/02/2019 22:26:11
00036 suncat0254 pw.x -in pw.inp   Done                     01/02/2019 22:26:11
00037 suncat0254 pw.x -in pw.inp   Done                     01/02/2019 22:26:11
00038 suncat0254 pw.x -in pw.inp   Done                     01/02/2019 22:26:11
00039 suncat0254 pw.x -in pw.inp   Done                     01/02/2019 22:26:11
00040 suncat0253 pw.x -in pw.inp   Done                     01/02/2019 22:26:11
00041 suncat0253 pw.x -in pw.inp   Done                     01/02/2019 22:26:11
00042 suncat0253 pw.x -in pw.inp   Done                     01/02/2019 22:26:11
00043 suncat0253 pw.x -in pw.inp   Done                     01/02/2019 22:26:11
00044 suncat0253 pw.x -in pw.inp   Done                     01/02/2019 22:26:11
00045 suncat0253 pw.x -in pw.inp   Done                     01/02/2019 22:26:11
00046 suncat0253 pw.x -in pw.inp   Done                     01/02/2019 22:26:11
00047 suncat0253 pw.x -in pw.inp   Done                     01/02/2019 22:26:11
00048 suncat0228 pw.x -in pw.inp   Done                     01/02/2019 22:26:11
00049 suncat0228 pw.x -in pw.inp   Done                     01/02/2019 22:26:11
00050 suncat0228 pw.x -in pw.inp   Done                     01/02/2019 22:26:11
00051 suncat0228 pw.x -in pw.inp   Done                     01/02/2019 22:26:11
00052 suncat0228 pw.x -in pw.inp   Done                     01/02/2019 22:26:11
00053 suncat0228 pw.x -in pw.inp   Done                     01/02/2019 22:26:11
00054 suncat0228 pw.x -in pw.inp   Done                     01/02/2019 22:26:11
00055 suncat0228 pw.x -in pw.inp   Done                     01/02/2019 22:26:11
00056 suncat0227 pw.x -in pw.inp   Done                     01/02/2019 22:26:11
00057 suncat0227 pw.x -in pw.inp   Done                     01/02/2019 22:26:11
00058 suncat0227 pw.x -in pw.inp   Done                     01/02/2019 22:26:11
00059 suncat0227 pw.x -in pw.inp   Done                     01/02/2019 22:26:11
00060 suncat0227 pw.x -in pw.inp   Done                     01/02/2019 22:26:11
00061 suncat0227 pw.x -in pw.inp   Done                     01/02/2019 22:26:11
00062 suncat0227 pw.x -in pw.inp   Done                     01/02/2019 22:26:11
00063 suncat0227 pw.x -in pw.inp   Done                     01/02/2019 22:26:11