     Program PWSCF v.5.1rc2 (svn rev. 11289) starts on 27Dec2018 at  6:41:27

     Current dimensions of program PWSCF are:
     Max number of different atomic species (ntypx) = 10
     Max number of k-points (npk) =  40000
     Max angular momentum in pseudopotentials (lmaxx) =  3
     Presently stress not available with electric field

     IMPORTANT: XC functional enforced from input :
     Exchange-correlation      = BEEF-VDW ( 1  4 27 13 2)
     Any further DFT definition will be discarded
     Please, verify this is what you really want

     Subspace diagonalization in iterative solution of the eigenvalue problem:
     a serial algorithm will be used

     bravais-lattice index     =            0
     lattice parameter (alat)  =       1.8897  a.u.
     unit-cell volume          =    5321.8821 (a.u.)^3
     number of atoms/cell      =           12
     number of atomic types    =            2
     number of electrons       =       150.00
     number of Kohn-Sham states=          105
     kinetic-energy cutoff     =      36.7493  Ry
     charge density cutoff     =     367.4932  Ry
     convergence threshold     =      1.0E-06
     mixing beta               =       0.1000
     number of iterations used =           10  plain     mixing
     Exchange-correlation      = BEEF-VDW ( 1  4 27 13 2)
     nstep                     =           50

     celldm(1)=   1.889726  celldm(2)=   0.000000  celldm(3)=   0.000000
     celldm(4)=   0.000000  celldm(5)=   0.000000  celldm(6)=   0.000000

     crystal axes: (cart. coord. in units of alat)
               a(1) = (   6.043249   0.000000   0.000000 )
               a(2) = (  -3.021624   5.233607   0.000000 )
               a(3) = (   0.000000   0.000000  24.934292 )

     reciprocal axes: (cart. coord. in units 2 pi/alat)
               b(1) = (  0.165474  0.095536  0.000000 )
               b(2) = (  0.000000  0.191073  0.000000 )
               b(3) = (  0.000000  0.000000  0.040105 )

     PseudoPot. # 1 for Nb read from file:
     /afs/slac.stanford.edu/u/if/mamunm/psp/gbrv1.5pbe/Nb.UPF
     MD5 check sum: 573aab8a2fa660278ed4a62cd769473f
     Pseudo is Ultrasoft + core correction, Zval = 13.0
     Generated by new atomic code, or converted to UPF format
     Using radial grid of  887 points,  6 beta functions with:
                l(1) =   0
                l(2) =   0
                l(3) =   1
                l(4) =   1
                l(5) =   2
                l(6) =   2
     Q(r) pseudized with  6 coefficients,  rinner =    1.000   1.000   1.000
                                                       1.000   1.000

     PseudoPot. # 2 for Sc read from file:
     /afs/slac.stanford.edu/u/if/mamunm/psp/gbrv1.5pbe/Sc.UPF
     MD5 check sum: db30a2753ba66ef00f23801d899b7e7f
     Pseudo is Ultrasoft + core correction, Zval = 11.0
     Generated by new atomic code, or converted to UPF format
     Using radial grid of  849 points,  6 beta functions with:
                l(1) =   0
                l(2) =   0
                l(3) =   1
                l(4) =   1
                l(5) =   2
                l(6) =   2
     Q(r) pseudized with  6 coefficients,  rinner =    1.200   1.200   1.200
                                                       1.200   1.200

     vdW kernel table read from file vdW_kernel_table
     MD5 check sum: 095c7af220d748ca6e76c0b4c6cfb241

     atomic species   valence    mass     pseudopotential
        Nb1           13.00    92.90637     Nb( 1.00)
        Sc1           11.00    44.95591     Sc( 1.00)

     No symmetry found

   Cartesian axes

     site n.     atom                  positions (alat units)
         1           Nb1 tau(   1) = (   0.0000000   0.0000000  10.0000000  )
         2           Nb1 tau(   2) = (  -1.5108122   2.6168036  10.0000000  )
         3           Nb1 tau(   3) = (   1.5108122   2.6168036  10.0000000  )
         4           Sc1 tau(   4) = (   3.0216245   0.0000000  10.0000000  )
         5           Nb1 tau(   5) = (   3.0216245   1.7445357  12.4671461  )
         6           Nb1 tau(   6) = (   1.5108122   4.3613393  12.4671461  )
         7           Nb1 tau(   7) = (  -1.5108122   4.3613393  12.4671461  )
         8           Sc1 tau(   8) = (   0.0000000   1.7445357  12.4671461  )
         9           Nb1 tau(   9) = (  -0.0000000   3.4890714  14.9342921  )
        10           Nb1 tau(  10) = (   1.5108122   0.8722679  14.9342921  )
        11           Nb1 tau(  11) = (   4.5324367   0.8722679  14.9342921  )
        12           Sc1 tau(  12) = (   3.0216245   3.4890714  14.9342921  )

     number of k points=    20  Fermi-Dirac smearing, width (Ry)=  0.0110
                       cart. coord. in units 2pi/alat
        k(    1) = (   0.0000000   0.0000000   0.0000000), wk =   0.0555556
        k(    2) = (   0.0000000   0.0318455   0.0000000), wk =   0.1111111
        k(    3) = (   0.0000000   0.0636909   0.0000000), wk =   0.1111111
        k(    4) = (   0.0000000  -0.0955364   0.0000000), wk =   0.0555556
        k(    5) = (   0.0275790   0.0159227   0.0000000), wk =   0.1111111
        k(    6) = (   0.0275790   0.0477682   0.0000000), wk =   0.1111111
        k(    7) = (   0.0275790   0.0796137   0.0000000), wk =   0.1111111
        k(    8) = (   0.0275790  -0.0796137   0.0000000), wk =   0.1111111
        k(    9) = (   0.0275790  -0.0477682   0.0000000), wk =   0.1111111
        k(   10) = (   0.0275790  -0.0159227   0.0000000), wk =   0.1111111
        k(   11) = (   0.0551580   0.0318455   0.0000000), wk =   0.1111111
        k(   12) = (   0.0551580   0.0636909   0.0000000), wk =   0.1111111
        k(   13) = (   0.0551580   0.0955364   0.0000000), wk =   0.1111111
        k(   14) = (   0.0551580  -0.0636909   0.0000000), wk =   0.1111111
        k(   15) = (   0.0551580  -0.0318455   0.0000000), wk =   0.1111111
        k(   16) = (   0.0551580   0.0000000   0.0000000), wk =   0.1111111
        k(   17) = (  -0.0827370  -0.0477682   0.0000000), wk =   0.0555556
        k(   18) = (  -0.0827370  -0.0159227   0.0000000), wk =   0.1111111
        k(   19) = (  -0.0827370   0.0159227   0.0000000), wk =   0.1111111
        k(   20) = (  -0.0827370  -0.1433046   0.0000000), wk =   0.0555556

     Largest allocated arrays     est. size (Mb)     dimensions
     Largest temporary arrays     est. size (Mb)     dimensions

     Initial potential from superposition of free atoms
     Check: negative starting charge=   -0.004621

     starting charge  149.96819, renormalised to  150.00000

     negative rho (up, down):  4.622E-03 0.000E+00

     *
     * You are using vdW-DF for exchange-correlation in this calculation.
     * Please cite the following three references that made this development
     * possible:
     *
     *   M. Dion, H. Rydberg, E. Schroder, D. C. Langreth, and
     *   B. I. Lundqvist, Phys. Rev. Lett. 92, 246401 (2004).
     *
     *   T. Thonhauser, V. R. Cooper, S. Li, A. Puzder, P. Hyldgaard, and
     *   D. C. Langreth, Phys. Rev. B 76, 125112 (2007).
     *
     *   G. Roman-Perez and J. M. Soler, Phys. Rev. Lett. 103, 096102 (2009).
     *
     *
     * If you are using vdW-DF2, please also cite:
     *
     *   K. Lee, E. D. Murray, L. Kong, B. I. Lundqvist, and
     *   D. C. Langreth, Phys. Rev. B 82, 081101(R) (2010).
     *
     *
     * If you are calculating the stress with vdW-DF, please also cite:
     *
     *   R. Sabatini, E. Kucukbenli, B. Kolb, T. Thonhauser, and
     *   S. de Gironcoli, J. Phys.: Condens. Matter 24, 424209 (2012).
     *

     Carrying out vdW-DF run using the following parameters:

     Nqs =      20    Nr_points =    1024   r_max =   100.000
     q_mesh =
               0.00001000     0.04494208     0.09755937     0.15916263
               0.23128650     0.31572767     0.41458969     0.53033537
               0.66584808     0.82450364     1.01025438     1.22772762
               1.48234092     1.78043706     2.12944203     2.53805004
               3.01644009     3.57652955     4.23227104     5.00000000

     Gradients computed in reciprocal space

     Adding external electric field

     Computed dipole along edir(3) :
        Dipole               -0.0000 Ry au,         -0.0000 Debye
        Dipole field         -0.0000 Ry au

        Potential amp.        0.0000 Ry
        Total length         45.9410 bohr

     Starting wfc are  156 randomized atomic wfcs

     Self-consistent Calculation

     iteration #  1     ecut=    36.75 Ry     beta=0.10
     Davidson diagonalization with overlap
     ethr =  1.00E-02,  avg # of iterations =  2.0

[...]

     total energy              =   -1350.00058669 Ry
     Harris-Foulkes estimate   =   -1351.67698305 Ry
     estimated scf accuracy    <       9.56653068 Ry

[...]

     iteration # 10     ecut=    36.75 Ry     beta=0.10
     Davidson diagonalization with overlap
     c_bands:  1 eigenvalues not converged
     ethr =  4.60E-06,  avg # of iterations =  7.5

[...]

     End of self-consistent calculation

          k = 0.0000 0.0000 0.0000 ( 19903 PWs)   bands (ev):

   -53.6421 -53.6147 -53.5621 -53.5445 -53.5444 -53.5350 -53.5349 -53.4998
   -53.4998 -48.0858 -48.0854 -47.5749 -30.0543 -29.9486 -29.9217 -29.8635
   -29.8635 -29.8550 -29.8526 -29.8526 -29.7682 -29.7682 -29.6780 -29.5907
   -29.5906 -29.5484 -29.5484 -29.4718 -29.4021 -29.3823 -29.3722 -29.3722
   -29.3097 -29.2569 -29.2569 -29.2536 -29.2536 -29.2489 -29.2489 -26.7253
   -26.7029 -26.6559 -26.6559 -26.6507 -26.6507 -26.1898 -26.1731 -26.1731
    -3.8236  -2.5887  -1.8776  -1.8137  -1.5113  -1.4173  -1.4173  -1.2582
    -1.2582  -1.0716  -0.9287  -0.8203  -0.8203  -0.7775  -0.7775  -0.0829
     0.2725   0.2725   0.9690   1.1212   1.1212   1.1466   1.4987   1.6430
     1.8066   1.8066   1.9052   2.0483   2.0483   2.2332   2.2332   2.2685
     2.3242   2.3242   2.4563   2.4564   2.5048   2.7428   2.7428   3.1330
     3.2730   3.4657   3.4657   3.6327   3.6328   3.7278   4.0882   4.0882
     4.3393   4.3393   4.4692   4.4692   4.6791   4.9870   5.1301   5.2906
     5.2906

[...]

          k =-0.0827-0.0478 0.0000 ( 20040 PWs)   bands (ev):

[...]

     the Fermi energy is     1.4603 ev

!    total energy              =   -1350.93721467 Ry
     Harris-Foulkes estimate   =   -1350.93721426 Ry
     estimated scf accuracy    <       0.00000027 Ry

     The total energy is the sum of the following terms:

     one-electron contribution =  -10300.19168056 Ry
     hartree contribution      =    5139.20155024 Ry
     xc contribution           =    -212.70123605 Ry
     ewald contribution        =    4022.87224480 Ry
     electric field correction =       0.00000001 Ry
     smearing contrib. (-TS)   =      -0.11809310 Ry

     convergence has been achieved in  19 iterations

 BEEF-vdW xc energy contributions
           1 :   -181.957201354223
           2 :    164.438814109741
           3 :   -135.103722384242
           4 :    102.549018984905
           5 :   -74.5276428242456
           6 :    55.1645162385148
           7 :   -44.3282200395209
           8 :    38.9575701485189
           9 :   -35.2751210962569
          10 :    30.6280751892422
          11 :   -24.2435006518581
[...]
               b(3) = (  0.000000  0.000000  0.040105 )

     PseudoPot. # 1 for Nb read from file:
     /afs/slac.stanford.edu/u/if/mamunm/psp/gbrv1.5pbe/Nb.UPF
     MD5 check sum: 573aab8a2fa660278ed4a62cd769473f
     Pseudo is Ultrasoft + core correction, Zval = 13.0
     Generated by new atomic code, or converted to UPF format
     Using radial grid of  887 points,  6 beta functions with:
                l(1) =   0
                l(2) =   0
                l(3) =   1
                l(4) =   1
                l(5) =   2
                l(6) =   2
     Q(r) pseudized with  6 coefficients,  rinner =    1.000   1.000   1.000
                                                       1.000   1.000

     PseudoPot. # 2 for Sc read from file:
     /afs/slac.stanford.edu/u/if/mamunm/psp/gbrv1.5pbe/Sc.UPF
     MD5 check sum: db30a2753ba66ef00f23801d899b7e7f
     Pseudo is Ultrasoft + core correction, Zval = 11.0
     Generated by new atomic code, or converted to UPF format
     Using radial grid of  849 points,  6 beta functions with:
                l(1) =   0
                l(2) =   0
                l(3) =   1
                l(4) =   1
                l(5) =   2
                l(6) =   2
     Q(r) pseudized with  6 coefficients,  rinner =    1.200   1.200   1.200
                                                       1.200   1.200

     vdW kernel table read from file vdW_kernel_table
     MD5 check sum: 095c7af220d748ca6e76c0b4c6cfb241

     atomic species   valence    mass     pseudopotential
        Nb1           13.00    92.90637     Nb( 1.00)
        Sc1           11.00    44.95591     Sc( 1.00)

     No symmetry found

   Cartesian axes

     site n.     atom                  positions (alat units)
         1           Nb1 tau(   1) = (   0.0000000   0.0000000  10.0000000  )
         2           Nb1 tau(   2) = (  -1.5108122   2.6168036  10.0000000  )
         3           Nb1 tau(   3) = (   1.5108122   2.6168036  10.0000000  )
         4           Sc1 tau(   4) = (   3.0216245   0.0000000  10.0000000  )
         5           Nb1 tau(   5) = (   3.0216245   1.7445357  12.4671461  )
         6           Nb1 tau(   6) = (   1.5108122   4.3613393  12.4671461  )
         7           Nb1 tau(   7) = (  -1.5108122   4.3613393  12.4671461  )
         8           Sc1 tau(   8) = (   0.0000000   1.7445357  12.4671461  )
         9           Nb1 tau(   9) = (  -0.0000001   3.6067225  14.7600998  )
        10           Nb1 tau(  10) = (   1.6126962   0.8134554  14.7600957  )
        11           Nb1 tau(  11) = (   4.4305538   0.8134545  14.7601016  )
        12           Sc1 tau(  12) = (   3.0216205   3.4890837  15.2270069  )

     number of k points=    20  Fermi-Dirac smearing, width (Ry)=  0.0110
                       cart. coord. in units 2pi/alat
        k(    1) = (   0.0000000   0.0000000   0.0000000), wk =   0.0555556
        k(    2) = (   0.0000000   0.0318455   0.0000000), wk =   0.1111111
        k(    3) = (   0.0000000   0.0636909   0.0000000), wk =   0.1111111
        k(    4) = (   0.0000000  -0.0955364   0.0000000), wk =   0.0555556
        k(    5) = (   0.0275790   0.0159227   0.0000000), wk =   0.1111111
        k(    6) = (   0.0275790   0.0477682   0.0000000), wk =   0.1111111
        k(    7) = (   0.0275790   0.0796137   0.0000000), wk =   0.1111111
        k(    8) = (   0.0275790  -0.0796137   0.0000000), wk =   0.1111111
        k(    9) = (   0.0275790  -0.0477682   0.0000000), wk =   0.1111111
        k(   10) = (   0.0275790  -0.0159227   0.0000000), wk =   0.1111111
        k(   11) = (   0.0551580   0.0318455   0.0000000), wk =   0.1111111
        k(   12) = (   0.0551580   0.0636909   0.0000000), wk =   0.1111111
        k(   13) = (   0.0551580   0.0955364   0.0000000), wk =   0.1111111
        k(   14) = (   0.0551580  -0.0636909   0.0000000), wk =   0.1111111
        k(   15) = (   0.0551580  -0.0318455   0.0000000), wk =   0.1111111
        k(   16) = (   0.0551580   0.0000000   0.0000000), wk =   0.1111111
        k(   17) = (  -0.0827370  -0.0477682   0.0000000), wk =   0.0555556
        k(   18) = (  -0.0827370  -0.0159227   0.0000000), wk =   0.1111111
        k(   19) = (  -0.0827370   0.0159227   0.0000000), wk =   0.1111111
        k(   20) = (  -0.0827370  -0.1433046   0.0000000), wk =   0.0555556

     Largest allocated arrays     est. size (Mb)     dimensions
     Largest temporary arrays     est. size (Mb)     dimensions

     Initial potential from superposition of free atoms
     Check: negative starting charge=   -0.004652

     starting charge  149.96819, renormalised to  150.00000

[...]

     *
     * You are using vdW-DF for exchange-correlation in this calculation.
     * Please cite the following three references that made this development
     * possible:
     *
     *   M. Dion, H. Rydberg, E. Schroder, D. C. Langreth, and
     *   B. I. Lundqvist, Phys. Rev. Lett. 92, 246401 (2004).
     *
     *   T. Thonhauser, V. R. Cooper, S. Li, A. Puzder, P. Hyldgaard, and
     *   D. C. Langreth, Phys. Rev. B 76, 125112 (2007).
     *
     *   G. Roman-Perez and J. M. Soler, Phys. Rev. Lett. 103, 096102 (2009).
     *
     *
     * If you are using vdW-DF2, please also cite:
     *
     *   K. Lee, E. D. Murray, L. Kong, B. I. Lundqvist, and
     *   D. C. Langreth, Phys. Rev. B 82, 081101(R) (2010).
     *
     *
     * If you are calculating the stress with vdW-DF, please also cite:
     *
     *   R. Sabatini, E. Kucukbenli, B. Kolb, T. Thonhauser, and
     *   S. de Gironcoli, J. Phys.: Condens. Matter 24, 424209 (2012).
     *

     Carrying out vdW-DF run using the following parameters:

     Nqs =      20    Nr_points =    1024   r_max =   100.000
     q_mesh =
               0.00001000     0.04494208     0.09755937     0.15916263
               0.23128650     0.31572767     0.41458969     0.53033537
               0.66584808     0.82450364     1.01025438     1.22772762
               1.48234092     1.78043706     2.12944203     2.53805004
               3.01644009     3.57652955     4.23227104     5.00000000

     Gradients computed in reciprocal space

[...]

     Starting wfc are  156 randomized atomic wfcs

     Self-consistent Calculation

[...]

     total energy              =   -1350.96391762 Ry
     Harris-Foulkes estimate   =   -1350.96391682 Ry
     estimated scf accuracy    <       0.00000228 Ry

     iteration # 17     ecut=    36.75 Ry     beta=0.10
     Davidson diagonalization with overlap
     ethr =  1.52E-09,  avg # of iterations =  2.0

[...]

     negative rho (up, down):  4.233E-03 0.000E+00

     Adding external electric field

     Computed dipole along edir(3) :
        Dipole                0.1087 Ry au,          0.2763 Debye
        Dipole field          0.0003 Ry au

        Potential amp.       -0.0236 Ry
        Total length         45.9410 bohr

     End of self-consistent calculation

[...]

          k = 0.0552 0.0000 0.0000 ( 20017 PWs)   bands (ev):

[...]

          k =-0.0827-0.1433 0.0000 ( 20040 PWs)   bands (ev):

   -53.5015 -53.4813 -53.4565 -53.4443 -53.4099 -53.3808 -53.3568 -53.3224
   -53.3046 -48.3641 -47.9990 -47.5091 -29.9155 -29.8408 -29.7383 -29.7269
   -29.7255 -29.6580 -29.6293 -29.5822 -29.5660 -29.5521 -29.5101 -29.5007
   -29.4936 -29.4581 -29.4474 -29.4160 -29.3901 -29.2936 -29.2678 -29.2184
   -29.2135 -29.1835 -29.1450 -29.1418 -29.1178 -29.1014 -29.0524 -27.0245
   -26.9154 -26.8964 -26.6285 -26.5994 -26.5761 -26.1400 -26.1367 -26.1153
    -2.3037  -2.1597  -1.3046  -1.1872  -1.1059  -0.7338  -0.6862  -0.6122
    -0.4605  -0.3736  -0.2604  -0.1193  -0.0124   0.1197   0.2917   0.2953
     0.4685   0.5094   0.5225   0.7208   0.7743   0.9537   0.9576   1.1538
     1.1823   1.2263   1.2987   1.3134   1.4452   1.5290   1.5609   1.7245
     1.8621   1.8750   2.1654   2.3364   2.4393   2.5014   2.5905   2.7688
     3.0767   3.1249   3.2482   3.3215   3.4213   3.4804   3.5011   3.5213
     3.7232   3.8136   3.8334   4.0388   4.1820   4.1951   4.3374   4.4987
     4.6568

     the Fermi energy is     1.5492 ev

!    total energy              =   -1350.96391872 Ry
     Harris-Foulkes estimate   =   -1350.96391736 Ry
     estimated scf accuracy    <       0.00000087 Ry

     The total energy is the sum of the following terms:

     one-electron contribution =  -10402.77706178 Ry
     hartree contribution      =    5191.02218569 Ry
     xc contribution           =    -212.88545528 Ry
     ewald contribution        =    4073.79047382 Ry
     electric field correction =       0.00002790 Ry
     smearing contrib. (-TS)   =      -0.11408906 Ry

     convergence has been achieved in  17 iterations

 BEEF-vdW xc energy contributions
           1 :   -182.205152071766
           2 :    164.738189505041
           3 :   -135.475114855018
           4 :    102.949764249452
           5 :   -74.8509331539356
           6 :    55.2964275679585
           7 :   -44.2270203660442
           8 :    38.6863221148414
           9 :   -34.9646353816925
          10 :    30.4059967635906
          11 :   -24.1754184228388
          12 :    16.9385224481088
          13 :   -9.97044933981081
          14 :    4.30540960516674
          15 :  -0.317935977024945
          16 :   -2.25009327719724
          17 :    3.99589922996998
          18 :   -5.51691836451829
          19 :    7.15351840314969
          20 :   -8.87782368911206
          21 :    10.3396255696599
          22 :   -11.0605079705541
          23 :    10.7000445096617
          24 :   -9.26942719295934
          25 :    7.16387526599388
          26 :   -4.98505521308456
          27 :    3.24573264316217
          28 :   -2.13304337279445
          29 :    1.46920293060953
          30 :  -0.889201912053579
          31 :   -21.0570894644343
          32 :   -15.7494278478821

     Forces acting on atoms (Ry/au):

     negative rho (up, down):  4.233E-03 0.000E+00
     atom    1 type  1   force =     0.00000004   -0.00934248    0.02075783
     atom    2 type  1   force =    -0.00809027    0.00467146    0.02075667
     atom    3 type  1   force =     0.00809015    0.00467172    0.02075603
     atom    4 type  2   force =    -0.00000003    0.00000268   -0.02227359
     atom    5 type  1   force =     0.00000031    0.02715040   -0.01011146
     atom    6 type  1   force =     0.02351226   -0.01357518   -0.01011014
     atom    7 type  1   force =    -0.02351303   -0.01357492   -0.01011117
     atom    8 type  2   force =     0.00000091   -0.00000215   -0.01397242
     atom    9 type  1   force =    -0.00000049   -0.00050564    0.00106045
     atom   10 type  1   force =    -0.00043898    0.00025267    0.00106211
     atom   11 type  1   force =     0.00043893    0.00025305    0.00106099
     atom   12 type  2   force =     0.00000019   -0.00000161    0.00112471

     Total force =     0.069060     Total SCF correction =     0.001874

     entering subroutine stress ...

     negative rho (up, down):  4.233E-03 0.000E+00
          total   stress  (Ry/bohr**3)                   (kbar)     P=  -11.16
  -0.00009816   0.00000000   0.00000000        -14.44      0.00      0.00
   0.00000000  -0.00009816  -0.00000000          0.00    -14.44     -0.00
   0.00000000  -0.00000000  -0.00003137          0.00     -0.00     -4.61

 !ASE

     Writing output data file calc.save

     General routines

     Parallel routines

   This run was terminated on:   7:46:57  27Dec2018

   JOB DONE.
Job  /afs/slac/g/suncat/bin/suncat-tsmpirun -x LD_LIBRARY_PATH -wdir /scratch/qe110210_rD2Xi pw.x -in pw.inp

TID   HOST_NAME   COMMAND_LINE            STATUS            TERMINATION_TIME
00000 suncat0277 pw.x -in pw.inp   Done                     12/27/2018 07:46:57
00001 suncat0277 pw.x -in pw.inp   Done                     12/27/2018 07:46:57
00002 suncat0277 pw.x -in pw.inp   Done                     12/27/2018 07:46:57
00003 suncat0277 pw.x -in pw.inp   Done                     12/27/2018 07:46:57
00004 suncat0277 pw.x -in pw.inp   Done                     12/27/2018 07:46:57
00005 suncat0277 pw.x -in pw.inp   Done                     12/27/2018 07:46:57
00006 suncat0277 pw.x -in pw.inp   Done                     12/27/2018 07:46:57
00007 suncat0277 pw.x -in pw.inp   Done                     12/27/2018 07:46:57
00008 suncat0276 pw.x -in pw.inp   Done                     12/27/2018 07:46:57
00009 suncat0276 pw.x -in pw.inp   Done                     12/27/2018 07:46:57
00010 suncat0276 pw.x -in pw.inp   Done                     12/27/2018 07:46:57
00011 suncat0276 pw.x -in pw.inp   Done                     12/27/2018 07:46:57
00012 suncat0276 pw.x -in pw.inp   Done                     12/27/2018 07:46:57
00013 suncat0276 pw.x -in pw.inp   Done                     12/27/2018 07:46:57
00014 suncat0276 pw.x -in pw.inp   Done                     12/27/2018 07:46:57
00015 suncat0276 pw.x -in pw.inp   Done                     12/27/2018 07:46:57
00016 suncat0274 pw.x -in pw.inp   Done                     12/27/2018 07:46:57
00017 suncat0274 pw.x -in pw.inp   Done                     12/27/2018 07:46:57
00018 suncat0274 pw.x -in pw.inp   Done                     12/27/2018 07:46:57
00019 suncat0274 pw.x -in pw.inp   Done                     12/27/2018 07:46:57
00020 suncat0274 pw.x -in pw.inp   Done                     12/27/2018 07:46:57
00021 suncat0274 pw.x -in pw.inp   Done                     12/27/2018 07:46:57
00022 suncat0274 pw.x -in pw.inp   Done                     12/27/2018 07:46:57
00023 suncat0274 pw.x -in pw.inp   Done                     12/27/2018 07:46:57
00024 suncat0273 pw.x -in pw.inp   Done                     12/27/2018 07:46:57
00025 suncat0273 pw.x -in pw.inp   Done                     12/27/2018 07:46:57
00026 suncat0273 pw.x -in pw.inp   Done                     12/27/2018 07:46:57
00027 suncat0273 pw.x -in pw.inp   Done                     12/27/2018 07:46:57
00028 suncat0273 pw.x -in pw.inp   Done                     12/27/2018 07:46:57
00029 suncat0273 pw.x -in pw.inp   Done                     12/27/2018 07:46:57
00030 suncat0273 pw.x -in pw.inp   Done                     12/27/2018 07:46:57
00031 suncat0273 pw.x -in pw.inp   Done                     12/27/2018 07:46:57
00032 suncat0230 pw.x -in pw.inp   Done                     12/27/2018 07:46:57
00033 suncat0230 pw.x -in pw.inp   Done                     12/27/2018 07:46:57
00034 suncat0230 pw.x -in pw.inp   Done                     12/27/2018 07:46:57
00035 suncat0230 pw.x -in pw.inp   Done                     12/27/2018 07:46:57
00036 suncat0230 pw.x -in pw.inp   Done                     12/27/2018 07:46:57
00037 suncat0230 pw.x -in pw.inp   Done                     12/27/2018 07:46:57
00038 suncat0230 pw.x -in pw.inp   Done                     12/27/2018 07:46:57
00039 suncat0230 pw.x -in pw.inp   Done                     12/27/2018 07:46:57
00040 suncat0229 pw.x -in pw.inp   Done                     12/27/2018 07:46:57
00041 suncat0229 pw.x -in pw.inp   Done                     12/27/2018 07:46:57
00042 suncat0229 pw.x -in pw.inp   Done                     12/27/2018 07:46:57
00043 suncat0229 pw.x -in pw.inp   Done                     12/27/2018 07:46:57
00044 suncat0229 pw.x -in pw.inp   Done                     12/27/2018 07:46:57
00045 suncat0229 pw.x -in pw.inp   Done                     12/27/2018 07:46:57
00046 suncat0229 pw.x -in pw.inp   Done                     12/27/2018 07:46:57
00047 suncat0229 pw.x -in pw.inp   Done                     12/27/2018 07:46:57
00048 suncat0205 pw.x -in pw.inp   Done                     12/27/2018 07:46:57
00049 suncat0205 pw.x -in pw.inp   Done                     12/27/2018 07:46:57
00050 suncat0205 pw.x -in pw.inp   Done                     12/27/2018 07:46:57
00051 suncat0205 pw.x -in pw.inp   Done                     12/27/2018 07:46:57
00052 suncat0205 pw.x -in pw.inp   Done                     12/27/2018 07:46:57
00053 suncat0205 pw.x -in pw.inp   Done                     12/27/2018 07:46:57
00054 suncat0205 pw.x -in pw.inp   Done                     12/27/2018 07:46:57
00055 suncat0205 pw.x -in pw.inp   Done                     12/27/2018 07:46:57
00056 suncat0204 pw.x -in pw.inp   Done                     12/27/2018 07:46:57
00057 suncat0204 pw.x -in pw.inp   Done                     12/27/2018 07:46:57
00058 suncat0204 pw.x -in pw.inp   Done                     12/27/2018 07:46:57
00059 suncat0204 pw.x -in pw.inp   Done                     12/27/2018 07:46:57
00060 suncat0204 pw.x -in pw.inp   Done                     12/27/2018 07:46:57
00061 suncat0204 pw.x -in pw.inp   Done                     12/27/2018 07:46:57
00062 suncat0204 pw.x -in pw.inp   Done                     12/27/2018 07:46:57
00063 suncat0204 pw.x -in pw.inp   Done                     12/27/2018 07:46:57