     Program PWSCF v.5.1rc2 (svn rev. 11289) starts on 27Dec2018 at 12:27: 6

     Current dimensions of program PWSCF are:
     Max number of different atomic species (ntypx) = 10
     Max number of k-points (npk) =  40000
     Max angular momentum in pseudopotentials (lmaxx) =  3
     Presently stress not available with electric field

     IMPORTANT: XC functional enforced from input :
     Exchange-correlation      = BEEF-VDW ( 1  4 27 13 2)
     Any further DFT definition will be discarded
     Please, verify this is what you really want

     Subspace diagonalization in iterative solution of the eigenvalue problem:
     a serial algorithm will be used

     Generating pointlists ...
     new r_m :   0.4125 (alat units)  0.7795 (a.u.) for type    1
     new r_m :   0.4125 (alat units)  0.7795 (a.u.) for type    2

     bravais-lattice index     =            0
     lattice parameter (alat)  =       1.8897  a.u.
     unit-cell volume          =    3650.5819 (a.u.)^3
     number of atoms/cell      =           12
     number of atomic types    =            2
     number of electrons       =       222.00
     number of Kohn-Sham states=          141
     kinetic-energy cutoff     =      36.7493  Ry
     charge density cutoff     =     367.4932  Ry
     convergence threshold     =      1.0E-06
     mixing beta               =       0.1000
     number of iterations used =           10  plain     mixing
     Exchange-correlation      = BEEF-VDW ( 1  4 27 13 2)
     nstep                     =           50

     celldm(1)=   1.889726  celldm(2)=   0.000000  celldm(3)=   0.000000
     celldm(4)=   0.000000  celldm(5)=   0.000000  celldm(6)=   0.000000

     crystal axes: (cart. coord. in units of alat)
               a(1) = (   5.085549   0.000000   0.000000 )
               a(2) = (  -2.542775   4.404215   0.000000 )
               a(3) = (   0.000000   0.000000  24.152334 )

     reciprocal axes: (cart. coord. in units 2 pi/alat)
               b(1) = (  0.196636  0.113528  0.000000 )
               b(2) = (  0.000000  0.227055  0.000000 )
               b(3) = (  0.000000  0.000000  0.041404 )

     PseudoPot. # 1 for Ni read from file:
     /afs/slac.stanford.edu/u/if/mamunm/psp/gbrv1.5pbe/Ni.UPF
     MD5 check sum: 1ee80287db30b12d2bc1f57a5b5d6409
     Pseudo is Ultrasoft + core correction, Zval = 18.0
     Generated by new atomic code, or converted to UPF format
     Using radial grid of  865 points,  6 beta functions with:
                l(1) =   0
                l(2) =   0
                l(3) =   1
                l(4) =   1
                l(5) =   2
                l(6) =   2
     Q(r) pseudized with 10 coefficients,  rinner =    0.980   0.980   0.980
                                                       0.980   0.980

     PseudoPot. # 2 for Zn read from file:
     /afs/slac.stanford.edu/u/if/mamunm/psp/gbrv1.5pbe/Zn.UPF
     MD5 check sum: df62231357ef9e81f77b2b3087fa5675
     Pseudo is Ultrasoft, Zval = 20.0
     Generated by new atomic code, or converted to UPF format
     Using radial grid of  943 points,  6 beta functions with:
                l(1) =   0
                l(2) =   0
                l(3) =   1
                l(4) =   1
                l(5) =   2
                l(6) =   2
     Q(r) pseudized with  8 coefficients,  rinner =    1.100   1.100   1.100
                                                       1.100   1.100

     vdW kernel table read from file vdW_kernel_table
     MD5 check sum: 095c7af220d748ca6e76c0b4c6cfb241

     atomic species   valence    mass     pseudopotential
        Ni1           18.00    58.69340     Ni( 1.00)
        Zn1           20.00    65.38000     Zn( 1.00)

     Starting magnetic structure
     atomic species   magnetization
        Ni1          0.111
        Zn1          0.100

     No symmetry found

   Cartesian axes

     site n.     atom                  positions (alat units)
         1           Ni1 tau(   1) = (   0.0000000   0.0000000  10.0000000  )
         2           Ni1 tau(   2) = (  -1.2713874   2.2021075  10.0000000  )
         3           Ni1 tau(   3) = (   1.2713874   2.2021075  10.0000000  )
         4           Zn1 tau(   4) = (   2.5427747   0.0000000  10.0000000  )
         5           Ni1 tau(   5) = (   2.5427747   1.4680717  12.0761669  )
         6           Ni1 tau(   6) = (   1.2713874   3.6701792  12.0761669  )
         7           Ni1 tau(   7) = (  -1.2713874   3.6701792  12.0761669  )
         8           Zn1 tau(   8) = (   0.0000000   1.4680717  12.0761669  )
         9           Ni1 tau(   9) = (  -0.0000000   2.9361433  14.1523337  )
        10           Ni1 tau(  10) = (   1.2713874   0.7340358  14.1523337  )
        11           Ni1 tau(  11) = (   3.8141621   0.7340358  14.1523337  )
        12           Zn1 tau(  12) = (   2.5427747   2.9361433  14.1523337  )

     number of k points=    40  Fermi-Dirac smearing, width (Ry)=  0.0110
                       cart. coord. in units 2pi/alat
        k(    1) = (   0.0000000   0.0000000   0.0000000), wk =   0.0277778
        k(    2) = (   0.0000000   0.0378425   0.0000000), wk =   0.0555556
        k(    3) = (   0.0000000   0.0756851   0.0000000), wk =   0.0555556
        k(    4) = (   0.0000000  -0.1135276   0.0000000), wk =   0.0277778
        k(    5) = (   0.0327726   0.0189213   0.0000000), wk =   0.0555556
        k(    6) = (   0.0327726   0.0567638   0.0000000), wk =   0.0555556
        k(    7) = (   0.0327726   0.0946063   0.0000000), wk =   0.0555556
        k(    8) = (   0.0327726  -0.0946063   0.0000000), wk =   0.0555556
        k(    9) = (   0.0327726  -0.0567638   0.0000000), wk =   0.0555556
        k(   10) = (   0.0327726  -0.0189213   0.0000000), wk =   0.0555556
        k(   11) = (   0.0655452   0.0378425   0.0000000), wk =   0.0555556
        k(   12) = (   0.0655452   0.0756851   0.0000000), wk =   0.0555556
        k(   13) = (   0.0655452   0.1135276   0.0000000), wk =   0.0555556
        k(   14) = (   0.0655452  -0.0756851   0.0000000), wk =   0.0555556
        k(   15) = (   0.0655452  -0.0378425   0.0000000), wk =   0.0555556
        k(   16) = (   0.0655452   0.0000000   0.0000000), wk =   0.0555556
        k(   17) = (  -0.0983178  -0.0567638   0.0000000), wk =   0.0277778
        k(   18) = (  -0.0983178  -0.0189213   0.0000000), wk =   0.0555556
        k(   19) = (  -0.0983178   0.0189213   0.0000000), wk =   0.0555556
        k(   20) = (  -0.0983178  -0.1702914   0.0000000), wk =   0.0277778
        k(   21) = (   0.0000000   0.0000000   0.0000000), wk =   0.0277778
        k(   22) = (   0.0000000   0.0378425   0.0000000), wk =   0.0555556
        k(   23) = (   0.0000000   0.0756851   0.0000000), wk =   0.0555556
        k(   24) = (   0.0000000  -0.1135276   0.0000000), wk =   0.0277778
        k(   25) = (   0.0327726   0.0189213   0.0000000), wk =   0.0555556
        k(   26) = (   0.0327726   0.0567638   0.0000000), wk =   0.0555556
        k(   27) = (   0.0327726   0.0946063   0.0000000), wk =   0.0555556
        k(   28) = (   0.0327726  -0.0946063   0.0000000), wk =   0.0555556
        k(   29) = (   0.0327726  -0.0567638   0.0000000), wk =   0.0555556
        k(   30) = (   0.0327726  -0.0189213   0.0000000), wk =   0.0555556
        k(   31) = (   0.0655452   0.0378425   0.0000000), wk =   0.0555556
        k(   32) = (   0.0655452   0.0756851   0.0000000), wk =   0.0555556
        k(   33) = (   0.0655452   0.1135276   0.0000000), wk =   0.0555556
        k(   34) = (   0.0655452  -0.0756851   0.0000000), wk =   0.0555556
        k(   35) = (   0.0655452  -0.0378425   0.0000000), wk =   0.0555556
        k(   36) = (   0.0655452   0.0000000   0.0000000), wk =   0.0555556
        k(   37) = (  -0.0983178  -0.0567638   0.0000000), wk =   0.0277778
        k(   38) = (  -0.0983178  -0.0189213   0.0000000), wk =   0.0555556
        k(   39) = (  -0.0983178   0.0189213   0.0000000), wk =   0.0555556
        k(   40) = (  -0.0983178  -0.1702914   0.0000000), wk =   0.0277778

     Largest allocated arrays     est. size (Mb)     dimensions
     Largest temporary arrays     est. size (Mb)     dimensions

     Check: negative/imaginary core charge=   -0.000002    0.000000

     Initial potential from superposition of free atoms
     Check: negative starting charge=(component1):   -0.000424
     Check: negative starting charge=(component2):   -0.000342

     starting charge  203.99958, renormalised to  222.00000

     negative rho (up, down):  4.612E-04 3.717E-04

     *
     * You are using vdW-DF for exchange-correlation in this calculation.
     * Please cite the following three references that made this development
     * possible:
     *
     *   M. Dion, H. Rydberg, E. Schroder, D. C. Langreth, and
     *   B. I. Lundqvist, Phys. Rev. Lett. 92, 246401 (2004).
     *
     *   T. Thonhauser, V. R. Cooper, S. Li, A. Puzder, P. Hyldgaard, and
     *   D. C. Langreth, Phys. Rev. B 76, 125112 (2007).
     *
     *   G. Roman-Perez and J. M. Soler, Phys. Rev. Lett. 103, 096102 (2009).
     *
     *
     * If you are using vdW-DF2, please also cite:
     *
     *   K. Lee, E. D. Murray, L. Kong, B. I. Lundqvist, and
     *   D. C. Langreth, Phys. Rev. B 82, 081101(R) (2010).
     *
     *
     * If you are calculating the stress with vdW-DF, please also cite:
     *
     *   R. Sabatini, E. Kucukbenli, B. Kolb, T. Thonhauser, and
     *   S. de Gironcoli, J. Phys.: Condens. Matter 24, 424209 (2012).
     *

     Carrying out vdW-DF run using the following parameters:

     Nqs =      20    Nr_points =    1024   r_max =   100.000
     q_mesh =
               0.00001000     0.04494208     0.09755937     0.15916263
               0.23128650     0.31572767     0.41458969     0.53033537
               0.66584808     0.82450364     1.01025438     1.22772762
               1.48234092     1.78043706     2.12944203     2.53805004
               3.01644009     3.57652955     4.23227104     5.00000000

     Gradients computed in reciprocal space

     Adding external electric field

     Computed dipole along edir(3) :
        Dipole                0.0000 Ry au,          0.0000 Debye
        Dipole field          0.0000 Ry au

        Potential amp.       -0.0000 Ry
        Total length         44.5003 bohr

[...]

     Starting wfc are  156 randomized atomic wfcs

     Self-consistent Calculation

     iteration #  1     ecut=    36.75 Ry     beta=0.10
     Davidson diagonalization with overlap
     ethr =  1.00E-02,  avg # of iterations =  7.0

[...]

     Magnetic moment per site:
     atom:    1    charge:    9.7232    magn:    1.0341    constr:    0.0000
     atom:    2    charge:    9.7232    magn:    1.0341    constr:    0.0000
     atom:    3    charge:    9.7232    magn:    1.0341    constr:    0.0000
     atom:    4    charge:   12.0078    magn:    1.1474    constr:    0.0000
     atom:    5    charge:    9.7206    magn:    1.0342    constr:    0.0000
     atom:    6    charge:    9.7206    magn:    1.0342    constr:    0.0000
     atom:    7    charge:    9.7206    magn:    1.0342    constr:    0.0000
     atom:    8    charge:   12.0116    magn:    1.1478    constr:    0.0000
[...]
        k(    7) = (   0.0327726   0.0946063   0.0000000), wk =   0.0555556
        k(    8) = (   0.0327726  -0.0946063   0.0000000), wk =   0.0555556
        k(    9) = (   0.0327726  -0.0567638   0.0000000), wk =   0.0555556
        k(   10) = (   0.0327726  -0.0189213   0.0000000), wk =   0.0555556
        k(   11) = (   0.0655452   0.0378425   0.0000000), wk =   0.0555556
        k(   12) = (   0.0655452   0.0756851   0.0000000), wk =   0.0555556
        k(   13) = (   0.0655452   0.1135276   0.0000000), wk =   0.0555556
        k(   14) = (   0.0655452  -0.0756851   0.0000000), wk =   0.0555556
        k(   15) = (   0.0655452  -0.0378425   0.0000000), wk =   0.0555556
        k(   16) = (   0.0655452   0.0000000   0.0000000), wk =   0.0555556
        k(   17) = (  -0.0983178  -0.0567638   0.0000000), wk =   0.0277778
        k(   18) = (  -0.0983178  -0.0189213   0.0000000), wk =   0.0555556
        k(   19) = (  -0.0983178   0.0189213   0.0000000), wk =   0.0555556
        k(   20) = (  -0.0983178  -0.1702914   0.0000000), wk =   0.0277778
        k(   21) = (   0.0000000   0.0000000   0.0000000), wk =   0.0277778
        k(   22) = (   0.0000000   0.0378425   0.0000000), wk =   0.0555556
        k(   23) = (   0.0000000   0.0756851   0.0000000), wk =   0.0555556
        k(   24) = (   0.0000000  -0.1135276   0.0000000), wk =   0.0277778
        k(   25) = (   0.0327726   0.0189213   0.0000000), wk =   0.0555556
        k(   26) = (   0.0327726   0.0567638   0.0000000), wk =   0.0555556
        k(   27) = (   0.0327726   0.0946063   0.0000000), wk =   0.0555556
        k(   28) = (   0.0327726  -0.0946063   0.0000000), wk =   0.0555556
        k(   29) = (   0.0327726  -0.0567638   0.0000000), wk =   0.0555556
        k(   30) = (   0.0327726  -0.0189213   0.0000000), wk =   0.0555556
        k(   31) = (   0.0655452   0.0378425   0.0000000), wk =   0.0555556
        k(   32) = (   0.0655452   0.0756851   0.0000000), wk =   0.0555556
        k(   33) = (   0.0655452   0.1135276   0.0000000), wk =   0.0555556
        k(   34) = (   0.0655452  -0.0756851   0.0000000), wk =   0.0555556
        k(   35) = (   0.0655452  -0.0378425   0.0000000), wk =   0.0555556
        k(   36) = (   0.0655452   0.0000000   0.0000000), wk =   0.0555556
        k(   37) = (  -0.0983178  -0.0567638   0.0000000), wk =   0.0277778
        k(   38) = (  -0.0983178  -0.0189213   0.0000000), wk =   0.0555556
        k(   39) = (  -0.0983178   0.0189213   0.0000000), wk =   0.0555556
        k(   40) = (  -0.0983178  -0.1702914   0.0000000), wk =   0.0277778

     Largest allocated arrays     est. size (Mb)     dimensions
     Largest temporary arrays     est. size (Mb)     dimensions

     Check: negative/imaginary core charge=   -0.000002    0.000000

     Initial potential from superposition of free atoms
     Check: negative starting charge=(component1):   -0.000416
     Check: negative starting charge=(component2):   -0.000335

     starting charge  203.99958, renormalised to  222.00000

[...]

     *
     * You are using vdW-DF for exchange-correlation in this calculation.
     * Please cite the following three references that made this development
     * possible:
     *
     *   M. Dion, H. Rydberg, E. Schroder, D. C. Langreth, and
     *   B. I. Lundqvist, Phys. Rev. Lett. 92, 246401 (2004).
     *
     *   T. Thonhauser, V. R. Cooper, S. Li, A. Puzder, P. Hyldgaard, and
     *   D. C. Langreth, Phys. Rev. B 76, 125112 (2007).
     *
     *   G. Roman-Perez and J. M. Soler, Phys. Rev. Lett. 103, 096102 (2009).
     *
     *
     * If you are using vdW-DF2, please also cite:
     *
     *   K. Lee, E. D. Murray, L. Kong, B. I. Lundqvist, and
     *   D. C. Langreth, Phys. Rev. B 82, 081101(R) (2010).
     *
     *
     * If you are calculating the stress with vdW-DF, please also cite:
     *
     *   R. Sabatini, E. Kucukbenli, B. Kolb, T. Thonhauser, and
     *   S. de Gironcoli, J. Phys.: Condens. Matter 24, 424209 (2012).
     *

     Carrying out vdW-DF run using the following parameters:

     Nqs =      20    Nr_points =    1024   r_max =   100.000
     q_mesh =
               0.00001000     0.04494208     0.09755937     0.15916263
               0.23128650     0.31572767     0.41458969     0.53033537
               0.66584808     0.82450364     1.01025438     1.22772762
               1.48234092     1.78043706     2.12944203     2.53805004
               3.01644009     3.57652955     4.23227104     5.00000000

     Gradients computed in reciprocal space

[...]

     Starting wfc are  156 randomized atomic wfcs

     Self-consistent Calculation

[...]

     total energy              =   -4488.16074891 Ry
     Harris-Foulkes estimate   =   -4488.16074852 Ry
     estimated scf accuracy    <       0.00000168 Ry

[...]

     iteration # 47     ecut=    36.75 Ry     beta=0.10
     Davidson diagonalization with overlap
     ethr =  6.08E-10,  avg # of iterations =  1.1

[...]

     negative rho (up, down):  8.507E-04 7.705E-04

[...]

     Adding external electric field

     Computed dipole along edir(3) :
        Dipole                0.0056 Ry au,          0.0141 Debye
        Dipole field          0.0000 Ry au

        Potential amp.       -0.0017 Ry
        Total length         44.5003 bohr

     Magnetic moment per site:
     atom:    1    charge:    9.3531    magn:    0.2213    constr:    0.0000
     atom:    2    charge:    9.3531    magn:    0.2215    constr:    0.0000
     atom:    3    charge:    9.3530    magn:    0.2214    constr:    0.0000
     atom:    4    charge:   11.6842    magn:    0.0008    constr:    0.0000
     atom:    5    charge:    9.3510    magn:    0.2425    constr:    0.0000
     atom:    6    charge:    9.3509    magn:    0.2425    constr:    0.0000
     atom:    7    charge:    9.3509    magn:    0.2425    constr:    0.0000
     atom:    8    charge:   11.6853    magn:   -0.0010    constr:    0.0000
     atom:    9    charge:    9.3576    magn:    0.2177    constr:    0.0000
     atom:   10    charge:    9.3577    magn:    0.2177    constr:    0.0000
     atom:   11    charge:    9.3576    magn:    0.2177    constr:    0.0000
     atom:   12    charge:   11.6863    magn:    0.0009    constr:    0.0000

     End of self-consistent calculation

 ------ SPIN UP ------------

[...]

 ------ SPIN DOWN ----------

[...]

          k = 0.0655 0.0000 0.0000 ( 13743 PWs)   bands (ev):

[...]

          k =-0.0983-0.1703 0.0000 ( 13722 PWs)   bands (ev):

  -125.4950-125.3995-125.3718-102.2462-102.2419-102.2376-102.0853-102.0810
  -102.0768-102.0500-102.0456-102.0416 -79.6734 -79.6733 -79.6725 -79.5792
   -79.5736 -79.5736 -79.5531 -79.5459 -79.5459 -62.6815 -62.6706 -62.6680
   -62.6616 -62.6567 -62.6459 -62.6331 -62.6068 -62.5673 -62.5624 -62.5359
   -62.5247 -62.5187 -62.5181 -62.5141 -62.4954 -62.4925 -62.4896 -62.4859
   -62.4754 -62.4477 -62.3966 -62.3937 -62.3899 -62.3513 -62.3473 -62.3439
    -6.7975  -6.6437  -6.6173  -6.6037  -6.5545  -6.5322  -6.4913  -6.4313
    -6.4130  -6.4096  -6.3636  -6.3493  -6.3487  -6.3277  -6.2524  -5.8560
    -5.8226  -4.2767  -4.1217  -3.1598  -2.9854  -2.8442  -2.3752  -2.0298
    -1.8696  -1.7617  -1.6988  -1.6981  -1.6107  -1.6040  -1.5074  -1.2980
    -1.2602  -1.2570  -1.2097  -1.1569  -0.9904  -0.9720  -0.9356  -0.9192
    -0.8404  -0.7927  -0.7095  -0.6279  -0.5519  -0.5468  -0.4869  -0.4623
    -0.2528  -0.2036  -0.1966  -0.1272  -0.1264  -0.1067   0.0052   0.0156
     0.0437   0.0717   0.1341   0.2332   0.3071   0.4412   0.6397   0.8244
     0.9092   1.3922   1.5664   1.9608   2.1795   2.5654   3.5763   3.8100
     4.5425   4.5904   6.2356   6.2839   6.8668   6.8846   7.1478   7.1888
     7.3423   7.6673   7.9921   8.1418   8.1743   8.1912   8.3529   8.4306
     8.5962   8.6403   9.5427   9.6764   9.8423

     the Fermi energy is     0.5544 ev

!    total energy              =   -4488.16075049 Ry
     Harris-Foulkes estimate   =   -4488.16074891 Ry
     estimated scf accuracy    <       0.00000087 Ry

     The total energy is the sum of the following terms:

     one-electron contribution =  -36278.40790901 Ry
     hartree contribution      =   18144.73915139 Ry
     xc contribution           =    -461.46824757 Ry
     ewald contribution        =   14107.06340029 Ry
     electric field correction =       0.00000011 Ry
     smearing contrib. (-TS)   =      -0.08714569 Ry

     total magnetization       =     3.19 Bohr mag/cell
     absolute magnetization    =     3.87 Bohr mag/cell

     convergence has been achieved in  47 iterations

 BEEF-vdW xc energy contributions
           1 :   -407.599582926814
           2 :    369.540224074031
           3 :   -305.533385766009
           4 :    234.096591871649
           5 :   -172.095466811443
           6 :    128.501868900198
           7 :   -102.789279920010
           8 :    88.0181929423850
           9 :   -76.2285204831703
          10 :    62.8693034642267
          11 :   -48.1071680737122
          12 :    35.0012690367135
          13 :   -26.3770015167259
          14 :    22.6272377863772
          15 :   -21.6619743676303
          16 :    20.6005804105914
          17 :   -17.7495654791226
          18 :    13.4643967281057
          19 :   -9.48440998595134
          20 :    7.41358641943805
          21 :   -7.51956793958391
          22 :    8.64156474303132
          23 :   -9.14123995446465
          24 :    8.09913614002295
          25 :   -5.88570252073811
          26 :    3.76046948306447
          27 :   -2.88209908195694
          28 :    3.48022212536051
          29 :   -4.76377913867304
          30 :    5.56198928321777
          31 :   -33.1180701773131
          32 :   -23.0096387130899

     Forces acting on atoms (Ry/au):

     negative rho (up, down):  8.507E-04 7.705E-04
     atom    1 type  1   force =    -0.00000177   -0.00430912    0.00992015
     atom    2 type  1   force =    -0.00372837    0.00215410    0.00993633
     atom    3 type  1   force =     0.00372510    0.00215484    0.00990500
     atom    4 type  2   force =     0.00000082   -0.00001061   -0.01639401
     atom    5 type  1   force =    -0.00000523    0.00641531   -0.00247739
     atom    6 type  1   force =     0.00551936   -0.00322546   -0.00244097
     atom    7 type  1   force =    -0.00552235   -0.00322162   -0.00241605
     atom    8 type  2   force =     0.00001219    0.00005436   -0.00920711
     atom    9 type  1   force =    -0.00003214   -0.00035356    0.00073468
     atom   10 type  1   force =    -0.00035337    0.00012364    0.00074526
     atom   11 type  1   force =     0.00034910    0.00015868    0.00071880
     atom   12 type  2   force =     0.00003666    0.00005945    0.00097530

     Total force =     0.029124     Total SCF correction =     0.003187
     SCF correction compared to forces is large: reduce conv_thr to get better values

     entering subroutine stress ...

     negative rho (up, down):  8.507E-04 7.705E-04
          total   stress  (Ry/bohr**3)                   (kbar)     P=  -58.58
  -0.00042463   0.00000000   0.00000000        -62.46      0.00      0.00
   0.00000000  -0.00042464   0.00000000          0.00    -62.47      0.00
   0.00000000   0.00000000  -0.00034536          0.00      0.00    -50.80

 !ASE

     Writing output data file calc.save

     General routines

     Parallel routines

   This run was terminated on:  17:35:30  27Dec2018

   JOB DONE.
Job  /afs/slac/g/suncat/bin/suncat-tsmpirun -x LD_LIBRARY_PATH -wdir /scratch/qe110301_61Vwk pw.x -in pw.inp

TID   HOST_NAME   COMMAND_LINE            STATUS            TERMINATION_TIME
00000 suncat0087 pw.x -in pw.inp   Done                     12/27/2018 17:35:30
00001 suncat0087 pw.x -in pw.inp   Done                     12/27/2018 17:35:30
00002 suncat0087 pw.x -in pw.inp   Done                     12/27/2018 17:35:30
00003 suncat0087 pw.x -in pw.inp   Done                     12/27/2018 17:35:30
00004 suncat0087 pw.x -in pw.inp   Done                     12/27/2018 17:35:30
00005 suncat0087 pw.x -in pw.inp   Done                     12/27/2018 17:35:30
00006 suncat0087 pw.x -in pw.inp   Done                     12/27/2018 17:35:30
00007 suncat0087 pw.x -in pw.inp   Done                     12/27/2018 17:35:30
00008 suncat0086 pw.x -in pw.inp   Done                     12/27/2018 17:35:30
00009 suncat0086 pw.x -in pw.inp   Done                     12/27/2018 17:35:30
00010 suncat0086 pw.x -in pw.inp   Done                     12/27/2018 17:35:30
00011 suncat0086 pw.x -in pw.inp   Done                     12/27/2018 17:35:30
00012 suncat0086 pw.x -in pw.inp   Done                     12/27/2018 17:35:30
00013 suncat0086 pw.x -in pw.inp   Done                     12/27/2018 17:35:30
00014 suncat0086 pw.x -in pw.inp   Done                     12/27/2018 17:35:30
00015 suncat0086 pw.x -in pw.inp   Done                     12/27/2018 17:35:30
00016 suncat0085 pw.x -in pw.inp   Done                     12/27/2018 17:35:30
00017 suncat0085 pw.x -in pw.inp   Done                     12/27/2018 17:35:30
00018 suncat0085 pw.x -in pw.inp   Done                     12/27/2018 17:35:30
00019 suncat0085 pw.x -in pw.inp   Done                     12/27/2018 17:35:30
00020 suncat0085 pw.x -in pw.inp   Done                     12/27/2018 17:35:30
00021 suncat0085 pw.x -in pw.inp   Done                     12/27/2018 17:35:30
00022 suncat0085 pw.x -in pw.inp   Done                     12/27/2018 17:35:30
00023 suncat0085 pw.x -in pw.inp   Done                     12/27/2018 17:35:30
00024 suncat0084 pw.x -in pw.inp   Done                     12/27/2018 17:35:30
00025 suncat0084 pw.x -in pw.inp   Done                     12/27/2018 17:35:30
00026 suncat0084 pw.x -in pw.inp   Done                     12/27/2018 17:35:30
00027 suncat0084 pw.x -in pw.inp   Done                     12/27/2018 17:35:30
00028 suncat0084 pw.x -in pw.inp   Done                     12/27/2018 17:35:30
00029 suncat0084 pw.x -in pw.inp   Done                     12/27/2018 17:35:30
00030 suncat0084 pw.x -in pw.inp   Done                     12/27/2018 17:35:30
00031 suncat0084 pw.x -in pw.inp   Done                     12/27/2018 17:35:30
00032 suncat0073 pw.x -in pw.inp   Done                     12/27/2018 17:35:30
00033 suncat0073 pw.x -in pw.inp   Done                     12/27/2018 17:35:30
00034 suncat0073 pw.x -in pw.inp   Done                     12/27/2018 17:35:30
00035 suncat0073 pw.x -in pw.inp   Done                     12/27/2018 17:35:30
00036 suncat0073 pw.x -in pw.inp   Done                     12/27/2018 17:35:30
00037 suncat0073 pw.x -in pw.inp   Done                     12/27/2018 17:35:30
00038 suncat0073 pw.x -in pw.inp   Done                     12/27/2018 17:35:30
00039 suncat0073 pw.x -in pw.inp   Done                     12/27/2018 17:35:30
00040 suncat0244 pw.x -in pw.inp   Done                     12/27/2018 17:35:30
00041 suncat0244 pw.x -in pw.inp   Done                     12/27/2018 17:35:30
00042 suncat0244 pw.x -in pw.inp   Done                     12/27/2018 17:35:30
00043 suncat0244 pw.x -in pw.inp   Done                     12/27/2018 17:35:30
00044 suncat0244 pw.x -in pw.inp   Done                     12/27/2018 17:35:30
00045 suncat0244 pw.x -in pw.inp   Done                     12/27/2018 17:35:30
00046 suncat0244 pw.x -in pw.inp   Done                     12/27/2018 17:35:30
00047 suncat0244 pw.x -in pw.inp   Done                     12/27/2018 17:35:30
00048 suncat0243 pw.x -in pw.inp   Done                     12/27/2018 17:35:30
00049 suncat0243 pw.x -in pw.inp   Done                     12/27/2018 17:35:30
00050 suncat0243 pw.x -in pw.inp   Done                     12/27/2018 17:35:30
00051 suncat0243 pw.x -in pw.inp   Done                     12/27/2018 17:35:30
00052 suncat0243 pw.x -in pw.inp   Done                     12/27/2018 17:35:30
00053 suncat0243 pw.x -in pw.inp   Done                     12/27/2018 17:35:30
00054 suncat0243 pw.x -in pw.inp   Done                     12/27/2018 17:35:30
00055 suncat0243 pw.x -in pw.inp   Done                     12/27/2018 17:35:30
00056 suncat0242 pw.x -in pw.inp   Done                     12/27/2018 17:35:30
00057 suncat0242 pw.x -in pw.inp   Done                     12/27/2018 17:35:30
00058 suncat0242 pw.x -in pw.inp   Done                     12/27/2018 17:35:30
00059 suncat0242 pw.x -in pw.inp   Done                     12/27/2018 17:35:30
00060 suncat0242 pw.x -in pw.inp   Done                     12/27/2018 17:35:30
00061 suncat0242 pw.x -in pw.inp   Done                     12/27/2018 17:35:30
00062 suncat0242 pw.x -in pw.inp   Done                     12/27/2018 17:35:30
00063 suncat0242 pw.x -in pw.inp   Done                     12/27/2018 17:35:30