     Program PWSCF v.5.1rc2 (svn rev. 11289) starts on 27Dec2018 at  9:51:55

     Current dimensions of program PWSCF are:
     Max number of different atomic species (ntypx) = 10
     Max number of k-points (npk) =  40000
     Max angular momentum in pseudopotentials (lmaxx) =  3
     Presently stress not available with electric field

     IMPORTANT: XC functional enforced from input :
     Exchange-correlation      = BEEF-VDW ( 1  4 27 13 2)
     Any further DFT definition will be discarded
     Please, verify this is what you really want

     Subspace diagonalization in iterative solution of the eigenvalue problem:
     a serial algorithm will be used

     Generating pointlists ...
     new r_m :   0.4125 (alat units)  0.7795 (a.u.) for type    1
     new r_m :   0.4125 (alat units)  0.7795 (a.u.) for type    2

     bravais-lattice index     =            0
     lattice parameter (alat)  =       1.8897  a.u.
     unit-cell volume          =    4160.6562 (a.u.)^3
     number of atoms/cell      =           12
     number of atomic types    =            2
     number of electrons       =       201.00
     number of Kohn-Sham states=          130
     kinetic-energy cutoff     =      36.7493  Ry
     charge density cutoff     =     367.4932  Ry
     convergence threshold     =      1.0E-06
     mixing beta               =       0.1000
     number of iterations used =           10  plain     mixing
     Exchange-correlation      = BEEF-VDW ( 1  4 27 13 2)
     nstep                     =           50

     celldm(1)=   1.889726  celldm(2)=   0.000000  celldm(3)=   0.000000
     celldm(4)=   0.000000  celldm(5)=   0.000000  celldm(6)=   0.000000

     crystal axes: (cart. coord. in units of alat)
               a(1) = (   5.400545   0.000000   0.000000 )
               a(2) = (  -2.700273   4.677009   0.000000 )
               a(3) = (   0.000000   0.000000  24.409527 )

     reciprocal axes: (cart. coord. in units 2 pi/alat)
               b(1) = (  0.185166  0.106906  0.000000 )
               b(2) = (  0.000000  0.213812  0.000000 )
               b(3) = (  0.000000  0.000000  0.040968 )

     PseudoPot. # 1 for Ni read from file:
     /afs/slac.stanford.edu/u/if/mamunm/psp/gbrv1.5pbe/Ni.UPF
     MD5 check sum: 1ee80287db30b12d2bc1f57a5b5d6409
     Pseudo is Ultrasoft + core correction, Zval = 18.0
     Generated by new atomic code, or converted to UPF format
     Using radial grid of  865 points,  6 beta functions with:
                l(1) =   0
                l(2) =   0
                l(3) =   1
                l(4) =   1
                l(5) =   2
                l(6) =   2
     Q(r) pseudized with 10 coefficients,  rinner =    0.980   0.980   0.980
                                                       0.980   0.980

     PseudoPot. # 2 for Tl read from file:
     /afs/slac.stanford.edu/u/if/mamunm/psp/gbrv1.5pbe/Tl.UPF
     MD5 check sum: b76cf1f7e72655a2b2c53cf6385d7059
     Pseudo is Ultrasoft + core correction, Zval = 13.0
     Generated by new atomic code, or converted to UPF format
     Using radial grid of  899 points,  6 beta functions with:
                l(1) =   0
                l(2) =   0
                l(3) =   1
                l(4) =   1
                l(5) =   2
                l(6) =   2
     Q(r) pseudized with  6 coefficients,  rinner =    1.100   1.100   1.100
                                                       1.100   1.100

     vdW kernel table read from file vdW_kernel_table
     MD5 check sum: 095c7af220d748ca6e76c0b4c6cfb241

     atomic species   valence    mass     pseudopotential
        Ni1           18.00    58.69340     Ni( 1.00)
        Tl1           13.00   204.38000     Tl( 1.00)

     Starting magnetic structure
     atomic species   magnetization
        Ni1          0.111
        Tl1          0.154

     No symmetry found

   Cartesian axes

     site n.     atom                  positions (alat units)
         1           Ni1 tau(   1) = (   0.0000000   0.0000000  10.0000000  )
         2           Ni1 tau(   2) = (  -1.3501363   2.3385047  10.0000000  )
         3           Ni1 tau(   3) = (   1.3501363   2.3385047  10.0000000  )
         4           Tl1 tau(   4) = (   2.7002727   0.0000000  10.0000000  )
         5           Ni1 tau(   5) = (   2.7002727   1.5590032  12.2047634  )
         6           Ni1 tau(   6) = (   1.3501363   3.8975079  12.2047634  )
         7           Ni1 tau(   7) = (  -1.3501363   3.8975079  12.2047634  )
         8           Tl1 tau(   8) = (   0.0000000   1.5590032  12.2047634  )
         9           Ni1 tau(   9) = (  -0.0000000   3.1180063  14.4095268  )
        10           Ni1 tau(  10) = (   1.3501363   0.7795016  14.4095268  )
        11           Ni1 tau(  11) = (   4.0504090   0.7795016  14.4095268  )
        12           Tl1 tau(  12) = (   2.7002727   3.1180063  14.4095268  )

     number of k points=    40  Fermi-Dirac smearing, width (Ry)=  0.0110
                       cart. coord. in units 2pi/alat
        k(    1) = (   0.0000000   0.0000000   0.0000000), wk =   0.0277778
        k(    2) = (   0.0000000   0.0356353   0.0000000), wk =   0.0555556
        k(    3) = (   0.0000000   0.0712706   0.0000000), wk =   0.0555556
        k(    4) = (   0.0000000  -0.1069059   0.0000000), wk =   0.0277778
        k(    5) = (   0.0308611   0.0178177   0.0000000), wk =   0.0555556
        k(    6) = (   0.0308611   0.0534530   0.0000000), wk =   0.0555556
        k(    7) = (   0.0308611   0.0890883   0.0000000), wk =   0.0555556
        k(    8) = (   0.0308611  -0.0890883   0.0000000), wk =   0.0555556
        k(    9) = (   0.0308611  -0.0534530   0.0000000), wk =   0.0555556
        k(   10) = (   0.0308611  -0.0178177   0.0000000), wk =   0.0555556
        k(   11) = (   0.0617222   0.0356353   0.0000000), wk =   0.0555556
        k(   12) = (   0.0617222   0.0712706   0.0000000), wk =   0.0555556
        k(   13) = (   0.0617222   0.1069059   0.0000000), wk =   0.0555556
        k(   14) = (   0.0617222  -0.0712706   0.0000000), wk =   0.0555556
        k(   15) = (   0.0617222  -0.0356353   0.0000000), wk =   0.0555556
        k(   16) = (   0.0617222  -0.0000000   0.0000000), wk =   0.0555556
        k(   17) = (  -0.0925832  -0.0534530   0.0000000), wk =   0.0277778
        k(   18) = (  -0.0925832  -0.0178177   0.0000000), wk =   0.0555556
        k(   19) = (  -0.0925832   0.0178177   0.0000000), wk =   0.0555556
        k(   20) = (  -0.0925832  -0.1603589   0.0000000), wk =   0.0277778
        k(   21) = (   0.0000000   0.0000000   0.0000000), wk =   0.0277778
        k(   22) = (   0.0000000   0.0356353   0.0000000), wk =   0.0555556
        k(   23) = (   0.0000000   0.0712706   0.0000000), wk =   0.0555556
        k(   24) = (   0.0000000  -0.1069059   0.0000000), wk =   0.0277778
        k(   25) = (   0.0308611   0.0178177   0.0000000), wk =   0.0555556
        k(   26) = (   0.0308611   0.0534530   0.0000000), wk =   0.0555556
        k(   27) = (   0.0308611   0.0890883   0.0000000), wk =   0.0555556
        k(   28) = (   0.0308611  -0.0890883   0.0000000), wk =   0.0555556
        k(   29) = (   0.0308611  -0.0534530   0.0000000), wk =   0.0555556
        k(   30) = (   0.0308611  -0.0178177   0.0000000), wk =   0.0555556
        k(   31) = (   0.0617222   0.0356353   0.0000000), wk =   0.0555556
        k(   32) = (   0.0617222   0.0712706   0.0000000), wk =   0.0555556
        k(   33) = (   0.0617222   0.1069059   0.0000000), wk =   0.0555556
        k(   34) = (   0.0617222  -0.0712706   0.0000000), wk =   0.0555556
        k(   35) = (   0.0617222  -0.0356353   0.0000000), wk =   0.0555556
        k(   36) = (   0.0617222  -0.0000000   0.0000000), wk =   0.0555556
        k(   37) = (  -0.0925832  -0.0534530   0.0000000), wk =   0.0277778
        k(   38) = (  -0.0925832  -0.0178177   0.0000000), wk =   0.0555556
        k(   39) = (  -0.0925832   0.0178177   0.0000000), wk =   0.0555556
        k(   40) = (  -0.0925832  -0.1603589   0.0000000), wk =   0.0277778

     Largest allocated arrays     est. size (Mb)     dimensions
     Largest temporary arrays     est. size (Mb)     dimensions

     Check: negative/imaginary core charge=   -0.000002    0.000000

     Initial potential from superposition of free atoms
     Check: negative starting charge=(component1):   -0.088059
     Check: negative starting charge=(component2):   -0.064580

     starting charge  182.98540, renormalised to  201.00000

     negative rho (up, down):  9.673E-02 7.094E-02

     *
     * You are using vdW-DF for exchange-correlation in this calculation.
     * Please cite the following three references that made this development
     * possible:
     *
     *   M. Dion, H. Rydberg, E. Schroder, D. C. Langreth, and
     *   B. I. Lundqvist, Phys. Rev. Lett. 92, 246401 (2004).
     *
     *   T. Thonhauser, V. R. Cooper, S. Li, A. Puzder, P. Hyldgaard, and
     *   D. C. Langreth, Phys. Rev. B 76, 125112 (2007).
     *
     *   G. Roman-Perez and J. M. Soler, Phys. Rev. Lett. 103, 096102 (2009).
     *
     *
     * If you are using vdW-DF2, please also cite:
     *
     *   K. Lee, E. D. Murray, L. Kong, B. I. Lundqvist, and
     *   D. C. Langreth, Phys. Rev. B 82, 081101(R) (2010).
     *
     *
     * If you are calculating the stress with vdW-DF, please also cite:
     *
     *   R. Sabatini, E. Kucukbenli, B. Kolb, T. Thonhauser, and
     *   S. de Gironcoli, J. Phys.: Condens. Matter 24, 424209 (2012).
     *

     Carrying out vdW-DF run using the following parameters:

     Nqs =      20    Nr_points =    1024   r_max =   100.000
     q_mesh =
               0.00001000     0.04494208     0.09755937     0.15916263
               0.23128650     0.31572767     0.41458969     0.53033537
               0.66584808     0.82450364     1.01025438     1.22772762
               1.48234092     1.78043706     2.12944203     2.53805004
               3.01644009     3.57652955     4.23227104     5.00000000

     Gradients computed in reciprocal space

     Adding external electric field

     Computed dipole along edir(3) :
        Dipole               -0.0000 Ry au,         -0.0000 Debye
        Dipole field         -0.0000 Ry au

        Potential amp.        0.0000 Ry
        Total length         44.9741 bohr

[...]

     Starting wfc are  144 randomized atomic wfcs

     Self-consistent Calculation

     iteration #  1     ecut=    36.75 Ry     beta=0.10
     Davidson diagonalization with overlap
     ethr =  1.00E-02,  avg # of iterations =  8.2

[...]

     Magnetic moment per site:
     atom:    1    charge:    9.7556    magn:    1.0341    constr:    0.0000
     atom:    2    charge:    9.7556    magn:    1.0341    constr:    0.0000
     atom:    3    charge:    9.7556    magn:    1.0341    constr:    0.0000
     atom:    4    charge:    1.5340    magn:    0.2173    constr:    0.0000
     atom:    5    charge:    9.7454    magn:    1.0330    constr:    0.0000
     atom:    6    charge:    9.7454    magn:    1.0330    constr:    0.0000
     atom:    7    charge:    9.7454    magn:    1.0330    constr:    0.0000
     atom:    8    charge:    1.5285    magn:    0.2165    constr:    0.0000
[...]
        k(    4) = (   0.0000000  -0.1069059   0.0000000), wk =   0.0277778
        k(    5) = (   0.0308611   0.0178177   0.0000000), wk =   0.0555556
        k(    6) = (   0.0308611   0.0534530   0.0000000), wk =   0.0555556
        k(    7) = (   0.0308611   0.0890883   0.0000000), wk =   0.0555556
        k(    8) = (   0.0308611  -0.0890883   0.0000000), wk =   0.0555556
        k(    9) = (   0.0308611  -0.0534530   0.0000000), wk =   0.0555556
        k(   10) = (   0.0308611  -0.0178177   0.0000000), wk =   0.0555556
        k(   11) = (   0.0617222   0.0356353   0.0000000), wk =   0.0555556
        k(   12) = (   0.0617222   0.0712706   0.0000000), wk =   0.0555556
        k(   13) = (   0.0617222   0.1069059   0.0000000), wk =   0.0555556
        k(   14) = (   0.0617222  -0.0712706   0.0000000), wk =   0.0555556
        k(   15) = (   0.0617222  -0.0356353   0.0000000), wk =   0.0555556
        k(   16) = (   0.0617222  -0.0000000   0.0000000), wk =   0.0555556
        k(   17) = (  -0.0925832  -0.0534530   0.0000000), wk =   0.0277778
        k(   18) = (  -0.0925832  -0.0178177   0.0000000), wk =   0.0555556
        k(   19) = (  -0.0925832   0.0178177   0.0000000), wk =   0.0555556
        k(   20) = (  -0.0925832  -0.1603589   0.0000000), wk =   0.0277778
        k(   21) = (   0.0000000   0.0000000   0.0000000), wk =   0.0277778
        k(   22) = (   0.0000000   0.0356353   0.0000000), wk =   0.0555556
        k(   23) = (   0.0000000   0.0712706   0.0000000), wk =   0.0555556
        k(   24) = (   0.0000000  -0.1069059   0.0000000), wk =   0.0277778
        k(   25) = (   0.0308611   0.0178177   0.0000000), wk =   0.0555556
        k(   26) = (   0.0308611   0.0534530   0.0000000), wk =   0.0555556
        k(   27) = (   0.0308611   0.0890883   0.0000000), wk =   0.0555556
        k(   28) = (   0.0308611  -0.0890883   0.0000000), wk =   0.0555556
        k(   29) = (   0.0308611  -0.0534530   0.0000000), wk =   0.0555556
        k(   30) = (   0.0308611  -0.0178177   0.0000000), wk =   0.0555556
        k(   31) = (   0.0617222   0.0356353   0.0000000), wk =   0.0555556
        k(   32) = (   0.0617222   0.0712706   0.0000000), wk =   0.0555556
        k(   33) = (   0.0617222   0.1069059   0.0000000), wk =   0.0555556
        k(   34) = (   0.0617222  -0.0712706   0.0000000), wk =   0.0555556
        k(   35) = (   0.0617222  -0.0356353   0.0000000), wk =   0.0555556
        k(   36) = (   0.0617222  -0.0000000   0.0000000), wk =   0.0555556
        k(   37) = (  -0.0925832  -0.0534530   0.0000000), wk =   0.0277778
        k(   38) = (  -0.0925832  -0.0178177   0.0000000), wk =   0.0555556
        k(   39) = (  -0.0925832   0.0178177   0.0000000), wk =   0.0555556
        k(   40) = (  -0.0925832  -0.1603589   0.0000000), wk =   0.0277778

     Largest allocated arrays     est. size (Mb)     dimensions
     Largest temporary arrays     est. size (Mb)     dimensions

     Check: negative/imaginary core charge=   -0.000002    0.000000

     Initial potential from superposition of free atoms
     Check: negative starting charge=(component1):   -0.088243
     Check: negative starting charge=(component2):   -0.064715

     starting charge  182.98540, renormalised to  201.00000

[...]

     *
     * You are using vdW-DF for exchange-correlation in this calculation.
     * Please cite the following three references that made this development
     * possible:
     *
     *   M. Dion, H. Rydberg, E. Schroder, D. C. Langreth, and
     *   B. I. Lundqvist, Phys. Rev. Lett. 92, 246401 (2004).
     *
     *   T. Thonhauser, V. R. Cooper, S. Li, A. Puzder, P. Hyldgaard, and
     *   D. C. Langreth, Phys. Rev. B 76, 125112 (2007).
     *
     *   G. Roman-Perez and J. M. Soler, Phys. Rev. Lett. 103, 096102 (2009).
     *
     *
     * If you are using vdW-DF2, please also cite:
     *
     *   K. Lee, E. D. Murray, L. Kong, B. I. Lundqvist, and
     *   D. C. Langreth, Phys. Rev. B 82, 081101(R) (2010).
     *
     *
     * If you are calculating the stress with vdW-DF, please also cite:
     *
     *   R. Sabatini, E. Kucukbenli, B. Kolb, T. Thonhauser, and
     *   S. de Gironcoli, J. Phys.: Condens. Matter 24, 424209 (2012).
     *

     Carrying out vdW-DF run using the following parameters:

     Nqs =      20    Nr_points =    1024   r_max =   100.000
     q_mesh =
               0.00001000     0.04494208     0.09755937     0.15916263
               0.23128650     0.31572767     0.41458969     0.53033537
               0.66584808     0.82450364     1.01025438     1.22772762
               1.48234092     1.78043706     2.12944203     2.53805004
               3.01644009     3.57652955     4.23227104     5.00000000

     Gradients computed in reciprocal space

[...]

     Starting wfc are  144 randomized atomic wfcs

     Self-consistent Calculation

[...]

     total energy              =   -3539.99841400 Ry
     Harris-Foulkes estimate   =   -3539.99841378 Ry
     estimated scf accuracy    <       0.00000184 Ry

[...]

     iteration # 45     ecut=    36.75 Ry     beta=0.10
     Davidson diagonalization with overlap
     ethr =  6.69E-10,  avg # of iterations =  1.0

[...]

     negative rho (up, down):  8.380E-02 8.385E-02

[...]

     Adding external electric field

     Computed dipole along edir(3) :
        Dipole                0.0537 Ry au,          0.1364 Debye
        Dipole field          0.0002 Ry au

        Potential amp.       -0.0146 Ry
        Total length         44.9741 bohr

     Magnetic moment per site:
     atom:    1    charge:    9.3603    magn:    0.1442    constr:    0.0000
     atom:    2    charge:    9.3602    magn:    0.1443    constr:    0.0000
     atom:    3    charge:    9.3600    magn:    0.1444    constr:    0.0000
     atom:    4    charge:    1.4340    magn:   -0.0005    constr:    0.0000
     atom:    5    charge:    9.3442    magn:    0.1667    constr:    0.0000
     atom:    6    charge:    9.3442    magn:    0.1667    constr:    0.0000
     atom:    7    charge:    9.3444    magn:    0.1666    constr:    0.0000
     atom:    8    charge:    1.4299    magn:   -0.0008    constr:    0.0000
     atom:    9    charge:    9.3571    magn:    0.1520    constr:    0.0000
     atom:   10    charge:    9.3572    magn:    0.1518    constr:    0.0000
     atom:   11    charge:    9.3572    magn:    0.1521    constr:    0.0000
     atom:   12    charge:    1.4265    magn:   -0.0004    constr:    0.0000

     End of self-consistent calculation

 ------ SPIN UP ------------

[...]

 ------ SPIN DOWN ----------

[...]

          k = 0.0617-0.0000 0.0000 ( 15620 PWs)   bands (ev):

[...]

          k =-0.0926-0.1604 0.0000 ( 15684 PWs)   bands (ev):

  -101.8322-101.8304-101.8285-101.7553-101.7477-101.7469-101.6542-101.6525
  -101.6506 -62.2672 -62.2605 -62.2591 -62.2576 -62.2568 -62.2510 -62.2231
   -62.2111 -62.2000 -62.1965 -62.1947 -62.1761 -62.1705 -62.1585 -62.1499
   -62.1270 -62.1168 -62.1114 -62.0966 -62.0910 -62.0854 -62.0837 -62.0821
   -62.0630 -61.9764 -61.9745 -61.9725 -11.0229 -10.9781 -10.9533 -10.9350
   -10.9188 -10.7320 -10.6824 -10.6772 -10.6414 -10.6025 -10.5874 -10.5520
   -10.5490 -10.5298 -10.4971  -7.3118  -6.5857  -5.7202  -4.1145  -2.9919
    -2.8534  -2.8507  -1.8840  -1.5662  -1.4711  -1.4131  -1.3551  -1.2672
    -1.2399  -1.1378  -1.0539  -0.9675  -0.8944  -0.8778  -0.8179  -0.7762
    -0.7357  -0.5649  -0.5553  -0.5404  -0.4974  -0.3871  -0.3374  -0.2729
    -0.2474  -0.1737  -0.1673  -0.1035   0.0100   0.0680   0.1189   0.1246
     0.1463   0.1633   0.2218   0.2562   0.2666   0.2761   0.3721   0.3804
     0.5094   0.6168   0.7398   0.7704   0.9097   1.0988   1.3254   1.6778
     1.9795   2.1072   2.7935   3.4442   3.7440   4.0289   5.4753   5.9242
     6.4017   6.5190   6.5434   6.7297   6.7940   6.8918   6.9318   7.0754
     7.2009   7.6250   7.8462   7.9021   8.0450   8.2418   8.3936   8.8083
     8.8852   8.9788

     the Fermi energy is     0.8296 ev

!    total energy              =   -3539.99841680 Ry
     Harris-Foulkes estimate   =   -3539.99841506 Ry
     estimated scf accuracy    <       0.00000070 Ry

     The total energy is the sum of the following terms:

     one-electron contribution =  -25900.35325423 Ry
     hartree contribution      =   12982.91475799 Ry
     xc contribution           =    -523.43974885 Ry
     ewald contribution        =    9900.97267030 Ry
     electric field correction =       0.00000870 Ry
     smearing contrib. (-TS)   =      -0.09285071 Ry

     total magnetization       =     2.21 Bohr mag/cell
     absolute magnetization    =     2.66 Bohr mag/cell

     convergence has been achieved in  45 iterations

 BEEF-vdW xc energy contributions
           1 :   -463.143472809876
           2 :    423.682922656533
           3 :   -356.384360698163
           4 :    279.231414059033
           5 :   -209.145148449669
           6 :    156.079468189442
           7 :   -121.181163964541
           8 :    99.1413199854554
           9 :   -82.8042052135929
          10 :    67.2501398864602
          11 :   -51.4236757639844
          12 :    37.0867231740128
          13 :   -26.4524666612048
          14 :    20.2658516974186
          15 :   -17.4139337728793
          16 :    15.8986772438624
          17 :   -14.1891833232555
          18 :    11.9365228079400
          19 :   -9.72152755155332
          20 :    8.22597114894603
          21 :   -7.55970452347486
          22 :    7.20557975916176
          23 :   -6.52087014264248
          24 :    5.30168356461371
          25 :   -3.94630403900965
          26 :    3.10248483150366
          27 :   -3.11815684199024
          28 :    3.73711184982858
          29 :   -4.28291101994267
          30 :    4.17292409928694
          31 :   -37.9132786148564
          32 :   -26.9774694997690

     Forces acting on atoms (Ry/au):

     negative rho (up, down):  8.380E-02 8.385E-02
     atom    1 type  1   force =    -0.00002273   -0.01568692    0.01748990
     atom    2 type  1   force =    -0.01358790    0.00781436    0.01749543
     atom    3 type  1   force =     0.01359066    0.00784252    0.01750035
     atom    4 type  2   force =     0.00002482    0.00001644   -0.05142433
     atom    5 type  1   force =    -0.00006348    0.01527205    0.00178604
     atom    6 type  1   force =     0.01319786   -0.00769887    0.00175721
     atom    7 type  1   force =    -0.01318846   -0.00762019    0.00186097
     atom    8 type  2   force =     0.00006805    0.00004659   -0.00993949
     atom    9 type  1   force =    -0.00003809   -0.00095511    0.00068693
     atom   10 type  1   force =    -0.00081865    0.00048596    0.00067704
     atom   11 type  1   force =     0.00078901    0.00051367    0.00066078
     atom   12 type  2   force =     0.00004891   -0.00003051    0.00144919

     Total force =     0.071513     Total SCF correction =     0.003553

     entering subroutine stress ...

     negative rho (up, down):  8.380E-02 8.385E-02
          total   stress  (Ry/bohr**3)                   (kbar)     P=  -51.91
  -0.00038344   0.00000001   0.00000001        -56.41      0.00      0.00
   0.00000001  -0.00038343  -0.00000001          0.00    -56.40     -0.00
   0.00000001  -0.00000001  -0.00029182          0.00     -0.00    -42.93

 !ASE

     Writing output data file calc.save

     General routines

     Parallel routines

   This run was terminated on:  16:25:12  27Dec2018

   JOB DONE.
Job  /afs/slac/g/suncat/bin/suncat-tsmpirun -x LD_LIBRARY_PATH -wdir /scratch/qe110293_A2sCG pw.x -in pw.inp

TID   HOST_NAME   COMMAND_LINE            STATUS            TERMINATION_TIME
00000 suncat0138 pw.x -in pw.inp   Done                     12/27/2018 16:25:12
00001 suncat0138 pw.x -in pw.inp   Done                     12/27/2018 16:25:12
00002 suncat0138 pw.x -in pw.inp   Done                     12/27/2018 16:25:12
00003 suncat0138 pw.x -in pw.inp   Done                     12/27/2018 16:25:12
00004 suncat0138 pw.x -in pw.inp   Done                     12/27/2018 16:25:12
00005 suncat0138 pw.x -in pw.inp   Done                     12/27/2018 16:25:12
00006 suncat0138 pw.x -in pw.inp   Done                     12/27/2018 16:25:12
00007 suncat0138 pw.x -in pw.inp   Done                     12/27/2018 16:25:12
00008 suncat0113 pw.x -in pw.inp   Done                     12/27/2018 16:25:12
00009 suncat0113 pw.x -in pw.inp   Done                     12/27/2018 16:25:12
00010 suncat0113 pw.x -in pw.inp   Done                     12/27/2018 16:25:12
00011 suncat0113 pw.x -in pw.inp   Done                     12/27/2018 16:25:12
00012 suncat0113 pw.x -in pw.inp   Done                     12/27/2018 16:25:12
00013 suncat0113 pw.x -in pw.inp   Done                     12/27/2018 16:25:12
00014 suncat0113 pw.x -in pw.inp   Done                     12/27/2018 16:25:12
00015 suncat0113 pw.x -in pw.inp   Done                     12/27/2018 16:25:12
00016 suncat0110 pw.x -in pw.inp   Done                     12/27/2018 16:25:12
00017 suncat0110 pw.x -in pw.inp   Done                     12/27/2018 16:25:12
00018 suncat0110 pw.x -in pw.inp   Done                     12/27/2018 16:25:12
00019 suncat0110 pw.x -in pw.inp   Done                     12/27/2018 16:25:12
00020 suncat0110 pw.x -in pw.inp   Done                     12/27/2018 16:25:12
00021 suncat0110 pw.x -in pw.inp   Done                     12/27/2018 16:25:12
00022 suncat0110 pw.x -in pw.inp   Done                     12/27/2018 16:25:12
00023 suncat0110 pw.x -in pw.inp   Done                     12/27/2018 16:25:12
00024 suncat0109 pw.x -in pw.inp   Done                     12/27/2018 16:25:12
00025 suncat0109 pw.x -in pw.inp   Done                     12/27/2018 16:25:12
00026 suncat0109 pw.x -in pw.inp   Done                     12/27/2018 16:25:12
00027 suncat0109 pw.x -in pw.inp   Done                     12/27/2018 16:25:12
00028 suncat0109 pw.x -in pw.inp   Done                     12/27/2018 16:25:12
00029 suncat0109 pw.x -in pw.inp   Done                     12/27/2018 16:25:12
00030 suncat0109 pw.x -in pw.inp   Done                     12/27/2018 16:25:12
00031 suncat0109 pw.x -in pw.inp   Done                     12/27/2018 16:25:12
00032 suncat0262 pw.x -in pw.inp   Done                     12/27/2018 16:25:12
00033 suncat0262 pw.x -in pw.inp   Done                     12/27/2018 16:25:12
00034 suncat0262 pw.x -in pw.inp   Done                     12/27/2018 16:25:12
00035 suncat0262 pw.x -in pw.inp   Done                     12/27/2018 16:25:12
00036 suncat0262 pw.x -in pw.inp   Done                     12/27/2018 16:25:12
00037 suncat0262 pw.x -in pw.inp   Done                     12/27/2018 16:25:12
00038 suncat0262 pw.x -in pw.inp   Done                     12/27/2018 16:25:12
00039 suncat0262 pw.x -in pw.inp   Done                     12/27/2018 16:25:12
00040 suncat0258 pw.x -in pw.inp   Done                     12/27/2018 16:25:12
00041 suncat0258 pw.x -in pw.inp   Done                     12/27/2018 16:25:12
00042 suncat0258 pw.x -in pw.inp   Done                     12/27/2018 16:25:12
00043 suncat0258 pw.x -in pw.inp   Done                     12/27/2018 16:25:12
00044 suncat0258 pw.x -in pw.inp   Done                     12/27/2018 16:25:12
00045 suncat0258 pw.x -in pw.inp   Done                     12/27/2018 16:25:12
00046 suncat0258 pw.x -in pw.inp   Done                     12/27/2018 16:25:12
00047 suncat0258 pw.x -in pw.inp   Done                     12/27/2018 16:25:12
00048 suncat0257 pw.x -in pw.inp   Done                     12/27/2018 16:25:12
00049 suncat0257 pw.x -in pw.inp   Done                     12/27/2018 16:25:12
00050 suncat0257 pw.x -in pw.inp   Done                     12/27/2018 16:25:12
00051 suncat0257 pw.x -in pw.inp   Done                     12/27/2018 16:25:12
00052 suncat0257 pw.x -in pw.inp   Done                     12/27/2018 16:25:12
00053 suncat0257 pw.x -in pw.inp   Done                     12/27/2018 16:25:12
00054 suncat0257 pw.x -in pw.inp   Done                     12/27/2018 16:25:12
00055 suncat0257 pw.x -in pw.inp   Done                     12/27/2018 16:25:12
00056 suncat0251 pw.x -in pw.inp   Done                     12/27/2018 16:25:12
00057 suncat0251 pw.x -in pw.inp   Done                     12/27/2018 16:25:12
00058 suncat0251 pw.x -in pw.inp   Done                     12/27/2018 16:25:12
00059 suncat0251 pw.x -in pw.inp   Done                     12/27/2018 16:25:12
00060 suncat0251 pw.x -in pw.inp   Done                     12/27/2018 16:25:12
00061 suncat0251 pw.x -in pw.inp   Done                     12/27/2018 16:25:12
00062 suncat0251 pw.x -in pw.inp   Done                     12/27/2018 16:25:12
00063 suncat0251 pw.x -in pw.inp   Done                     12/27/2018 16:25:12