     Program PWSCF v.5.1rc2 (svn rev. 11289) starts on 30Dec2018 at 13: 4: 9

     Current dimensions of program PWSCF are:
     Max number of different atomic species (ntypx) = 10
     Max number of k-points (npk) =  40000
     Max angular momentum in pseudopotentials (lmaxx) =  3
     Presently stress not available with electric field

     IMPORTANT: XC functional enforced from input :
     Exchange-correlation      = BEEF-VDW ( 1  4 27 13 2)
     Any further DFT definition will be discarded
     Please, verify this is what you really want

     Subspace diagonalization in iterative solution of the eigenvalue problem:
     a serial algorithm will be used

     Generating pointlists ...
     new r_m :   0.4125 (alat units)  0.7795 (a.u.) for type    1
     new r_m :   0.4125 (alat units)  0.7795 (a.u.) for type    2

     bravais-lattice index     =            0
     lattice parameter (alat)  =       1.8897  a.u.
     unit-cell volume          =    4293.5710 (a.u.)^3
     number of atoms/cell      =           12
     number of atomic types    =            2
     number of electrons       =       192.00
     number of Kohn-Sham states=          126
     kinetic-energy cutoff     =      36.7493  Ry
     charge density cutoff     =     367.4932  Ry
     convergence threshold     =      1.0E-06
     mixing beta               =       0.1000
     number of iterations used =           10  plain     mixing
     Exchange-correlation      = BEEF-VDW ( 1  4 27 13 2)
     nstep                     =           50

     celldm(1)=   1.889726  celldm(2)=   0.000000  celldm(3)=   0.000000
     celldm(4)=   0.000000  celldm(5)=   0.000000  celldm(6)=   0.000000

     crystal axes: (cart. coord. in units of alat)
               a(1) = (   5.478949   0.000000   0.000000 )
               a(2) = (  -2.739475   4.744909   0.000000 )
               a(3) = (   0.000000   0.000000  24.473543 )

     reciprocal axes: (cart. coord. in units 2 pi/alat)
               b(1) = (  0.182517  0.105376  0.000000 )
               b(2) = (  0.000000  0.210752  0.000000 )
               b(3) = (  0.000000  0.000000  0.040860 )

     PseudoPot. # 1 for Mn read from file:
     /afs/slac.stanford.edu/u/if/mamunm/psp/gbrv1.5pbe/Mn.UPF
     MD5 check sum: 82ef2b46521d7a7d9e736dc3972e4928
     Pseudo is Ultrasoft + core correction, Zval = 15.0
     Generated by new atomic code, or converted to UPF format
     Using radial grid of  859 points,  6 beta functions with:
                l(1) =   0
                l(2) =   0
                l(3) =   1
                l(4) =   1
                l(5) =   2
                l(6) =   2
     Q(r) pseudized with  8 coefficients,  rinner =    0.950   0.950   0.950
                                                       0.950   0.950

     PseudoPot. # 2 for Ag read from file:
     /afs/slac.stanford.edu/u/if/mamunm/psp/gbrv1.5pbe/Ag.UPF
     MD5 check sum: d66d668201baa78d5eb5b04ef7011058
     Pseudo is Ultrasoft + core correction, Zval = 19.0
     Generated by new atomic code, or converted to UPF format
     Using radial grid of  887 points,  6 beta functions with:
                l(1) =   0
                l(2) =   0
                l(3) =   1
                l(4) =   1
                l(5) =   2
                l(6) =   2
     Q(r) pseudized with  6 coefficients,  rinner =    1.300   1.300   1.300
                                                       1.300   1.300

     vdW kernel table read from file vdW_kernel_table
     MD5 check sum: 095c7af220d748ca6e76c0b4c6cfb241

     atomic species   valence    mass     pseudopotential
        Mn1           15.00    54.93804     Mn( 1.00)
        Ag1           19.00   107.86820     Ag( 1.00)

     Starting magnetic structure
     atomic species   magnetization
        Mn1          0.133
        Ag1          0.105

     No symmetry found

   Cartesian axes

     site n.     atom                  positions (alat units)
         1           Mn1 tau(   1) = (   0.0000000   0.0000000  10.0000000  )
         2           Mn1 tau(   2) = (  -1.3697373   2.3724546  10.0000000  )
         3           Mn1 tau(   3) = (   1.3697373   2.3724546  10.0000000  )
         4           Ag1 tau(   4) = (   2.7394746   0.0000000  10.0000000  )
         5           Mn1 tau(   5) = (   2.7394746   1.5816364  12.2367717  )
         6           Mn1 tau(   6) = (   1.3697373   3.9540911  12.2367717  )
         7           Mn1 tau(   7) = (  -1.3697373   3.9540911  12.2367717  )
         8           Ag1 tau(   8) = (   0.0000000   1.5816364  12.2367717  )
         9           Mn1 tau(   9) = (  -0.0000000   3.1632728  14.4735434  )
        10           Mn1 tau(  10) = (   1.3697373   0.7908182  14.4735434  )
        11           Mn1 tau(  11) = (   4.1092120   0.7908182  14.4735434  )
        12           Ag1 tau(  12) = (   2.7394746   3.1632728  14.4735434  )

     number of k points=    40  Fermi-Dirac smearing, width (Ry)=  0.0110
                       cart. coord. in units 2pi/alat
        k(    1) = (   0.0000000   0.0000000   0.0000000), wk =   0.0277778
        k(    2) = (   0.0000000   0.0351254   0.0000000), wk =   0.0555556
        k(    3) = (   0.0000000   0.0702507   0.0000000), wk =   0.0555556
        k(    4) = (   0.0000000  -0.1053761   0.0000000), wk =   0.0277778
        k(    5) = (   0.0304195   0.0175627   0.0000000), wk =   0.0555556
        k(    6) = (   0.0304195   0.0526880   0.0000000), wk =   0.0555556
        k(    7) = (   0.0304195   0.0878134   0.0000000), wk =   0.0555556
        k(    8) = (   0.0304195  -0.0878134   0.0000000), wk =   0.0555556
        k(    9) = (   0.0304195  -0.0526880   0.0000000), wk =   0.0555556
        k(   10) = (   0.0304195  -0.0175627   0.0000000), wk =   0.0555556
        k(   11) = (   0.0608389   0.0351254   0.0000000), wk =   0.0555556
        k(   12) = (   0.0608389   0.0702507   0.0000000), wk =   0.0555556
        k(   13) = (   0.0608389   0.1053761   0.0000000), wk =   0.0555556
        k(   14) = (   0.0608389  -0.0702507   0.0000000), wk =   0.0555556
        k(   15) = (   0.0608389  -0.0351254   0.0000000), wk =   0.0555556
        k(   16) = (   0.0608389   0.0000000   0.0000000), wk =   0.0555556
        k(   17) = (  -0.0912584  -0.0526880   0.0000000), wk =   0.0277778
        k(   18) = (  -0.0912584  -0.0175627   0.0000000), wk =   0.0555556
        k(   19) = (  -0.0912584   0.0175627   0.0000000), wk =   0.0555556
        k(   20) = (  -0.0912584  -0.1580641   0.0000000), wk =   0.0277778
        k(   21) = (   0.0000000   0.0000000   0.0000000), wk =   0.0277778
        k(   22) = (   0.0000000   0.0351254   0.0000000), wk =   0.0555556
        k(   23) = (   0.0000000   0.0702507   0.0000000), wk =   0.0555556
        k(   24) = (   0.0000000  -0.1053761   0.0000000), wk =   0.0277778
        k(   25) = (   0.0304195   0.0175627   0.0000000), wk =   0.0555556
        k(   26) = (   0.0304195   0.0526880   0.0000000), wk =   0.0555556
        k(   27) = (   0.0304195   0.0878134   0.0000000), wk =   0.0555556
        k(   28) = (   0.0304195  -0.0878134   0.0000000), wk =   0.0555556
        k(   29) = (   0.0304195  -0.0526880   0.0000000), wk =   0.0555556
        k(   30) = (   0.0304195  -0.0175627   0.0000000), wk =   0.0555556
        k(   31) = (   0.0608389   0.0351254   0.0000000), wk =   0.0555556
        k(   32) = (   0.0608389   0.0702507   0.0000000), wk =   0.0555556
        k(   33) = (   0.0608389   0.1053761   0.0000000), wk =   0.0555556
        k(   34) = (   0.0608389  -0.0702507   0.0000000), wk =   0.0555556
        k(   35) = (   0.0608389  -0.0351254   0.0000000), wk =   0.0555556
        k(   36) = (   0.0608389   0.0000000   0.0000000), wk =   0.0555556
        k(   37) = (  -0.0912584  -0.0526880   0.0000000), wk =   0.0277778
        k(   38) = (  -0.0912584  -0.0175627   0.0000000), wk =   0.0555556
        k(   39) = (  -0.0912584   0.0175627   0.0000000), wk =   0.0555556
        k(   40) = (  -0.0912584  -0.1580641   0.0000000), wk =   0.0277778

     Largest allocated arrays     est. size (Mb)     dimensions
     Largest temporary arrays     est. size (Mb)     dimensions

     Check: negative/imaginary core charge=   -0.000008    0.000000

     Initial potential from superposition of free atoms
     Check: negative starting charge=(component1):   -0.001702
     Check: negative starting charge=(component2):   -0.001311

     starting charge  185.99909, renormalised to  192.00000

     negative rho (up, down):  1.757E-03 1.354E-03

     *
     * You are using vdW-DF for exchange-correlation in this calculation.
     * Please cite the following three references that made this development
     * possible:
     *
     *   M. Dion, H. Rydberg, E. Schroder, D. C. Langreth, and
     *   B. I. Lundqvist, Phys. Rev. Lett. 92, 246401 (2004).
     *
     *   T. Thonhauser, V. R. Cooper, S. Li, A. Puzder, P. Hyldgaard, and
     *   D. C. Langreth, Phys. Rev. B 76, 125112 (2007).
     *
     *   G. Roman-Perez and J. M. Soler, Phys. Rev. Lett. 103, 096102 (2009).
     *
     *
     * If you are using vdW-DF2, please also cite:
     *
     *   K. Lee, E. D. Murray, L. Kong, B. I. Lundqvist, and
     *   D. C. Langreth, Phys. Rev. B 82, 081101(R) (2010).
     *
     *
     * If you are calculating the stress with vdW-DF, please also cite:
     *
     *   R. Sabatini, E. Kucukbenli, B. Kolb, T. Thonhauser, and
     *   S. de Gironcoli, J. Phys.: Condens. Matter 24, 424209 (2012).
     *

     Carrying out vdW-DF run using the following parameters:

     Nqs =      20    Nr_points =    1024   r_max =   100.000
     q_mesh =
               0.00001000     0.04494208     0.09755937     0.15916263
               0.23128650     0.31572767     0.41458969     0.53033537
               0.66584808     0.82450364     1.01025438     1.22772762
               1.48234092     1.78043706     2.12944203     2.53805004
               3.01644009     3.57652955     4.23227104     5.00000000

     Gradients computed in reciprocal space

     Adding external electric field

     Computed dipole along edir(3) :
        Dipole                0.0000 Ry au,          0.0000 Debye
        Dipole field          0.0000 Ry au

        Potential amp.       -0.0000 Ry
        Total length         45.0921 bohr

[...]

     Starting wfc are  156 randomized atomic wfcs

     Self-consistent Calculation

     iteration #  1     ecut=    36.75 Ry     beta=0.10
     Davidson diagonalization with overlap
     ethr =  1.00E-02,  avg # of iterations =  7.8

[...]

     Magnetic moment per site:
     atom:    1    charge:    6.1077    magn:    0.8016    constr:    0.0000
     atom:    2    charge:    6.1077    magn:    0.8016    constr:    0.0000
     atom:    3    charge:    6.1077    magn:    0.8016    constr:    0.0000
     atom:    4    charge:    5.1204    magn:    0.5147    constr:    0.0000
     atom:    5    charge:    6.1007    magn:    0.7932    constr:    0.0000
     atom:    6    charge:    6.1007    magn:    0.7932    constr:    0.0000
     atom:    7    charge:    6.1007    magn:    0.7932    constr:    0.0000
     atom:    8    charge:    5.1156    magn:    0.5109    constr:    0.0000
[...]
        k(    4) = (   0.0000000  -0.1053761   0.0000000), wk =   0.0277778
        k(    5) = (   0.0304195   0.0175627   0.0000000), wk =   0.0555556
        k(    6) = (   0.0304195   0.0526880   0.0000000), wk =   0.0555556
        k(    7) = (   0.0304195   0.0878134   0.0000000), wk =   0.0555556
        k(    8) = (   0.0304195  -0.0878134   0.0000000), wk =   0.0555556
        k(    9) = (   0.0304195  -0.0526880   0.0000000), wk =   0.0555556
        k(   10) = (   0.0304195  -0.0175627   0.0000000), wk =   0.0555556
        k(   11) = (   0.0608389   0.0351254   0.0000000), wk =   0.0555556
        k(   12) = (   0.0608389   0.0702507   0.0000000), wk =   0.0555556
        k(   13) = (   0.0608389   0.1053761   0.0000000), wk =   0.0555556
        k(   14) = (   0.0608389  -0.0702507   0.0000000), wk =   0.0555556
        k(   15) = (   0.0608389  -0.0351254   0.0000000), wk =   0.0555556
        k(   16) = (   0.0608389   0.0000000   0.0000000), wk =   0.0555556
        k(   17) = (  -0.0912584  -0.0526880   0.0000000), wk =   0.0277778
        k(   18) = (  -0.0912584  -0.0175627   0.0000000), wk =   0.0555556
        k(   19) = (  -0.0912584   0.0175627   0.0000000), wk =   0.0555556
        k(   20) = (  -0.0912584  -0.1580641   0.0000000), wk =   0.0277778
        k(   21) = (   0.0000000   0.0000000   0.0000000), wk =   0.0277778
        k(   22) = (   0.0000000   0.0351254   0.0000000), wk =   0.0555556
        k(   23) = (   0.0000000   0.0702507   0.0000000), wk =   0.0555556
        k(   24) = (   0.0000000  -0.1053761   0.0000000), wk =   0.0277778
        k(   25) = (   0.0304195   0.0175627   0.0000000), wk =   0.0555556
        k(   26) = (   0.0304195   0.0526880   0.0000000), wk =   0.0555556
        k(   27) = (   0.0304195   0.0878134   0.0000000), wk =   0.0555556
        k(   28) = (   0.0304195  -0.0878134   0.0000000), wk =   0.0555556
        k(   29) = (   0.0304195  -0.0526880   0.0000000), wk =   0.0555556
        k(   30) = (   0.0304195  -0.0175627   0.0000000), wk =   0.0555556
        k(   31) = (   0.0608389   0.0351254   0.0000000), wk =   0.0555556
        k(   32) = (   0.0608389   0.0702507   0.0000000), wk =   0.0555556
        k(   33) = (   0.0608389   0.1053761   0.0000000), wk =   0.0555556
        k(   34) = (   0.0608389  -0.0702507   0.0000000), wk =   0.0555556
        k(   35) = (   0.0608389  -0.0351254   0.0000000), wk =   0.0555556
        k(   36) = (   0.0608389   0.0000000   0.0000000), wk =   0.0555556
        k(   37) = (  -0.0912584  -0.0526880   0.0000000), wk =   0.0277778
        k(   38) = (  -0.0912584  -0.0175627   0.0000000), wk =   0.0555556
        k(   39) = (  -0.0912584   0.0175627   0.0000000), wk =   0.0555556
        k(   40) = (  -0.0912584  -0.1580641   0.0000000), wk =   0.0277778

     Largest allocated arrays     est. size (Mb)     dimensions
     Largest temporary arrays     est. size (Mb)     dimensions

     Check: negative/imaginary core charge=   -0.000008    0.000000

     Initial potential from superposition of free atoms
     Check: negative starting charge=(component1):   -0.001638
     Check: negative starting charge=(component2):   -0.001263

     starting charge  185.99909, renormalised to  192.00000

[...]

     *
     * You are using vdW-DF for exchange-correlation in this calculation.
     * Please cite the following three references that made this development
     * possible:
     *
     *   M. Dion, H. Rydberg, E. Schroder, D. C. Langreth, and
     *   B. I. Lundqvist, Phys. Rev. Lett. 92, 246401 (2004).
     *
     *   T. Thonhauser, V. R. Cooper, S. Li, A. Puzder, P. Hyldgaard, and
     *   D. C. Langreth, Phys. Rev. B 76, 125112 (2007).
     *
     *   G. Roman-Perez and J. M. Soler, Phys. Rev. Lett. 103, 096102 (2009).
     *
     *
     * If you are using vdW-DF2, please also cite:
     *
     *   K. Lee, E. D. Murray, L. Kong, B. I. Lundqvist, and
     *   D. C. Langreth, Phys. Rev. B 82, 081101(R) (2010).
     *
     *
     * If you are calculating the stress with vdW-DF, please also cite:
     *
     *   R. Sabatini, E. Kucukbenli, B. Kolb, T. Thonhauser, and
     *   S. de Gironcoli, J. Phys.: Condens. Matter 24, 424209 (2012).
     *

     Carrying out vdW-DF run using the following parameters:

     Nqs =      20    Nr_points =    1024   r_max =   100.000
     q_mesh =
               0.00001000     0.04494208     0.09755937     0.15916263
               0.23128650     0.31572767     0.41458969     0.53033537
               0.66584808     0.82450364     1.01025438     1.22772762
               1.48234092     1.78043706     2.12944203     2.53805004
               3.01644009     3.57652955     4.23227104     5.00000000

     Gradients computed in reciprocal space

[...]

     Starting wfc are  156 randomized atomic wfcs

     Self-consistent Calculation

[...]

     total energy              =   -2798.69044401 Ry
     Harris-Foulkes estimate   =   -2798.69044117 Ry
     estimated scf accuracy    <       0.00000229 Ry

[...]

     iteration # 29     ecut=    36.75 Ry     beta=0.10
     Davidson diagonalization with overlap
     ethr =  1.19E-09,  avg # of iterations =  2.3

[...]

     negative rho (up, down):  1.870E-03 1.666E-03

[...]

     Adding external electric field

     Computed dipole along edir(3) :
        Dipole               -0.0215 Ry au,         -0.0546 Debye
        Dipole field         -0.0001 Ry au

        Potential amp.        0.0057 Ry
        Total length         45.0921 bohr

     Magnetic moment per site:
     atom:    1    charge:    6.0140    magn:    1.4821    constr:    0.0000
     atom:    2    charge:    6.0140    magn:    1.4821    constr:    0.0000
     atom:    3    charge:    6.0140    magn:    1.4821    constr:    0.0000
     atom:    4    charge:    5.0820    magn:    0.0311    constr:    0.0000
     atom:    5    charge:    6.0036    magn:    1.4175    constr:    0.0000
     atom:    6    charge:    6.0036    magn:    1.4175    constr:    0.0000
     atom:    7    charge:    6.0036    magn:    1.4175    constr:    0.0000
     atom:    8    charge:    5.0753    magn:    0.0385    constr:    0.0000
     atom:    9    charge:    6.0181    magn:    1.4985    constr:    0.0000
     atom:   10    charge:    6.0181    magn:    1.4985    constr:    0.0000
     atom:   11    charge:    6.0181    magn:    1.4985    constr:    0.0000
     atom:   12    charge:    5.0854    magn:    0.0294    constr:    0.0000

     End of self-consistent calculation

 ------ SPIN UP ------------

[...]

 ------ SPIN DOWN ----------

[...]

          k = 0.0608 0.0000 0.0000 ( 16168 PWs)   bands (ev):

[...]

          k =-0.0913-0.1581 0.0000 ( 16164 PWs)   bands (ev):

   -91.4799 -91.2730 -91.1632 -75.6210 -75.6125 -75.6060 -75.6046 -75.5980
   -75.5897 -75.5033 -75.4955 -75.4878 -54.9546 -54.9544 -54.9388 -54.7697
   -54.7695 -54.7090 -54.6694 -54.6692 -54.5768 -44.5079 -44.4948 -44.4468
   -44.4394 -44.4360 -44.4288 -44.4219 -44.4210 -44.4208 -44.4203 -44.4143
   -44.4126 -44.4120 -44.4020 -44.3972 -44.3935 -44.3729 -44.3435 -44.3318
   -44.3160 -44.3118 -44.3068 -44.3000 -44.2713 -44.2573 -44.2470 -44.2038
    -4.4868  -4.2607  -4.1518  -4.1459  -4.1153  -4.0042  -3.9288  -3.8057
    -3.7863  -3.7574  -3.6601  -3.6379  -3.6193  -3.5061  -3.3519  -3.2978
    -3.0949  -2.1427  -1.9223  -1.0457  -0.7327  -0.5517   0.1560   0.2996
     0.6641   0.6754   0.9338   0.9774   1.0554   1.1660   1.2716   1.2963
     1.3945   1.4681   1.5120   1.7425   1.7535   1.8193   1.9485   2.0257
     2.0973   2.2259   2.3000   2.3849   2.4792   2.5293   2.6042   2.6848
     2.7687   3.1222   3.2113   3.2250   3.2552   3.2607   3.2836   3.2924
     3.3162   3.4134   3.4799   3.5476   3.7066   3.9106   3.9770   4.0170
     4.1525   4.1660   4.3068   4.6575   5.1946   5.2425   5.3296   5.4766
     6.1879   6.3924   6.4956   6.5074   6.9994   7.0374

     the Fermi energy is     1.2808 ev

!    total energy              =   -2798.69045379 Ry
     Harris-Foulkes estimate   =   -2798.69044422 Ry
     estimated scf accuracy    <       0.00000087 Ry

     The total energy is the sum of the following terms:

     one-electron contribution =  -21808.08833144 Ry
     hartree contribution      =   10899.06050108 Ry
     xc contribution           =    -339.42137836 Ry
     ewald contribution        =    8449.83559485 Ry
     electric field correction =       0.00000135 Ry
     smearing contrib. (-TS)   =      -0.07684127 Ry

     total magnetization       =    34.62 Bohr mag/cell
     absolute magnetization    =    35.41 Bohr mag/cell

     convergence has been achieved in  29 iterations

 BEEF-vdW xc energy contributions
           1 :   -295.886253438635
           2 :    267.332751716230
           3 :   -220.032862021077
           4 :    168.308475391687
           5 :   -124.275133383693
           6 :    93.6945502810039
           7 :   -75.8585254737378
           8 :    66.2488637071507
           9 :   -59.7826501301590
          10 :    53.0220869552697
          11 :   -44.8352418304419
          12 :    35.8600422071878
          13 :   -27.5075869832435
          14 :    21.0613744721580
          15 :   -17.0813613893620
          16 :    15.1677928732794
          17 :   -14.1865727402620
          18 :    12.9194049858800
          19 :   -10.7867094682711
          20 :    8.13945022033482
          21 :   -5.90888160368638
          22 :    4.87545175422287
          23 :   -5.09120528248235
          24 :    5.84980781440260
          25 :   -6.19958706420061
          26 :    5.60251960492820
          27 :   -4.26088538379668
          28 :    2.90192526579256
          29 :   -2.22917317574922
          30 :    2.45710598154022
          31 :   -27.2860300113297
          32 :   -19.4279698121669

     Forces acting on atoms (Ry/au):

     negative rho (up, down):  1.870E-03 1.666E-03
     atom    1 type  1   force =    -0.00000215   -0.00516660   -0.01166763
     atom    2 type  1   force =    -0.00447385    0.00258520   -0.01166427
     atom    3 type  1   force =     0.00447110    0.00258635   -0.01167114
     atom    4 type  2   force =     0.00000176   -0.00000472   -0.02403264
     atom    5 type  1   force =    -0.00000152    0.00377394    0.01390075
     atom    6 type  1   force =     0.00327014   -0.00188671    0.01389063
     atom    7 type  1   force =    -0.00327020   -0.00188511    0.01388236
     atom    8 type  2   force =     0.00000207   -0.00000491    0.01628061
     atom    9 type  1   force =     0.00000976   -0.00023907    0.00063902
     atom   10 type  1   force =    -0.00017087    0.00014537    0.00065104
     atom   11 type  1   force =     0.00017720    0.00013670    0.00065862
     atom   12 type  2   force =    -0.00001344   -0.00004044   -0.00086736

     Total force =     0.044215     Total SCF correction =     0.003696

     entering subroutine stress ...

     negative rho (up, down):  1.870E-03 1.666E-03
          total   stress  (Ry/bohr**3)                   (kbar)     P=   13.45
   0.00011372  -0.00000000   0.00000000         16.73     -0.00      0.00
  -0.00000000   0.00011372  -0.00000000         -0.00     16.73     -0.00
   0.00000000  -0.00000000   0.00004687          0.00     -0.00      6.90

 !ASE

     Writing output data file calc.save

     General routines

     Parallel routines

   This run was terminated on:  18:32:45  30Dec2018

   JOB DONE.
Job  /afs/slac/g/suncat/bin/suncat-tsmpirun -x LD_LIBRARY_PATH -wdir /scratch/qe648562_Ym7c3 pw.x -in pw.inp

TID   HOST_NAME   COMMAND_LINE            STATUS            TERMINATION_TIME
00000 suncat0146 pw.x -in pw.inp   Done                     12/30/2018 18:32:45
00001 suncat0146 pw.x -in pw.inp   Done                     12/30/2018 18:32:45
00002 suncat0146 pw.x -in pw.inp   Done                     12/30/2018 18:32:45
00003 suncat0146 pw.x -in pw.inp   Done                     12/30/2018 18:32:45
00004 suncat0146 pw.x -in pw.inp   Done                     12/30/2018 18:32:45
00005 suncat0146 pw.x -in pw.inp   Done                     12/30/2018 18:32:45
00006 suncat0146 pw.x -in pw.inp   Done                     12/30/2018 18:32:45
00007 suncat0146 pw.x -in pw.inp   Done                     12/30/2018 18:32:45
00008 suncat0136 pw.x -in pw.inp   Done                     12/30/2018 18:32:45
00009 suncat0136 pw.x -in pw.inp   Done                     12/30/2018 18:32:45
00010 suncat0136 pw.x -in pw.inp   Done                     12/30/2018 18:32:45
00011 suncat0136 pw.x -in pw.inp   Done                     12/30/2018 18:32:45
00012 suncat0136 pw.x -in pw.inp   Done                     12/30/2018 18:32:45
00013 suncat0136 pw.x -in pw.inp   Done                     12/30/2018 18:32:45
00014 suncat0136 pw.x -in pw.inp   Done                     12/30/2018 18:32:45
00015 suncat0136 pw.x -in pw.inp   Done                     12/30/2018 18:32:45
00016 suncat0248 pw.x -in pw.inp   Done                     12/30/2018 18:32:45
00017 suncat0248 pw.x -in pw.inp   Done                     12/30/2018 18:32:45
00018 suncat0248 pw.x -in pw.inp   Done                     12/30/2018 18:32:45
00019 suncat0248 pw.x -in pw.inp   Done                     12/30/2018 18:32:45
00020 suncat0248 pw.x -in pw.inp   Done                     12/30/2018 18:32:45
00021 suncat0248 pw.x -in pw.inp   Done                     12/30/2018 18:32:45
00022 suncat0248 pw.x -in pw.inp   Done                     12/30/2018 18:32:45
00023 suncat0248 pw.x -in pw.inp   Done                     12/30/2018 18:32:45
00024 suncat0247 pw.x -in pw.inp   Done                     12/30/2018 18:32:45
00025 suncat0247 pw.x -in pw.inp   Done                     12/30/2018 18:32:45
00026 suncat0247 pw.x -in pw.inp   Done                     12/30/2018 18:32:45
00027 suncat0247 pw.x -in pw.inp   Done                     12/30/2018 18:32:45
00028 suncat0247 pw.x -in pw.inp   Done                     12/30/2018 18:32:45
00029 suncat0247 pw.x -in pw.inp   Done                     12/30/2018 18:32:45
00030 suncat0247 pw.x -in pw.inp   Done                     12/30/2018 18:32:45
00031 suncat0247 pw.x -in pw.inp   Done                     12/30/2018 18:32:45
00032 suncat0246 pw.x -in pw.inp   Done                     12/30/2018 18:32:45
00033 suncat0246 pw.x -in pw.inp   Done                     12/30/2018 18:32:45
00034 suncat0246 pw.x -in pw.inp   Done                     12/30/2018 18:32:45
00035 suncat0246 pw.x -in pw.inp   Done                     12/30/2018 18:32:45
00036 suncat0246 pw.x -in pw.inp   Done                     12/30/2018 18:32:45
00037 suncat0246 pw.x -in pw.inp   Done                     12/30/2018 18:32:45
00038 suncat0246 pw.x -in pw.inp   Done                     12/30/2018 18:32:45
00039 suncat0246 pw.x -in pw.inp   Done                     12/30/2018 18:32:45
00040 suncat0245 pw.x -in pw.inp   Done                     12/30/2018 18:32:45
00041 suncat0245 pw.x -in pw.inp   Done                     12/30/2018 18:32:45
00042 suncat0245 pw.x -in pw.inp   Done                     12/30/2018 18:32:45
00043 suncat0245 pw.x -in pw.inp   Done                     12/30/2018 18:32:45
00044 suncat0245 pw.x -in pw.inp   Done                     12/30/2018 18:32:45
00045 suncat0245 pw.x -in pw.inp   Done                     12/30/2018 18:32:45
00046 suncat0245 pw.x -in pw.inp   Done                     12/30/2018 18:32:45
00047 suncat0245 pw.x -in pw.inp   Done                     12/30/2018 18:32:45
00048 suncat0214 pw.x -in pw.inp   Done                     12/30/2018 18:32:45
00049 suncat0214 pw.x -in pw.inp   Done                     12/30/2018 18:32:45
00050 suncat0214 pw.x -in pw.inp   Done                     12/30/2018 18:32:45
00051 suncat0214 pw.x -in pw.inp   Done                     12/30/2018 18:32:45
00052 suncat0214 pw.x -in pw.inp   Done                     12/30/2018 18:32:45
00053 suncat0214 pw.x -in pw.inp   Done                     12/30/2018 18:32:45
00054 suncat0214 pw.x -in pw.inp   Done                     12/30/2018 18:32:45
00055 suncat0214 pw.x -in pw.inp   Done                     12/30/2018 18:32:45
00056 suncat0213 pw.x -in pw.inp   Done                     12/30/2018 18:32:45
00057 suncat0213 pw.x -in pw.inp   Done                     12/30/2018 18:32:45
00058 suncat0213 pw.x -in pw.inp   Done                     12/30/2018 18:32:45
00059 suncat0213 pw.x -in pw.inp   Done                     12/30/2018 18:32:45
00060 suncat0213 pw.x -in pw.inp   Done                     12/30/2018 18:32:45
00061 suncat0213 pw.x -in pw.inp   Done                     12/30/2018 18:32:45
00062 suncat0213 pw.x -in pw.inp   Done                     12/30/2018 18:32:45
00063 suncat0213 pw.x -in pw.inp   Done                     12/30/2018 18:32:45