     Program PWSCF v.5.1rc2 (svn rev. 11289) starts on 26Dec2018 at  2:56:47

     Current dimensions of program PWSCF are:
     Max number of different atomic species (ntypx) = 10
     Max number of k-points (npk) =  40000
     Max angular momentum in pseudopotentials (lmaxx) =  3
     Presently stress not available with electric field

     IMPORTANT: XC functional enforced from input :
     Exchange-correlation      = BEEF-VDW ( 1  4 27 13 2)
     Any further DFT definition will be discarded
     Please, verify this is what you really want

     Subspace diagonalization in iterative solution of the eigenvalue problem:
     a serial algorithm will be used

     bravais-lattice index     =            0
     lattice parameter (alat)  =       1.8897  a.u.
     unit-cell volume          =    4552.8854 (a.u.)^3
     number of atoms/cell      =           12
     number of atomic types    =            2
     number of electrons       =       216.00
     number of Kohn-Sham states=          138
     kinetic-energy cutoff     =      36.7493  Ry
     charge density cutoff     =     367.4932  Ry
     convergence threshold     =      1.0E-06
     mixing beta               =       0.1000
     number of iterations used =           10  plain     mixing
     Exchange-correlation      = BEEF-VDW ( 1  4 27 13 2)
     nstep                     =           50

     celldm(1)=   1.889726  celldm(2)=   0.000000  celldm(3)=   0.000000
     celldm(4)=   0.000000  celldm(5)=   0.000000  celldm(6)=   0.000000

     crystal axes: (cart. coord. in units of alat)
               a(1) = (   5.628001   0.000000   0.000000 )
               a(2) = (  -2.814001   4.873992   0.000000 )
               a(3) = (   0.000000   0.000000  24.595244 )

     reciprocal axes: (cart. coord. in units 2 pi/alat)
               b(1) = (  0.177683  0.102585  0.000000 )
               b(2) = (  0.000000  0.205171  0.000000 )
               b(3) = (  0.000000  0.000000  0.040658 )

     PseudoPot. # 1 for Ga read from file:
     /afs/slac.stanford.edu/u/if/mamunm/psp/gbrv1.5pbe/Ga.UPF
     MD5 check sum: ccd671392a58a050fbb373893b4fcd66
     Pseudo is Ultrasoft + core correction, Zval = 19.0
     Generated by new atomic code, or converted to UPF format
     Using radial grid of  871 points,  6 beta functions with:
                l(1) =   0
                l(2) =   0
                l(3) =   1
                l(4) =   1
                l(5) =   2
                l(6) =   2
     Q(r) pseudized with  8 coefficients,  rinner =    1.250   1.250   1.250
                                                       1.250   1.250

     PseudoPot. # 2 for Rh read from file:
     /afs/slac.stanford.edu/u/if/mamunm/psp/gbrv1.5pbe/Rh.UPF
     MD5 check sum: 761627e959a2e3a1f56b0b5fe687810e
     Pseudo is Ultrasoft + core correction, Zval = 15.0
     Generated by new atomic code, or converted to UPF format
     Using radial grid of  969 points,  7 beta functions with:
                l(1) =   0
                l(2) =   0
                l(3) =   1
                l(4) =   1
                l(5) =   2
                l(6) =   2
                l(7) =   2
     Q(r) pseudized with  8 coefficients,  rinner =    1.200   1.200   1.200
                                                       1.200   1.200

     vdW kernel table read from file vdW_kernel_table
     MD5 check sum: 095c7af220d748ca6e76c0b4c6cfb241

     atomic species   valence    mass     pseudopotential
        Ga1           19.00    69.72300     Ga( 1.00)
        Rh1           15.00   102.90550     Rh( 1.00)

     No symmetry found

   Cartesian axes

     site n.     atom                  positions (alat units)
         1           Ga1 tau(   1) = (   0.0000000   0.0000000  10.0000000  )
         2           Ga1 tau(   2) = (  -1.4070003   2.4369960  10.0000000  )
         3           Ga1 tau(   3) = (   1.4070003   2.4369960  10.0000000  )
         4           Rh1 tau(   4) = (   2.8140006   0.0000000  10.0000000  )
         5           Ga1 tau(   5) = (   2.8140006   1.6246640  12.2976218  )
         6           Ga1 tau(   6) = (   1.4070003   4.0616600  12.2976218  )
         7           Ga1 tau(   7) = (  -1.4070003   4.0616600  12.2976218  )
         8           Rh1 tau(   8) = (   0.0000000   1.6246640  12.2976218  )
         9           Ga1 tau(   9) = (  -0.0000000   3.2493280  14.5952437  )
        10           Ga1 tau(  10) = (   1.4070003   0.8123320  14.5952437  )
        11           Ga1 tau(  11) = (   4.2210009   0.8123320  14.5952437  )
        12           Rh1 tau(  12) = (   2.8140006   3.2493280  14.5952437  )

     number of k points=    20  Fermi-Dirac smearing, width (Ry)=  0.0110
                       cart. coord. in units 2pi/alat
        k(    1) = (   0.0000000   0.0000000   0.0000000), wk =   0.0555556
        k(    2) = (   0.0000000   0.0341951   0.0000000), wk =   0.1111111
        k(    3) = (   0.0000000   0.0683902   0.0000000), wk =   0.1111111
        k(    4) = (   0.0000000  -0.1025853   0.0000000), wk =   0.0555556
        k(    5) = (   0.0296138   0.0170976   0.0000000), wk =   0.1111111
        k(    6) = (   0.0296138   0.0512927   0.0000000), wk =   0.1111111
        k(    7) = (   0.0296138   0.0854878   0.0000000), wk =   0.1111111
        k(    8) = (   0.0296138  -0.0854878   0.0000000), wk =   0.1111111
        k(    9) = (   0.0296138  -0.0512927   0.0000000), wk =   0.1111111
        k(   10) = (   0.0296138  -0.0170976   0.0000000), wk =   0.1111111
        k(   11) = (   0.0592277   0.0341951   0.0000000), wk =   0.1111111
        k(   12) = (   0.0592277   0.0683902   0.0000000), wk =   0.1111111
        k(   13) = (   0.0592277   0.1025853   0.0000000), wk =   0.1111111
        k(   14) = (   0.0592277  -0.0683902   0.0000000), wk =   0.1111111
        k(   15) = (   0.0592277  -0.0341951   0.0000000), wk =   0.1111111
        k(   16) = (   0.0592277   0.0000000   0.0000000), wk =   0.1111111
        k(   17) = (  -0.0888415  -0.0512927   0.0000000), wk =   0.0555556
        k(   18) = (  -0.0888415  -0.0170976   0.0000000), wk =   0.1111111
        k(   19) = (  -0.0888415   0.0170976   0.0000000), wk =   0.1111111
        k(   20) = (  -0.0888415  -0.1538780   0.0000000), wk =   0.0555556

     Largest allocated arrays     est. size (Mb)     dimensions
     Largest temporary arrays     est. size (Mb)     dimensions

     Initial potential from superposition of free atoms
     Check: negative starting charge=   -0.165104

     starting charge  205.49970, renormalised to  216.00000

     negative rho (up, down):  1.735E-01 0.000E+00

     *
     * You are using vdW-DF for exchange-correlation in this calculation.
     * Please cite the following three references that made this development
     * possible:
     *
     *   M. Dion, H. Rydberg, E. Schroder, D. C. Langreth, and
     *   B. I. Lundqvist, Phys. Rev. Lett. 92, 246401 (2004).
     *
     *   T. Thonhauser, V. R. Cooper, S. Li, A. Puzder, P. Hyldgaard, and
     *   D. C. Langreth, Phys. Rev. B 76, 125112 (2007).
     *
     *   G. Roman-Perez and J. M. Soler, Phys. Rev. Lett. 103, 096102 (2009).
     *
     *
     * If you are using vdW-DF2, please also cite:
     *
     *   K. Lee, E. D. Murray, L. Kong, B. I. Lundqvist, and
     *   D. C. Langreth, Phys. Rev. B 82, 081101(R) (2010).
     *
     *
     * If you are calculating the stress with vdW-DF, please also cite:
     *
     *   R. Sabatini, E. Kucukbenli, B. Kolb, T. Thonhauser, and
     *   S. de Gironcoli, J. Phys.: Condens. Matter 24, 424209 (2012).
     *

     Carrying out vdW-DF run using the following parameters:

     Nqs =      20    Nr_points =    1024   r_max =   100.000
     q_mesh =
               0.00001000     0.04494208     0.09755937     0.15916263
               0.23128650     0.31572767     0.41458969     0.53033537
               0.66584808     0.82450364     1.01025438     1.22772762
               1.48234092     1.78043706     2.12944203     2.53805004
               3.01644009     3.57652955     4.23227104     5.00000000

     Gradients computed in reciprocal space

     Adding external electric field

     Computed dipole along edir(3) :
        Dipole               -0.0000 Ry au,         -0.0000 Debye
        Dipole field         -0.0000 Ry au

        Potential amp.        0.0000 Ry
        Total length         45.3163 bohr

     Starting wfc are  144 randomized atomic wfcs

     Self-consistent Calculation

     iteration #  1     ecut=    36.75 Ry     beta=0.10
     Davidson diagonalization with overlap
     ethr =  1.00E-02,  avg # of iterations =  7.2

[...]

     total energy              =   -4264.46719695 Ry
     Harris-Foulkes estimate   =   -4281.47233429 Ry
     estimated scf accuracy    <      95.89174663 Ry

[...]

     End of self-consistent calculation

          k = 0.0000 0.0000 0.0000 ( 17111 PWs)   bands (ev):

   -94.2703 -94.2669 -94.2669 -94.2346 -94.2328 -94.2328 -94.2252 -94.2251
   -94.2234 -94.1137 -94.1136 -94.1124 -94.1124 -94.1123 -94.1123 -94.0939
   -94.0938 -94.0900 -94.0900 -94.0898 -94.0898 -94.0573 -94.0573 -94.0571
   -94.0571 -94.0555 -94.0553 -45.4506 -45.4506 -45.3405 -45.2299 -45.2299
   -45.2297 -45.2297 -44.9310 -44.9307 -14.8530 -14.8010 -14.8009 -14.8007
   -14.6937 -14.6839 -14.6839 -14.6721 -14.6629 -14.6494 -14.6494 -14.5915
   -14.5887 -14.5887 -14.5618 -14.5618 -14.5563 -14.5181 -14.5181 -14.5093
   -14.5093 -14.4926 -14.4811 -14.4656 -14.4656 -14.4505 -14.3776 -14.3776
   -14.3683 -14.3683 -14.3592 -14.3581 -14.3541 -14.3541 -14.3477 -14.3477
   -14.3264 -14.3264 -14.3116 -14.3116 -14.2931 -14.2691 -14.2691 -14.1846
   -14.1837 -10.1805  -8.4101  -6.1701  -5.0311  -5.0311  -4.1945  -4.1945
    -3.4512  -3.3939  -3.3939  -2.7683  -2.1207  -2.0767  -2.0767  -1.3608
    -1.3608  -1.3370  -0.7020  -0.7020  -0.6153  -0.5238  -0.5061  -0.5061
    -0.3596  -0.3596  -0.0938  -0.0938   0.0833   1.0407   1.0407   1.3781
     1.3781   1.7100   2.0308   2.0308   3.2972   3.4528   3.9766   4.6992
     5.0696   5.3766   5.3766   5.4668   5.4668   5.5855   6.0709   6.4250
     6.7536   7.0916   7.8110   7.9415   8.0707   8.0707   8.9496   9.0070
     9.4810   9.5167

[...]

          k =-0.0888-0.0513 0.0000 ( 17160 PWs)   bands (ev):

[...]

     the Fermi energy is     0.6921 ev

!    total energy              =   -4266.06112904 Ry
     Harris-Foulkes estimate   =   -4266.06112508 Ry
     estimated scf accuracy    <       0.00000041 Ry

     The total energy is the sum of the following terms:

     one-electron contribution =  -27783.99910595 Ry
     hartree contribution      =   13907.31822451 Ry
     xc contribution           =    -541.17687438 Ry
     ewald contribution        =   10151.82907998 Ry
     electric field correction =       0.00000000 Ry
     smearing contrib. (-TS)   =      -0.03245319 Ry

     convergence has been achieved in  17 iterations

 BEEF-vdW xc energy contributions
           1 :   -481.284435698261
           2 :    438.195289473438
           3 :   -365.511326113270
           4 :    283.796150606769
           5 :   -211.663030760887
           6 :    158.916554743823
           7 :   -124.954521249916
[...]
                l(1) =   0
                l(2) =   0
                l(3) =   1
                l(4) =   1
                l(5) =   2
                l(6) =   2
     Q(r) pseudized with  8 coefficients,  rinner =    1.250   1.250   1.250
                                                       1.250   1.250

     PseudoPot. # 2 for Rh read from file:
     /afs/slac.stanford.edu/u/if/mamunm/psp/gbrv1.5pbe/Rh.UPF
     MD5 check sum: 761627e959a2e3a1f56b0b5fe687810e
     Pseudo is Ultrasoft + core correction, Zval = 15.0
     Generated by new atomic code, or converted to UPF format
     Using radial grid of  969 points,  7 beta functions with:
                l(1) =   0
                l(2) =   0
                l(3) =   1
                l(4) =   1
                l(5) =   2
                l(6) =   2
                l(7) =   2
     Q(r) pseudized with  8 coefficients,  rinner =    1.200   1.200   1.200
                                                       1.200   1.200

     vdW kernel table read from file vdW_kernel_table
     MD5 check sum: 095c7af220d748ca6e76c0b4c6cfb241

     atomic species   valence    mass     pseudopotential
        Ga1           19.00    69.72300     Ga( 1.00)
        Rh1           15.00   102.90550     Rh( 1.00)

     No symmetry found

   Cartesian axes

     site n.     atom                  positions (alat units)
         1           Ga1 tau(   1) = (   0.0000000   0.0000000  10.0000000  )
         2           Ga1 tau(   2) = (  -1.4070003   2.4369960  10.0000000  )
         3           Ga1 tau(   3) = (   1.4070003   2.4369960  10.0000000  )
         4           Rh1 tau(   4) = (   2.8140006   0.0000000  10.0000000  )
         5           Ga1 tau(   5) = (   2.8140006   1.6246640  12.2976218  )
         6           Ga1 tau(   6) = (   1.4070003   4.0616600  12.2976218  )
         7           Ga1 tau(   7) = (  -1.4070003   4.0616600  12.2976218  )
         8           Rh1 tau(   8) = (   0.0000000   1.6246640  12.2976218  )
         9           Ga1 tau(   9) = (   0.0000004   3.2270116  14.8242030  )
        10           Ga1 tau(  10) = (   1.3876859   0.8234910  14.8242457  )
        11           Ga1 tau(  11) = (   4.2403101   0.8234769  14.8241986  )
        12           Rh1 tau(  12) = (   2.8140061   3.2493222  14.3756393  )

     number of k points=    20  Fermi-Dirac smearing, width (Ry)=  0.0110
                       cart. coord. in units 2pi/alat
        k(    1) = (   0.0000000   0.0000000   0.0000000), wk =   0.0555556
        k(    2) = (   0.0000000   0.0341951   0.0000000), wk =   0.1111111
        k(    3) = (   0.0000000   0.0683902   0.0000000), wk =   0.1111111
        k(    4) = (   0.0000000  -0.1025853   0.0000000), wk =   0.0555556
        k(    5) = (   0.0296138   0.0170976   0.0000000), wk =   0.1111111
        k(    6) = (   0.0296138   0.0512927   0.0000000), wk =   0.1111111
        k(    7) = (   0.0296138   0.0854878   0.0000000), wk =   0.1111111
        k(    8) = (   0.0296138  -0.0854878   0.0000000), wk =   0.1111111
        k(    9) = (   0.0296138  -0.0512927   0.0000000), wk =   0.1111111
        k(   10) = (   0.0296138  -0.0170976   0.0000000), wk =   0.1111111
        k(   11) = (   0.0592277   0.0341951   0.0000000), wk =   0.1111111
        k(   12) = (   0.0592277   0.0683902   0.0000000), wk =   0.1111111
        k(   13) = (   0.0592277   0.1025853   0.0000000), wk =   0.1111111
        k(   14) = (   0.0592277  -0.0683902   0.0000000), wk =   0.1111111
        k(   15) = (   0.0592277  -0.0341951   0.0000000), wk =   0.1111111
        k(   16) = (   0.0592277   0.0000000   0.0000000), wk =   0.1111111
        k(   17) = (  -0.0888415  -0.0512927   0.0000000), wk =   0.0555556
        k(   18) = (  -0.0888415  -0.0170976   0.0000000), wk =   0.1111111
        k(   19) = (  -0.0888415   0.0170976   0.0000000), wk =   0.1111111
        k(   20) = (  -0.0888415  -0.1538780   0.0000000), wk =   0.0555556

     Largest allocated arrays     est. size (Mb)     dimensions
     Largest temporary arrays     est. size (Mb)     dimensions

     Initial potential from superposition of free atoms
     Check: negative starting charge=   -0.166500

     starting charge  205.49970, renormalised to  216.00000

[...]

     *
     * You are using vdW-DF for exchange-correlation in this calculation.
     * Please cite the following three references that made this development
     * possible:
     *
     *   M. Dion, H. Rydberg, E. Schroder, D. C. Langreth, and
     *   B. I. Lundqvist, Phys. Rev. Lett. 92, 246401 (2004).
     *
     *   T. Thonhauser, V. R. Cooper, S. Li, A. Puzder, P. Hyldgaard, and
     *   D. C. Langreth, Phys. Rev. B 76, 125112 (2007).
     *
     *   G. Roman-Perez and J. M. Soler, Phys. Rev. Lett. 103, 096102 (2009).
     *
     *
     * If you are using vdW-DF2, please also cite:
     *
     *   K. Lee, E. D. Murray, L. Kong, B. I. Lundqvist, and
     *   D. C. Langreth, Phys. Rev. B 82, 081101(R) (2010).
     *
     *
     * If you are calculating the stress with vdW-DF, please also cite:
     *
     *   R. Sabatini, E. Kucukbenli, B. Kolb, T. Thonhauser, and
     *   S. de Gironcoli, J. Phys.: Condens. Matter 24, 424209 (2012).
     *

     Carrying out vdW-DF run using the following parameters:

     Nqs =      20    Nr_points =    1024   r_max =   100.000
     q_mesh =
               0.00001000     0.04494208     0.09755937     0.15916263
               0.23128650     0.31572767     0.41458969     0.53033537
               0.66584808     0.82450364     1.01025438     1.22772762
               1.48234092     1.78043706     2.12944203     2.53805004
               3.01644009     3.57652955     4.23227104     5.00000000

     Gradients computed in reciprocal space

[...]

     Starting wfc are  144 randomized atomic wfcs

     Self-consistent Calculation

[...]

     total energy              =   -4266.09712937 Ry
     Harris-Foulkes estimate   =   -4266.09712795 Ry
     estimated scf accuracy    <       0.00000452 Ry

     iteration # 17     ecut=    36.75 Ry     beta=0.10
     Davidson diagonalization with overlap
     ethr =  2.09E-09,  avg # of iterations =  2.0

[...]

     negative rho (up, down):  1.677E-01 0.000E+00

     Adding external electric field

     Computed dipole along edir(3) :
        Dipole                0.1050 Ry au,          0.2669 Debye
        Dipole field          0.0003 Ry au

        Potential amp.       -0.0263 Ry
        Total length         45.3163 bohr

     End of self-consistent calculation

[...]

          k = 0.0592 0.0000 0.0000 ( 17106 PWs)   bands (ev):

[...]

          k =-0.0888-0.1539 0.0000 ( 17160 PWs)   bands (ev):

   -94.1272 -94.1260 -94.1249 -94.0814 -94.0805 -94.0801 -94.0800 -94.0797
   -94.0787 -94.0181 -94.0179 -94.0177 -93.9908 -93.9908 -93.9903 -93.9898
   -93.9887 -93.9874 -93.9736 -93.9723 -93.9711 -93.9626 -93.9620 -93.9612
   -93.9393 -93.9387 -93.9379 -45.2266 -45.2266 -45.2158 -45.2153 -45.1502
   -45.1499 -45.0872 -45.0351 -44.8573 -14.6466 -14.5832 -14.5577 -14.5416
   -14.5148 -14.5100 -14.5003 -14.4941 -14.4906 -14.4838 -14.4701 -14.4534
   -14.4373 -14.4338 -14.3939 -14.3929 -14.3896 -14.3698 -14.3652 -14.3471
   -14.3445 -14.3432 -14.3330 -14.3246 -14.3244 -14.3204 -14.3089 -14.3057
   -14.3026 -14.3021 -14.2979 -14.2952 -14.2881 -14.2834 -14.2805 -14.2740
   -14.2672 -14.2542 -14.2441 -14.2279 -14.2152 -14.2123 -14.2099 -14.1557
   -14.1355  -8.5347  -8.0816  -6.6715  -6.5735  -5.5265  -5.2085  -4.6942
    -3.8241  -3.3420  -2.7247  -2.2498  -2.1983  -2.1111  -1.7041  -1.6732
    -1.6138  -1.5510  -1.1063  -1.0208  -0.7111  -0.3764  -0.2898  -0.1466
     0.0825   0.1507   0.5823   0.8242   1.0666   1.5960   2.3824   2.9623
     3.1810   3.2078   3.5561   3.7190   3.9027   4.2646   4.3110   4.5712
     4.7767   5.2602   5.5534   5.6596   5.7675   5.7927   5.9341   6.4242
     6.5497   6.6361   7.0048   7.0844   7.1510   7.1696   7.5587   7.7481
     8.0977   8.5596

     the Fermi energy is     0.8101 ev

!    total energy              =   -4266.09713328 Ry
     Harris-Foulkes estimate   =   -4266.09712946 Ry
     estimated scf accuracy    <       0.00000077 Ry

     The total energy is the sum of the following terms:

     one-electron contribution =  -27286.97983400 Ry
     hartree contribution      =   13659.68491770 Ry
     xc contribution           =    -541.11480925 Ry
     ewald contribution        =    9902.34755406 Ry
     electric field correction =       0.00003043 Ry
     smearing contrib. (-TS)   =      -0.03499221 Ry

     convergence has been achieved in  17 iterations

 BEEF-vdW xc energy contributions
           1 :   -481.808806025433
           2 :    438.663840746187
           3 :   -365.898555421422
           4 :    284.119630395742
           5 :   -211.971316850441
           6 :    159.259651504530
           7 :   -125.355544040773
           8 :    102.840277452466
           9 :   -83.5616562933916
          10 :    63.3559469983143
          11 :   -43.0898130265661
          12 :    26.2673074952463
          13 :   -15.5022044669911
          14 :    10.4234839462816
          15 :   -8.15634997351225
          16 :    5.56259452644264
          17 :   -1.34286162490940
          18 :   -3.50156335800483
          19 :    6.94595918499010
          20 :   -7.78137213834617
          21 :    6.57609790207454
          22 :   -5.14407136971903
          23 :    5.08436824598567
          24 :   -6.60135730361520
          25 :    8.48895555500206
          26 :   -9.20334405895704
          27 :    8.11971909263383
          28 :   -5.99238207324555
          29 :    4.31219638025385
          30 :   -4.12444005585058
          31 :   -37.4803381551607
          32 :   -26.1196251010556

     Forces acting on atoms (Ry/au):

     negative rho (up, down):  1.677E-01 0.000E+00
     atom    1 type  1   force =     0.00000280    0.01067458   -0.01892957
     atom    2 type  1   force =     0.00924509   -0.00533777   -0.01892772
     atom    3 type  1   force =    -0.00924185   -0.00533711   -0.01892999
     atom    4 type  2   force =    -0.00000011   -0.00000081    0.02940922
     atom    5 type  1   force =    -0.00000036   -0.01333616    0.00694307
     atom    6 type  1   force =    -0.01155484    0.00666953    0.00694421
     atom    7 type  1   force =     0.01155136    0.00667192    0.00694154
     atom    8 type  2   force =     0.00000006   -0.00000096    0.00417509
     atom    9 type  1   force =    -0.00000075   -0.00128487    0.00027748
     atom   10 type  1   force =    -0.00111239    0.00064168    0.00028319
     atom   11 type  1   force =     0.00111083    0.00064037    0.00028326
     atom   12 type  2   force =     0.00000017   -0.00000041    0.00153023

     Total force =     0.054635     Total SCF correction =     0.006054
     SCF correction compared to forces is large: reduce conv_thr to get better values

     entering subroutine stress ...

     negative rho (up, down):  1.677E-01 0.000E+00
          total   stress  (Ry/bohr**3)                   (kbar)     P=  -25.28
  -0.00024739  -0.00000000   0.00000000        -36.39     -0.00      0.00
  -0.00000000  -0.00024739  -0.00000000         -0.00    -36.39     -0.00
   0.00000000  -0.00000000  -0.00002070          0.00     -0.00     -3.04

 !ASE

     Writing output data file calc.save

     General routines

     Parallel routines

   This run was terminated on:   5:23:32  26Dec2018

   JOB DONE.
Job  /afs/slac/g/suncat/bin/suncat-tsmpirun -x LD_LIBRARY_PATH -wdir /scratch/qe109698_rLRSg pw.x -in pw.inp

TID   HOST_NAME   COMMAND_LINE            STATUS            TERMINATION_TIME
00000 suncat0178 pw.x -in pw.inp   Done                     12/26/2018 05:23:32
00001 suncat0178 pw.x -in pw.inp   Done                     12/26/2018 05:23:32
00002 suncat0178 pw.x -in pw.inp   Done                     12/26/2018 05:23:32
00003 suncat0178 pw.x -in pw.inp   Done                     12/26/2018 05:23:32
00004 suncat0178 pw.x -in pw.inp   Done                     12/26/2018 05:23:32
00005 suncat0178 pw.x -in pw.inp   Done                     12/26/2018 05:23:32
00006 suncat0178 pw.x -in pw.inp   Done                     12/26/2018 05:23:32
00007 suncat0178 pw.x -in pw.inp   Done                     12/26/2018 05:23:32
00008 suncat0177 pw.x -in pw.inp   Done                     12/26/2018 05:23:32
00009 suncat0177 pw.x -in pw.inp   Done                     12/26/2018 05:23:32
00010 suncat0177 pw.x -in pw.inp   Done                     12/26/2018 05:23:32
00011 suncat0177 pw.x -in pw.inp   Done                     12/26/2018 05:23:32
00012 suncat0177 pw.x -in pw.inp   Done                     12/26/2018 05:23:32
00013 suncat0177 pw.x -in pw.inp   Done                     12/26/2018 05:23:32
00014 suncat0177 pw.x -in pw.inp   Done                     12/26/2018 05:23:32
00015 suncat0177 pw.x -in pw.inp   Done                     12/26/2018 05:23:32
00016 suncat0129 pw.x -in pw.inp   Done                     12/26/2018 05:23:32
00017 suncat0129 pw.x -in pw.inp   Done                     12/26/2018 05:23:32
00018 suncat0129 pw.x -in pw.inp   Done                     12/26/2018 05:23:32
00019 suncat0129 pw.x -in pw.inp   Done                     12/26/2018 05:23:32
00020 suncat0129 pw.x -in pw.inp   Done                     12/26/2018 05:23:32
00021 suncat0129 pw.x -in pw.inp   Done                     12/26/2018 05:23:32
00022 suncat0129 pw.x -in pw.inp   Done                     12/26/2018 05:23:32
00023 suncat0129 pw.x -in pw.inp   Done                     12/26/2018 05:23:32
00024 suncat0254 pw.x -in pw.inp   Done                     12/26/2018 05:23:32
00025 suncat0254 pw.x -in pw.inp   Done                     12/26/2018 05:23:32
00026 suncat0254 pw.x -in pw.inp   Done                     12/26/2018 05:23:32
00027 suncat0254 pw.x -in pw.inp   Done                     12/26/2018 05:23:32
00028 suncat0254 pw.x -in pw.inp   Done                     12/26/2018 05:23:32
00029 suncat0254 pw.x -in pw.inp   Done                     12/26/2018 05:23:32
00030 suncat0254 pw.x -in pw.inp   Done                     12/26/2018 05:23:32
00031 suncat0254 pw.x -in pw.inp   Done                     12/26/2018 05:23:32
00032 suncat0253 pw.x -in pw.inp   Done                     12/26/2018 05:23:32
00033 suncat0253 pw.x -in pw.inp   Done                     12/26/2018 05:23:32
00034 suncat0253 pw.x -in pw.inp   Done                     12/26/2018 05:23:32
00035 suncat0253 pw.x -in pw.inp   Done                     12/26/2018 05:23:32
00036 suncat0253 pw.x -in pw.inp   Done                     12/26/2018 05:23:32
00037 suncat0253 pw.x -in pw.inp   Done                     12/26/2018 05:23:32
00038 suncat0253 pw.x -in pw.inp   Done                     12/26/2018 05:23:32
00039 suncat0253 pw.x -in pw.inp   Done                     12/26/2018 05:23:32
00040 suncat0244 pw.x -in pw.inp   Done                     12/26/2018 05:23:32
00041 suncat0244 pw.x -in pw.inp   Done                     12/26/2018 05:23:32
00042 suncat0244 pw.x -in pw.inp   Done                     12/26/2018 05:23:32
00043 suncat0244 pw.x -in pw.inp   Done                     12/26/2018 05:23:32
00044 suncat0244 pw.x -in pw.inp   Done                     12/26/2018 05:23:32
00045 suncat0244 pw.x -in pw.inp   Done                     12/26/2018 05:23:32
00046 suncat0244 pw.x -in pw.inp   Done                     12/26/2018 05:23:32
00047 suncat0244 pw.x -in pw.inp   Done                     12/26/2018 05:23:32
00048 suncat0243 pw.x -in pw.inp   Done                     12/26/2018 05:23:32
00049 suncat0243 pw.x -in pw.inp   Done                     12/26/2018 05:23:32
00050 suncat0243 pw.x -in pw.inp   Done                     12/26/2018 05:23:32
00051 suncat0243 pw.x -in pw.inp   Done                     12/26/2018 05:23:32
00052 suncat0243 pw.x -in pw.inp   Done                     12/26/2018 05:23:32
00053 suncat0243 pw.x -in pw.inp   Done                     12/26/2018 05:23:32
00054 suncat0243 pw.x -in pw.inp   Done                     12/26/2018 05:23:32
00055 suncat0243 pw.x -in pw.inp   Done                     12/26/2018 05:23:32
00056 suncat0242 pw.x -in pw.inp   Done                     12/26/2018 05:23:32
00057 suncat0242 pw.x -in pw.inp   Done                     12/26/2018 05:23:32
00058 suncat0242 pw.x -in pw.inp   Done                     12/26/2018 05:23:32
00059 suncat0242 pw.x -in pw.inp   Done                     12/26/2018 05:23:32
00060 suncat0242 pw.x -in pw.inp   Done                     12/26/2018 05:23:32
00061 suncat0242 pw.x -in pw.inp   Done                     12/26/2018 05:23:32
00062 suncat0242 pw.x -in pw.inp   Done                     12/26/2018 05:23:32
00063 suncat0242 pw.x -in pw.inp   Done                     12/26/2018 05:23:32