     Program PWSCF v.5.1rc2 (svn rev. 11289) starts on  1Jan2019 at 16:50:49

     Current dimensions of program PWSCF are:
     Max number of different atomic species (ntypx) = 10
     Max number of k-points (npk) =  40000
     Max angular momentum in pseudopotentials (lmaxx) =  3
     Presently stress not available with electric field

     IMPORTANT: XC functional enforced from input :
     Exchange-correlation      = BEEF-VDW ( 1  4 27 13 2)
     Any further DFT definition will be discarded
     Please, verify this is what you really want

     Subspace diagonalization in iterative solution of the eigenvalue problem:
     a serial algorithm will be used

     bravais-lattice index     =            0
     lattice parameter (alat)  =       1.8897  a.u.
     unit-cell volume          =    5762.7145 (a.u.)^3
     number of atoms/cell      =           12
     number of atomic types    =            2
     number of electrons       =       150.00
     number of Kohn-Sham states=          105
     kinetic-energy cutoff     =      36.7493  Ry
     charge density cutoff     =     367.4932  Ry
     convergence threshold     =      1.0E-06
     mixing beta               =       0.1000
     number of iterations used =           10  plain     mixing
     Exchange-correlation      = BEEF-VDW ( 1  4 27 13 2)
     nstep                     =           50

     celldm(1)=   1.889726  celldm(2)=   0.000000  celldm(3)=   0.000000
     celldm(4)=   0.000000  celldm(5)=   0.000000  celldm(6)=   0.000000

     crystal axes: (cart. coord. in units of alat)
               a(1) = (   6.265776   0.000000   0.000000 )
               a(2) = (  -3.132888   5.426321   0.000000 )
               a(3) = (   0.000000   0.000000  25.115984 )

     reciprocal axes: (cart. coord. in units 2 pi/alat)
               b(1) = (  0.159597  0.092143  0.000000 )
               b(2) = (  0.000000  0.184287  0.000000 )
               b(3) = (  0.000000  0.000000  0.039815 )

     PseudoPot. # 1 for Ta read from file:
     /afs/slac.stanford.edu/u/if/mamunm/psp/gbrv1.5pbe/Ta.UPF
     MD5 check sum: f8bbe9446314a3b8ea5d9f3e3836c939
     Pseudo is Ultrasoft + core correction, Zval = 13.0
     Generated by new atomic code, or converted to UPF format
     Using radial grid of  921 points,  7 beta functions with:
                l(1) =   0
                l(2) =   0
                l(3) =   1
                l(4) =   1
                l(5) =   2
                l(6) =   2
                l(7) =   3
     Q(r) pseudized with  6 coefficients,  rinner =    1.300   1.300   1.300
                                                       1.300   1.300   1.300
                                                       1.300

     PseudoPot. # 2 for La read from file:
     /afs/slac.stanford.edu/u/if/mamunm/psp/gbrv1.5pbe/La.UPF
     MD5 check sum: 5937b0c7494ba0601a847275249473aa
     Pseudo is Ultrasoft + core correction, Zval = 11.0
     Generated by new atomic code, or converted to UPF format
     Using radial grid of  995 points,  8 beta functions with:
                l(1) =   0
                l(2) =   0
                l(3) =   1
                l(4) =   1
                l(5) =   2
                l(6) =   2
                l(7) =   3
                l(8) =   3
     Q(r) pseudized with  8 coefficients,  rinner =    1.700   1.700   1.700
                                                       1.700   1.700   1.700
                                                       1.700

     vdW kernel table read from file vdW_kernel_table
     MD5 check sum: 095c7af220d748ca6e76c0b4c6cfb241

     atomic species   valence    mass     pseudopotential
        Ta1           13.00   180.94788     Ta( 1.00)
        La1           11.00   138.90547     La( 1.00)

     No symmetry found

   Cartesian axes

     site n.     atom                  positions (alat units)
         1           Ta1 tau(   1) = (   0.0000000   0.0000000  10.0000000  )
         2           Ta1 tau(   2) = (  -1.5664439   2.7131604  10.0000000  )
         3           Ta1 tau(   3) = (   1.5664439   2.7131604  10.0000000  )
         4           La1 tau(   4) = (   3.1328878   0.0000000  10.0000000  )
         5           Ta1 tau(   5) = (   3.1328878   1.8087736  12.5579922  )
         6           Ta1 tau(   6) = (   1.5664439   4.5219340  12.5579922  )
         7           Ta1 tau(   7) = (  -1.5664439   4.5219340  12.5579922  )
         8           La1 tau(   8) = (   0.0000000   1.8087736  12.5579922  )
         9           Ta1 tau(   9) = (  -0.0000000   3.6175472  15.1159843  )
        10           Ta1 tau(  10) = (   1.5664439   0.9043868  15.1159843  )
        11           Ta1 tau(  11) = (   4.6993317   0.9043868  15.1159843  )
        12           La1 tau(  12) = (   3.1328878   3.6175472  15.1159843  )

     number of k points=    20  Fermi-Dirac smearing, width (Ry)=  0.0110
                       cart. coord. in units 2pi/alat
        k(    1) = (   0.0000000   0.0000000   0.0000000), wk =   0.0555556
        k(    2) = (   0.0000000   0.0307145   0.0000000), wk =   0.1111111
        k(    3) = (   0.0000000   0.0614290   0.0000000), wk =   0.1111111
        k(    4) = (   0.0000000  -0.0921435   0.0000000), wk =   0.0555556
        k(    5) = (   0.0265995   0.0153572   0.0000000), wk =   0.1111111
        k(    6) = (   0.0265995   0.0460717   0.0000000), wk =   0.1111111
        k(    7) = (   0.0265995   0.0767862   0.0000000), wk =   0.1111111
        k(    8) = (   0.0265995  -0.0767862   0.0000000), wk =   0.1111111
        k(    9) = (   0.0265995  -0.0460717   0.0000000), wk =   0.1111111
        k(   10) = (   0.0265995  -0.0153572   0.0000000), wk =   0.1111111
        k(   11) = (   0.0531991   0.0307145   0.0000000), wk =   0.1111111
        k(   12) = (   0.0531991   0.0614290   0.0000000), wk =   0.1111111
        k(   13) = (   0.0531991   0.0921435   0.0000000), wk =   0.1111111
        k(   14) = (   0.0531991  -0.0614290   0.0000000), wk =   0.1111111
        k(   15) = (   0.0531991  -0.0307145   0.0000000), wk =   0.1111111
        k(   16) = (   0.0531991   0.0000000   0.0000000), wk =   0.1111111
        k(   17) = (  -0.0797986  -0.0460717   0.0000000), wk =   0.0555556
        k(   18) = (  -0.0797986  -0.0153572   0.0000000), wk =   0.1111111
        k(   19) = (  -0.0797986   0.0153572   0.0000000), wk =   0.1111111
        k(   20) = (  -0.0797986  -0.1382152   0.0000000), wk =   0.0555556

     Largest allocated arrays     est. size (Mb)     dimensions
     Largest temporary arrays     est. size (Mb)     dimensions

     Initial potential from superposition of free atoms
     Check: negative starting charge=   -1.051007

     starting charge  149.89379, renormalised to  150.00000

     negative rho (up, down):  1.052E+00 0.000E+00

     *
     * You are using vdW-DF for exchange-correlation in this calculation.
     * Please cite the following three references that made this development
     * possible:
     *
     *   M. Dion, H. Rydberg, E. Schroder, D. C. Langreth, and
     *   B. I. Lundqvist, Phys. Rev. Lett. 92, 246401 (2004).
     *
     *   T. Thonhauser, V. R. Cooper, S. Li, A. Puzder, P. Hyldgaard, and
     *   D. C. Langreth, Phys. Rev. B 76, 125112 (2007).
     *
     *   G. Roman-Perez and J. M. Soler, Phys. Rev. Lett. 103, 096102 (2009).
     *
     *
     * If you are using vdW-DF2, please also cite:
     *
     *   K. Lee, E. D. Murray, L. Kong, B. I. Lundqvist, and
     *   D. C. Langreth, Phys. Rev. B 82, 081101(R) (2010).
     *
     *
     * If you are calculating the stress with vdW-DF, please also cite:
     *
     *   R. Sabatini, E. Kucukbenli, B. Kolb, T. Thonhauser, and
     *   S. de Gironcoli, J. Phys.: Condens. Matter 24, 424209 (2012).
     *

     Carrying out vdW-DF run using the following parameters:

     Nqs =      20    Nr_points =    1024   r_max =   100.000
     q_mesh =
               0.00001000     0.04494208     0.09755937     0.15916263
               0.23128650     0.31572767     0.41458969     0.53033537
               0.66584808     0.82450364     1.01025438     1.22772762
               1.48234092     1.78043706     2.12944203     2.53805004
               3.01644009     3.57652955     4.23227104     5.00000000

     Gradients computed in reciprocal space

     Adding external electric field

     Computed dipole along edir(3) :
        Dipole                0.0000 Ry au,          0.0000 Debye
        Dipole field          0.0000 Ry au

        Potential amp.       -0.0000 Ry
        Total length         46.2758 bohr

     Starting wfc are  177 randomized atomic wfcs

     Self-consistent Calculation

     iteration #  1     ecut=    36.75 Ry     beta=0.10
     Davidson diagonalization with overlap
     ethr =  1.00E-02,  avg # of iterations =  2.0

[...]

     total energy              =   -1599.05988959 Ry
     Harris-Foulkes estimate   =   -1601.17406709 Ry
     estimated scf accuracy    <      11.74694293 Ry

[...]

     End of self-consistent calculation

          k = 0.0000 0.0000 0.0000 ( 21811 PWs)   bands (ev):

   -66.5939 -66.5927 -66.5716 -66.5716 -66.5713 -66.5713 -66.5114 -66.4909
   -66.4906 -33.0866 -33.0562 -33.0454 -33.0443 -33.0442 -33.0351 -33.0350
   -33.0084 -33.0084 -32.9989 -32.9564 -32.9119 -32.9119 -32.8619 -32.8618
   -32.8418 -32.8130 -32.7329 -32.7160 -32.7156 -32.7154 -32.6453 -32.6453
   -32.6415 -32.6415 -32.6040 -32.6037 -30.0233 -30.0020 -29.5895 -13.8525
   -13.8525 -13.8463 -13.8338 -13.8338 -13.7645 -13.5831 -13.4886 -13.4886
    -4.0466  -2.7810  -2.2427  -1.7678  -1.7678  -1.5429  -1.5429  -0.9223
    -0.9223  -0.6729  -0.4685  -0.4685  -0.3911   0.0575   0.1561   0.6401
     0.6401   0.6500   1.5687   1.5687   1.6128   1.8189   1.9746   2.2396
     2.3495   2.3495   2.3506   2.3805   2.6150   2.6150   2.7758   2.7758
     2.9270   2.9270   3.0337   3.1199   3.1199   3.3753   3.6783   3.6783
     3.6876   3.8399   4.0609   4.0610   4.3114   4.3114   4.7484   4.7484
     4.8009   4.8009   4.8787   4.8787   4.9407   5.0276   5.0314   5.0775
     5.0775

[...]

          k =-0.0798-0.0461 0.0000 ( 21680 PWs)   bands (ev):

[...]

     the Fermi energy is     2.0283 ev

!    total energy              =   -1600.28287638 Ry
     Harris-Foulkes estimate   =   -1600.28287642 Ry
     estimated scf accuracy    <       0.00000081 Ry

     The total energy is the sum of the following terms:

     one-electron contribution =   -9355.20874892 Ry
     hartree contribution      =    4667.70350703 Ry
     xc contribution           =    -544.37732912 Ry
     ewald contribution        =    3631.70593889 Ry
     electric field correction =       0.00000000 Ry
     smearing contrib. (-TS)   =      -0.10624426 Ry

     convergence has been achieved in  16 iterations

 BEEF-vdW xc energy contributions
           1 :   -480.226359506299
           2 :    443.060215185836
           3 :   -377.748118931083
           4 :    298.853077750950
           5 :   -221.399703422619
           6 :    156.427315131027
           7 :   -108.754513558667
           8 :    77.3771184830699
           9 :   -57.7804380684632
          10 :    44.7832086156544
          11 :   -34.6015546252105
[...]
     Pseudo is Ultrasoft + core correction, Zval = 13.0
     Generated by new atomic code, or converted to UPF format
     Using radial grid of  921 points,  7 beta functions with:
                l(1) =   0
                l(2) =   0
                l(3) =   1
                l(4) =   1
                l(5) =   2
                l(6) =   2
                l(7) =   3
     Q(r) pseudized with  6 coefficients,  rinner =    1.300   1.300   1.300
                                                       1.300   1.300   1.300
                                                       1.300

     PseudoPot. # 2 for La read from file:
     /afs/slac.stanford.edu/u/if/mamunm/psp/gbrv1.5pbe/La.UPF
     MD5 check sum: 5937b0c7494ba0601a847275249473aa
     Pseudo is Ultrasoft + core correction, Zval = 11.0
     Generated by new atomic code, or converted to UPF format
     Using radial grid of  995 points,  8 beta functions with:
                l(1) =   0
                l(2) =   0
                l(3) =   1
                l(4) =   1
                l(5) =   2
                l(6) =   2
                l(7) =   3
                l(8) =   3
     Q(r) pseudized with  8 coefficients,  rinner =    1.700   1.700   1.700
                                                       1.700   1.700   1.700
                                                       1.700

     vdW kernel table read from file vdW_kernel_table
     MD5 check sum: 095c7af220d748ca6e76c0b4c6cfb241

     atomic species   valence    mass     pseudopotential
        Ta1           13.00   180.94788     Ta( 1.00)
        La1           11.00   138.90547     La( 1.00)

     No symmetry found

   Cartesian axes

     site n.     atom                  positions (alat units)
         1           Ta1 tau(   1) = (   0.0000000   0.0000000  10.0000000  )
         2           Ta1 tau(   2) = (  -1.5664439   2.7131604  10.0000000  )
         3           Ta1 tau(   3) = (   1.5664439   2.7131604  10.0000000  )
         4           La1 tau(   4) = (   3.1328878   0.0000000  10.0000000  )
         5           Ta1 tau(   5) = (   3.1328878   1.8087736  12.5579922  )
         6           Ta1 tau(   6) = (   1.5664439   4.5219340  12.5579922  )
         7           Ta1 tau(   7) = (  -1.5664439   4.5219340  12.5579922  )
         8           La1 tau(   8) = (   0.0000000   1.8087736  12.5579922  )
         9           Ta1 tau(   9) = (   0.0000126   3.8514463  14.8661484  )
        10           Ta1 tau(  10) = (   1.7690233   0.7874449  14.8661517  )
        11           Ta1 tau(  11) = (   4.4967551   0.7874282  14.8661526  )
        12           La1 tau(  12) = (   3.1328778   3.6175650  15.6507041  )

     number of k points=    20  Fermi-Dirac smearing, width (Ry)=  0.0110
                       cart. coord. in units 2pi/alat
        k(    1) = (   0.0000000   0.0000000   0.0000000), wk =   0.0555556
        k(    2) = (   0.0000000   0.0307145   0.0000000), wk =   0.1111111
        k(    3) = (   0.0000000   0.0614290   0.0000000), wk =   0.1111111
        k(    4) = (   0.0000000  -0.0921435   0.0000000), wk =   0.0555556
        k(    5) = (   0.0265995   0.0153572   0.0000000), wk =   0.1111111
        k(    6) = (   0.0265995   0.0460717   0.0000000), wk =   0.1111111
        k(    7) = (   0.0265995   0.0767862   0.0000000), wk =   0.1111111
        k(    8) = (   0.0265995  -0.0767862   0.0000000), wk =   0.1111111
        k(    9) = (   0.0265995  -0.0460717   0.0000000), wk =   0.1111111
        k(   10) = (   0.0265995  -0.0153572   0.0000000), wk =   0.1111111
        k(   11) = (   0.0531991   0.0307145   0.0000000), wk =   0.1111111
        k(   12) = (   0.0531991   0.0614290   0.0000000), wk =   0.1111111
        k(   13) = (   0.0531991   0.0921435   0.0000000), wk =   0.1111111
        k(   14) = (   0.0531991  -0.0614290   0.0000000), wk =   0.1111111
        k(   15) = (   0.0531991  -0.0307145   0.0000000), wk =   0.1111111
        k(   16) = (   0.0531991   0.0000000   0.0000000), wk =   0.1111111
        k(   17) = (  -0.0797986  -0.0460717   0.0000000), wk =   0.0555556
        k(   18) = (  -0.0797986  -0.0153572   0.0000000), wk =   0.1111111
        k(   19) = (  -0.0797986   0.0153572   0.0000000), wk =   0.1111111
        k(   20) = (  -0.0797986  -0.1382152   0.0000000), wk =   0.0555556

     Largest allocated arrays     est. size (Mb)     dimensions
     Largest temporary arrays     est. size (Mb)     dimensions

     Initial potential from superposition of free atoms
     Check: negative starting charge=   -1.052525

     starting charge  149.89379, renormalised to  150.00000

[...]

     *
     * You are using vdW-DF for exchange-correlation in this calculation.
     * Please cite the following three references that made this development
     * possible:
     *
     *   M. Dion, H. Rydberg, E. Schroder, D. C. Langreth, and
     *   B. I. Lundqvist, Phys. Rev. Lett. 92, 246401 (2004).
     *
     *   T. Thonhauser, V. R. Cooper, S. Li, A. Puzder, P. Hyldgaard, and
     *   D. C. Langreth, Phys. Rev. B 76, 125112 (2007).
     *
     *   G. Roman-Perez and J. M. Soler, Phys. Rev. Lett. 103, 096102 (2009).
     *
     *
     * If you are using vdW-DF2, please also cite:
     *
     *   K. Lee, E. D. Murray, L. Kong, B. I. Lundqvist, and
     *   D. C. Langreth, Phys. Rev. B 82, 081101(R) (2010).
     *
     *
     * If you are calculating the stress with vdW-DF, please also cite:
     *
     *   R. Sabatini, E. Kucukbenli, B. Kolb, T. Thonhauser, and
     *   S. de Gironcoli, J. Phys.: Condens. Matter 24, 424209 (2012).
     *

     Carrying out vdW-DF run using the following parameters:

     Nqs =      20    Nr_points =    1024   r_max =   100.000
     q_mesh =
               0.00001000     0.04494208     0.09755937     0.15916263
               0.23128650     0.31572767     0.41458969     0.53033537
               0.66584808     0.82450364     1.01025438     1.22772762
               1.48234092     1.78043706     2.12944203     2.53805004
               3.01644009     3.57652955     4.23227104     5.00000000

     Gradients computed in reciprocal space

[...]

     Starting wfc are  177 randomized atomic wfcs

     Self-consistent Calculation

[...]

     total energy              =   -1600.42288597 Ry
     Harris-Foulkes estimate   =   -1600.42288874 Ry
     estimated scf accuracy    <       0.00000159 Ry

     iteration # 18     ecut=    36.75 Ry     beta=0.10
     Davidson diagonalization with overlap
     ethr =  1.06E-09,  avg # of iterations =  3.0

[...]

     negative rho (up, down):  1.002E+00 0.000E+00

     Adding external electric field

     Computed dipole along edir(3) :
        Dipole                0.3352 Ry au,          0.8520 Debye
        Dipole field          0.0007 Ry au

        Potential amp.       -0.0676 Ry
        Total length         46.2758 bohr

     End of self-consistent calculation

[...]

          k = 0.0532 0.0000 0.0000 ( 21711 PWs)   bands (ev):

[...]

          k =-0.0798-0.1382 0.0000 ( 21680 PWs)   bands (ev):

   -66.2473 -66.2401 -66.2329 -66.0745 -66.0662 -66.0585 -65.8760 -65.8158
   -65.8141 -32.7386 -32.7091 -32.6606 -32.6466 -32.6245 -32.5980 -32.5827
   -32.5739 -32.5429 -32.5241 -32.5076 -32.5035 -32.4850 -32.4610 -32.4346
   -32.4227 -32.3581 -32.3254 -32.2438 -32.2358 -32.1907 -32.0845 -32.0667
   -32.0641 -31.9817 -31.9330 -31.8792 -30.4721 -29.6771 -29.3277 -14.2070
   -14.1648 -14.1648 -13.6842 -13.5904 -13.5258 -13.3855 -13.3642 -13.3131
    -2.4247  -2.1366  -0.9589  -0.8391  -0.5960  -0.4413  -0.3039  -0.1941
    -0.0025   0.3986   0.4365   0.4439   0.6846   0.8960   0.9122   1.0699
     1.1509   1.3183   1.3814   1.4010   1.4730   1.6317   1.7135   1.7749
     1.9410   1.9472   1.9506   2.2313   2.2724   2.4443   2.5936   2.6104
     2.7371   2.8310   3.0196   3.2082   3.2458   3.2618   3.4610   3.5874
     3.7536   3.9104   3.9510   3.9988   4.0517   4.1271   4.1685   4.2018
     4.3549   4.3848   4.4973   4.5347   4.5657   4.6297   4.6591   4.7906
     4.8576

     the Fermi energy is     2.3377 ev

!    total energy              =   -1600.42288495 Ry
     Harris-Foulkes estimate   =   -1600.42288687 Ry
     estimated scf accuracy    <       0.00000048 Ry

     The total energy is the sum of the following terms:

     one-electron contribution =   -9458.87804851 Ry
     hartree contribution      =    4721.41255959 Ry
     xc contribution           =    -544.64922504 Ry
     ewald contribution        =    3681.78199933 Ry
     electric field correction =       0.00024499 Ry
     smearing contrib. (-TS)   =      -0.09041531 Ry

     convergence has been achieved in  18 iterations

 BEEF-vdW xc energy contributions
           1 :   -480.569618368736
           2 :    443.455191029307
           3 :   -378.209052377274
           4 :    299.322669845697
           5 :   -221.753157798612
           6 :    156.539755818261
           7 :   -108.587548609196
           8 :    77.0101897715554
           9 :   -57.3656408398973
          10 :    44.4589025617014
          11 :   -34.4161849203211
          12 :    25.3828713146745
          13 :   -17.0378547490199
          14 :    9.64001846634312
          15 :   -3.32018002417658
          16 :   -2.06966824304084
          17 :    6.69543154620885
          18 :   -10.4465368957035
          19 :    12.9089042426767
          20 :   -13.6471337185305
          21 :    12.5909685752744
          22 :   -10.2468830354790
          23 :    7.57515050119110
          24 :   -5.59153387858964
          25 :    4.91906627632022
          26 :   -5.53829191020679
          27 :    6.86066408088249
          28 :   -8.06692531098861
          29 :    8.51677552054889
          30 :   -8.01950613015697
          31 :   -42.2293784451817
          32 :   -31.0844417717242

     Forces acting on atoms (Ry/au):

     negative rho (up, down):  1.002E+00 0.000E+00
     atom    1 type  1   force =    -0.00000034   -0.04035483    0.03616233
     atom    2 type  1   force =    -0.03494883    0.02017771    0.03616179
     atom    3 type  1   force =     0.03494895    0.02017715    0.03616104
     atom    4 type  2   force =    -0.00000017   -0.00000410   -0.07687772
     atom    5 type  1   force =     0.00000088    0.03635903   -0.01044819
     atom    6 type  1   force =     0.03148824   -0.01817845   -0.01044827
     atom    7 type  1   force =    -0.03148742   -0.01817848   -0.01044686
     atom    8 type  2   force =    -0.00000090   -0.00000058   -0.00182042
     atom    9 type  1   force =    -0.00000607    0.00096841    0.00033178
     atom   10 type  1   force =     0.00083853   -0.00048770    0.00032967
     atom   11 type  1   force =    -0.00083740   -0.00048012    0.00033066
     atom   12 type  2   force =     0.00000451    0.00000195    0.00056420

     Total force =     0.137909     Total SCF correction =     0.002240

     entering subroutine stress ...

     negative rho (up, down):  1.002E+00 0.000E+00
          total   stress  (Ry/bohr**3)                   (kbar)     P=  -14.17
  -0.00011573   0.00000000   0.00000000        -17.02      0.00      0.00
   0.00000000  -0.00011572   0.00000000          0.00    -17.02      0.00
   0.00000000   0.00000000  -0.00005744          0.00      0.00     -8.45

 !ASE

     Writing output data file calc.save

     General routines

     Parallel routines

   This run was terminated on:  20:32:23   1Jan2019

   JOB DONE.
Job  /afs/slac/g/suncat/bin/suncat-tsmpirun -x LD_LIBRARY_PATH -wdir /scratch/qe649108_mAJra pw.x -in pw.inp

TID   HOST_NAME   COMMAND_LINE            STATUS            TERMINATION_TIME
00000 suncat0043 pw.x -in pw.inp   Done                     01/01/2019 20:32:23
00001 suncat0043 pw.x -in pw.inp   Done                     01/01/2019 20:32:23
00002 suncat0043 pw.x -in pw.inp   Done                     01/01/2019 20:32:23
00003 suncat0043 pw.x -in pw.inp   Done                     01/01/2019 20:32:23
00004 suncat0043 pw.x -in pw.inp   Done                     01/01/2019 20:32:23
00005 suncat0043 pw.x -in pw.inp   Done                     01/01/2019 20:32:23
00006 suncat0043 pw.x -in pw.inp   Done                     01/01/2019 20:32:23
00007 suncat0043 pw.x -in pw.inp   Done                     01/01/2019 20:32:23
00008 suncat0041 pw.x -in pw.inp   Done                     01/01/2019 20:32:23
00009 suncat0041 pw.x -in pw.inp   Done                     01/01/2019 20:32:23
00010 suncat0041 pw.x -in pw.inp   Done                     01/01/2019 20:32:23
00011 suncat0041 pw.x -in pw.inp   Done                     01/01/2019 20:32:23
00012 suncat0041 pw.x -in pw.inp   Done                     01/01/2019 20:32:23
00013 suncat0041 pw.x -in pw.inp   Done                     01/01/2019 20:32:23
00014 suncat0041 pw.x -in pw.inp   Done                     01/01/2019 20:32:23
00015 suncat0041 pw.x -in pw.inp   Done                     01/01/2019 20:32:23
00016 suncat0039 pw.x -in pw.inp   Done                     01/01/2019 20:32:23
00017 suncat0039 pw.x -in pw.inp   Done                     01/01/2019 20:32:23
00018 suncat0039 pw.x -in pw.inp   Done                     01/01/2019 20:32:23
00019 suncat0039 pw.x -in pw.inp   Done                     01/01/2019 20:32:23
00020 suncat0039 pw.x -in pw.inp   Done                     01/01/2019 20:32:23
00021 suncat0039 pw.x -in pw.inp   Done                     01/01/2019 20:32:23
00022 suncat0039 pw.x -in pw.inp   Done                     01/01/2019 20:32:23
00023 suncat0039 pw.x -in pw.inp   Done                     01/01/2019 20:32:23
00024 suncat0025 pw.x -in pw.inp   Done                     01/01/2019 20:32:23
00025 suncat0025 pw.x -in pw.inp   Done                     01/01/2019 20:32:23
00026 suncat0025 pw.x -in pw.inp   Done                     01/01/2019 20:32:23
00027 suncat0025 pw.x -in pw.inp   Done                     01/01/2019 20:32:23
00028 suncat0025 pw.x -in pw.inp   Done                     01/01/2019 20:32:23
00029 suncat0025 pw.x -in pw.inp   Done                     01/01/2019 20:32:23
00030 suncat0025 pw.x -in pw.inp   Done                     01/01/2019 20:32:23
00031 suncat0025 pw.x -in pw.inp   Done                     01/01/2019 20:32:23
00032 suncat0013 pw.x -in pw.inp   Done                     01/01/2019 20:32:23
00033 suncat0013 pw.x -in pw.inp   Done                     01/01/2019 20:32:23
00034 suncat0013 pw.x -in pw.inp   Done                     01/01/2019 20:32:23
00035 suncat0013 pw.x -in pw.inp   Done                     01/01/2019 20:32:23
00036 suncat0013 pw.x -in pw.inp   Done                     01/01/2019 20:32:23
00037 suncat0013 pw.x -in pw.inp   Done                     01/01/2019 20:32:23
00038 suncat0013 pw.x -in pw.inp   Done                     01/01/2019 20:32:23
00039 suncat0013 pw.x -in pw.inp   Done                     01/01/2019 20:32:23
00040 suncat0008 pw.x -in pw.inp   Done                     01/01/2019 20:32:23
00041 suncat0008 pw.x -in pw.inp   Done                     01/01/2019 20:32:23
00042 suncat0008 pw.x -in pw.inp   Done                     01/01/2019 20:32:23
00043 suncat0008 pw.x -in pw.inp   Done                     01/01/2019 20:32:23
00044 suncat0008 pw.x -in pw.inp   Done                     01/01/2019 20:32:23
00045 suncat0008 pw.x -in pw.inp   Done                     01/01/2019 20:32:23
00046 suncat0008 pw.x -in pw.inp   Done                     01/01/2019 20:32:23
00047 suncat0008 pw.x -in pw.inp   Done                     01/01/2019 20:32:23
00048 suncat0117 pw.x -in pw.inp   Done                     01/01/2019 20:32:23
00049 suncat0117 pw.x -in pw.inp   Done                     01/01/2019 20:32:23
00050 suncat0117 pw.x -in pw.inp   Done                     01/01/2019 20:32:23
00051 suncat0117 pw.x -in pw.inp   Done                     01/01/2019 20:32:23
00052 suncat0117 pw.x -in pw.inp   Done                     01/01/2019 20:32:23
00053 suncat0117 pw.x -in pw.inp   Done                     01/01/2019 20:32:23
00054 suncat0117 pw.x -in pw.inp   Done                     01/01/2019 20:32:23
00055 suncat0117 pw.x -in pw.inp   Done                     01/01/2019 20:32:23
00056 suncat0250 pw.x -in pw.inp   Done                     01/01/2019 20:32:23
00057 suncat0250 pw.x -in pw.inp   Done                     01/01/2019 20:32:23
00058 suncat0250 pw.x -in pw.inp   Done                     01/01/2019 20:32:23
00059 suncat0250 pw.x -in pw.inp   Done                     01/01/2019 20:32:23
00060 suncat0250 pw.x -in pw.inp   Done                     01/01/2019 20:32:23
00061 suncat0250 pw.x -in pw.inp   Done                     01/01/2019 20:32:23
00062 suncat0250 pw.x -in pw.inp   Done                     01/01/2019 20:32:23
00063 suncat0250 pw.x -in pw.inp   Done                     01/01/2019 20:32:23