     Program PWSCF v.5.1rc2 (svn rev. 11289) starts on 19Dec2018 at  9:42:16

     Current dimensions of program PWSCF are:
     Max number of different atomic species (ntypx) = 10
     Max number of k-points (npk) =  40000
     Max angular momentum in pseudopotentials (lmaxx) =  3
     Presently stress not available with electric field

     IMPORTANT: XC functional enforced from input :
     Exchange-correlation      = BEEF-VDW ( 1  4 27 13 2)
     Any further DFT definition will be discarded
     Please, verify this is what you really want

     Subspace diagonalization in iterative solution of the eigenvalue problem:
     a serial algorithm will be used

     Found symmetry operation: I + ( -0.5000  0.0000  0.0000)
     This is a supercell, fractional translations are disabled

     bravais-lattice index     =            0
     lattice parameter (alat)  =       1.8897  a.u.
     unit-cell volume          =    4699.6521 (a.u.)^3
     number of atoms/cell      =           12
     number of atomic types    =            2
     number of electrons       =       156.00
     number of Kohn-Sham states=          108
     kinetic-energy cutoff     =      36.7493  Ry
     charge density cutoff     =     367.4932  Ry
     convergence threshold     =      1.0E-06
     mixing beta               =       0.1000
     number of iterations used =           10  plain     mixing
     Exchange-correlation      = BEEF-VDW ( 1  4 27 13 2)
     nstep                     =           50

     celldm(1)=   1.889726  celldm(2)=   0.000000  celldm(3)=   0.000000
     celldm(4)=   0.000000  celldm(5)=   0.000000  celldm(6)=   0.000000

     crystal axes: (cart. coord. in units of alat)
               a(1) = (   5.289769   0.000000   0.000000 )
               a(2) = (  -2.644885   5.352049   0.000000 )
               a(3) = (   0.000000   0.000000  24.598707 )

     reciprocal axes: (cart. coord. in units 2 pi/alat)
               b(1) = (  0.189044  0.093422  0.000000 )
               b(2) = (  0.000000  0.186844  0.000000 )
               b(3) = (  0.000000  0.000000  0.040653 )

     PseudoPot. # 1 for V  read from file:
     /afs/slac.stanford.edu/u/if/mamunm/psp/gbrv1.5pbe/V.UPF
     MD5 check sum: 22b79981416ebb76fdaf5b1b8640f6fb
     Pseudo is Ultrasoft + core correction, Zval = 13.0
     Generated by new atomic code, or converted to UPF format
     Using radial grid of  853 points,  6 beta functions with:
                l(1) =   0
                l(2) =   0
                l(3) =   1
                l(4) =   1
                l(5) =   2
                l(6) =   2
     Q(r) pseudized with  8 coefficients,  rinner =    1.100   1.100   1.100
                                                       1.100   1.100

     PseudoPot. # 2 for Nb read from file:
     /afs/slac.stanford.edu/u/if/mamunm/psp/gbrv1.5pbe/Nb.UPF
     MD5 check sum: 573aab8a2fa660278ed4a62cd769473f
     Pseudo is Ultrasoft + core correction, Zval = 13.0
     Generated by new atomic code, or converted to UPF format
     Using radial grid of  887 points,  6 beta functions with:
                l(1) =   0
                l(2) =   0
                l(3) =   1
                l(4) =   1
                l(5) =   2
                l(6) =   2
     Q(r) pseudized with  6 coefficients,  rinner =    1.000   1.000   1.000
                                                       1.000   1.000

     vdW kernel table read from file vdW_kernel_table
     MD5 check sum: 095c7af220d748ca6e76c0b4c6cfb241

     atomic species   valence    mass     pseudopotential
        V1            13.00    50.94150     V ( 1.00)
        Nb1           13.00    92.90637     Nb( 1.00)

     No symmetry found

   Cartesian axes

     site n.     atom                  positions (alat units)
         1           V1  tau(   1) = (   0.0000000   0.0000000  10.0000000  )
         2           V1  tau(   2) = (   2.6448847   0.0000000  10.0000000  )
         3           Nb1 tau(   3) = (   1.3224423   2.6760246  10.0000000  )
         4           Nb1 tau(   4) = (  -1.3224423   2.6760246  10.0000000  )
         5           V1  tau(   5) = (   2.6448847   1.3070536  12.2993534  )
         6           V1  tau(   6) = (  -0.0000000   1.3070536  12.2993534  )
         7           Nb1 tau(   7) = (  -1.3224423   3.9830782  12.2993534  )
         8           Nb1 tau(   8) = (   1.3224423   3.9830782  12.2993534  )
         9           V1  tau(   9) = (  -0.0000000   2.6141072  14.5987068  )
        10           V1  tau(  10) = (   2.6448847   2.6141072  14.5987068  )
        11           Nb1 tau(  11) = (   1.3224423   5.2901317  14.5987068  )
        12           Nb1 tau(  12) = (  -1.3224423   5.2901317  14.5987068  )

     number of k points=    20  Fermi-Dirac smearing, width (Ry)=  0.0110
                       cart. coord. in units 2pi/alat
        k(    1) = (   0.0000000   0.0000000   0.0000000), wk =   0.0555556
        k(    2) = (   0.0000000   0.0311407   0.0000000), wk =   0.1111111
        k(    3) = (   0.0000000   0.0622814   0.0000000), wk =   0.1111111
        k(    4) = (   0.0000000  -0.0934222   0.0000000), wk =   0.0555556
        k(    5) = (   0.0315074   0.0155704   0.0000000), wk =   0.1111111
        k(    6) = (   0.0315074   0.0467111   0.0000000), wk =   0.1111111
        k(    7) = (   0.0315074   0.0778518   0.0000000), wk =   0.1111111
        k(    8) = (   0.0315074  -0.0778518   0.0000000), wk =   0.1111111
        k(    9) = (   0.0315074  -0.0467111   0.0000000), wk =   0.1111111
        k(   10) = (   0.0315074  -0.0155704   0.0000000), wk =   0.1111111
        k(   11) = (   0.0630147   0.0311407   0.0000000), wk =   0.1111111
        k(   12) = (   0.0630147   0.0622814   0.0000000), wk =   0.1111111
        k(   13) = (   0.0630147   0.0934222   0.0000000), wk =   0.1111111
        k(   14) = (   0.0630147  -0.0622814   0.0000000), wk =   0.1111111
        k(   15) = (   0.0630147  -0.0311407   0.0000000), wk =   0.1111111
        k(   16) = (   0.0630147  -0.0000000   0.0000000), wk =   0.1111111
        k(   17) = (  -0.0945221  -0.0467111   0.0000000), wk =   0.0555556
        k(   18) = (  -0.0945221  -0.0155704   0.0000000), wk =   0.1111111
        k(   19) = (  -0.0945221   0.0155704   0.0000000), wk =   0.1111111
        k(   20) = (  -0.0945221  -0.1401332   0.0000000), wk =   0.0555556

     Largest allocated arrays     est. size (Mb)     dimensions
     Largest temporary arrays     est. size (Mb)     dimensions

     Initial potential from superposition of free atoms
     Check: negative starting charge=   -0.008473

     starting charge  155.97624, renormalised to  156.00000

     negative rho (up, down):  8.474E-03 0.000E+00

     *
     * You are using vdW-DF for exchange-correlation in this calculation.
     * Please cite the following three references that made this development
     * possible:
     *
     *   M. Dion, H. Rydberg, E. Schroder, D. C. Langreth, and
     *   B. I. Lundqvist, Phys. Rev. Lett. 92, 246401 (2004).
     *
     *   T. Thonhauser, V. R. Cooper, S. Li, A. Puzder, P. Hyldgaard, and
     *   D. C. Langreth, Phys. Rev. B 76, 125112 (2007).
     *
     *   G. Roman-Perez and J. M. Soler, Phys. Rev. Lett. 103, 096102 (2009).
     *
     *
     * If you are using vdW-DF2, please also cite:
     *
     *   K. Lee, E. D. Murray, L. Kong, B. I. Lundqvist, and
     *   D. C. Langreth, Phys. Rev. B 82, 081101(R) (2010).
     *
     *
     * If you are calculating the stress with vdW-DF, please also cite:
     *
     *   R. Sabatini, E. Kucukbenli, B. Kolb, T. Thonhauser, and
     *   S. de Gironcoli, J. Phys.: Condens. Matter 24, 424209 (2012).
     *

     Carrying out vdW-DF run using the following parameters:

     Nqs =      20    Nr_points =    1024   r_max =   100.000
     q_mesh =
               0.00001000     0.04494208     0.09755937     0.15916263
               0.23128650     0.31572767     0.41458969     0.53033537
               0.66584808     0.82450364     1.01025438     1.22772762
               1.48234092     1.78043706     2.12944203     2.53805004
               3.01644009     3.57652955     4.23227104     5.00000000

     Gradients computed in reciprocal space

     Adding external electric field

     Computed dipole along edir(3) :
        Dipole               -0.0000 Ry au,         -0.0000 Debye
        Dipole field         -0.0000 Ry au

        Potential amp.        0.0000 Ry
        Total length         45.3227 bohr

     Starting wfc are  138 randomized atomic wfcs

     Self-consistent Calculation

     iteration #  1     ecut=    36.75 Ry     beta=0.10
     Davidson diagonalization with overlap
     ethr =  1.00E-02,  avg # of iterations =  2.7

[...]

     total energy              =   -1583.76762270 Ry
     Harris-Foulkes estimate   =   -1586.57051682 Ry
     estimated scf accuracy    <      15.57624951 Ry

[...]

     End of self-consistent calculation

          k = 0.0000 0.0000 0.0000 ( 17679 PWs)   bands (ev):

   -62.8909 -62.8750 -62.8403 -62.8249 -62.8098 -62.7759 -53.5419 -53.5129
   -53.3039 -53.2769 -53.2709 -53.0341 -36.8757 -36.8701 -36.8166 -36.8114
   -36.8057 -36.7633 -36.7098 -36.7087 -36.6678 -36.6625 -36.6480 -36.6077
   -36.6022 -36.4942 -36.4460 -36.3718 -36.3232 -36.3182 -30.3353 -30.2925
   -30.1198 -30.1009 -29.8622 -29.6293 -29.5158 -29.4826 -29.4194 -29.3084
   -29.2754 -29.2680 -29.0599 -28.8746 -28.6960 -28.6488 -28.6288 -28.4688
    -4.2281  -2.8474  -2.5226  -2.2274  -2.0775  -1.8323  -1.4834  -1.4116
    -1.2356  -1.2131  -1.0994  -1.0775  -1.0537  -0.8663  -0.6054  -0.6053
     0.0366   0.0902   0.1246   0.5235   0.6360   0.6964   0.9287   0.9378
     1.0188   1.0306   1.3572   1.7053   1.7057   1.7879   1.9693   2.0372
     2.2969   2.3003   2.3419   2.3956   2.5750   2.6047   2.6964   2.7958
     2.8539   2.9586   3.1210   3.1868   3.2093   3.2383   3.2568   3.5706
     3.6804   3.7155   3.7222   3.9533   4.2488   4.3138   4.3429   4.4144
     4.5445   4.6427   4.6578   5.0856

[...]

          k =-0.0945-0.0467 0.0000 ( 17640 PWs)   bands (ev):

[...]

     the Fermi energy is     1.3970 ev

!    total energy              =   -1585.47057467 Ry
     Harris-Foulkes estimate   =   -1585.47057383 Ry
     estimated scf accuracy    <       0.00000038 Ry

     The total energy is the sum of the following terms:

     one-electron contribution =  -12900.24943684 Ry
     hartree contribution      =    6439.76302544 Ry
     xc contribution           =    -236.39601256 Ry
     ewald contribution        =    5111.52694642 Ry
     electric field correction =       0.00000000 Ry
     smearing contrib. (-TS)   =      -0.11509712 Ry

     convergence has been achieved in  22 iterations

 BEEF-vdW xc energy contributions
           1 :   -203.304033951271
           2 :    183.689904443696
           3 :   -150.810391982334
           4 :    114.301018641804
           5 :   -82.9101933318850
           6 :    61.3175599234850
           7 :   -49.3576396927940
           8 :    43.5355654775236
           9 :   -39.6177643551840
          10 :    34.7707848621224
          11 :   -28.3507870135536
          12 :    21.3447594182448
          13 :   -15.1727260548079
[...]
00030 suncat2053 pw.x -in pw.inp   Done                     12/19/2018 09:47:03
00031 suncat2053 pw.x -in pw.inp   Done                     12/19/2018 09:47:03

     Program PWSCF v.5.1rc2 (svn rev. 11289) starts on 19Dec2018 at  9:47: 9

[...]

   This run was terminated on:   9:51:47  19Dec2018

[...]

   This run was terminated on:   9:56:47  19Dec2018

[...]

     Program PWSCF v.5.1rc2 (svn rev. 11289) starts on 19Dec2018 at  9:56:53

[...]

   This run was terminated on:  10: 1:42  19Dec2018

[...]

     Program PWSCF v.5.1rc2 (svn rev. 11289) starts on 19Dec2018 at 10: 1:49

     Current dimensions of program PWSCF are:
     Max number of different atomic species (ntypx) = 10
     Max number of k-points (npk) =  40000
     Max angular momentum in pseudopotentials (lmaxx) =  3
     Presently stress not available with electric field

     IMPORTANT: XC functional enforced from input :
     Exchange-correlation      = BEEF-VDW ( 1  4 27 13 2)
     Any further DFT definition will be discarded
     Please, verify this is what you really want

     Subspace diagonalization in iterative solution of the eigenvalue problem:
     a serial algorithm will be used

     Found symmetry operation: I + ( -0.5000  0.0000  0.0000)
     This is a supercell, fractional translations are disabled

     bravais-lattice index     =            0
     lattice parameter (alat)  =       1.8897  a.u.
     unit-cell volume          =    4699.6521 (a.u.)^3
     number of atoms/cell      =           12
     number of atomic types    =            2
     number of electrons       =       156.00
     number of Kohn-Sham states=          108
     kinetic-energy cutoff     =      36.7493  Ry
     charge density cutoff     =     367.4932  Ry
     convergence threshold     =      1.0E-06
     mixing beta               =       0.1000
     number of iterations used =           10  plain     mixing
     Exchange-correlation      = BEEF-VDW ( 1  4 27 13 2)
     nstep                     =           50

     celldm(1)=   1.889726  celldm(2)=   0.000000  celldm(3)=   0.000000
     celldm(4)=   0.000000  celldm(5)=   0.000000  celldm(6)=   0.000000

     crystal axes: (cart. coord. in units of alat)
               a(1) = (   5.289769   0.000000   0.000000 )
               a(2) = (  -2.644885   5.352049   0.000000 )
               a(3) = (   0.000000   0.000000  24.598707 )

     reciprocal axes: (cart. coord. in units 2 pi/alat)
               b(1) = (  0.189044  0.093422  0.000000 )
               b(2) = (  0.000000  0.186844  0.000000 )
               b(3) = (  0.000000  0.000000  0.040653 )

     PseudoPot. # 1 for V  read from file:
     /afs/slac.stanford.edu/u/if/mamunm/psp/gbrv1.5pbe/V.UPF
     MD5 check sum: 22b79981416ebb76fdaf5b1b8640f6fb
     Pseudo is Ultrasoft + core correction, Zval = 13.0
     Generated by new atomic code, or converted to UPF format
     Using radial grid of  853 points,  6 beta functions with:
                l(1) =   0
                l(2) =   0
                l(3) =   1
                l(4) =   1
                l(5) =   2
                l(6) =   2
     Q(r) pseudized with  8 coefficients,  rinner =    1.100   1.100   1.100
                                                       1.100   1.100

     PseudoPot. # 2 for Nb read from file:
     /afs/slac.stanford.edu/u/if/mamunm/psp/gbrv1.5pbe/Nb.UPF
     MD5 check sum: 573aab8a2fa660278ed4a62cd769473f
     Pseudo is Ultrasoft + core correction, Zval = 13.0
     Generated by new atomic code, or converted to UPF format
     Using radial grid of  887 points,  6 beta functions with:
                l(1) =   0
                l(2) =   0
                l(3) =   1
                l(4) =   1
                l(5) =   2
                l(6) =   2
     Q(r) pseudized with  6 coefficients,  rinner =    1.000   1.000   1.000
                                                       1.000   1.000

     vdW kernel table read from file vdW_kernel_table
     MD5 check sum: 095c7af220d748ca6e76c0b4c6cfb241

     atomic species   valence    mass     pseudopotential
        V1            13.00    50.94150     V ( 1.00)
        Nb1           13.00    92.90637     Nb( 1.00)

     No symmetry found

   Cartesian axes

     site n.     atom                  positions (alat units)
         1           V1  tau(   1) = (   0.0000000   0.0000000  10.0000000  )
         2           V1  tau(   2) = (   2.6448847   0.0000000  10.0000000  )
         3           Nb1 tau(   3) = (   1.3224423   2.6760246  10.0000000  )
         4           Nb1 tau(   4) = (  -1.3224423   2.6760246  10.0000000  )
         5           V1  tau(   5) = (   2.6448847   1.3070536  12.2993534  )
         6           V1  tau(   6) = (  -0.0000000   1.3070536  12.2993534  )
         7           Nb1 tau(   7) = (  -1.3224423   3.9830782  12.2993534  )
         8           Nb1 tau(   8) = (   1.3224423   3.9830782  12.2993534  )
         9           V1  tau(   9) = (  -0.0000043   2.5441186  14.4038275  )
        10           V1  tau(  10) = (   2.6448667   2.5441074  14.4038222  )
        11           Nb1 tau(  11) = (   1.3225125   5.3485174  14.6165758  )
        12           Nb1 tau(  12) = (  -1.3223795   5.3485309  14.6165887  )

     number of k points=    20  Fermi-Dirac smearing, width (Ry)=  0.0110
                       cart. coord. in units 2pi/alat
        k(    1) = (   0.0000000   0.0000000   0.0000000), wk =   0.0555556
        k(    2) = (   0.0000000   0.0311407   0.0000000), wk =   0.1111111
        k(    3) = (   0.0000000   0.0622814   0.0000000), wk =   0.1111111
        k(    4) = (   0.0000000  -0.0934222   0.0000000), wk =   0.0555556
        k(    5) = (   0.0315074   0.0155704   0.0000000), wk =   0.1111111
        k(    6) = (   0.0315074   0.0467111   0.0000000), wk =   0.1111111
        k(    7) = (   0.0315074   0.0778518   0.0000000), wk =   0.1111111
        k(    8) = (   0.0315074  -0.0778518   0.0000000), wk =   0.1111111
        k(    9) = (   0.0315074  -0.0467111   0.0000000), wk =   0.1111111
        k(   10) = (   0.0315074  -0.0155704   0.0000000), wk =   0.1111111
        k(   11) = (   0.0630147   0.0311407   0.0000000), wk =   0.1111111
        k(   12) = (   0.0630147   0.0622814   0.0000000), wk =   0.1111111
        k(   13) = (   0.0630147   0.0934222   0.0000000), wk =   0.1111111
        k(   14) = (   0.0630147  -0.0622814   0.0000000), wk =   0.1111111
        k(   15) = (   0.0630147  -0.0311407   0.0000000), wk =   0.1111111
        k(   16) = (   0.0630147  -0.0000000   0.0000000), wk =   0.1111111
        k(   17) = (  -0.0945221  -0.0467111   0.0000000), wk =   0.0555556
        k(   18) = (  -0.0945221  -0.0155704   0.0000000), wk =   0.1111111
        k(   19) = (  -0.0945221   0.0155704   0.0000000), wk =   0.1111111
        k(   20) = (  -0.0945221  -0.1401332   0.0000000), wk =   0.0555556

     Largest allocated arrays     est. size (Mb)     dimensions
     Largest temporary arrays     est. size (Mb)     dimensions

     Initial potential from superposition of free atoms
     Check: negative starting charge=   -0.008133

     starting charge  155.97624, renormalised to  156.00000

[...]

     *
     * You are using vdW-DF for exchange-correlation in this calculation.
     * Please cite the following three references that made this development
     * possible:
     *
     *   M. Dion, H. Rydberg, E. Schroder, D. C. Langreth, and
     *   B. I. Lundqvist, Phys. Rev. Lett. 92, 246401 (2004).
     *
     *   T. Thonhauser, V. R. Cooper, S. Li, A. Puzder, P. Hyldgaard, and
     *   D. C. Langreth, Phys. Rev. B 76, 125112 (2007).
     *
     *   G. Roman-Perez and J. M. Soler, Phys. Rev. Lett. 103, 096102 (2009).
     *
     *
     * If you are using vdW-DF2, please also cite:
     *
     *   K. Lee, E. D. Murray, L. Kong, B. I. Lundqvist, and
     *   D. C. Langreth, Phys. Rev. B 82, 081101(R) (2010).
     *
     *
     * If you are calculating the stress with vdW-DF, please also cite:
     *
     *   R. Sabatini, E. Kucukbenli, B. Kolb, T. Thonhauser, and
     *   S. de Gironcoli, J. Phys.: Condens. Matter 24, 424209 (2012).
     *

     Carrying out vdW-DF run using the following parameters:

     Nqs =      20    Nr_points =    1024   r_max =   100.000
     q_mesh =
               0.00001000     0.04494208     0.09755937     0.15916263
               0.23128650     0.31572767     0.41458969     0.53033537
               0.66584808     0.82450364     1.01025438     1.22772762
               1.48234092     1.78043706     2.12944203     2.53805004
               3.01644009     3.57652955     4.23227104     5.00000000

     Gradients computed in reciprocal space

[...]

     Starting wfc are  138 randomized atomic wfcs

     Self-consistent Calculation

[...]

     total energy              =   -1585.48490772 Ry
     Harris-Foulkes estimate   =   -1585.48490711 Ry
     estimated scf accuracy    <       0.00000190 Ry

     iteration # 22     ecut=    36.75 Ry     beta=0.10
     Davidson diagonalization with overlap
     ethr =  1.22E-09,  avg # of iterations =  1.9

[...]

     negative rho (up, down):  9.325E-03 0.000E+00

     Adding external electric field

     Computed dipole along edir(3) :
        Dipole                0.0357 Ry au,          0.0907 Debye
        Dipole field          0.0001 Ry au

        Potential amp.       -0.0086 Ry
        Total length         45.3227 bohr

     End of self-consistent calculation

[...]

          k = 0.0630-0.0000 0.0000 ( 17623 PWs)   bands (ev):

[...]

          k =-0.0945-0.1401 0.0000 ( 17640 PWs)   bands (ev):

   -62.8248 -62.8247 -62.7597 -62.7596 -62.6814 -62.6813 -53.4267 -53.4267
   -53.3683 -53.3683 -53.1204 -53.1204 -36.8439 -36.8439 -36.6930 -36.6930
   -36.6117 -36.6116 -36.5707 -36.5706 -36.5680 -36.5679 -36.5430 -36.5429
   -36.5069 -36.5068 -36.4783 -36.4783 -36.2751 -36.2750 -29.9212 -29.9211
   -29.5250 -29.5249 -29.5181 -29.5181 -29.4719 -29.4719 -29.4288 -29.4288
   -29.3615 -29.3615 -29.3008 -29.3008 -29.1448 -29.1448 -28.7830 -28.7830
    -2.5089  -2.5089  -1.4394  -1.4394  -1.2205  -1.2205  -0.7906  -0.7906
    -0.6875  -0.6874  -0.4020  -0.4020  -0.0558  -0.0558   0.1126   0.1126
     0.2392   0.2392   0.4766   0.4766   0.6253   0.6253   0.9239   0.9239
     1.0822   1.0822   1.1924   1.1924   1.2715   1.2715   1.3953   1.3953
     1.5959   1.5959   1.7044   1.7044   1.8608   1.8608   2.4059   2.4060
     2.6357   2.6358   2.7502   2.7503   2.9117   2.9117   3.0182   3.0182
     3.1460   3.1460   3.2142   3.2143   3.3110   3.3110   3.5036   3.5037
     4.0323   4.0323   4.2826   4.2826

     the Fermi energy is     1.4284 ev

!    total energy              =   -1585.48490949 Ry
     Harris-Foulkes estimate   =   -1585.48490764 Ry
     estimated scf accuracy    <       0.00000087 Ry

     The total energy is the sum of the following terms:

     one-electron contribution =  -13061.05965181 Ry
     hartree contribution      =    6520.41044677 Ry
     xc contribution           =    -236.54372296 Ry
     ewald contribution        =    5191.81860644 Ry
     electric field correction =       0.00000340 Ry
     smearing contrib. (-TS)   =      -0.11059133 Ry

     convergence has been achieved in  22 iterations

 BEEF-vdW xc energy contributions
           1 :   -203.454618951087
           2 :    183.886305489730
           3 :   -151.048002960643
           4 :    114.518051158861
           5 :   -83.0306347630757
           6 :    61.3086154209000
           7 :   -49.2574151515559
           8 :    43.4315278839749
           9 :   -39.5927356583074
          10 :    34.8531019642369
          11 :   -28.4993423806428
          12 :    21.4760170243767
          13 :   -15.2131590353558
          14 :    10.6029528190646
          15 :   -7.62944357028329
          16 :    5.64314203992151
          17 :   -3.93141660605181
          18 :    2.15389064510484
          19 :  -0.418243825086279
          20 :  -0.956724018996312
          21 :    1.74522684764449
          22 :   -1.96136737622913
          23 :    1.78349024465939
          24 :   -1.37807192029334
          25 :   0.791066215195428
          26 :   1.000007428879712E-002
          27 :   -1.00918379824412
          28 :    2.06029196334606
          29 :   -2.93445941157199
          30 :    3.45906546303783
          31 :   -22.1567150808595
          32 :   -16.3814862150949

     Forces acting on atoms (Ry/au):

     negative rho (up, down):  9.325E-03 0.000E+00
     atom    1 type  1   force =     0.00000221    0.01125683    0.02737112
     atom    2 type  1   force =     0.00000114    0.01126093    0.02737834
     atom    3 type  2   force =    -0.00000327   -0.01506703   -0.00981234
     atom    4 type  2   force =    -0.00001301   -0.01506625   -0.00981041
     atom    5 type  1   force =    -0.00002416   -0.00590801   -0.01357516
     atom    6 type  1   force =    -0.00002342   -0.00591010   -0.01357460
     atom    7 type  2   force =     0.00001764    0.01213421   -0.00341454
     atom    8 type  2   force =     0.00002412    0.01213307   -0.00341893
     atom    9 type  1   force =     0.00001336   -0.00163010   -0.00025762
     atom   10 type  1   force =     0.00001469   -0.00163349   -0.00026526
     atom   11 type  2   force =    -0.00000883   -0.00078390   -0.00030928
     atom   12 type  2   force =    -0.00000048   -0.00078616   -0.00031131

     Total force =     0.056231     Total SCF correction =     0.003008

     entering subroutine stress ...

     negative rho (up, down):  9.325E-03 0.000E+00
          total   stress  (Ry/bohr**3)                   (kbar)     P=  -15.21
  -0.00011849  -0.00000001   0.00000001        -17.43     -0.00      0.00
  -0.00000001  -0.00015529   0.00000283         -0.00    -22.84      0.42
   0.00000001   0.00000283  -0.00003640          0.00      0.42     -5.35

 !ASE

     Writing output data file calc.save

     General routines

     Parallel routines

   This run was terminated on:  10: 6:27  19Dec2018

   JOB DONE.
Job  /afs/slac/g/suncat/bin/suncat-tsmpirun -x LD_LIBRARY_PATH -wdir /scratch/qe530761_mesUG pw.x -in pw.inp

TID   HOST_NAME   COMMAND_LINE            STATUS            TERMINATION_TIME
00000 suncat2054 pw.x -in pw.inp   Done                     12/19/2018 10:06:27
00001 suncat2054 pw.x -in pw.inp   Done                     12/19/2018 10:06:27
00002 suncat2054 pw.x -in pw.inp   Done                     12/19/2018 10:06:27
00003 suncat2054 pw.x -in pw.inp   Done                     12/19/2018 10:06:27
00004 suncat2054 pw.x -in pw.inp   Done                     12/19/2018 10:06:27
00005 suncat2054 pw.x -in pw.inp   Done                     12/19/2018 10:06:27
00006 suncat2054 pw.x -in pw.inp   Done                     12/19/2018 10:06:27
00007 suncat2054 pw.x -in pw.inp   Done                     12/19/2018 10:06:27
00008 suncat2054 pw.x -in pw.inp   Done                     12/19/2018 10:06:27
00009 suncat2054 pw.x -in pw.inp   Done                     12/19/2018 10:06:27
00010 suncat2054 pw.x -in pw.inp   Done                     12/19/2018 10:06:27
00011 suncat2054 pw.x -in pw.inp   Done                     12/19/2018 10:06:27
00012 suncat2054 pw.x -in pw.inp   Done                     12/19/2018 10:06:27
00013 suncat2054 pw.x -in pw.inp   Done                     12/19/2018 10:06:27
00014 suncat2054 pw.x -in pw.inp   Done                     12/19/2018 10:06:27
00015 suncat2054 pw.x -in pw.inp   Done                     12/19/2018 10:06:27
00016 suncat2053 pw.x -in pw.inp   Done                     12/19/2018 10:06:27
00017 suncat2053 pw.x -in pw.inp   Done                     12/19/2018 10:06:27
00018 suncat2053 pw.x -in pw.inp   Done                     12/19/2018 10:06:27
00019 suncat2053 pw.x -in pw.inp   Done                     12/19/2018 10:06:27
00020 suncat2053 pw.x -in pw.inp   Done                     12/19/2018 10:06:27
00021 suncat2053 pw.x -in pw.inp   Done                     12/19/2018 10:06:27
00022 suncat2053 pw.x -in pw.inp   Done                     12/19/2018 10:06:27
00023 suncat2053 pw.x -in pw.inp   Done                     12/19/2018 10:06:27
00024 suncat2053 pw.x -in pw.inp   Done                     12/19/2018 10:06:27
00025 suncat2053 pw.x -in pw.inp   Done                     12/19/2018 10:06:27
00026 suncat2053 pw.x -in pw.inp   Done                     12/19/2018 10:06:27
00027 suncat2053 pw.x -in pw.inp   Done                     12/19/2018 10:06:27
00028 suncat2053 pw.x -in pw.inp   Done                     12/19/2018 10:06:27
00029 suncat2053 pw.x -in pw.inp   Done                     12/19/2018 10:06:27
00030 suncat2053 pw.x -in pw.inp   Done                     12/19/2018 10:06:27
00031 suncat2053 pw.x -in pw.inp   Done                     12/19/2018 10:06:27