     Program PWSCF v.5.1rc2 (svn rev. 11289) starts on 27Dec2018 at 18:34:24

     Current dimensions of program PWSCF are:
     Max number of different atomic species (ntypx) = 10
     Max number of k-points (npk) =  40000
     Max angular momentum in pseudopotentials (lmaxx) =  3
     Presently stress not available with electric field

     IMPORTANT: XC functional enforced from input :
     Exchange-correlation      = BEEF-VDW ( 1  4 27 13 2)
     Any further DFT definition will be discarded
     Please, verify this is what you really want

     Subspace diagonalization in iterative solution of the eigenvalue problem:
     a serial algorithm will be used

     bravais-lattice index     =            0
     lattice parameter (alat)  =       1.8897  a.u.
     unit-cell volume          =    4460.5011 (a.u.)^3
     number of atoms/cell      =           12
     number of atomic types    =            2
     number of electrons       =       204.00
     number of Kohn-Sham states=          132
     kinetic-energy cutoff     =      36.7493  Ry
     charge density cutoff     =     367.4932  Ry
     convergence threshold     =      1.0E-06
     mixing beta               =       0.1000
     number of iterations used =           10  plain     mixing
     Exchange-correlation      = BEEF-VDW ( 1  4 27 13 2)
     nstep                     =           50

     celldm(1)=   1.889726  celldm(2)=   0.000000  celldm(3)=   0.000000
     celldm(4)=   0.000000  celldm(5)=   0.000000  celldm(6)=   0.000000

     crystal axes: (cart. coord. in units of alat)
               a(1) = (   5.575472   0.000000   0.000000 )
               a(2) = (  -2.787736   4.828500   0.000000 )
               a(3) = (   0.000000   0.000000  24.552354 )

     reciprocal axes: (cart. coord. in units 2 pi/alat)
               b(1) = (  0.179357  0.103552  0.000000 )
               b(2) = (  0.000000  0.207104  0.000000 )
               b(3) = (  0.000000  0.000000  0.040729 )

     PseudoPot. # 1 for Pd read from file:
     /afs/slac.stanford.edu/u/if/mamunm/psp/gbrv1.5pbe/Pd.UPF
     MD5 check sum: 2d733d2bc2cbfd217af676df1668a4bc
     Pseudo is Ultrasoft + core correction, Zval = 16.0
     Generated by new atomic code, or converted to UPF format
     Using radial grid of  887 points,  6 beta functions with:
                l(1) =   0
                l(2) =   0
                l(3) =   1
                l(4) =   1
                l(5) =   2
                l(6) =   2
     Q(r) pseudized with  8 coefficients,  rinner =    1.130   1.130   1.130
                                                       1.130   1.130

     PseudoPot. # 2 for Zn read from file:
     /afs/slac.stanford.edu/u/if/mamunm/psp/gbrv1.5pbe/Zn.UPF
     MD5 check sum: df62231357ef9e81f77b2b3087fa5675
     Pseudo is Ultrasoft, Zval = 20.0
     Generated by new atomic code, or converted to UPF format
     Using radial grid of  943 points,  6 beta functions with:
                l(1) =   0
                l(2) =   0
                l(3) =   1
                l(4) =   1
                l(5) =   2
                l(6) =   2
     Q(r) pseudized with  8 coefficients,  rinner =    1.100   1.100   1.100
                                                       1.100   1.100

     vdW kernel table read from file vdW_kernel_table
     MD5 check sum: 095c7af220d748ca6e76c0b4c6cfb241

     atomic species   valence    mass     pseudopotential
        Pd1           16.00   106.42000     Pd( 1.00)
        Zn1           20.00    65.38000     Zn( 1.00)

     No symmetry found

   Cartesian axes

     site n.     atom                  positions (alat units)
         1           Pd1 tau(   1) = (   0.0000000   0.0000000  10.0000000  )
         2           Pd1 tau(   2) = (  -1.3938680   2.4142502  10.0000000  )
         3           Pd1 tau(   3) = (   1.3938680   2.4142502  10.0000000  )
         4           Zn1 tau(   4) = (   2.7877360   0.0000000  10.0000000  )
         5           Pd1 tau(   5) = (   2.7877360   1.6095001  12.2761769  )
         6           Pd1 tau(   6) = (   1.3938680   4.0237504  12.2761769  )
         7           Pd1 tau(   7) = (  -1.3938680   4.0237504  12.2761769  )
         8           Zn1 tau(   8) = (   0.0000000   1.6095001  12.2761769  )
         9           Pd1 tau(   9) = (  -0.0000000   3.2190003  14.5523539  )
        10           Pd1 tau(  10) = (   1.3938680   0.8047501  14.5523539  )
        11           Pd1 tau(  11) = (   4.1816040   0.8047501  14.5523539  )
        12           Zn1 tau(  12) = (   2.7877360   3.2190003  14.5523539  )

     number of k points=    20  Fermi-Dirac smearing, width (Ry)=  0.0110
                       cart. coord. in units 2pi/alat
        k(    1) = (   0.0000000   0.0000000   0.0000000), wk =   0.0555556
        k(    2) = (   0.0000000   0.0345173   0.0000000), wk =   0.1111111
        k(    3) = (   0.0000000   0.0690345   0.0000000), wk =   0.1111111
        k(    4) = (   0.0000000  -0.1035518   0.0000000), wk =   0.0555556
        k(    5) = (   0.0298928   0.0172586   0.0000000), wk =   0.1111111
        k(    6) = (   0.0298928   0.0517759   0.0000000), wk =   0.1111111
        k(    7) = (   0.0298928   0.0862932   0.0000000), wk =   0.1111111
        k(    8) = (   0.0298928  -0.0862932   0.0000000), wk =   0.1111111
        k(    9) = (   0.0298928  -0.0517759   0.0000000), wk =   0.1111111
        k(   10) = (   0.0298928  -0.0172586   0.0000000), wk =   0.1111111
        k(   11) = (   0.0597857   0.0345173   0.0000000), wk =   0.1111111
        k(   12) = (   0.0597857   0.0690345   0.0000000), wk =   0.1111111
        k(   13) = (   0.0597857   0.1035518   0.0000000), wk =   0.1111111
        k(   14) = (   0.0597857  -0.0690345   0.0000000), wk =   0.1111111
        k(   15) = (   0.0597857  -0.0345173   0.0000000), wk =   0.1111111
        k(   16) = (   0.0597857   0.0000000   0.0000000), wk =   0.1111111
        k(   17) = (  -0.0896785  -0.0517759   0.0000000), wk =   0.0555556
        k(   18) = (  -0.0896785  -0.0172586   0.0000000), wk =   0.1111111
        k(   19) = (  -0.0896785   0.0172586   0.0000000), wk =   0.1111111
        k(   20) = (  -0.0896785  -0.1553277   0.0000000), wk =   0.0555556

     Largest allocated arrays     est. size (Mb)     dimensions
     Largest temporary arrays     est. size (Mb)     dimensions

     Initial potential from superposition of free atoms
     Check: negative starting charge=   -0.685416

     starting charge  199.49951, renormalised to  204.00000

     negative rho (up, down):  7.009E-01 0.000E+00

     *
     * You are using vdW-DF for exchange-correlation in this calculation.
     * Please cite the following three references that made this development
     * possible:
     *
     *   M. Dion, H. Rydberg, E. Schroder, D. C. Langreth, and
     *   B. I. Lundqvist, Phys. Rev. Lett. 92, 246401 (2004).
     *
     *   T. Thonhauser, V. R. Cooper, S. Li, A. Puzder, P. Hyldgaard, and
     *   D. C. Langreth, Phys. Rev. B 76, 125112 (2007).
     *
     *   G. Roman-Perez and J. M. Soler, Phys. Rev. Lett. 103, 096102 (2009).
     *
     *
     * If you are using vdW-DF2, please also cite:
     *
     *   K. Lee, E. D. Murray, L. Kong, B. I. Lundqvist, and
     *   D. C. Langreth, Phys. Rev. B 82, 081101(R) (2010).
     *
     *
     * If you are calculating the stress with vdW-DF, please also cite:
     *
     *   R. Sabatini, E. Kucukbenli, B. Kolb, T. Thonhauser, and
     *   S. de Gironcoli, J. Phys.: Condens. Matter 24, 424209 (2012).
     *

     Carrying out vdW-DF run using the following parameters:

     Nqs =      20    Nr_points =    1024   r_max =   100.000
     q_mesh =
               0.00001000     0.04494208     0.09755937     0.15916263
               0.23128650     0.31572767     0.41458969     0.53033537
               0.66584808     0.82450364     1.01025438     1.22772762
               1.48234092     1.78043706     2.12944203     2.53805004
               3.01644009     3.57652955     4.23227104     5.00000000

     Gradients computed in reciprocal space

     Adding external electric field

     Computed dipole along edir(3) :
        Dipole               -0.0000 Ry au,         -0.0000 Debye
        Dipole field         -0.0000 Ry au

        Potential amp.        0.0000 Ry
        Total length         45.2373 bohr

     Starting wfc are  147 randomized atomic wfcs

     Self-consistent Calculation

     iteration #  1     ecut=    36.75 Ry     beta=0.10
     Davidson diagonalization with overlap
     ethr =  1.00E-02,  avg # of iterations =  7.0

[...]

     total energy              =   -3186.28124142 Ry
     Harris-Foulkes estimate   =   -3189.68547459 Ry
     estimated scf accuracy    <      19.88871933 Ry

[...]

     End of self-consistent calculation

          k = 0.0000 0.0000 0.0000 ( 16763 PWs)   bands (ev):

  -124.9208-124.8867-124.8866 -79.1096 -79.1096 -79.1012 -79.0863 -79.0861
   -79.0626 -79.0626 -79.0625 -79.0625 -49.0824 -49.0032 -49.0032 -48.9820
   -48.9501 -48.9500 -48.8814 -48.8639 -48.8520 -48.8392 -48.8392 -48.7909
   -48.7909 -48.7693 -48.7693 -48.6741 -48.6701 -48.6242 -48.6242 -48.6228
   -48.6228 -48.5916 -48.5709 -48.5643 -48.5643 -48.5538 -48.5537  -6.1232
    -6.0612  -6.0612  -6.0120  -6.0120  -6.0004  -5.9409  -5.9409  -5.9307
    -5.9304  -5.9304  -5.8972  -5.8224  -5.8224  -5.7978  -5.7978  -4.5160
    -4.4927  -3.8060  -3.3027  -3.1976  -2.8197  -2.7472  -2.7472  -2.6462
    -2.6462  -2.3868  -2.3868  -2.3229  -2.3229  -2.3149  -1.7427  -1.7427
    -1.6034  -1.6034  -1.3573  -1.2986  -1.2308  -0.9309  -0.8496  -0.8496
    -0.7131  -0.7131  -0.4571  -0.4570  -0.2887  -0.2581  -0.2581  -0.1605
    -0.1604   0.0086   0.0086   0.1386   0.1387   0.2903   0.2903   0.3848
     0.5732   0.7126   0.7126   0.8923   1.0779   1.1230   1.5975   1.8944
     1.8944   2.5833   3.1775   3.2541   3.2541   3.4355   3.5574   3.5574
     4.8399   5.2451   5.3782   5.8106   5.8820   6.7064   6.7639   7.1055
     7.1055   7.4649   7.4649   7.5207   8.2881   8.2881   8.9927   9.4288
     9.6634  10.0746  10.1458  10.1458

[...]

          k =-0.0897-0.0518 0.0000 ( 16808 PWs)   bands (ev):

[...]

     the Fermi energy is     0.8426 ev

!    total energy              =   -3186.59878898 Ry
     Harris-Foulkes estimate   =   -3186.59879176 Ry
     estimated scf accuracy    <       0.00000065 Ry

     The total energy is the sum of the following terms:

     one-electron contribution =  -24170.49804594 Ry
     hartree contribution      =   12118.96635673 Ry
     xc contribution           =    -423.20007205 Ry
     ewald contribution        =    9288.19538632 Ry
     electric field correction =       0.00000000 Ry
     smearing contrib. (-TS)   =      -0.06241405 Ry

     convergence has been achieved in  16 iterations

 BEEF-vdW xc energy contributions
           1 :   -370.720324261479
           2 :    337.984879804236
           3 :   -282.430666439154
           4 :    219.375072200076
           5 :   -163.215292588441
           6 :    122.442847616326
           7 :   -98.0134187792194
           8 :    85.1939492699464
           9 :   -77.3634093123044
          10 :    69.5615589031157
[...]
     Generated by new atomic code, or converted to UPF format
     Using radial grid of  887 points,  6 beta functions with:
                l(1) =   0
                l(2) =   0
                l(3) =   1
                l(4) =   1
                l(5) =   2
                l(6) =   2
     Q(r) pseudized with  8 coefficients,  rinner =    1.130   1.130   1.130
                                                       1.130   1.130

     PseudoPot. # 2 for Zn read from file:
     /afs/slac.stanford.edu/u/if/mamunm/psp/gbrv1.5pbe/Zn.UPF
     MD5 check sum: df62231357ef9e81f77b2b3087fa5675
     Pseudo is Ultrasoft, Zval = 20.0
     Generated by new atomic code, or converted to UPF format
     Using radial grid of  943 points,  6 beta functions with:
                l(1) =   0
                l(2) =   0
                l(3) =   1
                l(4) =   1
                l(5) =   2
                l(6) =   2
     Q(r) pseudized with  8 coefficients,  rinner =    1.100   1.100   1.100
                                                       1.100   1.100

     vdW kernel table read from file vdW_kernel_table
     MD5 check sum: 095c7af220d748ca6e76c0b4c6cfb241

     atomic species   valence    mass     pseudopotential
        Pd1           16.00   106.42000     Pd( 1.00)
        Zn1           20.00    65.38000     Zn( 1.00)

     No symmetry found

   Cartesian axes

     site n.     atom                  positions (alat units)
         1           Pd1 tau(   1) = (   0.0000000   0.0000000  10.0000000  )
         2           Pd1 tau(   2) = (  -1.3938680   2.4142502  10.0000000  )
         3           Pd1 tau(   3) = (   1.3938680   2.4142502  10.0000000  )
         4           Zn1 tau(   4) = (   2.7877360   0.0000000  10.0000000  )
         5           Pd1 tau(   5) = (   2.7877360   1.6095001  12.2761769  )
         6           Pd1 tau(   6) = (   1.3938680   4.0237504  12.2761769  )
         7           Pd1 tau(   7) = (  -1.3938680   4.0237504  12.2761769  )
         8           Zn1 tau(   8) = (   0.0000000   1.6095001  12.2761769  )
         9           Pd1 tau(   9) = (   0.0000000   3.2053613  14.5556046  )
        10           Pd1 tau(  10) = (   1.3820568   0.8115717  14.5556040  )
        11           Pd1 tau(  11) = (   4.1934148   0.8115711  14.5556045  )
        12           Zn1 tau(  12) = (   2.7877345   3.2190010  14.5204181  )

     number of k points=    20  Fermi-Dirac smearing, width (Ry)=  0.0110
                       cart. coord. in units 2pi/alat
        k(    1) = (   0.0000000   0.0000000   0.0000000), wk =   0.0555556
        k(    2) = (   0.0000000   0.0345173   0.0000000), wk =   0.1111111
        k(    3) = (   0.0000000   0.0690345   0.0000000), wk =   0.1111111
        k(    4) = (   0.0000000  -0.1035518   0.0000000), wk =   0.0555556
        k(    5) = (   0.0298928   0.0172586   0.0000000), wk =   0.1111111
        k(    6) = (   0.0298928   0.0517759   0.0000000), wk =   0.1111111
        k(    7) = (   0.0298928   0.0862932   0.0000000), wk =   0.1111111
        k(    8) = (   0.0298928  -0.0862932   0.0000000), wk =   0.1111111
        k(    9) = (   0.0298928  -0.0517759   0.0000000), wk =   0.1111111
        k(   10) = (   0.0298928  -0.0172586   0.0000000), wk =   0.1111111
        k(   11) = (   0.0597857   0.0345173   0.0000000), wk =   0.1111111
        k(   12) = (   0.0597857   0.0690345   0.0000000), wk =   0.1111111
        k(   13) = (   0.0597857   0.1035518   0.0000000), wk =   0.1111111
        k(   14) = (   0.0597857  -0.0690345   0.0000000), wk =   0.1111111
        k(   15) = (   0.0597857  -0.0345173   0.0000000), wk =   0.1111111
        k(   16) = (   0.0597857   0.0000000   0.0000000), wk =   0.1111111
        k(   17) = (  -0.0896785  -0.0517759   0.0000000), wk =   0.0555556
        k(   18) = (  -0.0896785  -0.0172586   0.0000000), wk =   0.1111111
        k(   19) = (  -0.0896785   0.0172586   0.0000000), wk =   0.1111111
        k(   20) = (  -0.0896785  -0.1553277   0.0000000), wk =   0.0555556

     Largest allocated arrays     est. size (Mb)     dimensions
     Largest temporary arrays     est. size (Mb)     dimensions

     Initial potential from superposition of free atoms
     Check: negative starting charge=   -0.684101

     starting charge  199.49951, renormalised to  204.00000

[...]

     *
     * You are using vdW-DF for exchange-correlation in this calculation.
     * Please cite the following three references that made this development
     * possible:
     *
     *   M. Dion, H. Rydberg, E. Schroder, D. C. Langreth, and
     *   B. I. Lundqvist, Phys. Rev. Lett. 92, 246401 (2004).
     *
     *   T. Thonhauser, V. R. Cooper, S. Li, A. Puzder, P. Hyldgaard, and
     *   D. C. Langreth, Phys. Rev. B 76, 125112 (2007).
     *
     *   G. Roman-Perez and J. M. Soler, Phys. Rev. Lett. 103, 096102 (2009).
     *
     *
     * If you are using vdW-DF2, please also cite:
     *
     *   K. Lee, E. D. Murray, L. Kong, B. I. Lundqvist, and
     *   D. C. Langreth, Phys. Rev. B 82, 081101(R) (2010).
     *
     *
     * If you are calculating the stress with vdW-DF, please also cite:
     *
     *   R. Sabatini, E. Kucukbenli, B. Kolb, T. Thonhauser, and
     *   S. de Gironcoli, J. Phys.: Condens. Matter 24, 424209 (2012).
     *

     Carrying out vdW-DF run using the following parameters:

     Nqs =      20    Nr_points =    1024   r_max =   100.000
     q_mesh =
               0.00001000     0.04494208     0.09755937     0.15916263
               0.23128650     0.31572767     0.41458969     0.53033537
               0.66584808     0.82450364     1.01025438     1.22772762
               1.48234092     1.78043706     2.12944203     2.53805004
               3.01644009     3.57652955     4.23227104     5.00000000

     Gradients computed in reciprocal space

[...]

     Starting wfc are  147 randomized atomic wfcs

     Self-consistent Calculation

[...]

     total energy              =   -3186.60531661 Ry
     Harris-Foulkes estimate   =   -3186.60531817 Ry
     estimated scf accuracy    <       0.00000173 Ry

     iteration # 16     ecut=    36.75 Ry     beta=0.10
     Davidson diagonalization with overlap
     ethr =  8.46E-10,  avg # of iterations =  2.0

[...]

     negative rho (up, down):  7.125E-01 0.000E+00

     Adding external electric field

     Computed dipole along edir(3) :
        Dipole               -0.0021 Ry au,         -0.0054 Debye
        Dipole field         -0.0000 Ry au

        Potential amp.        0.0005 Ry
        Total length         45.2373 bohr

     End of self-consistent calculation

[...]

          k = 0.0598 0.0000 0.0000 ( 16760 PWs)   bands (ev):

[...]

          k =-0.0897-0.1553 0.0000 ( 16808 PWs)   bands (ev):

  -124.9185-124.8910-124.8896 -79.1073 -79.1072 -79.0988 -79.0906 -79.0896
   -79.0673 -79.0671 -79.0655 -79.0654 -49.0367 -48.9697 -48.9638 -48.9542
   -48.9486 -48.9450 -48.9444 -48.9360 -48.8504 -48.8186 -48.8045 -48.7419
   -48.7371 -48.7355 -48.7285 -48.7234 -48.7219 -48.7143 -48.7112 -48.6344
   -48.6328 -48.5764 -48.5736 -48.5709 -48.5606 -48.5583 -48.5557  -5.9941
    -5.9666  -5.9262  -5.9251  -5.9229  -5.9214  -5.9029  -5.8872  -5.8724
    -5.8515  -5.8309  -5.8274  -5.8274  -5.8246  -5.7691  -4.5977  -4.4283
    -3.6572  -3.3408  -3.0761  -3.0623  -2.8727  -2.5596  -2.4970  -2.4232
    -2.3987  -2.2409  -2.2154  -2.1797  -2.0897  -2.0661  -1.9516  -1.8158
    -1.6868  -1.5490  -1.4793  -1.3647  -1.3411  -1.2514  -1.1883  -1.1409
    -1.1120  -1.0932  -1.0208  -0.9841  -0.9257  -0.9202  -0.7451  -0.6097
    -0.5751  -0.5286  -0.5036  -0.4697  -0.4406  -0.2667  -0.2097  -0.1758
    -0.1002  -0.0513   0.1531   0.3051   0.3467   0.6193   0.9107   1.4416
     2.1235   2.2416   2.8810   3.0613   3.5729   4.4186   4.6584   5.1422
     5.4063   6.4814   6.5071   7.1125   7.1192   7.2551   7.2591   7.6275
     7.9910   8.1003   8.3298   8.3499   8.4482   8.7667   8.8198   8.9183
     9.0557   9.4592   9.6169   9.7473

     the Fermi energy is     0.8405 ev

!    total energy              =   -3186.60531496 Ry
     Harris-Foulkes estimate   =   -3186.60531669 Ry
     estimated scf accuracy    <       0.00000039 Ry

     The total energy is the sum of the following terms:

     one-electron contribution =  -24193.72426245 Ry
     hartree contribution      =   12130.55256714 Ry
     xc contribution           =    -423.21091514 Ry
     ewald contribution        =    9299.83956637 Ry
     electric field correction =       0.00000001 Ry
     smearing contrib. (-TS)   =      -0.06227090 Ry

     convergence has been achieved in  16 iterations

 BEEF-vdW xc energy contributions
           1 :   -370.903275245519
           2 :    338.170403036868
           3 :   -282.619450249501
           4 :    219.565233424208
           5 :   -163.403531293665
           6 :    122.626845737289
           7 :   -98.1935822983004
           8 :    85.3729756889123
           9 :   -77.5440622073751
          10 :    69.7445536435127
          11 :   -60.3363646724710
          12 :    50.4643826415555
          13 :   -42.2257481071041
          14 :    36.9216438204014
          15 :   -34.3545838261126
          16 :    33.2589020670245
          17 :   -32.2636929129550
          18 :    30.6429903475375
          19 :   -28.4626053665028
          20 :    26.2205784125578
          21 :   -24.3706418805165
          22 :    23.0631645317367
          23 :   -22.1789671123679
          24 :    21.5055188527568
          25 :   -20.8739367100579
          26 :    20.1865059985519
          27 :   -19.3899839353169
          28 :    18.4710612241360
          29 :   -17.4855631385130
          30 :    16.5644197758720
          31 :   -33.7227098463209
          32 :   -24.4138290239052

     Forces acting on atoms (Ry/au):

     negative rho (up, down):  7.125E-01 0.000E+00
     atom    1 type  1   force =    -0.00000001    0.00817082   -0.00104085
     atom    2 type  1   force =     0.00707615   -0.00408560   -0.00104081
     atom    3 type  1   force =    -0.00707611   -0.00408563   -0.00104078
     atom    4 type  2   force =     0.00000002    0.00000103    0.00430313
     atom    5 type  1   force =     0.00000005   -0.00119510    0.00020750
     atom    6 type  1   force =    -0.00103502    0.00059747    0.00020794
     atom    7 type  1   force =     0.00103507    0.00059737    0.00020784
     atom    8 type  2   force =    -0.00000017    0.00000003   -0.00060888
     atom    9 type  1   force =    -0.00000000   -0.00044002   -0.00009788
     atom   10 type  1   force =    -0.00038128    0.00021959   -0.00009780
     atom   11 type  1   force =     0.00038155    0.00021986   -0.00009786
     atom   12 type  2   force =    -0.00000025    0.00000019   -0.00090155

     Total force =     0.015108     Total SCF correction =     0.003479
     SCF correction compared to forces is large: reduce conv_thr to get better values

     entering subroutine stress ...

     negative rho (up, down):  7.125E-01 0.000E+00
          total   stress  (Ry/bohr**3)                   (kbar)     P=  -10.87
  -0.00009639   0.00000000   0.00000000        -14.18      0.00      0.00
   0.00000000  -0.00009639  -0.00000000          0.00    -14.18     -0.00
   0.00000000  -0.00000000  -0.00002884          0.00     -0.00     -4.24

 !ASE

     Writing output data file calc.save

     General routines

     Parallel routines

   This run was terminated on:  19:28: 2  27Dec2018

   JOB DONE.
Job  /afs/slac/g/suncat/bin/suncat-tsmpirun -x LD_LIBRARY_PATH -wdir /scratch/qe110494_53cnp pw.x -in pw.inp

TID   HOST_NAME   COMMAND_LINE            STATUS            TERMINATION_TIME
00000 suncat0156 pw.x -in pw.inp   Done                     12/27/2018 19:28:02
00001 suncat0156 pw.x -in pw.inp   Done                     12/27/2018 19:28:02
00002 suncat0156 pw.x -in pw.inp   Done                     12/27/2018 19:28:02
00003 suncat0156 pw.x -in pw.inp   Done                     12/27/2018 19:28:02
00004 suncat0156 pw.x -in pw.inp   Done                     12/27/2018 19:28:02
00005 suncat0156 pw.x -in pw.inp   Done                     12/27/2018 19:28:02
00006 suncat0156 pw.x -in pw.inp   Done                     12/27/2018 19:28:02
00007 suncat0156 pw.x -in pw.inp   Done                     12/27/2018 19:28:02
00008 suncat0153 pw.x -in pw.inp   Done                     12/27/2018 19:28:02
00009 suncat0153 pw.x -in pw.inp   Done                     12/27/2018 19:28:02
00010 suncat0153 pw.x -in pw.inp   Done                     12/27/2018 19:28:02
00011 suncat0153 pw.x -in pw.inp   Done                     12/27/2018 19:28:02
00012 suncat0153 pw.x -in pw.inp   Done                     12/27/2018 19:28:02
00013 suncat0153 pw.x -in pw.inp   Done                     12/27/2018 19:28:02
00014 suncat0153 pw.x -in pw.inp   Done                     12/27/2018 19:28:02
00015 suncat0153 pw.x -in pw.inp   Done                     12/27/2018 19:28:02
00016 suncat0145 pw.x -in pw.inp   Done                     12/27/2018 19:28:02
00017 suncat0145 pw.x -in pw.inp   Done                     12/27/2018 19:28:02
00018 suncat0145 pw.x -in pw.inp   Done                     12/27/2018 19:28:02
00019 suncat0145 pw.x -in pw.inp   Done                     12/27/2018 19:28:02
00020 suncat0145 pw.x -in pw.inp   Done                     12/27/2018 19:28:02
00021 suncat0145 pw.x -in pw.inp   Done                     12/27/2018 19:28:02
00022 suncat0145 pw.x -in pw.inp   Done                     12/27/2018 19:28:02
00023 suncat0145 pw.x -in pw.inp   Done                     12/27/2018 19:28:02
00024 suncat0144 pw.x -in pw.inp   Done                     12/27/2018 19:28:02
00025 suncat0144 pw.x -in pw.inp   Done                     12/27/2018 19:28:02
00026 suncat0144 pw.x -in pw.inp   Done                     12/27/2018 19:28:02
00027 suncat0144 pw.x -in pw.inp   Done                     12/27/2018 19:28:02
00028 suncat0144 pw.x -in pw.inp   Done                     12/27/2018 19:28:02
00029 suncat0144 pw.x -in pw.inp   Done                     12/27/2018 19:28:02
00030 suncat0144 pw.x -in pw.inp   Done                     12/27/2018 19:28:02
00031 suncat0144 pw.x -in pw.inp   Done                     12/27/2018 19:28:02
00032 suncat0133 pw.x -in pw.inp   Done                     12/27/2018 19:28:02
00033 suncat0133 pw.x -in pw.inp   Done                     12/27/2018 19:28:02
00034 suncat0133 pw.x -in pw.inp   Done                     12/27/2018 19:28:02
00035 suncat0133 pw.x -in pw.inp   Done                     12/27/2018 19:28:02
00036 suncat0133 pw.x -in pw.inp   Done                     12/27/2018 19:28:02
00037 suncat0133 pw.x -in pw.inp   Done                     12/27/2018 19:28:02
00038 suncat0133 pw.x -in pw.inp   Done                     12/27/2018 19:28:02
00039 suncat0133 pw.x -in pw.inp   Done                     12/27/2018 19:28:02
00040 suncat0132 pw.x -in pw.inp   Done                     12/27/2018 19:28:02
00041 suncat0132 pw.x -in pw.inp   Done                     12/27/2018 19:28:02
00042 suncat0132 pw.x -in pw.inp   Done                     12/27/2018 19:28:02
00043 suncat0132 pw.x -in pw.inp   Done                     12/27/2018 19:28:02
00044 suncat0132 pw.x -in pw.inp   Done                     12/27/2018 19:28:02
00045 suncat0132 pw.x -in pw.inp   Done                     12/27/2018 19:28:02
00046 suncat0132 pw.x -in pw.inp   Done                     12/27/2018 19:28:02
00047 suncat0132 pw.x -in pw.inp   Done                     12/27/2018 19:28:02
00048 suncat0131 pw.x -in pw.inp   Done                     12/27/2018 19:28:02
00049 suncat0131 pw.x -in pw.inp   Done                     12/27/2018 19:28:02
00050 suncat0131 pw.x -in pw.inp   Done                     12/27/2018 19:28:02
00051 suncat0131 pw.x -in pw.inp   Done                     12/27/2018 19:28:02
00052 suncat0131 pw.x -in pw.inp   Done                     12/27/2018 19:28:02
00053 suncat0131 pw.x -in pw.inp   Done                     12/27/2018 19:28:02
00054 suncat0131 pw.x -in pw.inp   Done                     12/27/2018 19:28:02
00055 suncat0131 pw.x -in pw.inp   Done                     12/27/2018 19:28:02
00056 suncat0130 pw.x -in pw.inp   Done                     12/27/2018 19:28:02
00057 suncat0130 pw.x -in pw.inp   Done                     12/27/2018 19:28:02
00058 suncat0130 pw.x -in pw.inp   Done                     12/27/2018 19:28:02
00059 suncat0130 pw.x -in pw.inp   Done                     12/27/2018 19:28:02
00060 suncat0130 pw.x -in pw.inp   Done                     12/27/2018 19:28:02
00061 suncat0130 pw.x -in pw.inp   Done                     12/27/2018 19:28:02
00062 suncat0130 pw.x -in pw.inp   Done                     12/27/2018 19:28:02
00063 suncat0130 pw.x -in pw.inp   Done                     12/27/2018 19:28:02