     Program PWSCF v.5.1rc2 (svn rev. 11289) starts on 30Dec2018 at 21: 5:14

     Current dimensions of program PWSCF are:
     Max number of different atomic species (ntypx) = 10
     Max number of k-points (npk) =  40000
     Max angular momentum in pseudopotentials (lmaxx) =  3
     Presently stress not available with electric field

     IMPORTANT: XC functional enforced from input :
     Exchange-correlation      = BEEF-VDW ( 1  4 27 13 2)
     Any further DFT definition will be discarded
     Please, verify this is what you really want

     Subspace diagonalization in iterative solution of the eigenvalue problem:
     a serial algorithm will be used

     bravais-lattice index     =            0
     lattice parameter (alat)  =       1.8897  a.u.
     unit-cell volume          =    5363.0602 (a.u.)^3
     number of atoms/cell      =           12
     number of atomic types    =            2
     number of electrons       =       153.00
     number of Kohn-Sham states=          106
     kinetic-energy cutoff     =      36.7493  Ry
     charge density cutoff     =     367.4932  Ry
     convergence threshold     =      1.0E-06
     mixing beta               =       0.1000
     number of iterations used =           10  plain     mixing
     Exchange-correlation      = BEEF-VDW ( 1  4 27 13 2)
     nstep                     =           50

     celldm(1)=   1.889726  celldm(2)=   0.000000  celldm(3)=   0.000000
     celldm(4)=   0.000000  celldm(5)=   0.000000  celldm(6)=   0.000000

     crystal axes: (cart. coord. in units of alat)
               a(1) = (   6.064476   0.000000   0.000000 )
               a(2) = (  -3.032238   5.251991   0.000000 )
               a(3) = (   0.000000   0.000000  24.951624 )

     reciprocal axes: (cart. coord. in units 2 pi/alat)
               b(1) = (  0.164895  0.095202  0.000000 )
               b(2) = (  0.000000  0.190404  0.000000 )
               b(3) = (  0.000000  0.000000  0.040078 )

     PseudoPot. # 1 for Nb read from file:
     /afs/slac.stanford.edu/u/if/mamunm/psp/gbrv1.5pbe/Nb.UPF
     MD5 check sum: 573aab8a2fa660278ed4a62cd769473f
     Pseudo is Ultrasoft + core correction, Zval = 13.0
     Generated by new atomic code, or converted to UPF format
     Using radial grid of  887 points,  6 beta functions with:
                l(1) =   0
                l(2) =   0
                l(3) =   1
                l(4) =   1
                l(5) =   2
                l(6) =   2
     Q(r) pseudized with  6 coefficients,  rinner =    1.000   1.000   1.000
                                                       1.000   1.000

     PseudoPot. # 2 for Hf read from file:
     /afs/slac.stanford.edu/u/if/mamunm/psp/gbrv1.5pbe/Hf.UPF
     MD5 check sum: 8ee9378dfe14276e333edf04c5e4aa26
     Pseudo is Ultrasoft + core correction, Zval = 12.0
     Generated by new atomic code, or converted to UPF format
     Using radial grid of  921 points,  8 beta functions with:
                l(1) =   0
                l(2) =   0
                l(3) =   0
                l(4) =   1
                l(5) =   1
                l(6) =   2
                l(7) =   2
                l(8) =   3
     Q(r) pseudized with  6 coefficients,  rinner =    1.200   1.200   1.200
                                                       1.200   1.200   1.200
                                                       1.200

     vdW kernel table read from file vdW_kernel_table
     MD5 check sum: 095c7af220d748ca6e76c0b4c6cfb241

     atomic species   valence    mass     pseudopotential
        Nb1           13.00    92.90637     Nb( 1.00)
        Hf1           12.00   178.49000     Hf( 1.00)

     No symmetry found

   Cartesian axes

     site n.     atom                  positions (alat units)
         1           Nb1 tau(   1) = (   0.0000000   0.0000000  10.0000000  )
         2           Nb1 tau(   2) = (  -1.5161191   2.6259953  10.0000000  )
         3           Nb1 tau(   3) = (   1.5161191   2.6259953  10.0000000  )
         4           Hf1 tau(   4) = (   3.0322382   0.0000000  10.0000000  )
         5           Nb1 tau(   5) = (   3.0322382   1.7506635  12.4758121  )
         6           Nb1 tau(   6) = (   1.5161191   4.3766588  12.4758121  )
         7           Nb1 tau(   7) = (  -1.5161191   4.3766588  12.4758121  )
         8           Hf1 tau(   8) = (   0.0000000   1.7506635  12.4758121  )
         9           Nb1 tau(   9) = (  -0.0000000   3.5013271  14.9516242  )
        10           Nb1 tau(  10) = (   1.5161191   0.8753318  14.9516242  )
        11           Nb1 tau(  11) = (   4.5483573   0.8753318  14.9516242  )
        12           Hf1 tau(  12) = (   3.0322382   3.5013271  14.9516242  )

     number of k points=    20  Fermi-Dirac smearing, width (Ry)=  0.0110
                       cart. coord. in units 2pi/alat
        k(    1) = (   0.0000000   0.0000000   0.0000000), wk =   0.0555556
        k(    2) = (   0.0000000   0.0317340   0.0000000), wk =   0.1111111
        k(    3) = (   0.0000000   0.0634680   0.0000000), wk =   0.1111111
        k(    4) = (   0.0000000  -0.0952020   0.0000000), wk =   0.0555556
        k(    5) = (   0.0274824   0.0158670   0.0000000), wk =   0.1111111
        k(    6) = (   0.0274824   0.0476010   0.0000000), wk =   0.1111111
        k(    7) = (   0.0274824   0.0793350   0.0000000), wk =   0.1111111
        k(    8) = (   0.0274824  -0.0793350   0.0000000), wk =   0.1111111
        k(    9) = (   0.0274824  -0.0476010   0.0000000), wk =   0.1111111
        k(   10) = (   0.0274824  -0.0158670   0.0000000), wk =   0.1111111
        k(   11) = (   0.0549649   0.0317340   0.0000000), wk =   0.1111111
        k(   12) = (   0.0549649   0.0634680   0.0000000), wk =   0.1111111
        k(   13) = (   0.0549649   0.0952020   0.0000000), wk =   0.1111111
        k(   14) = (   0.0549649  -0.0634680   0.0000000), wk =   0.1111111
        k(   15) = (   0.0549649  -0.0317340   0.0000000), wk =   0.1111111
        k(   16) = (   0.0549649   0.0000000   0.0000000), wk =   0.1111111
        k(   17) = (  -0.0824473  -0.0476010   0.0000000), wk =   0.0555556
        k(   18) = (  -0.0824473  -0.0158670   0.0000000), wk =   0.1111111
        k(   19) = (  -0.0824473   0.0158670   0.0000000), wk =   0.1111111
        k(   20) = (  -0.0824473  -0.1428030   0.0000000), wk =   0.0555556

     Largest allocated arrays     est. size (Mb)     dimensions
     Largest temporary arrays     est. size (Mb)     dimensions

     Check: negative/imaginary core charge=   -0.000002    0.000000

     Initial potential from superposition of free atoms
     Check: negative starting charge=   -0.322682

     starting charge  146.97540, renormalised to  153.00000

     negative rho (up, down):  3.359E-01 0.000E+00

     *
     * You are using vdW-DF for exchange-correlation in this calculation.
     * Please cite the following three references that made this development
     * possible:
     *
     *   M. Dion, H. Rydberg, E. Schroder, D. C. Langreth, and
     *   B. I. Lundqvist, Phys. Rev. Lett. 92, 246401 (2004).
     *
     *   T. Thonhauser, V. R. Cooper, S. Li, A. Puzder, P. Hyldgaard, and
     *   D. C. Langreth, Phys. Rev. B 76, 125112 (2007).
     *
     *   G. Roman-Perez and J. M. Soler, Phys. Rev. Lett. 103, 096102 (2009).
     *
     *
     * If you are using vdW-DF2, please also cite:
     *
     *   K. Lee, E. D. Murray, L. Kong, B. I. Lundqvist, and
     *   D. C. Langreth, Phys. Rev. B 82, 081101(R) (2010).
     *
     *
     * If you are calculating the stress with vdW-DF, please also cite:
     *
     *   R. Sabatini, E. Kucukbenli, B. Kolb, T. Thonhauser, and
     *   S. de Gironcoli, J. Phys.: Condens. Matter 24, 424209 (2012).
     *

     Carrying out vdW-DF run using the following parameters:

     Nqs =      20    Nr_points =    1024   r_max =   100.000
     q_mesh =
               0.00001000     0.04494208     0.09755937     0.15916263
               0.23128650     0.31572767     0.41458969     0.53033537
               0.66584808     0.82450364     1.01025438     1.22772762
               1.48234092     1.78043706     2.12944203     2.53805004
               3.01644009     3.57652955     4.23227104     5.00000000

     Gradients computed in reciprocal space

     Adding external electric field

     Computed dipole along edir(3) :
        Dipole               -0.0000 Ry au,         -0.0000 Debye
        Dipole field         -0.0000 Ry au

        Potential amp.        0.0000 Ry
        Total length         45.9729 bohr

     Starting wfc are  156 randomized atomic wfcs

     Self-consistent Calculation

     iteration #  1     ecut=    36.75 Ry     beta=0.10
     Davidson diagonalization with overlap
     ethr =  1.00E-02,  avg # of iterations =  2.2

[...]

     total energy              =   -1548.77510135 Ry
     Harris-Foulkes estimate   =   -1550.80381901 Ry
     estimated scf accuracy    <      12.99336152 Ry

[...]

     End of self-consistent calculation

          k = 0.0000 0.0000 0.0000 ( 20095 PWs)   bands (ev):

   -60.6745 -60.6745 -60.2485 -53.3603 -53.3303 -53.2876 -53.2666 -53.2666
   -53.2543 -53.2543 -53.2291 -53.2291 -29.7835 -29.7575 -29.7575 -29.7299
   -29.6829 -29.6829 -29.6796 -29.6629 -29.6629 -29.6600 -29.4234 -29.3198
   -29.3197 -29.2821 -29.2821 -29.2620 -29.2225 -29.1905 -29.1064 -29.1024
   -29.1024 -29.1006 -29.1006 -29.0558 -29.0558 -29.0334 -29.0262 -28.9964
   -28.9964 -28.8751 -28.8751 -28.8631 -28.8631 -28.7162 -28.6305 -28.6305
    -4.1055  -2.8020  -2.1589  -1.6901  -1.5676  -1.5676  -1.5484  -1.2929
    -1.2929  -1.0033  -0.8603  -0.8359  -0.8359  -0.8077  -0.8077   0.2025
     0.2918   0.2918   1.1777   1.3066   1.3066   1.3431   1.6584   1.7511
     2.0543   2.0543   2.1370   2.1370   2.1532   2.3324   2.3324   2.3757
     2.4782   2.4782   2.5240   2.5763   2.5763   2.9156   2.9156   3.2018
     3.5254   3.7575   3.7575   3.8817   3.8818   3.9404   4.3440   4.3440
     4.6150   4.6150   5.1144   5.1144   5.1319   5.2280   5.4162   5.6173
     6.0112   6.0196

[...]

          k =-0.0824-0.0476 0.0000 ( 20204 PWs)   bands (ev):

[...]

     the Fermi energy is     1.7447 ev

!    total energy              =   -1548.19915729 Ry
     Harris-Foulkes estimate   =   -1548.19915697 Ry
     estimated scf accuracy    <       0.00000018 Ry

     The total energy is the sum of the following terms:

     one-electron contribution =  -10561.64001730 Ry
     hartree contribution      =    5270.33135506 Ry
     xc contribution           =    -403.04901665 Ry
     ewald contribution        =    4146.27852144 Ry
     electric field correction =       0.00000000 Ry
     smearing contrib. (-TS)   =      -0.11999983 Ry

     convergence has been achieved in  20 iterations

 BEEF-vdW xc energy contributions
           1 :   -356.159155935515
           2 :    328.139105573808
           3 :   -279.315081922674
           4 :    221.131810395792
           5 :   -165.074393414007
           6 :    119.084138519292
           7 :   -86.0230398544743
           8 :    64.3633766095966
           9 :   -50.3122853459479
          10 :    40.0707055170094
          11 :   -31.2472674650141
[...]
     MD5 check sum: 573aab8a2fa660278ed4a62cd769473f
     Pseudo is Ultrasoft + core correction, Zval = 13.0
     Generated by new atomic code, or converted to UPF format
     Using radial grid of  887 points,  6 beta functions with:
                l(1) =   0
                l(2) =   0
                l(3) =   1
                l(4) =   1
                l(5) =   2
                l(6) =   2
     Q(r) pseudized with  6 coefficients,  rinner =    1.000   1.000   1.000
                                                       1.000   1.000

     PseudoPot. # 2 for Hf read from file:
     /afs/slac.stanford.edu/u/if/mamunm/psp/gbrv1.5pbe/Hf.UPF
     MD5 check sum: 8ee9378dfe14276e333edf04c5e4aa26
     Pseudo is Ultrasoft + core correction, Zval = 12.0
     Generated by new atomic code, or converted to UPF format
     Using radial grid of  921 points,  8 beta functions with:
                l(1) =   0
                l(2) =   0
                l(3) =   0
                l(4) =   1
                l(5) =   1
                l(6) =   2
                l(7) =   2
                l(8) =   3
     Q(r) pseudized with  6 coefficients,  rinner =    1.200   1.200   1.200
                                                       1.200   1.200   1.200
                                                       1.200

     vdW kernel table read from file vdW_kernel_table
     MD5 check sum: 095c7af220d748ca6e76c0b4c6cfb241

     atomic species   valence    mass     pseudopotential
        Nb1           13.00    92.90637     Nb( 1.00)
        Hf1           12.00   178.49000     Hf( 1.00)

     No symmetry found

   Cartesian axes

     site n.     atom                  positions (alat units)
         1           Nb1 tau(   1) = (   0.0000000   0.0000000  10.0000000  )
         2           Nb1 tau(   2) = (  -1.5161191   2.6259953  10.0000000  )
         3           Nb1 tau(   3) = (   1.5161191   2.6259953  10.0000000  )
         4           Hf1 tau(   4) = (   3.0322382   0.0000000  10.0000000  )
         5           Nb1 tau(   5) = (   3.0322382   1.7506635  12.4758121  )
         6           Nb1 tau(   6) = (   1.5161191   4.3766588  12.4758121  )
         7           Nb1 tau(   7) = (  -1.5161191   4.3766588  12.4758121  )
         8           Hf1 tau(   8) = (   0.0000000   1.7506635  12.4758121  )
         9           Nb1 tau(   9) = (   0.0000037   3.6017830  14.8465566  )
        10           Nb1 tau(  10) = (   1.6031224   0.8251118  14.8465618  )
        11           Nb1 tau(  11) = (   4.4613583   0.8251079  14.8465612  )
        12           Hf1 tau(  12) = (   3.0322320   3.5013370  15.0800451  )

     number of k points=    20  Fermi-Dirac smearing, width (Ry)=  0.0110
                       cart. coord. in units 2pi/alat
        k(    1) = (   0.0000000   0.0000000   0.0000000), wk =   0.0555556
        k(    2) = (   0.0000000   0.0317340   0.0000000), wk =   0.1111111
        k(    3) = (   0.0000000   0.0634680   0.0000000), wk =   0.1111111
        k(    4) = (   0.0000000  -0.0952020   0.0000000), wk =   0.0555556
        k(    5) = (   0.0274824   0.0158670   0.0000000), wk =   0.1111111
        k(    6) = (   0.0274824   0.0476010   0.0000000), wk =   0.1111111
        k(    7) = (   0.0274824   0.0793350   0.0000000), wk =   0.1111111
        k(    8) = (   0.0274824  -0.0793350   0.0000000), wk =   0.1111111
        k(    9) = (   0.0274824  -0.0476010   0.0000000), wk =   0.1111111
        k(   10) = (   0.0274824  -0.0158670   0.0000000), wk =   0.1111111
        k(   11) = (   0.0549649   0.0317340   0.0000000), wk =   0.1111111
        k(   12) = (   0.0549649   0.0634680   0.0000000), wk =   0.1111111
        k(   13) = (   0.0549649   0.0952020   0.0000000), wk =   0.1111111
        k(   14) = (   0.0549649  -0.0634680   0.0000000), wk =   0.1111111
        k(   15) = (   0.0549649  -0.0317340   0.0000000), wk =   0.1111111
        k(   16) = (   0.0549649   0.0000000   0.0000000), wk =   0.1111111
        k(   17) = (  -0.0824473  -0.0476010   0.0000000), wk =   0.0555556
        k(   18) = (  -0.0824473  -0.0158670   0.0000000), wk =   0.1111111
        k(   19) = (  -0.0824473   0.0158670   0.0000000), wk =   0.1111111
        k(   20) = (  -0.0824473  -0.1428030   0.0000000), wk =   0.0555556

     Largest allocated arrays     est. size (Mb)     dimensions
     Largest temporary arrays     est. size (Mb)     dimensions

     Check: negative/imaginary core charge=   -0.000002    0.000000

     Initial potential from superposition of free atoms
     Check: negative starting charge=   -0.322130

     starting charge  146.97540, renormalised to  153.00000

[...]

     *
     * You are using vdW-DF for exchange-correlation in this calculation.
     * Please cite the following three references that made this development
     * possible:
     *
     *   M. Dion, H. Rydberg, E. Schroder, D. C. Langreth, and
     *   B. I. Lundqvist, Phys. Rev. Lett. 92, 246401 (2004).
     *
     *   T. Thonhauser, V. R. Cooper, S. Li, A. Puzder, P. Hyldgaard, and
     *   D. C. Langreth, Phys. Rev. B 76, 125112 (2007).
     *
     *   G. Roman-Perez and J. M. Soler, Phys. Rev. Lett. 103, 096102 (2009).
     *
     *
     * If you are using vdW-DF2, please also cite:
     *
     *   K. Lee, E. D. Murray, L. Kong, B. I. Lundqvist, and
     *   D. C. Langreth, Phys. Rev. B 82, 081101(R) (2010).
     *
     *
     * If you are calculating the stress with vdW-DF, please also cite:
     *
     *   R. Sabatini, E. Kucukbenli, B. Kolb, T. Thonhauser, and
     *   S. de Gironcoli, J. Phys.: Condens. Matter 24, 424209 (2012).
     *

     Carrying out vdW-DF run using the following parameters:

     Nqs =      20    Nr_points =    1024   r_max =   100.000
     q_mesh =
               0.00001000     0.04494208     0.09755937     0.15916263
               0.23128650     0.31572767     0.41458969     0.53033537
               0.66584808     0.82450364     1.01025438     1.22772762
               1.48234092     1.78043706     2.12944203     2.53805004
               3.01644009     3.57652955     4.23227104     5.00000000

     Gradients computed in reciprocal space

[...]

     Starting wfc are  156 randomized atomic wfcs

     Self-consistent Calculation

[...]

     total energy              =   -1548.22152054 Ry
     Harris-Foulkes estimate   =   -1548.22152151 Ry
     estimated scf accuracy    <       0.00000301 Ry

     iteration # 20     ecut=    36.75 Ry     beta=0.10
     Davidson diagonalization with overlap
     ethr =  1.01E-09,  avg # of iterations =  3.1

[...]

     negative rho (up, down):  3.443E-01 0.000E+00

     Adding external electric field

     Computed dipole along edir(3) :
        Dipole                0.0462 Ry au,          0.1174 Debye
        Dipole field          0.0001 Ry au

        Potential amp.       -0.0100 Ry
        Total length         45.9729 bohr

     End of self-consistent calculation

[...]

          k = 0.0550 0.0000 0.0000 ( 20189 PWs)   bands (ev):

[...]

          k =-0.0824-0.1428 0.0000 ( 20204 PWs)   bands (ev):

   -60.8694 -60.6226 -60.2495 -53.2742 -53.2642 -53.2355 -53.2158 -53.2097
   -53.1838 -53.1773 -53.1493 -53.1309 -29.6532 -29.6327 -29.6171 -29.5904
   -29.5226 -29.5070 -29.4935 -29.4874 -29.4700 -29.4390 -29.4059 -29.3484
   -29.3399 -29.3161 -29.2706 -29.2562 -29.2264 -29.2136 -29.2074 -29.1592
   -29.1295 -29.1143 -29.0975 -29.0846 -29.0568 -29.0184 -28.9723 -28.9717
   -28.9681 -28.9395 -28.9232 -28.8920 -28.8622 -28.7721 -28.6782 -28.6457
    -2.5517  -2.4134  -1.4514  -1.3450  -0.9199  -0.8564  -0.6595  -0.5554
    -0.5436  -0.5158  -0.1021   0.0666   0.1112   0.1263   0.2946   0.3414
     0.5681   0.6569   0.6895   0.7529   0.7868   0.9661   1.0207   1.2903
     1.3489   1.3697   1.4130   1.4778   1.5150   1.5986   1.7378   1.7407
     1.8258   2.0333   2.1695   2.2236   2.3579   2.4580   2.7345   2.9031
     3.0778   3.3000   3.3706   3.4454   3.6021   3.6943   3.7062   3.7479
     3.8499   3.9910   4.1066   4.3206   4.4800   4.5505   4.7361   4.9873
     4.9954   5.1591

     the Fermi energy is     1.7878 ev

!    total energy              =   -1548.22151984 Ry
     Harris-Foulkes estimate   =   -1548.22152190 Ry
     estimated scf accuracy    <       0.00000082 Ry

     The total energy is the sum of the following terms:

     one-electron contribution =  -10638.63427957 Ry
     hartree contribution      =    5309.04298930 Ry
     xc contribution           =    -403.16700632 Ry
     ewald contribution        =    4184.65369741 Ry
     electric field correction =       0.00000500 Ry
     smearing contrib. (-TS)   =      -0.11692566 Ry

     convergence has been achieved in  20 iterations

 BEEF-vdW xc energy contributions
           1 :   -356.658782553990
           2 :    328.669870519409
           3 :   -279.886788123631
           4 :    221.719019716871
           5 :   -165.622431627186
           6 :    119.536458521727
           7 :   -86.3579865432176
           8 :    64.6142509069084
           9 :   -50.5530102425633
          10 :    40.3747183788374
          11 :   -31.6471895054901
          12 :    23.5442320926252
          13 :   -16.2278248361936
          14 :    9.97784986960244
          15 :   -4.64395073607216
          16 :  -0.357232431023874
          17 :    5.61826950908119
          18 :   -11.2563975372215
          19 :    16.7049313569470
          20 :   -20.9270239128850
          21 :    22.9208259171466
          22 :   -22.2347591609476
          23 :    19.2124393539513
          24 :   -14.8672020598185
          25 :    10.4764678653580
          26 :   -7.11971810206012
          27 :    5.36180789922213
          28 :   -5.17876946033891
          29 :    6.08916105678662
          30 :   -7.39107366445933
          31 :   -31.9405828172455
          32 :   -23.6000071161173

     Forces acting on atoms (Ry/au):

     negative rho (up, down):  3.443E-01 0.000E+00
     atom    1 type  1   force =    -0.00000056   -0.00950663    0.01319227
     atom    2 type  1   force =    -0.00823339    0.00475283    0.01319164
     atom    3 type  1   force =     0.00823258    0.00475324    0.01319279
     atom    4 type  2   force =     0.00000074    0.00000020   -0.00974224
     atom    5 type  1   force =    -0.00000160    0.01988213   -0.00818418
     atom    6 type  1   force =     0.01721729   -0.00994215   -0.00818504
     atom    7 type  1   force =    -0.01721865   -0.00994060   -0.00818261
     atom    8 type  2   force =     0.00000529    0.00000213   -0.00524372
     atom    9 type  1   force =    -0.00000132    0.00025771    0.00012987
     atom   10 type  1   force =     0.00022297   -0.00012911    0.00012932
     atom   11 type  1   force =    -0.00022419   -0.00012822    0.00012980
     atom   12 type  2   force =     0.00000086   -0.00000153   -0.00042789

     Total force =     0.047988     Total SCF correction =     0.002171

     entering subroutine stress ...

     negative rho (up, down):  3.443E-01 0.000E+00
          total   stress  (Ry/bohr**3)                   (kbar)     P=  -18.44
  -0.00017013   0.00000000   0.00000000        -25.03      0.00      0.00
   0.00000000  -0.00017013   0.00000000          0.00    -25.03      0.00
   0.00000000   0.00000000  -0.00003578          0.00      0.00     -5.26

 !ASE

     Writing output data file calc.save

     General routines

     Parallel routines

   This run was terminated on:   1: 2:43  31Dec2018

   JOB DONE.
Job  /afs/slac/g/suncat/bin/suncat-tsmpirun -x LD_LIBRARY_PATH -wdir /scratch/qe648632_UbrAg pw.x -in pw.inp

TID   HOST_NAME   COMMAND_LINE            STATUS            TERMINATION_TIME
00000 suncat0154 pw.x -in pw.inp   Done                     12/31/2018 01:02:43
00001 suncat0154 pw.x -in pw.inp   Done                     12/31/2018 01:02:43
00002 suncat0154 pw.x -in pw.inp   Done                     12/31/2018 01:02:43
00003 suncat0154 pw.x -in pw.inp   Done                     12/31/2018 01:02:43
00004 suncat0154 pw.x -in pw.inp   Done                     12/31/2018 01:02:43
00005 suncat0154 pw.x -in pw.inp   Done                     12/31/2018 01:02:43
00006 suncat0154 pw.x -in pw.inp   Done                     12/31/2018 01:02:43
00007 suncat0154 pw.x -in pw.inp   Done                     12/31/2018 01:02:43
00008 suncat0143 pw.x -in pw.inp   Done                     12/31/2018 01:02:43
00009 suncat0143 pw.x -in pw.inp   Done                     12/31/2018 01:02:43
00010 suncat0143 pw.x -in pw.inp   Done                     12/31/2018 01:02:43
00011 suncat0143 pw.x -in pw.inp   Done                     12/31/2018 01:02:43
00012 suncat0143 pw.x -in pw.inp   Done                     12/31/2018 01:02:43
00013 suncat0143 pw.x -in pw.inp   Done                     12/31/2018 01:02:43
00014 suncat0143 pw.x -in pw.inp   Done                     12/31/2018 01:02:43
00015 suncat0143 pw.x -in pw.inp   Done                     12/31/2018 01:02:43
00016 suncat0108 pw.x -in pw.inp   Done                     12/31/2018 01:02:43
00017 suncat0108 pw.x -in pw.inp   Done                     12/31/2018 01:02:43
00018 suncat0108 pw.x -in pw.inp   Done                     12/31/2018 01:02:43
00019 suncat0108 pw.x -in pw.inp   Done                     12/31/2018 01:02:43
00020 suncat0108 pw.x -in pw.inp   Done                     12/31/2018 01:02:43
00021 suncat0108 pw.x -in pw.inp   Done                     12/31/2018 01:02:43
00022 suncat0108 pw.x -in pw.inp   Done                     12/31/2018 01:02:43
00023 suncat0108 pw.x -in pw.inp   Done                     12/31/2018 01:02:43
00024 suncat0252 pw.x -in pw.inp   Done                     12/31/2018 01:02:43
00025 suncat0252 pw.x -in pw.inp   Done                     12/31/2018 01:02:43
00026 suncat0252 pw.x -in pw.inp   Done                     12/31/2018 01:02:43
00027 suncat0252 pw.x -in pw.inp   Done                     12/31/2018 01:02:43
00028 suncat0252 pw.x -in pw.inp   Done                     12/31/2018 01:02:43
00029 suncat0252 pw.x -in pw.inp   Done                     12/31/2018 01:02:43
00030 suncat0252 pw.x -in pw.inp   Done                     12/31/2018 01:02:43
00031 suncat0252 pw.x -in pw.inp   Done                     12/31/2018 01:02:43
00032 suncat0226 pw.x -in pw.inp   Done                     12/31/2018 01:02:43
00033 suncat0226 pw.x -in pw.inp   Done                     12/31/2018 01:02:43
00034 suncat0226 pw.x -in pw.inp   Done                     12/31/2018 01:02:43
00035 suncat0226 pw.x -in pw.inp   Done                     12/31/2018 01:02:43
00036 suncat0226 pw.x -in pw.inp   Done                     12/31/2018 01:02:43
00037 suncat0226 pw.x -in pw.inp   Done                     12/31/2018 01:02:43
00038 suncat0226 pw.x -in pw.inp   Done                     12/31/2018 01:02:43
00039 suncat0226 pw.x -in pw.inp   Done                     12/31/2018 01:02:43
00040 suncat0225 pw.x -in pw.inp   Done                     12/31/2018 01:02:43
00041 suncat0225 pw.x -in pw.inp   Done                     12/31/2018 01:02:43
00042 suncat0225 pw.x -in pw.inp   Done                     12/31/2018 01:02:43
00043 suncat0225 pw.x -in pw.inp   Done                     12/31/2018 01:02:43
00044 suncat0225 pw.x -in pw.inp   Done                     12/31/2018 01:02:43
00045 suncat0225 pw.x -in pw.inp   Done                     12/31/2018 01:02:43
00046 suncat0225 pw.x -in pw.inp   Done                     12/31/2018 01:02:43
00047 suncat0225 pw.x -in pw.inp   Done                     12/31/2018 01:02:43
00048 suncat0224 pw.x -in pw.inp   Done                     12/31/2018 01:02:43
00049 suncat0224 pw.x -in pw.inp   Done                     12/31/2018 01:02:43
00050 suncat0224 pw.x -in pw.inp   Done                     12/31/2018 01:02:43
00051 suncat0224 pw.x -in pw.inp   Done                     12/31/2018 01:02:43
00052 suncat0224 pw.x -in pw.inp   Done                     12/31/2018 01:02:43
00053 suncat0224 pw.x -in pw.inp   Done                     12/31/2018 01:02:43
00054 suncat0224 pw.x -in pw.inp   Done                     12/31/2018 01:02:43
00055 suncat0224 pw.x -in pw.inp   Done                     12/31/2018 01:02:43
00056 suncat0223 pw.x -in pw.inp   Done                     12/31/2018 01:02:43
00057 suncat0223 pw.x -in pw.inp   Done                     12/31/2018 01:02:43
00058 suncat0223 pw.x -in pw.inp   Done                     12/31/2018 01:02:43
00059 suncat0223 pw.x -in pw.inp   Done                     12/31/2018 01:02:43
00060 suncat0223 pw.x -in pw.inp   Done                     12/31/2018 01:02:43
00061 suncat0223 pw.x -in pw.inp   Done                     12/31/2018 01:02:43
00062 suncat0223 pw.x -in pw.inp   Done                     12/31/2018 01:02:43
00063 suncat0223 pw.x -in pw.inp   Done                     12/31/2018 01:02:43