     Program PWSCF v.5.1rc2 (svn rev. 11289) starts on 25Dec2018 at  6:29:10

     Current dimensions of program PWSCF are:
     Max number of different atomic species (ntypx) = 10
     Max number of k-points (npk) =  40000
     Max angular momentum in pseudopotentials (lmaxx) =  3
     Presently stress not available with electric field

     IMPORTANT: XC functional enforced from input :
     Exchange-correlation      = BEEF-VDW ( 1  4 27 13 2)
     Any further DFT definition will be discarded
     Please, verify this is what you really want

     Subspace diagonalization in iterative solution of the eigenvalue problem:
     a serial algorithm will be used

     Found symmetry operation: I + ( -0.5000  0.0000  0.0000)
     This is a supercell, fractional translations are disabled

     bravais-lattice index     =            0
     lattice parameter (alat)  =       1.8897  a.u.
     unit-cell volume          =    4448.1801 (a.u.)^3
     number of atoms/cell      =           12
     number of atomic types    =            2
     number of electrons       =       204.00
     number of Kohn-Sham states=          132
     kinetic-energy cutoff     =      36.7493  Ry
     charge density cutoff     =     367.4932  Ry
     convergence threshold     =      1.0E-06
     mixing beta               =       0.1000
     number of iterations used =           10  plain     mixing
     Exchange-correlation      = BEEF-VDW ( 1  4 27 13 2)
     nstep                     =           50

     celldm(1)=   1.889726  celldm(2)=   0.000000  celldm(3)=   0.000000
     celldm(4)=   0.000000  celldm(5)=   0.000000  celldm(6)=   0.000000

     crystal axes: (cart. coord. in units of alat)
               a(1) = (   5.349821   0.000000   0.000000 )
               a(2) = (  -2.674911   5.023202   0.000000 )
               a(3) = (   0.000000   0.000000  24.528212 )

     reciprocal axes: (cart. coord. in units 2 pi/alat)
               b(1) = (  0.186922  0.099538  0.000000 )
               b(2) = (  0.000000  0.199076  0.000000 )
               b(3) = (  0.000000  0.000000  0.040769 )

     PseudoPot. # 1 for Zn read from file:
     /afs/slac.stanford.edu/u/if/mamunm/psp/gbrv1.5pbe/Zn.UPF
     MD5 check sum: df62231357ef9e81f77b2b3087fa5675
     Pseudo is Ultrasoft, Zval = 20.0
     Generated by new atomic code, or converted to UPF format
     Using radial grid of  943 points,  6 beta functions with:
                l(1) =   0
                l(2) =   0
                l(3) =   1
                l(4) =   1
                l(5) =   2
                l(6) =   2
     Q(r) pseudized with  8 coefficients,  rinner =    1.100   1.100   1.100
                                                       1.100   1.100

     PseudoPot. # 2 for W  read from file:
     /afs/slac.stanford.edu/u/if/mamunm/psp/gbrv1.5pbe/W.UPF
     MD5 check sum: 9c083fa34c2a2ea0f02f1f893e16e1c8
     Pseudo is Ultrasoft + core correction, Zval = 14.0
     Generated by new atomic code, or converted to UPF format
     Using radial grid of  923 points,  8 beta functions with:
                l(1) =   0
                l(2) =   0
                l(3) =   0
                l(4) =   1
                l(5) =   1
                l(6) =   2
                l(7) =   2
                l(8) =   3
     Q(r) pseudized with  6 coefficients,  rinner =    1.350   1.350   1.350
                                                       1.350   1.350   1.350
                                                       1.350

     vdW kernel table read from file vdW_kernel_table
     MD5 check sum: 095c7af220d748ca6e76c0b4c6cfb241

     atomic species   valence    mass     pseudopotential
        Zn1           20.00    65.38000     Zn( 1.00)
        W1            14.00   183.84000     W ( 1.00)

     No symmetry found

   Cartesian axes

     site n.     atom                  positions (alat units)
         1           Zn1 tau(   1) = (   0.0000000   0.0000000  10.0000000  )
         2           Zn1 tau(   2) = (   2.6749106   0.0000000  10.0000000  )
         3           W1  tau(   3) = (   1.3374553   2.5116008  10.0000000  )
         4           W1  tau(   4) = (  -1.3374553   2.5116008  10.0000000  )
         5           Zn1 tau(   5) = (   2.6749106   1.4244196  12.2641059  )
         6           Zn1 tau(   6) = (   0.0000000   1.4244196  12.2641059  )
         7           W1  tau(   7) = (  -1.3374553   3.9360204  12.2641059  )
         8           W1  tau(   8) = (   1.3374553   3.9360204  12.2641059  )
         9           Zn1 tau(   9) = (   0.0000000   2.8488392  14.5282118  )
        10           Zn1 tau(  10) = (   2.6749106   2.8488392  14.5282118  )
        11           W1  tau(  11) = (   4.0123659   0.3372385  14.5282118  )
        12           W1  tau(  12) = (   1.3374553   0.3372385  14.5282118  )

     number of k points=    20  Fermi-Dirac smearing, width (Ry)=  0.0110
                       cart. coord. in units 2pi/alat
        k(    1) = (   0.0000000   0.0000000   0.0000000), wk =   0.0555556
        k(    2) = (   0.0000000   0.0331794   0.0000000), wk =   0.1111111
        k(    3) = (   0.0000000   0.0663587   0.0000000), wk =   0.1111111
        k(    4) = (   0.0000000  -0.0995381   0.0000000), wk =   0.0555556
        k(    5) = (   0.0311537   0.0165897   0.0000000), wk =   0.1111111
        k(    6) = (   0.0311537   0.0497691   0.0000000), wk =   0.1111111
        k(    7) = (   0.0311537   0.0829484   0.0000000), wk =   0.1111111
        k(    8) = (   0.0311537  -0.0829484   0.0000000), wk =   0.1111111
        k(    9) = (   0.0311537  -0.0497691   0.0000000), wk =   0.1111111
        k(   10) = (   0.0311537  -0.0165897   0.0000000), wk =   0.1111111
        k(   11) = (   0.0623074   0.0331794   0.0000000), wk =   0.1111111
        k(   12) = (   0.0623074   0.0663587   0.0000000), wk =   0.1111111
        k(   13) = (   0.0623074   0.0995381   0.0000000), wk =   0.1111111
        k(   14) = (   0.0623074  -0.0663587   0.0000000), wk =   0.1111111
        k(   15) = (   0.0623074  -0.0331794   0.0000000), wk =   0.1111111
        k(   16) = (   0.0623074  -0.0000000   0.0000000), wk =   0.1111111
        k(   17) = (  -0.0934611  -0.0497691   0.0000000), wk =   0.0555556
        k(   18) = (  -0.0934611  -0.0165897   0.0000000), wk =   0.1111111
        k(   19) = (  -0.0934611   0.0165897   0.0000000), wk =   0.1111111
        k(   20) = (  -0.0934611  -0.1493072   0.0000000), wk =   0.0555556

     Largest allocated arrays     est. size (Mb)     dimensions
     Largest temporary arrays     est. size (Mb)     dimensions

     Initial potential from superposition of free atoms
     Check: negative starting charge=   -0.380141

     starting charge  203.39711, renormalised to  204.00000

     negative rho (up, down):  3.813E-01 0.000E+00

     *
     * You are using vdW-DF for exchange-correlation in this calculation.
     * Please cite the following three references that made this development
     * possible:
     *
     *   M. Dion, H. Rydberg, E. Schroder, D. C. Langreth, and
     *   B. I. Lundqvist, Phys. Rev. Lett. 92, 246401 (2004).
     *
     *   T. Thonhauser, V. R. Cooper, S. Li, A. Puzder, P. Hyldgaard, and
     *   D. C. Langreth, Phys. Rev. B 76, 125112 (2007).
     *
     *   G. Roman-Perez and J. M. Soler, Phys. Rev. Lett. 103, 096102 (2009).
     *
     *
     * If you are using vdW-DF2, please also cite:
     *
     *   K. Lee, E. D. Murray, L. Kong, B. I. Lundqvist, and
     *   D. C. Langreth, Phys. Rev. B 82, 081101(R) (2010).
     *
     *
     * If you are calculating the stress with vdW-DF, please also cite:
     *
     *   R. Sabatini, E. Kucukbenli, B. Kolb, T. Thonhauser, and
     *   S. de Gironcoli, J. Phys.: Condens. Matter 24, 424209 (2012).
     *

     Carrying out vdW-DF run using the following parameters:

     Nqs =      20    Nr_points =    1024   r_max =   100.000
     q_mesh =
               0.00001000     0.04494208     0.09755937     0.15916263
               0.23128650     0.31572767     0.41458969     0.53033537
               0.66584808     0.82450364     1.01025438     1.22772762
               1.48234092     1.78043706     2.12944203     2.53805004
               3.01644009     3.57652955     4.23227104     5.00000000

     Gradients computed in reciprocal space

     Adding external electric field

     Computed dipole along edir(3) :
        Dipole               -0.0000 Ry au,         -0.0000 Debye
        Dipole field         -0.0000 Ry au

        Potential amp.        0.0000 Ry
        Total length         45.1928 bohr

     Starting wfc are  156 randomized atomic wfcs

     Self-consistent Calculation

     iteration #  1     ecut=    36.75 Ry     beta=0.10
     Davidson diagonalization with overlap
     ethr =  1.00E-02,  avg # of iterations =  6.0

[...]

     total energy              =   -3738.82000086 Ry
     Harris-Foulkes estimate   =   -3739.25045750 Ry
     estimated scf accuracy    <       2.48966240 Ry

[...]

     End of self-consistent calculation

          k = 0.0000 0.0000 0.0000 ( 16775 PWs)   bands (ev):

  -125.0205-125.0193-124.6714-124.6713-124.6702-124.6701 -79.2063 -79.2050
   -79.2030 -79.1852 -79.1764 -79.1751 -78.8680 -78.8678 -78.8502 -78.8501
   -78.8500 -78.8498 -78.8486 -78.8485 -78.8176 -78.8175 -78.8164 -78.8163
   -73.0035 -72.9269 -72.9207 -72.9117 -72.8456 -72.8369 -37.6011 -37.4628
   -37.3973 -37.3843 -37.3299 -37.1727 -37.1035 -37.0579 -37.0535 -37.0331
   -36.9872 -36.9399 -36.9168 -36.7041 -36.6037 -36.5489 -36.3664 -36.3603
    -7.7161  -6.4896  -6.4681  -6.3882  -6.3564  -6.2905  -6.2679  -6.1999
    -6.1499  -6.1406  -6.0319  -6.0068  -5.9992  -5.9361  -5.8197  -5.7314
    -5.7151  -5.7069  -5.7033  -5.6786  -5.6465  -5.6417  -5.5720  -5.5331
    -5.4903  -5.3520  -5.3513  -5.3328  -5.3170  -5.2923  -5.1879  -5.1416
    -3.5720  -3.0346  -2.7057  -2.3473  -2.1584  -1.9561  -1.9183  -1.4935
    -1.1878  -0.9968  -0.8220  -0.4494  -0.1088  -0.0732   0.1668   0.1985
     0.9974   1.1413   1.1472   1.5286   1.5296   1.6300   1.9671   2.1977
     2.2236   2.3569   2.4598   2.7412   3.0965   3.1444   3.2615   3.5115
     3.7038   4.0042   4.2504   4.3875   4.4630   4.4876   4.8661   5.5071
     5.5164   5.6905   5.8588   6.0187   6.0533   6.2376   6.2908   6.4169
     7.1513   7.2465   7.2946   8.3855

[...]

          k =-0.0935-0.0498 0.0000 ( 16754 PWs)   bands (ev):

[...]

     the Fermi energy is     1.4628 ev

!    total energy              =   -3738.80992435 Ry
     Harris-Foulkes estimate   =   -3738.80992063 Ry
     estimated scf accuracy    <       0.00000059 Ry

     The total energy is the sum of the following terms:

     one-electron contribution =  -25035.03624834 Ry
     hartree contribution      =   12500.92181361 Ry
     xc contribution           =    -515.71303002 Ry
     ewald contribution        =    9311.07463817 Ry
     electric field correction =       0.00000000 Ry
     smearing contrib. (-TS)   =      -0.05709776 Ry

     convergence has been achieved in  14 iterations

 BEEF-vdW xc energy contributions
           1 :   -456.169638496409
           2 :    417.920179152078
           3 :   -352.184733768434
[...]
     Using radial grid of  943 points,  6 beta functions with:
                l(1) =   0
                l(2) =   0
                l(3) =   1
                l(4) =   1
                l(5) =   2
                l(6) =   2
     Q(r) pseudized with  8 coefficients,  rinner =    1.100   1.100   1.100
                                                       1.100   1.100

     PseudoPot. # 2 for W  read from file:
     /afs/slac.stanford.edu/u/if/mamunm/psp/gbrv1.5pbe/W.UPF
     MD5 check sum: 9c083fa34c2a2ea0f02f1f893e16e1c8
     Pseudo is Ultrasoft + core correction, Zval = 14.0
     Generated by new atomic code, or converted to UPF format
     Using radial grid of  923 points,  8 beta functions with:
                l(1) =   0
                l(2) =   0
                l(3) =   0
                l(4) =   1
                l(5) =   1
                l(6) =   2
                l(7) =   2
                l(8) =   3
     Q(r) pseudized with  6 coefficients,  rinner =    1.350   1.350   1.350
                                                       1.350   1.350   1.350
                                                       1.350

     vdW kernel table read from file vdW_kernel_table
     MD5 check sum: 095c7af220d748ca6e76c0b4c6cfb241

     atomic species   valence    mass     pseudopotential
        Zn1           20.00    65.38000     Zn( 1.00)
        W1            14.00   183.84000     W ( 1.00)

     No symmetry found

   Cartesian axes

     site n.     atom                  positions (alat units)
         1           Zn1 tau(   1) = (   0.0000000   0.0000000  10.0000000  )
         2           Zn1 tau(   2) = (   2.6749106   0.0000000  10.0000000  )
         3           W1  tau(   3) = (   1.3374553   2.5116008  10.0000000  )
         4           W1  tau(   4) = (  -1.3374553   2.5116008  10.0000000  )
         5           Zn1 tau(   5) = (   2.6749106   1.4244196  12.2641059  )
         6           Zn1 tau(   6) = (   0.0000000   1.4244196  12.2641059  )
         7           W1  tau(   7) = (  -1.3374553   3.9360204  12.2641059  )
         8           W1  tau(   8) = (   1.3374553   3.9360204  12.2641059  )
         9           Zn1 tau(   9) = (   0.0000089   2.8087734  14.6981207  )
        10           Zn1 tau(  10) = (   2.6749357   2.8087718  14.6980995  )
        11           W1  tau(  11) = (   4.0123877   0.2846256  14.4432084  )
        12           W1  tau(  12) = (   1.3374778   0.2846241  14.4431985  )

     number of k points=    20  Fermi-Dirac smearing, width (Ry)=  0.0110
                       cart. coord. in units 2pi/alat
        k(    1) = (   0.0000000   0.0000000   0.0000000), wk =   0.0555556
        k(    2) = (   0.0000000   0.0331794   0.0000000), wk =   0.1111111
        k(    3) = (   0.0000000   0.0663587   0.0000000), wk =   0.1111111
        k(    4) = (   0.0000000  -0.0995381   0.0000000), wk =   0.0555556
        k(    5) = (   0.0311537   0.0165897   0.0000000), wk =   0.1111111
        k(    6) = (   0.0311537   0.0497691   0.0000000), wk =   0.1111111
        k(    7) = (   0.0311537   0.0829484   0.0000000), wk =   0.1111111
        k(    8) = (   0.0311537  -0.0829484   0.0000000), wk =   0.1111111
        k(    9) = (   0.0311537  -0.0497691   0.0000000), wk =   0.1111111
        k(   10) = (   0.0311537  -0.0165897   0.0000000), wk =   0.1111111
        k(   11) = (   0.0623074   0.0331794   0.0000000), wk =   0.1111111
        k(   12) = (   0.0623074   0.0663587   0.0000000), wk =   0.1111111
        k(   13) = (   0.0623074   0.0995381   0.0000000), wk =   0.1111111
        k(   14) = (   0.0623074  -0.0663587   0.0000000), wk =   0.1111111
        k(   15) = (   0.0623074  -0.0331794   0.0000000), wk =   0.1111111
        k(   16) = (   0.0623074  -0.0000000   0.0000000), wk =   0.1111111
        k(   17) = (  -0.0934611  -0.0497691   0.0000000), wk =   0.0555556
        k(   18) = (  -0.0934611  -0.0165897   0.0000000), wk =   0.1111111
        k(   19) = (  -0.0934611   0.0165897   0.0000000), wk =   0.1111111
        k(   20) = (  -0.0934611  -0.1493072   0.0000000), wk =   0.0555556

     Largest allocated arrays     est. size (Mb)     dimensions
     Largest temporary arrays     est. size (Mb)     dimensions

     Initial potential from superposition of free atoms
     Check: negative starting charge=   -0.379834

     starting charge  203.39711, renormalised to  204.00000

[...]

     *
     * You are using vdW-DF for exchange-correlation in this calculation.
     * Please cite the following three references that made this development
     * possible:
     *
     *   M. Dion, H. Rydberg, E. Schroder, D. C. Langreth, and
     *   B. I. Lundqvist, Phys. Rev. Lett. 92, 246401 (2004).
     *
     *   T. Thonhauser, V. R. Cooper, S. Li, A. Puzder, P. Hyldgaard, and
     *   D. C. Langreth, Phys. Rev. B 76, 125112 (2007).
     *
     *   G. Roman-Perez and J. M. Soler, Phys. Rev. Lett. 103, 096102 (2009).
     *
     *
     * If you are using vdW-DF2, please also cite:
     *
     *   K. Lee, E. D. Murray, L. Kong, B. I. Lundqvist, and
     *   D. C. Langreth, Phys. Rev. B 82, 081101(R) (2010).
     *
     *
     * If you are calculating the stress with vdW-DF, please also cite:
     *
     *   R. Sabatini, E. Kucukbenli, B. Kolb, T. Thonhauser, and
     *   S. de Gironcoli, J. Phys.: Condens. Matter 24, 424209 (2012).
     *

     Carrying out vdW-DF run using the following parameters:

     Nqs =      20    Nr_points =    1024   r_max =   100.000
     q_mesh =
               0.00001000     0.04494208     0.09755937     0.15916263
               0.23128650     0.31572767     0.41458969     0.53033537
               0.66584808     0.82450364     1.01025438     1.22772762
               1.48234092     1.78043706     2.12944203     2.53805004
               3.01644009     3.57652955     4.23227104     5.00000000

     Gradients computed in reciprocal space

[...]

     Starting wfc are  156 randomized atomic wfcs

     Self-consistent Calculation

[...]

     total energy              =   -3738.82353211 Ry
     Harris-Foulkes estimate   =   -3738.82353105 Ry
     estimated scf accuracy    <       0.00000398 Ry

     iteration # 14     ecut=    36.75 Ry     beta=0.10
     Davidson diagonalization with overlap
     ethr =  1.95E-09,  avg # of iterations =  2.0

[...]

     negative rho (up, down):  3.954E-01 0.000E+00

     Adding external electric field

     Computed dipole along edir(3) :
        Dipole                0.0061 Ry au,          0.0156 Debye
        Dipole field          0.0000 Ry au

        Potential amp.       -0.0016 Ry
        Total length         45.1928 bohr

     End of self-consistent calculation

[...]

          k = 0.0623-0.0000 0.0000 ( 16746 PWs)   bands (ev):

[...]

          k =-0.0935-0.1493 0.0000 ( 16754 PWs)   bands (ev):

  -125.0034-125.0034-124.6673-124.6673-124.5616-124.5616 -79.1853 -79.1853
   -79.1779 -79.1779 -79.1621 -79.1621 -78.8556 -78.8556 -78.8456 -78.8456
   -78.8133 -78.8133 -78.7546 -78.7546 -78.7400 -78.7400 -78.7079 -78.7079
   -72.9584 -72.9584 -72.8890 -72.8888 -72.8234 -72.8233 -37.4689 -37.4688
   -37.1083 -37.1082 -37.0916 -37.0916 -37.0408 -37.0406 -36.9790 -36.9788
   -36.9431 -36.9430 -36.9041 -36.9039 -36.8612 -36.8611 -36.5671 -36.5670
    -6.2398  -6.2398  -6.1432  -6.1432  -6.0940  -6.0940  -6.0635  -6.0634
    -6.0108  -6.0108  -5.8362  -5.8362  -5.7039  -5.7039  -5.6258  -5.6258
    -5.5885  -5.5885  -5.5536  -5.5536  -5.5399  -5.5399  -5.5249  -5.5249
    -5.4688  -5.4688  -5.4487  -5.4487  -5.4323  -5.4323  -5.2128  -5.2128
    -3.9467  -3.9466  -2.9228  -2.9228  -2.0993  -2.0993  -1.3438  -1.3438
    -0.4753  -0.4753  -0.3975  -0.3975   0.1689   0.1689   0.3280   0.3280
     0.4776   0.4776   0.9657   0.9658   1.0567   1.0567   1.2961   1.2962
     1.7462   1.7462   1.9015   1.9015   2.7654   2.7654   3.1646   3.1646
     3.6731   3.6731   3.7893   3.7894   4.1838   4.1838   5.1140   5.1141
     5.8179   5.8179   6.9583   6.9583   7.4437   7.4437   7.5411   7.5412
     7.8326   7.8326   8.0423   8.0423

     the Fermi energy is     1.4595 ev

!    total energy              =   -3738.82353604 Ry
     Harris-Foulkes estimate   =   -3738.82353252 Ry
     estimated scf accuracy    <       0.00000097 Ry

     The total energy is the sum of the following terms:

     one-electron contribution =  -24816.57403533 Ry
     hartree contribution      =   12391.88477547 Ry
     xc contribution           =    -515.74176911 Ry
     ewald contribution        =    9201.66206557 Ry
     electric field correction =       0.00000011 Ry
     smearing contrib. (-TS)   =      -0.05457274 Ry

     convergence has been achieved in  14 iterations

 BEEF-vdW xc energy contributions
           1 :   -456.195920659526
           2 :    417.934282298874
           3 :   -352.187011681559
           4 :    275.746550878512
           5 :   -204.643514547006
           6 :    148.705025350086
           7 :   -109.726446957555
           8 :    83.4726957227172
           9 :   -63.7889082859766
          10 :    46.3042346283185
          11 :   -29.9302761851005
          12 :    15.9549183945130
          13 :   -5.95892024611794
          14 :   0.185471085804522
          15 :    2.68396380409109
          16 :   -4.54032962258742
          17 :    6.61043290965199
          18 :   -8.90838161774514
          19 :    10.6368394457506
          20 :   -11.0795200594735
          21 :    10.2552703353303
          22 :   -8.89733831461069
          23 :    7.87752970959389
          24 :   -7.58979536743169
          25 :    7.76596241376637
          26 :   -7.80849716885967
          27 :    7.32078728597861
          28 :   -6.40622624121897
          29 :    5.53291885188924
          30 :   -5.11901908995753
          31 :   -38.1641611210615
          32 :   -27.4113767201311

     Forces acting on atoms (Ry/au):

     negative rho (up, down):  3.954E-01 0.000E+00
     atom    1 type  1   force =    -0.00000020    0.00397179   -0.02117363
     atom    2 type  1   force =    -0.00000046    0.00397294   -0.02117423
     atom    3 type  2   force =     0.00000093    0.00665337    0.02807702
     atom    4 type  2   force =     0.00000119    0.00664970    0.02806931
     atom    5 type  1   force =     0.00003945    0.00667953    0.00085076
     atom    6 type  1   force =    -0.00001777    0.00667941    0.00085128
     atom    7 type  2   force =    -0.00000430   -0.01615742   -0.00705893
     atom    8 type  2   force =    -0.00000528   -0.01616522   -0.00706821
     atom    9 type  1   force =    -0.00001174   -0.00067316   -0.00002086
     atom   10 type  1   force =    -0.00000486   -0.00067300   -0.00002018
     atom   11 type  2   force =     0.00000146   -0.00047132   -0.00066922
     atom   12 type  2   force =     0.00000158   -0.00046662   -0.00066312

     Total force =     0.057515     Total SCF correction =     0.005012

     entering subroutine stress ...

     negative rho (up, down):  3.954E-01 0.000E+00
          total   stress  (Ry/bohr**3)                   (kbar)     P=  -28.29
  -0.00024156   0.00000001  -0.00000000        -35.53      0.00     -0.00
   0.00000001  -0.00025484  -0.00002469          0.00    -37.49     -3.63
  -0.00000000  -0.00002469  -0.00008055         -0.00     -3.63    -11.85

 !ASE

     Writing output data file calc.save

     General routines

     Parallel routines

   This run was terminated on:   8:38:42  25Dec2018

   JOB DONE.
Job  /afs/slac/g/suncat/bin/suncat-tsmpirun -x LD_LIBRARY_PATH -wdir /scratch/qe109253_QCFLi pw.x -in pw.inp

TID   HOST_NAME   COMMAND_LINE            STATUS            TERMINATION_TIME
00000 suncat0095 pw.x -in pw.inp   Done                     12/25/2018 08:38:42
00001 suncat0095 pw.x -in pw.inp   Done                     12/25/2018 08:38:42
00002 suncat0095 pw.x -in pw.inp   Done                     12/25/2018 08:38:42
00003 suncat0095 pw.x -in pw.inp   Done                     12/25/2018 08:38:42
00004 suncat0095 pw.x -in pw.inp   Done                     12/25/2018 08:38:42
00005 suncat0095 pw.x -in pw.inp   Done                     12/25/2018 08:38:42
00006 suncat0095 pw.x -in pw.inp   Done                     12/25/2018 08:38:42
00007 suncat0095 pw.x -in pw.inp   Done                     12/25/2018 08:38:42
00008 suncat0084 pw.x -in pw.inp   Done                     12/25/2018 08:38:42
00009 suncat0084 pw.x -in pw.inp   Done                     12/25/2018 08:38:42
00010 suncat0084 pw.x -in pw.inp   Done                     12/25/2018 08:38:42
00011 suncat0084 pw.x -in pw.inp   Done                     12/25/2018 08:38:42
00012 suncat0084 pw.x -in pw.inp   Done                     12/25/2018 08:38:42
00013 suncat0084 pw.x -in pw.inp   Done                     12/25/2018 08:38:42
00014 suncat0084 pw.x -in pw.inp   Done                     12/25/2018 08:38:42
00015 suncat0084 pw.x -in pw.inp   Done                     12/25/2018 08:38:42
00016 suncat0078 pw.x -in pw.inp   Done                     12/25/2018 08:38:42
00017 suncat0078 pw.x -in pw.inp   Done                     12/25/2018 08:38:42
00018 suncat0078 pw.x -in pw.inp   Done                     12/25/2018 08:38:42
00019 suncat0078 pw.x -in pw.inp   Done                     12/25/2018 08:38:42
00020 suncat0078 pw.x -in pw.inp   Done                     12/25/2018 08:38:42
00021 suncat0078 pw.x -in pw.inp   Done                     12/25/2018 08:38:42
00022 suncat0078 pw.x -in pw.inp   Done                     12/25/2018 08:38:42
00023 suncat0078 pw.x -in pw.inp   Done                     12/25/2018 08:38:42
00024 suncat0077 pw.x -in pw.inp   Done                     12/25/2018 08:38:42
00025 suncat0077 pw.x -in pw.inp   Done                     12/25/2018 08:38:42
00026 suncat0077 pw.x -in pw.inp   Done                     12/25/2018 08:38:42
00027 suncat0077 pw.x -in pw.inp   Done                     12/25/2018 08:38:42
00028 suncat0077 pw.x -in pw.inp   Done                     12/25/2018 08:38:42
00029 suncat0077 pw.x -in pw.inp   Done                     12/25/2018 08:38:42
00030 suncat0077 pw.x -in pw.inp   Done                     12/25/2018 08:38:42
00031 suncat0077 pw.x -in pw.inp   Done                     12/25/2018 08:38:42
00032 suncat0069 pw.x -in pw.inp   Done                     12/25/2018 08:38:42
00033 suncat0069 pw.x -in pw.inp   Done                     12/25/2018 08:38:42
00034 suncat0069 pw.x -in pw.inp   Done                     12/25/2018 08:38:42
00035 suncat0069 pw.x -in pw.inp   Done                     12/25/2018 08:38:42
00036 suncat0069 pw.x -in pw.inp   Done                     12/25/2018 08:38:42
00037 suncat0069 pw.x -in pw.inp   Done                     12/25/2018 08:38:42
00038 suncat0069 pw.x -in pw.inp   Done                     12/25/2018 08:38:42
00039 suncat0069 pw.x -in pw.inp   Done                     12/25/2018 08:38:42
00040 suncat0065 pw.x -in pw.inp   Done                     12/25/2018 08:38:42
00041 suncat0065 pw.x -in pw.inp   Done                     12/25/2018 08:38:42
00042 suncat0065 pw.x -in pw.inp   Done                     12/25/2018 08:38:42
00043 suncat0065 pw.x -in pw.inp   Done                     12/25/2018 08:38:42
00044 suncat0065 pw.x -in pw.inp   Done                     12/25/2018 08:38:42
00045 suncat0065 pw.x -in pw.inp   Done                     12/25/2018 08:38:42
00046 suncat0065 pw.x -in pw.inp   Done                     12/25/2018 08:38:42
00047 suncat0065 pw.x -in pw.inp   Done                     12/25/2018 08:38:42
00048 suncat0010 pw.x -in pw.inp   Done                     12/25/2018 08:38:42
00049 suncat0010 pw.x -in pw.inp   Done                     12/25/2018 08:38:42
00050 suncat0010 pw.x -in pw.inp   Done                     12/25/2018 08:38:42
00051 suncat0010 pw.x -in pw.inp   Done                     12/25/2018 08:38:42
00052 suncat0010 pw.x -in pw.inp   Done                     12/25/2018 08:38:42
00053 suncat0010 pw.x -in pw.inp   Done                     12/25/2018 08:38:42
00054 suncat0010 pw.x -in pw.inp   Done                     12/25/2018 08:38:42
00055 suncat0010 pw.x -in pw.inp   Done                     12/25/2018 08:38:42
00056 suncat0100 pw.x -in pw.inp   Done                     12/25/2018 08:38:42
00057 suncat0100 pw.x -in pw.inp   Done                     12/25/2018 08:38:42
00058 suncat0100 pw.x -in pw.inp   Done                     12/25/2018 08:38:42
00059 suncat0100 pw.x -in pw.inp   Done                     12/25/2018 08:38:42
00060 suncat0100 pw.x -in pw.inp   Done                     12/25/2018 08:38:42
00061 suncat0100 pw.x -in pw.inp   Done                     12/25/2018 08:38:42
00062 suncat0100 pw.x -in pw.inp   Done                     12/25/2018 08:38:42
00063 suncat0100 pw.x -in pw.inp   Done                     12/25/2018 08:38:42