     Program PWSCF v.5.1rc2 (svn rev. 11289) starts on 19Dec2018 at  6:14:48

     Current dimensions of program PWSCF are:
     Max number of different atomic species (ntypx) = 10
     Max number of k-points (npk) =  40000
     Max angular momentum in pseudopotentials (lmaxx) =  3
     Presently stress not available with electric field

     IMPORTANT: XC functional enforced from input :
     Exchange-correlation      = BEEF-VDW ( 1  4 27 13 2)
     Any further DFT definition will be discarded
     Please, verify this is what you really want

     Subspace diagonalization in iterative solution of the eigenvalue problem:
     a serial algorithm will be used

     Found symmetry operation: I + ( -0.5000  0.5000  0.0000)
     This is a supercell, fractional translations are disabled

     Generating pointlists ...
     new r_m :   0.4125 (alat units)  0.7795 (a.u.) for type    1
     new r_m :   0.4125 (alat units)  0.7795 (a.u.) for type    2

     bravais-lattice index     =            0
     lattice parameter (alat)  =       1.8897  a.u.
     unit-cell volume          =    5348.9621 (a.u.)^3
     number of atoms/cell      =           12
     number of atomic types    =            2
     number of electrons       =       168.00
     number of Kohn-Sham states=          114
     kinetic-energy cutoff     =      36.7493  Ry
     charge density cutoff     =     367.4932  Ry
     convergence threshold     =      1.0E-06
     mixing beta               =       0.1000
     number of iterations used =           10  plain     mixing
     Exchange-correlation      = BEEF-VDW ( 1  4 27 13 2)
     nstep                     =           50

     celldm(1)=   1.889726  celldm(2)=   0.000000  celldm(3)=   0.000000
     celldm(4)=   0.000000  celldm(5)=   0.000000  celldm(6)=   0.000000

     crystal axes: (cart. coord. in units of alat)
               a(1) = (   5.826957   0.000000   0.000000 )
               a(2) = (   1.939864   5.494576   0.000000 )
               a(3) = (   0.000000   0.000000  24.756937 )

     reciprocal axes: (cart. coord. in units 2 pi/alat)
               b(1) = (  0.171616 -0.060589  0.000000 )
               b(2) = (  0.000000  0.181998  0.000000 )
               b(3) = (  0.000000  0.000000  0.040393 )

     PseudoPot. # 1 for Co read from file:
     /afs/slac.stanford.edu/u/if/mamunm/psp/gbrv1.5pbe/Co.UPF
     MD5 check sum: 5f91765df6ddd3222702df6e7b74a16d
     Pseudo is Ultrasoft + core correction, Zval = 17.0
     Generated by new atomic code, or converted to UPF format
     Using radial grid of  863 points,  6 beta functions with:
                l(1) =   0
                l(2) =   0
                l(3) =   1
                l(4) =   1
                l(5) =   2
                l(6) =   2
     Q(r) pseudized with  8 coefficients,  rinner =    1.200   1.200   1.200
                                                       1.200   1.200

     PseudoPot. # 2 for Y  read from file:
     /afs/slac.stanford.edu/u/if/mamunm/psp/gbrv1.5pbe/Y.UPF
     MD5 check sum: d034151ed7554c50b6e82763ed42c788
     Pseudo is Ultrasoft + core correction, Zval = 11.0
     Generated by new atomic code, or converted to UPF format
     Using radial grid of  885 points,  6 beta functions with:
                l(1) =   0
                l(2) =   0
                l(3) =   1
                l(4) =   1
                l(5) =   2
                l(6) =   2
     Q(r) pseudized with  8 coefficients,  rinner =    1.200   1.200   1.200
                                                       1.200   1.200

     vdW kernel table read from file vdW_kernel_table
     MD5 check sum: 095c7af220d748ca6e76c0b4c6cfb241

     atomic species   valence    mass     pseudopotential
        Co1           17.00    58.93319     Co( 1.00)
        Y1            11.00    88.90584     Y ( 1.00)

     Starting magnetic structure
     atomic species   magnetization
        Co1          0.118
        Y1           0.182

     No symmetry found

   Cartesian axes

     site n.     atom                  positions (alat units)
         1           Co1 tau(   1) = (   0.0000000   0.0000000  10.0000000  )
         2           Co1 tau(   2) = (   3.8834105   2.7472879  10.0000000  )
         3           Y1  tau(   3) = (   2.9134787   0.0000000  10.0000000  )
         4           Y1  tau(   4) = (   0.9699318   2.7472879  10.0000000  )
         5           Co1 tau(   5) = (   5.8269575   4.1222347  12.3784684  )
         6           Co1 tau(   6) = (   1.9435469   1.3749468  12.3784684  )
         7           Y1  tau(   7) = (   2.9134787   4.1222347  12.3784684  )
         8           Y1  tau(   8) = (   4.8570257   1.3749468  12.3784684  )
         9           Co1 tau(   9) = (   3.8870939   2.7498936  14.7569368  )
        10           Co1 tau(  10) = (   0.0036834   0.0026058  14.7569368  )
        11           Y1  tau(  11) = (   0.9736151   2.7498936  14.7569368  )
        12           Y1  tau(  12) = (   2.9171621   0.0026058  14.7569368  )

     number of k points=    40  Fermi-Dirac smearing, width (Ry)=  0.0110
                       cart. coord. in units 2pi/alat
        k(    1) = (   0.0000000   0.0000000   0.0000000), wk =   0.0277778
        k(    2) = (   0.0000000   0.0303329   0.0000000), wk =   0.0555556
        k(    3) = (   0.0000000   0.0606659   0.0000000), wk =   0.0555556
        k(    4) = (   0.0000000  -0.0909988   0.0000000), wk =   0.0277778
        k(    5) = (   0.0286027  -0.0100982   0.0000000), wk =   0.0555556
        k(    6) = (   0.0286027   0.0202347   0.0000000), wk =   0.0555556
        k(    7) = (   0.0286027   0.0505677   0.0000000), wk =   0.0555556
        k(    8) = (   0.0286027  -0.1010970   0.0000000), wk =   0.0555556
        k(    9) = (   0.0286027  -0.0707641   0.0000000), wk =   0.0555556
        k(   10) = (   0.0286027  -0.0404311   0.0000000), wk =   0.0555556
        k(   11) = (   0.0572054  -0.0201964   0.0000000), wk =   0.0555556
        k(   12) = (   0.0572054   0.0101365   0.0000000), wk =   0.0555556
        k(   13) = (   0.0572054   0.0404695   0.0000000), wk =   0.0555556
        k(   14) = (   0.0572054  -0.1111952   0.0000000), wk =   0.0555556
        k(   15) = (   0.0572054  -0.0808623   0.0000000), wk =   0.0555556
        k(   16) = (   0.0572054  -0.0505293   0.0000000), wk =   0.0555556
        k(   17) = (  -0.0858081   0.0302946   0.0000000), wk =   0.0277778
        k(   18) = (  -0.0858081   0.0606275   0.0000000), wk =   0.0555556
        k(   19) = (  -0.0858081   0.0909605   0.0000000), wk =   0.0555556
        k(   20) = (  -0.0858081  -0.0607042   0.0000000), wk =   0.0277778
        k(   21) = (   0.0000000   0.0000000   0.0000000), wk =   0.0277778
        k(   22) = (   0.0000000   0.0303329   0.0000000), wk =   0.0555556
        k(   23) = (   0.0000000   0.0606659   0.0000000), wk =   0.0555556
        k(   24) = (   0.0000000  -0.0909988   0.0000000), wk =   0.0277778
        k(   25) = (   0.0286027  -0.0100982   0.0000000), wk =   0.0555556
        k(   26) = (   0.0286027   0.0202347   0.0000000), wk =   0.0555556
        k(   27) = (   0.0286027   0.0505677   0.0000000), wk =   0.0555556
        k(   28) = (   0.0286027  -0.1010970   0.0000000), wk =   0.0555556
        k(   29) = (   0.0286027  -0.0707641   0.0000000), wk =   0.0555556
        k(   30) = (   0.0286027  -0.0404311   0.0000000), wk =   0.0555556
        k(   31) = (   0.0572054  -0.0201964   0.0000000), wk =   0.0555556
        k(   32) = (   0.0572054   0.0101365   0.0000000), wk =   0.0555556
        k(   33) = (   0.0572054   0.0404695   0.0000000), wk =   0.0555556
        k(   34) = (   0.0572054  -0.1111952   0.0000000), wk =   0.0555556
        k(   35) = (   0.0572054  -0.0808623   0.0000000), wk =   0.0555556
        k(   36) = (   0.0572054  -0.0505293   0.0000000), wk =   0.0555556
        k(   37) = (  -0.0858081   0.0302946   0.0000000), wk =   0.0277778
        k(   38) = (  -0.0858081   0.0606275   0.0000000), wk =   0.0555556
        k(   39) = (  -0.0858081   0.0909605   0.0000000), wk =   0.0555556
        k(   40) = (  -0.0858081  -0.0607042   0.0000000), wk =   0.0277778

     Largest allocated arrays     est. size (Mb)     dimensions
     Largest temporary arrays     est. size (Mb)     dimensions

     Check: negative/imaginary core charge=   -0.000003    0.000000

     Initial potential from superposition of free atoms
     Check: negative starting charge=(component1):   -0.000284
     Check: negative starting charge=(component2):   -0.000206

     starting charge  161.97314, renormalised to  168.00000

     negative rho (up, down):  2.950E-04 2.133E-04

     *
     * You are using vdW-DF for exchange-correlation in this calculation.
     * Please cite the following three references that made this development
     * possible:
     *
     *   M. Dion, H. Rydberg, E. Schroder, D. C. Langreth, and
     *   B. I. Lundqvist, Phys. Rev. Lett. 92, 246401 (2004).
     *
     *   T. Thonhauser, V. R. Cooper, S. Li, A. Puzder, P. Hyldgaard, and
     *   D. C. Langreth, Phys. Rev. B 76, 125112 (2007).
     *
     *   G. Roman-Perez and J. M. Soler, Phys. Rev. Lett. 103, 096102 (2009).
     *
     *
     * If you are using vdW-DF2, please also cite:
     *
     *   K. Lee, E. D. Murray, L. Kong, B. I. Lundqvist, and
     *   D. C. Langreth, Phys. Rev. B 82, 081101(R) (2010).
     *
     *
     * If you are calculating the stress with vdW-DF, please also cite:
     *
     *   R. Sabatini, E. Kucukbenli, B. Kolb, T. Thonhauser, and
     *   S. de Gironcoli, J. Phys.: Condens. Matter 24, 424209 (2012).
     *

     Carrying out vdW-DF run using the following parameters:

     Nqs =      20    Nr_points =    1024   r_max =   100.000
     q_mesh =
               0.00001000     0.04494208     0.09755937     0.15916263
               0.23128650     0.31572767     0.41458969     0.53033537
               0.66584808     0.82450364     1.01025438     1.22772762
               1.48234092     1.78043706     2.12944203     2.53805004
               3.01644009     3.57652955     4.23227104     5.00000000

     Gradients computed in reciprocal space

     Adding external electric field

     Computed dipole along edir(3) :
        Dipole                0.0000 Ry au,          0.0000 Debye
        Dipole field          0.0000 Ry au

        Potential amp.       -0.0000 Ry
        Total length         45.6142 bohr

[...]

     Starting wfc are  156 randomized atomic wfcs

     Self-consistent Calculation

     iteration #  1     ecut=    36.75 Ry     beta=0.10
     Davidson diagonalization with overlap
     ethr =  1.00E-02,  avg # of iterations =  2.7

[...]

     Magnetic moment per site:
     atom:    1    charge:    8.3228    magn:    0.9682    constr:    0.0000
     atom:    2    charge:    8.3228    magn:    0.9681    constr:    0.0000
     atom:    3    charge:    0.8990    magn:    0.1483    constr:    0.0000
     atom:    4    charge:    0.8990    magn:    0.1483    constr:    0.0000
     atom:    5    charge:    8.3477    magn:    0.9604    constr:    0.0000
     atom:    6    charge:    8.3478    magn:    0.9604    constr:    0.0000
[...]
                                                       1.200   1.200

     PseudoPot. # 2 for Y  read from file:
     /afs/slac.stanford.edu/u/if/mamunm/psp/gbrv1.5pbe/Y.UPF
     MD5 check sum: d034151ed7554c50b6e82763ed42c788
     Pseudo is Ultrasoft + core correction, Zval = 11.0
     Generated by new atomic code, or converted to UPF format
     Using radial grid of  885 points,  6 beta functions with:
                l(1) =   0
                l(2) =   0
                l(3) =   1
                l(4) =   1
                l(5) =   2
                l(6) =   2
     Q(r) pseudized with  8 coefficients,  rinner =    1.200   1.200   1.200
                                                       1.200   1.200

     vdW kernel table read from file vdW_kernel_table
     MD5 check sum: 095c7af220d748ca6e76c0b4c6cfb241

     atomic species   valence    mass     pseudopotential
        Co1           17.00    58.93319     Co( 1.00)
        Y1            11.00    88.90584     Y ( 1.00)

     Starting magnetic structure
     atomic species   magnetization
        Co1          0.118
        Y1           0.182

     No symmetry found

   Cartesian axes

     site n.     atom                  positions (alat units)
         1           Co1 tau(   1) = (   0.0000000   0.0000000  10.0000000  )
         2           Co1 tau(   2) = (   3.8834105   2.7472879  10.0000000  )
         3           Y1  tau(   3) = (   2.9134787   0.0000000  10.0000000  )
         4           Y1  tau(   4) = (   0.9699318   2.7472879  10.0000000  )
         5           Co1 tau(   5) = (   5.8269575   4.1222347  12.3784684  )
         6           Co1 tau(   6) = (   1.9435469   1.3749468  12.3784684  )
         7           Y1  tau(   7) = (   2.9134787   4.1222347  12.3784684  )
         8           Y1  tau(   8) = (   4.8570257   1.3749468  12.3784684  )
         9           Co1 tau(   9) = (   3.8864425   2.7494524  14.5663494  )
        10           Co1 tau(  10) = (   0.0029912   0.0021120  14.5662859  )
        11           Y1  tau(  11) = (   0.9723568   2.7490031  14.8003641  )
        12           Y1  tau(  12) = (   2.9159204   0.0017254  14.8003700  )

     number of k points=    40  Fermi-Dirac smearing, width (Ry)=  0.0110
                       cart. coord. in units 2pi/alat
        k(    1) = (   0.0000000   0.0000000   0.0000000), wk =   0.0277778
        k(    2) = (   0.0000000   0.0303329   0.0000000), wk =   0.0555556
        k(    3) = (   0.0000000   0.0606659   0.0000000), wk =   0.0555556
        k(    4) = (   0.0000000  -0.0909988   0.0000000), wk =   0.0277778
        k(    5) = (   0.0286027  -0.0100982   0.0000000), wk =   0.0555556
        k(    6) = (   0.0286027   0.0202347   0.0000000), wk =   0.0555556
        k(    7) = (   0.0286027   0.0505677   0.0000000), wk =   0.0555556
        k(    8) = (   0.0286027  -0.1010970   0.0000000), wk =   0.0555556
        k(    9) = (   0.0286027  -0.0707641   0.0000000), wk =   0.0555556
        k(   10) = (   0.0286027  -0.0404311   0.0000000), wk =   0.0555556
        k(   11) = (   0.0572054  -0.0201964   0.0000000), wk =   0.0555556
        k(   12) = (   0.0572054   0.0101365   0.0000000), wk =   0.0555556
        k(   13) = (   0.0572054   0.0404695   0.0000000), wk =   0.0555556
        k(   14) = (   0.0572054  -0.1111952   0.0000000), wk =   0.0555556
        k(   15) = (   0.0572054  -0.0808623   0.0000000), wk =   0.0555556
        k(   16) = (   0.0572054  -0.0505293   0.0000000), wk =   0.0555556
        k(   17) = (  -0.0858081   0.0302946   0.0000000), wk =   0.0277778
        k(   18) = (  -0.0858081   0.0606275   0.0000000), wk =   0.0555556
        k(   19) = (  -0.0858081   0.0909605   0.0000000), wk =   0.0555556
        k(   20) = (  -0.0858081  -0.0607042   0.0000000), wk =   0.0277778
        k(   21) = (   0.0000000   0.0000000   0.0000000), wk =   0.0277778
        k(   22) = (   0.0000000   0.0303329   0.0000000), wk =   0.0555556
        k(   23) = (   0.0000000   0.0606659   0.0000000), wk =   0.0555556
        k(   24) = (   0.0000000  -0.0909988   0.0000000), wk =   0.0277778
        k(   25) = (   0.0286027  -0.0100982   0.0000000), wk =   0.0555556
        k(   26) = (   0.0286027   0.0202347   0.0000000), wk =   0.0555556
        k(   27) = (   0.0286027   0.0505677   0.0000000), wk =   0.0555556
        k(   28) = (   0.0286027  -0.1010970   0.0000000), wk =   0.0555556
        k(   29) = (   0.0286027  -0.0707641   0.0000000), wk =   0.0555556
        k(   30) = (   0.0286027  -0.0404311   0.0000000), wk =   0.0555556
        k(   31) = (   0.0572054  -0.0201964   0.0000000), wk =   0.0555556
        k(   32) = (   0.0572054   0.0101365   0.0000000), wk =   0.0555556
        k(   33) = (   0.0572054   0.0404695   0.0000000), wk =   0.0555556
        k(   34) = (   0.0572054  -0.1111952   0.0000000), wk =   0.0555556
        k(   35) = (   0.0572054  -0.0808623   0.0000000), wk =   0.0555556
        k(   36) = (   0.0572054  -0.0505293   0.0000000), wk =   0.0555556
        k(   37) = (  -0.0858081   0.0302946   0.0000000), wk =   0.0277778
        k(   38) = (  -0.0858081   0.0606275   0.0000000), wk =   0.0555556
        k(   39) = (  -0.0858081   0.0909605   0.0000000), wk =   0.0555556
        k(   40) = (  -0.0858081  -0.0607042   0.0000000), wk =   0.0277778

     Largest allocated arrays     est. size (Mb)     dimensions
     Largest temporary arrays     est. size (Mb)     dimensions

     Check: negative/imaginary core charge=   -0.000003    0.000000

     Initial potential from superposition of free atoms
     Check: negative starting charge=(component1):   -0.000275
     Check: negative starting charge=(component2):   -0.000198

     starting charge  161.97314, renormalised to  168.00000

[...]

     *
     * You are using vdW-DF for exchange-correlation in this calculation.
     * Please cite the following three references that made this development
     * possible:
     *
     *   M. Dion, H. Rydberg, E. Schroder, D. C. Langreth, and
     *   B. I. Lundqvist, Phys. Rev. Lett. 92, 246401 (2004).
     *
     *   T. Thonhauser, V. R. Cooper, S. Li, A. Puzder, P. Hyldgaard, and
     *   D. C. Langreth, Phys. Rev. B 76, 125112 (2007).
     *
     *   G. Roman-Perez and J. M. Soler, Phys. Rev. Lett. 103, 096102 (2009).
     *
     *
     * If you are using vdW-DF2, please also cite:
     *
     *   K. Lee, E. D. Murray, L. Kong, B. I. Lundqvist, and
     *   D. C. Langreth, Phys. Rev. B 82, 081101(R) (2010).
     *
     *
     * If you are calculating the stress with vdW-DF, please also cite:
     *
     *   R. Sabatini, E. Kucukbenli, B. Kolb, T. Thonhauser, and
     *   S. de Gironcoli, J. Phys.: Condens. Matter 24, 424209 (2012).
     *

     Carrying out vdW-DF run using the following parameters:

     Nqs =      20    Nr_points =    1024   r_max =   100.000
     q_mesh =
               0.00001000     0.04494208     0.09755937     0.15916263
               0.23128650     0.31572767     0.41458969     0.53033537
               0.66584808     0.82450364     1.01025438     1.22772762
               1.48234092     1.78043706     2.12944203     2.53805004
               3.01644009     3.57652955     4.23227104     5.00000000

     Gradients computed in reciprocal space

[...]

     Starting wfc are  156 randomized atomic wfcs

     Self-consistent Calculation

[...]

     iteration # 17     ecut=    36.75 Ry     beta=0.10
     Davidson diagonalization with overlap
     c_bands:  1 eigenvalues not converged
     ethr =  5.21E-06,  avg # of iterations =  5.9

[...]

     total energy              =   -2359.38657035 Ry
     Harris-Foulkes estimate   =   -2359.38656986 Ry
     estimated scf accuracy    <       0.00000133 Ry

[...]

     iteration # 39     ecut=    36.75 Ry     beta=0.10
     Davidson diagonalization with overlap
     ethr =  7.90E-10,  avg # of iterations =  1.7

[...]

     negative rho (up, down):  3.752E-04 3.250E-04

[...]

     Adding external electric field

     Computed dipole along edir(3) :
        Dipole                0.0724 Ry au,          0.1840 Debye
        Dipole field          0.0002 Ry au

        Potential amp.       -0.0155 Ry
        Total length         45.6142 bohr

     Magnetic moment per site:
     atom:    1    charge:    8.2960    magn:    0.6259    constr:    0.0000
     atom:    2    charge:    8.2961    magn:    0.6259    constr:    0.0000
     atom:    3    charge:    0.8653    magn:   -0.0085    constr:    0.0000
     atom:    4    charge:    0.8653    magn:   -0.0085    constr:    0.0000
     atom:    5    charge:    8.2926    magn:    0.5151    constr:    0.0000
     atom:    6    charge:    8.2926    magn:    0.5151    constr:    0.0000
     atom:    7    charge:    0.8697    magn:   -0.0076    constr:    0.0000
     atom:    8    charge:    0.8697    magn:   -0.0076    constr:    0.0000
     atom:    9    charge:    8.2930    magn:    0.5247    constr:    0.0000
     atom:   10    charge:    8.2930    magn:    0.5247    constr:    0.0000
     atom:   11    charge:    0.8677    magn:   -0.0078    constr:    0.0000
     atom:   12    charge:    0.8677    magn:   -0.0078    constr:    0.0000

     End of self-consistent calculation

 ------ SPIN UP ------------

[...]

 ------ SPIN DOWN ----------

[...]

          k = 0.0572-0.0505 0.0000 ( 20135 PWs)   bands (ev):

[...]

          k =-0.0858-0.0607 0.0000 ( 20094 PWs)   bands (ev):

   -92.6020 -92.6018 -92.3595 -92.3593 -92.3122 -92.3120 -55.9581 -55.9530
   -55.9467 -55.9462 -55.9144 -55.9139 -55.7506 -55.7501 -55.7197 -55.7183
   -55.7177 -55.7145 -55.6633 -55.6628 -55.6594 -55.6543 -55.6261 -55.6257
   -41.6834 -41.6383 -41.6339 -41.5887 -40.7562 -40.7075 -21.9132 -21.8784
   -21.7960 -21.7209 -21.7161 -21.6613 -21.6583 -21.6039 -21.5567 -21.5191
   -21.3807 -21.3421 -21.0762 -20.7892 -20.7833 -20.7439 -20.7184 -20.5177
    -2.3577  -2.3515  -1.3040  -1.2556  -1.0392  -0.9154  -0.8171  -0.4645
    -0.3380  -0.0906  -0.0398   0.1411   0.2133   0.2660   0.2728   0.2827
     0.3507   0.4167   0.4767   0.4997   0.5072   0.5811   0.6479   0.6816
     0.7223   0.7335   0.7439   0.7885   0.8070   0.8352   0.9180   0.9188
     0.9371   0.9957   1.0313   1.0620   1.0765   1.1513   1.1893   1.2705
     1.7251   2.0174   2.0413   2.1832   2.2091   2.2854   2.6073   2.6109
     2.8837   2.9309   3.1465   3.3025   3.3310   3.6726   3.9497   3.9531
     3.9637   4.0191   4.1501   4.5014   4.6551   4.8393   5.4610   5.5288
     5.7138   5.9524

     the Fermi energy is     1.2272 ev

!    total energy              =   -2359.38657135 Ry
     Harris-Foulkes estimate   =   -2359.38656984 Ry
     estimated scf accuracy    <       0.00000049 Ry

     The total energy is the sum of the following terms:

     one-electron contribution =  -14214.63014624 Ry
     hartree contribution      =    7112.53430466 Ry
     xc contribution           =    -372.59042773 Ry
     ewald contribution        =    5115.38511287 Ry
     electric field correction =       0.00001231 Ry
     smearing contrib. (-TS)   =      -0.08542722 Ry

     total magnetization       =     3.45 Bohr mag/cell
     absolute magnetization    =     9.46 Bohr mag/cell

     convergence has been achieved in  39 iterations

 BEEF-vdW xc energy contributions
           1 :   -326.751966860063
           2 :    294.843151686894
           3 :   -240.096960504200
           4 :    176.479595140275
           5 :   -117.125155027256
           6 :    70.0344723386058
           7 :   -36.9617635731464
           8 :    15.2240119304377
           9 :  -0.831813267318466
          10 :   -8.96097899257785
          11 :    14.8402527546863
          12 :   -16.3414460453857
          13 :    13.4488996920300
          14 :   -7.62190664890977
          15 :    1.54985696412143
          16 :    2.08469604421231
          17 :   -1.94002976199397
          18 :   -1.42960761545817
          19 :    6.07021215674604
          20 :   -9.78999793067766
          21 :    11.2441545662133
          22 :   -10.3713451626230
          23 :    8.06926489222838
          24 :   -5.46551515721137
          25 :    3.28522699816870
          26 :   -1.66082776253148
          27 :   0.375541755296808
          28 :   0.729764843092426
          29 :   -1.52033437778391
          30 :    1.65049641399645
          31 :   -29.2593824886341
          32 :   -20.0812992501928

     Forces acting on atoms (Ry/au):

     negative rho (up, down):  3.752E-04 3.250E-04
     atom    1 type  1   force =    -0.00000231    0.00000029    0.01795478
     atom    2 type  1   force =    -0.00002396   -0.00001810    0.01795548
     atom    3 type  2   force =     0.00018942    0.00011890   -0.01102228
     atom    4 type  2   force =     0.00017492    0.00013925   -0.01102255
     atom    5 type  1   force =     0.00000592   -0.00000280    0.00402282
     atom    6 type  1   force =    -0.00005101   -0.00002894    0.00403396
     atom    7 type  2   force =    -0.00008132   -0.00009019   -0.01077615
     atom    8 type  2   force =    -0.00011628   -0.00004886   -0.01077640
     atom    9 type  1   force =    -0.00004220   -0.00003304   -0.00038848
     atom   10 type  1   force =    -0.00000884   -0.00000633   -0.00036647
     atom   11 type  2   force =    -0.00003000   -0.00000285    0.00019366
     atom   12 type  2   force =    -0.00001435   -0.00002733    0.00019162

     Total force =     0.033955     Total SCF correction =     0.001963

     entering subroutine stress ...

     negative rho (up, down):  3.752E-04 3.250E-04
          total   stress  (Ry/bohr**3)                   (kbar)     P=   -9.04
  -0.00009378  -0.00004452  -0.00000034        -13.80     -6.55     -0.05
  -0.00004452  -0.00006235  -0.00000024         -6.55     -9.17     -0.04
  -0.00000034  -0.00000024  -0.00002816         -0.05     -0.04     -4.14

 !ASE

     Writing output data file calc.save

     General routines

     Parallel routines

   This run was terminated on:  12: 3:34  19Dec2018

   JOB DONE.
Job  /afs/slac/g/suncat/bin/suncat-tsmpirun -x LD_LIBRARY_PATH -wdir /scratch/qe529709_A9BR3 pw.x -in pw.inp

TID   HOST_NAME   COMMAND_LINE            STATUS            TERMINATION_TIME
00000 suncat0082 pw.x -in pw.inp   Done                     12/19/2018 12:03:34
00001 suncat0082 pw.x -in pw.inp   Done                     12/19/2018 12:03:34
00002 suncat0082 pw.x -in pw.inp   Done                     12/19/2018 12:03:34
00003 suncat0082 pw.x -in pw.inp   Done                     12/19/2018 12:03:34
00004 suncat0082 pw.x -in pw.inp   Done                     12/19/2018 12:03:34
00005 suncat0082 pw.x -in pw.inp   Done                     12/19/2018 12:03:34
00006 suncat0082 pw.x -in pw.inp   Done                     12/19/2018 12:03:34
00007 suncat0082 pw.x -in pw.inp   Done                     12/19/2018 12:03:34
00008 suncat0200 pw.x -in pw.inp   Done                     12/19/2018 12:03:34
00009 suncat0200 pw.x -in pw.inp   Done                     12/19/2018 12:03:34
00010 suncat0200 pw.x -in pw.inp   Done                     12/19/2018 12:03:34
00011 suncat0200 pw.x -in pw.inp   Done                     12/19/2018 12:03:34
00012 suncat0200 pw.x -in pw.inp   Done                     12/19/2018 12:03:34
00013 suncat0200 pw.x -in pw.inp   Done                     12/19/2018 12:03:34
00014 suncat0200 pw.x -in pw.inp   Done                     12/19/2018 12:03:34
00015 suncat0200 pw.x -in pw.inp   Done                     12/19/2018 12:03:34
00016 suncat0099 pw.x -in pw.inp   Done                     12/19/2018 12:03:34
00017 suncat0099 pw.x -in pw.inp   Done                     12/19/2018 12:03:34
00018 suncat0099 pw.x -in pw.inp   Done                     12/19/2018 12:03:34
00019 suncat0099 pw.x -in pw.inp   Done                     12/19/2018 12:03:34
00020 suncat0099 pw.x -in pw.inp   Done                     12/19/2018 12:03:34
00021 suncat0099 pw.x -in pw.inp   Done                     12/19/2018 12:03:34
00022 suncat0099 pw.x -in pw.inp   Done                     12/19/2018 12:03:34
00023 suncat0099 pw.x -in pw.inp   Done                     12/19/2018 12:03:34
00024 suncat0098 pw.x -in pw.inp   Done                     12/19/2018 12:03:34
00025 suncat0098 pw.x -in pw.inp   Done                     12/19/2018 12:03:34
00026 suncat0098 pw.x -in pw.inp   Done                     12/19/2018 12:03:34
00027 suncat0098 pw.x -in pw.inp   Done                     12/19/2018 12:03:34
00028 suncat0098 pw.x -in pw.inp   Done                     12/19/2018 12:03:34
00029 suncat0098 pw.x -in pw.inp   Done                     12/19/2018 12:03:34
00030 suncat0098 pw.x -in pw.inp   Done                     12/19/2018 12:03:34
00031 suncat0098 pw.x -in pw.inp   Done                     12/19/2018 12:03:34