     Program PWSCF v.5.1rc2 (svn rev. 11289) starts on 30Dec2018 at  5:19:49

     Current dimensions of program PWSCF are:
     Max number of different atomic species (ntypx) = 10
     Max number of k-points (npk) =  40000
     Max angular momentum in pseudopotentials (lmaxx) =  3
     Presently stress not available with electric field

     IMPORTANT: XC functional enforced from input :
     Exchange-correlation      = BEEF-VDW ( 1  4 27 13 2)
     Any further DFT definition will be discarded
     Please, verify this is what you really want

     Subspace diagonalization in iterative solution of the eigenvalue problem:
     a serial algorithm will be used

     bravais-lattice index     =            0
     lattice parameter (alat)  =       1.8897  a.u.
     unit-cell volume          =    5610.9856 (a.u.)^3
     number of atoms/cell      =           12
     number of atomic types    =            2
     number of electrons       =       207.00
     number of Kohn-Sham states=          133
     kinetic-energy cutoff     =      36.7493  Ry
     charge density cutoff     =     367.4932  Ry
     convergence threshold     =      1.0E-06
     mixing beta               =       0.1000
     number of iterations used =           10  plain     mixing
     Exchange-correlation      = BEEF-VDW ( 1  4 27 13 2)
     nstep                     =           50

     celldm(1)=   1.889726  celldm(2)=   0.000000  celldm(3)=   0.000000
     celldm(4)=   0.000000  celldm(5)=   0.000000  celldm(6)=   0.000000

     crystal axes: (cart. coord. in units of alat)
               a(1) = (   6.190334   0.000000   0.000000 )
               a(2) = (  -3.095167   5.360986   0.000000 )
               a(3) = (   0.000000   0.000000  25.054386 )

     reciprocal axes: (cart. coord. in units 2 pi/alat)
               b(1) = (  0.161542  0.093266  0.000000 )
               b(2) = (  0.000000  0.186533  0.000000 )
               b(3) = (  0.000000  0.000000  0.039913 )

     PseudoPot. # 1 for Ga read from file:
     /afs/slac.stanford.edu/u/if/mamunm/psp/gbrv1.5pbe/Ga.UPF
     MD5 check sum: ccd671392a58a050fbb373893b4fcd66
     Pseudo is Ultrasoft + core correction, Zval = 19.0
     Generated by new atomic code, or converted to UPF format
     Using radial grid of  871 points,  6 beta functions with:
                l(1) =   0
                l(2) =   0
                l(3) =   1
                l(4) =   1
                l(5) =   2
                l(6) =   2
     Q(r) pseudized with  8 coefficients,  rinner =    1.250   1.250   1.250
                                                       1.250   1.250

     PseudoPot. # 2 for Cd read from file:
     /afs/slac.stanford.edu/u/if/mamunm/psp/gbrv1.5pbe/Cd.UPF
     MD5 check sum: 17164a7926edb8e0dc231208abae86a6
     Pseudo is Ultrasoft + core correction, Zval = 12.0
     Generated by new atomic code, or converted to UPF format
     Using radial grid of  889 points,  6 beta functions with:
                l(1) =   0
                l(2) =   0
                l(3) =   1
                l(4) =   1
                l(5) =   2
                l(6) =   2
     Q(r) pseudized with  6 coefficients,  rinner =    1.000   1.000   1.000
                                                       1.000   1.000

     vdW kernel table read from file vdW_kernel_table
     MD5 check sum: 095c7af220d748ca6e76c0b4c6cfb241

     atomic species   valence    mass     pseudopotential
        Ga1           19.00    69.72300     Ga( 1.00)
        Cd1           12.00   112.41400     Cd( 1.00)

     No symmetry found

   Cartesian axes

     site n.     atom                  positions (alat units)
         1           Ga1 tau(   1) = (   0.0000000   0.0000000  10.0000000  )
         2           Ga1 tau(   2) = (  -1.5475835   2.6804932  10.0000000  )
         3           Ga1 tau(   3) = (   1.5475835   2.6804932  10.0000000  )
         4           Cd1 tau(   4) = (   3.0951670   0.0000000  10.0000000  )
         5           Ga1 tau(   5) = (   3.0951670   1.7869955  12.5271932  )
         6           Ga1 tau(   6) = (   1.5475835   4.4674887  12.5271932  )
         7           Ga1 tau(   7) = (  -1.5475835   4.4674887  12.5271932  )
         8           Cd1 tau(   8) = (   0.0000000   1.7869955  12.5271932  )
         9           Ga1 tau(   9) = (  -0.0000000   3.5739910  15.0543865  )
        10           Ga1 tau(  10) = (   1.5475835   0.8934977  15.0543865  )
        11           Ga1 tau(  11) = (   4.6427504   0.8934977  15.0543865  )
        12           Cd1 tau(  12) = (   3.0951670   3.5739910  15.0543865  )

     number of k points=    20  Fermi-Dirac smearing, width (Ry)=  0.0110
                       cart. coord. in units 2pi/alat
        k(    1) = (   0.0000000   0.0000000   0.0000000), wk =   0.0555556
        k(    2) = (   0.0000000   0.0310888   0.0000000), wk =   0.1111111
        k(    3) = (   0.0000000   0.0621776   0.0000000), wk =   0.1111111
        k(    4) = (   0.0000000  -0.0932664   0.0000000), wk =   0.0555556
        k(    5) = (   0.0269237   0.0155444   0.0000000), wk =   0.1111111
        k(    6) = (   0.0269237   0.0466332   0.0000000), wk =   0.1111111
        k(    7) = (   0.0269237   0.0777220   0.0000000), wk =   0.1111111
        k(    8) = (   0.0269237  -0.0777220   0.0000000), wk =   0.1111111
        k(    9) = (   0.0269237  -0.0466332   0.0000000), wk =   0.1111111
        k(   10) = (   0.0269237  -0.0155444   0.0000000), wk =   0.1111111
        k(   11) = (   0.0538474   0.0310888   0.0000000), wk =   0.1111111
        k(   12) = (   0.0538474   0.0621776   0.0000000), wk =   0.1111111
        k(   13) = (   0.0538474   0.0932664   0.0000000), wk =   0.1111111
        k(   14) = (   0.0538474  -0.0621776   0.0000000), wk =   0.1111111
        k(   15) = (   0.0538474  -0.0310888   0.0000000), wk =   0.1111111
        k(   16) = (   0.0538474   0.0000000   0.0000000), wk =   0.1111111
        k(   17) = (  -0.0807711  -0.0466332   0.0000000), wk =   0.0555556
        k(   18) = (  -0.0807711  -0.0155444   0.0000000), wk =   0.1111111
        k(   19) = (  -0.0807711   0.0155444   0.0000000), wk =   0.1111111
        k(   20) = (  -0.0807711  -0.1398996   0.0000000), wk =   0.0555556

     Largest allocated arrays     est. size (Mb)     dimensions
     Largest temporary arrays     est. size (Mb)     dimensions

     Initial potential from superposition of free atoms
     Check: negative starting charge=   -0.066583

     starting charge  196.49987, renormalised to  207.00000

     negative rho (up, down):  7.014E-02 0.000E+00

     *
     * You are using vdW-DF for exchange-correlation in this calculation.
     * Please cite the following three references that made this development
     * possible:
     *
     *   M. Dion, H. Rydberg, E. Schroder, D. C. Langreth, and
     *   B. I. Lundqvist, Phys. Rev. Lett. 92, 246401 (2004).
     *
     *   T. Thonhauser, V. R. Cooper, S. Li, A. Puzder, P. Hyldgaard, and
     *   D. C. Langreth, Phys. Rev. B 76, 125112 (2007).
     *
     *   G. Roman-Perez and J. M. Soler, Phys. Rev. Lett. 103, 096102 (2009).
     *
     *
     * If you are using vdW-DF2, please also cite:
     *
     *   K. Lee, E. D. Murray, L. Kong, B. I. Lundqvist, and
     *   D. C. Langreth, Phys. Rev. B 82, 081101(R) (2010).
     *
     *
     * If you are calculating the stress with vdW-DF, please also cite:
     *
     *   R. Sabatini, E. Kucukbenli, B. Kolb, T. Thonhauser, and
     *   S. de Gironcoli, J. Phys.: Condens. Matter 24, 424209 (2012).
     *

     Carrying out vdW-DF run using the following parameters:

     Nqs =      20    Nr_points =    1024   r_max =   100.000
     q_mesh =
               0.00001000     0.04494208     0.09755937     0.15916263
               0.23128650     0.31572767     0.41458969     0.53033537
               0.66584808     0.82450364     1.01025438     1.22772762
               1.48234092     1.78043706     2.12944203     2.53805004
               3.01644009     3.57652955     4.23227104     5.00000000

     Gradients computed in reciprocal space

     Adding external electric field

     Computed dipole along edir(3) :
        Dipole               -0.0000 Ry au,         -0.0000 Debye
        Dipole field         -0.0000 Ry au

        Potential amp.        0.0000 Ry
        Total length         46.1623 bohr

     Starting wfc are  135 randomized atomic wfcs

     Self-consistent Calculation

     iteration #  1     ecut=    36.75 Ry     beta=0.10
     Davidson diagonalization with overlap
     ethr =  1.00E-02,  avg # of iterations =  7.4

[...]

     total energy              =   -4092.11154518 Ry
     Harris-Foulkes estimate   =   -4114.59672091 Ry
     estimated scf accuracy    <     126.32308473 Ry

[...]

     End of self-consistent calculation

          k = 0.0000 0.0000 0.0000 ( 21091 PWs)   bands (ev):

   -94.6841 -94.6830 -94.6830 -94.6769 -94.6769 -94.6765 -94.6700 -94.6695
   -94.6695 -94.6457 -94.6456 -94.6456 -94.6456 -94.6455 -94.6455 -94.6284
   -94.6284 -94.6283 -94.6283 -94.6283 -94.6283 -94.6277 -94.6276 -94.6268
   -94.6268 -94.6268 -94.6268 -15.1227 -15.1044 -15.1044 -15.0929 -15.0691
   -15.0582 -15.0568 -15.0568 -15.0535 -15.0368 -15.0368 -15.0338 -15.0338
   -15.0194 -15.0187 -15.0187 -15.0080 -14.9958 -14.9900 -14.9900 -14.9809
   -14.9802 -14.9802 -14.9652 -14.9567 -14.9567 -14.9396 -14.9396 -14.9373
   -14.9373 -14.9356 -14.9216 -14.9216 -14.9150 -14.9150 -14.9047 -14.9001
   -14.9001 -14.8900 -14.8900 -14.8848 -14.8659 -14.8659 -14.8393 -14.8378
    -9.4620  -8.9478  -8.9217  -8.9217  -8.8524  -8.8524  -8.8406  -8.7321
    -8.7321  -8.6920  -8.6920  -8.6896  -8.6664  -8.6664  -8.6380  -8.6380
    -7.8463  -5.7194  -4.4944  -4.4944  -4.1470  -4.1470  -3.2242  -2.9748
    -2.9584  -2.9584  -2.1830  -2.1407  -2.1407  -1.8041  -1.3070  -0.5701
    -0.5701  -0.3183  -0.3183   0.3964   0.6153   1.4180   3.1403   3.2025
     3.2025   3.2354   3.2354   3.7266   4.0319   4.1934   4.5774   4.8311
     5.0220   5.7016   5.7016   6.2678   6.2678   6.3047   6.3622   6.3820
     6.8272   7.1626   7.1626   7.4860   7.4861

[...]

          k =-0.0808-0.0466 0.0000 ( 21128 PWs)   bands (ev):

[...]

     the Fermi energy is     0.1463 ev

!    total energy              =   -4097.48910522 Ry
     Harris-Foulkes estimate   =   -4097.48909770 Ry
     estimated scf accuracy    <       0.00000021 Ry

     The total energy is the sum of the following terms:

     one-electron contribution =  -21375.19548298 Ry
     hartree contribution      =   10713.03795854 Ry
     xc contribution           =    -569.61273807 Ry
     ewald contribution        =    7134.31710937 Ry
     electric field correction =       0.00000000 Ry
     smearing contrib. (-TS)   =      -0.03595208 Ry

     convergence has been achieved in  15 iterations

 BEEF-vdW xc energy contributions
           1 :   -506.477811301417
           2 :    460.493960212057
           3 :   -383.267137802408
           4 :    297.157461217818
           5 :   -222.181618655684
           6 :    168.513175679071
           7 :   -134.870682297675
           8 :    112.707318454456
           9 :   -93.0113815284303
          10 :    71.5227234752458
[...]
     Using radial grid of  871 points,  6 beta functions with:
                l(1) =   0
                l(2) =   0
                l(3) =   1
                l(4) =   1
                l(5) =   2
                l(6) =   2
     Q(r) pseudized with  8 coefficients,  rinner =    1.250   1.250   1.250
                                                       1.250   1.250

     PseudoPot. # 2 for Cd read from file:
     /afs/slac.stanford.edu/u/if/mamunm/psp/gbrv1.5pbe/Cd.UPF
     MD5 check sum: 17164a7926edb8e0dc231208abae86a6
     Pseudo is Ultrasoft + core correction, Zval = 12.0
     Generated by new atomic code, or converted to UPF format
     Using radial grid of  889 points,  6 beta functions with:
                l(1) =   0
                l(2) =   0
                l(3) =   1
                l(4) =   1
                l(5) =   2
                l(6) =   2
     Q(r) pseudized with  6 coefficients,  rinner =    1.000   1.000   1.000
                                                       1.000   1.000

     vdW kernel table read from file vdW_kernel_table
     MD5 check sum: 095c7af220d748ca6e76c0b4c6cfb241

     atomic species   valence    mass     pseudopotential
        Ga1           19.00    69.72300     Ga( 1.00)
        Cd1           12.00   112.41400     Cd( 1.00)

     No symmetry found

   Cartesian axes

     site n.     atom                  positions (alat units)
         1           Ga1 tau(   1) = (   0.0000000   0.0000000  10.0000000  )
         2           Ga1 tau(   2) = (  -1.5475835   2.6804932  10.0000000  )
         3           Ga1 tau(   3) = (   1.5475835   2.6804932  10.0000000  )
         4           Cd1 tau(   4) = (   3.0951670   0.0000000  10.0000000  )
         5           Ga1 tau(   5) = (   3.0951670   1.7869955  12.5271932  )
         6           Ga1 tau(   6) = (   1.5475835   4.4674887  12.5271932  )
         7           Ga1 tau(   7) = (  -1.5475835   4.4674887  12.5271932  )
         8           Cd1 tau(   8) = (   0.0000000   1.7869955  12.5271932  )
         9           Ga1 tau(   9) = (  -0.0000566   3.6227775  15.0614307  )
        10           Ga1 tau(  10) = (   1.5898737   0.8691560  15.0613804  )
        11           Ga1 tau(  11) = (   4.6005008   0.8690815  15.0614707  )
        12           Cd1 tau(  12) = (   3.0951620   3.5740197  15.2574623  )

     number of k points=    20  Fermi-Dirac smearing, width (Ry)=  0.0110
                       cart. coord. in units 2pi/alat
        k(    1) = (   0.0000000   0.0000000   0.0000000), wk =   0.0555556
        k(    2) = (   0.0000000   0.0310888   0.0000000), wk =   0.1111111
        k(    3) = (   0.0000000   0.0621776   0.0000000), wk =   0.1111111
        k(    4) = (   0.0000000  -0.0932664   0.0000000), wk =   0.0555556
        k(    5) = (   0.0269237   0.0155444   0.0000000), wk =   0.1111111
        k(    6) = (   0.0269237   0.0466332   0.0000000), wk =   0.1111111
        k(    7) = (   0.0269237   0.0777220   0.0000000), wk =   0.1111111
        k(    8) = (   0.0269237  -0.0777220   0.0000000), wk =   0.1111111
        k(    9) = (   0.0269237  -0.0466332   0.0000000), wk =   0.1111111
        k(   10) = (   0.0269237  -0.0155444   0.0000000), wk =   0.1111111
        k(   11) = (   0.0538474   0.0310888   0.0000000), wk =   0.1111111
        k(   12) = (   0.0538474   0.0621776   0.0000000), wk =   0.1111111
        k(   13) = (   0.0538474   0.0932664   0.0000000), wk =   0.1111111
        k(   14) = (   0.0538474  -0.0621776   0.0000000), wk =   0.1111111
        k(   15) = (   0.0538474  -0.0310888   0.0000000), wk =   0.1111111
        k(   16) = (   0.0538474   0.0000000   0.0000000), wk =   0.1111111
        k(   17) = (  -0.0807711  -0.0466332   0.0000000), wk =   0.0555556
        k(   18) = (  -0.0807711  -0.0155444   0.0000000), wk =   0.1111111
        k(   19) = (  -0.0807711   0.0155444   0.0000000), wk =   0.1111111
        k(   20) = (  -0.0807711  -0.1398996   0.0000000), wk =   0.0555556

     Largest allocated arrays     est. size (Mb)     dimensions
     Largest temporary arrays     est. size (Mb)     dimensions

     Initial potential from superposition of free atoms
     Check: negative starting charge=   -0.066330

     starting charge  196.49987, renormalised to  207.00000

[...]

     *
     * You are using vdW-DF for exchange-correlation in this calculation.
     * Please cite the following three references that made this development
     * possible:
     *
     *   M. Dion, H. Rydberg, E. Schroder, D. C. Langreth, and
     *   B. I. Lundqvist, Phys. Rev. Lett. 92, 246401 (2004).
     *
     *   T. Thonhauser, V. R. Cooper, S. Li, A. Puzder, P. Hyldgaard, and
     *   D. C. Langreth, Phys. Rev. B 76, 125112 (2007).
     *
     *   G. Roman-Perez and J. M. Soler, Phys. Rev. Lett. 103, 096102 (2009).
     *
     *
     * If you are using vdW-DF2, please also cite:
     *
     *   K. Lee, E. D. Murray, L. Kong, B. I. Lundqvist, and
     *   D. C. Langreth, Phys. Rev. B 82, 081101(R) (2010).
     *
     *
     * If you are calculating the stress with vdW-DF, please also cite:
     *
     *   R. Sabatini, E. Kucukbenli, B. Kolb, T. Thonhauser, and
     *   S. de Gironcoli, J. Phys.: Condens. Matter 24, 424209 (2012).
     *

     Carrying out vdW-DF run using the following parameters:

     Nqs =      20    Nr_points =    1024   r_max =   100.000
     q_mesh =
               0.00001000     0.04494208     0.09755937     0.15916263
               0.23128650     0.31572767     0.41458969     0.53033537
               0.66584808     0.82450364     1.01025438     1.22772762
               1.48234092     1.78043706     2.12944203     2.53805004
               3.01644009     3.57652955     4.23227104     5.00000000

     Gradients computed in reciprocal space

[...]

     Starting wfc are  135 randomized atomic wfcs

     Self-consistent Calculation

[...]

     total energy              =   -4097.51556123 Ry
     Harris-Foulkes estimate   =   -4097.51555994 Ry
     estimated scf accuracy    <       0.00000133 Ry

     iteration # 15     ecut=    36.75 Ry     beta=0.10
     Davidson diagonalization with overlap
     ethr =  6.40E-10,  avg # of iterations =  2.0

[...]

     negative rho (up, down):  6.785E-02 0.000E+00

     Adding external electric field

     Computed dipole along edir(3) :
        Dipole                0.0088 Ry au,          0.0222 Debye
        Dipole field          0.0000 Ry au

        Potential amp.       -0.0018 Ry
        Total length         46.1623 bohr

     End of self-consistent calculation

[...]

          k = 0.0538 0.0000 0.0000 ( 21083 PWs)   bands (ev):

[...]

          k =-0.0808-0.1399 0.0000 ( 21128 PWs)   bands (ev):

   -94.6662 -94.6658 -94.6655 -94.6593 -94.6592 -94.6589 -94.6523 -94.6521
   -94.6519 -94.6382 -94.6381 -94.6381 -94.6373 -94.6372 -94.6372 -94.6206
   -94.6204 -94.6201 -94.6201 -94.6200 -94.6198 -94.6196 -94.6196 -94.6195
   -94.6191 -94.6191 -94.6186 -15.0832 -15.0562 -15.0455 -15.0385 -15.0363
   -15.0321 -15.0306 -15.0281 -15.0192 -15.0168 -15.0098 -15.0063 -14.9990
   -14.9984 -14.9845 -14.9816 -14.9757 -14.9670 -14.9620 -14.9594 -14.9577
   -14.9540 -14.9523 -14.9521 -14.9513 -14.9478 -14.9447 -14.9429 -14.9420
   -14.9390 -14.9362 -14.9350 -14.9315 -14.9293 -14.9231 -14.9199 -14.9121
   -14.9092 -14.9073 -14.9052 -14.8999 -14.8933 -14.8846 -14.8585 -14.8494
    -8.9844  -8.8586  -8.8434  -8.8339  -8.8096  -8.7776  -8.7238  -8.7025
    -8.6972  -8.6589  -8.6560  -8.6288  -8.6195  -8.6045  -8.5730  -8.0801
    -7.8257  -6.7150  -6.4106  -5.6145  -5.0187  -4.7047  -4.2611  -3.8005
    -3.0065  -2.6473  -1.2591  -0.4270  -0.4061   0.1373   0.3702   0.5026
     0.6825   1.2977   1.6524   1.6544   1.9033   2.2224   2.5148   2.6405
     2.6559   3.2068   3.2574   3.5234   3.9250   4.0901   4.1701   4.3108
     4.4943   4.5787   4.9446   4.9780   5.1035   5.1304   5.2817   5.7077
     5.7321   6.0418   6.0910   6.4249   6.4514

     the Fermi energy is     0.1535 ev

!    total energy              =   -4097.51556811 Ry
     Harris-Foulkes estimate   =   -4097.51556149 Ry
     estimated scf accuracy    <       0.00000020 Ry

     The total energy is the sum of the following terms:

     one-electron contribution =  -21266.68393603 Ry
     hartree contribution      =   10658.90662756 Ry
     xc contribution           =    -569.61118148 Ry
     ewald contribution        =    7079.90802500 Ry
     electric field correction =       0.00000017 Ry
     smearing contrib. (-TS)   =      -0.03510333 Ry

     convergence has been achieved in  15 iterations

 BEEF-vdW xc energy contributions
           1 :   -507.178282275765
           2 :    461.168024753571
           3 :   -383.910475409093
           4 :    297.792251062428
           5 :   -222.839647257537
           6 :    169.211847185353
           7 :   -135.600984644603
           8 :    113.442296620494
           9 :   -93.7274820292704
          10 :    72.2170890677004
          11 :   -50.4386994474329
          12 :    32.7887705017306
          13 :   -22.3893022198368
          14 :    18.6621337421374
          15 :   -17.9538127250615
          16 :    16.2760598264733
          17 :   -11.9279430065709
          18 :    6.16880424391923
          19 :   -1.72955300846422
          20 :   0.497809008250897
          21 :   -2.13508548548100
          22 :    4.50565584979302
          23 :   -5.39299737840759
          24 :    4.09942600480383
          25 :   -1.76082717298391
          26 :   0.270759330724559
          27 :  -0.748555243443889
          28 :    2.73622649553874
          29 :   -4.66327626940290
          30 :    5.12416491455656
          31 :   -39.0585459732614
          32 :   -26.9799171062641

     Forces acting on atoms (Ry/au):

     negative rho (up, down):  6.785E-02 0.000E+00
     atom    1 type  1   force =     0.00000196   -0.00302919   -0.00083188
     atom    2 type  1   force =    -0.00262652    0.00151508   -0.00082793
     atom    3 type  1   force =     0.00262383    0.00151531   -0.00083167
     atom    4 type  2   force =     0.00000052   -0.00000134   -0.00833147
     atom    5 type  1   force =     0.00000140    0.00292007    0.00280951
     atom    6 type  1   force =     0.00252665   -0.00146012    0.00281327
     atom    7 type  1   force =    -0.00252568   -0.00146166    0.00281184
     atom    8 type  2   force =    -0.00000043   -0.00000009    0.00325359
     atom    9 type  1   force =    -0.00000093   -0.00169399   -0.00060008
     atom   10 type  1   force =    -0.00146738    0.00084797   -0.00059993
     atom   11 type  1   force =     0.00146666    0.00084793   -0.00060076
     atom   12 type  2   force =    -0.00000009    0.00000003    0.00093550

     Total force =     0.013018     Total SCF correction =     0.001779
     SCF correction compared to forces is large: reduce conv_thr to get better values

     entering subroutine stress ...

     negative rho (up, down):  6.785E-02 0.000E+00
          total   stress  (Ry/bohr**3)                   (kbar)     P=   -6.00
  -0.00005831   0.00000000   0.00000000         -8.58      0.00      0.00
   0.00000000  -0.00005831  -0.00000000          0.00     -8.58     -0.00
   0.00000000  -0.00000000  -0.00000579          0.00     -0.00     -0.85

 !ASE

     Writing output data file calc.save

     General routines

     Parallel routines

   This run was terminated on:   7:32:17  30Dec2018

   JOB DONE.
Job  /afs/slac/g/suncat/bin/suncat-tsmpirun -x LD_LIBRARY_PATH -wdir /scratch/qe648444_utV7L pw.x -in pw.inp

TID   HOST_NAME   COMMAND_LINE            STATUS            TERMINATION_TIME
00000 suncat0024 pw.x -in pw.inp   Done                     12/30/2018 07:32:17
00001 suncat0024 pw.x -in pw.inp   Done                     12/30/2018 07:32:17
00002 suncat0024 pw.x -in pw.inp   Done                     12/30/2018 07:32:17
00003 suncat0024 pw.x -in pw.inp   Done                     12/30/2018 07:32:17
00004 suncat0024 pw.x -in pw.inp   Done                     12/30/2018 07:32:17
00005 suncat0024 pw.x -in pw.inp   Done                     12/30/2018 07:32:17
00006 suncat0024 pw.x -in pw.inp   Done                     12/30/2018 07:32:17
00007 suncat0024 pw.x -in pw.inp   Done                     12/30/2018 07:32:17
00008 suncat0023 pw.x -in pw.inp   Done                     12/30/2018 07:32:17
00009 suncat0023 pw.x -in pw.inp   Done                     12/30/2018 07:32:17
00010 suncat0023 pw.x -in pw.inp   Done                     12/30/2018 07:32:17
00011 suncat0023 pw.x -in pw.inp   Done                     12/30/2018 07:32:17
00012 suncat0023 pw.x -in pw.inp   Done                     12/30/2018 07:32:17
00013 suncat0023 pw.x -in pw.inp   Done                     12/30/2018 07:32:17
00014 suncat0023 pw.x -in pw.inp   Done                     12/30/2018 07:32:17
00015 suncat0023 pw.x -in pw.inp   Done                     12/30/2018 07:32:17
00016 suncat0190 pw.x -in pw.inp   Done                     12/30/2018 07:32:17
00017 suncat0190 pw.x -in pw.inp   Done                     12/30/2018 07:32:17
00018 suncat0190 pw.x -in pw.inp   Done                     12/30/2018 07:32:17
00019 suncat0190 pw.x -in pw.inp   Done                     12/30/2018 07:32:17
00020 suncat0190 pw.x -in pw.inp   Done                     12/30/2018 07:32:17
00021 suncat0190 pw.x -in pw.inp   Done                     12/30/2018 07:32:17
00022 suncat0190 pw.x -in pw.inp   Done                     12/30/2018 07:32:17
00023 suncat0190 pw.x -in pw.inp   Done                     12/30/2018 07:32:17
00024 suncat0009 pw.x -in pw.inp   Done                     12/30/2018 07:32:17
00025 suncat0009 pw.x -in pw.inp   Done                     12/30/2018 07:32:17
00026 suncat0009 pw.x -in pw.inp   Done                     12/30/2018 07:32:17
00027 suncat0009 pw.x -in pw.inp   Done                     12/30/2018 07:32:17
00028 suncat0009 pw.x -in pw.inp   Done                     12/30/2018 07:32:17
00029 suncat0009 pw.x -in pw.inp   Done                     12/30/2018 07:32:17
00030 suncat0009 pw.x -in pw.inp   Done                     12/30/2018 07:32:17
00031 suncat0009 pw.x -in pw.inp   Done                     12/30/2018 07:32:17
00032 suncat0185 pw.x -in pw.inp   Done                     12/30/2018 07:32:17
00033 suncat0185 pw.x -in pw.inp   Done                     12/30/2018 07:32:17
00034 suncat0185 pw.x -in pw.inp   Done                     12/30/2018 07:32:17
00035 suncat0185 pw.x -in pw.inp   Done                     12/30/2018 07:32:17
00036 suncat0185 pw.x -in pw.inp   Done                     12/30/2018 07:32:17
00037 suncat0185 pw.x -in pw.inp   Done                     12/30/2018 07:32:17
00038 suncat0185 pw.x -in pw.inp   Done                     12/30/2018 07:32:17
00039 suncat0185 pw.x -in pw.inp   Done                     12/30/2018 07:32:17
00040 suncat0183 pw.x -in pw.inp   Done                     12/30/2018 07:32:17
00041 suncat0183 pw.x -in pw.inp   Done                     12/30/2018 07:32:17
00042 suncat0183 pw.x -in pw.inp   Done                     12/30/2018 07:32:17
00043 suncat0183 pw.x -in pw.inp   Done                     12/30/2018 07:32:17
00044 suncat0183 pw.x -in pw.inp   Done                     12/30/2018 07:32:17
00045 suncat0183 pw.x -in pw.inp   Done                     12/30/2018 07:32:17
00046 suncat0183 pw.x -in pw.inp   Done                     12/30/2018 07:32:17
00047 suncat0183 pw.x -in pw.inp   Done                     12/30/2018 07:32:17
00048 suncat0182 pw.x -in pw.inp   Done                     12/30/2018 07:32:17
00049 suncat0182 pw.x -in pw.inp   Done                     12/30/2018 07:32:17
00050 suncat0182 pw.x -in pw.inp   Done                     12/30/2018 07:32:17
00051 suncat0182 pw.x -in pw.inp   Done                     12/30/2018 07:32:17
00052 suncat0182 pw.x -in pw.inp   Done                     12/30/2018 07:32:17
00053 suncat0182 pw.x -in pw.inp   Done                     12/30/2018 07:32:17
00054 suncat0182 pw.x -in pw.inp   Done                     12/30/2018 07:32:17
00055 suncat0182 pw.x -in pw.inp   Done                     12/30/2018 07:32:17
00056 suncat0181 pw.x -in pw.inp   Done                     12/30/2018 07:32:17
00057 suncat0181 pw.x -in pw.inp   Done                     12/30/2018 07:32:17
00058 suncat0181 pw.x -in pw.inp   Done                     12/30/2018 07:32:17
00059 suncat0181 pw.x -in pw.inp   Done                     12/30/2018 07:32:17
00060 suncat0181 pw.x -in pw.inp   Done                     12/30/2018 07:32:17
00061 suncat0181 pw.x -in pw.inp   Done                     12/30/2018 07:32:17
00062 suncat0181 pw.x -in pw.inp   Done                     12/30/2018 07:32:17
00063 suncat0181 pw.x -in pw.inp   Done                     12/30/2018 07:32:17