     Program PWSCF v.5.1rc2 (svn rev. 11289) starts on 27Dec2018 at 22:20:53

     Current dimensions of program PWSCF are:
     Max number of different atomic species (ntypx) = 10
     Max number of k-points (npk) =  40000
     Max angular momentum in pseudopotentials (lmaxx) =  3
     Presently stress not available with electric field

     IMPORTANT: XC functional enforced from input :
     Exchange-correlation      = BEEF-VDW ( 1  4 27 13 2)
     Any further DFT definition will be discarded
     Please, verify this is what you really want

     Subspace diagonalization in iterative solution of the eigenvalue problem:
     a serial algorithm will be used

     bravais-lattice index     =            0
     lattice parameter (alat)  =       1.8897  a.u.
     unit-cell volume          =    5978.8558 (a.u.)^3
     number of atoms/cell      =           12
     number of atomic types    =            2
     number of electrons       =       141.00
     number of Kohn-Sham states=          100
     kinetic-energy cutoff     =      36.7493  Ry
     charge density cutoff     =     367.4932  Ry
     convergence threshold     =      1.0E-06
     mixing beta               =       0.1000
     number of iterations used =           10  plain     mixing
     Exchange-correlation      = BEEF-VDW ( 1  4 27 13 2)
     nstep                     =           50

     celldm(1)=   1.889726  celldm(2)=   0.000000  celldm(3)=   0.000000
     celldm(4)=   0.000000  celldm(5)=   0.000000  celldm(6)=   0.000000

     crystal axes: (cart. coord. in units of alat)
               a(1) = (   6.371282   0.000000   0.000000 )
               a(2) = (  -3.185641   5.517692   0.000000 )
               a(3) = (   0.000000   0.000000  25.202130 )

     reciprocal axes: (cart. coord. in units 2 pi/alat)
               b(1) = (  0.156954  0.090618  0.000000 )
               b(2) = (  0.000000  0.181235  0.000000 )
               b(3) = (  0.000000  0.000000  0.039679 )

     PseudoPot. # 1 for Sc read from file:
     /afs/slac.stanford.edu/u/if/mamunm/psp/gbrv1.5pbe/Sc.UPF
     MD5 check sum: db30a2753ba66ef00f23801d899b7e7f
     Pseudo is Ultrasoft + core correction, Zval = 11.0
     Generated by new atomic code, or converted to UPF format
     Using radial grid of  849 points,  6 beta functions with:
                l(1) =   0
                l(2) =   0
                l(3) =   1
                l(4) =   1
                l(5) =   2
                l(6) =   2
     Q(r) pseudized with  6 coefficients,  rinner =    1.200   1.200   1.200
                                                       1.200   1.200

     PseudoPot. # 2 for Sn read from file:
     /afs/slac.stanford.edu/u/if/mamunm/psp/gbrv1.5pbe/Sn.UPF
     MD5 check sum: 469debedee59599fedebd795477fea03
     Pseudo is Ultrasoft + core correction, Zval = 14.0
     Generated by new atomic code, or converted to UPF format
     Using radial grid of  891 points,  6 beta functions with:
                l(1) =   0
                l(2) =   0
                l(3) =   1
                l(4) =   1
                l(5) =   2
                l(6) =   2
     Q(r) pseudized with  8 coefficients,  rinner =    1.350   1.350   1.350
                                                       1.350   1.350

     vdW kernel table read from file vdW_kernel_table
     MD5 check sum: 095c7af220d748ca6e76c0b4c6cfb241

     atomic species   valence    mass     pseudopotential
        Sc1           11.00    44.95591     Sc( 1.00)
        Sn1           14.00   118.71000     Sn( 1.00)

     No symmetry found

   Cartesian axes

     site n.     atom                  positions (alat units)
         1           Sc1 tau(   1) = (   0.0000000   0.0000000  10.0000000  )
         2           Sc1 tau(   2) = (  -1.5928204   2.7588459  10.0000000  )
         3           Sc1 tau(   3) = (   1.5928204   2.7588459  10.0000000  )
         4           Sn1 tau(   4) = (   3.1856408   0.0000000  10.0000000  )
         5           Sc1 tau(   5) = (   3.1856408   1.8392306  12.6010648  )
         6           Sc1 tau(   6) = (   1.5928204   4.5980764  12.6010648  )
         7           Sc1 tau(   7) = (  -1.5928204   4.5980764  12.6010648  )
         8           Sn1 tau(   8) = (   0.0000000   1.8392306  12.6010648  )
         9           Sc1 tau(   9) = (  -0.0000000   3.6784611  15.2021296  )
        10           Sc1 tau(  10) = (   1.5928204   0.9196153  15.2021296  )
        11           Sc1 tau(  11) = (   4.7784612   0.9196153  15.2021296  )
        12           Sn1 tau(  12) = (   3.1856408   3.6784611  15.2021296  )

     number of k points=    20  Fermi-Dirac smearing, width (Ry)=  0.0110
                       cart. coord. in units 2pi/alat
        k(    1) = (   0.0000000   0.0000000   0.0000000), wk =   0.0555556
        k(    2) = (   0.0000000   0.0302059   0.0000000), wk =   0.1111111
        k(    3) = (   0.0000000   0.0604117   0.0000000), wk =   0.1111111
        k(    4) = (   0.0000000  -0.0906176   0.0000000), wk =   0.0555556
        k(    5) = (   0.0261590   0.0151029   0.0000000), wk =   0.1111111
        k(    6) = (   0.0261590   0.0453088   0.0000000), wk =   0.1111111
        k(    7) = (   0.0261590   0.0755147   0.0000000), wk =   0.1111111
        k(    8) = (   0.0261590  -0.0755147   0.0000000), wk =   0.1111111
        k(    9) = (   0.0261590  -0.0453088   0.0000000), wk =   0.1111111
        k(   10) = (   0.0261590  -0.0151029   0.0000000), wk =   0.1111111
        k(   11) = (   0.0523181   0.0302059   0.0000000), wk =   0.1111111
        k(   12) = (   0.0523181   0.0604117   0.0000000), wk =   0.1111111
        k(   13) = (   0.0523181   0.0906176   0.0000000), wk =   0.1111111
        k(   14) = (   0.0523181  -0.0604117   0.0000000), wk =   0.1111111
        k(   15) = (   0.0523181  -0.0302059   0.0000000), wk =   0.1111111
        k(   16) = (   0.0523181   0.0000000   0.0000000), wk =   0.1111111
        k(   17) = (  -0.0784771  -0.0453088   0.0000000), wk =   0.0555556
        k(   18) = (  -0.0784771  -0.0151029   0.0000000), wk =   0.1111111
        k(   19) = (  -0.0784771   0.0151029   0.0000000), wk =   0.1111111
        k(   20) = (  -0.0784771  -0.1359264   0.0000000), wk =   0.0555556

     Largest allocated arrays     est. size (Mb)     dimensions
     Largest temporary arrays     est. size (Mb)     dimensions

     Initial potential from superposition of free atoms
     Check: negative starting charge=   -0.000642

     starting charge  137.97824, renormalised to  141.00000

     negative rho (up, down):  6.558E-04 0.000E+00

     *
     * You are using vdW-DF for exchange-correlation in this calculation.
     * Please cite the following three references that made this development
     * possible:
     *
     *   M. Dion, H. Rydberg, E. Schroder, D. C. Langreth, and
     *   B. I. Lundqvist, Phys. Rev. Lett. 92, 246401 (2004).
     *
     *   T. Thonhauser, V. R. Cooper, S. Li, A. Puzder, P. Hyldgaard, and
     *   D. C. Langreth, Phys. Rev. B 76, 125112 (2007).
     *
     *   G. Roman-Perez and J. M. Soler, Phys. Rev. Lett. 103, 096102 (2009).
     *
     *
     * If you are using vdW-DF2, please also cite:
     *
     *   K. Lee, E. D. Murray, L. Kong, B. I. Lundqvist, and
     *   D. C. Langreth, Phys. Rev. B 82, 081101(R) (2010).
     *
     *
     * If you are calculating the stress with vdW-DF, please also cite:
     *
     *   R. Sabatini, E. Kucukbenli, B. Kolb, T. Thonhauser, and
     *   S. de Gironcoli, J. Phys.: Condens. Matter 24, 424209 (2012).
     *

     Carrying out vdW-DF run using the following parameters:

     Nqs =      20    Nr_points =    1024   r_max =   100.000
     q_mesh =
               0.00001000     0.04494208     0.09755937     0.15916263
               0.23128650     0.31572767     0.41458969     0.53033537
               0.66584808     0.82450364     1.01025438     1.22772762
               1.48234092     1.78043706     2.12944203     2.53805004
               3.01644009     3.57652955     4.23227104     5.00000000

     Gradients computed in reciprocal space

     Adding external electric field

     Computed dipole along edir(3) :
        Dipole               -0.0000 Ry au,         -0.0000 Debye
        Dipole field         -0.0000 Ry au

        Potential amp.        0.0000 Ry
        Total length         46.4345 bohr

     Starting wfc are  144 randomized atomic wfcs

     Self-consistent Calculation

     iteration #  1     ecut=    36.75 Ry     beta=0.10
     Davidson diagonalization with overlap
     ethr =  1.00E-02,  avg # of iterations =  2.0

[...]

     total energy              =   -1335.62040702 Ry
     Harris-Foulkes estimate   =   -1336.19034824 Ry
     estimated scf accuracy    <       3.43113625 Ry

[...]

     End of self-consistent calculation

          k = 0.0000 0.0000 0.0000 ( 22561 PWs)   bands (ev):

   -49.3264 -49.3256 -49.2878 -49.2878 -49.2875 -49.2875 -48.9184 -48.8800
   -48.8799 -28.0372 -28.0208 -27.9867 -27.9867 -27.9857 -27.9843 -27.9843
   -27.9774 -27.9774 -27.9679 -27.9638 -27.9638 -27.8263 -27.8228 -27.6828
   -27.6681 -27.6681 -27.6624 -27.6624 -27.5841 -27.5841 -27.4854 -27.4840
   -27.4839 -27.4326 -27.3225 -27.3224 -20.5210 -20.5198 -20.5198 -20.5105
   -20.5105 -20.3602 -20.3584 -20.3448 -20.3448 -20.3425 -20.3425 -20.3333
   -20.3332 -20.3331 -20.3331  -7.3564  -6.4806  -6.1323  -2.0443  -1.7479
    -1.4677  -1.4005  -1.4005  -1.1591  -1.1591  -0.7177  -0.1263  -0.1263
    -0.1214  -0.1214   0.0258   0.2171   0.4288   0.4288   0.7194   0.7194
     0.7578   0.8960   0.9438   0.9438   1.3717   1.4599   1.4599   1.6219
     1.6651   1.8315   1.8315   1.9357   2.2414   2.8564   2.8564   2.9138
     2.9138   2.9310   2.9342   2.9342   3.0043   3.0780   3.1431   3.1431
     3.1757   3.3030   3.3031   3.3952

[...]

          k =-0.0785-0.0453 0.0000 ( 22520 PWs)   bands (ev):

[...]

     the Fermi energy is     0.8124 ev

!    total energy              =   -1335.66456051 Ry
     Harris-Foulkes estimate   =   -1335.66456280 Ry
     estimated scf accuracy    <       0.00000048 Ry

     The total energy is the sum of the following terms:

     one-electron contribution =   -8273.73206938 Ry
     hartree contribution      =    4140.76211566 Ry
     xc contribution           =    -258.63687532 Ry
     ewald contribution        =    3056.04923210 Ry
     electric field correction =       0.00000001 Ry
     smearing contrib. (-TS)   =      -0.10696358 Ry

     convergence has been achieved in  17 iterations

 BEEF-vdW xc energy contributions
           1 :   -223.474001899093
           2 :    201.059164242460
           3 :   -164.727029570010
           4 :    126.620350064121
           5 :   -96.3689003663126
           6 :    77.4718140402191
           7 :   -67.7382698212989
           8 :    62.4592939117701
           9 :   -57.7423453696495
          10 :    52.1225632093902
          11 :   -46.1728307088185
          12 :    41.0829030514744
          13 :   -37.4756347728123
          14 :    35.1384118316404
          15 :   -33.4841139384821
          16 :    32.0777015019730
          17 :   -30.7700997488467
          18 :    29.5105444918133
[...]
               b(3) = (  0.000000  0.000000  0.039679 )

     PseudoPot. # 1 for Sc read from file:
     /afs/slac.stanford.edu/u/if/mamunm/psp/gbrv1.5pbe/Sc.UPF
     MD5 check sum: db30a2753ba66ef00f23801d899b7e7f
     Pseudo is Ultrasoft + core correction, Zval = 11.0
     Generated by new atomic code, or converted to UPF format
     Using radial grid of  849 points,  6 beta functions with:
                l(1) =   0
                l(2) =   0
                l(3) =   1
                l(4) =   1
                l(5) =   2
                l(6) =   2
     Q(r) pseudized with  6 coefficients,  rinner =    1.200   1.200   1.200
                                                       1.200   1.200

     PseudoPot. # 2 for Sn read from file:
     /afs/slac.stanford.edu/u/if/mamunm/psp/gbrv1.5pbe/Sn.UPF
     MD5 check sum: 469debedee59599fedebd795477fea03
     Pseudo is Ultrasoft + core correction, Zval = 14.0
     Generated by new atomic code, or converted to UPF format
     Using radial grid of  891 points,  6 beta functions with:
                l(1) =   0
                l(2) =   0
                l(3) =   1
                l(4) =   1
                l(5) =   2
                l(6) =   2
     Q(r) pseudized with  8 coefficients,  rinner =    1.350   1.350   1.350
                                                       1.350   1.350

     vdW kernel table read from file vdW_kernel_table
     MD5 check sum: 095c7af220d748ca6e76c0b4c6cfb241

     atomic species   valence    mass     pseudopotential
        Sc1           11.00    44.95591     Sc( 1.00)
        Sn1           14.00   118.71000     Sn( 1.00)

     No symmetry found

   Cartesian axes

     site n.     atom                  positions (alat units)
         1           Sc1 tau(   1) = (   0.0000000   0.0000000  10.0000000  )
         2           Sc1 tau(   2) = (  -1.5928204   2.7588459  10.0000000  )
         3           Sc1 tau(   3) = (   1.5928204   2.7588459  10.0000000  )
         4           Sn1 tau(   4) = (   3.1856408   0.0000000  10.0000000  )
         5           Sc1 tau(   5) = (   3.1856408   1.8392306  12.6010648  )
         6           Sc1 tau(   6) = (   1.5928204   4.5980764  12.6010648  )
         7           Sc1 tau(   7) = (  -1.5928204   4.5980764  12.6010648  )
         8           Sn1 tau(   8) = (   0.0000000   1.8392306  12.6010648  )
         9           Sc1 tau(   9) = (   0.0000073   3.6697837  15.2055509  )
        10           Sc1 tau(  10) = (   1.5852904   0.9239701  15.2055550  )
        11           Sc1 tau(  11) = (   4.7859900   0.9239617  15.2055466  )
        12           Sn1 tau(  12) = (   3.1856257   3.6784891  15.2019811  )

     number of k points=    20  Fermi-Dirac smearing, width (Ry)=  0.0110
                       cart. coord. in units 2pi/alat
        k(    1) = (   0.0000000   0.0000000   0.0000000), wk =   0.0555556
        k(    2) = (   0.0000000   0.0302059   0.0000000), wk =   0.1111111
        k(    3) = (   0.0000000   0.0604117   0.0000000), wk =   0.1111111
        k(    4) = (   0.0000000  -0.0906176   0.0000000), wk =   0.0555556
        k(    5) = (   0.0261590   0.0151029   0.0000000), wk =   0.1111111
        k(    6) = (   0.0261590   0.0453088   0.0000000), wk =   0.1111111
        k(    7) = (   0.0261590   0.0755147   0.0000000), wk =   0.1111111
        k(    8) = (   0.0261590  -0.0755147   0.0000000), wk =   0.1111111
        k(    9) = (   0.0261590  -0.0453088   0.0000000), wk =   0.1111111
        k(   10) = (   0.0261590  -0.0151029   0.0000000), wk =   0.1111111
        k(   11) = (   0.0523181   0.0302059   0.0000000), wk =   0.1111111
        k(   12) = (   0.0523181   0.0604117   0.0000000), wk =   0.1111111
        k(   13) = (   0.0523181   0.0906176   0.0000000), wk =   0.1111111
        k(   14) = (   0.0523181  -0.0604117   0.0000000), wk =   0.1111111
        k(   15) = (   0.0523181  -0.0302059   0.0000000), wk =   0.1111111
        k(   16) = (   0.0523181   0.0000000   0.0000000), wk =   0.1111111
        k(   17) = (  -0.0784771  -0.0453088   0.0000000), wk =   0.0555556
        k(   18) = (  -0.0784771  -0.0151029   0.0000000), wk =   0.1111111
        k(   19) = (  -0.0784771   0.0151029   0.0000000), wk =   0.1111111
        k(   20) = (  -0.0784771  -0.1359264   0.0000000), wk =   0.0555556

     Largest allocated arrays     est. size (Mb)     dimensions
     Largest temporary arrays     est. size (Mb)     dimensions

     Initial potential from superposition of free atoms
     Check: negative starting charge=   -0.000641

     starting charge  137.97824, renormalised to  141.00000

[...]

     *
     * You are using vdW-DF for exchange-correlation in this calculation.
     * Please cite the following three references that made this development
     * possible:
     *
     *   M. Dion, H. Rydberg, E. Schroder, D. C. Langreth, and
     *   B. I. Lundqvist, Phys. Rev. Lett. 92, 246401 (2004).
     *
     *   T. Thonhauser, V. R. Cooper, S. Li, A. Puzder, P. Hyldgaard, and
     *   D. C. Langreth, Phys. Rev. B 76, 125112 (2007).
     *
     *   G. Roman-Perez and J. M. Soler, Phys. Rev. Lett. 103, 096102 (2009).
     *
     *
     * If you are using vdW-DF2, please also cite:
     *
     *   K. Lee, E. D. Murray, L. Kong, B. I. Lundqvist, and
     *   D. C. Langreth, Phys. Rev. B 82, 081101(R) (2010).
     *
     *
     * If you are calculating the stress with vdW-DF, please also cite:
     *
     *   R. Sabatini, E. Kucukbenli, B. Kolb, T. Thonhauser, and
     *   S. de Gironcoli, J. Phys.: Condens. Matter 24, 424209 (2012).
     *

     Carrying out vdW-DF run using the following parameters:

     Nqs =      20    Nr_points =    1024   r_max =   100.000
     q_mesh =
               0.00001000     0.04494208     0.09755937     0.15916263
               0.23128650     0.31572767     0.41458969     0.53033537
               0.66584808     0.82450364     1.01025438     1.22772762
               1.48234092     1.78043706     2.12944203     2.53805004
               3.01644009     3.57652955     4.23227104     5.00000000

     Gradients computed in reciprocal space

[...]

     Starting wfc are  144 randomized atomic wfcs

     Self-consistent Calculation

[...]

     total energy              =   -1335.66492565 Ry
     Harris-Foulkes estimate   =   -1335.66492566 Ry
     estimated scf accuracy    <       0.00000214 Ry

     iteration # 17     ecut=    36.75 Ry     beta=0.10
     Davidson diagonalization with overlap
     ethr =  1.52E-09,  avg # of iterations =  3.0

[...]

     negative rho (up, down):  1.872E-04 0.000E+00

     Adding external electric field

     Computed dipole along edir(3) :
        Dipole                0.0037 Ry au,          0.0094 Debye
        Dipole field          0.0000 Ry au

        Potential amp.       -0.0007 Ry
        Total length         46.4345 bohr

     End of self-consistent calculation

[...]

          k = 0.0523 0.0000 0.0000 ( 22509 PWs)   bands (ev):

[...]

          k =-0.0785-0.1359 0.0000 ( 22520 PWs)   bands (ev):

   -49.3130 -49.3102 -49.3001 -49.2974 -49.2873 -49.2846 -48.9053 -48.8925
   -48.8797 -28.0118 -28.0072 -28.0010 -27.9835 -27.9805 -27.9766 -27.9732
   -27.9702 -27.9154 -27.9060 -27.8828 -27.8772 -27.8627 -27.8563 -27.7907
   -27.7828 -27.6757 -27.6737 -27.6229 -27.5320 -27.5306 -27.5121 -27.5106
   -27.4705 -27.4560 -27.4230 -27.3335 -20.5212 -20.5183 -20.5179 -20.5105
   -20.5096 -20.3578 -20.3568 -20.3445 -20.3437 -20.3426 -20.3420 -20.3317
   -20.3308 -20.3292 -20.3283  -6.7514  -6.3597  -6.1333  -3.1253  -2.3494
    -2.3152  -2.2686  -1.2703  -1.0337  -0.9542  -0.6463  -0.5942  -0.4307
    -0.2445   0.3188   0.4379   0.6138   0.6774   0.8621   0.9534   1.0174
     1.0804   1.1428   1.1910   1.2845   1.3415   1.3456   1.6191   1.6901
     1.8044   1.8131   2.0000   2.0813   2.2129   2.4618   2.5543   2.6862
     2.8059   2.8306   2.8639   2.9400   2.9484   2.9737   2.9947   3.0466
     3.0806   3.1571   3.2295   3.3875

     the Fermi energy is     0.8146 ev

!    total energy              =   -1335.66492260 Ry
     Harris-Foulkes estimate   =   -1335.66492588 Ry
     estimated scf accuracy    <       0.00000060 Ry

     The total energy is the sum of the following terms:

     one-electron contribution =   -8271.10363295 Ry
     hartree contribution      =    4139.45228479 Ry
     xc contribution           =    -258.63266168 Ry
     ewald contribution        =    3054.72608051 Ry
     electric field correction =       0.00000003 Ry
     smearing contrib. (-TS)   =      -0.10699330 Ry

     convergence has been achieved in  17 iterations

 BEEF-vdW xc energy contributions
           1 :   -223.476809467099
           2 :    201.061827609811
           3 :   -164.730104085713
           4 :    126.624772355581
           5 :   -96.3748481335532
           6 :    77.4780486298940
           7 :   -67.7428688033059
           8 :    62.4612670120376
           9 :   -57.7426690770386
          10 :    52.1236001350854
          11 :   -46.1764728524188
          12 :    41.0889299376516
          13 :   -37.4817406095466
          14 :    35.1420429670119
          15 :   -33.4846919709871
          16 :    32.0772831625342
          17 :   -30.7717535159549
          18 :    29.5157457141599
          19 :   -28.2070390849332
          20 :    26.7734392371109
          21 :   -25.3282593060056
          22 :    24.1511971101264
          23 :   -23.4560400544565
          24 :    23.1576704983607
          25 :   -22.8848917056877
          26 :    22.2648503523131
          27 :   -21.2452389873837
          28 :    20.1594948627503
          29 :   -19.4583983762983
          30 :    19.3298018852253
          31 :   -22.7262708783311
          32 :   -16.4543097921277

     Forces acting on atoms (Ry/au):

     negative rho (up, down):  1.872E-04 0.000E+00
     atom    1 type  1   force =    -0.00000077    0.00325292   -0.00155202
     atom    2 type  1   force =     0.00281460   -0.00162436   -0.00154605
     atom    3 type  1   force =    -0.00281533   -0.00162328   -0.00154138
     atom    4 type  2   force =    -0.00000070    0.00000043    0.00005436
     atom    5 type  1   force =    -0.00000106   -0.00006010    0.00042070
     atom    6 type  1   force =    -0.00005860    0.00003742    0.00041898
     atom    7 type  1   force =     0.00005841    0.00003831    0.00042192
     atom    8 type  2   force =     0.00000173    0.00000961    0.00018030
     atom    9 type  1   force =    -0.00000310   -0.00101447    0.00096514
     atom   10 type  1   force =    -0.00085994    0.00048857    0.00096271
     atom   11 type  1   force =     0.00085961    0.00049140    0.00096080
     atom   12 type  2   force =     0.00000514    0.00000354    0.00025454

     Total force =     0.006730     Total SCF correction =     0.001897
     SCF correction compared to forces is large: reduce conv_thr to get better values

     entering subroutine stress ...

     negative rho (up, down):  1.872E-04 0.000E+00
          total   stress  (Ry/bohr**3)                   (kbar)     P=   -5.48
  -0.00005655   0.00000000   0.00000000         -8.32      0.00      0.00
   0.00000000  -0.00005656  -0.00000000          0.00     -8.32     -0.00
   0.00000000  -0.00000000   0.00000144          0.00     -0.00      0.21

 !ASE

     Writing output data file calc.save

     General routines

     Parallel routines

   This run was terminated on:  22:47: 9  27Dec2018

   JOB DONE.
Job  /afs/slac/g/suncat/bin/suncat-tsmpirun -x LD_LIBRARY_PATH -wdir /scratch/qe110880_ciQRY pw.x -in pw.inp

TID   HOST_NAME   COMMAND_LINE            STATUS            TERMINATION_TIME
00000 suncat0193 pw.x -in pw.inp   Done                     12/27/2018 22:47:09
00001 suncat0193 pw.x -in pw.inp   Done                     12/27/2018 22:47:09
00002 suncat0193 pw.x -in pw.inp   Done                     12/27/2018 22:47:09
00003 suncat0193 pw.x -in pw.inp   Done                     12/27/2018 22:47:09
00004 suncat0193 pw.x -in pw.inp   Done                     12/27/2018 22:47:09
00005 suncat0193 pw.x -in pw.inp   Done                     12/27/2018 22:47:09
00006 suncat0193 pw.x -in pw.inp   Done                     12/27/2018 22:47:09
00007 suncat0193 pw.x -in pw.inp   Done                     12/27/2018 22:47:09
00008 suncat0192 pw.x -in pw.inp   Done                     12/27/2018 22:47:09
00009 suncat0192 pw.x -in pw.inp   Done                     12/27/2018 22:47:09
00010 suncat0192 pw.x -in pw.inp   Done                     12/27/2018 22:47:09
00011 suncat0192 pw.x -in pw.inp   Done                     12/27/2018 22:47:09
00012 suncat0192 pw.x -in pw.inp   Done                     12/27/2018 22:47:09
00013 suncat0192 pw.x -in pw.inp   Done                     12/27/2018 22:47:09
00014 suncat0192 pw.x -in pw.inp   Done                     12/27/2018 22:47:09
00015 suncat0192 pw.x -in pw.inp   Done                     12/27/2018 22:47:09
00016 suncat0163 pw.x -in pw.inp   Done                     12/27/2018 22:47:09
00017 suncat0163 pw.x -in pw.inp   Done                     12/27/2018 22:47:09
00018 suncat0163 pw.x -in pw.inp   Done                     12/27/2018 22:47:09
00019 suncat0163 pw.x -in pw.inp   Done                     12/27/2018 22:47:09
00020 suncat0163 pw.x -in pw.inp   Done                     12/27/2018 22:47:09
00021 suncat0163 pw.x -in pw.inp   Done                     12/27/2018 22:47:09
00022 suncat0163 pw.x -in pw.inp   Done                     12/27/2018 22:47:09
00023 suncat0163 pw.x -in pw.inp   Done                     12/27/2018 22:47:09
00024 suncat0162 pw.x -in pw.inp   Done                     12/27/2018 22:47:09
00025 suncat0162 pw.x -in pw.inp   Done                     12/27/2018 22:47:09
00026 suncat0162 pw.x -in pw.inp   Done                     12/27/2018 22:47:09
00027 suncat0162 pw.x -in pw.inp   Done                     12/27/2018 22:47:09
00028 suncat0162 pw.x -in pw.inp   Done                     12/27/2018 22:47:09
00029 suncat0162 pw.x -in pw.inp   Done                     12/27/2018 22:47:09
00030 suncat0162 pw.x -in pw.inp   Done                     12/27/2018 22:47:09
00031 suncat0162 pw.x -in pw.inp   Done                     12/27/2018 22:47:09
00032 suncat0159 pw.x -in pw.inp   Done                     12/27/2018 22:47:09
00033 suncat0159 pw.x -in pw.inp   Done                     12/27/2018 22:47:09
00034 suncat0159 pw.x -in pw.inp   Done                     12/27/2018 22:47:09
00035 suncat0159 pw.x -in pw.inp   Done                     12/27/2018 22:47:09
00036 suncat0159 pw.x -in pw.inp   Done                     12/27/2018 22:47:09
00037 suncat0159 pw.x -in pw.inp   Done                     12/27/2018 22:47:09
00038 suncat0159 pw.x -in pw.inp   Done                     12/27/2018 22:47:09
00039 suncat0159 pw.x -in pw.inp   Done                     12/27/2018 22:47:09
00040 suncat0155 pw.x -in pw.inp   Done                     12/27/2018 22:47:09
00041 suncat0155 pw.x -in pw.inp   Done                     12/27/2018 22:47:09
00042 suncat0155 pw.x -in pw.inp   Done                     12/27/2018 22:47:09
00043 suncat0155 pw.x -in pw.inp   Done                     12/27/2018 22:47:09
00044 suncat0155 pw.x -in pw.inp   Done                     12/27/2018 22:47:09
00045 suncat0155 pw.x -in pw.inp   Done                     12/27/2018 22:47:09
00046 suncat0155 pw.x -in pw.inp   Done                     12/27/2018 22:47:09
00047 suncat0155 pw.x -in pw.inp   Done                     12/27/2018 22:47:09
00048 suncat0141 pw.x -in pw.inp   Done                     12/27/2018 22:47:09
00049 suncat0141 pw.x -in pw.inp   Done                     12/27/2018 22:47:09
00050 suncat0141 pw.x -in pw.inp   Done                     12/27/2018 22:47:09
00051 suncat0141 pw.x -in pw.inp   Done                     12/27/2018 22:47:09
00052 suncat0141 pw.x -in pw.inp   Done                     12/27/2018 22:47:09
00053 suncat0141 pw.x -in pw.inp   Done                     12/27/2018 22:47:09
00054 suncat0141 pw.x -in pw.inp   Done                     12/27/2018 22:47:09
00055 suncat0141 pw.x -in pw.inp   Done                     12/27/2018 22:47:09
00056 suncat0140 pw.x -in pw.inp   Done                     12/27/2018 22:47:09
00057 suncat0140 pw.x -in pw.inp   Done                     12/27/2018 22:47:09
00058 suncat0140 pw.x -in pw.inp   Done                     12/27/2018 22:47:09
00059 suncat0140 pw.x -in pw.inp   Done                     12/27/2018 22:47:09
00060 suncat0140 pw.x -in pw.inp   Done                     12/27/2018 22:47:09
00061 suncat0140 pw.x -in pw.inp   Done                     12/27/2018 22:47:09
00062 suncat0140 pw.x -in pw.inp   Done                     12/27/2018 22:47:09
00063 suncat0140 pw.x -in pw.inp   Done                     12/27/2018 22:47:09