     Program PWSCF v.5.1rc2 (svn rev. 11289) starts on  2Jan2019 at 15: 3:59

     Current dimensions of program PWSCF are:
     Max number of different atomic species (ntypx) = 10
     Max number of k-points (npk) =  40000
     Max angular momentum in pseudopotentials (lmaxx) =  3
     Presently stress not available with electric field

     IMPORTANT: XC functional enforced from input :
     Exchange-correlation      = BEEF-VDW ( 1  4 27 13 2)
     Any further DFT definition will be discarded
     Please, verify this is what you really want

     Subspace diagonalization in iterative solution of the eigenvalue problem:
     a serial algorithm will be used

     bravais-lattice index     =            0
     lattice parameter (alat)  =       1.8897  a.u.
     unit-cell volume          =    4582.3904 (a.u.)^3
     number of atoms/cell      =           12
     number of atomic types    =            2
     number of electrons       =       213.00
     number of Kohn-Sham states=          136
     kinetic-energy cutoff     =      36.7493  Ry
     charge density cutoff     =     367.4932  Ry
     convergence threshold     =      1.0E-06
     mixing beta               =       0.1000
     number of iterations used =           10  plain     mixing
     Exchange-correlation      = BEEF-VDW ( 1  4 27 13 2)
     nstep                     =           50

     celldm(1)=   1.889726  celldm(2)=   0.000000  celldm(3)=   0.000000
     celldm(4)=   0.000000  celldm(5)=   0.000000  celldm(6)=   0.000000

     crystal axes: (cart. coord. in units of alat)
               a(1) = (   5.644648   0.000000   0.000000 )
               a(2) = (  -2.822324   4.888409   0.000000 )
               a(3) = (   0.000000   0.000000  24.608836 )

     reciprocal axes: (cart. coord. in units 2 pi/alat)
               b(1) = (  0.177159  0.102283  0.000000 )
               b(2) = (  0.000000  0.204566  0.000000 )
               b(3) = (  0.000000  0.000000  0.040636 )

     PseudoPot. # 1 for Zn read from file:
     /afs/slac.stanford.edu/u/if/mamunm/psp/gbrv1.5pbe/Zn.UPF
     MD5 check sum: df62231357ef9e81f77b2b3087fa5675
     Pseudo is Ultrasoft, Zval = 20.0
     Generated by new atomic code, or converted to UPF format
     Using radial grid of  943 points,  6 beta functions with:
                l(1) =   0
                l(2) =   0
                l(3) =   1
                l(4) =   1
                l(5) =   2
                l(6) =   2
     Q(r) pseudized with  8 coefficients,  rinner =    1.100   1.100   1.100
                                                       1.100   1.100

     PseudoPot. # 2 for Au read from file:
     /afs/slac.stanford.edu/u/if/mamunm/psp/gbrv1.5pbe/Au.UPF
     MD5 check sum: 9d7f43293ad2c663164586bc4b293ffc
     Pseudo is Ultrasoft + core correction, Zval = 11.0
     Generated by new atomic code, or converted to UPF format
     Using radial grid of  985 points,  7 beta functions with:
                l(1) =   0
                l(2) =   0
                l(3) =   1
                l(4) =   1
                l(5) =   2
                l(6) =   2
                l(7) =   3
     Q(r) pseudized with  6 coefficients,  rinner =    1.900   1.900   1.900
                                                       1.900   1.900   1.900
                                                       1.900

     vdW kernel table read from file vdW_kernel_table
     MD5 check sum: 095c7af220d748ca6e76c0b4c6cfb241

     atomic species   valence    mass     pseudopotential
        Zn1           20.00    65.38000     Zn( 1.00)
        Au1           11.00   196.96657     Au( 1.00)

     No symmetry found

   Cartesian axes

     site n.     atom                  positions (alat units)
         1           Zn1 tau(   1) = (   0.0000000   0.0000000  10.0000000  )
         2           Zn1 tau(   2) = (  -1.4111621   2.4442044  10.0000000  )
         3           Zn1 tau(   3) = (   1.4111621   2.4442044  10.0000000  )
         4           Au1 tau(   4) = (   2.8223242   0.0000000  10.0000000  )
         5           Zn1 tau(   5) = (   2.8223242   1.6294696  12.3044180  )
         6           Zn1 tau(   6) = (   1.4111621   4.0736740  12.3044180  )
         7           Zn1 tau(   7) = (  -1.4111621   4.0736740  12.3044180  )
         8           Au1 tau(   8) = (   0.0000000   1.6294696  12.3044180  )
         9           Zn1 tau(   9) = (  -0.0000000   3.2589392  14.6088361  )
        10           Zn1 tau(  10) = (   1.4111621   0.8147348  14.6088361  )
        11           Zn1 tau(  11) = (   4.2334863   0.8147348  14.6088361  )
        12           Au1 tau(  12) = (   2.8223242   3.2589392  14.6088361  )

     number of k points=    20  Fermi-Dirac smearing, width (Ry)=  0.0110
                       cart. coord. in units 2pi/alat
        k(    1) = (   0.0000000   0.0000000   0.0000000), wk =   0.0555556
        k(    2) = (   0.0000000   0.0340943   0.0000000), wk =   0.1111111
        k(    3) = (   0.0000000   0.0681885   0.0000000), wk =   0.1111111
        k(    4) = (   0.0000000  -0.1022828   0.0000000), wk =   0.0555556
        k(    5) = (   0.0295265   0.0170471   0.0000000), wk =   0.1111111
        k(    6) = (   0.0295265   0.0511414   0.0000000), wk =   0.1111111
        k(    7) = (   0.0295265   0.0852356   0.0000000), wk =   0.1111111
        k(    8) = (   0.0295265  -0.0852356   0.0000000), wk =   0.1111111
        k(    9) = (   0.0295265  -0.0511414   0.0000000), wk =   0.1111111
        k(   10) = (   0.0295265  -0.0170471   0.0000000), wk =   0.1111111
        k(   11) = (   0.0590530   0.0340943   0.0000000), wk =   0.1111111
        k(   12) = (   0.0590530   0.0681885   0.0000000), wk =   0.1111111
        k(   13) = (   0.0590530   0.1022828   0.0000000), wk =   0.1111111
        k(   14) = (   0.0590530  -0.0681885   0.0000000), wk =   0.1111111
        k(   15) = (   0.0590530  -0.0340943   0.0000000), wk =   0.1111111
        k(   16) = (   0.0590530   0.0000000   0.0000000), wk =   0.1111111
        k(   17) = (  -0.0885795  -0.0511414   0.0000000), wk =   0.0555556
        k(   18) = (  -0.0885795  -0.0170471   0.0000000), wk =   0.1111111
        k(   19) = (  -0.0885795   0.0170471   0.0000000), wk =   0.1111111
        k(   20) = (  -0.0885795  -0.1534242   0.0000000), wk =   0.0555556

     Largest allocated arrays     est. size (Mb)     dimensions
     Largest temporary arrays     est. size (Mb)     dimensions

     Check: negative/imaginary core charge=   -0.000002    0.000000

     Initial potential from superposition of free atoms
     Check: negative starting charge=   -0.000794

     starting charge  212.99836, renormalised to  213.00000

     negative rho (up, down):  7.936E-04 0.000E+00

     *
     * You are using vdW-DF for exchange-correlation in this calculation.
     * Please cite the following three references that made this development
     * possible:
     *
     *   M. Dion, H. Rydberg, E. Schroder, D. C. Langreth, and
     *   B. I. Lundqvist, Phys. Rev. Lett. 92, 246401 (2004).
     *
     *   T. Thonhauser, V. R. Cooper, S. Li, A. Puzder, P. Hyldgaard, and
     *   D. C. Langreth, Phys. Rev. B 76, 125112 (2007).
     *
     *   G. Roman-Perez and J. M. Soler, Phys. Rev. Lett. 103, 096102 (2009).
     *
     *
     * If you are using vdW-DF2, please also cite:
     *
     *   K. Lee, E. D. Murray, L. Kong, B. I. Lundqvist, and
     *   D. C. Langreth, Phys. Rev. B 82, 081101(R) (2010).
     *
     *
     * If you are calculating the stress with vdW-DF, please also cite:
     *
     *   R. Sabatini, E. Kucukbenli, B. Kolb, T. Thonhauser, and
     *   S. de Gironcoli, J. Phys.: Condens. Matter 24, 424209 (2012).
     *

     Carrying out vdW-DF run using the following parameters:

     Nqs =      20    Nr_points =    1024   r_max =   100.000
     q_mesh =
               0.00001000     0.04494208     0.09755937     0.15916263
               0.23128650     0.31572767     0.41458969     0.53033537
               0.66584808     0.82450364     1.01025438     1.22772762
               1.48234092     1.78043706     2.12944203     2.53805004
               3.01644009     3.57652955     4.23227104     5.00000000

     Gradients computed in reciprocal space

     Adding external electric field

     Computed dipole along edir(3) :
        Dipole               -0.0000 Ry au,         -0.0000 Debye
        Dipole field         -0.0000 Ry au

        Potential amp.        0.0000 Ry
        Total length         45.3414 bohr

     Starting wfc are  144 randomized atomic wfcs

     Self-consistent Calculation

     iteration #  1     ecut=    36.75 Ry     beta=0.10
     Davidson diagonalization with overlap
     ethr =  1.00E-02,  avg # of iterations =  8.2

     Threshold (ethr) on eigenvalues was too large:
     Diagonalizing with lowered threshold

     Davidson diagonalization with overlap
     ethr =  1.00E-04,  avg # of iterations =  5.2

[...]

     total energy              =   -4515.17977261 Ry
     Harris-Foulkes estimate   =   -4515.20231804 Ry
     estimated scf accuracy    <       0.22453804 Ry

[...]

     End of self-consistent calculation

          k = 0.0000 0.0000 0.0000 ( 17303 PWs)   bands (ev):

  -126.2396-126.2379-126.2373-126.0330-126.0330-126.0322-126.0322-126.0321
  -126.0321 -80.4363 -80.4322 -80.4312 -80.4187 -80.4162 -80.4155 -80.4104
   -80.4102 -80.4095 -80.2311 -80.2311 -80.2289 -80.2289 -80.2289 -80.2288
   -80.2214 -80.2214 -80.2130 -80.2129 -80.2129 -80.2129 -80.1968 -80.1968
   -80.1968 -80.1967 -80.1930 -80.1930  -8.9953  -7.7775  -7.7516  -7.7137
    -7.7131  -7.6896  -7.6894  -7.5995  -7.5990  -7.5364  -7.5286  -7.5283
    -7.4473  -7.3670  -7.3669  -7.2133  -7.2041  -7.2041  -7.1522  -7.1094
    -7.1087  -7.1032  -7.0930  -7.0929  -7.0923  -7.0476  -7.0469  -6.8843
    -6.8842  -6.8826  -6.8825  -6.7973  -6.7972  -6.7901  -6.7825  -6.7824
    -6.7526  -6.7526  -6.7055  -6.7052  -6.6968  -6.6431  -6.6010  -6.6009
    -6.5618  -6.4749  -6.4718  -5.0679  -4.6703  -4.6703  -4.3970  -4.3969
    -4.1326  -4.1325  -3.9828  -3.8067  -3.8025  -3.8025  -3.7173  -3.7173
    -3.5074  -3.5074  -2.6514  -1.5436  -1.2017  -1.2016  -0.8776  -0.5484
    -0.5483  -0.4856  -0.2495   0.0034   0.0034   1.0140   1.6181   1.6181
     2.8144   2.8145   2.8864   3.2652   3.4457   3.4458   3.5094   4.2803
     4.6730   5.6242   5.6434   6.6313   6.6314   6.8673   6.8674   6.9040
     6.9072   7.4563   7.7782   8.9666   9.0673   9.0673   9.2755   9.5936

[...]

          k =-0.0886-0.0511 0.0000 ( 17288 PWs)   bands (ev):

[...]

     the Fermi energy is     0.4521 ev

!    total energy              =   -4515.15716244 Ry
     Harris-Foulkes estimate   =   -4515.15715530 Ry
     estimated scf accuracy    <       0.00000074 Ry

     The total energy is the sum of the following terms:

     one-electron contribution =  -27381.06593725 Ry
     hartree contribution      =   13698.26693435 Ry
     xc contribution           =    -582.69334932 Ry
     ewald contribution        =    9750.35680478 Ry
     electric field correction =       0.00000000 Ry
     smearing contrib. (-TS)   =      -0.02161500 Ry

     convergence has been achieved in  12 iterations

[...]

     PseudoPot. # 2 for Au read from file:
     /afs/slac.stanford.edu/u/if/mamunm/psp/gbrv1.5pbe/Au.UPF
     MD5 check sum: 9d7f43293ad2c663164586bc4b293ffc
     Pseudo is Ultrasoft + core correction, Zval = 11.0
     Generated by new atomic code, or converted to UPF format
     Using radial grid of  985 points,  7 beta functions with:
                l(1) =   0
                l(2) =   0
                l(3) =   1
                l(4) =   1
                l(5) =   2
                l(6) =   2
                l(7) =   3
     Q(r) pseudized with  6 coefficients,  rinner =    1.900   1.900   1.900
                                                       1.900   1.900   1.900
                                                       1.900

     vdW kernel table read from file vdW_kernel_table
     MD5 check sum: 095c7af220d748ca6e76c0b4c6cfb241

     atomic species   valence    mass     pseudopotential
        Zn1           20.00    65.38000     Zn( 1.00)
        Au1           11.00   196.96657     Au( 1.00)

     No symmetry found

   Cartesian axes

     site n.     atom                  positions (alat units)
         1           Zn1 tau(   1) = (   0.0000000   0.0000000  10.0000000  )
         2           Zn1 tau(   2) = (  -1.4111621   2.4442044  10.0000000  )
         3           Zn1 tau(   3) = (   1.4111621   2.4442044  10.0000000  )
         4           Au1 tau(   4) = (   2.8223242   0.0000000  10.0000000  )
         5           Zn1 tau(   5) = (   2.8223242   1.6294696  12.3044180  )
         6           Zn1 tau(   6) = (   1.4111621   4.0736740  12.3044180  )
         7           Zn1 tau(   7) = (  -1.4111621   4.0736740  12.3044180  )
         8           Au1 tau(   8) = (   0.0000000   1.6294696  12.3044180  )
         9           Zn1 tau(   9) = (  -0.0004116   3.2582165  14.8197067  )
        10           Zn1 tau(  10) = (   1.4106110   0.8150001  14.8186966  )
        11           Zn1 tau(  11) = (   4.2339807   0.8154043  14.8196693  )
        12           Au1 tau(  12) = (   2.8215941   3.2592519  14.7858665  )

     number of k points=    20  Fermi-Dirac smearing, width (Ry)=  0.0110
                       cart. coord. in units 2pi/alat
        k(    1) = (   0.0000000   0.0000000   0.0000000), wk =   0.0555556
        k(    2) = (   0.0000000   0.0340943   0.0000000), wk =   0.1111111
        k(    3) = (   0.0000000   0.0681885   0.0000000), wk =   0.1111111
        k(    4) = (   0.0000000  -0.1022828   0.0000000), wk =   0.0555556
        k(    5) = (   0.0295265   0.0170471   0.0000000), wk =   0.1111111
        k(    6) = (   0.0295265   0.0511414   0.0000000), wk =   0.1111111
        k(    7) = (   0.0295265   0.0852356   0.0000000), wk =   0.1111111
        k(    8) = (   0.0295265  -0.0852356   0.0000000), wk =   0.1111111
        k(    9) = (   0.0295265  -0.0511414   0.0000000), wk =   0.1111111
        k(   10) = (   0.0295265  -0.0170471   0.0000000), wk =   0.1111111
        k(   11) = (   0.0590530   0.0340943   0.0000000), wk =   0.1111111
        k(   12) = (   0.0590530   0.0681885   0.0000000), wk =   0.1111111
        k(   13) = (   0.0590530   0.1022828   0.0000000), wk =   0.1111111
        k(   14) = (   0.0590530  -0.0681885   0.0000000), wk =   0.1111111
        k(   15) = (   0.0590530  -0.0340943   0.0000000), wk =   0.1111111
        k(   16) = (   0.0590530   0.0000000   0.0000000), wk =   0.1111111
        k(   17) = (  -0.0885795  -0.0511414   0.0000000), wk =   0.0555556
        k(   18) = (  -0.0885795  -0.0170471   0.0000000), wk =   0.1111111
        k(   19) = (  -0.0885795   0.0170471   0.0000000), wk =   0.1111111
        k(   20) = (  -0.0885795  -0.1534242   0.0000000), wk =   0.0555556

     Largest allocated arrays     est. size (Mb)     dimensions
     Largest temporary arrays     est. size (Mb)     dimensions

     Check: negative/imaginary core charge=   -0.000002    0.000000

     Initial potential from superposition of free atoms
     Check: negative starting charge=   -0.000768

     starting charge  212.99836, renormalised to  213.00000

[...]

     *
     * You are using vdW-DF for exchange-correlation in this calculation.
     * Please cite the following three references that made this development
     * possible:
     *
     *   M. Dion, H. Rydberg, E. Schroder, D. C. Langreth, and
     *   B. I. Lundqvist, Phys. Rev. Lett. 92, 246401 (2004).
     *
     *   T. Thonhauser, V. R. Cooper, S. Li, A. Puzder, P. Hyldgaard, and
     *   D. C. Langreth, Phys. Rev. B 76, 125112 (2007).
     *
     *   G. Roman-Perez and J. M. Soler, Phys. Rev. Lett. 103, 096102 (2009).
     *
     *
     * If you are using vdW-DF2, please also cite:
     *
     *   K. Lee, E. D. Murray, L. Kong, B. I. Lundqvist, and
     *   D. C. Langreth, Phys. Rev. B 82, 081101(R) (2010).
     *
     *
     * If you are calculating the stress with vdW-DF, please also cite:
     *
     *   R. Sabatini, E. Kucukbenli, B. Kolb, T. Thonhauser, and
     *   S. de Gironcoli, J. Phys.: Condens. Matter 24, 424209 (2012).
     *

     Carrying out vdW-DF run using the following parameters:

     Nqs =      20    Nr_points =    1024   r_max =   100.000
     q_mesh =
               0.00001000     0.04494208     0.09755937     0.15916263
               0.23128650     0.31572767     0.41458969     0.53033537
               0.66584808     0.82450364     1.01025438     1.22772762
               1.48234092     1.78043706     2.12944203     2.53805004
               3.01644009     3.57652955     4.23227104     5.00000000

     Gradients computed in reciprocal space

[...]

     Starting wfc are  144 randomized atomic wfcs

     Self-consistent Calculation

[...]

     Threshold (ethr) on eigenvalues was too large:
     Diagonalizing with lowered threshold

     Davidson diagonalization with overlap
     ethr =  9.17E-05,  avg # of iterations =  6.2

[...]

     total energy              =   -4515.18534059 Ry
     Harris-Foulkes estimate   =   -4515.18533876 Ry
     estimated scf accuracy    <       0.00000706 Ry

     iteration # 12     ecut=    36.75 Ry     beta=0.10
     Davidson diagonalization with overlap
     ethr =  3.32E-09,  avg # of iterations =  2.0

[...]

     negative rho (up, down):  8.929E-04 0.000E+00

     Adding external electric field

     Computed dipole along edir(3) :
        Dipole                0.0193 Ry au,          0.0492 Debye
        Dipole field          0.0001 Ry au

        Potential amp.       -0.0048 Ry
        Total length         45.3414 bohr

     End of self-consistent calculation

[...]

          k = 0.0591 0.0000 0.0000 ( 17230 PWs)   bands (ev):

[...]

          k =-0.0886-0.1534 0.0000 ( 17288 PWs)   bands (ev):

  -126.1215-126.1211-126.1210-125.9816-125.9814-125.9811-125.9323-125.9323
  -125.9318 -80.3161 -80.3147 -80.3137 -80.3022 -80.2993 -80.2971 -80.2946
   -80.2934 -80.2916 -80.1802 -80.1795 -80.1789 -80.1666 -80.1634 -80.1604
   -80.1465 -80.1452 -80.1437 -80.1301 -80.1299 -80.1292 -80.1202 -80.1170
   -80.1134 -80.0952 -80.0942 -80.0924  -7.5449  -7.5266  -7.3926  -7.3786
    -7.3644  -7.3124  -7.2818  -7.2560  -7.2533  -7.2468  -7.2160  -7.2101
    -7.1981  -7.1189  -7.0923  -7.0548  -7.0428  -7.0423  -7.0301  -6.9894
    -6.9640  -6.9438  -6.9318  -6.9293  -6.9035  -6.9026  -6.8817  -6.8797
    -6.8652  -6.8483  -6.8480  -6.8238  -6.8227  -6.8199  -6.7981  -6.7872
    -6.7821  -6.7376  -6.7069  -6.6902  -6.6564  -6.6512  -6.6345  -6.5566
    -6.5493  -6.5142  -6.4601  -5.7149  -4.9946  -4.9568  -4.4862  -4.3381
    -4.2776  -4.1905  -4.0130  -3.9970  -3.9030  -3.8902  -3.8778  -3.8027
    -3.7058  -3.5702  -3.5101  -3.2359  -2.5453  -1.9844  -1.6549  -1.2245
    -0.9687  -0.6556   1.2022   1.3713   1.5913   1.7566   3.7649   3.9934
     4.0924   4.4164   4.4268   4.5631   4.8231   4.8631   5.6155   5.6249
     5.7403   5.8356   5.8743   6.1761   6.1875   6.7347   6.9978   7.0037
     7.0685   7.1605   7.1779   7.2075   7.5445   7.6686   8.1833   8.2277

     the Fermi energy is     0.4642 ev

!    total energy              =   -4515.18534875 Ry
     Harris-Foulkes estimate   =   -4515.18534201 Ry
     estimated scf accuracy    <       0.00000054 Ry

     The total energy is the sum of the following terms:

     one-electron contribution =  -26677.68905013 Ry
     hartree contribution      =   13347.30481891 Ry
     xc contribution           =    -582.59785692 Ry
     ewald contribution        =    9397.81595227 Ry
     electric field correction =       0.00000103 Ry
     smearing contrib. (-TS)   =      -0.01921391 Ry

     convergence has been achieved in  12 iterations

 BEEF-vdW xc energy contributions
           1 :   -518.782793228499
           2 :    474.204741684447
           3 :   -398.105040502661
           4 :    310.501838381350
           5 :   -229.879199229428
           6 :    166.745925808680
           7 :   -122.097362793303
           8 :    90.6017260671403
           9 :   -65.8441627557220
          10 :    44.2905519783974
          11 :   -26.0634707934818
          12 :    12.9503202394409
          13 :   -5.73975938065144
          14 :    2.96212625328565
          15 :   -1.70348548161030
          16 :  -0.475848498647565
          17 :    4.13939294315207
          18 :   -8.08824462973485
          19 :    10.7041747390870
          20 :   -11.3534350964792
          21 :    10.7812576957446
          22 :   -10.3343449780969
          23 :    10.7709059735096
          24 :   -11.6676475057425
          25 :    11.8635034511102
          26 :   -10.5190273301268
          27 :    7.89757607913225
          28 :   -5.24527396655731
          29 :    3.88423090407571
          30 :   -4.24859843540730
          31 :   -40.3255748110618
          32 :   -28.1250366803097

     Forces acting on atoms (Ry/au):

     negative rho (up, down):  8.929E-04 0.000E+00
     atom    1 type  1   force =    -0.00000164   -0.00091030   -0.01108650
     atom    2 type  1   force =    -0.00078853    0.00045450   -0.01108402
     atom    3 type  1   force =     0.00078824    0.00045572   -0.01108626
     atom    4 type  2   force =    -0.00000209    0.00000112   -0.01136799
     atom    5 type  1   force =     0.00000846    0.00092534    0.01042061
     atom    6 type  1   force =     0.00079441   -0.00045780    0.01042407
     atom    7 type  1   force =    -0.00079812   -0.00046934    0.01042166
     atom    8 type  2   force =    -0.00001362    0.00000776    0.01388908
     atom    9 type  1   force =    -0.00000031   -0.00115174    0.00026521
     atom   10 type  1   force =    -0.00101475    0.00058456    0.00031352
     atom   11 type  1   force =     0.00099504    0.00057474    0.00026782
     atom   12 type  2   force =     0.00003291   -0.00001455   -0.00137719

     Total force =     0.032060     Total SCF correction =     0.005600
     SCF correction compared to forces is large: reduce conv_thr to get better values

     entering subroutine stress ...

     negative rho (up, down):  8.929E-04 0.000E+00
          total   stress  (Ry/bohr**3)                   (kbar)     P=  -18.33
  -0.00018722  -0.00000000   0.00000001        -27.54     -0.00      0.00
  -0.00000000  -0.00018722  -0.00000000         -0.00    -27.54     -0.00
   0.00000001  -0.00000000   0.00000055          0.00     -0.00      0.08

 !ASE

     Writing output data file calc.save

     General routines

     Parallel routines

   This run was terminated on:  16:21:57   2Jan2019

   JOB DONE.
Job  /afs/slac/g/suncat/bin/suncat-tsmpirun -x LD_LIBRARY_PATH -wdir /scratch/qe649463_3wKrq pw.x -in pw.inp

TID   HOST_NAME   COMMAND_LINE            STATUS            TERMINATION_TIME
00000 suncat0024 pw.x -in pw.inp   Done                     01/02/2019 16:21:57
00001 suncat0024 pw.x -in pw.inp   Done                     01/02/2019 16:21:57
00002 suncat0024 pw.x -in pw.inp   Done                     01/02/2019 16:21:57
00003 suncat0024 pw.x -in pw.inp   Done                     01/02/2019 16:21:57
00004 suncat0024 pw.x -in pw.inp   Done                     01/02/2019 16:21:57
00005 suncat0024 pw.x -in pw.inp   Done                     01/02/2019 16:21:57
00006 suncat0024 pw.x -in pw.inp   Done                     01/02/2019 16:21:57
00007 suncat0024 pw.x -in pw.inp   Done                     01/02/2019 16:21:57
00008 suncat0023 pw.x -in pw.inp   Done                     01/02/2019 16:21:57
00009 suncat0023 pw.x -in pw.inp   Done                     01/02/2019 16:21:57
00010 suncat0023 pw.x -in pw.inp   Done                     01/02/2019 16:21:57
00011 suncat0023 pw.x -in pw.inp   Done                     01/02/2019 16:21:57
00012 suncat0023 pw.x -in pw.inp   Done                     01/02/2019 16:21:57
00013 suncat0023 pw.x -in pw.inp   Done                     01/02/2019 16:21:57
00014 suncat0023 pw.x -in pw.inp   Done                     01/02/2019 16:21:57
00015 suncat0023 pw.x -in pw.inp   Done                     01/02/2019 16:21:57
00016 suncat0190 pw.x -in pw.inp   Done                     01/02/2019 16:21:57
00017 suncat0190 pw.x -in pw.inp   Done                     01/02/2019 16:21:57
00018 suncat0190 pw.x -in pw.inp   Done                     01/02/2019 16:21:57
00019 suncat0190 pw.x -in pw.inp   Done                     01/02/2019 16:21:57
00020 suncat0190 pw.x -in pw.inp   Done                     01/02/2019 16:21:57
00021 suncat0190 pw.x -in pw.inp   Done                     01/02/2019 16:21:57
00022 suncat0190 pw.x -in pw.inp   Done                     01/02/2019 16:21:57
00023 suncat0190 pw.x -in pw.inp   Done                     01/02/2019 16:21:57
00024 suncat0009 pw.x -in pw.inp   Done                     01/02/2019 16:21:57
00025 suncat0009 pw.x -in pw.inp   Done                     01/02/2019 16:21:57
00026 suncat0009 pw.x -in pw.inp   Done                     01/02/2019 16:21:57
00027 suncat0009 pw.x -in pw.inp   Done                     01/02/2019 16:21:57
00028 suncat0009 pw.x -in pw.inp   Done                     01/02/2019 16:21:57
00029 suncat0009 pw.x -in pw.inp   Done                     01/02/2019 16:21:57
00030 suncat0009 pw.x -in pw.inp   Done                     01/02/2019 16:21:57
00031 suncat0009 pw.x -in pw.inp   Done                     01/02/2019 16:21:57
00032 suncat0166 pw.x -in pw.inp   Done                     01/02/2019 16:21:57
00033 suncat0166 pw.x -in pw.inp   Done                     01/02/2019 16:21:57
00034 suncat0166 pw.x -in pw.inp   Done                     01/02/2019 16:21:57
00035 suncat0166 pw.x -in pw.inp   Done                     01/02/2019 16:21:57
00036 suncat0166 pw.x -in pw.inp   Done                     01/02/2019 16:21:57
00037 suncat0166 pw.x -in pw.inp   Done                     01/02/2019 16:21:57
00038 suncat0166 pw.x -in pw.inp   Done                     01/02/2019 16:21:57
00039 suncat0166 pw.x -in pw.inp   Done                     01/02/2019 16:21:57
00040 suncat0149 pw.x -in pw.inp   Done                     01/02/2019 16:21:57
00041 suncat0149 pw.x -in pw.inp   Done                     01/02/2019 16:21:57
00042 suncat0149 pw.x -in pw.inp   Done                     01/02/2019 16:21:57
00043 suncat0149 pw.x -in pw.inp   Done                     01/02/2019 16:21:57
00044 suncat0149 pw.x -in pw.inp   Done                     01/02/2019 16:21:57
00045 suncat0149 pw.x -in pw.inp   Done                     01/02/2019 16:21:57
00046 suncat0149 pw.x -in pw.inp   Done                     01/02/2019 16:21:57
00047 suncat0149 pw.x -in pw.inp   Done                     01/02/2019 16:21:57
00048 suncat0148 pw.x -in pw.inp   Done                     01/02/2019 16:21:57
00049 suncat0148 pw.x -in pw.inp   Done                     01/02/2019 16:21:57
00050 suncat0148 pw.x -in pw.inp   Done                     01/02/2019 16:21:57
00051 suncat0148 pw.x -in pw.inp   Done                     01/02/2019 16:21:57
00052 suncat0148 pw.x -in pw.inp   Done                     01/02/2019 16:21:57
00053 suncat0148 pw.x -in pw.inp   Done                     01/02/2019 16:21:57
00054 suncat0148 pw.x -in pw.inp   Done                     01/02/2019 16:21:57
00055 suncat0148 pw.x -in pw.inp   Done                     01/02/2019 16:21:57
00056 suncat0142 pw.x -in pw.inp   Done                     01/02/2019 16:21:57
00057 suncat0142 pw.x -in pw.inp   Done                     01/02/2019 16:21:57
00058 suncat0142 pw.x -in pw.inp   Done                     01/02/2019 16:21:57
00059 suncat0142 pw.x -in pw.inp   Done                     01/02/2019 16:21:57
00060 suncat0142 pw.x -in pw.inp   Done                     01/02/2019 16:21:57
00061 suncat0142 pw.x -in pw.inp   Done                     01/02/2019 16:21:57
00062 suncat0142 pw.x -in pw.inp   Done                     01/02/2019 16:21:57
00063 suncat0142 pw.x -in pw.inp   Done                     01/02/2019 16:21:57