     Program PWSCF v.5.1rc2 (svn rev. 11289) starts on 29Dec2018 at 22:24:42

     Current dimensions of program PWSCF are:
     Max number of different atomic species (ntypx) = 10
     Max number of k-points (npk) =  40000
     Max angular momentum in pseudopotentials (lmaxx) =  3
     Presently stress not available with electric field

     IMPORTANT: XC functional enforced from input :
     Exchange-correlation      = BEEF-VDW ( 1  4 27 13 2)
     Any further DFT definition will be discarded
     Please, verify this is what you really want

     Subspace diagonalization in iterative solution of the eigenvalue problem:
     a serial algorithm will be used

     Found symmetry operation: I + ( -0.5000 -0.5000  0.0000)
     This is a supercell, fractional translations are disabled

     bravais-lattice index     =            0
     lattice parameter (alat)  =       1.8897  a.u.
     unit-cell volume          =    5707.4520 (a.u.)^3
     number of atoms/cell      =           12
     number of atomic types    =            2
     number of electrons       =       156.00
     number of Kohn-Sham states=          108
     kinetic-energy cutoff     =      36.7493  Ry
     charge density cutoff     =     367.4932  Ry
     convergence threshold     =      1.0E-06
     mixing beta               =       0.1000
     number of iterations used =           10  plain     mixing
     Exchange-correlation      = BEEF-VDW ( 1  4 27 13 2)
     nstep                     =           50

     celldm(1)=   1.889726  celldm(2)=   0.000000  celldm(3)=   0.000000
     celldm(4)=   0.000000  celldm(5)=   0.000000  celldm(6)=   0.000000

     crystal axes: (cart. coord. in units of alat)
               a(1) = (   5.992884   0.000000   0.000000 )
               a(2) = (   1.926930   5.674646   0.000000 )
               a(3) = (   0.000000   0.000000  24.869727 )

     reciprocal axes: (cart. coord. in units 2 pi/alat)
               b(1) = (  0.166865 -0.056662  0.000000 )
               b(2) = (  0.000000  0.176222  0.000000 )
               b(3) = (  0.000000  0.000000  0.040210 )

     PseudoPot. # 1 for Tc read from file:
     /afs/slac.stanford.edu/u/if/mamunm/psp/gbrv1.5pbe/Tc.UPF
     MD5 check sum: 9eb49e5b028550b2339a02317eb7b844
     Pseudo is Ultrasoft + core correction, Zval = 15.0
     Generated by new atomic code, or converted to UPF format
     Using radial grid of  965 points,  6 beta functions with:
                l(1) =   0
                l(2) =   0
                l(3) =   1
                l(4) =   1
                l(5) =   2
                l(6) =   2
     Q(r) pseudized with  8 coefficients,  rinner =    1.300   1.300   1.300
                                                       1.300   1.300

     PseudoPot. # 2 for Y  read from file:
     /afs/slac.stanford.edu/u/if/mamunm/psp/gbrv1.5pbe/Y.UPF
     MD5 check sum: d034151ed7554c50b6e82763ed42c788
     Pseudo is Ultrasoft + core correction, Zval = 11.0
     Generated by new atomic code, or converted to UPF format
     Using radial grid of  885 points,  6 beta functions with:
                l(1) =   0
                l(2) =   0
                l(3) =   1
                l(4) =   1
                l(5) =   2
                l(6) =   2
     Q(r) pseudized with  8 coefficients,  rinner =    1.200   1.200   1.200
                                                       1.200   1.200

     vdW kernel table read from file vdW_kernel_table
     MD5 check sum: 095c7af220d748ca6e76c0b4c6cfb241

     atomic species   valence    mass     pseudopotential
        Tc1           15.00    97.90721     Tc( 1.00)
        Y1            11.00    88.90584     Y ( 1.00)

     No symmetry found

   Cartesian axes

     site n.     atom                  positions (alat units)
         1           Tc1 tau(   1) = (   0.0000000   0.0000000  10.0000000  )
         2           Tc1 tau(   2) = (   3.9599070   2.8373228  10.0000000  )
         3           Y1  tau(   3) = (   2.9964421   0.0000000  10.0000000  )
         4           Y1  tau(   4) = (   0.9634649   2.8373228  10.0000000  )
         5           Tc1 tau(   5) = (   5.9928843   4.2939765  12.4348637  )
         6           Tc1 tau(   6) = (   2.0329773   1.4566536  12.4348637  )
         7           Y1  tau(   7) = (   2.9964421   4.2939765  12.4348637  )
         8           Y1  tau(   8) = (   5.0294194   1.4566536  12.4348637  )
         9           Tc1 tau(   9) = (   4.0659545   2.9133072  14.8697274  )
        10           Tc1 tau(  10) = (   0.1060475   0.0759844  14.8697274  )
        11           Y1  tau(  11) = (   1.0695124   2.9133072  14.8697274  )
        12           Y1  tau(  12) = (   3.1024897   0.0759844  14.8697274  )

     number of k points=    20  Fermi-Dirac smearing, width (Ry)=  0.0110
                       cart. coord. in units 2pi/alat
        k(    1) = (   0.0000000   0.0000000   0.0000000), wk =   0.0555556
        k(    2) = (   0.0000000   0.0293704   0.0000000), wk =   0.1111111
        k(    3) = (   0.0000000   0.0587408   0.0000000), wk =   0.1111111
        k(    4) = (   0.0000000  -0.0881112   0.0000000), wk =   0.0555556
        k(    5) = (   0.0278108  -0.0094437   0.0000000), wk =   0.1111111
        k(    6) = (   0.0278108   0.0199268   0.0000000), wk =   0.1111111
        k(    7) = (   0.0278108   0.0492972   0.0000000), wk =   0.1111111
        k(    8) = (   0.0278108  -0.0975549   0.0000000), wk =   0.1111111
        k(    9) = (   0.0278108  -0.0681845   0.0000000), wk =   0.1111111
        k(   10) = (   0.0278108  -0.0388141   0.0000000), wk =   0.1111111
        k(   11) = (   0.0556215  -0.0188873   0.0000000), wk =   0.1111111
        k(   12) = (   0.0556215   0.0104831   0.0000000), wk =   0.1111111
        k(   13) = (   0.0556215   0.0398535   0.0000000), wk =   0.1111111
        k(   14) = (   0.0556215  -0.1069985   0.0000000), wk =   0.1111111
        k(   15) = (   0.0556215  -0.0776281   0.0000000), wk =   0.1111111
        k(   16) = (   0.0556215  -0.0482577   0.0000000), wk =   0.1111111
        k(   17) = (  -0.0834323   0.0283310   0.0000000), wk =   0.0555556
        k(   18) = (  -0.0834323   0.0577014   0.0000000), wk =   0.1111111
        k(   19) = (  -0.0834323   0.0870718   0.0000000), wk =   0.1111111
        k(   20) = (  -0.0834323  -0.0597803   0.0000000), wk =   0.0555556

     Largest allocated arrays     est. size (Mb)     dimensions
     Largest temporary arrays     est. size (Mb)     dimensions

     Check: negative/imaginary core charge=   -0.000013    0.000000

     Initial potential from superposition of free atoms
     Check: negative starting charge=   -0.749241

     starting charge  149.97302, renormalised to  156.00000

     negative rho (up, down):  7.794E-01 0.000E+00

     *
     * You are using vdW-DF for exchange-correlation in this calculation.
     * Please cite the following three references that made this development
     * possible:
     *
     *   M. Dion, H. Rydberg, E. Schroder, D. C. Langreth, and
     *   B. I. Lundqvist, Phys. Rev. Lett. 92, 246401 (2004).
     *
     *   T. Thonhauser, V. R. Cooper, S. Li, A. Puzder, P. Hyldgaard, and
     *   D. C. Langreth, Phys. Rev. B 76, 125112 (2007).
     *
     *   G. Roman-Perez and J. M. Soler, Phys. Rev. Lett. 103, 096102 (2009).
     *
     *
     * If you are using vdW-DF2, please also cite:
     *
     *   K. Lee, E. D. Murray, L. Kong, B. I. Lundqvist, and
     *   D. C. Langreth, Phys. Rev. B 82, 081101(R) (2010).
     *
     *
     * If you are calculating the stress with vdW-DF, please also cite:
     *
     *   R. Sabatini, E. Kucukbenli, B. Kolb, T. Thonhauser, and
     *   S. de Gironcoli, J. Phys.: Condens. Matter 24, 424209 (2012).
     *

     Carrying out vdW-DF run using the following parameters:

     Nqs =      20    Nr_points =    1024   r_max =   100.000
     q_mesh =
               0.00001000     0.04494208     0.09755937     0.15916263
               0.23128650     0.31572767     0.41458969     0.53033537
               0.66584808     0.82450364     1.01025438     1.22772762
               1.48234092     1.78043706     2.12944203     2.53805004
               3.01644009     3.57652955     4.23227104     5.00000000

     Gradients computed in reciprocal space

     Adding external electric field

     Computed dipole along edir(3) :
        Dipole                0.0000 Ry au,          0.0000 Debye
        Dipole field          0.0000 Ry au

        Potential amp.       -0.0000 Ry
        Total length         45.8220 bohr

     Starting wfc are  156 randomized atomic wfcs

     Self-consistent Calculation

     iteration #  1     ecut=    36.75 Ry     beta=0.10
     Davidson diagonalization with overlap
     ethr =  1.00E-02,  avg # of iterations =  2.0

[...]

     total energy              =   -1613.80823350 Ry
     Harris-Foulkes estimate   =   -1614.89667134 Ry
     estimated scf accuracy    <       6.66994513 Ry

[...]

     End of self-consistent calculation

          k = 0.0000 0.0000 0.0000 ( 21351 PWs)   bands (ev):

   -64.5916 -64.5888 -64.4424 -64.4424 -64.4397 -64.4397 -40.7575 -40.7555
   -40.7260 -40.7246 -39.8815 -39.8494 -36.6543 -36.6526 -36.6448 -36.6429
   -36.6161 -36.5630 -36.5376 -36.5341 -36.5247 -36.5227 -36.5224 -36.5182
   -36.4831 -36.4830 -36.4427 -36.4405 -36.4376 -36.4344 -20.9207 -20.9096
   -20.8347 -20.8338 -20.8071 -20.7879 -20.7025 -20.6832 -20.6816 -20.6527
   -20.5423 -20.5392 -20.0919 -19.9259 -19.9087 -19.8780 -19.8652 -19.7005
    -2.9800  -1.8225  -1.3323  -1.0772  -1.0535  -0.9957  -0.8991  -0.8376
    -0.8239  -0.7507  -0.5431  -0.2794  -0.2274   0.2974   0.3088   0.3564
     0.4145   0.4347   0.4796   0.5071   0.5103   0.6574   0.7966   1.0278
     1.2700   1.2767   1.3343   1.6012   1.7402   1.7860   1.9864   2.0504
     2.4091   2.4297   2.8511   2.8963   3.2281   3.3864   3.3882   3.5552
     3.8260   3.8451   4.0892   4.1833   4.2686   4.3939   4.5215   4.5682
     4.6591   4.9383   4.9542   5.1570   5.1647   5.2358   5.2415   5.3568
     5.3803   5.4068   5.4800   5.5323

[...]

          k =-0.0834 0.0283 0.0000 ( 21472 PWs)   bands (ev):

[...]

     the Fermi energy is     1.5542 ev

!    total energy              =   -1613.67193392 Ry
     Harris-Foulkes estimate   =   -1613.67192984 Ry
     estimated scf accuracy    <       0.00000026 Ry

     The total energy is the sum of the following terms:

     one-electron contribution =  -10502.92298100 Ry
     hartree contribution      =    5250.83425859 Ry
     xc contribution           =    -368.68128986 Ry
     ewald contribution        =    4007.21186644 Ry
     electric field correction =       0.00000000 Ry
     smearing contrib. (-TS)   =      -0.11378809 Ry

     convergence has been achieved in  20 iterations

 BEEF-vdW xc energy contributions
           1 :   -322.440903426708
           2 :    293.076186027549
           3 :   -241.561102460417
           4 :    179.293598342195
           5 :   -117.849680269042
           6 :    65.5926186398168
           7 :   -26.2977438111845
           8 :  -0.279320111041272
           9 :    16.6304005683382
          10 :   -25.6529982808736
          11 :    29.4631672926337
[...]

     PseudoPot. # 1 for Tc read from file:
     /afs/slac.stanford.edu/u/if/mamunm/psp/gbrv1.5pbe/Tc.UPF
     MD5 check sum: 9eb49e5b028550b2339a02317eb7b844
     Pseudo is Ultrasoft + core correction, Zval = 15.0
     Generated by new atomic code, or converted to UPF format
     Using radial grid of  965 points,  6 beta functions with:
                l(1) =   0
                l(2) =   0
                l(3) =   1
                l(4) =   1
                l(5) =   2
                l(6) =   2
     Q(r) pseudized with  8 coefficients,  rinner =    1.300   1.300   1.300
                                                       1.300   1.300

     PseudoPot. # 2 for Y  read from file:
     /afs/slac.stanford.edu/u/if/mamunm/psp/gbrv1.5pbe/Y.UPF
     MD5 check sum: d034151ed7554c50b6e82763ed42c788
     Pseudo is Ultrasoft + core correction, Zval = 11.0
     Generated by new atomic code, or converted to UPF format
     Using radial grid of  885 points,  6 beta functions with:
                l(1) =   0
                l(2) =   0
                l(3) =   1
                l(4) =   1
                l(5) =   2
                l(6) =   2
     Q(r) pseudized with  8 coefficients,  rinner =    1.200   1.200   1.200
                                                       1.200   1.200

     vdW kernel table read from file vdW_kernel_table
     MD5 check sum: 095c7af220d748ca6e76c0b4c6cfb241

     atomic species   valence    mass     pseudopotential
        Tc1           15.00    97.90721     Tc( 1.00)
        Y1            11.00    88.90584     Y ( 1.00)

     No symmetry found

   Cartesian axes

     site n.     atom                  positions (alat units)
         1           Tc1 tau(   1) = (   0.0000000   0.0000000  10.0000000  )
         2           Tc1 tau(   2) = (   3.9599070   2.8373228  10.0000000  )
         3           Y1  tau(   3) = (   2.9964421   0.0000000  10.0000000  )
         4           Y1  tau(   4) = (   0.9634649   2.8373228  10.0000000  )
         5           Tc1 tau(   5) = (   5.9928843   4.2939765  12.4348637  )
         6           Tc1 tau(   6) = (   2.0329773   1.4566536  12.4348637  )
         7           Y1  tau(   7) = (   2.9964421   4.2939765  12.4348637  )
         8           Y1  tau(   8) = (   5.0294194   1.4566536  12.4348637  )
         9           Tc1 tau(   9) = (   4.0665738   2.9137621  14.6694338  )
        10           Tc1 tau(  10) = (   0.1066676   0.0764241  14.6694652  )
        11           Y1  tau(  11) = (   1.0415344   2.8932477  14.9035525  )
        12           Y1  tau(  12) = (   3.0744946   0.0559382  14.9035451  )

     number of k points=    20  Fermi-Dirac smearing, width (Ry)=  0.0110
                       cart. coord. in units 2pi/alat
        k(    1) = (   0.0000000   0.0000000   0.0000000), wk =   0.0555556
        k(    2) = (   0.0000000   0.0293704   0.0000000), wk =   0.1111111
        k(    3) = (   0.0000000   0.0587408   0.0000000), wk =   0.1111111
        k(    4) = (   0.0000000  -0.0881112   0.0000000), wk =   0.0555556
        k(    5) = (   0.0278108  -0.0094437   0.0000000), wk =   0.1111111
        k(    6) = (   0.0278108   0.0199268   0.0000000), wk =   0.1111111
        k(    7) = (   0.0278108   0.0492972   0.0000000), wk =   0.1111111
        k(    8) = (   0.0278108  -0.0975549   0.0000000), wk =   0.1111111
        k(    9) = (   0.0278108  -0.0681845   0.0000000), wk =   0.1111111
        k(   10) = (   0.0278108  -0.0388141   0.0000000), wk =   0.1111111
        k(   11) = (   0.0556215  -0.0188873   0.0000000), wk =   0.1111111
        k(   12) = (   0.0556215   0.0104831   0.0000000), wk =   0.1111111
        k(   13) = (   0.0556215   0.0398535   0.0000000), wk =   0.1111111
        k(   14) = (   0.0556215  -0.1069985   0.0000000), wk =   0.1111111
        k(   15) = (   0.0556215  -0.0776281   0.0000000), wk =   0.1111111
        k(   16) = (   0.0556215  -0.0482577   0.0000000), wk =   0.1111111
        k(   17) = (  -0.0834323   0.0283310   0.0000000), wk =   0.0555556
        k(   18) = (  -0.0834323   0.0577014   0.0000000), wk =   0.1111111
        k(   19) = (  -0.0834323   0.0870718   0.0000000), wk =   0.1111111
        k(   20) = (  -0.0834323  -0.0597803   0.0000000), wk =   0.0555556

     Largest allocated arrays     est. size (Mb)     dimensions
     Largest temporary arrays     est. size (Mb)     dimensions

     Check: negative/imaginary core charge=   -0.000013    0.000000

     Initial potential from superposition of free atoms
     Check: negative starting charge=   -0.749468

     starting charge  149.97302, renormalised to  156.00000

[...]

     *
     * You are using vdW-DF for exchange-correlation in this calculation.
     * Please cite the following three references that made this development
     * possible:
     *
     *   M. Dion, H. Rydberg, E. Schroder, D. C. Langreth, and
     *   B. I. Lundqvist, Phys. Rev. Lett. 92, 246401 (2004).
     *
     *   T. Thonhauser, V. R. Cooper, S. Li, A. Puzder, P. Hyldgaard, and
     *   D. C. Langreth, Phys. Rev. B 76, 125112 (2007).
     *
     *   G. Roman-Perez and J. M. Soler, Phys. Rev. Lett. 103, 096102 (2009).
     *
     *
     * If you are using vdW-DF2, please also cite:
     *
     *   K. Lee, E. D. Murray, L. Kong, B. I. Lundqvist, and
     *   D. C. Langreth, Phys. Rev. B 82, 081101(R) (2010).
     *
     *
     * If you are calculating the stress with vdW-DF, please also cite:
     *
     *   R. Sabatini, E. Kucukbenli, B. Kolb, T. Thonhauser, and
     *   S. de Gironcoli, J. Phys.: Condens. Matter 24, 424209 (2012).
     *

     Carrying out vdW-DF run using the following parameters:

     Nqs =      20    Nr_points =    1024   r_max =   100.000
     q_mesh =
               0.00001000     0.04494208     0.09755937     0.15916263
               0.23128650     0.31572767     0.41458969     0.53033537
               0.66584808     0.82450364     1.01025438     1.22772762
               1.48234092     1.78043706     2.12944203     2.53805004
               3.01644009     3.57652955     4.23227104     5.00000000

     Gradients computed in reciprocal space

[...]

     Starting wfc are  156 randomized atomic wfcs

     Self-consistent Calculation

[...]

     total energy              =   -1613.68206211 Ry
     Harris-Foulkes estimate   =   -1613.68206054 Ry
     estimated scf accuracy    <       0.00000220 Ry

     iteration # 19     ecut=    36.75 Ry     beta=0.10
     Davidson diagonalization with overlap
     ethr =  1.41E-09,  avg # of iterations =  2.5

[...]

     negative rho (up, down):  7.632E-01 0.000E+00

     Adding external electric field

     Computed dipole along edir(3) :
        Dipole                0.0638 Ry au,          0.1622 Debye
        Dipole field          0.0001 Ry au

        Potential amp.       -0.0129 Ry
        Total length         45.8220 bohr

     End of self-consistent calculation

[...]

          k = 0.0556-0.0483 0.0000 ( 21478 PWs)   bands (ev):

[...]

          k =-0.0834-0.0598 0.0000 ( 21502 PWs)   bands (ev):

   -64.5906 -64.5879 -64.3949 -64.3922 -64.3797 -64.3768 -40.8493 -40.8167
   -40.7071 -40.6743 -39.7228 -39.6837 -36.6550 -36.6545 -36.6365 -36.6309
   -36.5935 -36.5473 -36.4824 -36.4809 -36.4777 -36.4682 -36.4464 -36.4433
   -36.4346 -36.4230 -36.4109 -36.4085 -36.3848 -36.3817 -21.0191 -20.9232
   -20.8841 -20.8758 -20.8154 -20.7834 -20.7578 -20.7391 -20.6827 -20.6302
   -20.6262 -20.4936 -19.9675 -19.7901 -19.7754 -19.7542 -19.7408 -19.5587
    -1.2654  -1.1213  -0.5459  -0.3823  -0.3299  -0.2306  -0.0793  -0.0704
     0.0422   0.1125   0.1284   0.3107   0.3505   0.3644   0.4469   0.6261
     0.6485   0.7001   0.8246   0.9589   0.9635   0.9726   1.0899   1.2068
     1.2887   1.3550   1.4477   1.4551   1.5338   1.6448   1.6587   1.7107
     1.7785   1.8627   1.8785   1.9948   2.0365   2.0917   2.1292   2.2155
     2.8517   3.1971   3.4814   3.4977   3.6975   3.8261   3.8738   3.8929
     3.9864   4.2176   4.4189   4.5961   4.7994   4.8695   4.8711   4.8754
     4.9008   5.0415   5.2430   5.2827

     the Fermi energy is     1.6145 ev

!    total energy              =   -1613.68206761 Ry
     Harris-Foulkes estimate   =   -1613.68206287 Ry
     estimated scf accuracy    <       0.00000079 Ry

     The total energy is the sum of the following terms:

     one-electron contribution =  -10649.54661979 Ry
     hartree contribution      =    5324.34604265 Ry
     xc contribution           =    -368.76231498 Ry
     ewald contribution        =    4080.39649547 Ry
     electric field correction =       0.00000897 Ry
     smearing contrib. (-TS)   =      -0.11567992 Ry

     convergence has been achieved in  19 iterations

 BEEF-vdW xc energy contributions
           1 :   -322.530270350389
           2 :    293.223821287234
           3 :   -241.778886714845
           4 :    179.531228231951
           5 :   -118.020423036322
           6 :    65.6304938562648
           7 :   -26.2092459794193
           8 :  -0.412357418508009
           9 :    16.7062063912051
          10 :   -25.6212521359505
          11 :    29.3567436000467
          12 :   -29.0891223427919
          13 :    25.4227732643490
          14 :   -19.0807159806714
          15 :    11.2773542844300
          16 :   -3.58533811170139
          17 :   -2.55990263698413
          18 :    6.33582800487181
          19 :   -7.72656090385738
          20 :    7.35711285536013
          21 :   -6.11406934674665
          22 :    4.74426465667534
          23 :   -3.61320437282995
          24 :    2.67905607421568
          25 :   -1.64363766089508
          26 :   0.163735516203474
          27 :    1.96333274638675
          28 :   -4.69076646535632
          29 :    7.69375893941492
          30 :   -10.4268512331751
          31 :   -30.6706143146691
          32 :   -21.6891478764293

     Forces acting on atoms (Ry/au):

     negative rho (up, down):  7.632E-01 0.000E+00
     atom    1 type  1   force =    -0.00134838   -0.00096482    0.02584121
     atom    2 type  1   force =    -0.00134517   -0.00096394    0.02584548
     atom    3 type  2   force =     0.00415017    0.00297415   -0.01090712
     atom    4 type  2   force =     0.00414985    0.00296926   -0.01090942
     atom    5 type  1   force =    -0.00081770   -0.00058273    0.00770974
     atom    6 type  1   force =    -0.00082003   -0.00059020    0.00771085
     atom    7 type  2   force =    -0.00193847   -0.00136763   -0.02121642
     atom    8 type  2   force =    -0.00191978   -0.00139715   -0.02121471
     atom    9 type  1   force =    -0.00003128   -0.00002096   -0.00097594
     atom   10 type  1   force =    -0.00003526   -0.00002667   -0.00097185
     atom   11 type  2   force =    -0.00002579   -0.00000960   -0.00045688
     atom   12 type  2   force =    -0.00001816   -0.00001972   -0.00045495

     Total force =     0.051634     Total SCF correction =     0.002015

     entering subroutine stress ...

     negative rho (up, down):  7.632E-01 0.000E+00
          total   stress  (Ry/bohr**3)                   (kbar)     P=  -14.29
  -0.00013959  -0.00003038  -0.00000518        -20.53     -4.47     -0.76
  -0.00003038  -0.00011896  -0.00000371         -4.47    -17.50     -0.55
  -0.00000518  -0.00000371  -0.00003285         -0.76     -0.55     -4.83

 !ASE

     Writing output data file calc.save

     General routines

     Parallel routines

   This run was terminated on:  23:54:49  29Dec2018

   JOB DONE.
Job  /afs/slac/g/suncat/bin/suncat-tsmpirun -x LD_LIBRARY_PATH -wdir /scratch/qe387736_gmizt pw.x -in pw.inp

TID   HOST_NAME   COMMAND_LINE            STATUS            TERMINATION_TIME
00000 suncat0159 pw.x -in pw.inp   Done                     12/29/2018 23:54:49
00001 suncat0159 pw.x -in pw.inp   Done                     12/29/2018 23:54:49
00002 suncat0159 pw.x -in pw.inp   Done                     12/29/2018 23:54:49
00003 suncat0159 pw.x -in pw.inp   Done                     12/29/2018 23:54:49
00004 suncat0159 pw.x -in pw.inp   Done                     12/29/2018 23:54:49
00005 suncat0159 pw.x -in pw.inp   Done                     12/29/2018 23:54:49
00006 suncat0159 pw.x -in pw.inp   Done                     12/29/2018 23:54:49
00007 suncat0159 pw.x -in pw.inp   Done                     12/29/2018 23:54:49
00008 suncat0155 pw.x -in pw.inp   Done                     12/29/2018 23:54:49
00009 suncat0155 pw.x -in pw.inp   Done                     12/29/2018 23:54:49
00010 suncat0155 pw.x -in pw.inp   Done                     12/29/2018 23:54:49
00011 suncat0155 pw.x -in pw.inp   Done                     12/29/2018 23:54:49
00012 suncat0155 pw.x -in pw.inp   Done                     12/29/2018 23:54:49
00013 suncat0155 pw.x -in pw.inp   Done                     12/29/2018 23:54:49
00014 suncat0155 pw.x -in pw.inp   Done                     12/29/2018 23:54:49
00015 suncat0155 pw.x -in pw.inp   Done                     12/29/2018 23:54:49
00016 suncat0143 pw.x -in pw.inp   Done                     12/29/2018 23:54:49
00017 suncat0143 pw.x -in pw.inp   Done                     12/29/2018 23:54:49
00018 suncat0143 pw.x -in pw.inp   Done                     12/29/2018 23:54:49
00019 suncat0143 pw.x -in pw.inp   Done                     12/29/2018 23:54:49
00020 suncat0143 pw.x -in pw.inp   Done                     12/29/2018 23:54:49
00021 suncat0143 pw.x -in pw.inp   Done                     12/29/2018 23:54:49
00022 suncat0143 pw.x -in pw.inp   Done                     12/29/2018 23:54:49
00023 suncat0143 pw.x -in pw.inp   Done                     12/29/2018 23:54:49
00024 suncat0141 pw.x -in pw.inp   Done                     12/29/2018 23:54:49
00025 suncat0141 pw.x -in pw.inp   Done                     12/29/2018 23:54:49
00026 suncat0141 pw.x -in pw.inp   Done                     12/29/2018 23:54:49
00027 suncat0141 pw.x -in pw.inp   Done                     12/29/2018 23:54:49
00028 suncat0141 pw.x -in pw.inp   Done                     12/29/2018 23:54:49
00029 suncat0141 pw.x -in pw.inp   Done                     12/29/2018 23:54:49
00030 suncat0141 pw.x -in pw.inp   Done                     12/29/2018 23:54:49
00031 suncat0141 pw.x -in pw.inp   Done                     12/29/2018 23:54:49
00032 suncat0140 pw.x -in pw.inp   Done                     12/29/2018 23:54:49
00033 suncat0140 pw.x -in pw.inp   Done                     12/29/2018 23:54:49
00034 suncat0140 pw.x -in pw.inp   Done                     12/29/2018 23:54:49
00035 suncat0140 pw.x -in pw.inp   Done                     12/29/2018 23:54:49
00036 suncat0140 pw.x -in pw.inp   Done                     12/29/2018 23:54:49
00037 suncat0140 pw.x -in pw.inp   Done                     12/29/2018 23:54:49
00038 suncat0140 pw.x -in pw.inp   Done                     12/29/2018 23:54:49
00039 suncat0140 pw.x -in pw.inp   Done                     12/29/2018 23:54:49
00040 suncat0135 pw.x -in pw.inp   Done                     12/29/2018 23:54:49
00041 suncat0135 pw.x -in pw.inp   Done                     12/29/2018 23:54:49
00042 suncat0135 pw.x -in pw.inp   Done                     12/29/2018 23:54:49
00043 suncat0135 pw.x -in pw.inp   Done                     12/29/2018 23:54:49
00044 suncat0135 pw.x -in pw.inp   Done                     12/29/2018 23:54:49
00045 suncat0135 pw.x -in pw.inp   Done                     12/29/2018 23:54:49
00046 suncat0135 pw.x -in pw.inp   Done                     12/29/2018 23:54:49
00047 suncat0135 pw.x -in pw.inp   Done                     12/29/2018 23:54:49
00048 suncat0134 pw.x -in pw.inp   Done                     12/29/2018 23:54:49
00049 suncat0134 pw.x -in pw.inp   Done                     12/29/2018 23:54:49
00050 suncat0134 pw.x -in pw.inp   Done                     12/29/2018 23:54:49
00051 suncat0134 pw.x -in pw.inp   Done                     12/29/2018 23:54:49
00052 suncat0134 pw.x -in pw.inp   Done                     12/29/2018 23:54:49
00053 suncat0134 pw.x -in pw.inp   Done                     12/29/2018 23:54:49
00054 suncat0134 pw.x -in pw.inp   Done                     12/29/2018 23:54:49
00055 suncat0134 pw.x -in pw.inp   Done                     12/29/2018 23:54:49
00056 suncat0272 pw.x -in pw.inp   Done                     12/29/2018 23:54:49
00057 suncat0272 pw.x -in pw.inp   Done                     12/29/2018 23:54:49
00058 suncat0272 pw.x -in pw.inp   Done                     12/29/2018 23:54:49
00059 suncat0272 pw.x -in pw.inp   Done                     12/29/2018 23:54:49
00060 suncat0272 pw.x -in pw.inp   Done                     12/29/2018 23:54:49
00061 suncat0272 pw.x -in pw.inp   Done                     12/29/2018 23:54:49
00062 suncat0272 pw.x -in pw.inp   Done                     12/29/2018 23:54:49
00063 suncat0272 pw.x -in pw.inp   Done                     12/29/2018 23:54:49