     Program PWSCF v.5.1rc2 (svn rev. 11289) starts on 30Dec2018 at 13:14:20

     Current dimensions of program PWSCF are:
     Max number of different atomic species (ntypx) = 10
     Max number of k-points (npk) =  40000
     Max angular momentum in pseudopotentials (lmaxx) =  3
     Presently stress not available with electric field

     IMPORTANT: XC functional enforced from input :
     Exchange-correlation      = BEEF-VDW ( 1  4 27 13 2)
     Any further DFT definition will be discarded
     Please, verify this is what you really want

     Subspace diagonalization in iterative solution of the eigenvalue problem:
     a serial algorithm will be used

     Generating pointlists ...
     new r_m :   0.4125 (alat units)  0.7795 (a.u.) for type    1
     new r_m :   0.4125 (alat units)  0.7795 (a.u.) for type    2

     bravais-lattice index     =            0
     lattice parameter (alat)  =       1.8897  a.u.
     unit-cell volume          =    4241.1128 (a.u.)^3
     number of atoms/cell      =           12
     number of atomic types    =            2
     number of electrons       =       168.00
     number of Kohn-Sham states=          114
     kinetic-energy cutoff     =      36.7493  Ry
     charge density cutoff     =     367.4932  Ry
     convergence threshold     =      1.0E-06
     mixing beta               =       0.1000
     number of iterations used =           10  plain     mixing
     Exchange-correlation      = BEEF-VDW ( 1  4 27 13 2)
     nstep                     =           50

     celldm(1)=   1.889726  celldm(2)=   0.000000  celldm(3)=   0.000000
     celldm(4)=   0.000000  celldm(5)=   0.000000  celldm(6)=   0.000000

     crystal axes: (cart. coord. in units of alat)
               a(1) = (   5.448174   0.000000   0.000000 )
               a(2) = (  -2.724087   4.718257   0.000000 )
               a(3) = (   0.000000   0.000000  24.448415 )

     reciprocal axes: (cart. coord. in units 2 pi/alat)
               b(1) = (  0.183548  0.105971  0.000000 )
               b(2) = (  0.000000  0.211943  0.000000 )
               b(3) = (  0.000000  0.000000  0.040902 )

     PseudoPot. # 1 for Mn read from file:
     /afs/slac.stanford.edu/u/if/mamunm/psp/gbrv1.5pbe/Mn.UPF
     MD5 check sum: 82ef2b46521d7a7d9e736dc3972e4928
     Pseudo is Ultrasoft + core correction, Zval = 15.0
     Generated by new atomic code, or converted to UPF format
     Using radial grid of  859 points,  6 beta functions with:
                l(1) =   0
                l(2) =   0
                l(3) =   1
                l(4) =   1
                l(5) =   2
                l(6) =   2
     Q(r) pseudized with  8 coefficients,  rinner =    0.950   0.950   0.950
                                                       0.950   0.950

     PseudoPot. # 2 for Au read from file:
     /afs/slac.stanford.edu/u/if/mamunm/psp/gbrv1.5pbe/Au.UPF
     MD5 check sum: 9d7f43293ad2c663164586bc4b293ffc
     Pseudo is Ultrasoft + core correction, Zval = 11.0
     Generated by new atomic code, or converted to UPF format
     Using radial grid of  985 points,  7 beta functions with:
                l(1) =   0
                l(2) =   0
                l(3) =   1
                l(4) =   1
                l(5) =   2
                l(6) =   2
                l(7) =   3
     Q(r) pseudized with  6 coefficients,  rinner =    1.900   1.900   1.900
                                                       1.900   1.900   1.900
                                                       1.900

     vdW kernel table read from file vdW_kernel_table
     MD5 check sum: 095c7af220d748ca6e76c0b4c6cfb241

     atomic species   valence    mass     pseudopotential
        Mn1           15.00    54.93804     Mn( 1.00)
        Au1           11.00   196.96657     Au( 1.00)

     Starting magnetic structure
     atomic species   magnetization
        Mn1          0.133
        Au1          0.182

     No symmetry found

   Cartesian axes

     site n.     atom                  positions (alat units)
         1           Mn1 tau(   1) = (   0.0000000   0.0000000  10.0000000  )
         2           Mn1 tau(   2) = (  -1.3620434   2.3591284  10.0000000  )
         3           Mn1 tau(   3) = (   1.3620434   2.3591284  10.0000000  )
         4           Au1 tau(   4) = (   2.7240868   0.0000000  10.0000000  )
         5           Mn1 tau(   5) = (   2.7240868   1.5727523  12.2242076  )
         6           Mn1 tau(   6) = (   1.3620434   3.9318807  12.2242076  )
         7           Mn1 tau(   7) = (  -1.3620434   3.9318807  12.2242076  )
         8           Au1 tau(   8) = (   0.0000000   1.5727523  12.2242076  )
         9           Mn1 tau(   9) = (  -0.0000000   3.1455045  14.4484152  )
        10           Mn1 tau(  10) = (   1.3620434   0.7863761  14.4484152  )
        11           Mn1 tau(  11) = (   4.0861302   0.7863761  14.4484152  )
        12           Au1 tau(  12) = (   2.7240868   3.1455045  14.4484152  )

     number of k points=    40  Fermi-Dirac smearing, width (Ry)=  0.0110
                       cart. coord. in units 2pi/alat
        k(    1) = (   0.0000000   0.0000000   0.0000000), wk =   0.0277778
        k(    2) = (   0.0000000   0.0353238   0.0000000), wk =   0.0555556
        k(    3) = (   0.0000000   0.0706476   0.0000000), wk =   0.0555556
        k(    4) = (   0.0000000  -0.1059713   0.0000000), wk =   0.0277778
        k(    5) = (   0.0305913   0.0176619   0.0000000), wk =   0.0555556
        k(    6) = (   0.0305913   0.0529857   0.0000000), wk =   0.0555556
        k(    7) = (   0.0305913   0.0883095   0.0000000), wk =   0.0555556
        k(    8) = (   0.0305913  -0.0883095   0.0000000), wk =   0.0555556
        k(    9) = (   0.0305913  -0.0529857   0.0000000), wk =   0.0555556
        k(   10) = (   0.0305913  -0.0176619   0.0000000), wk =   0.0555556
        k(   11) = (   0.0611826   0.0353238   0.0000000), wk =   0.0555556
        k(   12) = (   0.0611826   0.0706476   0.0000000), wk =   0.0555556
        k(   13) = (   0.0611826   0.1059713   0.0000000), wk =   0.0555556
        k(   14) = (   0.0611826  -0.0706476   0.0000000), wk =   0.0555556
        k(   15) = (   0.0611826  -0.0353238   0.0000000), wk =   0.0555556
        k(   16) = (   0.0611826   0.0000000   0.0000000), wk =   0.0555556
        k(   17) = (  -0.0917739  -0.0529857   0.0000000), wk =   0.0277778
        k(   18) = (  -0.0917739  -0.0176619   0.0000000), wk =   0.0555556
        k(   19) = (  -0.0917739   0.0176619   0.0000000), wk =   0.0555556
        k(   20) = (  -0.0917739  -0.1589570   0.0000000), wk =   0.0277778
        k(   21) = (   0.0000000   0.0000000   0.0000000), wk =   0.0277778
        k(   22) = (   0.0000000   0.0353238   0.0000000), wk =   0.0555556
        k(   23) = (   0.0000000   0.0706476   0.0000000), wk =   0.0555556
        k(   24) = (   0.0000000  -0.1059713   0.0000000), wk =   0.0277778
        k(   25) = (   0.0305913   0.0176619   0.0000000), wk =   0.0555556
        k(   26) = (   0.0305913   0.0529857   0.0000000), wk =   0.0555556
        k(   27) = (   0.0305913   0.0883095   0.0000000), wk =   0.0555556
        k(   28) = (   0.0305913  -0.0883095   0.0000000), wk =   0.0555556
        k(   29) = (   0.0305913  -0.0529857   0.0000000), wk =   0.0555556
        k(   30) = (   0.0305913  -0.0176619   0.0000000), wk =   0.0555556
        k(   31) = (   0.0611826   0.0353238   0.0000000), wk =   0.0555556
        k(   32) = (   0.0611826   0.0706476   0.0000000), wk =   0.0555556
        k(   33) = (   0.0611826   0.1059713   0.0000000), wk =   0.0555556
        k(   34) = (   0.0611826  -0.0706476   0.0000000), wk =   0.0555556
        k(   35) = (   0.0611826  -0.0353238   0.0000000), wk =   0.0555556
        k(   36) = (   0.0611826   0.0000000   0.0000000), wk =   0.0555556
        k(   37) = (  -0.0917739  -0.0529857   0.0000000), wk =   0.0277778
        k(   38) = (  -0.0917739  -0.0176619   0.0000000), wk =   0.0555556
        k(   39) = (  -0.0917739   0.0176619   0.0000000), wk =   0.0555556
        k(   40) = (  -0.0917739  -0.1589570   0.0000000), wk =   0.0277778

     Largest allocated arrays     est. size (Mb)     dimensions
     Largest temporary arrays     est. size (Mb)     dimensions

     Check: negative/imaginary core charge=   -0.000007    0.000000

     Initial potential from superposition of free atoms
     Check: negative starting charge=(component1):   -0.001553
     Check: negative starting charge=(component2):   -0.001189

     starting charge  163.49887, renormalised to  168.00000

     negative rho (up, down):  1.595E-03 1.222E-03

     *
     * You are using vdW-DF for exchange-correlation in this calculation.
     * Please cite the following three references that made this development
     * possible:
     *
     *   M. Dion, H. Rydberg, E. Schroder, D. C. Langreth, and
     *   B. I. Lundqvist, Phys. Rev. Lett. 92, 246401 (2004).
     *
     *   T. Thonhauser, V. R. Cooper, S. Li, A. Puzder, P. Hyldgaard, and
     *   D. C. Langreth, Phys. Rev. B 76, 125112 (2007).
     *
     *   G. Roman-Perez and J. M. Soler, Phys. Rev. Lett. 103, 096102 (2009).
     *
     *
     * If you are using vdW-DF2, please also cite:
     *
     *   K. Lee, E. D. Murray, L. Kong, B. I. Lundqvist, and
     *   D. C. Langreth, Phys. Rev. B 82, 081101(R) (2010).
     *
     *
     * If you are calculating the stress with vdW-DF, please also cite:
     *
     *   R. Sabatini, E. Kucukbenli, B. Kolb, T. Thonhauser, and
     *   S. de Gironcoli, J. Phys.: Condens. Matter 24, 424209 (2012).
     *

     Carrying out vdW-DF run using the following parameters:

     Nqs =      20    Nr_points =    1024   r_max =   100.000
     q_mesh =
               0.00001000     0.04494208     0.09755937     0.15916263
               0.23128650     0.31572767     0.41458969     0.53033537
               0.66584808     0.82450364     1.01025438     1.22772762
               1.48234092     1.78043706     2.12944203     2.53805004
               3.01644009     3.57652955     4.23227104     5.00000000

     Gradients computed in reciprocal space

     Adding external electric field

     Computed dipole along edir(3) :
        Dipole               -0.0000 Ry au,         -0.0000 Debye
        Dipole field         -0.0000 Ry au

        Potential amp.        0.0000 Ry
        Total length         45.0458 bohr

[...]

     Starting wfc are  144 randomized atomic wfcs

     Self-consistent Calculation

     iteration #  1     ecut=    36.75 Ry     beta=0.10
     Davidson diagonalization with overlap
     ethr =  1.00E-02,  avg # of iterations =  5.9

[...]

     Magnetic moment per site:
     atom:    1    charge:    6.0808    magn:    0.8011    constr:    0.0000
     atom:    2    charge:    6.0808    magn:    0.8011    constr:    0.0000
     atom:    3    charge:    6.0808    magn:    0.8011    constr:    0.0000
     atom:    4    charge:    1.4628    magn:    0.2494    constr:    0.0000
     atom:    5    charge:    6.0724    magn:    0.7922    constr:    0.0000
     atom:    6    charge:    6.0724    magn:    0.7922    constr:    0.0000
[...]
        k(    2) = (   0.0000000   0.0353238   0.0000000), wk =   0.0555556
        k(    3) = (   0.0000000   0.0706476   0.0000000), wk =   0.0555556
        k(    4) = (   0.0000000  -0.1059713   0.0000000), wk =   0.0277778
        k(    5) = (   0.0305913   0.0176619   0.0000000), wk =   0.0555556
        k(    6) = (   0.0305913   0.0529857   0.0000000), wk =   0.0555556
        k(    7) = (   0.0305913   0.0883095   0.0000000), wk =   0.0555556
        k(    8) = (   0.0305913  -0.0883095   0.0000000), wk =   0.0555556
        k(    9) = (   0.0305913  -0.0529857   0.0000000), wk =   0.0555556
        k(   10) = (   0.0305913  -0.0176619   0.0000000), wk =   0.0555556
        k(   11) = (   0.0611826   0.0353238   0.0000000), wk =   0.0555556
        k(   12) = (   0.0611826   0.0706476   0.0000000), wk =   0.0555556
        k(   13) = (   0.0611826   0.1059713   0.0000000), wk =   0.0555556
        k(   14) = (   0.0611826  -0.0706476   0.0000000), wk =   0.0555556
        k(   15) = (   0.0611826  -0.0353238   0.0000000), wk =   0.0555556
        k(   16) = (   0.0611826   0.0000000   0.0000000), wk =   0.0555556
        k(   17) = (  -0.0917739  -0.0529857   0.0000000), wk =   0.0277778
        k(   18) = (  -0.0917739  -0.0176619   0.0000000), wk =   0.0555556
        k(   19) = (  -0.0917739   0.0176619   0.0000000), wk =   0.0555556
        k(   20) = (  -0.0917739  -0.1589570   0.0000000), wk =   0.0277778
        k(   21) = (   0.0000000   0.0000000   0.0000000), wk =   0.0277778
        k(   22) = (   0.0000000   0.0353238   0.0000000), wk =   0.0555556
        k(   23) = (   0.0000000   0.0706476   0.0000000), wk =   0.0555556
        k(   24) = (   0.0000000  -0.1059713   0.0000000), wk =   0.0277778
        k(   25) = (   0.0305913   0.0176619   0.0000000), wk =   0.0555556
        k(   26) = (   0.0305913   0.0529857   0.0000000), wk =   0.0555556
        k(   27) = (   0.0305913   0.0883095   0.0000000), wk =   0.0555556
        k(   28) = (   0.0305913  -0.0883095   0.0000000), wk =   0.0555556
        k(   29) = (   0.0305913  -0.0529857   0.0000000), wk =   0.0555556
        k(   30) = (   0.0305913  -0.0176619   0.0000000), wk =   0.0555556
        k(   31) = (   0.0611826   0.0353238   0.0000000), wk =   0.0555556
        k(   32) = (   0.0611826   0.0706476   0.0000000), wk =   0.0555556
        k(   33) = (   0.0611826   0.1059713   0.0000000), wk =   0.0555556
        k(   34) = (   0.0611826  -0.0706476   0.0000000), wk =   0.0555556
        k(   35) = (   0.0611826  -0.0353238   0.0000000), wk =   0.0555556
        k(   36) = (   0.0611826   0.0000000   0.0000000), wk =   0.0555556
        k(   37) = (  -0.0917739  -0.0529857   0.0000000), wk =   0.0277778
        k(   38) = (  -0.0917739  -0.0176619   0.0000000), wk =   0.0555556
        k(   39) = (  -0.0917739   0.0176619   0.0000000), wk =   0.0555556
        k(   40) = (  -0.0917739  -0.1589570   0.0000000), wk =   0.0277778

     Largest allocated arrays     est. size (Mb)     dimensions
     Largest temporary arrays     est. size (Mb)     dimensions

     Check: negative/imaginary core charge=   -0.000007    0.000000

     Initial potential from superposition of free atoms
     Check: negative starting charge=(component1):   -0.001452
     Check: negative starting charge=(component2):   -0.001113

     starting charge  163.49887, renormalised to  168.00000

[...]

     *
     * You are using vdW-DF for exchange-correlation in this calculation.
     * Please cite the following three references that made this development
     * possible:
     *
     *   M. Dion, H. Rydberg, E. Schroder, D. C. Langreth, and
     *   B. I. Lundqvist, Phys. Rev. Lett. 92, 246401 (2004).
     *
     *   T. Thonhauser, V. R. Cooper, S. Li, A. Puzder, P. Hyldgaard, and
     *   D. C. Langreth, Phys. Rev. B 76, 125112 (2007).
     *
     *   G. Roman-Perez and J. M. Soler, Phys. Rev. Lett. 103, 096102 (2009).
     *
     *
     * If you are using vdW-DF2, please also cite:
     *
     *   K. Lee, E. D. Murray, L. Kong, B. I. Lundqvist, and
     *   D. C. Langreth, Phys. Rev. B 82, 081101(R) (2010).
     *
     *
     * If you are calculating the stress with vdW-DF, please also cite:
     *
     *   R. Sabatini, E. Kucukbenli, B. Kolb, T. Thonhauser, and
     *   S. de Gironcoli, J. Phys.: Condens. Matter 24, 424209 (2012).
     *

     Carrying out vdW-DF run using the following parameters:

     Nqs =      20    Nr_points =    1024   r_max =   100.000
     q_mesh =
               0.00001000     0.04494208     0.09755937     0.15916263
               0.23128650     0.31572767     0.41458969     0.53033537
               0.66584808     0.82450364     1.01025438     1.22772762
               1.48234092     1.78043706     2.12944203     2.53805004
               3.01644009     3.57652955     4.23227104     5.00000000

     Gradients computed in reciprocal space

[...]

     Starting wfc are  144 randomized atomic wfcs

     Self-consistent Calculation

[...]

     total energy              =   -2259.04163731 Ry
     Harris-Foulkes estimate   =   -2259.04163484 Ry
     estimated scf accuracy    <       0.00000113 Ry

[...]

     iteration # 29     ecut=    36.75 Ry     beta=0.10
     Davidson diagonalization with overlap
     ethr =  6.75E-10,  avg # of iterations =  2.0

[...]

     negative rho (up, down):  1.775E-03 1.679E-03

[...]

     Adding external electric field

     Computed dipole along edir(3) :
        Dipole               -0.0127 Ry au,         -0.0322 Debye
        Dipole field         -0.0000 Ry au

        Potential amp.        0.0034 Ry
        Total length         45.0458 bohr

     Magnetic moment per site:
     atom:    1    charge:    6.0196    magn:    1.4772    constr:    0.0000
     atom:    2    charge:    6.0196    magn:    1.4772    constr:    0.0000
     atom:    3    charge:    6.0196    magn:    1.4772    constr:    0.0000
     atom:    4    charge:    1.4491    magn:    0.0385    constr:    0.0000
     atom:    5    charge:    6.0041    magn:    1.4203    constr:    0.0000
     atom:    6    charge:    6.0041    magn:    1.4203    constr:    0.0000
     atom:    7    charge:    6.0041    magn:    1.4203    constr:    0.0000
     atom:    8    charge:    1.4474    magn:    0.0476    constr:    0.0000
     atom:    9    charge:    6.0133    magn:    1.5000    constr:    0.0000
     atom:   10    charge:    6.0133    magn:    1.5000    constr:    0.0000
     atom:   11    charge:    6.0133    magn:    1.5000    constr:    0.0000
     atom:   12    charge:    1.4459    magn:    0.0369    constr:    0.0000

     End of self-consistent calculation

 ------ SPIN UP ------------

[...]

 ------ SPIN DOWN ----------

[...]

          k = 0.0612 0.0000 0.0000 ( 15950 PWs)   bands (ev):

[...]

          k =-0.0918-0.1590 0.0000 ( 15984 PWs)   bands (ev):

   -75.8017 -75.7932 -75.7875 -75.7844 -75.7789 -75.7698 -75.7211 -75.7130
   -75.7047 -44.7008 -44.6905 -44.6336 -44.6299 -44.6208 -44.6201 -44.6131
   -44.6076 -44.6062 -44.6034 -44.5997 -44.5975 -44.5899 -44.5841 -44.5814
   -44.5728 -44.5672 -44.5321 -44.5316 -44.5218 -44.5207 -44.5205 -44.5020
   -44.4784 -44.4695 -44.4608 -44.4234  -5.3877  -4.8192  -4.5491  -4.4149
    -4.3274  -4.1069  -4.0624  -3.9350  -3.8267  -3.8196  -3.6742  -3.6404
    -3.6395  -3.5163  -3.4531  -3.1841  -3.1668  -2.8166  -2.5122  -1.4571
    -1.1010  -0.9312  -0.0752   0.1446   0.4364   0.5010   0.7097   0.7501
     0.8068   0.9759   1.0098   1.1096   1.1703   1.2467   1.2904   1.5540
     1.6135   1.7680   1.7763   1.8611   2.0154   2.1650   2.1857   2.2108
     2.3995   2.4527   2.4922   2.5537   2.6614   2.9251   3.0060   3.0100
     3.0532   3.0732   3.1379   3.1515   3.2033   3.2959   3.3010   3.4100
     3.5223   3.8089   3.8142   3.8695   4.0546   4.1354   4.2453   4.6305
     5.0829   5.1863   5.1972   5.3729   6.0571   6.3139   6.4236   6.4322
     6.9628   6.9810

     the Fermi energy is     1.1045 ev

!    total energy              =   -2259.04164746 Ry
     Harris-Foulkes estimate   =   -2259.04163721 Ry
     estimated scf accuracy    <       0.00000054 Ry

     The total energy is the sum of the following terms:

     one-electron contribution =  -16769.27638459 Ry
     hartree contribution      =    8406.27069213 Ry
     xc contribution           =    -441.32349071 Ry
     ewald contribution        =    6545.36185231 Ry
     electric field correction =       0.00000047 Ry
     smearing contrib. (-TS)   =      -0.07431707 Ry

     total magnetization       =    34.54 Bohr mag/cell
     absolute magnetization    =    35.29 Bohr mag/cell

     convergence has been achieved in  29 iterations

 BEEF-vdW xc energy contributions
           1 :   -389.466927574339
           2 :    356.247728086498
           3 :   -299.713411191215
           4 :    234.618591248530
           5 :   -174.151880344277
           6 :    125.863055419601
           7 :   -91.2610948550596
           8 :    67.8966033205155
           9 :   -52.0015218100322
          10 :    40.3353957840433
          11 :   -30.8902606492438
          12 :    22.7757348771800
          13 :   -15.8338506518088
          14 :    10.2674609621420
          15 :   -6.28742082268877
          16 :    3.76844398335101
          17 :   -2.12402259181454
          18 :   0.564964098660312
          19 :    1.40487463032139
          20 :   -3.66843271813730
          21 :    5.61778503554808
          22 :   -6.63098818602964
          23 :    6.53097147506315
          24 :   -5.69739648668099
          25 :    4.76729776282468
          26 :   -4.18705579726492
          27 :    3.96502853846005
          28 :   -3.79440248711944
          29 :    3.39507627212498
          30 :   -2.78270338106671
          31 :   -33.0557867595471
          32 :   -23.6530394001362

     Forces acting on atoms (Ry/au):

     negative rho (up, down):  1.775E-03 1.679E-03
     atom    1 type  1   force =    -0.00000151   -0.00402674   -0.01816233
     atom    2 type  1   force =    -0.00348703    0.00201228   -0.01816299
     atom    3 type  1   force =     0.00348480    0.00201222   -0.01815561
     atom    4 type  2   force =     0.00000519    0.00000067   -0.02315372
     atom    5 type  1   force =    -0.00000342    0.00226167    0.01783472
     atom    6 type  1   force =     0.00195515   -0.00113408    0.01783488
     atom    7 type  1   force =    -0.00195389   -0.00112964    0.01782168
     atom    8 type  2   force =     0.00000148    0.00000506    0.02391187
     atom    9 type  1   force =     0.00005435    0.00034623    0.00019491
     atom   10 type  1   force =     0.00032854   -0.00012903    0.00019999
     atom   11 type  1   force =    -0.00032350   -0.00018866    0.00020011
     atom   12 type  2   force =    -0.00006016   -0.00002997   -0.00036352

     Total force =     0.055818     Total SCF correction =     0.004327

     entering subroutine stress ...

     negative rho (up, down):  1.775E-03 1.679E-03
          total   stress  (Ry/bohr**3)                   (kbar)     P=   14.40
   0.00011319   0.00000000   0.00000000         16.65      0.00      0.00
   0.00000000   0.00011319   0.00000000          0.00     16.65      0.00
   0.00000000   0.00000000   0.00006728          0.00      0.00      9.90

 !ASE

     Writing output data file calc.save

     General routines

     Parallel routines

   This run was terminated on:  19:40:44  30Dec2018

   JOB DONE.
Job  /afs/slac/g/suncat/bin/suncat-tsmpirun -x LD_LIBRARY_PATH -wdir /scratch/qe648566_J4KcJ pw.x -in pw.inp

TID   HOST_NAME   COMMAND_LINE            STATUS            TERMINATION_TIME
00000 suncat0096 pw.x -in pw.inp   Done                     12/30/2018 19:40:44
00001 suncat0096 pw.x -in pw.inp   Done                     12/30/2018 19:40:44
00002 suncat0096 pw.x -in pw.inp   Done                     12/30/2018 19:40:44
00003 suncat0096 pw.x -in pw.inp   Done                     12/30/2018 19:40:44
00004 suncat0096 pw.x -in pw.inp   Done                     12/30/2018 19:40:44
00005 suncat0096 pw.x -in pw.inp   Done                     12/30/2018 19:40:44
00006 suncat0096 pw.x -in pw.inp   Done                     12/30/2018 19:40:44
00007 suncat0096 pw.x -in pw.inp   Done                     12/30/2018 19:40:44
00008 suncat0095 pw.x -in pw.inp   Done                     12/30/2018 19:40:44
00009 suncat0095 pw.x -in pw.inp   Done                     12/30/2018 19:40:44
00010 suncat0095 pw.x -in pw.inp   Done                     12/30/2018 19:40:44
00011 suncat0095 pw.x -in pw.inp   Done                     12/30/2018 19:40:44
00012 suncat0095 pw.x -in pw.inp   Done                     12/30/2018 19:40:44
00013 suncat0095 pw.x -in pw.inp   Done                     12/30/2018 19:40:44
00014 suncat0095 pw.x -in pw.inp   Done                     12/30/2018 19:40:44
00015 suncat0095 pw.x -in pw.inp   Done                     12/30/2018 19:40:44
00016 suncat0094 pw.x -in pw.inp   Done                     12/30/2018 19:40:44
00017 suncat0094 pw.x -in pw.inp   Done                     12/30/2018 19:40:44
00018 suncat0094 pw.x -in pw.inp   Done                     12/30/2018 19:40:44
00019 suncat0094 pw.x -in pw.inp   Done                     12/30/2018 19:40:44
00020 suncat0094 pw.x -in pw.inp   Done                     12/30/2018 19:40:44
00021 suncat0094 pw.x -in pw.inp   Done                     12/30/2018 19:40:44
00022 suncat0094 pw.x -in pw.inp   Done                     12/30/2018 19:40:44
00023 suncat0094 pw.x -in pw.inp   Done                     12/30/2018 19:40:44
00024 suncat0093 pw.x -in pw.inp   Done                     12/30/2018 19:40:44
00025 suncat0093 pw.x -in pw.inp   Done                     12/30/2018 19:40:44
00026 suncat0093 pw.x -in pw.inp   Done                     12/30/2018 19:40:44
00027 suncat0093 pw.x -in pw.inp   Done                     12/30/2018 19:40:44
00028 suncat0093 pw.x -in pw.inp   Done                     12/30/2018 19:40:44
00029 suncat0093 pw.x -in pw.inp   Done                     12/30/2018 19:40:44
00030 suncat0093 pw.x -in pw.inp   Done                     12/30/2018 19:40:44
00031 suncat0093 pw.x -in pw.inp   Done                     12/30/2018 19:40:44
00032 suncat0234 pw.x -in pw.inp   Done                     12/30/2018 19:40:44
00033 suncat0234 pw.x -in pw.inp   Done                     12/30/2018 19:40:44
00034 suncat0234 pw.x -in pw.inp   Done                     12/30/2018 19:40:44
00035 suncat0234 pw.x -in pw.inp   Done                     12/30/2018 19:40:44
00036 suncat0234 pw.x -in pw.inp   Done                     12/30/2018 19:40:44
00037 suncat0234 pw.x -in pw.inp   Done                     12/30/2018 19:40:44
00038 suncat0234 pw.x -in pw.inp   Done                     12/30/2018 19:40:44
00039 suncat0234 pw.x -in pw.inp   Done                     12/30/2018 19:40:44
00040 suncat0233 pw.x -in pw.inp   Done                     12/30/2018 19:40:44
00041 suncat0233 pw.x -in pw.inp   Done                     12/30/2018 19:40:44
00042 suncat0233 pw.x -in pw.inp   Done                     12/30/2018 19:40:44
00043 suncat0233 pw.x -in pw.inp   Done                     12/30/2018 19:40:44
00044 suncat0233 pw.x -in pw.inp   Done                     12/30/2018 19:40:44
00045 suncat0233 pw.x -in pw.inp   Done                     12/30/2018 19:40:44
00046 suncat0233 pw.x -in pw.inp   Done                     12/30/2018 19:40:44
00047 suncat0233 pw.x -in pw.inp   Done                     12/30/2018 19:40:44
00048 suncat0222 pw.x -in pw.inp   Done                     12/30/2018 19:40:44
00049 suncat0222 pw.x -in pw.inp   Done                     12/30/2018 19:40:44
00050 suncat0222 pw.x -in pw.inp   Done                     12/30/2018 19:40:44
00051 suncat0222 pw.x -in pw.inp   Done                     12/30/2018 19:40:44
00052 suncat0222 pw.x -in pw.inp   Done                     12/30/2018 19:40:44
00053 suncat0222 pw.x -in pw.inp   Done                     12/30/2018 19:40:44
00054 suncat0222 pw.x -in pw.inp   Done                     12/30/2018 19:40:44
00055 suncat0222 pw.x -in pw.inp   Done                     12/30/2018 19:40:44
00056 suncat0221 pw.x -in pw.inp   Done                     12/30/2018 19:40:44
00057 suncat0221 pw.x -in pw.inp   Done                     12/30/2018 19:40:44
00058 suncat0221 pw.x -in pw.inp   Done                     12/30/2018 19:40:44
00059 suncat0221 pw.x -in pw.inp   Done                     12/30/2018 19:40:44
00060 suncat0221 pw.x -in pw.inp   Done                     12/30/2018 19:40:44
00061 suncat0221 pw.x -in pw.inp   Done                     12/30/2018 19:40:44
00062 suncat0221 pw.x -in pw.inp   Done                     12/30/2018 19:40:44
00063 suncat0221 pw.x -in pw.inp   Done                     12/30/2018 19:40:44