     Program PWSCF v.5.1rc2 (svn rev. 11289) starts on 26Dec2018 at 12:53:19

     Current dimensions of program PWSCF are:
     Max number of different atomic species (ntypx) = 10
     Max number of k-points (npk) =  40000
     Max angular momentum in pseudopotentials (lmaxx) =  3
     Presently stress not available with electric field

     IMPORTANT: XC functional enforced from input :
     Exchange-correlation      = BEEF-VDW ( 1  4 27 13 2)
     Any further DFT definition will be discarded
     Please, verify this is what you really want

     Subspace diagonalization in iterative solution of the eigenvalue problem:
     a serial algorithm will be used

     bravais-lattice index     =            0
     lattice parameter (alat)  =       1.8897  a.u.
     unit-cell volume          =    5555.0094 (a.u.)^3
     number of atoms/cell      =           12
     number of atomic types    =            2
     number of electrons       =       162.00
     number of Kohn-Sham states=          111
     kinetic-energy cutoff     =      36.7493  Ry
     charge density cutoff     =     367.4932  Ry
     convergence threshold     =      1.0E-06
     mixing beta               =       0.1000
     number of iterations used =           10  plain     mixing
     Exchange-correlation      = BEEF-VDW ( 1  4 27 13 2)
     nstep                     =           50

     celldm(1)=   1.889726  celldm(2)=   0.000000  celldm(3)=   0.000000
     celldm(4)=   0.000000  celldm(5)=   0.000000  celldm(6)=   0.000000

     crystal axes: (cart. coord. in units of alat)
               a(1) = (   6.162204   0.000000   0.000000 )
               a(2) = (  -3.081102   5.336625   0.000000 )
               a(3) = (   0.000000   0.000000  25.031418 )

     reciprocal axes: (cart. coord. in units 2 pi/alat)
               b(1) = (  0.162280  0.093692  0.000000 )
               b(2) = (  0.000000  0.187384  0.000000 )
               b(3) = (  0.000000  0.000000  0.039950 )

     PseudoPot. # 1 for In read from file:
     /afs/slac.stanford.edu/u/if/mamunm/psp/gbrv1.5pbe/In.UPF
     MD5 check sum: 90777abd96fbb83f2e67db2a40c566b9
     Pseudo is Ultrasoft + core correction, Zval = 13.0
     Generated by new atomic code, or converted to UPF format
     Using radial grid of  889 points,  6 beta functions with:
                l(1) =   0
                l(2) =   0
                l(3) =   1
                l(4) =   1
                l(5) =   2
                l(6) =   2
     Q(r) pseudized with  6 coefficients,  rinner =    1.400   1.400   1.400
                                                       1.400   1.400

     PseudoPot. # 2 for Re read from file:
     /afs/slac.stanford.edu/u/if/mamunm/psp/gbrv1.5pbe/Re.UPF
     MD5 check sum: 85f993410f3e006da9d71c142b4ad953
     Pseudo is Ultrasoft + core correction, Zval = 15.0
     Generated by new atomic code, or converted to UPF format
     Using radial grid of  981 points,  8 beta functions with:
                l(1) =   0
                l(2) =   0
                l(3) =   1
                l(4) =   1
                l(5) =   2
                l(6) =   2
                l(7) =   3
                l(8) =   3
     Q(r) pseudized with  8 coefficients,  rinner =    1.150   1.150   1.150
                                                       1.150   1.150   1.150
                                                       1.150

     vdW kernel table read from file vdW_kernel_table
     MD5 check sum: 095c7af220d748ca6e76c0b4c6cfb241

     atomic species   valence    mass     pseudopotential
        In1           13.00   114.81800     In( 1.00)
        Re1           15.00   186.20700     Re( 1.00)

     No symmetry found

   Cartesian axes

     site n.     atom                  positions (alat units)
         1           In1 tau(   1) = (   0.0000000   0.0000000  10.0000000  )
         2           In1 tau(   2) = (  -1.5405509   2.6683125  10.0000000  )
         3           In1 tau(   3) = (   1.5405509   2.6683125  10.0000000  )
         4           Re1 tau(   4) = (   3.0811019   0.0000000  10.0000000  )
         5           In1 tau(   5) = (   3.0811019   1.7788750  12.5157091  )
         6           In1 tau(   6) = (   1.5405509   4.4471875  12.5157091  )
         7           In1 tau(   7) = (  -1.5405509   4.4471875  12.5157091  )
         8           Re1 tau(   8) = (   0.0000000   1.7788750  12.5157091  )
         9           In1 tau(   9) = (  -0.0000000   3.5577500  15.0314183  )
        10           In1 tau(  10) = (   1.5405509   0.8894375  15.0314183  )
        11           In1 tau(  11) = (   4.6216528   0.8894375  15.0314183  )
        12           Re1 tau(  12) = (   3.0811019   3.5577500  15.0314183  )

     number of k points=    20  Fermi-Dirac smearing, width (Ry)=  0.0110
                       cart. coord. in units 2pi/alat
        k(    1) = (   0.0000000   0.0000000   0.0000000), wk =   0.0555556
        k(    2) = (   0.0000000   0.0312307   0.0000000), wk =   0.1111111
        k(    3) = (   0.0000000   0.0624614   0.0000000), wk =   0.1111111
        k(    4) = (   0.0000000  -0.0936922   0.0000000), wk =   0.0555556
        k(    5) = (   0.0270466   0.0156154   0.0000000), wk =   0.1111111
        k(    6) = (   0.0270466   0.0468461   0.0000000), wk =   0.1111111
        k(    7) = (   0.0270466   0.0780768   0.0000000), wk =   0.1111111
        k(    8) = (   0.0270466  -0.0780768   0.0000000), wk =   0.1111111
        k(    9) = (   0.0270466  -0.0468461   0.0000000), wk =   0.1111111
        k(   10) = (   0.0270466  -0.0156154   0.0000000), wk =   0.1111111
        k(   11) = (   0.0540932   0.0312307   0.0000000), wk =   0.1111111
        k(   12) = (   0.0540932   0.0624614   0.0000000), wk =   0.1111111
        k(   13) = (   0.0540932   0.0936922   0.0000000), wk =   0.1111111
        k(   14) = (   0.0540932  -0.0624614   0.0000000), wk =   0.1111111
        k(   15) = (   0.0540932  -0.0312307   0.0000000), wk =   0.1111111
        k(   16) = (   0.0540932   0.0000000   0.0000000), wk =   0.1111111
        k(   17) = (  -0.0811398  -0.0468461   0.0000000), wk =   0.0555556
        k(   18) = (  -0.0811398  -0.0156154   0.0000000), wk =   0.1111111
        k(   19) = (  -0.0811398   0.0156154   0.0000000), wk =   0.1111111
        k(   20) = (  -0.0811398  -0.1405383   0.0000000), wk =   0.0555556

     Largest allocated arrays     est. size (Mb)     dimensions
     Largest temporary arrays     est. size (Mb)     dimensions

     Initial potential from superposition of free atoms
     Check: negative starting charge=   -0.394220

     starting charge  146.99986, renormalised to  162.00000

     negative rho (up, down):  4.344E-01 0.000E+00

     *
     * You are using vdW-DF for exchange-correlation in this calculation.
     * Please cite the following three references that made this development
     * possible:
     *
     *   M. Dion, H. Rydberg, E. Schroder, D. C. Langreth, and
     *   B. I. Lundqvist, Phys. Rev. Lett. 92, 246401 (2004).
     *
     *   T. Thonhauser, V. R. Cooper, S. Li, A. Puzder, P. Hyldgaard, and
     *   D. C. Langreth, Phys. Rev. B 76, 125112 (2007).
     *
     *   G. Roman-Perez and J. M. Soler, Phys. Rev. Lett. 103, 096102 (2009).
     *
     *
     * If you are using vdW-DF2, please also cite:
     *
     *   K. Lee, E. D. Murray, L. Kong, B. I. Lundqvist, and
     *   D. C. Langreth, Phys. Rev. B 82, 081101(R) (2010).
     *
     *
     * If you are calculating the stress with vdW-DF, please also cite:
     *
     *   R. Sabatini, E. Kucukbenli, B. Kolb, T. Thonhauser, and
     *   S. de Gironcoli, J. Phys.: Condens. Matter 24, 424209 (2012).
     *

     Carrying out vdW-DF run using the following parameters:

     Nqs =      20    Nr_points =    1024   r_max =   100.000
     q_mesh =
               0.00001000     0.04494208     0.09755937     0.15916263
               0.23128650     0.31572767     0.41458969     0.53033537
               0.66584808     0.82450364     1.01025438     1.22772762
               1.48234092     1.78043706     2.12944203     2.53805004
               3.01644009     3.57652955     4.23227104     5.00000000

     Gradients computed in reciprocal space

     Adding external electric field

     Computed dipole along edir(3) :
        Dipole               -0.0000 Ry au,         -0.0000 Debye
        Dipole field         -0.0000 Ry au

        Potential amp.        0.0000 Ry
        Total length         46.1200 bohr

     Starting wfc are  120 randomized atomic wfcs

     Self-consistent Calculation

     iteration #  1     ecut=    36.75 Ry     beta=0.10
     Davidson diagonalization with overlap
     ethr =  1.00E-02,  avg # of iterations =  7.2

[...]

     total energy              =   -1788.40352093 Ry
     Harris-Foulkes estimate   =   -1798.92456196 Ry
     estimated scf accuracy    <      61.74002345 Ry

[...]

     End of self-consistent calculation

          k = 0.0000 0.0000 0.0000 ( 20887 PWs)   bands (ev):

   -79.0163 -79.0161 -78.8402 -40.7384 -40.7384 -40.7382 -40.7382 -40.6536
   -40.6533 -40.5892 -40.5892 -40.4891 -14.3566 -14.2848 -14.2801 -14.2801
   -14.1971 -14.1814 -14.0996 -14.0996 -14.0600 -14.0541 -14.0541 -14.0327
   -14.0327 -13.9996 -13.9502 -13.9502 -13.9417 -13.8544 -13.8465 -13.8294
   -13.8294 -13.8149 -13.8149 -13.7714 -13.7629 -13.7629 -13.6874 -13.6874
   -13.6868 -13.6868 -13.6524 -13.6492 -13.6492 -13.6375 -13.6375 -13.6011
   -13.6011 -13.5479 -13.5479 -13.5210 -13.5045 -13.5045 -13.5014 -13.3847
   -13.3835  -8.8051  -7.1700  -4.9556  -3.7958  -3.7958  -3.1501  -3.1501
    -2.7917  -2.2063  -2.2063  -2.1809  -1.4959  -1.3122  -1.3122  -0.8231
     0.0532   0.0532   0.0943   0.3310   0.3310   0.6058   0.6058   0.6853
     0.6853   0.9374   1.2515   1.2691   1.2691   1.6105   2.3747   2.3747
     2.3945   2.3945   2.4949   2.9090   3.0270   3.0270   3.8898   4.6782
     5.2044   5.4532   5.4532   5.6983   5.8388   5.8388   5.8543   6.2973
     6.4001   6.7699   7.6576   7.6576   7.7581   7.8387   8.4983

[...]

          k =-0.0811-0.0468 0.0000 ( 20856 PWs)   bands (ev):

[...]

     the Fermi energy is     1.1263 ev

!    total energy              =   -1788.86065624 Ry
     Harris-Foulkes estimate   =   -1788.86065283 Ry
     estimated scf accuracy    <       0.00000020 Ry

     The total energy is the sum of the following terms:

     one-electron contribution =  -11543.65503458 Ry
     hartree contribution      =    5827.55694925 Ry
     xc contribution           =    -514.54265688 Ry
     ewald contribution        =    4441.84238546 Ry
     electric field correction =       0.00000000 Ry
     smearing contrib. (-TS)   =      -0.06229950 Ry

     convergence has been achieved in  20 iterations

 BEEF-vdW xc energy contributions
           1 :   -452.698375631739
           2 :    416.232371552185
           3 :   -353.453505004611
           4 :    280.241215982252
           5 :   -211.889352551033
           6 :    157.929217470925
           7 :   -120.193872439660
           8 :    94.4809647776059
           9 :   -74.4377171447541
          10 :    55.3854657382757
          11 :   -36.2069922337657
          12 :    18.7582468716584
[...]
     MD5 check sum: 90777abd96fbb83f2e67db2a40c566b9
     Pseudo is Ultrasoft + core correction, Zval = 13.0
     Generated by new atomic code, or converted to UPF format
     Using radial grid of  889 points,  6 beta functions with:
                l(1) =   0
                l(2) =   0
                l(3) =   1
                l(4) =   1
                l(5) =   2
                l(6) =   2
     Q(r) pseudized with  6 coefficients,  rinner =    1.400   1.400   1.400
                                                       1.400   1.400

     PseudoPot. # 2 for Re read from file:
     /afs/slac.stanford.edu/u/if/mamunm/psp/gbrv1.5pbe/Re.UPF
     MD5 check sum: 85f993410f3e006da9d71c142b4ad953
     Pseudo is Ultrasoft + core correction, Zval = 15.0
     Generated by new atomic code, or converted to UPF format
     Using radial grid of  981 points,  8 beta functions with:
                l(1) =   0
                l(2) =   0
                l(3) =   1
                l(4) =   1
                l(5) =   2
                l(6) =   2
                l(7) =   3
                l(8) =   3
     Q(r) pseudized with  8 coefficients,  rinner =    1.150   1.150   1.150
                                                       1.150   1.150   1.150
                                                       1.150

     vdW kernel table read from file vdW_kernel_table
     MD5 check sum: 095c7af220d748ca6e76c0b4c6cfb241

     atomic species   valence    mass     pseudopotential
        In1           13.00   114.81800     In( 1.00)
        Re1           15.00   186.20700     Re( 1.00)

     No symmetry found

   Cartesian axes

     site n.     atom                  positions (alat units)
         1           In1 tau(   1) = (   0.0000000   0.0000000  10.0000000  )
         2           In1 tau(   2) = (  -1.5405509   2.6683125  10.0000000  )
         3           In1 tau(   3) = (   1.5405509   2.6683125  10.0000000  )
         4           Re1 tau(   4) = (   3.0811019   0.0000000  10.0000000  )
         5           In1 tau(   5) = (   3.0811019   1.7788750  12.5157091  )
         6           In1 tau(   6) = (   1.5405509   4.4471875  12.5157091  )
         7           In1 tau(   7) = (  -1.5405509   4.4471875  12.5157091  )
         8           Re1 tau(   8) = (   0.0000000   1.7788750  12.5157091  )
         9           In1 tau(   9) = (   0.0000181   3.5218808  15.2268553  )
        10           In1 tau(  10) = (   1.5094958   0.9073853  15.2268575  )
        11           In1 tau(  11) = (   4.6526986   0.9073685  15.2268669  )
        12           Re1 tau(  12) = (   3.0811306   3.5577551  14.7332805  )

     number of k points=    20  Fermi-Dirac smearing, width (Ry)=  0.0110
                       cart. coord. in units 2pi/alat
        k(    1) = (   0.0000000   0.0000000   0.0000000), wk =   0.0555556
        k(    2) = (   0.0000000   0.0312307   0.0000000), wk =   0.1111111
        k(    3) = (   0.0000000   0.0624614   0.0000000), wk =   0.1111111
        k(    4) = (   0.0000000  -0.0936922   0.0000000), wk =   0.0555556
        k(    5) = (   0.0270466   0.0156154   0.0000000), wk =   0.1111111
        k(    6) = (   0.0270466   0.0468461   0.0000000), wk =   0.1111111
        k(    7) = (   0.0270466   0.0780768   0.0000000), wk =   0.1111111
        k(    8) = (   0.0270466  -0.0780768   0.0000000), wk =   0.1111111
        k(    9) = (   0.0270466  -0.0468461   0.0000000), wk =   0.1111111
        k(   10) = (   0.0270466  -0.0156154   0.0000000), wk =   0.1111111
        k(   11) = (   0.0540932   0.0312307   0.0000000), wk =   0.1111111
        k(   12) = (   0.0540932   0.0624614   0.0000000), wk =   0.1111111
        k(   13) = (   0.0540932   0.0936922   0.0000000), wk =   0.1111111
        k(   14) = (   0.0540932  -0.0624614   0.0000000), wk =   0.1111111
        k(   15) = (   0.0540932  -0.0312307   0.0000000), wk =   0.1111111
        k(   16) = (   0.0540932   0.0000000   0.0000000), wk =   0.1111111
        k(   17) = (  -0.0811398  -0.0468461   0.0000000), wk =   0.0555556
        k(   18) = (  -0.0811398  -0.0156154   0.0000000), wk =   0.1111111
        k(   19) = (  -0.0811398   0.0156154   0.0000000), wk =   0.1111111
        k(   20) = (  -0.0811398  -0.1405383   0.0000000), wk =   0.0555556

     Largest allocated arrays     est. size (Mb)     dimensions
     Largest temporary arrays     est. size (Mb)     dimensions

     Initial potential from superposition of free atoms
     Check: negative starting charge=   -0.392222

     starting charge  146.99986, renormalised to  162.00000

[...]

     *
     * You are using vdW-DF for exchange-correlation in this calculation.
     * Please cite the following three references that made this development
     * possible:
     *
     *   M. Dion, H. Rydberg, E. Schroder, D. C. Langreth, and
     *   B. I. Lundqvist, Phys. Rev. Lett. 92, 246401 (2004).
     *
     *   T. Thonhauser, V. R. Cooper, S. Li, A. Puzder, P. Hyldgaard, and
     *   D. C. Langreth, Phys. Rev. B 76, 125112 (2007).
     *
     *   G. Roman-Perez and J. M. Soler, Phys. Rev. Lett. 103, 096102 (2009).
     *
     *
     * If you are using vdW-DF2, please also cite:
     *
     *   K. Lee, E. D. Murray, L. Kong, B. I. Lundqvist, and
     *   D. C. Langreth, Phys. Rev. B 82, 081101(R) (2010).
     *
     *
     * If you are calculating the stress with vdW-DF, please also cite:
     *
     *   R. Sabatini, E. Kucukbenli, B. Kolb, T. Thonhauser, and
     *   S. de Gironcoli, J. Phys.: Condens. Matter 24, 424209 (2012).
     *

     Carrying out vdW-DF run using the following parameters:

     Nqs =      20    Nr_points =    1024   r_max =   100.000
     q_mesh =
               0.00001000     0.04494208     0.09755937     0.15916263
               0.23128650     0.31572767     0.41458969     0.53033537
               0.66584808     0.82450364     1.01025438     1.22772762
               1.48234092     1.78043706     2.12944203     2.53805004
               3.01644009     3.57652955     4.23227104     5.00000000

     Gradients computed in reciprocal space

[...]

     Starting wfc are  120 randomized atomic wfcs

     Self-consistent Calculation

[...]

     total energy              =   -1788.90430884 Ry
     Harris-Foulkes estimate   =   -1788.90430642 Ry
     estimated scf accuracy    <       0.00000124 Ry

     iteration # 21     ecut=    36.75 Ry     beta=0.10
     Davidson diagonalization with overlap
     ethr =  7.68E-10,  avg # of iterations =  2.0

[...]

     negative rho (up, down):  3.792E-01 0.000E+00

     Adding external electric field

     Computed dipole along edir(3) :
        Dipole                0.0987 Ry au,          0.2508 Debye
        Dipole field          0.0002 Ry au

        Potential amp.       -0.0206 Ry
        Total length         46.1200 bohr

     End of self-consistent calculation

[...]

          k = 0.0541 0.0000 0.0000 ( 20893 PWs)   bands (ev):

[...]

          k =-0.0811-0.1405 0.0000 ( 20856 PWs)   bands (ev):

   -78.9610 -78.9397 -78.7515 -40.7023 -40.7021 -40.6549 -40.6546 -40.6199
   -40.5884 -40.4977 -40.4974 -40.3989 -14.1290 -14.0474 -14.0313 -14.0008
   -13.9846 -13.9587 -13.9271 -13.8999 -13.8978 -13.8803 -13.8551 -13.8390
   -13.8174 -13.7973 -13.7787 -13.7674 -13.7643 -13.7572 -13.7566 -13.7519
   -13.7163 -13.7120 -13.7044 -13.6943 -13.6910 -13.6821 -13.6757 -13.6699
   -13.6408 -13.6356 -13.6345 -13.6343 -13.6130 -13.6054 -13.6000 -13.5907
   -13.5836 -13.5788 -13.5521 -13.5460 -13.5114 -13.4970 -13.4446 -13.4196
   -13.3722  -7.2913  -6.9621  -5.6115  -5.5586  -4.5262  -4.1678  -3.6296
    -2.8899  -2.8603  -2.2185  -1.2862  -1.2306  -0.8805  -0.6156  -0.4770
    -0.4745  -0.4013   0.0760   0.2262   0.5882   0.7227   0.9102   1.1747
     1.2124   1.3978   1.6571   1.8379   1.8476   2.1910   2.6804   3.1940
     3.3219   3.4707   3.7363   4.0371   4.1562   4.4312   4.5922   4.6988
     4.7736   5.3140   5.7312   5.7551   5.8211   6.0345   6.2203   6.3463
     6.5259   6.8451   6.8468   6.8924   7.1270   7.3958   7.5372

     the Fermi energy is     1.2183 ev

!    total energy              =   -1788.90431250 Ry
     Harris-Foulkes estimate   =   -1788.90431125 Ry
     estimated scf accuracy    <       0.00000063 Ry

     The total energy is the sum of the following terms:

     one-electron contribution =  -11439.07066691 Ry
     hartree contribution      =    5775.74166760 Ry
     xc contribution           =    -514.51745704 Ry
     ewald contribution        =    4389.00654756 Ry
     electric field correction =       0.00002202 Ry
     smearing contrib. (-TS)   =      -0.06442573 Ry

     convergence has been achieved in  21 iterations

 BEEF-vdW xc energy contributions
           1 :   -452.977334800461
           2 :    416.478624983711
           3 :   -353.653649911432
           4 :    280.408972481956
           5 :   -212.053491475516
           6 :    158.108903431445
           7 :   -120.383180841757
           8 :    94.6560827874235
           9 :   -74.5802332339341
          10 :    55.5018225238948
          11 :   -36.3277003494659
          12 :    18.9161833353905
          13 :   -5.90994452042753
          14 :   -1.39682326207060
          15 :    3.90814458709883
          16 :   -4.05515528607509
          17 :    4.31097118173926
          18 :   -5.94307078357474
          19 :    8.69450085479070
          20 :   -11.3935342256106
          21 :    12.9351993009536
          22 :   -12.9741995079018
          23 :    11.9815716685353
          24 :   -10.7855718357681
          25 :    10.0063257529225
          26 :   -9.76223650740417
          27 :    9.75624301117841
          28 :   -9.58396180296859
          29 :    9.00974816649534
          30 :   -8.05532915828081
          31 :   -39.9419555345241
          32 :   -29.2299577348053

     Forces acting on atoms (Ry/au):

     negative rho (up, down):  3.792E-01 0.000E+00
     atom    1 type  1   force =     0.00000097    0.02002167   -0.02481983
     atom    2 type  1   force =     0.01733940   -0.01001054   -0.02482022
     atom    3 type  1   force =    -0.01733898   -0.01001098   -0.02482077
     atom    4 type  2   force =    -0.00000109    0.00000015    0.06487795
     atom    5 type  1   force =     0.00000156   -0.01902499   -0.00046014
     atom    6 type  1   force =    -0.01647499    0.00951317   -0.00045959
     atom    7 type  1   force =     0.01647760    0.00951211   -0.00046050
     atom    8 type  2   force =     0.00000031    0.00000108    0.01089785
     atom    9 type  1   force =    -0.00000455   -0.00034982    0.00003842
     atom   10 type  1   force =    -0.00030463    0.00016959    0.00003867
     atom   11 type  1   force =     0.00030748    0.00017771    0.00003926
     atom   12 type  2   force =    -0.00000307    0.00000085   -0.00005110

     Total force =     0.092008     Total SCF correction =     0.004084

     entering subroutine stress ...

     negative rho (up, down):  3.792E-01 0.000E+00
          total   stress  (Ry/bohr**3)                   (kbar)     P=  -16.22
  -0.00016400   0.00000000  -0.00000000        -24.13      0.00     -0.00
   0.00000000  -0.00016400  -0.00000000          0.00    -24.13     -0.00
  -0.00000000  -0.00000000  -0.00000272         -0.00     -0.00     -0.40

 !ASE

     Writing output data file calc.save

     General routines

     Parallel routines

   This run was terminated on:  15:37:12  26Dec2018

   JOB DONE.
Job  /afs/slac/g/suncat/bin/suncat-tsmpirun -x LD_LIBRARY_PATH -wdir /scratch/qe109891_wRG38 pw.x -in pw.inp

TID   HOST_NAME   COMMAND_LINE            STATUS            TERMINATION_TIME
00000 suncat0042 pw.x -in pw.inp   Done                     12/26/2018 15:37:12
00001 suncat0042 pw.x -in pw.inp   Done                     12/26/2018 15:37:12
00002 suncat0042 pw.x -in pw.inp   Done                     12/26/2018 15:37:12
00003 suncat0042 pw.x -in pw.inp   Done                     12/26/2018 15:37:12
00004 suncat0042 pw.x -in pw.inp   Done                     12/26/2018 15:37:12
00005 suncat0042 pw.x -in pw.inp   Done                     12/26/2018 15:37:12
00006 suncat0042 pw.x -in pw.inp   Done                     12/26/2018 15:37:12
00007 suncat0042 pw.x -in pw.inp   Done                     12/26/2018 15:37:12
00008 suncat0020 pw.x -in pw.inp   Done                     12/26/2018 15:37:12
00009 suncat0020 pw.x -in pw.inp   Done                     12/26/2018 15:37:12
00010 suncat0020 pw.x -in pw.inp   Done                     12/26/2018 15:37:12
00011 suncat0020 pw.x -in pw.inp   Done                     12/26/2018 15:37:12
00012 suncat0020 pw.x -in pw.inp   Done                     12/26/2018 15:37:12
00013 suncat0020 pw.x -in pw.inp   Done                     12/26/2018 15:37:12
00014 suncat0020 pw.x -in pw.inp   Done                     12/26/2018 15:37:12
00015 suncat0020 pw.x -in pw.inp   Done                     12/26/2018 15:37:12
00016 suncat0196 pw.x -in pw.inp   Done                     12/26/2018 15:37:12
00017 suncat0196 pw.x -in pw.inp   Done                     12/26/2018 15:37:12
00018 suncat0196 pw.x -in pw.inp   Done                     12/26/2018 15:37:12
00019 suncat0196 pw.x -in pw.inp   Done                     12/26/2018 15:37:12
00020 suncat0196 pw.x -in pw.inp   Done                     12/26/2018 15:37:12
00021 suncat0196 pw.x -in pw.inp   Done                     12/26/2018 15:37:12
00022 suncat0196 pw.x -in pw.inp   Done                     12/26/2018 15:37:12
00023 suncat0196 pw.x -in pw.inp   Done                     12/26/2018 15:37:12
00024 suncat0194 pw.x -in pw.inp   Done                     12/26/2018 15:37:12
00025 suncat0194 pw.x -in pw.inp   Done                     12/26/2018 15:37:12
00026 suncat0194 pw.x -in pw.inp   Done                     12/26/2018 15:37:12
00027 suncat0194 pw.x -in pw.inp   Done                     12/26/2018 15:37:12
00028 suncat0194 pw.x -in pw.inp   Done                     12/26/2018 15:37:12
00029 suncat0194 pw.x -in pw.inp   Done                     12/26/2018 15:37:12
00030 suncat0194 pw.x -in pw.inp   Done                     12/26/2018 15:37:12
00031 suncat0194 pw.x -in pw.inp   Done                     12/26/2018 15:37:12
00032 suncat0121 pw.x -in pw.inp   Done                     12/26/2018 15:37:12
00033 suncat0121 pw.x -in pw.inp   Done                     12/26/2018 15:37:12
00034 suncat0121 pw.x -in pw.inp   Done                     12/26/2018 15:37:12
00035 suncat0121 pw.x -in pw.inp   Done                     12/26/2018 15:37:12
00036 suncat0121 pw.x -in pw.inp   Done                     12/26/2018 15:37:12
00037 suncat0121 pw.x -in pw.inp   Done                     12/26/2018 15:37:12
00038 suncat0121 pw.x -in pw.inp   Done                     12/26/2018 15:37:12
00039 suncat0121 pw.x -in pw.inp   Done                     12/26/2018 15:37:12
00040 suncat0115 pw.x -in pw.inp   Done                     12/26/2018 15:37:12
00041 suncat0115 pw.x -in pw.inp   Done                     12/26/2018 15:37:12
00042 suncat0115 pw.x -in pw.inp   Done                     12/26/2018 15:37:12
00043 suncat0115 pw.x -in pw.inp   Done                     12/26/2018 15:37:12
00044 suncat0115 pw.x -in pw.inp   Done                     12/26/2018 15:37:12
00045 suncat0115 pw.x -in pw.inp   Done                     12/26/2018 15:37:12
00046 suncat0115 pw.x -in pw.inp   Done                     12/26/2018 15:37:12
00047 suncat0115 pw.x -in pw.inp   Done                     12/26/2018 15:37:12
00048 suncat0228 pw.x -in pw.inp   Done                     12/26/2018 15:37:12
00049 suncat0228 pw.x -in pw.inp   Done                     12/26/2018 15:37:12
00050 suncat0228 pw.x -in pw.inp   Done                     12/26/2018 15:37:12
00051 suncat0228 pw.x -in pw.inp   Done                     12/26/2018 15:37:12
00052 suncat0228 pw.x -in pw.inp   Done                     12/26/2018 15:37:12
00053 suncat0228 pw.x -in pw.inp   Done                     12/26/2018 15:37:12
00054 suncat0228 pw.x -in pw.inp   Done                     12/26/2018 15:37:12
00055 suncat0228 pw.x -in pw.inp   Done                     12/26/2018 15:37:12
00056 suncat0227 pw.x -in pw.inp   Done                     12/26/2018 15:37:12
00057 suncat0227 pw.x -in pw.inp   Done                     12/26/2018 15:37:12
00058 suncat0227 pw.x -in pw.inp   Done                     12/26/2018 15:37:12
00059 suncat0227 pw.x -in pw.inp   Done                     12/26/2018 15:37:12
00060 suncat0227 pw.x -in pw.inp   Done                     12/26/2018 15:37:12
00061 suncat0227 pw.x -in pw.inp   Done                     12/26/2018 15:37:12
00062 suncat0227 pw.x -in pw.inp   Done                     12/26/2018 15:37:12
00063 suncat0227 pw.x -in pw.inp   Done                     12/26/2018 15:37:12