     Program PWSCF v.5.1rc2 (svn rev. 11289) starts on  1Jan2019 at 22:44:48

     Current dimensions of program PWSCF are:
     Max number of different atomic species (ntypx) = 10
     Max number of k-points (npk) =  40000
     Max angular momentum in pseudopotentials (lmaxx) =  3
     Presently stress not available with electric field

     IMPORTANT: XC functional enforced from input :
     Exchange-correlation      = BEEF-VDW ( 1  4 27 13 2)
     Any further DFT definition will be discarded
     Please, verify this is what you really want

     Subspace diagonalization in iterative solution of the eigenvalue problem:
     a serial algorithm will be used

     bravais-lattice index     =            0
     lattice parameter (alat)  =       1.8897  a.u.
     unit-cell volume          =    4954.0939 (a.u.)^3
     number of atoms/cell      =           12
     number of atomic types    =            2
     number of electrons       =       147.00
     number of Kohn-Sham states=          103
     kinetic-energy cutoff     =      36.7493  Ry
     charge density cutoff     =     367.4932  Ry
     convergence threshold     =      1.0E-06
     mixing beta               =       0.1000
     number of iterations used =           10  plain     mixing
     Exchange-correlation      = BEEF-VDW ( 1  4 27 13 2)
     nstep                     =           50

     celldm(1)=   1.889726  celldm(2)=   0.000000  celldm(3)=   0.000000
     celldm(4)=   0.000000  celldm(5)=   0.000000  celldm(6)=   0.000000

     crystal axes: (cart. coord. in units of alat)
               a(1) = (   5.849295   0.000000   0.000000 )
               a(2) = (  -2.924647   5.065638   0.000000 )
               a(3) = (   0.000000   0.000000  24.775929 )

     reciprocal axes: (cart. coord. in units 2 pi/alat)
               b(1) = (  0.170961  0.098704  0.000000 )
               b(2) = (  0.000000  0.197408  0.000000 )
               b(3) = (  0.000000  0.000000  0.040362 )

     PseudoPot. # 1 for Ti read from file:
     /afs/slac.stanford.edu/u/if/mamunm/psp/gbrv1.5pbe/Ti.UPF
     MD5 check sum: 88a00a6731bd790ddea75d31a80cb452
     Pseudo is Ultrasoft + core correction, Zval = 12.0
     Generated by new atomic code, or converted to UPF format
     Using radial grid of  851 points,  6 beta functions with:
                l(1) =   0
                l(2) =   0
                l(3) =   1
                l(4) =   1
                l(5) =   2
                l(6) =   2
     Q(r) pseudized with  6 coefficients,  rinner =    1.000   1.000   1.000
                                                       1.000   1.000

     PseudoPot. # 2 for Nb read from file:
     /afs/slac.stanford.edu/u/if/mamunm/psp/gbrv1.5pbe/Nb.UPF
     MD5 check sum: 573aab8a2fa660278ed4a62cd769473f
     Pseudo is Ultrasoft + core correction, Zval = 13.0
     Generated by new atomic code, or converted to UPF format
     Using radial grid of  887 points,  6 beta functions with:
                l(1) =   0
                l(2) =   0
                l(3) =   1
                l(4) =   1
                l(5) =   2
                l(6) =   2
     Q(r) pseudized with  6 coefficients,  rinner =    1.000   1.000   1.000
                                                       1.000   1.000

     vdW kernel table read from file vdW_kernel_table
     MD5 check sum: 095c7af220d748ca6e76c0b4c6cfb241

     atomic species   valence    mass     pseudopotential
        Ti1           12.00    47.86700     Ti( 1.00)
        Nb1           13.00    92.90637     Nb( 1.00)

     No symmetry found

   Cartesian axes

     site n.     atom                  positions (alat units)
         1           Ti1 tau(   1) = (   0.0000000   0.0000000  10.0000000  )
         2           Ti1 tau(   2) = (  -1.4623237   2.5328190  10.0000000  )
         3           Ti1 tau(   3) = (   1.4623237   2.5328190  10.0000000  )
         4           Nb1 tau(   4) = (   2.9246475   0.0000000  10.0000000  )
         5           Ti1 tau(   5) = (   2.9246475   1.6885460  12.3879647  )
         6           Ti1 tau(   6) = (   1.4623237   4.2213650  12.3879647  )
         7           Ti1 tau(   7) = (  -1.4623237   4.2213650  12.3879647  )
         8           Nb1 tau(   8) = (   0.0000000   1.6885460  12.3879647  )
         9           Ti1 tau(   9) = (  -0.0000000   3.3770920  14.7759293  )
        10           Ti1 tau(  10) = (   1.4623237   0.8442730  14.7759293  )
        11           Ti1 tau(  11) = (   4.3869712   0.8442730  14.7759293  )
        12           Nb1 tau(  12) = (   2.9246475   3.3770920  14.7759293  )

     number of k points=    20  Fermi-Dirac smearing, width (Ry)=  0.0110
                       cart. coord. in units 2pi/alat
        k(    1) = (   0.0000000   0.0000000   0.0000000), wk =   0.0555556
        k(    2) = (   0.0000000   0.0329014   0.0000000), wk =   0.1111111
        k(    3) = (   0.0000000   0.0658028   0.0000000), wk =   0.1111111
        k(    4) = (   0.0000000  -0.0987042   0.0000000), wk =   0.0555556
        k(    5) = (   0.0284935   0.0164507   0.0000000), wk =   0.1111111
        k(    6) = (   0.0284935   0.0493521   0.0000000), wk =   0.1111111
        k(    7) = (   0.0284935   0.0822535   0.0000000), wk =   0.1111111
        k(    8) = (   0.0284935  -0.0822535   0.0000000), wk =   0.1111111
        k(    9) = (   0.0284935  -0.0493521   0.0000000), wk =   0.1111111
        k(   10) = (   0.0284935  -0.0164507   0.0000000), wk =   0.1111111
        k(   11) = (   0.0569869   0.0329014   0.0000000), wk =   0.1111111
        k(   12) = (   0.0569869   0.0658028   0.0000000), wk =   0.1111111
        k(   13) = (   0.0569869   0.0987042   0.0000000), wk =   0.1111111
        k(   14) = (   0.0569869  -0.0658028   0.0000000), wk =   0.1111111
        k(   15) = (   0.0569869  -0.0329014   0.0000000), wk =   0.1111111
        k(   16) = (   0.0569869   0.0000000   0.0000000), wk =   0.1111111
        k(   17) = (  -0.0854804  -0.0493521   0.0000000), wk =   0.0555556
        k(   18) = (  -0.0854804  -0.0164507   0.0000000), wk =   0.1111111
        k(   19) = (  -0.0854804   0.0164507   0.0000000), wk =   0.1111111
        k(   20) = (  -0.0854804  -0.1480564   0.0000000), wk =   0.0555556

     Largest allocated arrays     est. size (Mb)     dimensions
     Largest temporary arrays     est. size (Mb)     dimensions

     Check: negative/imaginary core charge=   -0.000005    0.000000

     Initial potential from superposition of free atoms
     Check: negative starting charge=   -0.011097

     starting charge  137.99140, renormalised to  147.00000

     negative rho (up, down):  1.182E-02 0.000E+00

     *
     * You are using vdW-DF for exchange-correlation in this calculation.
     * Please cite the following three references that made this development
     * possible:
     *
     *   M. Dion, H. Rydberg, E. Schroder, D. C. Langreth, and
     *   B. I. Lundqvist, Phys. Rev. Lett. 92, 246401 (2004).
     *
     *   T. Thonhauser, V. R. Cooper, S. Li, A. Puzder, P. Hyldgaard, and
     *   D. C. Langreth, Phys. Rev. B 76, 125112 (2007).
     *
     *   G. Roman-Perez and J. M. Soler, Phys. Rev. Lett. 103, 096102 (2009).
     *
     *
     * If you are using vdW-DF2, please also cite:
     *
     *   K. Lee, E. D. Murray, L. Kong, B. I. Lundqvist, and
     *   D. C. Langreth, Phys. Rev. B 82, 081101(R) (2010).
     *
     *
     * If you are calculating the stress with vdW-DF, please also cite:
     *
     *   R. Sabatini, E. Kucukbenli, B. Kolb, T. Thonhauser, and
     *   S. de Gironcoli, J. Phys.: Condens. Matter 24, 424209 (2012).
     *

     Carrying out vdW-DF run using the following parameters:

     Nqs =      20    Nr_points =    1024   r_max =   100.000
     q_mesh =
               0.00001000     0.04494208     0.09755937     0.15916263
               0.23128650     0.31572767     0.41458969     0.53033537
               0.66584808     0.82450364     1.01025438     1.22772762
               1.48234092     1.78043706     2.12944203     2.53805004
               3.01644009     3.57652955     4.23227104     5.00000000

     Gradients computed in reciprocal space

     Adding external electric field

     Computed dipole along edir(3) :
        Dipole                0.0000 Ry au,          0.0000 Debye
        Dipole field          0.0000 Ry au

        Potential amp.       -0.0000 Ry
        Total length         45.6492 bohr

     Starting wfc are  129 randomized atomic wfcs

     Self-consistent Calculation

     iteration #  1     ecut=    36.75 Ry     beta=0.10
     Davidson diagonalization with overlap
     ethr =  1.00E-02,  avg # of iterations =  3.5

[...]

     total energy              =   -1435.30271978 Ry
     Harris-Foulkes estimate   =   -1437.63370077 Ry
     estimated scf accuracy    <      13.55529874 Ry

[...]

     iteration # 13     ecut=    36.75 Ry     beta=0.10
     Davidson diagonalization with overlap
     c_bands:  1 eigenvalues not converged
     ethr =  3.00E-06,  avg # of iterations =  6.0

[...]

     End of self-consistent calculation

          k = 0.0000 0.0000 0.0000 ( 18739 PWs)   bands (ev):

   -56.1231 -56.1184 -56.0632 -56.0631 -56.0623 -56.0621 -55.9484 -55.8953
   -55.8953 -53.8753 -53.8747 -53.8513 -32.5641 -32.5371 -32.4882 -32.4523
   -32.4522 -32.4200 -32.4199 -32.4141 -32.4140 -32.3855 -32.3611 -32.3326
   -32.3325 -32.2007 -32.2007 -32.1857 -32.1717 -32.1132 -32.1131 -32.1095
   -32.1094 -32.1041 -32.0766 -32.0765 -32.0064 -31.9516 -31.9516 -29.9324
   -29.9042 -29.8700 -29.8640 -29.8640 -29.8574 -29.8574 -29.8392 -29.8392
    -4.4874  -3.1877  -2.1591  -1.8237  -1.8236  -1.6513  -1.6513  -1.2900
    -1.1864  -1.1863  -1.1793  -0.9340  -0.9340  -0.8073  -0.7462  -0.2246
    -0.2245   0.0919   0.6837   0.8574   0.9199   0.9199   1.1052   1.3090
     1.3429   1.5403   1.5403   1.5533   1.6107   1.6107   1.7850   1.7850
     1.8175   1.8175   1.8325   1.8325   1.8953   1.9018   2.1439   2.1439
     2.6319   2.7353   2.8217   2.8218   2.8867   2.8867   3.2281   3.2282
     3.4681   3.4682   3.4735   3.4736   3.8047   3.8321   4.1747

[...]

          k =-0.0855-0.0494 0.0000 ( 18616 PWs)   bands (ev):

[...]

     the Fermi energy is     0.9682 ev

!    total energy              =   -1434.41787857 Ry
     Harris-Foulkes estimate   =   -1434.41787780 Ry
     estimated scf accuracy    <       0.00000090 Ry

     The total energy is the sum of the following terms:

     one-electron contribution =  -10855.86303060 Ry
     hartree contribution      =    5413.98230366 Ry
     xc contribution           =    -225.46416256 Ry
     ewald contribution        =    4233.06250938 Ry
     electric field correction =       0.00000000 Ry
     smearing contrib. (-TS)   =      -0.13549845 Ry

     convergence has been achieved in  24 iterations

 BEEF-vdW xc energy contributions
           1 :   -193.616322512263
           2 :    173.773283983436
           3 :   -140.943078678466
           4 :    105.236633704160
           5 :   -75.2479830030393
           6 :    54.7706057199344
           7 :   -42.5374805934324
           8 :    34.4853743114290
           9 :   -26.7678075835938
          10 :    17.6984843268066
[...]
               b(3) = (  0.000000  0.000000  0.040362 )

     PseudoPot. # 1 for Ti read from file:
     /afs/slac.stanford.edu/u/if/mamunm/psp/gbrv1.5pbe/Ti.UPF
     MD5 check sum: 88a00a6731bd790ddea75d31a80cb452
     Pseudo is Ultrasoft + core correction, Zval = 12.0
     Generated by new atomic code, or converted to UPF format
     Using radial grid of  851 points,  6 beta functions with:
                l(1) =   0
                l(2) =   0
                l(3) =   1
                l(4) =   1
                l(5) =   2
                l(6) =   2
     Q(r) pseudized with  6 coefficients,  rinner =    1.000   1.000   1.000
                                                       1.000   1.000

     PseudoPot. # 2 for Nb read from file:
     /afs/slac.stanford.edu/u/if/mamunm/psp/gbrv1.5pbe/Nb.UPF
     MD5 check sum: 573aab8a2fa660278ed4a62cd769473f
     Pseudo is Ultrasoft + core correction, Zval = 13.0
     Generated by new atomic code, or converted to UPF format
     Using radial grid of  887 points,  6 beta functions with:
                l(1) =   0
                l(2) =   0
                l(3) =   1
                l(4) =   1
                l(5) =   2
                l(6) =   2
     Q(r) pseudized with  6 coefficients,  rinner =    1.000   1.000   1.000
                                                       1.000   1.000

     vdW kernel table read from file vdW_kernel_table
     MD5 check sum: 095c7af220d748ca6e76c0b4c6cfb241

     atomic species   valence    mass     pseudopotential
        Ti1           12.00    47.86700     Ti( 1.00)
        Nb1           13.00    92.90637     Nb( 1.00)

     No symmetry found

   Cartesian axes

     site n.     atom                  positions (alat units)
         1           Ti1 tau(   1) = (   0.0000000   0.0000000  10.0000000  )
         2           Ti1 tau(   2) = (  -1.4623237   2.5328190  10.0000000  )
         3           Ti1 tau(   3) = (   1.4623237   2.5328190  10.0000000  )
         4           Nb1 tau(   4) = (   2.9246475   0.0000000  10.0000000  )
         5           Ti1 tau(   5) = (   2.9246475   1.6885460  12.3879647  )
         6           Ti1 tau(   6) = (   1.4623237   4.2213650  12.3879647  )
         7           Ti1 tau(   7) = (  -1.4623237   4.2213650  12.3879647  )
         8           Nb1 tau(   8) = (   0.0000000   1.6885460  12.3879647  )
         9           Ti1 tau(   9) = (   0.0000083   3.4023689  14.7076107  )
        10           Ti1 tau(  10) = (   1.4841945   0.8316477  14.7076068  )
        11           Ti1 tau(  11) = (   4.3650867   0.8316258  14.7076080  )
        12           Nb1 tau(  12) = (   2.9246544   3.3770892  14.5989875  )

     number of k points=    20  Fermi-Dirac smearing, width (Ry)=  0.0110
                       cart. coord. in units 2pi/alat
        k(    1) = (   0.0000000   0.0000000   0.0000000), wk =   0.0555556
        k(    2) = (   0.0000000   0.0329014   0.0000000), wk =   0.1111111
        k(    3) = (   0.0000000   0.0658028   0.0000000), wk =   0.1111111
        k(    4) = (   0.0000000  -0.0987042   0.0000000), wk =   0.0555556
        k(    5) = (   0.0284935   0.0164507   0.0000000), wk =   0.1111111
        k(    6) = (   0.0284935   0.0493521   0.0000000), wk =   0.1111111
        k(    7) = (   0.0284935   0.0822535   0.0000000), wk =   0.1111111
        k(    8) = (   0.0284935  -0.0822535   0.0000000), wk =   0.1111111
        k(    9) = (   0.0284935  -0.0493521   0.0000000), wk =   0.1111111
        k(   10) = (   0.0284935  -0.0164507   0.0000000), wk =   0.1111111
        k(   11) = (   0.0569869   0.0329014   0.0000000), wk =   0.1111111
        k(   12) = (   0.0569869   0.0658028   0.0000000), wk =   0.1111111
        k(   13) = (   0.0569869   0.0987042   0.0000000), wk =   0.1111111
        k(   14) = (   0.0569869  -0.0658028   0.0000000), wk =   0.1111111
        k(   15) = (   0.0569869  -0.0329014   0.0000000), wk =   0.1111111
        k(   16) = (   0.0569869   0.0000000   0.0000000), wk =   0.1111111
        k(   17) = (  -0.0854804  -0.0493521   0.0000000), wk =   0.0555556
        k(   18) = (  -0.0854804  -0.0164507   0.0000000), wk =   0.1111111
        k(   19) = (  -0.0854804   0.0164507   0.0000000), wk =   0.1111111
        k(   20) = (  -0.0854804  -0.1480564   0.0000000), wk =   0.0555556

     Largest allocated arrays     est. size (Mb)     dimensions
     Largest temporary arrays     est. size (Mb)     dimensions

     Check: negative/imaginary core charge=   -0.000005    0.000000

     Initial potential from superposition of free atoms
     Check: negative starting charge=   -0.012221

     starting charge  137.99140, renormalised to  147.00000

[...]

     *
     * You are using vdW-DF for exchange-correlation in this calculation.
     * Please cite the following three references that made this development
     * possible:
     *
     *   M. Dion, H. Rydberg, E. Schroder, D. C. Langreth, and
     *   B. I. Lundqvist, Phys. Rev. Lett. 92, 246401 (2004).
     *
     *   T. Thonhauser, V. R. Cooper, S. Li, A. Puzder, P. Hyldgaard, and
     *   D. C. Langreth, Phys. Rev. B 76, 125112 (2007).
     *
     *   G. Roman-Perez and J. M. Soler, Phys. Rev. Lett. 103, 096102 (2009).
     *
     *
     * If you are using vdW-DF2, please also cite:
     *
     *   K. Lee, E. D. Murray, L. Kong, B. I. Lundqvist, and
     *   D. C. Langreth, Phys. Rev. B 82, 081101(R) (2010).
     *
     *
     * If you are calculating the stress with vdW-DF, please also cite:
     *
     *   R. Sabatini, E. Kucukbenli, B. Kolb, T. Thonhauser, and
     *   S. de Gironcoli, J. Phys.: Condens. Matter 24, 424209 (2012).
     *

     Carrying out vdW-DF run using the following parameters:

     Nqs =      20    Nr_points =    1024   r_max =   100.000
     q_mesh =
               0.00001000     0.04494208     0.09755937     0.15916263
               0.23128650     0.31572767     0.41458969     0.53033537
               0.66584808     0.82450364     1.01025438     1.22772762
               1.48234092     1.78043706     2.12944203     2.53805004
               3.01644009     3.57652955     4.23227104     5.00000000

     Gradients computed in reciprocal space

[...]

     Starting wfc are  129 randomized atomic wfcs

     Self-consistent Calculation

[...]

     total energy              =   -1434.42834668 Ry
     Harris-Foulkes estimate   =   -1434.42834653 Ry
     estimated scf accuracy    <       0.00000212 Ry

     iteration # 24     ecut=    36.75 Ry     beta=0.10
     Davidson diagonalization with overlap
     ethr =  1.30E-09,  avg # of iterations =  1.0

[...]

     negative rho (up, down):  8.421E-03 0.000E+00

     Adding external electric field

     Computed dipole along edir(3) :
        Dipole                0.0207 Ry au,          0.0526 Debye
        Dipole field          0.0001 Ry au

        Potential amp.       -0.0048 Ry
        Total length         45.6492 bohr

     End of self-consistent calculation

[...]

          k = 0.0570 0.0000 0.0000 ( 18649 PWs)   bands (ev):

[...]

          k =-0.0855-0.1481 0.0000 ( 18616 PWs)   bands (ev):

   -56.0975 -56.0842 -56.0756 -56.0656 -56.0570 -56.0462 -55.8758 -55.8585
   -55.8403 -53.8580 -53.8429 -53.7996 -32.4749 -32.4533 -32.4356 -32.4210
   -32.3947 -32.3873 -32.3605 -32.3515 -32.3285 -32.3202 -32.2947 -32.2923
   -32.2806 -32.2666 -32.2648 -32.2561 -32.2207 -32.1210 -32.1099 -32.0892
   -32.0710 -32.0558 -32.0451 -32.0400 -32.0359 -32.0170 -31.9131 -29.9034
   -29.8882 -29.8741 -29.8647 -29.8586 -29.8453 -29.8397 -29.8285 -29.8150
    -2.9934  -2.9011  -1.9283  -1.7456  -1.3108  -1.2060  -1.0875  -0.9415
    -0.8497  -0.6708  -0.4857  -0.3187  -0.2296  -0.1589  -0.1064   0.0655
     0.1618   0.1638   0.2750   0.3742   0.4206   0.5070   0.5495   0.6940
     0.7114   0.7643   0.8238   0.9299   1.0010   1.0437   1.0978   1.2335
     1.3773   1.5287   1.5749   1.5999   1.6628   1.7479   2.0615   2.0842
     2.3726   2.4144   2.6038   2.6148   2.6672   2.6934   2.8795   2.8820
     2.9155   2.9755   3.0060   3.1177   3.1552   3.1555   3.2726

     the Fermi energy is     0.9756 ev

!    total energy              =   -1434.42834754 Ry
     Harris-Foulkes estimate   =   -1434.42834683 Ry
     estimated scf accuracy    <       0.00000091 Ry

     The total energy is the sum of the following terms:

     one-electron contribution =  -11004.04739103 Ry
     hartree contribution      =    5488.20189996 Ry
     xc contribution           =    -225.61724363 Ry
     ewald contribution        =    4307.16619889 Ry
     electric field correction =       0.00000108 Ry
     smearing contrib. (-TS)   =      -0.13181282 Ry

     convergence has been achieved in  24 iterations

 BEEF-vdW xc energy contributions
           1 :   -193.875593070813
           2 :    174.081321603944
           3 :   -141.299469804231
           4 :    105.581482897340
           5 :   -75.5026927454417
           6 :    54.8974817912922
           7 :   -42.5722879428012
           8 :    34.5163213529742
           9 :   -26.8754884653136
          10 :    17.8997212092036
          11 :   -8.11977236397379
          12 :  -0.833845985837684
          13 :    7.68197220550002
          14 :   -12.2756143668397
          15 :    15.3878752043453
          16 :   -17.9142369593205
          17 :    20.1711149075930
          18 :   -21.7893486776861
          19 :    22.1683763914878
          20 :   -21.0526188940584
          21 :    18.7576789532760
          22 :   -15.9231183693313
          23 :    13.0493786374842
          24 :   -10.2160938816347
          25 :    7.17793851776838
          26 :   -3.71944181113622
          27 :  -4.239816952531328E-002
          28 :    3.64385269312641
          29 :   -6.54778016344846
          30 :    8.47943994756091
          31 :   -20.9892471492468
          32 :   -15.2008791272242

     Forces acting on atoms (Ry/au):

     negative rho (up, down):  8.421E-03 0.000E+00
     atom    1 type  1   force =    -0.00000039   -0.00308850    0.00774550
     atom    2 type  1   force =    -0.00267495    0.00154350    0.00775053
     atom    3 type  1   force =     0.00267567    0.00154493    0.00774444
     atom    4 type  2   force =    -0.00000062   -0.00000060    0.02253277
     atom    5 type  1   force =    -0.00000286   -0.00650436   -0.01409806
     atom    6 type  1   force =    -0.00563245    0.00324998   -0.01410026
     atom    7 type  1   force =     0.00563373    0.00325403   -0.01409699
     atom    8 type  2   force =    -0.00000327    0.00000089   -0.00050961
     atom    9 type  1   force =     0.00000052    0.00078769   -0.00065819
     atom   10 type  1   force =     0.00068586   -0.00039491   -0.00065959
     atom   11 type  1   force =    -0.00068219   -0.00039329   -0.00065629
     atom   12 type  2   force =     0.00000096    0.00000064   -0.00099426

     Total force =     0.038000     Total SCF correction =     0.001378

     entering subroutine stress ...

     negative rho (up, down):  8.421E-03 0.000E+00
          total   stress  (Ry/bohr**3)                   (kbar)     P=   -9.98
  -0.00007808  -0.00000001  -0.00000001        -11.49     -0.00     -0.00
  -0.00000001  -0.00007809   0.00000000         -0.00    -11.49      0.00
  -0.00000001   0.00000000  -0.00004739         -0.00      0.00     -6.97

 !ASE

     Writing output data file calc.save

     General routines

     Parallel routines

   This run was terminated on:  23:56:39   1Jan2019

   JOB DONE.
Job  /afs/slac/g/suncat/bin/suncat-tsmpirun -x LD_LIBRARY_PATH -wdir /scratch/qe649209_fyAVU pw.x -in pw.inp

TID   HOST_NAME   COMMAND_LINE            STATUS            TERMINATION_TIME
00000 suncat0010 pw.x -in pw.inp   Done                     01/01/2019 23:56:39
00001 suncat0010 pw.x -in pw.inp   Done                     01/01/2019 23:56:39
00002 suncat0010 pw.x -in pw.inp   Done                     01/01/2019 23:56:39
00003 suncat0010 pw.x -in pw.inp   Done                     01/01/2019 23:56:39
00004 suncat0010 pw.x -in pw.inp   Done                     01/01/2019 23:56:39
00005 suncat0010 pw.x -in pw.inp   Done                     01/01/2019 23:56:39
00006 suncat0010 pw.x -in pw.inp   Done                     01/01/2019 23:56:39
00007 suncat0010 pw.x -in pw.inp   Done                     01/01/2019 23:56:39
00008 suncat0191 pw.x -in pw.inp   Done                     01/01/2019 23:56:39
00009 suncat0191 pw.x -in pw.inp   Done                     01/01/2019 23:56:39
00010 suncat0191 pw.x -in pw.inp   Done                     01/01/2019 23:56:39
00011 suncat0191 pw.x -in pw.inp   Done                     01/01/2019 23:56:39
00012 suncat0191 pw.x -in pw.inp   Done                     01/01/2019 23:56:39
00013 suncat0191 pw.x -in pw.inp   Done                     01/01/2019 23:56:39
00014 suncat0191 pw.x -in pw.inp   Done                     01/01/2019 23:56:39
00015 suncat0191 pw.x -in pw.inp   Done                     01/01/2019 23:56:39
00016 suncat0007 pw.x -in pw.inp   Done                     01/01/2019 23:56:39
00017 suncat0007 pw.x -in pw.inp   Done                     01/01/2019 23:56:39
00018 suncat0007 pw.x -in pw.inp   Done                     01/01/2019 23:56:39
00019 suncat0007 pw.x -in pw.inp   Done                     01/01/2019 23:56:39
00020 suncat0007 pw.x -in pw.inp   Done                     01/01/2019 23:56:39
00021 suncat0007 pw.x -in pw.inp   Done                     01/01/2019 23:56:39
00022 suncat0007 pw.x -in pw.inp   Done                     01/01/2019 23:56:39
00023 suncat0007 pw.x -in pw.inp   Done                     01/01/2019 23:56:39
00024 suncat0180 pw.x -in pw.inp   Done                     01/01/2019 23:56:39
00025 suncat0180 pw.x -in pw.inp   Done                     01/01/2019 23:56:39
00026 suncat0180 pw.x -in pw.inp   Done                     01/01/2019 23:56:39
00027 suncat0180 pw.x -in pw.inp   Done                     01/01/2019 23:56:39
00028 suncat0180 pw.x -in pw.inp   Done                     01/01/2019 23:56:39
00029 suncat0180 pw.x -in pw.inp   Done                     01/01/2019 23:56:39
00030 suncat0180 pw.x -in pw.inp   Done                     01/01/2019 23:56:39
00031 suncat0180 pw.x -in pw.inp   Done                     01/01/2019 23:56:39
00032 suncat0167 pw.x -in pw.inp   Done                     01/01/2019 23:56:39
00033 suncat0167 pw.x -in pw.inp   Done                     01/01/2019 23:56:39
00034 suncat0167 pw.x -in pw.inp   Done                     01/01/2019 23:56:39
00035 suncat0167 pw.x -in pw.inp   Done                     01/01/2019 23:56:39
00036 suncat0167 pw.x -in pw.inp   Done                     01/01/2019 23:56:39
00037 suncat0167 pw.x -in pw.inp   Done                     01/01/2019 23:56:39
00038 suncat0167 pw.x -in pw.inp   Done                     01/01/2019 23:56:39
00039 suncat0167 pw.x -in pw.inp   Done                     01/01/2019 23:56:39
00040 suncat0161 pw.x -in pw.inp   Done                     01/01/2019 23:56:39
00041 suncat0161 pw.x -in pw.inp   Done                     01/01/2019 23:56:39
00042 suncat0161 pw.x -in pw.inp   Done                     01/01/2019 23:56:39
00043 suncat0161 pw.x -in pw.inp   Done                     01/01/2019 23:56:39
00044 suncat0161 pw.x -in pw.inp   Done                     01/01/2019 23:56:39
00045 suncat0161 pw.x -in pw.inp   Done                     01/01/2019 23:56:39
00046 suncat0161 pw.x -in pw.inp   Done                     01/01/2019 23:56:39
00047 suncat0161 pw.x -in pw.inp   Done                     01/01/2019 23:56:39
00048 suncat0137 pw.x -in pw.inp   Done                     01/01/2019 23:56:39
00049 suncat0137 pw.x -in pw.inp   Done                     01/01/2019 23:56:39
00050 suncat0137 pw.x -in pw.inp   Done                     01/01/2019 23:56:39
00051 suncat0137 pw.x -in pw.inp   Done                     01/01/2019 23:56:39
00052 suncat0137 pw.x -in pw.inp   Done                     01/01/2019 23:56:39
00053 suncat0137 pw.x -in pw.inp   Done                     01/01/2019 23:56:39
00054 suncat0137 pw.x -in pw.inp   Done                     01/01/2019 23:56:39
00055 suncat0137 pw.x -in pw.inp   Done                     01/01/2019 23:56:39
00056 suncat0100 pw.x -in pw.inp   Done                     01/01/2019 23:56:39
00057 suncat0100 pw.x -in pw.inp   Done                     01/01/2019 23:56:39
00058 suncat0100 pw.x -in pw.inp   Done                     01/01/2019 23:56:39
00059 suncat0100 pw.x -in pw.inp   Done                     01/01/2019 23:56:39
00060 suncat0100 pw.x -in pw.inp   Done                     01/01/2019 23:56:39
00061 suncat0100 pw.x -in pw.inp   Done                     01/01/2019 23:56:39
00062 suncat0100 pw.x -in pw.inp   Done                     01/01/2019 23:56:39
00063 suncat0100 pw.x -in pw.inp   Done                     01/01/2019 23:56:39