     Program PWSCF v.5.1rc2 (svn rev. 11289) starts on 30Dec2018 at 10:37:37

     Current dimensions of program PWSCF are:
     Max number of different atomic species (ntypx) = 10
     Max number of k-points (npk) =  40000
     Max angular momentum in pseudopotentials (lmaxx) =  3
     Presently stress not available with electric field

     IMPORTANT: XC functional enforced from input :
     Exchange-correlation      = BEEF-VDW ( 1  4 27 13 2)
     Any further DFT definition will be discarded
     Please, verify this is what you really want

     Subspace diagonalization in iterative solution of the eigenvalue problem:
     a serial algorithm will be used

     bravais-lattice index     =            0
     lattice parameter (alat)  =       1.8897  a.u.
     unit-cell volume          =    4277.9708 (a.u.)^3
     number of atoms/cell      =           12
     number of atomic types    =            2
     number of electrons       =       144.00
     number of Kohn-Sham states=          102
     kinetic-energy cutoff     =      36.7493  Ry
     charge density cutoff     =     367.4932  Ry
     convergence threshold     =      1.0E-06
     mixing beta               =       0.1000
     number of iterations used =           10  plain     mixing
     Exchange-correlation      = BEEF-VDW ( 1  4 27 13 2)
     nstep                     =           50

     celldm(1)=   1.889726  celldm(2)=   0.000000  celldm(3)=   0.000000
     celldm(4)=   0.000000  celldm(5)=   0.000000  celldm(6)=   0.000000

     crystal axes: (cart. coord. in units of alat)
               a(1) = (   5.469820   0.000000   0.000000 )
               a(2) = (  -2.734910   4.737003   0.000000 )
               a(3) = (   0.000000   0.000000  24.466089 )

     reciprocal axes: (cart. coord. in units 2 pi/alat)
               b(1) = (  0.182821  0.105552  0.000000 )
               b(2) = (  0.000000  0.211104  0.000000 )
               b(3) = (  0.000000  0.000000  0.040873 )

     PseudoPot. # 1 for Ir read from file:
     /afs/slac.stanford.edu/u/if/mamunm/psp/gbrv1.5pbe/Ir.UPF
     MD5 check sum: 8836f839c3459d2b385c504ce6d91f2c
     Pseudo is Ultrasoft + core correction, Zval = 15.0
     Generated by new atomic code, or converted to UPF format
     Using radial grid of  983 points,  7 beta functions with:
                l(1) =   0
                l(2) =   0
                l(3) =   1
                l(4) =   1
                l(5) =   1
                l(6) =   2
                l(7) =   2
     Q(r) pseudized with  8 coefficients,  rinner =    1.400   1.400   1.400
                                                       1.400   1.400

     PseudoPot. # 2 for Al read from file:
     /afs/slac.stanford.edu/u/if/mamunm/psp/gbrv1.5pbe/Al.UPF
     MD5 check sum: 0a6289f5291fc8f409219462bc851e1f
     Pseudo is Ultrasoft + core correction, Zval =  3.0
     Generated by new atomic code, or converted to UPF format
     Using radial grid of  893 points,  3 beta functions with:
                l(1) =   0
                l(2) =   1
                l(3) =   2
     Q(r) pseudized with  8 coefficients,  rinner =    0.900   0.900   0.900
                                                       0.900   0.900

     vdW kernel table read from file vdW_kernel_table
     MD5 check sum: 095c7af220d748ca6e76c0b4c6cfb241

     atomic species   valence    mass     pseudopotential
        Ir1           15.00   192.21700     Ir( 1.00)
        Al1            3.00    26.98154     Al( 1.00)

     No symmetry found

   Cartesian axes

     site n.     atom                  positions (alat units)
         1           Ir1 tau(   1) = (   0.0000000   0.0000000  10.0000000  )
         2           Ir1 tau(   2) = (  -1.3674549   2.3685014  10.0000000  )
         3           Ir1 tau(   3) = (   1.3674549   2.3685014  10.0000000  )
         4           Al1 tau(   4) = (   2.7349099   0.0000000  10.0000000  )
         5           Ir1 tau(   5) = (   2.7349099   1.5790009  12.2330446  )
         6           Ir1 tau(   6) = (   1.3674549   3.9475024  12.2330446  )
         7           Ir1 tau(   7) = (  -1.3674549   3.9475024  12.2330446  )
         8           Al1 tau(   8) = (   0.0000000   1.5790009  12.2330446  )
         9           Ir1 tau(   9) = (  -0.0000000   3.1580019  14.4660891  )
        10           Ir1 tau(  10) = (   1.3674549   0.7895005  14.4660891  )
        11           Ir1 tau(  11) = (   4.1023648   0.7895005  14.4660891  )
        12           Al1 tau(  12) = (   2.7349099   3.1580019  14.4660891  )

     number of k points=    20  Fermi-Dirac smearing, width (Ry)=  0.0110
                       cart. coord. in units 2pi/alat
        k(    1) = (   0.0000000   0.0000000   0.0000000), wk =   0.0555556
        k(    2) = (   0.0000000   0.0351840   0.0000000), wk =   0.1111111
        k(    3) = (   0.0000000   0.0703680   0.0000000), wk =   0.1111111
        k(    4) = (   0.0000000  -0.1055520   0.0000000), wk =   0.0555556
        k(    5) = (   0.0304702   0.0175920   0.0000000), wk =   0.1111111
        k(    6) = (   0.0304702   0.0527760   0.0000000), wk =   0.1111111
        k(    7) = (   0.0304702   0.0879600   0.0000000), wk =   0.1111111
        k(    8) = (   0.0304702  -0.0879600   0.0000000), wk =   0.1111111
        k(    9) = (   0.0304702  -0.0527760   0.0000000), wk =   0.1111111
        k(   10) = (   0.0304702  -0.0175920   0.0000000), wk =   0.1111111
        k(   11) = (   0.0609405   0.0351840   0.0000000), wk =   0.1111111
        k(   12) = (   0.0609405   0.0703680   0.0000000), wk =   0.1111111
        k(   13) = (   0.0609405   0.1055520   0.0000000), wk =   0.1111111
        k(   14) = (   0.0609405  -0.0703680   0.0000000), wk =   0.1111111
        k(   15) = (   0.0609405  -0.0351840   0.0000000), wk =   0.1111111
        k(   16) = (   0.0609405   0.0000000   0.0000000), wk =   0.1111111
        k(   17) = (  -0.0914107  -0.0527760   0.0000000), wk =   0.0555556
        k(   18) = (  -0.0914107  -0.0175920   0.0000000), wk =   0.1111111
        k(   19) = (  -0.0914107   0.0175920   0.0000000), wk =   0.1111111
        k(   20) = (  -0.0914107  -0.1583280   0.0000000), wk =   0.0555556

     Largest allocated arrays     est. size (Mb)     dimensions
     Largest temporary arrays     est. size (Mb)     dimensions

     Initial potential from superposition of free atoms
     Check: negative starting charge=   -3.268734

     starting charge  139.49232, renormalised to  144.00000

     negative rho (up, down):  3.374E+00 0.000E+00

     *
     * You are using vdW-DF for exchange-correlation in this calculation.
     * Please cite the following three references that made this development
     * possible:
     *
     *   M. Dion, H. Rydberg, E. Schroder, D. C. Langreth, and
     *   B. I. Lundqvist, Phys. Rev. Lett. 92, 246401 (2004).
     *
     *   T. Thonhauser, V. R. Cooper, S. Li, A. Puzder, P. Hyldgaard, and
     *   D. C. Langreth, Phys. Rev. B 76, 125112 (2007).
     *
     *   G. Roman-Perez and J. M. Soler, Phys. Rev. Lett. 103, 096102 (2009).
     *
     *
     * If you are using vdW-DF2, please also cite:
     *
     *   K. Lee, E. D. Murray, L. Kong, B. I. Lundqvist, and
     *   D. C. Langreth, Phys. Rev. B 82, 081101(R) (2010).
     *
     *
     * If you are calculating the stress with vdW-DF, please also cite:
     *
     *   R. Sabatini, E. Kucukbenli, B. Kolb, T. Thonhauser, and
     *   S. de Gironcoli, J. Phys.: Condens. Matter 24, 424209 (2012).
     *

     Carrying out vdW-DF run using the following parameters:

     Nqs =      20    Nr_points =    1024   r_max =   100.000
     q_mesh =
               0.00001000     0.04494208     0.09755937     0.15916263
               0.23128650     0.31572767     0.41458969     0.53033537
               0.66584808     0.82450364     1.01025438     1.22772762
               1.48234092     1.78043706     2.12944203     2.53805004
               3.01644009     3.57652955     4.23227104     5.00000000

     Gradients computed in reciprocal space

     Adding external electric field

     Computed dipole along edir(3) :
        Dipole                0.0000 Ry au,          0.0000 Debye
        Dipole field          0.0000 Ry au

        Potential amp.       -0.0000 Ry
        Total length         45.0784 bohr

     Starting wfc are  120 randomized atomic wfcs

     Self-consistent Calculation

     iteration #  1     ecut=    36.75 Ry     beta=0.10
     Davidson diagonalization with overlap
     ethr =  1.00E-02,  avg # of iterations =  7.3

[...]

     total energy              =   -1671.61636585 Ry
     Harris-Foulkes estimate   =   -1673.58693454 Ry
     estimated scf accuracy    <      12.60432316 Ry

[...]

     End of self-consistent calculation

          k = 0.0000 0.0000 0.0000 ( 16037 PWs)   bands (ev):

   -47.9639 -47.8194 -47.8194 -47.7657 -47.7235 -47.7235 -47.6136 -47.5797
   -47.5576 -47.4122 -47.4122 -47.3706 -47.3706 -47.3334 -47.3334 -47.2471
   -47.2057 -47.2057 -47.1927 -47.1769 -47.1769 -47.1003 -47.0926 -47.0811
   -47.0811 -47.0761 -47.0761  -8.0889  -6.1646  -5.7095  -4.9897  -4.6313
    -4.1926  -3.9897  -3.9897  -3.5414  -3.5180  -3.5180  -3.3486  -3.3486
    -2.9658  -2.9658  -2.7324  -1.8986  -1.8986  -1.5570  -1.5570  -1.4217
    -1.2806  -0.9496  -0.7774  -0.7774  -0.5811  -0.2863  -0.2863   0.0961
     0.0961   0.5317   0.6538   0.6538   0.7371   0.7371   0.8610   0.9649
     1.3010   1.3010   1.3305   1.3305   1.3840   1.3841   1.6307   1.6307
     2.3392   2.3916   2.3916   2.4588   3.0793   3.1124   3.1762   3.4883
     3.5543   3.7118   3.7118   4.0726   4.0726   5.6195   5.6966   5.7826
     6.1226   6.4025   7.3208   7.3397   7.6384   7.6384   7.7818   7.7818
     8.1794   8.3747   8.3747   9.4500   9.8089   9.9085

[...]

          k =-0.0914-0.0528 0.0000 ( 16144 PWs)   bands (ev):

[...]

     the Fermi energy is     1.5976 ev

!    total energy              =   -1670.70768849 Ry
     Harris-Foulkes estimate   =   -1670.70768903 Ry
     estimated scf accuracy    <       0.00000024 Ry

     The total energy is the sum of the following terms:

     one-electron contribution =  -11991.14850648 Ry
     hartree contribution      =    6018.25515872 Ry
     xc contribution           =    -481.35374462 Ry
     ewald contribution        =    4783.61499120 Ry
     electric field correction =       0.00000000 Ry
     smearing contrib. (-TS)   =      -0.07558730 Ry

     convergence has been achieved in  16 iterations

 BEEF-vdW xc energy contributions
           1 :   -425.584156183519
           2 :    395.139548692792
           3 :   -341.054238855699
           4 :    274.398075173032
           5 :   -206.933509794193
           6 :    147.994976169687
           7 :   -102.724555789280
           8 :    71.8601670617301
           9 :   -52.7445129212907
          10 :    40.9672744689863
          11 :   -32.0819064690944
          12 :    22.9590692125641
          13 :   -12.4829014521188
          14 :    1.45215444355131
          15 :    8.21447767096691
          16 :   -14.6169869144051
          17 :    16.8521703533053
          18 :   -15.4164892446785
          19 :    11.9191448692088
[...]
               b(1) = (  0.182821  0.105552  0.000000 )
               b(2) = (  0.000000  0.211104  0.000000 )
               b(3) = (  0.000000  0.000000  0.040873 )

     PseudoPot. # 1 for Ir read from file:
     /afs/slac.stanford.edu/u/if/mamunm/psp/gbrv1.5pbe/Ir.UPF
     MD5 check sum: 8836f839c3459d2b385c504ce6d91f2c
     Pseudo is Ultrasoft + core correction, Zval = 15.0
     Generated by new atomic code, or converted to UPF format
     Using radial grid of  983 points,  7 beta functions with:
                l(1) =   0
                l(2) =   0
                l(3) =   1
                l(4) =   1
                l(5) =   1
                l(6) =   2
                l(7) =   2
     Q(r) pseudized with  8 coefficients,  rinner =    1.400   1.400   1.400
                                                       1.400   1.400

     PseudoPot. # 2 for Al read from file:
     /afs/slac.stanford.edu/u/if/mamunm/psp/gbrv1.5pbe/Al.UPF
     MD5 check sum: 0a6289f5291fc8f409219462bc851e1f
     Pseudo is Ultrasoft + core correction, Zval =  3.0
     Generated by new atomic code, or converted to UPF format
     Using radial grid of  893 points,  3 beta functions with:
                l(1) =   0
                l(2) =   1
                l(3) =   2
     Q(r) pseudized with  8 coefficients,  rinner =    0.900   0.900   0.900
                                                       0.900   0.900

     vdW kernel table read from file vdW_kernel_table
     MD5 check sum: 095c7af220d748ca6e76c0b4c6cfb241

     atomic species   valence    mass     pseudopotential
        Ir1           15.00   192.21700     Ir( 1.00)
        Al1            3.00    26.98154     Al( 1.00)

     No symmetry found

   Cartesian axes

     site n.     atom                  positions (alat units)
         1           Ir1 tau(   1) = (   0.0000000   0.0000000  10.0000000  )
         2           Ir1 tau(   2) = (  -1.3674549   2.3685014  10.0000000  )
         3           Ir1 tau(   3) = (   1.3674549   2.3685014  10.0000000  )
         4           Al1 tau(   4) = (   2.7349099   0.0000000  10.0000000  )
         5           Ir1 tau(   5) = (   2.7349099   1.5790009  12.2330446  )
         6           Ir1 tau(   6) = (   1.3674549   3.9475024  12.2330446  )
         7           Ir1 tau(   7) = (  -1.3674549   3.9475024  12.2330446  )
         8           Al1 tau(   8) = (   0.0000000   1.5790009  12.2330446  )
         9           Ir1 tau(   9) = (   0.0000007   3.1422150  14.3839497  )
        10           Ir1 tau(  10) = (   1.3537835   0.7973927  14.3839500  )
        11           Ir1 tau(  11) = (   4.1160372   0.7973949  14.3839489  )
        12           Al1 tau(  12) = (   2.7349103   3.1580017  14.4298416  )

     number of k points=    20  Fermi-Dirac smearing, width (Ry)=  0.0110
                       cart. coord. in units 2pi/alat
        k(    1) = (   0.0000000   0.0000000   0.0000000), wk =   0.0555556
        k(    2) = (   0.0000000   0.0351840   0.0000000), wk =   0.1111111
        k(    3) = (   0.0000000   0.0703680   0.0000000), wk =   0.1111111
        k(    4) = (   0.0000000  -0.1055520   0.0000000), wk =   0.0555556
        k(    5) = (   0.0304702   0.0175920   0.0000000), wk =   0.1111111
        k(    6) = (   0.0304702   0.0527760   0.0000000), wk =   0.1111111
        k(    7) = (   0.0304702   0.0879600   0.0000000), wk =   0.1111111
        k(    8) = (   0.0304702  -0.0879600   0.0000000), wk =   0.1111111
        k(    9) = (   0.0304702  -0.0527760   0.0000000), wk =   0.1111111
        k(   10) = (   0.0304702  -0.0175920   0.0000000), wk =   0.1111111
        k(   11) = (   0.0609405   0.0351840   0.0000000), wk =   0.1111111
        k(   12) = (   0.0609405   0.0703680   0.0000000), wk =   0.1111111
        k(   13) = (   0.0609405   0.1055520   0.0000000), wk =   0.1111111
        k(   14) = (   0.0609405  -0.0703680   0.0000000), wk =   0.1111111
        k(   15) = (   0.0609405  -0.0351840   0.0000000), wk =   0.1111111
        k(   16) = (   0.0609405   0.0000000   0.0000000), wk =   0.1111111
        k(   17) = (  -0.0914107  -0.0527760   0.0000000), wk =   0.0555556
        k(   18) = (  -0.0914107  -0.0175920   0.0000000), wk =   0.1111111
        k(   19) = (  -0.0914107   0.0175920   0.0000000), wk =   0.1111111
        k(   20) = (  -0.0914107  -0.1583280   0.0000000), wk =   0.0555556

     Largest allocated arrays     est. size (Mb)     dimensions
     Largest temporary arrays     est. size (Mb)     dimensions

     Initial potential from superposition of free atoms
     Check: negative starting charge=   -3.266086

     starting charge  139.49232, renormalised to  144.00000

[...]

     *
     * You are using vdW-DF for exchange-correlation in this calculation.
     * Please cite the following three references that made this development
     * possible:
     *
     *   M. Dion, H. Rydberg, E. Schroder, D. C. Langreth, and
     *   B. I. Lundqvist, Phys. Rev. Lett. 92, 246401 (2004).
     *
     *   T. Thonhauser, V. R. Cooper, S. Li, A. Puzder, P. Hyldgaard, and
     *   D. C. Langreth, Phys. Rev. B 76, 125112 (2007).
     *
     *   G. Roman-Perez and J. M. Soler, Phys. Rev. Lett. 103, 096102 (2009).
     *
     *
     * If you are using vdW-DF2, please also cite:
     *
     *   K. Lee, E. D. Murray, L. Kong, B. I. Lundqvist, and
     *   D. C. Langreth, Phys. Rev. B 82, 081101(R) (2010).
     *
     *
     * If you are calculating the stress with vdW-DF, please also cite:
     *
     *   R. Sabatini, E. Kucukbenli, B. Kolb, T. Thonhauser, and
     *   S. de Gironcoli, J. Phys.: Condens. Matter 24, 424209 (2012).
     *

     Carrying out vdW-DF run using the following parameters:

     Nqs =      20    Nr_points =    1024   r_max =   100.000
     q_mesh =
               0.00001000     0.04494208     0.09755937     0.15916263
               0.23128650     0.31572767     0.41458969     0.53033537
               0.66584808     0.82450364     1.01025438     1.22772762
               1.48234092     1.78043706     2.12944203     2.53805004
               3.01644009     3.57652955     4.23227104     5.00000000

     Gradients computed in reciprocal space

[...]

     Starting wfc are  120 randomized atomic wfcs

     Self-consistent Calculation

[...]

     total energy              =   -1670.71448838 Ry
     Harris-Foulkes estimate   =   -1670.71447694 Ry
     estimated scf accuracy    <       0.00000120 Ry

     iteration # 16     ecut=    36.75 Ry     beta=0.10
     Davidson diagonalization with overlap
     ethr =  8.35E-10,  avg # of iterations =  2.8

[...]

     negative rho (up, down):  2.924E+00 0.000E+00

     Adding external electric field

     Computed dipole along edir(3) :
        Dipole                0.0049 Ry au,          0.0124 Debye
        Dipole field          0.0000 Ry au

        Potential amp.       -0.0013 Ry
        Total length         45.0784 bohr

     End of self-consistent calculation

[...]

          k = 0.0609 0.0000 0.0000 ( 16110 PWs)   bands (ev):

[...]

          k =-0.0914-0.1583 0.0000 ( 16144 PWs)   bands (ev):

   -47.9177 -47.8379 -47.7907 -47.7844 -47.7184 -47.6894 -47.6721 -47.6139
   -47.5065 -47.4544 -47.4538 -47.3582 -47.3065 -47.2819 -47.2703 -47.2395
   -47.2354 -47.2244 -47.2148 -47.2062 -47.2060 -47.1781 -47.1644 -47.1450
   -47.1432 -47.1044 -47.0553  -6.3771  -6.3059  -4.7591  -4.6933  -4.3554
    -4.2774  -3.9423  -3.8002  -3.2166  -3.0615  -2.9815  -2.9083  -2.7699
    -2.7511  -2.6162  -2.4268  -2.2995  -2.1819  -1.8515  -1.7303  -1.6436
    -1.3582  -1.2862  -1.2484  -1.1370  -0.9944  -0.9155  -0.8441  -0.7678
    -0.6947  -0.6389  -0.4412  -0.3769   0.0019   0.1444   0.3078   0.4187
     0.4260   0.4372   0.5164   0.8291   0.8882   1.0490   1.0841   1.1318
     1.5527   1.6469   1.9137   2.3492   2.4265   2.5886   3.0806   3.5425
     4.5785   4.7162   4.8146   5.1200   5.4573   5.9861   7.1743   7.1948
     7.4654   7.7428   7.7894   7.8587   7.9910   8.0961   8.3744   8.5858
     8.8090   8.8714   8.9061   9.0169   9.1473   9.4990

     the Fermi energy is     1.6131 ev

!    total energy              =   -1670.71450432 Ry
     Harris-Foulkes estimate   =   -1670.71448868 Ry
     estimated scf accuracy    <       0.00000018 Ry

     The total energy is the sum of the following terms:

     one-electron contribution =  -12125.06973960 Ry
     hartree contribution      =    6085.18124580 Ry
     xc contribution           =    -481.50140062 Ry
     ewald contribution        =    4850.74807048 Ry
     electric field correction =       0.00000007 Ry
     smearing contrib. (-TS)   =      -0.07268045 Ry

     convergence has been achieved in  16 iterations

 BEEF-vdW xc energy contributions
           1 :   -425.735778882524
           2 :    395.349884151079
           3 :   -341.342577471356
           4 :    274.729657934648
           5 :   -207.235947611303
           6 :    148.193282838199
           7 :   -102.775340216302
           8 :    71.7702346590773
           9 :   -52.5689404990301
          10 :    40.7900998384908
          11 :   -31.9858025313262
          12 :    22.9921209393224
          13 :   -12.6348469576856
          14 :    1.65379619395657
          15 :    8.06314970078722
          16 :   -14.5997743773175
          17 :    16.9937216915458
          18 :   -15.6676445072191
          19 :    12.1798307855857
          20 :   -8.50432743580456
          21 :    6.23005480737942
          22 :   -6.03232838043431
          23 :    7.57972360661830
          24 :   -9.83297228355832
          25 :    11.5574977981684
          26 :   -11.8394916934163
          27 :    10.4274039603544
          28 :   -7.79434852948231
          29 :    4.90778971709580
          30 :   -2.79977894048494
          31 :   -37.1075885420506
          32 :   -27.7751706708704

     Forces acting on atoms (Ry/au):

     negative rho (up, down):  2.924E+00 0.000E+00
     atom    1 type  1   force =     0.00000005    0.00992952    0.02212362
     atom    2 type  1   force =     0.00859910   -0.00496483    0.02212389
     atom    3 type  1   force =    -0.00859897   -0.00496463    0.02212377
     atom    4 type  2   force =     0.00000003   -0.00000006    0.00604773
     atom    5 type  1   force =    -0.00000007    0.00693074   -0.01889583
     atom    6 type  1   force =     0.00600252   -0.00346503   -0.01889589
     atom    7 type  1   force =    -0.00600224   -0.00346549   -0.01889575
     atom    8 type  2   force =     0.00000018   -0.00000000   -0.01513373
     atom    9 type  1   force =     0.00000014    0.00004220    0.00035036
     atom   10 type  1   force =     0.00003628   -0.00002092    0.00035034
     atom   11 type  1   force =    -0.00003690   -0.00002140    0.00035061
     atom   12 type  2   force =    -0.00000013   -0.00000010   -0.00164912

     Total force =     0.056992     Total SCF correction =     0.002262

     entering subroutine stress ...

     negative rho (up, down):  2.924E+00 0.000E+00
          total   stress  (Ry/bohr**3)                   (kbar)     P=  -24.73
  -0.00019901  -0.00000000   0.00000000        -29.28     -0.00      0.00
  -0.00000000  -0.00019901   0.00000000         -0.00    -29.28      0.00
   0.00000000   0.00000000  -0.00010636          0.00      0.00    -15.65

 !ASE

     Writing output data file calc.save

     General routines

     Parallel routines

   This run was terminated on:  11:39:58  30Dec2018

   JOB DONE.
Job  /afs/slac/g/suncat/bin/suncat-tsmpirun -x LD_LIBRARY_PATH -wdir /scratch/qe648515_CydIi pw.x -in pw.inp

TID   HOST_NAME   COMMAND_LINE            STATUS            TERMINATION_TIME
00000 suncat0156 pw.x -in pw.inp   Done                     12/30/2018 11:39:58
00001 suncat0156 pw.x -in pw.inp   Done                     12/30/2018 11:39:58
00002 suncat0156 pw.x -in pw.inp   Done                     12/30/2018 11:39:58
00003 suncat0156 pw.x -in pw.inp   Done                     12/30/2018 11:39:58
00004 suncat0156 pw.x -in pw.inp   Done                     12/30/2018 11:39:58
00005 suncat0156 pw.x -in pw.inp   Done                     12/30/2018 11:39:58
00006 suncat0156 pw.x -in pw.inp   Done                     12/30/2018 11:39:58
00007 suncat0156 pw.x -in pw.inp   Done                     12/30/2018 11:39:58
00008 suncat0153 pw.x -in pw.inp   Done                     12/30/2018 11:39:58
00009 suncat0153 pw.x -in pw.inp   Done                     12/30/2018 11:39:58
00010 suncat0153 pw.x -in pw.inp   Done                     12/30/2018 11:39:58
00011 suncat0153 pw.x -in pw.inp   Done                     12/30/2018 11:39:58
00012 suncat0153 pw.x -in pw.inp   Done                     12/30/2018 11:39:58
00013 suncat0153 pw.x -in pw.inp   Done                     12/30/2018 11:39:58
00014 suncat0153 pw.x -in pw.inp   Done                     12/30/2018 11:39:58
00015 suncat0153 pw.x -in pw.inp   Done                     12/30/2018 11:39:58
00016 suncat0145 pw.x -in pw.inp   Done                     12/30/2018 11:39:58
00017 suncat0145 pw.x -in pw.inp   Done                     12/30/2018 11:39:58
00018 suncat0145 pw.x -in pw.inp   Done                     12/30/2018 11:39:58
00019 suncat0145 pw.x -in pw.inp   Done                     12/30/2018 11:39:58
00020 suncat0145 pw.x -in pw.inp   Done                     12/30/2018 11:39:58
00021 suncat0145 pw.x -in pw.inp   Done                     12/30/2018 11:39:58
00022 suncat0145 pw.x -in pw.inp   Done                     12/30/2018 11:39:58
00023 suncat0145 pw.x -in pw.inp   Done                     12/30/2018 11:39:58
00024 suncat0144 pw.x -in pw.inp   Done                     12/30/2018 11:39:58
00025 suncat0144 pw.x -in pw.inp   Done                     12/30/2018 11:39:58
00026 suncat0144 pw.x -in pw.inp   Done                     12/30/2018 11:39:58
00027 suncat0144 pw.x -in pw.inp   Done                     12/30/2018 11:39:58
00028 suncat0144 pw.x -in pw.inp   Done                     12/30/2018 11:39:58
00029 suncat0144 pw.x -in pw.inp   Done                     12/30/2018 11:39:58
00030 suncat0144 pw.x -in pw.inp   Done                     12/30/2018 11:39:58
00031 suncat0144 pw.x -in pw.inp   Done                     12/30/2018 11:39:58
00032 suncat0133 pw.x -in pw.inp   Done                     12/30/2018 11:39:58
00033 suncat0133 pw.x -in pw.inp   Done                     12/30/2018 11:39:58
00034 suncat0133 pw.x -in pw.inp   Done                     12/30/2018 11:39:58
00035 suncat0133 pw.x -in pw.inp   Done                     12/30/2018 11:39:58
00036 suncat0133 pw.x -in pw.inp   Done                     12/30/2018 11:39:58
00037 suncat0133 pw.x -in pw.inp   Done                     12/30/2018 11:39:58
00038 suncat0133 pw.x -in pw.inp   Done                     12/30/2018 11:39:58
00039 suncat0133 pw.x -in pw.inp   Done                     12/30/2018 11:39:58
00040 suncat0132 pw.x -in pw.inp   Done                     12/30/2018 11:39:58
00041 suncat0132 pw.x -in pw.inp   Done                     12/30/2018 11:39:58
00042 suncat0132 pw.x -in pw.inp   Done                     12/30/2018 11:39:58
00043 suncat0132 pw.x -in pw.inp   Done                     12/30/2018 11:39:58
00044 suncat0132 pw.x -in pw.inp   Done                     12/30/2018 11:39:58
00045 suncat0132 pw.x -in pw.inp   Done                     12/30/2018 11:39:58
00046 suncat0132 pw.x -in pw.inp   Done                     12/30/2018 11:39:58
00047 suncat0132 pw.x -in pw.inp   Done                     12/30/2018 11:39:58
00048 suncat0131 pw.x -in pw.inp   Done                     12/30/2018 11:39:58
00049 suncat0131 pw.x -in pw.inp   Done                     12/30/2018 11:39:58
00050 suncat0131 pw.x -in pw.inp   Done                     12/30/2018 11:39:58
00051 suncat0131 pw.x -in pw.inp   Done                     12/30/2018 11:39:58
00052 suncat0131 pw.x -in pw.inp   Done                     12/30/2018 11:39:58
00053 suncat0131 pw.x -in pw.inp   Done                     12/30/2018 11:39:58
00054 suncat0131 pw.x -in pw.inp   Done                     12/30/2018 11:39:58
00055 suncat0131 pw.x -in pw.inp   Done                     12/30/2018 11:39:58
00056 suncat0130 pw.x -in pw.inp   Done                     12/30/2018 11:39:58
00057 suncat0130 pw.x -in pw.inp   Done                     12/30/2018 11:39:58
00058 suncat0130 pw.x -in pw.inp   Done                     12/30/2018 11:39:58
00059 suncat0130 pw.x -in pw.inp   Done                     12/30/2018 11:39:58
00060 suncat0130 pw.x -in pw.inp   Done                     12/30/2018 11:39:58
00061 suncat0130 pw.x -in pw.inp   Done                     12/30/2018 11:39:58
00062 suncat0130 pw.x -in pw.inp   Done                     12/30/2018 11:39:58
00063 suncat0130 pw.x -in pw.inp   Done                     12/30/2018 11:39:58