     Program PWSCF v.5.1rc2 (svn rev. 11289) starts on 18Dec2018 at 16:49:44

     Current dimensions of program PWSCF are:
     Max number of different atomic species (ntypx) = 10
     Max number of k-points (npk) =  40000
     Max angular momentum in pseudopotentials (lmaxx) =  3
     Presently stress not available with electric field

     IMPORTANT: XC functional enforced from input :
     Exchange-correlation      = BEEF-VDW ( 1  4 27 13 2)
     Any further DFT definition will be discarded
     Please, verify this is what you really want

     Subspace diagonalization in iterative solution of the eigenvalue problem:
     a serial algorithm will be used

     Found symmetry operation: I + ( -0.5000  0.5000  0.0000)
     This is a supercell, fractional translations are disabled

     bravais-lattice index     =            0
     lattice parameter (alat)  =       1.8897  a.u.
     unit-cell volume          =    6453.8967 (a.u.)^3
     number of atoms/cell      =           12
     number of atomic types    =            2
     number of electrons       =       180.00
     number of Kohn-Sham states=          120
     kinetic-energy cutoff     =      36.7493  Ry
     charge density cutoff     =     367.4932  Ry
     convergence threshold     =      1.0E-06
     mixing beta               =       0.1000
     number of iterations used =           10  plain     mixing
     Exchange-correlation      = BEEF-VDW ( 1  4 27 13 2)
     nstep                     =           50

     celldm(1)=   1.889726  celldm(2)=   0.000000  celldm(3)=   0.000000
     celldm(4)=   0.000000  celldm(5)=   0.000000  celldm(6)=   0.000000

     crystal axes: (cart. coord. in units of alat)
               a(1) = (   6.347128   0.000000   0.000000 )
               a(2) = (   2.118165   5.983261   0.000000 )
               a(3) = (   0.000000   0.000000  25.183158 )

     reciprocal axes: (cart. coord. in units 2 pi/alat)
               b(1) = (  0.157552 -0.055776  0.000000 )
               b(2) = (  0.000000  0.167133  0.000000 )
               b(3) = (  0.000000  0.000000  0.039709 )

     PseudoPot. # 1 for Ag read from file:
     /afs/slac.stanford.edu/u/if/mamunm/psp/gbrv1.5pbe/Ag.UPF
     MD5 check sum: d66d668201baa78d5eb5b04ef7011058
     Pseudo is Ultrasoft + core correction, Zval = 19.0
     Generated by new atomic code, or converted to UPF format
     Using radial grid of  887 points,  6 beta functions with:
                l(1) =   0
                l(2) =   0
                l(3) =   1
                l(4) =   1
                l(5) =   2
                l(6) =   2
     Q(r) pseudized with  6 coefficients,  rinner =    1.300   1.300   1.300
                                                       1.300   1.300

     PseudoPot. # 2 for Y  read from file:
     /afs/slac.stanford.edu/u/if/mamunm/psp/gbrv1.5pbe/Y.UPF
     MD5 check sum: d034151ed7554c50b6e82763ed42c788
     Pseudo is Ultrasoft + core correction, Zval = 11.0
     Generated by new atomic code, or converted to UPF format
     Using radial grid of  885 points,  6 beta functions with:
                l(1) =   0
                l(2) =   0
                l(3) =   1
                l(4) =   1
                l(5) =   2
                l(6) =   2
     Q(r) pseudized with  8 coefficients,  rinner =    1.200   1.200   1.200
                                                       1.200   1.200

     vdW kernel table read from file vdW_kernel_table
     MD5 check sum: 095c7af220d748ca6e76c0b4c6cfb241

     atomic species   valence    mass     pseudopotential
        Ag1           19.00   107.86820     Ag( 1.00)
        Y1            11.00    88.90584     Y ( 1.00)

     No symmetry found

   Cartesian axes

     site n.     atom                  positions (alat units)
         1           Ag1 tau(   1) = (   0.0000000   0.0000000  10.0000000  )
         2           Ag1 tau(   2) = (   4.2326464   2.9916305  10.0000000  )
         3           Y1  tau(   3) = (   3.1735640   0.0000000  10.0000000  )
         4           Y1  tau(   4) = (   1.0590824   2.9916305  10.0000000  )
         5           Ag1 tau(   5) = (   6.3471281   4.4861442  12.5915791  )
         6           Ag1 tau(   6) = (   2.1144817   1.4945137  12.5915791  )
         7           Y1  tau(   7) = (   3.1735640   4.4861442  12.5915791  )
         8           Y1  tau(   8) = (   5.2880457   1.4945137  12.5915791  )
         9           Ag1 tau(   9) = (   4.2289634   2.9890274  15.1831581  )
        10           Ag1 tau(  10) = (   8.4616097   5.9806579  15.1831581  )
        11           Y1  tau(  11) = (   7.4025274   2.9890274  15.1831581  )
        12           Y1  tau(  12) = (   5.2880457   5.9806579  15.1831581  )

     number of k points=    20  Fermi-Dirac smearing, width (Ry)=  0.0110
                       cart. coord. in units 2pi/alat
        k(    1) = (   0.0000000   0.0000000   0.0000000), wk =   0.0555556
        k(    2) = (   0.0000000   0.0278555   0.0000000), wk =   0.1111111
        k(    3) = (   0.0000000   0.0557110   0.0000000), wk =   0.1111111
        k(    4) = (   0.0000000  -0.0835665   0.0000000), wk =   0.0555556
        k(    5) = (   0.0262586  -0.0092959   0.0000000), wk =   0.1111111
        k(    6) = (   0.0262586   0.0185596   0.0000000), wk =   0.1111111
        k(    7) = (   0.0262586   0.0464150   0.0000000), wk =   0.1111111
        k(    8) = (   0.0262586  -0.0928624   0.0000000), wk =   0.1111111
        k(    9) = (   0.0262586  -0.0650069   0.0000000), wk =   0.1111111
        k(   10) = (   0.0262586  -0.0371514   0.0000000), wk =   0.1111111
        k(   11) = (   0.0525172  -0.0185919   0.0000000), wk =   0.1111111
        k(   12) = (   0.0525172   0.0092636   0.0000000), wk =   0.1111111
        k(   13) = (   0.0525172   0.0371191   0.0000000), wk =   0.1111111
        k(   14) = (   0.0525172  -0.1021583   0.0000000), wk =   0.1111111
        k(   15) = (   0.0525172  -0.0743029   0.0000000), wk =   0.1111111
        k(   16) = (   0.0525172  -0.0464474   0.0000000), wk =   0.1111111
        k(   17) = (  -0.0787758   0.0278878   0.0000000), wk =   0.0555556
        k(   18) = (  -0.0787758   0.0557433   0.0000000), wk =   0.1111111
        k(   19) = (  -0.0787758   0.0835988   0.0000000), wk =   0.1111111
        k(   20) = (  -0.0787758  -0.0556787   0.0000000), wk =   0.0555556

     Largest allocated arrays     est. size (Mb)     dimensions
     Largest temporary arrays     est. size (Mb)     dimensions

     Initial potential from superposition of free atoms
     Check: negative starting charge=   -0.001661

     starting charge  176.97290, renormalised to  180.00000

     negative rho (up, down):  1.689E-03 0.000E+00

     *
     * You are using vdW-DF for exchange-correlation in this calculation.
     * Please cite the following three references that made this development
     * possible:
     *
     *   M. Dion, H. Rydberg, E. Schroder, D. C. Langreth, and
     *   B. I. Lundqvist, Phys. Rev. Lett. 92, 246401 (2004).
     *
     *   T. Thonhauser, V. R. Cooper, S. Li, A. Puzder, P. Hyldgaard, and
     *   D. C. Langreth, Phys. Rev. B 76, 125112 (2007).
     *
     *   G. Roman-Perez and J. M. Soler, Phys. Rev. Lett. 103, 096102 (2009).
     *
     *
     * If you are using vdW-DF2, please also cite:
     *
     *   K. Lee, E. D. Murray, L. Kong, B. I. Lundqvist, and
     *   D. C. Langreth, Phys. Rev. B 82, 081101(R) (2010).
     *
     *
     * If you are calculating the stress with vdW-DF, please also cite:
     *
     *   R. Sabatini, E. Kucukbenli, B. Kolb, T. Thonhauser, and
     *   S. de Gironcoli, J. Phys.: Condens. Matter 24, 424209 (2012).
     *

     Carrying out vdW-DF run using the following parameters:

     Nqs =      20    Nr_points =    1024   r_max =   100.000
     q_mesh =
               0.00001000     0.04494208     0.09755937     0.15916263
               0.23128650     0.31572767     0.41458969     0.53033537
               0.66584808     0.82450364     1.01025438     1.22772762
               1.48234092     1.78043706     2.12944203     2.53805004
               3.01644009     3.57652955     4.23227104     5.00000000

     Gradients computed in reciprocal space

     Adding external electric field

     Computed dipole along edir(3) :
        Dipole                0.0000 Ry au,          0.0000 Debye
        Dipole field          0.0000 Ry au

        Potential amp.       -0.0000 Ry
        Total length         46.3995 bohr

     Starting wfc are  156 randomized atomic wfcs

     Self-consistent Calculation

     iteration #  1     ecut=    36.75 Ry     beta=0.10
     Davidson diagonalization with overlap
     ethr =  1.00E-02,  avg # of iterations =  2.0

[...]

     total energy              =   -2342.40596463 Ry
     Harris-Foulkes estimate   =   -2343.65332314 Ry
     estimated scf accuracy    <       7.37278325 Ry

[...]

     End of self-consistent calculation

          k = 0.0000 0.0000 0.0000 ( 24349 PWs)   bands (ev):

   -91.1233 -91.1232 -91.0495 -91.0494 -91.0494 -91.0493 -54.6055 -54.6050
   -54.5875 -54.5873 -54.5873 -54.5836 -54.5554 -54.5552 -54.5549 -54.5548
   -54.5239 -54.5238 -54.5203 -54.5201 -54.4927 -54.4926 -54.4925 -54.4923
   -42.4511 -42.4507 -42.4355 -42.4355 -42.0772 -42.0618 -22.4552 -22.4484
   -22.4374 -22.4224 -22.3930 -22.3912 -22.3551 -22.3433 -22.3417 -22.3220
   -22.1684 -22.1683 -22.1247 -22.0170 -21.9812 -21.9682 -21.9458 -21.8920
    -4.1516  -3.8275  -3.8262  -3.8182  -3.7867  -3.7324  -3.6759  -3.6633
    -3.6360  -3.6178  -3.5925  -3.5847  -3.4904  -3.4820  -3.4675  -3.4132
    -3.4119  -3.3966  -3.3567  -3.3565  -3.3460  -3.3080  -3.2681  -3.2516
    -3.1890  -3.0954  -3.0869  -2.9998  -2.9480  -2.8880  -2.8456  -2.4555
    -1.0579  -0.8044  -0.5942  -0.5451   0.7771   1.0166   1.0356   1.5065
     1.5998   1.7205   1.7851   1.8449   1.8461   2.1115   2.2065   2.2854
     2.3875   2.4020   2.4413   2.8025   2.8077   3.0531   3.0997   3.3675
     3.3967   3.7746   3.8277   3.8932   4.0475   4.0853   4.4014   4.4497
     4.5294   4.5675   4.5755   4.5883   4.5902   4.6663   4.8677   5.0325

[...]

          k =-0.0788 0.0279 0.0000 ( 24284 PWs)   bands (ev):

[...]

     the Fermi energy is     1.4551 ev

!    total energy              =   -2342.27134277 Ry
     Harris-Foulkes estimate   =   -2342.27134853 Ry
     estimated scf accuracy    <       0.00000048 Ry

     The total energy is the sum of the following terms:

     one-electron contribution =  -12969.55303542 Ry
     hartree contribution      =    6474.11926365 Ry
     xc contribution           =    -349.57549866 Ry
     ewald contribution        =    4502.81337994 Ry
     electric field correction =       0.00000000 Ry
     smearing contrib. (-TS)   =      -0.07545228 Ry

     convergence has been achieved in  15 iterations

 BEEF-vdW xc energy contributions
           1 :   -303.996087170282
           2 :    274.242427185525
           3 :   -223.623529228999
           4 :    165.763908969025
           5 :   -113.362478739842
           6 :    74.0190866845685
           7 :   -49.1971102919562
           8 :    35.9561756953950
           9 :   -29.8550620663975
          10 :    27.3285356056014
[...]
00029 suncat0033 pw.x -in pw.inp   Done                     12/18/2018 17:13:13
00030 suncat0033 pw.x -in pw.inp   Done                     12/18/2018 17:13:13
00031 suncat0033 pw.x -in pw.inp   Done                     12/18/2018 17:13:13

[...]

     Total force =     0.018392     Total SCF correction =     0.003343
     SCF correction compared to forces is large: reduce conv_thr to get better values

[...]

     Program PWSCF v.5.1rc2 (svn rev. 11289) starts on 18Dec2018 at 17:37:32

     Current dimensions of program PWSCF are:
     Max number of different atomic species (ntypx) = 10
     Max number of k-points (npk) =  40000
     Max angular momentum in pseudopotentials (lmaxx) =  3
     Presently stress not available with electric field

     IMPORTANT: XC functional enforced from input :
     Exchange-correlation      = BEEF-VDW ( 1  4 27 13 2)
     Any further DFT definition will be discarded
     Please, verify this is what you really want

     Subspace diagonalization in iterative solution of the eigenvalue problem:
     a serial algorithm will be used

     bravais-lattice index     =            0
     lattice parameter (alat)  =       1.8897  a.u.
     unit-cell volume          =    6453.8967 (a.u.)^3
     number of atoms/cell      =           12
     number of atomic types    =            2
     number of electrons       =       180.00
     number of Kohn-Sham states=          120
     kinetic-energy cutoff     =      36.7493  Ry
     charge density cutoff     =     367.4932  Ry
     convergence threshold     =      1.0E-06
     mixing beta               =       0.1000
     number of iterations used =           10  plain     mixing
     Exchange-correlation      = BEEF-VDW ( 1  4 27 13 2)
     nstep                     =           50

     celldm(1)=   1.889726  celldm(2)=   0.000000  celldm(3)=   0.000000
     celldm(4)=   0.000000  celldm(5)=   0.000000  celldm(6)=   0.000000

     crystal axes: (cart. coord. in units of alat)
               a(1) = (   6.347128   0.000000   0.000000 )
               a(2) = (   2.118165   5.983261   0.000000 )
               a(3) = (   0.000000   0.000000  25.183158 )

     reciprocal axes: (cart. coord. in units 2 pi/alat)
               b(1) = (  0.157552 -0.055776  0.000000 )
               b(2) = (  0.000000  0.167133  0.000000 )
               b(3) = (  0.000000  0.000000  0.039709 )

     PseudoPot. # 1 for Ag read from file:
     /afs/slac.stanford.edu/u/if/mamunm/psp/gbrv1.5pbe/Ag.UPF
     MD5 check sum: d66d668201baa78d5eb5b04ef7011058
     Pseudo is Ultrasoft + core correction, Zval = 19.0
     Generated by new atomic code, or converted to UPF format
     Using radial grid of  887 points,  6 beta functions with:
                l(1) =   0
                l(2) =   0
                l(3) =   1
                l(4) =   1
                l(5) =   2
                l(6) =   2
     Q(r) pseudized with  6 coefficients,  rinner =    1.300   1.300   1.300
                                                       1.300   1.300

     PseudoPot. # 2 for Y  read from file:
     /afs/slac.stanford.edu/u/if/mamunm/psp/gbrv1.5pbe/Y.UPF
     MD5 check sum: d034151ed7554c50b6e82763ed42c788
     Pseudo is Ultrasoft + core correction, Zval = 11.0
     Generated by new atomic code, or converted to UPF format
     Using radial grid of  885 points,  6 beta functions with:
                l(1) =   0
                l(2) =   0
                l(3) =   1
                l(4) =   1
                l(5) =   2
                l(6) =   2
     Q(r) pseudized with  8 coefficients,  rinner =    1.200   1.200   1.200
                                                       1.200   1.200

     vdW kernel table read from file vdW_kernel_table
     MD5 check sum: 095c7af220d748ca6e76c0b4c6cfb241

     atomic species   valence    mass     pseudopotential
        Ag1           19.00   107.86820     Ag( 1.00)
        Y1            11.00    88.90584     Y ( 1.00)

     No symmetry found

   Cartesian axes

     site n.     atom                  positions (alat units)
         1           Ag1 tau(   1) = (   0.0000000   0.0000000  10.0000000  )
         2           Ag1 tau(   2) = (   4.2326464   2.9916305  10.0000000  )
         3           Y1  tau(   3) = (   3.1735640   0.0000000  10.0000000  )
         4           Y1  tau(   4) = (   1.0590824   2.9916305  10.0000000  )
         5           Ag1 tau(   5) = (   6.3471281   4.4861442  12.5915791  )
         6           Ag1 tau(   6) = (   2.1144817   1.4945137  12.5915791  )
         7           Y1  tau(   7) = (   3.1735640   4.4861442  12.5915791  )
         8           Y1  tau(   8) = (   5.2880457   1.4945137  12.5915791  )
         9           Ag1 tau(   9) = (   4.2288774   2.9889817  15.0545766  )
        10           Ag1 tau(  10) = (   8.4620251   5.9809364  15.0547382  )
        11           Y1  tau(  11) = (   7.4033009   2.9895956  15.1697335  )
        12           Y1  tau(  12) = (   5.2888386   5.9812026  15.1697505  )

     number of k points=    20  Fermi-Dirac smearing, width (Ry)=  0.0110
                       cart. coord. in units 2pi/alat
        k(    1) = (   0.0000000   0.0000000   0.0000000), wk =   0.0555556
        k(    2) = (   0.0000000   0.0278555   0.0000000), wk =   0.1111111
        k(    3) = (   0.0000000   0.0557110   0.0000000), wk =   0.1111111
        k(    4) = (   0.0000000  -0.0835665   0.0000000), wk =   0.0555556
        k(    5) = (   0.0262586  -0.0092959   0.0000000), wk =   0.1111111
        k(    6) = (   0.0262586   0.0185596   0.0000000), wk =   0.1111111
        k(    7) = (   0.0262586   0.0464150   0.0000000), wk =   0.1111111
        k(    8) = (   0.0262586  -0.0928624   0.0000000), wk =   0.1111111
        k(    9) = (   0.0262586  -0.0650069   0.0000000), wk =   0.1111111
        k(   10) = (   0.0262586  -0.0371514   0.0000000), wk =   0.1111111
        k(   11) = (   0.0525172  -0.0185919   0.0000000), wk =   0.1111111
        k(   12) = (   0.0525172   0.0092636   0.0000000), wk =   0.1111111
        k(   13) = (   0.0525172   0.0371191   0.0000000), wk =   0.1111111
        k(   14) = (   0.0525172  -0.1021583   0.0000000), wk =   0.1111111
        k(   15) = (   0.0525172  -0.0743029   0.0000000), wk =   0.1111111
        k(   16) = (   0.0525172  -0.0464474   0.0000000), wk =   0.1111111
        k(   17) = (  -0.0787758   0.0278878   0.0000000), wk =   0.0555556
        k(   18) = (  -0.0787758   0.0557433   0.0000000), wk =   0.1111111
        k(   19) = (  -0.0787758   0.0835988   0.0000000), wk =   0.1111111
        k(   20) = (  -0.0787758  -0.0556787   0.0000000), wk =   0.0555556

     Largest allocated arrays     est. size (Mb)     dimensions
     Largest temporary arrays     est. size (Mb)     dimensions

     Initial potential from superposition of free atoms
     Check: negative starting charge=   -0.001626

     starting charge  176.97290, renormalised to  180.00000

[...]

     *
     * You are using vdW-DF for exchange-correlation in this calculation.
     * Please cite the following three references that made this development
     * possible:
     *
     *   M. Dion, H. Rydberg, E. Schroder, D. C. Langreth, and
     *   B. I. Lundqvist, Phys. Rev. Lett. 92, 246401 (2004).
     *
     *   T. Thonhauser, V. R. Cooper, S. Li, A. Puzder, P. Hyldgaard, and
     *   D. C. Langreth, Phys. Rev. B 76, 125112 (2007).
     *
     *   G. Roman-Perez and J. M. Soler, Phys. Rev. Lett. 103, 096102 (2009).
     *
     *
     * If you are using vdW-DF2, please also cite:
     *
     *   K. Lee, E. D. Murray, L. Kong, B. I. Lundqvist, and
     *   D. C. Langreth, Phys. Rev. B 82, 081101(R) (2010).
     *
     *
     * If you are calculating the stress with vdW-DF, please also cite:
     *
     *   R. Sabatini, E. Kucukbenli, B. Kolb, T. Thonhauser, and
     *   S. de Gironcoli, J. Phys.: Condens. Matter 24, 424209 (2012).
     *

     Carrying out vdW-DF run using the following parameters:

     Nqs =      20    Nr_points =    1024   r_max =   100.000
     q_mesh =
               0.00001000     0.04494208     0.09755937     0.15916263
               0.23128650     0.31572767     0.41458969     0.53033537
               0.66584808     0.82450364     1.01025438     1.22772762
               1.48234092     1.78043706     2.12944203     2.53805004
               3.01644009     3.57652955     4.23227104     5.00000000

     Gradients computed in reciprocal space

[...]

     Starting wfc are  156 randomized atomic wfcs

     Self-consistent Calculation

[...]

     total energy              =   -2342.27404146 Ry
     Harris-Foulkes estimate   =   -2342.27404103 Ry
     estimated scf accuracy    <       0.00005100 Ry

     iteration # 15     ecut=    36.75 Ry     beta=0.10
     Davidson diagonalization with overlap
     ethr =  2.83E-08,  avg # of iterations =  2.0

[...]

     negative rho (up, down):  1.304E-03 0.000E+00

     Adding external electric field

     Computed dipole along edir(3) :
        Dipole                0.0326 Ry au,          0.0829 Debye
        Dipole field          0.0001 Ry au

        Potential amp.       -0.0059 Ry
        Total length         46.3995 bohr

     End of self-consistent calculation

[...]

          k = 0.0525-0.0464 0.0000 ( 24282 PWs)   bands (ev):

[...]

          k =-0.0788-0.0557 0.0000 ( 24244 PWs)   bands (ev):

   -91.1091 -91.1089 -91.0897 -91.0895 -91.0197 -91.0196 -54.5982 -54.5981
   -54.5839 -54.5801 -54.5705 -54.5701 -54.5650 -54.5648 -54.5548 -54.5548
   -54.5544 -54.5510 -54.5249 -54.5248 -54.4949 -54.4911 -54.4631 -54.4628
   -42.4225 -42.4140 -42.4076 -42.3991 -41.9950 -41.9791 -22.4357 -22.4109
   -22.4057 -22.3889 -22.3722 -22.3594 -22.3403 -22.3183 -22.3014 -22.2887
   -22.1444 -22.1324 -22.0556 -21.9307 -21.9170 -21.8996 -21.8726 -21.8202
    -3.6410  -3.6264  -3.5968  -3.5586  -3.5503  -3.5410  -3.5281  -3.5172
    -3.4826  -3.4460  -3.4347  -3.3951  -3.3941  -3.3501  -3.3292  -3.3280
    -3.3273  -3.2935  -3.2870  -3.2675  -3.2548  -3.2345  -3.2166  -3.1970
    -3.1461  -3.1397  -3.0465  -3.0384  -2.9108  -2.8159  -2.4222  -2.1375
    -1.1232  -0.9295  -0.9042  -0.8111  -0.6001   0.3534   0.4526   0.4869
     0.5048   0.8159   0.9573   1.2269   1.4057   1.6653   1.7240   1.8129
     2.0114   2.4872   2.6272   2.6515   2.8204   2.9359   3.1497   3.1654
     3.1796   3.2298   3.3883   3.6553   3.7687   3.9152   4.3710   4.7426
     4.8461   4.8989   4.9661   4.9888   5.1983   5.3450   5.4222   5.8134

     the Fermi energy is     1.4874 ev

!    total energy              =   -2342.27403866 Ry
     Harris-Foulkes estimate   =   -2342.27404366 Ry
     estimated scf accuracy    <       0.00000092 Ry

     The total energy is the sum of the following terms:

     one-electron contribution =  -13117.02013524 Ry
     hartree contribution      =    6547.96592797 Ry
     xc contribution           =    -349.61503774 Ry
     ewald contribution        =    4576.46936180 Ry
     electric field correction =       0.00000207 Ry
     smearing contrib. (-TS)   =      -0.07415752 Ry

     convergence has been achieved in  15 iterations

 BEEF-vdW xc energy contributions
           1 :   -304.041172131871
           2 :    274.321258639269
           3 :   -223.734981463957
           4 :    165.867385134434
           5 :   -113.406473711203
           6 :    73.9799204729870
           7 :   -49.0988960408052
           8 :    35.8566086100085
           9 :   -29.8065778991685
          10 :    27.3437066234302
          11 :   -26.6635543393334
          12 :    27.3273891143226
          13 :   -29.1839093744626
          14 :    31.5519784389489
          15 :   -33.1760953643438
          16 :    32.8113043926990
          17 :   -29.8931964548512
          18 :    24.8128763565331
          19 :   -18.6983006587866
          20 :    12.9150605054278
          21 :   -8.57748988674223
          22 :    6.25165226283553
          23 :   -5.90124528330421
          24 :    7.02822598481094
          25 :   -8.91482737774714
          26 :    10.8626997567728
          27 :   -12.3590203093766
          28 :    13.1403798685226
          29 :   -13.1662974240742
          30 :    12.5394944476315
          31 :   -29.6749626155998
          32 :   -20.9552411806523

     Forces acting on atoms (Ry/au):

     negative rho (up, down):  1.304E-03 0.000E+00
     atom    1 type  1   force =    -0.00001198   -0.00000516    0.00950377
     atom    2 type  1   force =    -0.00000577   -0.00000703    0.00952103
     atom    3 type  2   force =    -0.00006479   -0.00004463    0.00057705
     atom    4 type  2   force =    -0.00006202   -0.00004516    0.00057617
     atom    5 type  1   force =    -0.00008800   -0.00006780    0.00002239
     atom    6 type  1   force =     0.00009591    0.00006866    0.00002785
     atom    7 type  2   force =     0.00002819    0.00002478   -0.00845519
     atom    8 type  2   force =     0.00002863    0.00001596   -0.00845530
     atom    9 type  1   force =     0.00007192    0.00005092   -0.00093555
     atom   10 type  1   force =     0.00006293    0.00004919   -0.00093620
     atom   11 type  2   force =    -0.00003744   -0.00000550   -0.00072263
     atom   12 type  2   force =    -0.00001758   -0.00003423   -0.00072340

     Total force =     0.018096     Total SCF correction =     0.003152
     SCF correction compared to forces is large: reduce conv_thr to get better values

     entering subroutine stress ...

     negative rho (up, down):  1.304E-03 0.000E+00
          total   stress  (Ry/bohr**3)                   (kbar)     P=   -6.06
  -0.00005182  -0.00000662   0.00000012         -7.62     -0.97      0.02
  -0.00000662  -0.00004714   0.00000009         -0.97     -6.93      0.01
   0.00000012   0.00000009  -0.00002471          0.02      0.01     -3.63

 !ASE

     Writing output data file calc.save

     General routines

     Parallel routines

   This run was terminated on:  17:59:52  18Dec2018

   JOB DONE.
Job  /afs/slac/g/suncat/bin/suncat-tsmpirun -x LD_LIBRARY_PATH -wdir /scratch/qe529570_RRw6r pw.x -in pw.inp

TID   HOST_NAME   COMMAND_LINE            STATUS            TERMINATION_TIME
00000 suncat0036 pw.x -in pw.inp   Done                     12/18/2018 17:59:52
00001 suncat0036 pw.x -in pw.inp   Done                     12/18/2018 17:59:52
00002 suncat0036 pw.x -in pw.inp   Done                     12/18/2018 17:59:52
00003 suncat0036 pw.x -in pw.inp   Done                     12/18/2018 17:59:52
00004 suncat0036 pw.x -in pw.inp   Done                     12/18/2018 17:59:52
00005 suncat0036 pw.x -in pw.inp   Done                     12/18/2018 17:59:52
00006 suncat0036 pw.x -in pw.inp   Done                     12/18/2018 17:59:52
00007 suncat0036 pw.x -in pw.inp   Done                     12/18/2018 17:59:52
00008 suncat0035 pw.x -in pw.inp   Done                     12/18/2018 17:59:52
00009 suncat0035 pw.x -in pw.inp   Done                     12/18/2018 17:59:52
00010 suncat0035 pw.x -in pw.inp   Done                     12/18/2018 17:59:52
00011 suncat0035 pw.x -in pw.inp   Done                     12/18/2018 17:59:52
00012 suncat0035 pw.x -in pw.inp   Done                     12/18/2018 17:59:52
00013 suncat0035 pw.x -in pw.inp   Done                     12/18/2018 17:59:52
00014 suncat0035 pw.x -in pw.inp   Done                     12/18/2018 17:59:52
00015 suncat0035 pw.x -in pw.inp   Done                     12/18/2018 17:59:52
00016 suncat0034 pw.x -in pw.inp   Done                     12/18/2018 17:59:52
00017 suncat0034 pw.x -in pw.inp   Done                     12/18/2018 17:59:52
00018 suncat0034 pw.x -in pw.inp   Done                     12/18/2018 17:59:52
00019 suncat0034 pw.x -in pw.inp   Done                     12/18/2018 17:59:52
00020 suncat0034 pw.x -in pw.inp   Done                     12/18/2018 17:59:52
00021 suncat0034 pw.x -in pw.inp   Done                     12/18/2018 17:59:52
00022 suncat0034 pw.x -in pw.inp   Done                     12/18/2018 17:59:52
00023 suncat0034 pw.x -in pw.inp   Done                     12/18/2018 17:59:52
00024 suncat0033 pw.x -in pw.inp   Done                     12/18/2018 17:59:52
00025 suncat0033 pw.x -in pw.inp   Done                     12/18/2018 17:59:52
00026 suncat0033 pw.x -in pw.inp   Done                     12/18/2018 17:59:52
00027 suncat0033 pw.x -in pw.inp   Done                     12/18/2018 17:59:52
00028 suncat0033 pw.x -in pw.inp   Done                     12/18/2018 17:59:52
00029 suncat0033 pw.x -in pw.inp   Done                     12/18/2018 17:59:52
00030 suncat0033 pw.x -in pw.inp   Done                     12/18/2018 17:59:52
00031 suncat0033 pw.x -in pw.inp   Done                     12/18/2018 17:59:52