     Program PWSCF v.5.1rc2 (svn rev. 11289) starts on  2Jan2019 at  1:56:39

     Current dimensions of program PWSCF are:
     Max number of different atomic species (ntypx) = 10
     Max number of k-points (npk) =  40000
     Max angular momentum in pseudopotentials (lmaxx) =  3
     Presently stress not available with electric field

     IMPORTANT: XC functional enforced from input :
     Exchange-correlation      = BEEF-VDW ( 1  4 27 13 2)
     Any further DFT definition will be discarded
     Please, verify this is what you really want

     Subspace diagonalization in iterative solution of the eigenvalue problem:
     a serial algorithm will be used

     bravais-lattice index     =            0
     lattice parameter (alat)  =       1.8897  a.u.
     unit-cell volume          =    6154.0376 (a.u.)^3
     number of atoms/cell      =           12
     number of atomic types    =            2
     number of electrons       =       162.00
     number of Kohn-Sham states=          111
     kinetic-energy cutoff     =      36.7493  Ry
     charge density cutoff     =     367.4932  Ry
     convergence threshold     =      1.0E-06
     mixing beta               =       0.1000
     number of iterations used =           10  plain     mixing
     Exchange-correlation      = BEEF-VDW ( 1  4 27 13 2)
     nstep                     =           50

     celldm(1)=   1.889726  celldm(2)=   0.000000  celldm(3)=   0.000000
     celldm(4)=   0.000000  celldm(5)=   0.000000  celldm(6)=   0.000000

     crystal axes: (cart. coord. in units of alat)
               a(1) = (   6.455181   0.000000   0.000000 )
               a(2) = (  -3.227590   5.590350   0.000000 )
               a(3) = (   0.000000   0.000000  25.270633 )

     reciprocal axes: (cart. coord. in units 2 pi/alat)
               b(1) = (  0.154914  0.089440  0.000000 )
               b(2) = (  0.000000  0.178880  0.000000 )
               b(3) = (  0.000000  0.000000  0.039572 )

     PseudoPot. # 1 for Tl read from file:
     /afs/slac.stanford.edu/u/if/mamunm/psp/gbrv1.5pbe/Tl.UPF
     MD5 check sum: b76cf1f7e72655a2b2c53cf6385d7059
     Pseudo is Ultrasoft + core correction, Zval = 13.0
     Generated by new atomic code, or converted to UPF format
     Using radial grid of  899 points,  6 beta functions with:
                l(1) =   0
                l(2) =   0
                l(3) =   1
                l(4) =   1
                l(5) =   2
                l(6) =   2
     Q(r) pseudized with  6 coefficients,  rinner =    1.100   1.100   1.100
                                                       1.100   1.100

     PseudoPot. # 2 for Re read from file:
     /afs/slac.stanford.edu/u/if/mamunm/psp/gbrv1.5pbe/Re.UPF
     MD5 check sum: 85f993410f3e006da9d71c142b4ad953
     Pseudo is Ultrasoft + core correction, Zval = 15.0
     Generated by new atomic code, or converted to UPF format
     Using radial grid of  981 points,  8 beta functions with:
                l(1) =   0
                l(2) =   0
                l(3) =   1
                l(4) =   1
                l(5) =   2
                l(6) =   2
                l(7) =   3
                l(8) =   3
     Q(r) pseudized with  8 coefficients,  rinner =    1.150   1.150   1.150
                                                       1.150   1.150   1.150
                                                       1.150

     vdW kernel table read from file vdW_kernel_table
     MD5 check sum: 095c7af220d748ca6e76c0b4c6cfb241

     atomic species   valence    mass     pseudopotential
        Tl1           13.00   204.38000     Tl( 1.00)
        Re1           15.00   186.20700     Re( 1.00)

     No symmetry found

   Cartesian axes

     site n.     atom                  positions (alat units)
         1           Tl1 tau(   1) = (   0.0000000   0.0000000  10.0000000  )
         2           Tl1 tau(   2) = (  -1.6137952   2.7951752  10.0000000  )
         3           Tl1 tau(   3) = (   1.6137952   2.7951752  10.0000000  )
         4           Re1 tau(   4) = (   3.2275903   0.0000000  10.0000000  )
         5           Tl1 tau(   5) = (   3.2275903   1.8634501  12.6353164  )
         6           Tl1 tau(   6) = (   1.6137952   4.6586253  12.6353164  )
         7           Tl1 tau(   7) = (  -1.6137952   4.6586253  12.6353164  )
         8           Re1 tau(   8) = (   0.0000000   1.8634501  12.6353164  )
         9           Tl1 tau(   9) = (  -0.0000000   3.7269003  15.2706329  )
        10           Tl1 tau(  10) = (   1.6137952   0.9317251  15.2706329  )
        11           Tl1 tau(  11) = (   4.8413855   0.9317251  15.2706329  )
        12           Re1 tau(  12) = (   3.2275903   3.7269003  15.2706329  )

     number of k points=    20  Fermi-Dirac smearing, width (Ry)=  0.0110
                       cart. coord. in units 2pi/alat
        k(    1) = (   0.0000000   0.0000000   0.0000000), wk =   0.0555556
        k(    2) = (   0.0000000   0.0298133   0.0000000), wk =   0.1111111
        k(    3) = (   0.0000000   0.0596266   0.0000000), wk =   0.1111111
        k(    4) = (   0.0000000  -0.0894398   0.0000000), wk =   0.0555556
        k(    5) = (   0.0258191   0.0149066   0.0000000), wk =   0.1111111
        k(    6) = (   0.0258191   0.0447199   0.0000000), wk =   0.1111111
        k(    7) = (   0.0258191   0.0745332   0.0000000), wk =   0.1111111
        k(    8) = (   0.0258191  -0.0745332   0.0000000), wk =   0.1111111
        k(    9) = (   0.0258191  -0.0447199   0.0000000), wk =   0.1111111
        k(   10) = (   0.0258191  -0.0149066   0.0000000), wk =   0.1111111
        k(   11) = (   0.0516381   0.0298133   0.0000000), wk =   0.1111111
        k(   12) = (   0.0516381   0.0596266   0.0000000), wk =   0.1111111
        k(   13) = (   0.0516381   0.0894398   0.0000000), wk =   0.1111111
        k(   14) = (   0.0516381  -0.0596266   0.0000000), wk =   0.1111111
        k(   15) = (   0.0516381  -0.0298133   0.0000000), wk =   0.1111111
        k(   16) = (   0.0516381   0.0000000   0.0000000), wk =   0.1111111
        k(   17) = (  -0.0774572  -0.0447199   0.0000000), wk =   0.0555556
        k(   18) = (  -0.0774572  -0.0149066   0.0000000), wk =   0.1111111
        k(   19) = (  -0.0774572   0.0149066   0.0000000), wk =   0.1111111
        k(   20) = (  -0.0774572  -0.1341597   0.0000000), wk =   0.0555556

     Largest allocated arrays     est. size (Mb)     dimensions
     Largest temporary arrays     est. size (Mb)     dimensions

     Check: negative/imaginary core charge=   -0.000001    0.000000

     Initial potential from superposition of free atoms
     Check: negative starting charge=   -0.844314

     starting charge  160.45607, renormalised to  162.00000

     negative rho (up, down):  8.524E-01 0.000E+00

     *
     * You are using vdW-DF for exchange-correlation in this calculation.
     * Please cite the following three references that made this development
     * possible:
     *
     *   M. Dion, H. Rydberg, E. Schroder, D. C. Langreth, and
     *   B. I. Lundqvist, Phys. Rev. Lett. 92, 246401 (2004).
     *
     *   T. Thonhauser, V. R. Cooper, S. Li, A. Puzder, P. Hyldgaard, and
     *   D. C. Langreth, Phys. Rev. B 76, 125112 (2007).
     *
     *   G. Roman-Perez and J. M. Soler, Phys. Rev. Lett. 103, 096102 (2009).
     *
     *
     * If you are using vdW-DF2, please also cite:
     *
     *   K. Lee, E. D. Murray, L. Kong, B. I. Lundqvist, and
     *   D. C. Langreth, Phys. Rev. B 82, 081101(R) (2010).
     *
     *
     * If you are calculating the stress with vdW-DF, please also cite:
     *
     *   R. Sabatini, E. Kucukbenli, B. Kolb, T. Thonhauser, and
     *   S. de Gironcoli, J. Phys.: Condens. Matter 24, 424209 (2012).
     *

     Carrying out vdW-DF run using the following parameters:

     Nqs =      20    Nr_points =    1024   r_max =   100.000
     q_mesh =
               0.00001000     0.04494208     0.09755937     0.15916263
               0.23128650     0.31572767     0.41458969     0.53033537
               0.66584808     0.82450364     1.01025438     1.22772762
               1.48234092     1.78043706     2.12944203     2.53805004
               3.01644009     3.57652955     4.23227104     5.00000000

     Gradients computed in reciprocal space

     Adding external electric field

     Computed dipole along edir(3) :
        Dipole                0.0000 Ry au,          0.0000 Debye
        Dipole field          0.0000 Ry au

        Potential amp.       -0.0000 Ry
        Total length         46.5607 bohr

     Starting wfc are  120 randomized atomic wfcs

     Self-consistent Calculation

     iteration #  1     ecut=    36.75 Ry     beta=0.10
     Davidson diagonalization with overlap
     ethr =  1.00E-02,  avg # of iterations =  7.5

[...]

     total energy              =   -1896.31663616 Ry
     Harris-Foulkes estimate   =   -1897.23643956 Ry
     estimated scf accuracy    <       5.20469203 Ry

[...]

     End of self-consistent calculation

          k = 0.0000 0.0000 0.0000 ( 23187 PWs)   bands (ev):

   -79.0154 -79.0154 -78.8729 -40.7443 -40.7443 -40.7442 -40.7442 -40.6411
   -40.6409 -40.6192 -40.6192 -40.4950 -11.3162 -11.1935 -11.1776 -11.1776
   -11.1268 -11.1109 -11.0007 -11.0007 -10.9365 -10.9233 -10.9233 -10.8566
   -10.8566 -10.8131 -10.7756 -10.7756 -10.7185 -10.6497 -10.6056 -10.5916
   -10.5916 -10.5387 -10.5387 -10.5209 -10.4859 -10.4859 -10.4012 -10.4012
   -10.3664 -10.3664 -10.3459 -10.3405 -10.3405 -10.3317 -10.3317 -10.2853
   -10.2853 -10.1802 -10.1802 -10.1271 -10.1199 -10.1129 -10.1129  -9.9895
    -9.9868  -8.8024  -7.3263  -5.3891  -4.3264  -4.3264  -3.7058  -3.7058
    -2.8099  -2.8099  -2.0491  -1.5283  -0.9985  -0.7813  -0.7813  -0.2971
     0.3062   0.3062   0.4358   0.5997   0.5997   0.7874   0.7874   0.8547
     0.8547   1.1520   1.3207   1.3208   1.3463   1.5472   1.5472   1.5811
     1.5811   1.6058   2.1841   2.1841   2.2688   2.6049   3.6981   4.6397
     4.9032   5.3724   5.3724   5.5158   5.5158   5.6506   5.7878   6.0980
     6.4759   6.6972   7.4839   7.4840   7.5049   7.8091   8.1534

[...]

          k =-0.0775-0.0447 0.0000 ( 23176 PWs)   bands (ev):

[...]

     the Fermi energy is     1.0788 ev

!    total energy              =   -1896.69678923 Ry
     Harris-Foulkes estimate   =   -1896.70200710 Ry
     estimated scf accuracy    <       0.00000043 Ry

     The total energy is the sum of the following terms:

     one-electron contribution =  -10208.77374374 Ry
     hartree contribution      =    5161.10737593 Ry
     xc contribution           =    -738.10444487 Ry
     ewald contribution        =    3889.16186192 Ry
     electric field correction =       0.00000000 Ry
     smearing contrib. (-TS)   =      -0.08783848 Ry

     convergence has been achieved in  15 iterations

 BEEF-vdW xc energy contributions
           1 :   -657.294734954366
           2 :    610.338992756386
           3 :   -527.305025870251
           4 :    425.812930160430
           5 :   -324.248912899369
           6 :    236.390726017962
           7 :   -168.539865621903
           8 :    119.776724467548
           9 :   -84.7285533456962
          10 :    57.2737670473767
[...]
     Pseudo is Ultrasoft + core correction, Zval = 13.0
     Generated by new atomic code, or converted to UPF format
     Using radial grid of  899 points,  6 beta functions with:
                l(1) =   0
                l(2) =   0
                l(3) =   1
                l(4) =   1
                l(5) =   2
                l(6) =   2
     Q(r) pseudized with  6 coefficients,  rinner =    1.100   1.100   1.100
                                                       1.100   1.100

     PseudoPot. # 2 for Re read from file:
     /afs/slac.stanford.edu/u/if/mamunm/psp/gbrv1.5pbe/Re.UPF
     MD5 check sum: 85f993410f3e006da9d71c142b4ad953
     Pseudo is Ultrasoft + core correction, Zval = 15.0
     Generated by new atomic code, or converted to UPF format
     Using radial grid of  981 points,  8 beta functions with:
                l(1) =   0
                l(2) =   0
                l(3) =   1
                l(4) =   1
                l(5) =   2
                l(6) =   2
                l(7) =   3
                l(8) =   3
     Q(r) pseudized with  8 coefficients,  rinner =    1.150   1.150   1.150
                                                       1.150   1.150   1.150
                                                       1.150

     vdW kernel table read from file vdW_kernel_table
     MD5 check sum: 095c7af220d748ca6e76c0b4c6cfb241

     atomic species   valence    mass     pseudopotential
        Tl1           13.00   204.38000     Tl( 1.00)
        Re1           15.00   186.20700     Re( 1.00)

     No symmetry found

   Cartesian axes

     site n.     atom                  positions (alat units)
         1           Tl1 tau(   1) = (   0.0000000   0.0000000  10.0000000  )
         2           Tl1 tau(   2) = (  -1.6137952   2.7951752  10.0000000  )
         3           Tl1 tau(   3) = (   1.6137952   2.7951752  10.0000000  )
         4           Re1 tau(   4) = (   3.2275903   0.0000000  10.0000000  )
         5           Tl1 tau(   5) = (   3.2275903   1.8634501  12.6353164  )
         6           Tl1 tau(   6) = (   1.6137952   4.6586253  12.6353164  )
         7           Tl1 tau(   7) = (  -1.6137952   4.6586253  12.6353164  )
         8           Re1 tau(   8) = (   0.0000000   1.8634501  12.6353164  )
         9           Tl1 tau(   9) = (   0.0000110   3.6961805  15.5041452  )
        10           Tl1 tau(  10) = (   1.5870144   0.9469374  15.5047198  )
        11           Tl1 tau(  11) = (   4.8681410   0.9469392  15.5047103  )
        12           Re1 tau(  12) = (   3.2275912   3.7268543  14.7810851  )

     number of k points=    20  Fermi-Dirac smearing, width (Ry)=  0.0110
                       cart. coord. in units 2pi/alat
        k(    1) = (   0.0000000   0.0000000   0.0000000), wk =   0.0555556
        k(    2) = (   0.0000000   0.0298133   0.0000000), wk =   0.1111111
        k(    3) = (   0.0000000   0.0596266   0.0000000), wk =   0.1111111
        k(    4) = (   0.0000000  -0.0894398   0.0000000), wk =   0.0555556
        k(    5) = (   0.0258191   0.0149066   0.0000000), wk =   0.1111111
        k(    6) = (   0.0258191   0.0447199   0.0000000), wk =   0.1111111
        k(    7) = (   0.0258191   0.0745332   0.0000000), wk =   0.1111111
        k(    8) = (   0.0258191  -0.0745332   0.0000000), wk =   0.1111111
        k(    9) = (   0.0258191  -0.0447199   0.0000000), wk =   0.1111111
        k(   10) = (   0.0258191  -0.0149066   0.0000000), wk =   0.1111111
        k(   11) = (   0.0516381   0.0298133   0.0000000), wk =   0.1111111
        k(   12) = (   0.0516381   0.0596266   0.0000000), wk =   0.1111111
        k(   13) = (   0.0516381   0.0894398   0.0000000), wk =   0.1111111
        k(   14) = (   0.0516381  -0.0596266   0.0000000), wk =   0.1111111
        k(   15) = (   0.0516381  -0.0298133   0.0000000), wk =   0.1111111
        k(   16) = (   0.0516381   0.0000000   0.0000000), wk =   0.1111111
        k(   17) = (  -0.0774572  -0.0447199   0.0000000), wk =   0.0555556
        k(   18) = (  -0.0774572  -0.0149066   0.0000000), wk =   0.1111111
        k(   19) = (  -0.0774572   0.0149066   0.0000000), wk =   0.1111111
        k(   20) = (  -0.0774572  -0.1341597   0.0000000), wk =   0.0555556

     Largest allocated arrays     est. size (Mb)     dimensions
     Largest temporary arrays     est. size (Mb)     dimensions

     Check: negative/imaginary core charge=   -0.000001    0.000000

     Initial potential from superposition of free atoms
     Check: negative starting charge=   -0.843298

     starting charge  160.45607, renormalised to  162.00000

[...]

     *
     * You are using vdW-DF for exchange-correlation in this calculation.
     * Please cite the following three references that made this development
     * possible:
     *
     *   M. Dion, H. Rydberg, E. Schroder, D. C. Langreth, and
     *   B. I. Lundqvist, Phys. Rev. Lett. 92, 246401 (2004).
     *
     *   T. Thonhauser, V. R. Cooper, S. Li, A. Puzder, P. Hyldgaard, and
     *   D. C. Langreth, Phys. Rev. B 76, 125112 (2007).
     *
     *   G. Roman-Perez and J. M. Soler, Phys. Rev. Lett. 103, 096102 (2009).
     *
     *
     * If you are using vdW-DF2, please also cite:
     *
     *   K. Lee, E. D. Murray, L. Kong, B. I. Lundqvist, and
     *   D. C. Langreth, Phys. Rev. B 82, 081101(R) (2010).
     *
     *
     * If you are calculating the stress with vdW-DF, please also cite:
     *
     *   R. Sabatini, E. Kucukbenli, B. Kolb, T. Thonhauser, and
     *   S. de Gironcoli, J. Phys.: Condens. Matter 24, 424209 (2012).
     *

     Carrying out vdW-DF run using the following parameters:

     Nqs =      20    Nr_points =    1024   r_max =   100.000
     q_mesh =
               0.00001000     0.04494208     0.09755937     0.15916263
               0.23128650     0.31572767     0.41458969     0.53033537
               0.66584808     0.82450364     1.01025438     1.22772762
               1.48234092     1.78043706     2.12944203     2.53805004
               3.01644009     3.57652955     4.23227104     5.00000000

     Gradients computed in reciprocal space

[...]

     Starting wfc are  120 randomized atomic wfcs

     Self-consistent Calculation

[...]

     total energy              =   -1896.74822660 Ry
     Harris-Foulkes estimate   =   -1896.74822268 Ry
     estimated scf accuracy    <       0.00000164 Ry

     iteration # 17     ecut=    36.75 Ry     beta=0.10
     Davidson diagonalization with overlap
     ethr =  1.01E-09,  avg # of iterations =  2.1

[...]

     negative rho (up, down):  8.576E-01 0.000E+00

     Adding external electric field

     Computed dipole along edir(3) :
        Dipole                0.1457 Ry au,          0.3703 Debye
        Dipole field          0.0003 Ry au

        Potential amp.       -0.0277 Ry
        Total length         46.5607 bohr

     End of self-consistent calculation

[...]

          k = 0.0516 0.0000 0.0000 ( 23164 PWs)   bands (ev):

[...]

          k =-0.0775-0.1342 0.0000 ( 23176 PWs)   bands (ev):

   -78.9582 -78.8841 -78.7328 -40.6723 -40.6721 -40.6144 -40.6143 -40.6022
   -40.5820 -40.4749 -40.4747 -40.3574 -11.0407 -10.9257 -10.8885 -10.8503
   -10.8341 -10.7859 -10.7501 -10.7217 -10.7143 -10.6843 -10.6595 -10.6372
   -10.5883 -10.5864 -10.5648 -10.5456 -10.5277 -10.4790 -10.4705 -10.4499
   -10.4468 -10.4421 -10.4159 -10.4012 -10.3919 -10.3787 -10.3656 -10.3569
   -10.3483 -10.3358 -10.3285 -10.3264 -10.3139 -10.3047 -10.2894 -10.2868
   -10.2528 -10.2490 -10.2146 -10.1971 -10.1823 -10.1418 -10.0879 -10.0159
    -9.9840  -7.4463  -7.0432  -5.9165  -5.7372  -4.9312  -4.6622  -4.2836
    -3.5169  -2.4692  -2.3439  -1.6351  -0.7474  -0.3333  -0.2023  -0.1085
    -0.0110   0.0133   0.3341   0.5128   0.7120   0.7758   1.0831   1.1798
     1.2573   1.3985   1.4689   1.7170   1.8635   2.0964   2.6178   2.8608
     3.0000   3.0104   3.6703   3.7771   3.8675   4.3306   4.3483   4.3995
     4.8574   5.2996   5.5240   5.6770   5.7672   5.8459   5.9442   6.0083
     6.1041   6.5887   6.6347   6.6360   6.8584   7.0244   7.1164

     the Fermi energy is     1.1906 ev

!    total energy              =   -1896.74821651 Ry
     Harris-Foulkes estimate   =   -1896.74822674 Ry
     estimated scf accuracy    <       0.00000049 Ry

     The total energy is the sum of the following terms:

     one-electron contribution =  -10142.88707054 Ry
     hartree contribution      =    5128.78503838 Ry
     xc contribution           =    -738.12167292 Ry
     ewald contribution        =    3855.55965281 Ry
     electric field correction =       0.00004334 Ry
     smearing contrib. (-TS)   =      -0.08420758 Ry

     convergence has been achieved in  17 iterations

 BEEF-vdW xc energy contributions
           1 :   -657.458869514597
           2 :    610.481780180806
           3 :   -527.431726895868
           4 :    425.954521560338
           5 :   -324.430939503881
           6 :    236.599296248298
           7 :   -168.715888523131
           8 :    119.848462360665
           9 :   -84.6634283302265
          10 :    57.1147532003010
          11 :   -33.3239738504161
          12 :    12.5503399810517
          13 :    3.74005464836762
          14 :   -13.8000933989267
          15 :    17.2797192795384
          16 :   -15.7987140932714
          17 :    12.2779289216713
          18 :   -9.57801058326368
          19 :    9.26205888269078
          20 :   -11.1375564358592
          21 :    13.7343611995166
          22 :   -15.3670384929576
          23 :    15.1370965927588
          24 :   -13.3390653868439
          25 :    11.1181564371680
          26 :   -9.67256292838249
          27 :    9.51366499093820
          28 :   -10.2164160746336
          29 :    10.7614385458777
          30 :   -10.2210557656260
          31 :   -53.1089631180564
          32 :   -38.9108019360170

     Forces acting on atoms (Ry/au):

     negative rho (up, down):  8.576E-01 0.000E+00
     atom    1 type  1   force =     0.00000585    0.01813785   -0.02457324
     atom    2 type  1   force =     0.01576779   -0.00906151   -0.02456545
     atom    3 type  1   force =    -0.01576668   -0.00907034   -0.02456552
     atom    4 type  2   force =     0.00000364   -0.00000306    0.06937855
     atom    5 type  1   force =    -0.00000090   -0.02267495   -0.00044788
     atom    6 type  1   force =    -0.01962784    0.01134928   -0.00049022
     atom    7 type  1   force =     0.01962573    0.01135147   -0.00049414
     atom    8 type  2   force =     0.00000055    0.00000039   -0.00037337
     atom    9 type  1   force =    -0.00000501   -0.00038935    0.00147917
     atom   10 type  1   force =    -0.00031314    0.00017653    0.00158897
     atom   11 type  1   force =     0.00031323    0.00018442    0.00158877
     atom   12 type  2   force =    -0.00000322   -0.00000074    0.00147435

     Total force =     0.095748     Total SCF correction =     0.001523

     entering subroutine stress ...

     negative rho (up, down):  8.576E-01 0.000E+00
          total   stress  (Ry/bohr**3)                   (kbar)     P=  -12.12
  -0.00010518  -0.00000000  -0.00000000        -15.47     -0.00     -0.00
  -0.00000000  -0.00010517  -0.00000001         -0.00    -15.47     -0.00
  -0.00000000  -0.00000001  -0.00003678         -0.00     -0.00     -5.41

 !ASE

     Writing output data file calc.save

     General routines

     Parallel routines

   This run was terminated on:   3:12:38   2Jan2019

   JOB DONE.
Job  /afs/slac/g/suncat/bin/suncat-tsmpirun -x LD_LIBRARY_PATH -wdir /scratch/qe649272_fuZTm pw.x -in pw.inp

TID   HOST_NAME   COMMAND_LINE            STATUS            TERMINATION_TIME
00000 suncat0182 pw.x -in pw.inp   Done                     01/02/2019 03:12:38
00001 suncat0182 pw.x -in pw.inp   Done                     01/02/2019 03:12:38
00002 suncat0182 pw.x -in pw.inp   Done                     01/02/2019 03:12:38
00003 suncat0182 pw.x -in pw.inp   Done                     01/02/2019 03:12:38
00004 suncat0182 pw.x -in pw.inp   Done                     01/02/2019 03:12:38
00005 suncat0182 pw.x -in pw.inp   Done                     01/02/2019 03:12:38
00006 suncat0182 pw.x -in pw.inp   Done                     01/02/2019 03:12:38
00007 suncat0182 pw.x -in pw.inp   Done                     01/02/2019 03:12:38
00008 suncat0181 pw.x -in pw.inp   Done                     01/02/2019 03:12:38
00009 suncat0181 pw.x -in pw.inp   Done                     01/02/2019 03:12:38
00010 suncat0181 pw.x -in pw.inp   Done                     01/02/2019 03:12:38
00011 suncat0181 pw.x -in pw.inp   Done                     01/02/2019 03:12:38
00012 suncat0181 pw.x -in pw.inp   Done                     01/02/2019 03:12:38
00013 suncat0181 pw.x -in pw.inp   Done                     01/02/2019 03:12:38
00014 suncat0181 pw.x -in pw.inp   Done                     01/02/2019 03:12:38
00015 suncat0181 pw.x -in pw.inp   Done                     01/02/2019 03:12:38
00016 suncat0132 pw.x -in pw.inp   Done                     01/02/2019 03:12:38
00017 suncat0132 pw.x -in pw.inp   Done                     01/02/2019 03:12:38
00018 suncat0132 pw.x -in pw.inp   Done                     01/02/2019 03:12:38
00019 suncat0132 pw.x -in pw.inp   Done                     01/02/2019 03:12:38
00020 suncat0132 pw.x -in pw.inp   Done                     01/02/2019 03:12:38
00021 suncat0132 pw.x -in pw.inp   Done                     01/02/2019 03:12:38
00022 suncat0132 pw.x -in pw.inp   Done                     01/02/2019 03:12:38
00023 suncat0132 pw.x -in pw.inp   Done                     01/02/2019 03:12:38
00024 suncat0131 pw.x -in pw.inp   Done                     01/02/2019 03:12:38
00025 suncat0131 pw.x -in pw.inp   Done                     01/02/2019 03:12:38
00026 suncat0131 pw.x -in pw.inp   Done                     01/02/2019 03:12:38
00027 suncat0131 pw.x -in pw.inp   Done                     01/02/2019 03:12:38
00028 suncat0131 pw.x -in pw.inp   Done                     01/02/2019 03:12:38
00029 suncat0131 pw.x -in pw.inp   Done                     01/02/2019 03:12:38
00030 suncat0131 pw.x -in pw.inp   Done                     01/02/2019 03:12:38
00031 suncat0131 pw.x -in pw.inp   Done                     01/02/2019 03:12:38
00032 suncat0130 pw.x -in pw.inp   Done                     01/02/2019 03:12:38
00033 suncat0130 pw.x -in pw.inp   Done                     01/02/2019 03:12:38
00034 suncat0130 pw.x -in pw.inp   Done                     01/02/2019 03:12:38
00035 suncat0130 pw.x -in pw.inp   Done                     01/02/2019 03:12:38
00036 suncat0130 pw.x -in pw.inp   Done                     01/02/2019 03:12:38
00037 suncat0130 pw.x -in pw.inp   Done                     01/02/2019 03:12:38
00038 suncat0130 pw.x -in pw.inp   Done                     01/02/2019 03:12:38
00039 suncat0130 pw.x -in pw.inp   Done                     01/02/2019 03:12:38
00040 suncat0124 pw.x -in pw.inp   Done                     01/02/2019 03:12:38
00041 suncat0124 pw.x -in pw.inp   Done                     01/02/2019 03:12:38
00042 suncat0124 pw.x -in pw.inp   Done                     01/02/2019 03:12:38
00043 suncat0124 pw.x -in pw.inp   Done                     01/02/2019 03:12:38
00044 suncat0124 pw.x -in pw.inp   Done                     01/02/2019 03:12:38
00045 suncat0124 pw.x -in pw.inp   Done                     01/02/2019 03:12:38
00046 suncat0124 pw.x -in pw.inp   Done                     01/02/2019 03:12:38
00047 suncat0124 pw.x -in pw.inp   Done                     01/02/2019 03:12:38
00048 suncat0280 pw.x -in pw.inp   Done                     01/02/2019 03:12:38
00049 suncat0280 pw.x -in pw.inp   Done                     01/02/2019 03:12:38
00050 suncat0280 pw.x -in pw.inp   Done                     01/02/2019 03:12:38
00051 suncat0280 pw.x -in pw.inp   Done                     01/02/2019 03:12:38
00052 suncat0280 pw.x -in pw.inp   Done                     01/02/2019 03:12:38
00053 suncat0280 pw.x -in pw.inp   Done                     01/02/2019 03:12:38
00054 suncat0280 pw.x -in pw.inp   Done                     01/02/2019 03:12:38
00055 suncat0280 pw.x -in pw.inp   Done                     01/02/2019 03:12:38
00056 suncat0279 pw.x -in pw.inp   Done                     01/02/2019 03:12:38
00057 suncat0279 pw.x -in pw.inp   Done                     01/02/2019 03:12:38
00058 suncat0279 pw.x -in pw.inp   Done                     01/02/2019 03:12:38
00059 suncat0279 pw.x -in pw.inp   Done                     01/02/2019 03:12:38
00060 suncat0279 pw.x -in pw.inp   Done                     01/02/2019 03:12:38
00061 suncat0279 pw.x -in pw.inp   Done                     01/02/2019 03:12:38
00062 suncat0279 pw.x -in pw.inp   Done                     01/02/2019 03:12:38
00063 suncat0279 pw.x -in pw.inp   Done                     01/02/2019 03:12:38