     Program PWSCF v.5.1rc2 (svn rev. 11289) starts on  2Jan2019 at  3:12:55

     Current dimensions of program PWSCF are:
     Max number of different atomic species (ntypx) = 10
     Max number of k-points (npk) =  40000
     Max angular momentum in pseudopotentials (lmaxx) =  3
     Presently stress not available with electric field

     IMPORTANT: XC functional enforced from input :
     Exchange-correlation      = BEEF-VDW ( 1  4 27 13 2)
     Any further DFT definition will be discarded
     Please, verify this is what you really want

     Subspace diagonalization in iterative solution of the eigenvalue problem:
     a serial algorithm will be used

     bravais-lattice index     =            0
     lattice parameter (alat)  =       1.8897  a.u.
     unit-cell volume          =    7588.0696 (a.u.)^3
     number of atoms/cell      =           12
     number of atomic types    =            2
     number of electrons       =       159.00
     number of Kohn-Sham states=          109
     kinetic-energy cutoff     =      36.7493  Ry
     charge density cutoff     =     367.4932  Ry
     convergence threshold     =      1.0E-06
     mixing beta               =       0.1000
     number of iterations used =           10  plain     mixing
     Exchange-correlation      = BEEF-VDW ( 1  4 27 13 2)
     nstep                     =           50

     celldm(1)=   1.889726  celldm(2)=   0.000000  celldm(3)=   0.000000
     celldm(4)=   0.000000  celldm(5)=   0.000000  celldm(6)=   0.000000

     crystal axes: (cart. coord. in units of alat)
               a(1) = (   7.094976   0.000000   0.000000 )
               a(2) = (  -3.547488   6.144429   0.000000 )
               a(3) = (   0.000000   0.000000  25.793023 )

     reciprocal axes: (cart. coord. in units 2 pi/alat)
               b(1) = (  0.140945  0.081375  0.000000 )
               b(2) = (  0.000000  0.162749  0.000000 )
               b(3) = (  0.000000  0.000000  0.038770 )

     PseudoPot. # 1 for Tl read from file:
     /afs/slac.stanford.edu/u/if/mamunm/psp/gbrv1.5pbe/Tl.UPF
     MD5 check sum: b76cf1f7e72655a2b2c53cf6385d7059
     Pseudo is Ultrasoft + core correction, Zval = 13.0
     Generated by new atomic code, or converted to UPF format
     Using radial grid of  899 points,  6 beta functions with:
                l(1) =   0
                l(2) =   0
                l(3) =   1
                l(4) =   1
                l(5) =   2
                l(6) =   2
     Q(r) pseudized with  6 coefficients,  rinner =    1.100   1.100   1.100
                                                       1.100   1.100

     PseudoPot. # 2 for Sn read from file:
     /afs/slac.stanford.edu/u/if/mamunm/psp/gbrv1.5pbe/Sn.UPF
     MD5 check sum: 469debedee59599fedebd795477fea03
     Pseudo is Ultrasoft + core correction, Zval = 14.0
     Generated by new atomic code, or converted to UPF format
     Using radial grid of  891 points,  6 beta functions with:
                l(1) =   0
                l(2) =   0
                l(3) =   1
                l(4) =   1
                l(5) =   2
                l(6) =   2
     Q(r) pseudized with  8 coefficients,  rinner =    1.350   1.350   1.350
                                                       1.350   1.350

     vdW kernel table read from file vdW_kernel_table
     MD5 check sum: 095c7af220d748ca6e76c0b4c6cfb241

     atomic species   valence    mass     pseudopotential
        Tl1           13.00   204.38000     Tl( 1.00)
        Sn1           14.00   118.71000     Sn( 1.00)

     No symmetry found

   Cartesian axes

     site n.     atom                  positions (alat units)
         1           Tl1 tau(   1) = (   0.0000000   0.0000000  10.0000000  )
         2           Tl1 tau(   2) = (  -1.7737439   3.0722146  10.0000000  )
         3           Tl1 tau(   3) = (   1.7737439   3.0722146  10.0000000  )
         4           Sn1 tau(   4) = (   3.5474878   0.0000000  10.0000000  )
         5           Tl1 tau(   5) = (   3.5474878   2.0481431  12.8965117  )
         6           Tl1 tau(   6) = (   1.7737439   5.1203576  12.8965117  )
         7           Tl1 tau(   7) = (  -1.7737439   5.1203576  12.8965117  )
         8           Sn1 tau(   8) = (  -0.0000000   2.0481431  12.8965117  )
         9           Tl1 tau(   9) = (  -0.0000000   4.0962861  15.7930234  )
        10           Tl1 tau(  10) = (   1.7737439   1.0240715  15.7930234  )
        11           Tl1 tau(  11) = (   5.3212317   1.0240715  15.7930234  )
        12           Sn1 tau(  12) = (   3.5474878   4.0962861  15.7930234  )

     number of k points=    20  Fermi-Dirac smearing, width (Ry)=  0.0110
                       cart. coord. in units 2pi/alat
        k(    1) = (   0.0000000   0.0000000   0.0000000), wk =   0.0555556
        k(    2) = (   0.0000000   0.0271248   0.0000000), wk =   0.1111111
        k(    3) = (   0.0000000   0.0542497   0.0000000), wk =   0.1111111
        k(    4) = (   0.0000000  -0.0813745   0.0000000), wk =   0.0555556
        k(    5) = (   0.0234908   0.0135624   0.0000000), wk =   0.1111111
        k(    6) = (   0.0234908   0.0406873   0.0000000), wk =   0.1111111
        k(    7) = (   0.0234908   0.0678121   0.0000000), wk =   0.1111111
        k(    8) = (   0.0234908  -0.0678121   0.0000000), wk =   0.1111111
        k(    9) = (   0.0234908  -0.0406873   0.0000000), wk =   0.1111111
        k(   10) = (   0.0234908  -0.0135624   0.0000000), wk =   0.1111111
        k(   11) = (   0.0469816   0.0271248   0.0000000), wk =   0.1111111
        k(   12) = (   0.0469816   0.0542497   0.0000000), wk =   0.1111111
        k(   13) = (   0.0469816   0.0813745   0.0000000), wk =   0.1111111
        k(   14) = (   0.0469816  -0.0542497   0.0000000), wk =   0.1111111
        k(   15) = (   0.0469816  -0.0271248   0.0000000), wk =   0.1111111
        k(   16) = (   0.0469816   0.0000000   0.0000000), wk =   0.1111111
        k(   17) = (  -0.0704724  -0.0406873   0.0000000), wk =   0.0555556
        k(   18) = (  -0.0704724  -0.0135624   0.0000000), wk =   0.1111111
        k(   19) = (  -0.0704724   0.0135624   0.0000000), wk =   0.1111111
        k(   20) = (  -0.0704724  -0.1220618   0.0000000), wk =   0.0555556

     Largest allocated arrays     est. size (Mb)     dimensions
     Largest temporary arrays     est. size (Mb)     dimensions

     Check: negative/imaginary core charge=   -0.000001    0.000000

     Initial potential from superposition of free atoms
     Check: negative starting charge=   -0.458392

     starting charge  155.95607, renormalised to  159.00000

     negative rho (up, down):  4.673E-01 0.000E+00

     *
     * You are using vdW-DF for exchange-correlation in this calculation.
     * Please cite the following three references that made this development
     * possible:
     *
     *   M. Dion, H. Rydberg, E. Schroder, D. C. Langreth, and
     *   B. I. Lundqvist, Phys. Rev. Lett. 92, 246401 (2004).
     *
     *   T. Thonhauser, V. R. Cooper, S. Li, A. Puzder, P. Hyldgaard, and
     *   D. C. Langreth, Phys. Rev. B 76, 125112 (2007).
     *
     *   G. Roman-Perez and J. M. Soler, Phys. Rev. Lett. 103, 096102 (2009).
     *
     *
     * If you are using vdW-DF2, please also cite:
     *
     *   K. Lee, E. D. Murray, L. Kong, B. I. Lundqvist, and
     *   D. C. Langreth, Phys. Rev. B 82, 081101(R) (2010).
     *
     *
     * If you are calculating the stress with vdW-DF, please also cite:
     *
     *   R. Sabatini, E. Kucukbenli, B. Kolb, T. Thonhauser, and
     *   S. de Gironcoli, J. Phys.: Condens. Matter 24, 424209 (2012).
     *

     Carrying out vdW-DF run using the following parameters:

     Nqs =      20    Nr_points =    1024   r_max =   100.000
     q_mesh =
               0.00001000     0.04494208     0.09755937     0.15916263
               0.23128650     0.31572767     0.41458969     0.53033537
               0.66584808     0.82450364     1.01025438     1.22772762
               1.48234092     1.78043706     2.12944203     2.53805004
               3.01644009     3.57652955     4.23227104     5.00000000

     Gradients computed in reciprocal space

     Adding external electric field

     Computed dipole along edir(3) :
        Dipole                0.0000 Ry au,          0.0000 Debye
        Dipole field          0.0000 Ry au

        Potential amp.       -0.0000 Ry
        Total length         47.5232 bohr

     Starting wfc are  108 randomized atomic wfcs +    1 random wfc

     Self-consistent Calculation

     iteration #  1     ecut=    36.75 Ry     beta=0.10
     Davidson diagonalization with overlap
     ethr =  1.00E-02,  avg # of iterations =  7.1

     Threshold (ethr) on eigenvalues was too large:
     Diagonalizing with lowered threshold

     Davidson diagonalization with overlap
     ethr =  7.71E-04,  avg # of iterations =  5.0

[...]

     total energy              =   -1803.48422258 Ry
     Harris-Foulkes estimate   =   -1803.67148394 Ry
     estimated scf accuracy    <       1.21745937 Ry

[...]

     End of self-consistent calculation

          k = 0.0000 0.0000 0.0000 ( 28469 PWs)   bands (ev):

   -21.3857 -21.3856 -21.3758 -21.3758 -21.3756 -21.3756 -21.3542 -21.3542
   -21.3542 -21.3542 -21.1479 -21.1478 -21.1218 -21.1218 -21.1131 -11.4510
   -11.4396 -11.3999 -11.3999 -11.3986 -11.3634 -11.3634 -11.3368 -11.3111
   -11.3014 -11.2789 -11.2788 -11.2730 -11.2730 -11.2652 -11.2220 -11.2220
   -11.2055 -11.1853 -11.1852 -11.1258 -11.1258 -11.1188 -11.1129 -11.1129
   -11.1064 -11.1064 -11.0985 -11.0857 -11.0857 -11.0812 -11.0432 -11.0432
   -10.9824 -10.9822 -10.9747 -10.9746 -10.9271 -10.9270 -10.9247 -10.9161
   -10.8914 -10.8561 -10.8560 -10.7926  -8.6374  -7.6263  -6.1146  -5.2544
    -5.0291  -4.8401  -4.8400  -4.5093  -4.5092  -4.3513  -3.7988  -3.7987
    -1.8629  -1.8629  -1.6375  -1.2960  -0.7844  -0.7844  -0.7798  -0.7798
    -0.6256  -0.3561   0.8376   2.2560   2.3144   3.0326   3.0326   3.0619
     3.0941   3.0941   3.5898   4.0982   4.0982   4.2590   4.3847   4.4578
     4.8467   5.0247   5.0247   5.0815   5.0815   5.9419   5.9479   6.0279
     6.1975   6.1975   6.1979   6.1981   6.3464

[...]

          k =-0.0705-0.0407 0.0000 ( 28534 PWs)   bands (ev):

[...]

     the Fermi energy is     0.4932 ev

!    total energy              =   -1803.26874215 Ry
     Harris-Foulkes estimate   =   -1803.26868773 Ry
     estimated scf accuracy    <       0.00000036 Ry

     The total energy is the sum of the following terms:

     one-electron contribution =   -8004.59220419 Ry
     hartree contribution      =    4077.75601445 Ry
     xc contribution           =    -709.13026323 Ry
     ewald contribution        =    2832.73601623 Ry
     electric field correction =       0.00000000 Ry
     smearing contrib. (-TS)   =      -0.03830540 Ry

     convergence has been achieved in  15 iterations

 BEEF-vdW xc energy contributions
           1 :   -630.036937309079
           2 :    583.010790744869
           3 :   -501.190036619427
           4 :    403.862162066239
           5 :   -310.092316641785
           6 :    232.648965658455
           7 :   -175.475297243052
           8 :    135.098760524450
[...]
     MD5 check sum: b76cf1f7e72655a2b2c53cf6385d7059
     Pseudo is Ultrasoft + core correction, Zval = 13.0
     Generated by new atomic code, or converted to UPF format
     Using radial grid of  899 points,  6 beta functions with:
                l(1) =   0
                l(2) =   0
                l(3) =   1
                l(4) =   1
                l(5) =   2
                l(6) =   2
     Q(r) pseudized with  6 coefficients,  rinner =    1.100   1.100   1.100
                                                       1.100   1.100

     PseudoPot. # 2 for Sn read from file:
     /afs/slac.stanford.edu/u/if/mamunm/psp/gbrv1.5pbe/Sn.UPF
     MD5 check sum: 469debedee59599fedebd795477fea03
     Pseudo is Ultrasoft + core correction, Zval = 14.0
     Generated by new atomic code, or converted to UPF format
     Using radial grid of  891 points,  6 beta functions with:
                l(1) =   0
                l(2) =   0
                l(3) =   1
                l(4) =   1
                l(5) =   2
                l(6) =   2
     Q(r) pseudized with  8 coefficients,  rinner =    1.350   1.350   1.350
                                                       1.350   1.350

     vdW kernel table read from file vdW_kernel_table
     MD5 check sum: 095c7af220d748ca6e76c0b4c6cfb241

     atomic species   valence    mass     pseudopotential
        Tl1           13.00   204.38000     Tl( 1.00)
        Sn1           14.00   118.71000     Sn( 1.00)

     No symmetry found

   Cartesian axes

     site n.     atom                  positions (alat units)
         1           Tl1 tau(   1) = (   0.0000000   0.0000000  10.0000000  )
         2           Tl1 tau(   2) = (  -1.7737439   3.0722146  10.0000000  )
         3           Tl1 tau(   3) = (   1.7737439   3.0722146  10.0000000  )
         4           Sn1 tau(   4) = (   3.5474878   0.0000000  10.0000000  )
         5           Tl1 tau(   5) = (   3.5474878   2.0481431  12.8965117  )
         6           Tl1 tau(   6) = (   1.7737439   5.1203576  12.8965117  )
         7           Tl1 tau(   7) = (  -1.7737439   5.1203576  12.8965117  )
         8           Sn1 tau(   8) = (  -0.0000000   2.0481431  12.8965117  )
         9           Tl1 tau(   9) = (   0.0000124   4.0694051  15.8240865  )
        10           Tl1 tau(  10) = (   1.7499314   1.0377855  15.8246593  )
        11           Tl1 tau(  11) = (   5.3450237   1.0377845  15.8247074  )
        12           Sn1 tau(  12) = (   3.5474739   4.0967758  15.5383205  )

     number of k points=    20  Fermi-Dirac smearing, width (Ry)=  0.0110
                       cart. coord. in units 2pi/alat
        k(    1) = (   0.0000000   0.0000000   0.0000000), wk =   0.0555556
        k(    2) = (   0.0000000   0.0271248   0.0000000), wk =   0.1111111
        k(    3) = (   0.0000000   0.0542497   0.0000000), wk =   0.1111111
        k(    4) = (   0.0000000  -0.0813745   0.0000000), wk =   0.0555556
        k(    5) = (   0.0234908   0.0135624   0.0000000), wk =   0.1111111
        k(    6) = (   0.0234908   0.0406873   0.0000000), wk =   0.1111111
        k(    7) = (   0.0234908   0.0678121   0.0000000), wk =   0.1111111
        k(    8) = (   0.0234908  -0.0678121   0.0000000), wk =   0.1111111
        k(    9) = (   0.0234908  -0.0406873   0.0000000), wk =   0.1111111
        k(   10) = (   0.0234908  -0.0135624   0.0000000), wk =   0.1111111
        k(   11) = (   0.0469816   0.0271248   0.0000000), wk =   0.1111111
        k(   12) = (   0.0469816   0.0542497   0.0000000), wk =   0.1111111
        k(   13) = (   0.0469816   0.0813745   0.0000000), wk =   0.1111111
        k(   14) = (   0.0469816  -0.0542497   0.0000000), wk =   0.1111111
        k(   15) = (   0.0469816  -0.0271248   0.0000000), wk =   0.1111111
        k(   16) = (   0.0469816   0.0000000   0.0000000), wk =   0.1111111
        k(   17) = (  -0.0704724  -0.0406873   0.0000000), wk =   0.0555556
        k(   18) = (  -0.0704724  -0.0135624   0.0000000), wk =   0.1111111
        k(   19) = (  -0.0704724   0.0135624   0.0000000), wk =   0.1111111
        k(   20) = (  -0.0704724  -0.1220618   0.0000000), wk =   0.0555556

     Largest allocated arrays     est. size (Mb)     dimensions
     Largest temporary arrays     est. size (Mb)     dimensions

     Check: negative/imaginary core charge=   -0.000001    0.000000

     Initial potential from superposition of free atoms
     Check: negative starting charge=   -0.456882

     starting charge  155.95607, renormalised to  159.00000

[...]

     *
     * You are using vdW-DF for exchange-correlation in this calculation.
     * Please cite the following three references that made this development
     * possible:
     *
     *   M. Dion, H. Rydberg, E. Schroder, D. C. Langreth, and
     *   B. I. Lundqvist, Phys. Rev. Lett. 92, 246401 (2004).
     *
     *   T. Thonhauser, V. R. Cooper, S. Li, A. Puzder, P. Hyldgaard, and
     *   D. C. Langreth, Phys. Rev. B 76, 125112 (2007).
     *
     *   G. Roman-Perez and J. M. Soler, Phys. Rev. Lett. 103, 096102 (2009).
     *
     *
     * If you are using vdW-DF2, please also cite:
     *
     *   K. Lee, E. D. Murray, L. Kong, B. I. Lundqvist, and
     *   D. C. Langreth, Phys. Rev. B 82, 081101(R) (2010).
     *
     *
     * If you are calculating the stress with vdW-DF, please also cite:
     *
     *   R. Sabatini, E. Kucukbenli, B. Kolb, T. Thonhauser, and
     *   S. de Gironcoli, J. Phys.: Condens. Matter 24, 424209 (2012).
     *

     Carrying out vdW-DF run using the following parameters:

     Nqs =      20    Nr_points =    1024   r_max =   100.000
     q_mesh =
               0.00001000     0.04494208     0.09755937     0.15916263
               0.23128650     0.31572767     0.41458969     0.53033537
               0.66584808     0.82450364     1.01025438     1.22772762
               1.48234092     1.78043706     2.12944203     2.53805004
               3.01644009     3.57652955     4.23227104     5.00000000

     Gradients computed in reciprocal space

[...]

     Starting wfc are  108 randomized atomic wfcs +    1 random wfc

     Self-consistent Calculation

[...]

     total energy              =   -1803.27754790 Ry
     Harris-Foulkes estimate   =   -1803.27752506 Ry
     estimated scf accuracy    <       0.00000103 Ry

     iteration # 15     ecut=    36.75 Ry     beta=0.10
     Davidson diagonalization with overlap
     ethr =  6.47E-10,  avg # of iterations =  2.0

[...]

     negative rho (up, down):  4.730E-01 0.000E+00

     Adding external electric field

     Computed dipole along edir(3) :
        Dipole                0.0132 Ry au,          0.0335 Debye
        Dipole field          0.0000 Ry au

        Potential amp.       -0.0021 Ry
        Total length         47.5232 bohr

     End of self-consistent calculation

[...]

          k = 0.0470 0.0000 0.0000 ( 28519 PWs)   bands (ev):

[...]

          k =-0.0705-0.1221 0.0000 ( 28534 PWs)   bands (ev):

   -21.4133 -21.4009 -21.4009 -21.3722 -21.3719 -21.3116 -21.3042 -21.3042
   -21.2843 -21.2840 -21.1294 -21.1292 -21.1041 -21.1041 -21.0956 -11.3906
   -11.3680 -11.3114 -11.3096 -11.2815 -11.2649 -11.2540 -11.2520 -11.2439
   -11.2383 -11.2340 -11.2237 -11.2148 -11.2093 -11.1990 -11.1896 -11.1880
   -11.1829 -11.1784 -11.1727 -11.1661 -11.1652 -11.1611 -11.1541 -11.1443
   -11.1237 -11.1079 -11.0933 -11.0914 -11.0778 -11.0538 -11.0329 -11.0306
   -11.0234 -11.0215 -11.0110 -11.0048 -10.9866 -10.9813 -10.9795 -10.9571
   -10.9514 -10.9147 -10.9020 -10.8233  -7.6767  -7.5731  -6.7058  -6.5152
    -5.7445  -5.4068  -5.1829  -5.0693  -4.8159  -4.5967  -3.9553  -3.6199
    -0.4437  -0.3699  -0.2633  -0.1794   0.1837   0.2016   0.5196   0.7438
     0.9729   1.4300   1.5574   1.5606   1.7547   2.1148   2.5830   2.6027
     2.6520   3.0061   3.1022   3.2119   3.4158   3.4600   3.8567   3.9715
     4.0438   4.0799   4.2580   4.5027   4.5979   4.7089   5.1898   5.2484
     5.2952   5.4031   5.4462   5.5131   5.5482

     the Fermi energy is     0.5102 ev

!    total energy              =   -1803.27759883 Ry
     Harris-Foulkes estimate   =   -1803.27754802 Ry
     estimated scf accuracy    <       0.00000038 Ry

     The total energy is the sum of the following terms:

     one-electron contribution =   -8052.71722277 Ry
     hartree contribution      =    4101.89470901 Ry
     xc contribution           =    -709.16054036 Ry
     ewald contribution        =    2856.74280529 Ry
     electric field correction =       0.00000029 Ry
     smearing contrib. (-TS)   =      -0.03735029 Ry

     convergence has been achieved in  15 iterations

 BEEF-vdW xc energy contributions
           1 :   -630.227976391134
           2 :    583.219607548414
           3 :   -501.422038141568
           4 :    404.103017247198
           5 :   -310.313279552992
           6 :    232.824007930596
           7 :   -175.599106845906
           8 :    135.193041127639
           9 :   -104.780254784266
          10 :    78.4953780202458
          11 :   -54.0131351320177
          12 :    32.4838682439502
          13 :   -16.4891341252797
          14 :    7.59271026063095
          15 :   -5.00404985155649
          16 :    5.92873846125406
          17 :   -7.11648686787009
          18 :    6.49904725069212
          19 :   -3.95736625364952
          20 :   0.891667678086492
          21 :   0.986647033175814
          22 :  -0.836406023538871
          23 :  -0.857686794952770
          24 :    2.72815826681062
          25 :   -3.48394927757181
          26 :    2.72556459672001
          27 :   -1.12706793987707
          28 :  -7.080766385604420E-002
          29 :  -0.120698230917355
          30 :    1.83247027542996
          31 :   -51.3481046449695
          32 :   -37.4011212002378

     Forces acting on atoms (Ry/au):

     negative rho (up, down):  4.730E-01 0.000E+00
     atom    1 type  1   force =    -0.00000167    0.00370041   -0.00123911
     atom    2 type  1   force =     0.00322419   -0.00182302   -0.00121451
     atom    3 type  1   force =    -0.00322338   -0.00182305   -0.00121333
     atom    4 type  2   force =    -0.00000111    0.00000761    0.01258068
     atom    5 type  1   force =     0.00000024   -0.00340731   -0.00309691
     atom    6 type  1   force =    -0.00297002    0.00173749   -0.00312320
     atom    7 type  1   force =     0.00296973    0.00173450   -0.00312391
     atom    8 type  2   force =    -0.00000061    0.00001671   -0.00023823
     atom    9 type  1   force =    -0.00000156    0.00002677    0.00005189
     atom   10 type  1   force =     0.00007808   -0.00008299    0.00010540
     atom   11 type  1   force =    -0.00007539   -0.00008135    0.00010310
     atom   12 type  2   force =     0.00000151   -0.00000578    0.00040812

     Total force =     0.016387     Total SCF correction =     0.001748
     SCF correction compared to forces is large: reduce conv_thr to get better values

     entering subroutine stress ...

     negative rho (up, down):  4.730E-01 0.000E+00
          total   stress  (Ry/bohr**3)                   (kbar)     P=   -7.03
  -0.00005082  -0.00000000   0.00000000         -7.48     -0.00      0.00
  -0.00000000  -0.00005082  -0.00000000         -0.00     -7.48     -0.00
   0.00000000  -0.00000000  -0.00004167          0.00     -0.00     -6.13

 !ASE

     Writing output data file calc.save

     General routines

     Parallel routines

   This run was terminated on:   4:35:41   2Jan2019

   JOB DONE.
Job  /afs/slac/g/suncat/bin/suncat-tsmpirun -x LD_LIBRARY_PATH -wdir /scratch/qe649280_T1BCx pw.x -in pw.inp

TID   HOST_NAME   COMMAND_LINE            STATUS            TERMINATION_TIME
00000 suncat0182 pw.x -in pw.inp   Done                     01/02/2019 04:35:41
00001 suncat0182 pw.x -in pw.inp   Done                     01/02/2019 04:35:41
00002 suncat0182 pw.x -in pw.inp   Done                     01/02/2019 04:35:41
00003 suncat0182 pw.x -in pw.inp   Done                     01/02/2019 04:35:41
00004 suncat0182 pw.x -in pw.inp   Done                     01/02/2019 04:35:41
00005 suncat0182 pw.x -in pw.inp   Done                     01/02/2019 04:35:41
00006 suncat0182 pw.x -in pw.inp   Done                     01/02/2019 04:35:41
00007 suncat0182 pw.x -in pw.inp   Done                     01/02/2019 04:35:41
00008 suncat0181 pw.x -in pw.inp   Done                     01/02/2019 04:35:41
00009 suncat0181 pw.x -in pw.inp   Done                     01/02/2019 04:35:41
00010 suncat0181 pw.x -in pw.inp   Done                     01/02/2019 04:35:41
00011 suncat0181 pw.x -in pw.inp   Done                     01/02/2019 04:35:41
00012 suncat0181 pw.x -in pw.inp   Done                     01/02/2019 04:35:41
00013 suncat0181 pw.x -in pw.inp   Done                     01/02/2019 04:35:41
00014 suncat0181 pw.x -in pw.inp   Done                     01/02/2019 04:35:41
00015 suncat0181 pw.x -in pw.inp   Done                     01/02/2019 04:35:41
00016 suncat0132 pw.x -in pw.inp   Done                     01/02/2019 04:35:41
00017 suncat0132 pw.x -in pw.inp   Done                     01/02/2019 04:35:41
00018 suncat0132 pw.x -in pw.inp   Done                     01/02/2019 04:35:41
00019 suncat0132 pw.x -in pw.inp   Done                     01/02/2019 04:35:41
00020 suncat0132 pw.x -in pw.inp   Done                     01/02/2019 04:35:41
00021 suncat0132 pw.x -in pw.inp   Done                     01/02/2019 04:35:41
00022 suncat0132 pw.x -in pw.inp   Done                     01/02/2019 04:35:41
00023 suncat0132 pw.x -in pw.inp   Done                     01/02/2019 04:35:41
00024 suncat0131 pw.x -in pw.inp   Done                     01/02/2019 04:35:41
00025 suncat0131 pw.x -in pw.inp   Done                     01/02/2019 04:35:41
00026 suncat0131 pw.x -in pw.inp   Done                     01/02/2019 04:35:41
00027 suncat0131 pw.x -in pw.inp   Done                     01/02/2019 04:35:41
00028 suncat0131 pw.x -in pw.inp   Done                     01/02/2019 04:35:41
00029 suncat0131 pw.x -in pw.inp   Done                     01/02/2019 04:35:41
00030 suncat0131 pw.x -in pw.inp   Done                     01/02/2019 04:35:41
00031 suncat0131 pw.x -in pw.inp   Done                     01/02/2019 04:35:41
00032 suncat0130 pw.x -in pw.inp   Done                     01/02/2019 04:35:41
00033 suncat0130 pw.x -in pw.inp   Done                     01/02/2019 04:35:41
00034 suncat0130 pw.x -in pw.inp   Done                     01/02/2019 04:35:41
00035 suncat0130 pw.x -in pw.inp   Done                     01/02/2019 04:35:41
00036 suncat0130 pw.x -in pw.inp   Done                     01/02/2019 04:35:41
00037 suncat0130 pw.x -in pw.inp   Done                     01/02/2019 04:35:41
00038 suncat0130 pw.x -in pw.inp   Done                     01/02/2019 04:35:41
00039 suncat0130 pw.x -in pw.inp   Done                     01/02/2019 04:35:41
00040 suncat0124 pw.x -in pw.inp   Done                     01/02/2019 04:35:41
00041 suncat0124 pw.x -in pw.inp   Done                     01/02/2019 04:35:41
00042 suncat0124 pw.x -in pw.inp   Done                     01/02/2019 04:35:41
00043 suncat0124 pw.x -in pw.inp   Done                     01/02/2019 04:35:41
00044 suncat0124 pw.x -in pw.inp   Done                     01/02/2019 04:35:41
00045 suncat0124 pw.x -in pw.inp   Done                     01/02/2019 04:35:41
00046 suncat0124 pw.x -in pw.inp   Done                     01/02/2019 04:35:41
00047 suncat0124 pw.x -in pw.inp   Done                     01/02/2019 04:35:41
00048 suncat0280 pw.x -in pw.inp   Done                     01/02/2019 04:35:41
00049 suncat0280 pw.x -in pw.inp   Done                     01/02/2019 04:35:41
00050 suncat0280 pw.x -in pw.inp   Done                     01/02/2019 04:35:41
00051 suncat0280 pw.x -in pw.inp   Done                     01/02/2019 04:35:41
00052 suncat0280 pw.x -in pw.inp   Done                     01/02/2019 04:35:41
00053 suncat0280 pw.x -in pw.inp   Done                     01/02/2019 04:35:41
00054 suncat0280 pw.x -in pw.inp   Done                     01/02/2019 04:35:41
00055 suncat0280 pw.x -in pw.inp   Done                     01/02/2019 04:35:41
00056 suncat0279 pw.x -in pw.inp   Done                     01/02/2019 04:35:41
00057 suncat0279 pw.x -in pw.inp   Done                     01/02/2019 04:35:41
00058 suncat0279 pw.x -in pw.inp   Done                     01/02/2019 04:35:41
00059 suncat0279 pw.x -in pw.inp   Done                     01/02/2019 04:35:41
00060 suncat0279 pw.x -in pw.inp   Done                     01/02/2019 04:35:41
00061 suncat0279 pw.x -in pw.inp   Done                     01/02/2019 04:35:41
00062 suncat0279 pw.x -in pw.inp   Done                     01/02/2019 04:35:41
00063 suncat0279 pw.x -in pw.inp   Done                     01/02/2019 04:35:41