     Program PWSCF v.5.1rc2 (svn rev. 11289) starts on 27Dec2018 at  4: 1:50

     Current dimensions of program PWSCF are:
     Max number of different atomic species (ntypx) = 10
     Max number of k-points (npk) =  40000
     Max angular momentum in pseudopotentials (lmaxx) =  3
     Presently stress not available with electric field

     IMPORTANT: XC functional enforced from input :
     Exchange-correlation      = BEEF-VDW ( 1  4 27 13 2)
     Any further DFT definition will be discarded
     Please, verify this is what you really want

     Subspace diagonalization in iterative solution of the eigenvalue problem:
     a serial algorithm will be used

     bravais-lattice index     =            0
     lattice parameter (alat)  =       1.8897  a.u.
     unit-cell volume          =    4818.4050 (a.u.)^3
     number of atoms/cell      =           12
     number of atomic types    =            2
     number of electrons       =       168.00
     number of Kohn-Sham states=          114
     kinetic-energy cutoff     =      36.7493  Ry
     charge density cutoff     =     367.4932  Ry
     convergence threshold     =      1.0E-06
     mixing beta               =       0.1000
     number of iterations used =           10  plain     mixing
     Exchange-correlation      = BEEF-VDW ( 1  4 27 13 2)
     nstep                     =           50

     celldm(1)=   1.889726  celldm(2)=   0.000000  celldm(3)=   0.000000
     celldm(4)=   0.000000  celldm(5)=   0.000000  celldm(6)=   0.000000

     crystal axes: (cart. coord. in units of alat)
               a(1) = (   5.775648   0.000000   0.000000 )
               a(2) = (  -2.887824   5.001858   0.000000 )
               a(3) = (   0.000000   0.000000  24.715797 )

     reciprocal axes: (cart. coord. in units 2 pi/alat)
               b(1) = (  0.173141  0.099963  0.000000 )
               b(2) = (  0.000000  0.199926  0.000000 )
               b(3) = (  0.000000  0.000000  0.040460 )

     PseudoPot. # 1 for Mo read from file:
     /afs/slac.stanford.edu/u/if/mamunm/psp/gbrv1.5pbe/Mo.UPF
     MD5 check sum: 30c4dcd161f5d35cd49bb5239c51a633
     Pseudo is Ultrasoft + core correction, Zval = 14.0
     Generated by new atomic code, or converted to UPF format
     Using radial grid of  889 points,  6 beta functions with:
                l(1) =   0
                l(2) =   0
                l(3) =   1
                l(4) =   1
                l(5) =   2
                l(6) =   2
     Q(r) pseudized with  6 coefficients,  rinner =    1.000   1.000   1.000
                                                       1.000   1.000

     PseudoPot. # 2 for Sn read from file:
     /afs/slac.stanford.edu/u/if/mamunm/psp/gbrv1.5pbe/Sn.UPF
     MD5 check sum: 469debedee59599fedebd795477fea03
     Pseudo is Ultrasoft + core correction, Zval = 14.0
     Generated by new atomic code, or converted to UPF format
     Using radial grid of  891 points,  6 beta functions with:
                l(1) =   0
                l(2) =   0
                l(3) =   1
                l(4) =   1
                l(5) =   2
                l(6) =   2
     Q(r) pseudized with  8 coefficients,  rinner =    1.350   1.350   1.350
                                                       1.350   1.350

     vdW kernel table read from file vdW_kernel_table
     MD5 check sum: 095c7af220d748ca6e76c0b4c6cfb241

     atomic species   valence    mass     pseudopotential
        Mo1           14.00    95.95000     Mo( 1.00)
        Sn1           14.00   118.71000     Sn( 1.00)

     No symmetry found

   Cartesian axes

     site n.     atom                  positions (alat units)
         1           Mo1 tau(   1) = (   0.0000000   0.0000000  10.0000000  )
         2           Mo1 tau(   2) = (  -1.4439120   2.5009290  10.0000000  )
         3           Mo1 tau(   3) = (   1.4439120   2.5009290  10.0000000  )
         4           Sn1 tau(   4) = (   2.8878241   0.0000000  10.0000000  )
         5           Mo1 tau(   5) = (   2.8878241   1.6672860  12.3578985  )
         6           Mo1 tau(   6) = (   1.4439120   4.1682150  12.3578985  )
         7           Mo1 tau(   7) = (  -1.4439120   4.1682150  12.3578985  )
         8           Sn1 tau(   8) = (   0.0000000   1.6672860  12.3578985  )
         9           Mo1 tau(   9) = (  -0.0000000   3.3345720  14.7157969  )
        10           Mo1 tau(  10) = (   1.4439120   0.8336430  14.7157969  )
        11           Mo1 tau(  11) = (   4.3317361   0.8336430  14.7157969  )
        12           Sn1 tau(  12) = (   2.8878241   3.3345720  14.7157969  )

     number of k points=    20  Fermi-Dirac smearing, width (Ry)=  0.0110
                       cart. coord. in units 2pi/alat
        k(    1) = (   0.0000000   0.0000000   0.0000000), wk =   0.0555556
        k(    2) = (   0.0000000   0.0333210   0.0000000), wk =   0.1111111
        k(    3) = (   0.0000000   0.0666419   0.0000000), wk =   0.1111111
        k(    4) = (   0.0000000  -0.0999629   0.0000000), wk =   0.0555556
        k(    5) = (   0.0288568   0.0166605   0.0000000), wk =   0.1111111
        k(    6) = (   0.0288568   0.0499814   0.0000000), wk =   0.1111111
        k(    7) = (   0.0288568   0.0833024   0.0000000), wk =   0.1111111
        k(    8) = (   0.0288568  -0.0833024   0.0000000), wk =   0.1111111
        k(    9) = (   0.0288568  -0.0499814   0.0000000), wk =   0.1111111
        k(   10) = (   0.0288568  -0.0166605   0.0000000), wk =   0.1111111
        k(   11) = (   0.0577136   0.0333210   0.0000000), wk =   0.1111111
        k(   12) = (   0.0577136   0.0666419   0.0000000), wk =   0.1111111
        k(   13) = (   0.0577136   0.0999629   0.0000000), wk =   0.1111111
        k(   14) = (   0.0577136  -0.0666419   0.0000000), wk =   0.1111111
        k(   15) = (   0.0577136  -0.0333210   0.0000000), wk =   0.1111111
        k(   16) = (   0.0577136   0.0000000   0.0000000), wk =   0.1111111
        k(   17) = (  -0.0865704  -0.0499814   0.0000000), wk =   0.0555556
        k(   18) = (  -0.0865704  -0.0166605   0.0000000), wk =   0.1111111
        k(   19) = (  -0.0865704   0.0166605   0.0000000), wk =   0.1111111
        k(   20) = (  -0.0865704  -0.1499443   0.0000000), wk =   0.0555556

     Largest allocated arrays     est. size (Mb)     dimensions
     Largest temporary arrays     est. size (Mb)     dimensions

     Initial potential from superposition of free atoms
     Check: negative starting charge=   -0.004337

     starting charge  164.99029, renormalised to  168.00000

     negative rho (up, down):  4.416E-03 0.000E+00

     *
     * You are using vdW-DF for exchange-correlation in this calculation.
     * Please cite the following three references that made this development
     * possible:
     *
     *   M. Dion, H. Rydberg, E. Schroder, D. C. Langreth, and
     *   B. I. Lundqvist, Phys. Rev. Lett. 92, 246401 (2004).
     *
     *   T. Thonhauser, V. R. Cooper, S. Li, A. Puzder, P. Hyldgaard, and
     *   D. C. Langreth, Phys. Rev. B 76, 125112 (2007).
     *
     *   G. Roman-Perez and J. M. Soler, Phys. Rev. Lett. 103, 096102 (2009).
     *
     *
     * If you are using vdW-DF2, please also cite:
     *
     *   K. Lee, E. D. Murray, L. Kong, B. I. Lundqvist, and
     *   D. C. Langreth, Phys. Rev. B 82, 081101(R) (2010).
     *
     *
     * If you are calculating the stress with vdW-DF, please also cite:
     *
     *   R. Sabatini, E. Kucukbenli, B. Kolb, T. Thonhauser, and
     *   S. de Gironcoli, J. Phys.: Condens. Matter 24, 424209 (2012).
     *

     Carrying out vdW-DF run using the following parameters:

     Nqs =      20    Nr_points =    1024   r_max =   100.000
     q_mesh =
               0.00001000     0.04494208     0.09755937     0.15916263
               0.23128650     0.31572767     0.41458969     0.53033537
               0.66584808     0.82450364     1.01025438     1.22772762
               1.48234092     1.78043706     2.12944203     2.53805004
               3.01644009     3.57652955     4.23227104     5.00000000

     Gradients computed in reciprocal space

     Adding external electric field

     Computed dipole along edir(3) :
        Dipole               -0.0000 Ry au,         -0.0000 Debye
        Dipole field         -0.0000 Ry au

        Potential amp.        0.0000 Ry
        Total length         45.5384 bohr

     Starting wfc are  144 randomized atomic wfcs

     Self-consistent Calculation

     iteration #  1     ecut=    36.75 Ry     beta=0.10
     Davidson diagonalization with overlap
     ethr =  1.00E-02,  avg # of iterations =  4.0

[...]

     total energy              =   -1741.60282564 Ry
     Harris-Foulkes estimate   =   -1741.92535621 Ry
     estimated scf accuracy    <       2.03846655 Ry

[...]

     End of self-consistent calculation

          k = 0.0000 0.0000 0.0000 ( 18151 PWs)   bands (ev):

   -59.3698 -59.2787 -59.2786 -59.1673 -59.1592 -59.0834 -59.0834 -59.0814
   -59.0813 -33.7728 -33.6284 -33.6284 -33.5767 -33.4923 -33.4923 -33.4836
   -33.4643 -33.3520 -33.3520 -33.2462 -33.2310 -33.2220 -33.2220 -33.1511
   -33.1511 -33.0363 -33.0363 -33.0093 -33.0089 -33.0041 -33.0041 -32.9793
   -32.7761 -32.7761 -32.7712 -32.7712 -19.8671 -19.8671 -19.8583 -19.8349
   -19.8349 -19.3656 -19.3579 -19.3301 -19.3301 -19.3200 -19.3200 -19.3094
   -19.3094 -19.3089 -19.3089  -7.6511  -6.2738  -6.2257  -2.5836  -2.3528
    -2.0788  -1.5993  -1.5992  -1.1832  -1.1760  -1.1760  -1.0886  -1.0886
    -1.0243  -1.0243  -0.9799  -0.2612  -0.2612   0.1662   0.4607   0.6455
     0.6455   1.0048   1.0089   1.0089   1.0179   1.0179   1.2940   1.2960
     1.2960   1.4916   1.9120   2.4400   2.4400   2.7279   2.7280   2.8447
     2.9422   2.9422   3.2648   3.2873   3.2873   3.3788   3.3788   3.7317
     3.8692   3.8692   3.9273   4.3716   4.3716   4.3745   4.3745   4.4734
     5.0465   5.0644   5.2088   5.3763   5.3763   5.5012   5.5908   5.9513
     6.2160   6.4278

[...]

          k =-0.0866-0.0500 0.0000 ( 18092 PWs)   bands (ev):

[...]

     the Fermi energy is     1.9808 ev

!    total energy              =   -1741.52382435 Ry
     Harris-Foulkes estimate   =   -1741.52382317 Ry
     estimated scf accuracy    <       0.00000049 Ry

     The total energy is the sum of the following terms:

     one-electron contribution =  -14330.84899148 Ry
     hartree contribution      =    7176.63190012 Ry
     xc contribution           =    -313.76938089 Ry
     ewald contribution        =    5726.52471223 Ry
     electric field correction =       0.00000000 Ry
     smearing contrib. (-TS)   =      -0.06206433 Ry

     convergence has been achieved in  16 iterations

 BEEF-vdW xc energy contributions
           1 :   -272.141819486265
           2 :    249.042477035041
           3 :   -209.605371705959
           4 :    164.473162295996
           5 :   -124.092491173876
           6 :    95.1986185938410
           7 :   -79.2562200232097
           8 :    73.1774781402671
           9 :   -71.6741170095285
          10 :    69.9495215468563
          11 :   -65.5285183838051
          12 :    58.5947244606894
          13 :   -51.0292910454431
          14 :    44.8901379459764
          15 :   -41.1996902006175
[...]

     PseudoPot. # 1 for Mo read from file:
     /afs/slac.stanford.edu/u/if/mamunm/psp/gbrv1.5pbe/Mo.UPF
     MD5 check sum: 30c4dcd161f5d35cd49bb5239c51a633
     Pseudo is Ultrasoft + core correction, Zval = 14.0
     Generated by new atomic code, or converted to UPF format
     Using radial grid of  889 points,  6 beta functions with:
                l(1) =   0
                l(2) =   0
                l(3) =   1
                l(4) =   1
                l(5) =   2
                l(6) =   2
     Q(r) pseudized with  6 coefficients,  rinner =    1.000   1.000   1.000
                                                       1.000   1.000

     PseudoPot. # 2 for Sn read from file:
     /afs/slac.stanford.edu/u/if/mamunm/psp/gbrv1.5pbe/Sn.UPF
     MD5 check sum: 469debedee59599fedebd795477fea03
     Pseudo is Ultrasoft + core correction, Zval = 14.0
     Generated by new atomic code, or converted to UPF format
     Using radial grid of  891 points,  6 beta functions with:
                l(1) =   0
                l(2) =   0
                l(3) =   1
                l(4) =   1
                l(5) =   2
                l(6) =   2
     Q(r) pseudized with  8 coefficients,  rinner =    1.350   1.350   1.350
                                                       1.350   1.350

     vdW kernel table read from file vdW_kernel_table
     MD5 check sum: 095c7af220d748ca6e76c0b4c6cfb241

     atomic species   valence    mass     pseudopotential
        Mo1           14.00    95.95000     Mo( 1.00)
        Sn1           14.00   118.71000     Sn( 1.00)

     No symmetry found

   Cartesian axes

     site n.     atom                  positions (alat units)
         1           Mo1 tau(   1) = (   0.0000000   0.0000000  10.0000000  )
         2           Mo1 tau(   2) = (  -1.4439120   2.5009290  10.0000000  )
         3           Mo1 tau(   3) = (   1.4439120   2.5009290  10.0000000  )
         4           Sn1 tau(   4) = (   2.8878241   0.0000000  10.0000000  )
         5           Mo1 tau(   5) = (   2.8878241   1.6672860  12.3578985  )
         6           Mo1 tau(   6) = (   1.4439120   4.1682150  12.3578985  )
         7           Mo1 tau(   7) = (  -1.4439120   4.1682150  12.3578985  )
         8           Sn1 tau(   8) = (   0.0000000   1.6672860  12.3578985  )
         9           Mo1 tau(   9) = (   0.0000054   3.5370025  14.6263034  )
        10           Mo1 tau(  10) = (   1.6192214   0.7324365  14.6263050  )
        11           Mo1 tau(  11) = (   4.1564276   0.7324316  14.6263039  )
        12           Sn1 tau(  12) = (   2.8878235   3.3345591  15.0338016  )

     number of k points=    20  Fermi-Dirac smearing, width (Ry)=  0.0110
                       cart. coord. in units 2pi/alat
        k(    1) = (   0.0000000   0.0000000   0.0000000), wk =   0.0555556
        k(    2) = (   0.0000000   0.0333210   0.0000000), wk =   0.1111111
        k(    3) = (   0.0000000   0.0666419   0.0000000), wk =   0.1111111
        k(    4) = (   0.0000000  -0.0999629   0.0000000), wk =   0.0555556
        k(    5) = (   0.0288568   0.0166605   0.0000000), wk =   0.1111111
        k(    6) = (   0.0288568   0.0499814   0.0000000), wk =   0.1111111
        k(    7) = (   0.0288568   0.0833024   0.0000000), wk =   0.1111111
        k(    8) = (   0.0288568  -0.0833024   0.0000000), wk =   0.1111111
        k(    9) = (   0.0288568  -0.0499814   0.0000000), wk =   0.1111111
        k(   10) = (   0.0288568  -0.0166605   0.0000000), wk =   0.1111111
        k(   11) = (   0.0577136   0.0333210   0.0000000), wk =   0.1111111
        k(   12) = (   0.0577136   0.0666419   0.0000000), wk =   0.1111111
        k(   13) = (   0.0577136   0.0999629   0.0000000), wk =   0.1111111
        k(   14) = (   0.0577136  -0.0666419   0.0000000), wk =   0.1111111
        k(   15) = (   0.0577136  -0.0333210   0.0000000), wk =   0.1111111
        k(   16) = (   0.0577136   0.0000000   0.0000000), wk =   0.1111111
        k(   17) = (  -0.0865704  -0.0499814   0.0000000), wk =   0.0555556
        k(   18) = (  -0.0865704  -0.0166605   0.0000000), wk =   0.1111111
        k(   19) = (  -0.0865704   0.0166605   0.0000000), wk =   0.1111111
        k(   20) = (  -0.0865704  -0.1499443   0.0000000), wk =   0.0555556

     Largest allocated arrays     est. size (Mb)     dimensions
     Largest temporary arrays     est. size (Mb)     dimensions

     Initial potential from superposition of free atoms
     Check: negative starting charge=   -0.004327

     starting charge  164.99029, renormalised to  168.00000

[...]

     *
     * You are using vdW-DF for exchange-correlation in this calculation.
     * Please cite the following three references that made this development
     * possible:
     *
     *   M. Dion, H. Rydberg, E. Schroder, D. C. Langreth, and
     *   B. I. Lundqvist, Phys. Rev. Lett. 92, 246401 (2004).
     *
     *   T. Thonhauser, V. R. Cooper, S. Li, A. Puzder, P. Hyldgaard, and
     *   D. C. Langreth, Phys. Rev. B 76, 125112 (2007).
     *
     *   G. Roman-Perez and J. M. Soler, Phys. Rev. Lett. 103, 096102 (2009).
     *
     *
     * If you are using vdW-DF2, please also cite:
     *
     *   K. Lee, E. D. Murray, L. Kong, B. I. Lundqvist, and
     *   D. C. Langreth, Phys. Rev. B 82, 081101(R) (2010).
     *
     *
     * If you are calculating the stress with vdW-DF, please also cite:
     *
     *   R. Sabatini, E. Kucukbenli, B. Kolb, T. Thonhauser, and
     *   S. de Gironcoli, J. Phys.: Condens. Matter 24, 424209 (2012).
     *

     Carrying out vdW-DF run using the following parameters:

     Nqs =      20    Nr_points =    1024   r_max =   100.000
     q_mesh =
               0.00001000     0.04494208     0.09755937     0.15916263
               0.23128650     0.31572767     0.41458969     0.53033537
               0.66584808     0.82450364     1.01025438     1.22772762
               1.48234092     1.78043706     2.12944203     2.53805004
               3.01644009     3.57652955     4.23227104     5.00000000

     Gradients computed in reciprocal space

[...]

     Starting wfc are  144 randomized atomic wfcs

     Self-consistent Calculation

[...]

     total energy              =   -1741.57989086 Ry
     Harris-Foulkes estimate   =   -1741.57989013 Ry
     estimated scf accuracy    <       0.00000654 Ry

     iteration # 15     ecut=    36.75 Ry     beta=0.10
     Davidson diagonalization with overlap
     ethr =  3.89E-09,  avg # of iterations =  2.0

[...]

     negative rho (up, down):  4.146E-03 0.000E+00

     Adding external electric field

     Computed dipole along edir(3) :
        Dipole                0.0697 Ry au,          0.1772 Debye
        Dipole field          0.0002 Ry au

        Potential amp.       -0.0166 Ry
        Total length         45.5384 bohr

     End of self-consistent calculation

[...]

          k = 0.0577 0.0000 0.0000 ( 18131 PWs)   bands (ev):

[...]

          k =-0.0866-0.1499 0.0000 ( 18092 PWs)   bands (ev):

   -59.2466 -59.2114 -59.1759 -59.1025 -59.0515 -59.0249 -58.9980 -58.9448
   -58.9358 -33.7200 -33.5881 -33.5295 -33.4820 -33.4815 -33.3904 -33.3661
   -33.3225 -33.2905 -33.2609 -33.2341 -33.1920 -33.1170 -33.0959 -33.0734
   -33.0626 -33.0004 -32.9924 -32.9769 -32.9660 -32.8757 -32.8504 -32.8387
   -32.8021 -32.7050 -32.6337 -32.5413 -19.7768 -19.7645 -19.7614 -19.7479
   -19.7468 -19.4048 -19.3637 -19.3628 -19.3158 -19.3078 -19.2708 -19.2396
   -19.2390 -19.2171 -19.2072  -6.5610  -5.8329  -5.4256  -3.1825  -2.5676
    -2.3213  -2.1458  -1.7795  -1.3646  -1.0670  -1.0508  -0.9622  -0.9000
    -0.7816  -0.7177  -0.3080  -0.1051  -0.0483  -0.0213   0.0851   0.2893
     0.4202   0.6362   0.6621   0.8500   1.0578   1.0695   1.2049   1.3028
     1.3772   1.5237   1.6770   1.7187   2.1770   2.3346   2.4461   2.5260
     2.6629   2.7342   2.8796   2.9638   3.1127   3.2050   3.2268   3.3311
     3.4000   3.8586   3.8676   3.9149   4.2401   4.4351   4.5909   4.9725
     5.2716   5.4287   5.9830   5.9945   6.1689   6.5336   6.9739   7.1242
     7.3475   7.5558

     the Fermi energy is     2.0772 ev

!    total energy              =   -1741.57989294 Ry
     Harris-Foulkes estimate   =   -1741.57989160 Ry
     estimated scf accuracy    <       0.00000096 Ry

     The total energy is the sum of the following terms:

     one-electron contribution =  -14310.12548294 Ry
     hartree contribution      =    7166.68434816 Ry
     xc contribution           =    -313.93277205 Ry
     ewald contribution        =    5715.85036137 Ry
     electric field correction =       0.00001268 Ry
     smearing contrib. (-TS)   =      -0.05636016 Ry

     convergence has been achieved in  15 iterations

 BEEF-vdW xc energy contributions
           1 :   -272.373739997089
           2 :    249.294808169638
           3 :   -209.879990884335
           4 :    164.740394181759
           5 :   -124.290133301488
           6 :    95.2475645571128
           7 :   -79.0886609297860
           8 :    72.7708325195923
           9 :   -71.0779356205923
          10 :    69.2887955745610
          11 :   -64.9694671949341
          12 :    58.2762912181085
          13 :   -50.9903950595399
          14 :    45.0370538549446
          15 :   -41.3422794749936
          16 :    39.5119599787245
          17 :   -38.3136774437077
          18 :    36.5227027846540
          19 :   -33.5997731556996
          20 :    29.8531689163499
          21 :   -26.0934982317208
          22 :    23.0662334432950
          23 :   -21.0329357604272
          24 :    19.7127039386850
          25 :   -18.5533458297297
          26 :    17.1064225832278
          27 :   -15.2619319942984
          28 :    13.2253479106918
          29 :   -11.3054682331316
          30 :    9.68420151677725
          31 :   -27.8931755992819
          32 :   -21.0614885903155

     Forces acting on atoms (Ry/au):

     negative rho (up, down):  4.146E-03 0.000E+00
     atom    1 type  1   force =     0.00000002   -0.02936216    0.02527892
     atom    2 type  1   force =    -0.02542941    0.01468188    0.02527972
     atom    3 type  1   force =     0.02543165    0.01468292    0.02528319
     atom    4 type  2   force =    -0.00000119    0.00000441   -0.06331125
     atom    5 type  1   force =    -0.00000004    0.02167256   -0.00455386
     atom    6 type  1   force =     0.01876988   -0.01083604   -0.00455398
     atom    7 type  1   force =    -0.01877114   -0.01083683   -0.00455378
     atom    8 type  2   force =     0.00000129   -0.00000427    0.00362383
     atom    9 type  1   force =    -0.00000264   -0.00060067   -0.00056515
     atom   10 type  1   force =    -0.00052175    0.00029598   -0.00056602
     atom   11 type  1   force =     0.00052134    0.00029774   -0.00056463
     atom   12 type  2   force =     0.00000199    0.00000447   -0.00079699

     Total force =     0.099998     Total SCF correction =     0.002635

     entering subroutine stress ...

     negative rho (up, down):  4.146E-03 0.000E+00
          total   stress  (Ry/bohr**3)                   (kbar)     P=  -21.29
  -0.00020572   0.00000000   0.00000000        -30.26      0.00      0.00
   0.00000000  -0.00020572   0.00000000          0.00    -30.26      0.00
   0.00000000   0.00000000  -0.00002275          0.00      0.00     -3.35

 !ASE

     Writing output data file calc.save

     General routines

     Parallel routines

   This run was terminated on:   5:44:53  27Dec2018

   JOB DONE.
Job  /afs/slac/g/suncat/bin/suncat-tsmpirun -x LD_LIBRARY_PATH -wdir /scratch/qe110152_2wATY pw.x -in pw.inp

TID   HOST_NAME   COMMAND_LINE            STATUS            TERMINATION_TIME
00000 suncat0093 pw.x -in pw.inp   Done                     12/27/2018 05:44:53
00001 suncat0093 pw.x -in pw.inp   Done                     12/27/2018 05:44:53
00002 suncat0093 pw.x -in pw.inp   Done                     12/27/2018 05:44:53
00003 suncat0093 pw.x -in pw.inp   Done                     12/27/2018 05:44:53
00004 suncat0093 pw.x -in pw.inp   Done                     12/27/2018 05:44:53
00005 suncat0093 pw.x -in pw.inp   Done                     12/27/2018 05:44:53
00006 suncat0093 pw.x -in pw.inp   Done                     12/27/2018 05:44:53
00007 suncat0093 pw.x -in pw.inp   Done                     12/27/2018 05:44:53
00008 suncat0089 pw.x -in pw.inp   Done                     12/27/2018 05:44:53
00009 suncat0089 pw.x -in pw.inp   Done                     12/27/2018 05:44:53
00010 suncat0089 pw.x -in pw.inp   Done                     12/27/2018 05:44:53
00011 suncat0089 pw.x -in pw.inp   Done                     12/27/2018 05:44:53
00012 suncat0089 pw.x -in pw.inp   Done                     12/27/2018 05:44:53
00013 suncat0089 pw.x -in pw.inp   Done                     12/27/2018 05:44:53
00014 suncat0089 pw.x -in pw.inp   Done                     12/27/2018 05:44:53
00015 suncat0089 pw.x -in pw.inp   Done                     12/27/2018 05:44:53
00016 suncat0088 pw.x -in pw.inp   Done                     12/27/2018 05:44:53
00017 suncat0088 pw.x -in pw.inp   Done                     12/27/2018 05:44:53
00018 suncat0088 pw.x -in pw.inp   Done                     12/27/2018 05:44:53
00019 suncat0088 pw.x -in pw.inp   Done                     12/27/2018 05:44:53
00020 suncat0088 pw.x -in pw.inp   Done                     12/27/2018 05:44:53
00021 suncat0088 pw.x -in pw.inp   Done                     12/27/2018 05:44:53
00022 suncat0088 pw.x -in pw.inp   Done                     12/27/2018 05:44:53
00023 suncat0088 pw.x -in pw.inp   Done                     12/27/2018 05:44:53
00024 suncat0079 pw.x -in pw.inp   Done                     12/27/2018 05:44:53
00025 suncat0079 pw.x -in pw.inp   Done                     12/27/2018 05:44:53
00026 suncat0079 pw.x -in pw.inp   Done                     12/27/2018 05:44:53
00027 suncat0079 pw.x -in pw.inp   Done                     12/27/2018 05:44:53
00028 suncat0079 pw.x -in pw.inp   Done                     12/27/2018 05:44:53
00029 suncat0079 pw.x -in pw.inp   Done                     12/27/2018 05:44:53
00030 suncat0079 pw.x -in pw.inp   Done                     12/27/2018 05:44:53
00031 suncat0079 pw.x -in pw.inp   Done                     12/27/2018 05:44:53
00032 suncat0064 pw.x -in pw.inp   Done                     12/27/2018 05:44:53
00033 suncat0064 pw.x -in pw.inp   Done                     12/27/2018 05:44:53
00034 suncat0064 pw.x -in pw.inp   Done                     12/27/2018 05:44:53
00035 suncat0064 pw.x -in pw.inp   Done                     12/27/2018 05:44:53
00036 suncat0064 pw.x -in pw.inp   Done                     12/27/2018 05:44:53
00037 suncat0064 pw.x -in pw.inp   Done                     12/27/2018 05:44:53
00038 suncat0064 pw.x -in pw.inp   Done                     12/27/2018 05:44:53
00039 suncat0064 pw.x -in pw.inp   Done                     12/27/2018 05:44:53
00040 suncat0129 pw.x -in pw.inp   Done                     12/27/2018 05:44:53
00041 suncat0129 pw.x -in pw.inp   Done                     12/27/2018 05:44:53
00042 suncat0129 pw.x -in pw.inp   Done                     12/27/2018 05:44:53
00043 suncat0129 pw.x -in pw.inp   Done                     12/27/2018 05:44:53
00044 suncat0129 pw.x -in pw.inp   Done                     12/27/2018 05:44:53
00045 suncat0129 pw.x -in pw.inp   Done                     12/27/2018 05:44:53
00046 suncat0129 pw.x -in pw.inp   Done                     12/27/2018 05:44:53
00047 suncat0129 pw.x -in pw.inp   Done                     12/27/2018 05:44:53
00048 suncat0254 pw.x -in pw.inp   Done                     12/27/2018 05:44:53
00049 suncat0254 pw.x -in pw.inp   Done                     12/27/2018 05:44:53
00050 suncat0254 pw.x -in pw.inp   Done                     12/27/2018 05:44:53
00051 suncat0254 pw.x -in pw.inp   Done                     12/27/2018 05:44:53
00052 suncat0254 pw.x -in pw.inp   Done                     12/27/2018 05:44:53
00053 suncat0254 pw.x -in pw.inp   Done                     12/27/2018 05:44:53
00054 suncat0254 pw.x -in pw.inp   Done                     12/27/2018 05:44:53
00055 suncat0254 pw.x -in pw.inp   Done                     12/27/2018 05:44:53
00056 suncat0253 pw.x -in pw.inp   Done                     12/27/2018 05:44:53
00057 suncat0253 pw.x -in pw.inp   Done                     12/27/2018 05:44:53
00058 suncat0253 pw.x -in pw.inp   Done                     12/27/2018 05:44:53
00059 suncat0253 pw.x -in pw.inp   Done                     12/27/2018 05:44:53
00060 suncat0253 pw.x -in pw.inp   Done                     12/27/2018 05:44:53
00061 suncat0253 pw.x -in pw.inp   Done                     12/27/2018 05:44:53
00062 suncat0253 pw.x -in pw.inp   Done                     12/27/2018 05:44:53
00063 suncat0253 pw.x -in pw.inp   Done                     12/27/2018 05:44:53