     Program PWSCF v.5.1rc2 (svn rev. 11289) starts on  1Jan2019 at 20:56:31

     Current dimensions of program PWSCF are:
     Max number of different atomic species (ntypx) = 10
     Max number of k-points (npk) =  40000
     Max angular momentum in pseudopotentials (lmaxx) =  3
     Presently stress not available with electric field

     IMPORTANT: XC functional enforced from input :
     Exchange-correlation      = BEEF-VDW ( 1  4 27 13 2)
     Any further DFT definition will be discarded
     Please, verify this is what you really want

     Subspace diagonalization in iterative solution of the eigenvalue problem:
     a serial algorithm will be used

     bravais-lattice index     =            0
     lattice parameter (alat)  =       1.8897  a.u.
     unit-cell volume          =    4575.4198 (a.u.)^3
     number of atoms/cell      =           12
     number of atomic types    =            2
     number of electrons       =       168.00
     number of Kohn-Sham states=          114
     kinetic-energy cutoff     =      36.7493  Ry
     charge density cutoff     =     367.4932  Ry
     convergence threshold     =      1.0E-06
     mixing beta               =       0.1000
     number of iterations used =           10  plain     mixing
     Exchange-correlation      = BEEF-VDW ( 1  4 27 13 2)
     nstep                     =           50

     celldm(1)=   1.889726  celldm(2)=   0.000000  celldm(3)=   0.000000
     celldm(4)=   0.000000  celldm(5)=   0.000000  celldm(6)=   0.000000

     crystal axes: (cart. coord. in units of alat)
               a(1) = (   5.640721   0.000000   0.000000 )
               a(2) = (  -2.820360   4.885008   0.000000 )
               a(3) = (   0.000000   0.000000  24.605629 )

     reciprocal axes: (cart. coord. in units 2 pi/alat)
               b(1) = (  0.177282  0.102354  0.000000 )
               b(2) = (  0.000000  0.204708  0.000000 )
               b(3) = (  0.000000  0.000000  0.040641 )

     PseudoPot. # 1 for Tc read from file:
     /afs/slac.stanford.edu/u/if/mamunm/psp/gbrv1.5pbe/Tc.UPF
     MD5 check sum: 9eb49e5b028550b2339a02317eb7b844
     Pseudo is Ultrasoft + core correction, Zval = 15.0
     Generated by new atomic code, or converted to UPF format
     Using radial grid of  965 points,  6 beta functions with:
                l(1) =   0
                l(2) =   0
                l(3) =   1
                l(4) =   1
                l(5) =   2
                l(6) =   2
     Q(r) pseudized with  8 coefficients,  rinner =    1.300   1.300   1.300
                                                       1.300   1.300

     PseudoPot. # 2 for Sc read from file:
     /afs/slac.stanford.edu/u/if/mamunm/psp/gbrv1.5pbe/Sc.UPF
     MD5 check sum: db30a2753ba66ef00f23801d899b7e7f
     Pseudo is Ultrasoft + core correction, Zval = 11.0
     Generated by new atomic code, or converted to UPF format
     Using radial grid of  849 points,  6 beta functions with:
                l(1) =   0
                l(2) =   0
                l(3) =   1
                l(4) =   1
                l(5) =   2
                l(6) =   2
     Q(r) pseudized with  6 coefficients,  rinner =    1.200   1.200   1.200
                                                       1.200   1.200

     vdW kernel table read from file vdW_kernel_table
     MD5 check sum: 095c7af220d748ca6e76c0b4c6cfb241

     atomic species   valence    mass     pseudopotential
        Tc1           15.00    97.90721     Tc( 1.00)
        Sc1           11.00    44.95591     Sc( 1.00)

     No symmetry found

   Cartesian axes

     site n.     atom                  positions (alat units)
         1           Tc1 tau(   1) = (   0.0000000   0.0000000  10.0000000  )
         2           Tc1 tau(   2) = (  -1.4101802   2.4425038  10.0000000  )
         3           Tc1 tau(   3) = (   1.4101802   2.4425038  10.0000000  )
         4           Sc1 tau(   4) = (   2.8203605   0.0000000  10.0000000  )
         5           Tc1 tau(   5) = (   2.8203605   1.6283359  12.3028147  )
         6           Tc1 tau(   6) = (   1.4101802   4.0708397  12.3028147  )
         7           Tc1 tau(   7) = (  -1.4101802   4.0708397  12.3028147  )
         8           Sc1 tau(   8) = (   0.0000000   1.6283359  12.3028147  )
         9           Tc1 tau(   9) = (  -0.0000000   3.2566718  14.6056294  )
        10           Tc1 tau(  10) = (   1.4101802   0.8141679  14.6056294  )
        11           Tc1 tau(  11) = (   4.2305407   0.8141679  14.6056294  )
        12           Sc1 tau(  12) = (   2.8203605   3.2566718  14.6056294  )

     number of k points=    20  Fermi-Dirac smearing, width (Ry)=  0.0110
                       cart. coord. in units 2pi/alat
        k(    1) = (   0.0000000   0.0000000   0.0000000), wk =   0.0555556
        k(    2) = (   0.0000000   0.0341180   0.0000000), wk =   0.1111111
        k(    3) = (   0.0000000   0.0682360   0.0000000), wk =   0.1111111
        k(    4) = (   0.0000000  -0.1023540   0.0000000), wk =   0.0555556
        k(    5) = (   0.0295471   0.0170590   0.0000000), wk =   0.1111111
        k(    6) = (   0.0295471   0.0511770   0.0000000), wk =   0.1111111
        k(    7) = (   0.0295471   0.0852950   0.0000000), wk =   0.1111111
        k(    8) = (   0.0295471  -0.0852950   0.0000000), wk =   0.1111111
        k(    9) = (   0.0295471  -0.0511770   0.0000000), wk =   0.1111111
        k(   10) = (   0.0295471  -0.0170590   0.0000000), wk =   0.1111111
        k(   11) = (   0.0590941   0.0341180   0.0000000), wk =   0.1111111
        k(   12) = (   0.0590941   0.0682360   0.0000000), wk =   0.1111111
        k(   13) = (   0.0590941   0.1023540   0.0000000), wk =   0.1111111
        k(   14) = (   0.0590941  -0.0682360   0.0000000), wk =   0.1111111
        k(   15) = (   0.0590941  -0.0341180   0.0000000), wk =   0.1111111
        k(   16) = (   0.0590941  -0.0000000   0.0000000), wk =   0.1111111
        k(   17) = (  -0.0886412  -0.0511770   0.0000000), wk =   0.0555556
        k(   18) = (  -0.0886412  -0.0170590   0.0000000), wk =   0.1111111
        k(   19) = (  -0.0886412   0.0170590   0.0000000), wk =   0.1111111
        k(   20) = (  -0.0886412  -0.1535310   0.0000000), wk =   0.0555556

     Largest allocated arrays     est. size (Mb)     dimensions
     Largest temporary arrays     est. size (Mb)     dimensions

     Check: negative/imaginary core charge=   -0.000019    0.000000

     Initial potential from superposition of free atoms
     Check: negative starting charge=   -1.129902

     starting charge  158.99254, renormalised to  168.00000

     negative rho (up, down):  1.194E+00 0.000E+00

     *
     * You are using vdW-DF for exchange-correlation in this calculation.
     * Please cite the following three references that made this development
     * possible:
     *
     *   M. Dion, H. Rydberg, E. Schroder, D. C. Langreth, and
     *   B. I. Lundqvist, Phys. Rev. Lett. 92, 246401 (2004).
     *
     *   T. Thonhauser, V. R. Cooper, S. Li, A. Puzder, P. Hyldgaard, and
     *   D. C. Langreth, Phys. Rev. B 76, 125112 (2007).
     *
     *   G. Roman-Perez and J. M. Soler, Phys. Rev. Lett. 103, 096102 (2009).
     *
     *
     * If you are using vdW-DF2, please also cite:
     *
     *   K. Lee, E. D. Murray, L. Kong, B. I. Lundqvist, and
     *   D. C. Langreth, Phys. Rev. B 82, 081101(R) (2010).
     *
     *
     * If you are calculating the stress with vdW-DF, please also cite:
     *
     *   R. Sabatini, E. Kucukbenli, B. Kolb, T. Thonhauser, and
     *   S. de Gironcoli, J. Phys.: Condens. Matter 24, 424209 (2012).
     *

     Carrying out vdW-DF run using the following parameters:

     Nqs =      20    Nr_points =    1024   r_max =   100.000
     q_mesh =
               0.00001000     0.04494208     0.09755937     0.15916263
               0.23128650     0.31572767     0.41458969     0.53033537
               0.66584808     0.82450364     1.01025438     1.22772762
               1.48234092     1.78043706     2.12944203     2.53805004
               3.01644009     3.57652955     4.23227104     5.00000000

     Gradients computed in reciprocal space

     Adding external electric field

     Computed dipole along edir(3) :
        Dipole                0.0000 Ry au,          0.0000 Debye
        Dipole field          0.0000 Ry au

        Potential amp.       -0.0000 Ry
        Total length         45.3355 bohr

     Starting wfc are  156 randomized atomic wfcs

     Self-consistent Calculation

     iteration #  1     ecut=    36.75 Ry     beta=0.10
     Davidson diagonalization with overlap
     ethr =  1.00E-02,  avg # of iterations =  5.0

[...]

     total energy              =   -1863.24012724 Ry
     Harris-Foulkes estimate   =   -1864.58116031 Ry
     estimated scf accuracy    <       8.85788585 Ry

[...]

     End of self-consistent calculation

          k = 0.0000 0.0000 0.0000 ( 17255 PWs)   bands (ev):

   -64.9695 -64.8934 -64.8934 -64.7658 -64.7600 -64.6940 -64.6940 -64.6926
   -64.6926 -47.2694 -47.2683 -46.6361 -37.3442 -37.1536 -37.1408 -37.1408
   -37.1252 -37.0510 -37.0248 -37.0248 -36.8537 -36.8537 -36.8048 -36.7835
   -36.7689 -36.7689 -36.7320 -36.7320 -36.6701 -36.6701 -36.6455 -36.6257
   -36.6257 -36.5164 -36.4964 -36.4862 -36.4862 -36.4810 -36.4810 -25.9763
   -25.9586 -25.8516 -25.8516 -25.8469 -25.8469 -25.3251 -25.2785 -25.2785
    -3.8824  -2.5736  -2.4450  -2.2678  -2.0141  -2.0141  -1.9265  -1.7684
    -1.7684  -1.6790  -1.5524  -1.5524  -1.5255  -1.2651  -1.2651  -0.6492
    -0.1690  -0.1690   0.2723   0.2723   0.5194   0.5456   0.9003   0.9460
     1.3652   1.3652   1.4283   1.4283   1.4604   1.4604   1.7188   1.7188
     1.7293   1.8939   1.8939   2.3955   2.7317   2.7317   2.7911   2.7911
     2.8087   3.0926   3.0986   3.0986   3.6784   3.7224   3.7224   3.9005
     4.3592   4.3592   4.5031   4.5499   4.7827   4.8645   4.9716   4.9716
     5.2463   5.3979   5.3979   5.4573   5.6888   5.8567   5.8568   6.0628
     6.0628   6.1046

[...]

          k =-0.0886-0.0512 0.0000 ( 17248 PWs)   bands (ev):

[...]

     the Fermi energy is     1.8910 ev

!    total energy              =   -1861.83434880 Ry
     Harris-Foulkes estimate   =   -1861.83434512 Ry
     estimated scf accuracy    <       0.00000063 Ry

     The total energy is the sum of the following terms:

     one-electron contribution =  -15235.30476139 Ry
     hartree contribution      =    7613.69662589 Ry
     xc contribution           =    -339.56332892 Ry
     ewald contribution        =    6099.44086807 Ry
     electric field correction =       0.00000000 Ry
     smearing contrib. (-TS)   =      -0.10375245 Ry

     convergence has been achieved in  20 iterations

 BEEF-vdW xc energy contributions
           1 :   -296.184536847685
           2 :    270.802809152319
           3 :   -226.476744747603
           4 :    173.252304133939
           5 :   -121.142790514911
           6 :    77.0673911478406
           7 :   -43.6861965335113
           8 :    20.0455680396000
           9 :   -3.36435665255294
          10 :   -9.11720906080825
          11 :    18.9403714527369
          12 :   -26.2141250519537
          13 :    30.1407957858646
[...]
     /afs/slac.stanford.edu/u/if/mamunm/psp/gbrv1.5pbe/Tc.UPF
     MD5 check sum: 9eb49e5b028550b2339a02317eb7b844
     Pseudo is Ultrasoft + core correction, Zval = 15.0
     Generated by new atomic code, or converted to UPF format
     Using radial grid of  965 points,  6 beta functions with:
                l(1) =   0
                l(2) =   0
                l(3) =   1
                l(4) =   1
                l(5) =   2
                l(6) =   2
     Q(r) pseudized with  8 coefficients,  rinner =    1.300   1.300   1.300
                                                       1.300   1.300

     PseudoPot. # 2 for Sc read from file:
     /afs/slac.stanford.edu/u/if/mamunm/psp/gbrv1.5pbe/Sc.UPF
     MD5 check sum: db30a2753ba66ef00f23801d899b7e7f
     Pseudo is Ultrasoft + core correction, Zval = 11.0
     Generated by new atomic code, or converted to UPF format
     Using radial grid of  849 points,  6 beta functions with:
                l(1) =   0
                l(2) =   0
                l(3) =   1
                l(4) =   1
                l(5) =   2
                l(6) =   2
     Q(r) pseudized with  6 coefficients,  rinner =    1.200   1.200   1.200
                                                       1.200   1.200

     vdW kernel table read from file vdW_kernel_table
     MD5 check sum: 095c7af220d748ca6e76c0b4c6cfb241

     atomic species   valence    mass     pseudopotential
        Tc1           15.00    97.90721     Tc( 1.00)
        Sc1           11.00    44.95591     Sc( 1.00)

     No symmetry found

   Cartesian axes

     site n.     atom                  positions (alat units)
         1           Tc1 tau(   1) = (   0.0000000   0.0000000  10.0000000  )
         2           Tc1 tau(   2) = (  -1.4101802   2.4425038  10.0000000  )
         3           Tc1 tau(   3) = (   1.4101802   2.4425038  10.0000000  )
         4           Sc1 tau(   4) = (   2.8203605   0.0000000  10.0000000  )
         5           Tc1 tau(   5) = (   2.8203605   1.6283359  12.3028147  )
         6           Tc1 tau(   6) = (   1.4101802   4.0708397  12.3028147  )
         7           Tc1 tau(   7) = (  -1.4101802   4.0708397  12.3028147  )
         8           Sc1 tau(   8) = (   0.0000000   1.6283359  12.3028147  )
         9           Tc1 tau(   9) = (  -0.0000245   3.3611999  14.3962601  )
        10           Tc1 tau(  10) = (   1.5007473   0.7618822  14.3962721  )
        11           Tc1 tau(  11) = (   4.1400003   0.7619275  14.3962692  )
        12           Sc1 tau(  12) = (   2.8203346   3.2566855  14.9682341  )

     number of k points=    20  Fermi-Dirac smearing, width (Ry)=  0.0110
                       cart. coord. in units 2pi/alat
        k(    1) = (   0.0000000   0.0000000   0.0000000), wk =   0.0555556
        k(    2) = (   0.0000000   0.0341180   0.0000000), wk =   0.1111111
        k(    3) = (   0.0000000   0.0682360   0.0000000), wk =   0.1111111
        k(    4) = (   0.0000000  -0.1023540   0.0000000), wk =   0.0555556
        k(    5) = (   0.0295471   0.0170590   0.0000000), wk =   0.1111111
        k(    6) = (   0.0295471   0.0511770   0.0000000), wk =   0.1111111
        k(    7) = (   0.0295471   0.0852950   0.0000000), wk =   0.1111111
        k(    8) = (   0.0295471  -0.0852950   0.0000000), wk =   0.1111111
        k(    9) = (   0.0295471  -0.0511770   0.0000000), wk =   0.1111111
        k(   10) = (   0.0295471  -0.0170590   0.0000000), wk =   0.1111111
        k(   11) = (   0.0590941   0.0341180   0.0000000), wk =   0.1111111
        k(   12) = (   0.0590941   0.0682360   0.0000000), wk =   0.1111111
        k(   13) = (   0.0590941   0.1023540   0.0000000), wk =   0.1111111
        k(   14) = (   0.0590941  -0.0682360   0.0000000), wk =   0.1111111
        k(   15) = (   0.0590941  -0.0341180   0.0000000), wk =   0.1111111
        k(   16) = (   0.0590941  -0.0000000   0.0000000), wk =   0.1111111
        k(   17) = (  -0.0886412  -0.0511770   0.0000000), wk =   0.0555556
        k(   18) = (  -0.0886412  -0.0170590   0.0000000), wk =   0.1111111
        k(   19) = (  -0.0886412   0.0170590   0.0000000), wk =   0.1111111
        k(   20) = (  -0.0886412  -0.1535310   0.0000000), wk =   0.0555556

     Largest allocated arrays     est. size (Mb)     dimensions
     Largest temporary arrays     est. size (Mb)     dimensions

     Check: negative/imaginary core charge=   -0.000019    0.000000

     Initial potential from superposition of free atoms
     Check: negative starting charge=   -1.130610

     starting charge  158.99254, renormalised to  168.00000

[...]

     *
     * You are using vdW-DF for exchange-correlation in this calculation.
     * Please cite the following three references that made this development
     * possible:
     *
     *   M. Dion, H. Rydberg, E. Schroder, D. C. Langreth, and
     *   B. I. Lundqvist, Phys. Rev. Lett. 92, 246401 (2004).
     *
     *   T. Thonhauser, V. R. Cooper, S. Li, A. Puzder, P. Hyldgaard, and
     *   D. C. Langreth, Phys. Rev. B 76, 125112 (2007).
     *
     *   G. Roman-Perez and J. M. Soler, Phys. Rev. Lett. 103, 096102 (2009).
     *
     *
     * If you are using vdW-DF2, please also cite:
     *
     *   K. Lee, E. D. Murray, L. Kong, B. I. Lundqvist, and
     *   D. C. Langreth, Phys. Rev. B 82, 081101(R) (2010).
     *
     *
     * If you are calculating the stress with vdW-DF, please also cite:
     *
     *   R. Sabatini, E. Kucukbenli, B. Kolb, T. Thonhauser, and
     *   S. de Gironcoli, J. Phys.: Condens. Matter 24, 424209 (2012).
     *

     Carrying out vdW-DF run using the following parameters:

     Nqs =      20    Nr_points =    1024   r_max =   100.000
     q_mesh =
               0.00001000     0.04494208     0.09755937     0.15916263
               0.23128650     0.31572767     0.41458969     0.53033537
               0.66584808     0.82450364     1.01025438     1.22772762
               1.48234092     1.78043706     2.12944203     2.53805004
               3.01644009     3.57652955     4.23227104     5.00000000

     Gradients computed in reciprocal space

[...]

     Starting wfc are  156 randomized atomic wfcs

     Self-consistent Calculation

[...]

     total energy              =   -1861.88151788 Ry
     Harris-Foulkes estimate   =   -1861.88151774 Ry
     estimated scf accuracy    <       0.00000141 Ry

     iteration # 20     ecut=    36.75 Ry     beta=0.10
     Davidson diagonalization with overlap
     ethr =  8.38E-10,  avg # of iterations =  2.5

[...]

     negative rho (up, down):  1.178E+00 0.000E+00

     Adding external electric field

     Computed dipole along edir(3) :
        Dipole                0.1819 Ry au,          0.4624 Debye
        Dipole field          0.0005 Ry au

        Potential amp.       -0.0453 Ry
        Total length         45.3355 bohr

     End of self-consistent calculation

[...]

          k = 0.0591-0.0000 0.0000 ( 17214 PWs)   bands (ev):

[...]

          k =-0.0886-0.1535 0.0000 ( 17248 PWs)   bands (ev):

   -64.8259 -64.7974 -64.7698 -64.5634 -64.5154 -64.5061 -64.4921 -64.4915
   -64.4680 -47.6409 -47.0277 -46.3072 -37.1960 -37.0947 -37.0093 -36.9941
   -36.8843 -36.8756 -36.8305 -36.8113 -36.7953 -36.7432 -36.6255 -36.5912
   -36.5513 -36.5428 -36.5306 -36.5026 -36.4755 -36.4732 -36.4636 -36.4285
   -36.4135 -36.3817 -36.3678 -36.3617 -36.3551 -36.2631 -36.2582 -26.3534
   -26.1841 -26.1738 -25.7307 -25.6308 -25.6131 -25.0153 -24.9912 -24.9727
    -2.4143  -2.0951  -1.7208  -1.4720  -1.3059  -1.2485  -1.0888  -0.9780
    -0.9169  -0.8571  -0.7196  -0.6649  -0.5163  -0.4602  -0.2795  -0.2536
    -0.0926  -0.0072   0.0961   0.3133   0.5467   0.5808   0.7884   0.8084
     0.8659   0.9413   1.0228   1.0242   1.1382   1.1678   1.2083   1.3309
     1.3810   1.6435   1.9223   1.9948   2.0968   2.1076   2.2495   2.2702
     2.4755   2.6472   2.7545   2.8640   2.9107   2.9132   3.0965   3.3889
     3.4566   3.6371   3.7731   3.8752   4.2269   4.5003   4.5137   4.6539
     4.9656   5.0398   5.0631   5.4470   5.5039   5.5388   5.6076   5.7589
     6.2353   6.4281

     the Fermi energy is     2.1322 ev

!    total energy              =   -1861.88152269 Ry
     Harris-Foulkes estimate   =   -1861.88152129 Ry
     estimated scf accuracy    <       0.00000062 Ry

     The total energy is the sum of the following terms:

     one-electron contribution =  -15436.98623796 Ry
     hartree contribution      =    7715.40639312 Ry
     xc contribution           =    -339.74167126 Ry
     ewald contribution        =    6199.53205802 Ry
     electric field correction =       0.00009088 Ry
     smearing contrib. (-TS)   =      -0.09215548 Ry

     convergence has been achieved in  20 iterations

 BEEF-vdW xc energy contributions
           1 :   -296.589028031167
           2 :    271.304729761686
           3 :   -227.125977472012
           4 :    174.001831265667
           5 :   -121.841841521950
           6 :    77.5365368337804
           7 :   -43.8325448881037
           8 :    19.9232598128257
           9 :   -3.13979256087822
          10 :   -9.25656362007800
          11 :    18.8715040945477
          12 :   -25.9260161270454
          13 :    29.7285237168240
          14 :   -29.4598495187090
          15 :    24.8246565887803
          16 :   -16.3867110462265
          17 :    5.53588644625574
          18 :    5.81129735472632
          19 :   -15.6791422820902
          20 :    22.5139738990384
          21 :   -25.5475981242892
          22 :    24.9029498131596
          23 :   -21.4073783320984
          24 :    16.1877006112647
          25 :   -10.2491754276188
          26 :    4.22974082802625
          27 :    1.56823224074947
          28 :   -6.94567922816771
          29 :    11.5547452627443
          30 :   -14.8210408469094
          31 :   -28.9445029027320
          32 :   -21.1216901307486

     Forces acting on atoms (Ry/au):

     negative rho (up, down):  1.178E+00 0.000E+00
     atom    1 type  1   force =    -0.00000104   -0.02105095    0.01766357
     atom    2 type  1   force =    -0.01823017    0.01052494    0.01766357
     atom    3 type  1   force =     0.01823096    0.01052664    0.01766347
     atom    4 type  2   force =    -0.00000103   -0.00000131   -0.04799981
     atom    5 type  1   force =     0.00000046    0.01770935    0.01071969
     atom    6 type  1   force =     0.01533284   -0.00885361    0.01073007
     atom    7 type  1   force =    -0.01533609   -0.00885576    0.01072245
     atom    8 type  2   force =     0.00000428   -0.00000576   -0.03695403
     atom    9 type  1   force =     0.00000076    0.00022254   -0.00010613
     atom   10 type  1   force =     0.00019259   -0.00010930   -0.00010999
     atom   11 type  1   force =    -0.00019156   -0.00011139   -0.00010755
     atom   12 type  2   force =    -0.00000200    0.00000461    0.00011468

     Total force =     0.084976     Total SCF correction =     0.004392

     entering subroutine stress ...

     negative rho (up, down):  1.178E+00 0.000E+00
          total   stress  (Ry/bohr**3)                   (kbar)     P=  -16.46
  -0.00016039  -0.00000000  -0.00000000        -23.59     -0.00     -0.00
  -0.00000000  -0.00016038   0.00000000         -0.00    -23.59      0.00
  -0.00000000   0.00000000  -0.00001497         -0.00      0.00     -2.20

 !ASE

     Writing output data file calc.save

     General routines

     Parallel routines

   This run was terminated on:  22:34:21   1Jan2019

   JOB DONE.
Job  /afs/slac/g/suncat/bin/suncat-tsmpirun -x LD_LIBRARY_PATH -wdir /scratch/qe649177_QE2lj pw.x -in pw.inp

TID   HOST_NAME   COMMAND_LINE            STATUS            TERMINATION_TIME
00000 suncat0182 pw.x -in pw.inp   Done                     01/01/2019 22:34:21
00001 suncat0182 pw.x -in pw.inp   Done                     01/01/2019 22:34:21
00002 suncat0182 pw.x -in pw.inp   Done                     01/01/2019 22:34:21
00003 suncat0182 pw.x -in pw.inp   Done                     01/01/2019 22:34:21
00004 suncat0182 pw.x -in pw.inp   Done                     01/01/2019 22:34:21
00005 suncat0182 pw.x -in pw.inp   Done                     01/01/2019 22:34:21
00006 suncat0182 pw.x -in pw.inp   Done                     01/01/2019 22:34:21
00007 suncat0182 pw.x -in pw.inp   Done                     01/01/2019 22:34:21
00008 suncat0181 pw.x -in pw.inp   Done                     01/01/2019 22:34:21
00009 suncat0181 pw.x -in pw.inp   Done                     01/01/2019 22:34:21
00010 suncat0181 pw.x -in pw.inp   Done                     01/01/2019 22:34:21
00011 suncat0181 pw.x -in pw.inp   Done                     01/01/2019 22:34:21
00012 suncat0181 pw.x -in pw.inp   Done                     01/01/2019 22:34:21
00013 suncat0181 pw.x -in pw.inp   Done                     01/01/2019 22:34:21
00014 suncat0181 pw.x -in pw.inp   Done                     01/01/2019 22:34:21
00015 suncat0181 pw.x -in pw.inp   Done                     01/01/2019 22:34:21
00016 suncat0132 pw.x -in pw.inp   Done                     01/01/2019 22:34:21
00017 suncat0132 pw.x -in pw.inp   Done                     01/01/2019 22:34:21
00018 suncat0132 pw.x -in pw.inp   Done                     01/01/2019 22:34:21
00019 suncat0132 pw.x -in pw.inp   Done                     01/01/2019 22:34:21
00020 suncat0132 pw.x -in pw.inp   Done                     01/01/2019 22:34:21
00021 suncat0132 pw.x -in pw.inp   Done                     01/01/2019 22:34:21
00022 suncat0132 pw.x -in pw.inp   Done                     01/01/2019 22:34:21
00023 suncat0132 pw.x -in pw.inp   Done                     01/01/2019 22:34:21
00024 suncat0131 pw.x -in pw.inp   Done                     01/01/2019 22:34:21
00025 suncat0131 pw.x -in pw.inp   Done                     01/01/2019 22:34:21
00026 suncat0131 pw.x -in pw.inp   Done                     01/01/2019 22:34:21
00027 suncat0131 pw.x -in pw.inp   Done                     01/01/2019 22:34:21
00028 suncat0131 pw.x -in pw.inp   Done                     01/01/2019 22:34:21
00029 suncat0131 pw.x -in pw.inp   Done                     01/01/2019 22:34:21
00030 suncat0131 pw.x -in pw.inp   Done                     01/01/2019 22:34:21
00031 suncat0131 pw.x -in pw.inp   Done                     01/01/2019 22:34:21
00032 suncat0130 pw.x -in pw.inp   Done                     01/01/2019 22:34:21
00033 suncat0130 pw.x -in pw.inp   Done                     01/01/2019 22:34:21
00034 suncat0130 pw.x -in pw.inp   Done                     01/01/2019 22:34:21
00035 suncat0130 pw.x -in pw.inp   Done                     01/01/2019 22:34:21
00036 suncat0130 pw.x -in pw.inp   Done                     01/01/2019 22:34:21
00037 suncat0130 pw.x -in pw.inp   Done                     01/01/2019 22:34:21
00038 suncat0130 pw.x -in pw.inp   Done                     01/01/2019 22:34:21
00039 suncat0130 pw.x -in pw.inp   Done                     01/01/2019 22:34:21
00040 suncat0124 pw.x -in pw.inp   Done                     01/01/2019 22:34:21
00041 suncat0124 pw.x -in pw.inp   Done                     01/01/2019 22:34:21
00042 suncat0124 pw.x -in pw.inp   Done                     01/01/2019 22:34:21
00043 suncat0124 pw.x -in pw.inp   Done                     01/01/2019 22:34:21
00044 suncat0124 pw.x -in pw.inp   Done                     01/01/2019 22:34:21
00045 suncat0124 pw.x -in pw.inp   Done                     01/01/2019 22:34:21
00046 suncat0124 pw.x -in pw.inp   Done                     01/01/2019 22:34:21
00047 suncat0124 pw.x -in pw.inp   Done                     01/01/2019 22:34:21
00048 suncat0280 pw.x -in pw.inp   Done                     01/01/2019 22:34:21
00049 suncat0280 pw.x -in pw.inp   Done                     01/01/2019 22:34:21
00050 suncat0280 pw.x -in pw.inp   Done                     01/01/2019 22:34:21
00051 suncat0280 pw.x -in pw.inp   Done                     01/01/2019 22:34:21
00052 suncat0280 pw.x -in pw.inp   Done                     01/01/2019 22:34:21
00053 suncat0280 pw.x -in pw.inp   Done                     01/01/2019 22:34:21
00054 suncat0280 pw.x -in pw.inp   Done                     01/01/2019 22:34:21
00055 suncat0280 pw.x -in pw.inp   Done                     01/01/2019 22:34:21
00056 suncat0279 pw.x -in pw.inp   Done                     01/01/2019 22:34:21
00057 suncat0279 pw.x -in pw.inp   Done                     01/01/2019 22:34:21
00058 suncat0279 pw.x -in pw.inp   Done                     01/01/2019 22:34:21
00059 suncat0279 pw.x -in pw.inp   Done                     01/01/2019 22:34:21
00060 suncat0279 pw.x -in pw.inp   Done                     01/01/2019 22:34:21
00061 suncat0279 pw.x -in pw.inp   Done                     01/01/2019 22:34:21
00062 suncat0279 pw.x -in pw.inp   Done                     01/01/2019 22:34:21
00063 suncat0279 pw.x -in pw.inp   Done                     01/01/2019 22:34:21