     Program PWSCF v.5.1rc2 (svn rev. 11289) starts on 30Dec2018 at 17:43:15

     Current dimensions of program PWSCF are:
     Max number of different atomic species (ntypx) = 10
     Max number of k-points (npk) =  40000
     Max angular momentum in pseudopotentials (lmaxx) =  3
     Presently stress not available with electric field

     IMPORTANT: XC functional enforced from input :
     Exchange-correlation      = BEEF-VDW ( 1  4 27 13 2)
     Any further DFT definition will be discarded
     Please, verify this is what you really want

     Subspace diagonalization in iterative solution of the eigenvalue problem:
     a serial algorithm will be used

     Generating pointlists ...
     new r_m :   0.4125 (alat units)  0.7795 (a.u.) for type    1
     new r_m :   0.4125 (alat units)  0.7795 (a.u.) for type    2

     bravais-lattice index     =            0
     lattice parameter (alat)  =       1.8897  a.u.
     unit-cell volume          =    4361.0681 (a.u.)^3
     number of atoms/cell      =           12
     number of atomic types    =            2
     number of electrons       =       174.00
     number of Kohn-Sham states=          117
     kinetic-energy cutoff     =      36.7493  Ry
     charge density cutoff     =     367.4932  Ry
     convergence threshold     =      1.0E-06
     mixing beta               =       0.1000
     number of iterations used =           10  plain     mixing
     Exchange-correlation      = BEEF-VDW ( 1  4 27 13 2)
     nstep                     =           50

     celldm(1)=   1.889726  celldm(2)=   0.000000  celldm(3)=   0.000000
     celldm(4)=   0.000000  celldm(5)=   0.000000  celldm(6)=   0.000000

     crystal axes: (cart. coord. in units of alat)
               a(1) = (   5.518232   0.000000   0.000000 )
               a(2) = (  -2.759116   4.778929   0.000000 )
               a(3) = (   0.000000   0.000000  24.505618 )

     reciprocal axes: (cart. coord. in units 2 pi/alat)
               b(1) = (  0.181217  0.104626  0.000000 )
               b(2) = (  0.000000  0.209252  0.000000 )
               b(3) = (  0.000000  0.000000  0.040807 )

     PseudoPot. # 1 for Mo read from file:
     /afs/slac.stanford.edu/u/if/mamunm/psp/gbrv1.5pbe/Mo.UPF
     MD5 check sum: 30c4dcd161f5d35cd49bb5239c51a633
     Pseudo is Ultrasoft + core correction, Zval = 14.0
     Generated by new atomic code, or converted to UPF format
     Using radial grid of  889 points,  6 beta functions with:
                l(1) =   0
                l(2) =   0
                l(3) =   1
                l(4) =   1
                l(5) =   2
                l(6) =   2
     Q(r) pseudized with  6 coefficients,  rinner =    1.000   1.000   1.000
                                                       1.000   1.000

     PseudoPot. # 2 for Fe read from file:
     /afs/slac.stanford.edu/u/if/mamunm/psp/gbrv1.5pbe/Fe.UPF
     MD5 check sum: a130daea23fe5165f5d574ae7f82ed95
     Pseudo is Ultrasoft + core correction, Zval = 16.0
     Generated by new atomic code, or converted to UPF format
     Using radial grid of  861 points,  6 beta functions with:
                l(1) =   0
                l(2) =   0
                l(3) =   1
                l(4) =   1
                l(5) =   2
                l(6) =   2
     Q(r) pseudized with  8 coefficients,  rinner =    1.000   1.000   1.000
                                                       1.000   1.000

     vdW kernel table read from file vdW_kernel_table
     MD5 check sum: 095c7af220d748ca6e76c0b4c6cfb241

     atomic species   valence    mass     pseudopotential
        Mo1           14.00    95.95000     Mo( 1.00)
        Fe1           16.00    55.84500     Fe( 1.00)

     Starting magnetic structure
     atomic species   magnetization
        Mo1          0.143
        Fe1          0.125

     No symmetry found

   Cartesian axes

     site n.     atom                  positions (alat units)
         1           Mo1 tau(   1) = (   0.0000000   0.0000000  10.0000000  )
         2           Mo1 tau(   2) = (  -1.3795581   2.3894647  10.0000000  )
         3           Mo1 tau(   3) = (   1.3795581   2.3894647  10.0000000  )
         4           Fe1 tau(   4) = (   2.7591162   0.0000000  10.0000000  )
         5           Mo1 tau(   5) = (   2.7591162   1.5929765  12.2528089  )
         6           Mo1 tau(   6) = (   1.3795581   3.9824412  12.2528089  )
         7           Mo1 tau(   7) = (  -1.3795581   3.9824412  12.2528089  )
         8           Fe1 tau(   8) = (   0.0000000   1.5929765  12.2528089  )
         9           Mo1 tau(   9) = (  -0.0000000   3.1859530  14.5056179  )
        10           Mo1 tau(  10) = (   1.3795581   0.7964882  14.5056179  )
        11           Mo1 tau(  11) = (   4.1386743   0.7964882  14.5056179  )
        12           Fe1 tau(  12) = (   2.7591162   3.1859530  14.5056179  )

     number of k points=    40  Fermi-Dirac smearing, width (Ry)=  0.0110
                       cart. coord. in units 2pi/alat
        k(    1) = (   0.0000000   0.0000000   0.0000000), wk =   0.0277778
        k(    2) = (   0.0000000   0.0348753   0.0000000), wk =   0.0555556
        k(    3) = (   0.0000000   0.0697506   0.0000000), wk =   0.0555556
        k(    4) = (   0.0000000  -0.1046259   0.0000000), wk =   0.0277778
        k(    5) = (   0.0302029   0.0174377   0.0000000), wk =   0.0555556
        k(    6) = (   0.0302029   0.0523130   0.0000000), wk =   0.0555556
        k(    7) = (   0.0302029   0.0871883   0.0000000), wk =   0.0555556
        k(    8) = (   0.0302029  -0.0871883   0.0000000), wk =   0.0555556
        k(    9) = (   0.0302029  -0.0523130   0.0000000), wk =   0.0555556
        k(   10) = (   0.0302029  -0.0174377   0.0000000), wk =   0.0555556
        k(   11) = (   0.0604058   0.0348753   0.0000000), wk =   0.0555556
        k(   12) = (   0.0604058   0.0697506   0.0000000), wk =   0.0555556
        k(   13) = (   0.0604058   0.1046259   0.0000000), wk =   0.0555556
        k(   14) = (   0.0604058  -0.0697506   0.0000000), wk =   0.0555556
        k(   15) = (   0.0604058  -0.0348753   0.0000000), wk =   0.0555556
        k(   16) = (   0.0604058   0.0000000   0.0000000), wk =   0.0555556
        k(   17) = (  -0.0906087  -0.0523130   0.0000000), wk =   0.0277778
        k(   18) = (  -0.0906087  -0.0174377   0.0000000), wk =   0.0555556
        k(   19) = (  -0.0906087   0.0174377   0.0000000), wk =   0.0555556
        k(   20) = (  -0.0906087  -0.1569389   0.0000000), wk =   0.0277778
        k(   21) = (   0.0000000   0.0000000   0.0000000), wk =   0.0277778
        k(   22) = (   0.0000000   0.0348753   0.0000000), wk =   0.0555556
        k(   23) = (   0.0000000   0.0697506   0.0000000), wk =   0.0555556
        k(   24) = (   0.0000000  -0.1046259   0.0000000), wk =   0.0277778
        k(   25) = (   0.0302029   0.0174377   0.0000000), wk =   0.0555556
        k(   26) = (   0.0302029   0.0523130   0.0000000), wk =   0.0555556
        k(   27) = (   0.0302029   0.0871883   0.0000000), wk =   0.0555556
        k(   28) = (   0.0302029  -0.0871883   0.0000000), wk =   0.0555556
        k(   29) = (   0.0302029  -0.0523130   0.0000000), wk =   0.0555556
        k(   30) = (   0.0302029  -0.0174377   0.0000000), wk =   0.0555556
        k(   31) = (   0.0604058   0.0348753   0.0000000), wk =   0.0555556
        k(   32) = (   0.0604058   0.0697506   0.0000000), wk =   0.0555556
        k(   33) = (   0.0604058   0.1046259   0.0000000), wk =   0.0555556
        k(   34) = (   0.0604058  -0.0697506   0.0000000), wk =   0.0555556
        k(   35) = (   0.0604058  -0.0348753   0.0000000), wk =   0.0555556
        k(   36) = (   0.0604058   0.0000000   0.0000000), wk =   0.0555556
        k(   37) = (  -0.0906087  -0.0523130   0.0000000), wk =   0.0277778
        k(   38) = (  -0.0906087  -0.0174377   0.0000000), wk =   0.0555556
        k(   39) = (  -0.0906087   0.0174377   0.0000000), wk =   0.0555556
        k(   40) = (  -0.0906087  -0.1569389   0.0000000), wk =   0.0277778

     Largest allocated arrays     est. size (Mb)     dimensions
     Largest temporary arrays     est. size (Mb)     dimensions

     Check: negative/imaginary core charge=   -0.000003    0.000000

     Initial potential from superposition of free atoms
     Check: negative starting charge=(component1):   -0.002400
     Check: negative starting charge=(component2):   -0.001800

     starting charge  170.99041, renormalised to  174.00000

     negative rho (up, down):  2.442E-03 1.832E-03

     *
     * You are using vdW-DF for exchange-correlation in this calculation.
     * Please cite the following three references that made this development
     * possible:
     *
     *   M. Dion, H. Rydberg, E. Schroder, D. C. Langreth, and
     *   B. I. Lundqvist, Phys. Rev. Lett. 92, 246401 (2004).
     *
     *   T. Thonhauser, V. R. Cooper, S. Li, A. Puzder, P. Hyldgaard, and
     *   D. C. Langreth, Phys. Rev. B 76, 125112 (2007).
     *
     *   G. Roman-Perez and J. M. Soler, Phys. Rev. Lett. 103, 096102 (2009).
     *
     *
     * If you are using vdW-DF2, please also cite:
     *
     *   K. Lee, E. D. Murray, L. Kong, B. I. Lundqvist, and
     *   D. C. Langreth, Phys. Rev. B 82, 081101(R) (2010).
     *
     *
     * If you are calculating the stress with vdW-DF, please also cite:
     *
     *   R. Sabatini, E. Kucukbenli, B. Kolb, T. Thonhauser, and
     *   S. de Gironcoli, J. Phys.: Condens. Matter 24, 424209 (2012).
     *

     Carrying out vdW-DF run using the following parameters:

     Nqs =      20    Nr_points =    1024   r_max =   100.000
     q_mesh =
               0.00001000     0.04494208     0.09755937     0.15916263
               0.23128650     0.31572767     0.41458969     0.53033537
               0.66584808     0.82450364     1.01025438     1.22772762
               1.48234092     1.78043706     2.12944203     2.53805004
               3.01644009     3.57652955     4.23227104     5.00000000

     Gradients computed in reciprocal space

     Adding external electric field

     Computed dipole along edir(3) :
        Dipole               -0.0000 Ry au,         -0.0000 Debye
        Dipole field         -0.0000 Ry au

        Potential amp.        0.0000 Ry
        Total length         45.1512 bohr

[...]

     Starting wfc are  156 randomized atomic wfcs

     Self-consistent Calculation

     iteration #  1     ecut=    36.75 Ry     beta=0.10
     Davidson diagonalization with overlap
     ethr =  1.00E-02,  avg # of iterations =  2.0

[...]

     Magnetic moment per site:
     atom:    1    charge:    1.8763    magn:    0.2482    constr:    0.0000
     atom:    2    charge:    1.8763    magn:    0.2482    constr:    0.0000
     atom:    3    charge:    1.8763    magn:    0.2482    constr:    0.0000
     atom:    4    charge:    7.2382    magn:    0.8126    constr:    0.0000
     atom:    5    charge:    1.8914    magn:    0.2488    constr:    0.0000
     atom:    6    charge:    1.8914    magn:    0.2488    constr:    0.0000
     atom:    7    charge:    1.8914    magn:    0.2488    constr:    0.0000
     atom:    8    charge:    7.2373    magn:    0.8133    constr:    0.0000
[...]
        k(    2) = (   0.0000000   0.0348753   0.0000000), wk =   0.0555556
        k(    3) = (   0.0000000   0.0697506   0.0000000), wk =   0.0555556
        k(    4) = (   0.0000000  -0.1046259   0.0000000), wk =   0.0277778
        k(    5) = (   0.0302029   0.0174377   0.0000000), wk =   0.0555556
        k(    6) = (   0.0302029   0.0523130   0.0000000), wk =   0.0555556
        k(    7) = (   0.0302029   0.0871883   0.0000000), wk =   0.0555556
        k(    8) = (   0.0302029  -0.0871883   0.0000000), wk =   0.0555556
        k(    9) = (   0.0302029  -0.0523130   0.0000000), wk =   0.0555556
        k(   10) = (   0.0302029  -0.0174377   0.0000000), wk =   0.0555556
        k(   11) = (   0.0604058   0.0348753   0.0000000), wk =   0.0555556
        k(   12) = (   0.0604058   0.0697506   0.0000000), wk =   0.0555556
        k(   13) = (   0.0604058   0.1046259   0.0000000), wk =   0.0555556
        k(   14) = (   0.0604058  -0.0697506   0.0000000), wk =   0.0555556
        k(   15) = (   0.0604058  -0.0348753   0.0000000), wk =   0.0555556
        k(   16) = (   0.0604058   0.0000000   0.0000000), wk =   0.0555556
        k(   17) = (  -0.0906087  -0.0523130   0.0000000), wk =   0.0277778
        k(   18) = (  -0.0906087  -0.0174377   0.0000000), wk =   0.0555556
        k(   19) = (  -0.0906087   0.0174377   0.0000000), wk =   0.0555556
        k(   20) = (  -0.0906087  -0.1569389   0.0000000), wk =   0.0277778
        k(   21) = (   0.0000000   0.0000000   0.0000000), wk =   0.0277778
        k(   22) = (   0.0000000   0.0348753   0.0000000), wk =   0.0555556
        k(   23) = (   0.0000000   0.0697506   0.0000000), wk =   0.0555556
        k(   24) = (   0.0000000  -0.1046259   0.0000000), wk =   0.0277778
        k(   25) = (   0.0302029   0.0174377   0.0000000), wk =   0.0555556
        k(   26) = (   0.0302029   0.0523130   0.0000000), wk =   0.0555556
        k(   27) = (   0.0302029   0.0871883   0.0000000), wk =   0.0555556
        k(   28) = (   0.0302029  -0.0871883   0.0000000), wk =   0.0555556
        k(   29) = (   0.0302029  -0.0523130   0.0000000), wk =   0.0555556
        k(   30) = (   0.0302029  -0.0174377   0.0000000), wk =   0.0555556
        k(   31) = (   0.0604058   0.0348753   0.0000000), wk =   0.0555556
        k(   32) = (   0.0604058   0.0697506   0.0000000), wk =   0.0555556
        k(   33) = (   0.0604058   0.1046259   0.0000000), wk =   0.0555556
        k(   34) = (   0.0604058  -0.0697506   0.0000000), wk =   0.0555556
        k(   35) = (   0.0604058  -0.0348753   0.0000000), wk =   0.0555556
        k(   36) = (   0.0604058   0.0000000   0.0000000), wk =   0.0555556
        k(   37) = (  -0.0906087  -0.0523130   0.0000000), wk =   0.0277778
        k(   38) = (  -0.0906087  -0.0174377   0.0000000), wk =   0.0555556
        k(   39) = (  -0.0906087   0.0174377   0.0000000), wk =   0.0555556
        k(   40) = (  -0.0906087  -0.1569389   0.0000000), wk =   0.0277778

     Largest allocated arrays     est. size (Mb)     dimensions
     Largest temporary arrays     est. size (Mb)     dimensions

     Check: negative/imaginary core charge=   -0.000003    0.000000

     Initial potential from superposition of free atoms
     Check: negative starting charge=(component1):   -0.002479
     Check: negative starting charge=(component2):   -0.001860

     starting charge  170.99041, renormalised to  174.00000

[...]

     *
     * You are using vdW-DF for exchange-correlation in this calculation.
     * Please cite the following three references that made this development
     * possible:
     *
     *   M. Dion, H. Rydberg, E. Schroder, D. C. Langreth, and
     *   B. I. Lundqvist, Phys. Rev. Lett. 92, 246401 (2004).
     *
     *   T. Thonhauser, V. R. Cooper, S. Li, A. Puzder, P. Hyldgaard, and
     *   D. C. Langreth, Phys. Rev. B 76, 125112 (2007).
     *
     *   G. Roman-Perez and J. M. Soler, Phys. Rev. Lett. 103, 096102 (2009).
     *
     *
     * If you are using vdW-DF2, please also cite:
     *
     *   K. Lee, E. D. Murray, L. Kong, B. I. Lundqvist, and
     *   D. C. Langreth, Phys. Rev. B 82, 081101(R) (2010).
     *
     *
     * If you are calculating the stress with vdW-DF, please also cite:
     *
     *   R. Sabatini, E. Kucukbenli, B. Kolb, T. Thonhauser, and
     *   S. de Gironcoli, J. Phys.: Condens. Matter 24, 424209 (2012).
     *

     Carrying out vdW-DF run using the following parameters:

     Nqs =      20    Nr_points =    1024   r_max =   100.000
     q_mesh =
               0.00001000     0.04494208     0.09755937     0.15916263
               0.23128650     0.31572767     0.41458969     0.53033537
               0.66584808     0.82450364     1.01025438     1.22772762
               1.48234092     1.78043706     2.12944203     2.53805004
               3.01644009     3.57652955     4.23227104     5.00000000

     Gradients computed in reciprocal space

[...]

     Starting wfc are  156 randomized atomic wfcs

     Self-consistent Calculation

[...]

     total energy              =   -2013.38953763 Ry
     Harris-Foulkes estimate   =   -2013.38953663 Ry
     estimated scf accuracy    <       0.00000124 Ry

[...]

     iteration # 35     ecut=    36.75 Ry     beta=0.10
     Davidson diagonalization with overlap
     ethr =  7.11E-10,  avg # of iterations =  2.1

[...]

     negative rho (up, down):  2.091E-03 2.122E-03

[...]

     Adding external electric field

     Computed dipole along edir(3) :
        Dipole                0.0209 Ry au,          0.0531 Debye
        Dipole field          0.0001 Ry au

        Potential amp.       -0.0054 Ry
        Total length         45.1512 bohr

     Magnetic moment per site:
     atom:    1    charge:    1.8526    magn:   -0.0142    constr:    0.0000
     atom:    2    charge:    1.8526    magn:   -0.0142    constr:    0.0000
     atom:    3    charge:    1.8526    magn:   -0.0142    constr:    0.0000
     atom:    4    charge:    7.0685    magn:    1.1255    constr:    0.0000
     atom:    5    charge:    1.8607    magn:   -0.0049    constr:    0.0000
     atom:    6    charge:    1.8607    magn:   -0.0049    constr:    0.0000
     atom:    7    charge:    1.8607    magn:   -0.0049    constr:    0.0000
     atom:    8    charge:    7.0609    magn:    0.8909    constr:    0.0000
     atom:    9    charge:    1.8607    magn:   -0.0143    constr:    0.0000
     atom:   10    charge:    1.8607    magn:   -0.0143    constr:    0.0000
     atom:   11    charge:    1.8607    magn:   -0.0143    constr:    0.0000
     atom:   12    charge:    7.0708    magn:    1.1466    constr:    0.0000

     End of self-consistent calculation

 ------ SPIN UP ------------

[...]

 ------ SPIN DOWN ----------

[...]

          k = 0.0604 0.0000 0.0000 ( 16416 PWs)   bands (ev):

[...]

          k =-0.0906-0.1569 0.0000 ( 16424 PWs)   bands (ev):

   -83.8663 -83.6177 -83.5889 -59.0574 -59.0358 -58.9910 -58.9614 -58.9466
   -58.9148 -58.9056 -58.8884 -58.8517 -49.9534 -49.9309 -49.9302 -49.7052
   -49.6999 -49.6991 -49.6739 -49.6732 -49.6725 -33.5962 -33.5457 -33.4215
   -33.3724 -33.3198 -33.2662 -33.2532 -33.2261 -33.1529 -33.1075 -33.0763
   -33.0659 -33.0088 -33.0075 -32.9918 -32.9756 -32.9502 -32.9405 -32.8292
   -32.8134 -32.7776 -32.6809 -32.6211 -32.6064 -32.5936 -32.5513 -32.5042
    -2.7004  -2.6749  -1.9487  -1.7754  -1.6438  -1.5443  -1.2941  -1.0537
    -0.9315  -0.8830  -0.8585  -0.7201  -0.6554  -0.3220  -0.2862  -0.2634
    -0.1673  -0.0368   0.0590   0.3069   0.5227   0.5467   0.7122   0.9351
     0.9744   0.9748   1.0688   1.0920   1.1641   1.1913   1.3553   1.3892
     1.3955   1.5719   1.6167   1.6322   1.7268   1.9238   1.9286   2.1375
     2.4338   2.5133   2.5785   2.7542   2.8011   2.8686   2.9006   3.0064
     3.1298   3.1873   3.4317   3.4841   3.5229   3.6294   3.6583   3.8214
     4.0111   4.1460   4.2838   4.4337   4.4819   5.0189   5.2170   5.2800
     5.6588   6.1159   6.2482   6.7619   6.8954

     the Fermi energy is     1.9762 ev

!    total energy              =   -2013.38954218 Ry
     Harris-Foulkes estimate   =   -2013.38953808 Ry
     estimated scf accuracy    <       0.00000078 Ry

     The total energy is the sum of the following terms:

     one-electron contribution =  -17491.76554465 Ry
     hartree contribution      =    8741.33000947 Ry
     xc contribution           =    -270.83857540 Ry
     ewald contribution        =    7007.98643736 Ry
     electric field correction =       0.00000126 Ry
     smearing contrib. (-TS)   =      -0.10187023 Ry

     total magnetization       =     5.15 Bohr mag/cell
     absolute magnetization    =     9.00 Bohr mag/cell

     convergence has been achieved in  35 iterations

 BEEF-vdW xc energy contributions
           1 :   -234.139760923411
           2 :    213.245980088017
           3 :   -177.721328977836
           4 :    137.318926288079
           5 :   -101.442459404959
           6 :    75.9689961912894
           7 :   -62.0282760516833
           8 :    56.8307261412871
           9 :   -55.7986498802692
          10 :    54.8004559002814
          11 :   -51.5875437824953
          12 :    46.0396641227321
          13 :   -39.4664552452958
          14 :    33.5054901419332
          15 :   -29.2230922058379
          16 :    26.7336233132083
          17 :   -25.3731554020467
          18 :    24.1774832616018
          19 :   -22.3856867811402
          20 :    19.7288531087530
          21 :   -16.4501371994797
          22 :    13.0961229097114
          23 :   -10.2266116821648
          24 :    8.16119345350688
          25 :   -6.87137133785893
          26 :    6.02797033190274
          27 :   -5.17831995881181
          28 :    3.95477155467978
          29 :   -2.23270985758717
          30 :   0.159745963245882
          31 :   -24.6390514866625
          32 :   -18.4818020486153

     Forces acting on atoms (Ry/au):

     negative rho (up, down):  2.091E-03 2.122E-03
     atom    1 type  1   force =     0.00000014    0.01099882    0.01510491
     atom    2 type  1   force =     0.00952591   -0.00549990    0.01510316
     atom    3 type  1   force =    -0.00952549   -0.00549988    0.01510381
     atom    4 type  2   force =     0.00000038   -0.00000077   -0.00730582
     atom    5 type  1   force =     0.00000024    0.00461699   -0.00767243
     atom    6 type  1   force =     0.00399862   -0.00230874   -0.00767279
     atom    7 type  1   force =    -0.00399839   -0.00230884   -0.00767263
     atom    8 type  2   force =    -0.00000224    0.00000323   -0.01738140
     atom    9 type  1   force =     0.00000006    0.00029156    0.00024849
     atom   10 type  1   force =     0.00025306   -0.00014606    0.00024882
     atom   11 type  1   force =    -0.00025264   -0.00014592    0.00024869
     atom   12 type  2   force =     0.00000035   -0.00000048    0.00164719

     Total force =     0.040578     Total SCF correction =     0.001154

     entering subroutine stress ...

     negative rho (up, down):  2.091E-03 2.122E-03
          total   stress  (Ry/bohr**3)                   (kbar)     P=  -19.05
  -0.00017611  -0.00000000  -0.00000000        -25.91     -0.00     -0.00
  -0.00000000  -0.00017612   0.00000000         -0.00    -25.91      0.00
  -0.00000000   0.00000000  -0.00003636         -0.00      0.00     -5.35

 !ASE

     Writing output data file calc.save

     General routines

     Parallel routines

   This run was terminated on:  23:17: 4  30Dec2018

   JOB DONE.
Job  /afs/slac/g/suncat/bin/suncat-tsmpirun -x LD_LIBRARY_PATH -wdir /scratch/qe648600_9zky4 pw.x -in pw.inp

TID   HOST_NAME   COMMAND_LINE            STATUS            TERMINATION_TIME
00000 suncat0075 pw.x -in pw.inp   Done                     12/30/2018 23:17:04
00001 suncat0075 pw.x -in pw.inp   Done                     12/30/2018 23:17:04
00002 suncat0075 pw.x -in pw.inp   Done                     12/30/2018 23:17:04
00003 suncat0075 pw.x -in pw.inp   Done                     12/30/2018 23:17:04
00004 suncat0075 pw.x -in pw.inp   Done                     12/30/2018 23:17:04
00005 suncat0075 pw.x -in pw.inp   Done                     12/30/2018 23:17:04
00006 suncat0075 pw.x -in pw.inp   Done                     12/30/2018 23:17:04
00007 suncat0075 pw.x -in pw.inp   Done                     12/30/2018 23:17:04
00008 suncat0055 pw.x -in pw.inp   Done                     12/30/2018 23:17:04
00009 suncat0055 pw.x -in pw.inp   Done                     12/30/2018 23:17:04
00010 suncat0055 pw.x -in pw.inp   Done                     12/30/2018 23:17:04
00011 suncat0055 pw.x -in pw.inp   Done                     12/30/2018 23:17:04
00012 suncat0055 pw.x -in pw.inp   Done                     12/30/2018 23:17:04
00013 suncat0055 pw.x -in pw.inp   Done                     12/30/2018 23:17:04
00014 suncat0055 pw.x -in pw.inp   Done                     12/30/2018 23:17:04
00015 suncat0055 pw.x -in pw.inp   Done                     12/30/2018 23:17:04
00016 suncat0051 pw.x -in pw.inp   Done                     12/30/2018 23:17:04
00017 suncat0051 pw.x -in pw.inp   Done                     12/30/2018 23:17:04
00018 suncat0051 pw.x -in pw.inp   Done                     12/30/2018 23:17:04
00019 suncat0051 pw.x -in pw.inp   Done                     12/30/2018 23:17:04
00020 suncat0051 pw.x -in pw.inp   Done                     12/30/2018 23:17:04
00021 suncat0051 pw.x -in pw.inp   Done                     12/30/2018 23:17:04
00022 suncat0051 pw.x -in pw.inp   Done                     12/30/2018 23:17:04
00023 suncat0051 pw.x -in pw.inp   Done                     12/30/2018 23:17:04
00024 suncat0022 pw.x -in pw.inp   Done                     12/30/2018 23:17:04
00025 suncat0022 pw.x -in pw.inp   Done                     12/30/2018 23:17:04
00026 suncat0022 pw.x -in pw.inp   Done                     12/30/2018 23:17:04
00027 suncat0022 pw.x -in pw.inp   Done                     12/30/2018 23:17:04
00028 suncat0022 pw.x -in pw.inp   Done                     12/30/2018 23:17:04
00029 suncat0022 pw.x -in pw.inp   Done                     12/30/2018 23:17:04
00030 suncat0022 pw.x -in pw.inp   Done                     12/30/2018 23:17:04
00031 suncat0022 pw.x -in pw.inp   Done                     12/30/2018 23:17:04
00032 suncat0015 pw.x -in pw.inp   Done                     12/30/2018 23:17:04
00033 suncat0015 pw.x -in pw.inp   Done                     12/30/2018 23:17:04
00034 suncat0015 pw.x -in pw.inp   Done                     12/30/2018 23:17:04
00035 suncat0015 pw.x -in pw.inp   Done                     12/30/2018 23:17:04
00036 suncat0015 pw.x -in pw.inp   Done                     12/30/2018 23:17:04
00037 suncat0015 pw.x -in pw.inp   Done                     12/30/2018 23:17:04
00038 suncat0015 pw.x -in pw.inp   Done                     12/30/2018 23:17:04
00039 suncat0015 pw.x -in pw.inp   Done                     12/30/2018 23:17:04
00040 suncat0196 pw.x -in pw.inp   Done                     12/30/2018 23:17:04
00041 suncat0196 pw.x -in pw.inp   Done                     12/30/2018 23:17:04
00042 suncat0196 pw.x -in pw.inp   Done                     12/30/2018 23:17:04
00043 suncat0196 pw.x -in pw.inp   Done                     12/30/2018 23:17:04
00044 suncat0196 pw.x -in pw.inp   Done                     12/30/2018 23:17:04
00045 suncat0196 pw.x -in pw.inp   Done                     12/30/2018 23:17:04
00046 suncat0196 pw.x -in pw.inp   Done                     12/30/2018 23:17:04
00047 suncat0196 pw.x -in pw.inp   Done                     12/30/2018 23:17:04
00048 suncat0270 pw.x -in pw.inp   Done                     12/30/2018 23:17:04
00049 suncat0270 pw.x -in pw.inp   Done                     12/30/2018 23:17:04
00050 suncat0270 pw.x -in pw.inp   Done                     12/30/2018 23:17:04
00051 suncat0270 pw.x -in pw.inp   Done                     12/30/2018 23:17:04
00052 suncat0270 pw.x -in pw.inp   Done                     12/30/2018 23:17:04
00053 suncat0270 pw.x -in pw.inp   Done                     12/30/2018 23:17:04
00054 suncat0270 pw.x -in pw.inp   Done                     12/30/2018 23:17:04
00055 suncat0270 pw.x -in pw.inp   Done                     12/30/2018 23:17:04
00056 suncat0268 pw.x -in pw.inp   Done                     12/30/2018 23:17:04
00057 suncat0268 pw.x -in pw.inp   Done                     12/30/2018 23:17:04
00058 suncat0268 pw.x -in pw.inp   Done                     12/30/2018 23:17:04
00059 suncat0268 pw.x -in pw.inp   Done                     12/30/2018 23:17:04
00060 suncat0268 pw.x -in pw.inp   Done                     12/30/2018 23:17:04
00061 suncat0268 pw.x -in pw.inp   Done                     12/30/2018 23:17:04
00062 suncat0268 pw.x -in pw.inp   Done                     12/30/2018 23:17:04
00063 suncat0268 pw.x -in pw.inp   Done                     12/30/2018 23:17:04