     Program PWSCF v.5.1rc2 (svn rev. 11289) starts on  1Jan2019 at  8: 8:40

     Current dimensions of program PWSCF are:
     Max number of different atomic species (ntypx) = 10
     Max number of k-points (npk) =  40000
     Max angular momentum in pseudopotentials (lmaxx) =  3
     Presently stress not available with electric field

     IMPORTANT: XC functional enforced from input :
     Exchange-correlation      = BEEF-VDW ( 1  4 27 13 2)
     Any further DFT definition will be discarded
     Please, verify this is what you really want

     Subspace diagonalization in iterative solution of the eigenvalue problem:
     a serial algorithm will be used

     bravais-lattice index     =            0
     lattice parameter (alat)  =       1.8897  a.u.
     unit-cell volume          =    6909.9112 (a.u.)^3
     number of atoms/cell      =           12
     number of atomic types    =            2
     number of electrons       =       132.00
     number of Kohn-Sham states=           96
     kinetic-energy cutoff     =      36.7493  Ry
     charge density cutoff     =     367.4932  Ry
     convergence threshold     =      1.0E-06
     mixing beta               =       0.1000
     number of iterations used =           10  plain     mixing
     Exchange-correlation      = BEEF-VDW ( 1  4 27 13 2)
     nstep                     =           50

     celldm(1)=   1.889726  celldm(2)=   0.000000  celldm(3)=   0.000000
     celldm(4)=   0.000000  celldm(5)=   0.000000  celldm(6)=   0.000000

     crystal axes: (cart. coord. in units of alat)
               a(1) = (   6.802115   0.000000   0.000000 )
               a(2) = (  -3.401058   5.890805   0.000000 )
               a(3) = (   0.000000   0.000000  25.553904 )

     reciprocal axes: (cart. coord. in units 2 pi/alat)
               b(1) = (  0.147013  0.084878  0.000000 )
               b(2) = (  0.000000  0.169756  0.000000 )
               b(3) = (  0.000000  0.000000  0.039133 )

     PseudoPot. # 1 for Sc read from file:
     /afs/slac.stanford.edu/u/if/mamunm/psp/gbrv1.5pbe/Sc.UPF
     MD5 check sum: db30a2753ba66ef00f23801d899b7e7f
     Pseudo is Ultrasoft + core correction, Zval = 11.0
     Generated by new atomic code, or converted to UPF format
     Using radial grid of  849 points,  6 beta functions with:
                l(1) =   0
                l(2) =   0
                l(3) =   1
                l(4) =   1
                l(5) =   2
                l(6) =   2
     Q(r) pseudized with  6 coefficients,  rinner =    1.200   1.200   1.200
                                                       1.200   1.200

     PseudoPot. # 2 for La read from file:
     /afs/slac.stanford.edu/u/if/mamunm/psp/gbrv1.5pbe/La.UPF
     MD5 check sum: 5937b0c7494ba0601a847275249473aa
     Pseudo is Ultrasoft + core correction, Zval = 11.0
     Generated by new atomic code, or converted to UPF format
     Using radial grid of  995 points,  8 beta functions with:
                l(1) =   0
                l(2) =   0
                l(3) =   1
                l(4) =   1
                l(5) =   2
                l(6) =   2
                l(7) =   3
                l(8) =   3
     Q(r) pseudized with  8 coefficients,  rinner =    1.700   1.700   1.700
                                                       1.700   1.700   1.700
                                                       1.700

     vdW kernel table read from file vdW_kernel_table
     MD5 check sum: 095c7af220d748ca6e76c0b4c6cfb241

     atomic species   valence    mass     pseudopotential
        Sc1           11.00    44.95591     Sc( 1.00)
        La1           11.00   138.90547     La( 1.00)

     No symmetry found

   Cartesian axes

     site n.     atom                  positions (alat units)
         1           Sc1 tau(   1) = (   0.0000000   0.0000000  10.0000000  )
         2           Sc1 tau(   2) = (  -1.7005288   2.9454023  10.0000000  )
         3           Sc1 tau(   3) = (   1.7005288   2.9454023  10.0000000  )
         4           La1 tau(   4) = (   3.4010577   0.0000000  10.0000000  )
         5           Sc1 tau(   5) = (   3.4010577   1.9636016  12.7769519  )
         6           Sc1 tau(   6) = (   1.7005288   4.9090039  12.7769519  )
         7           Sc1 tau(   7) = (  -1.7005288   4.9090039  12.7769519  )
         8           La1 tau(   8) = (  -0.0000000   1.9636016  12.7769519  )
         9           Sc1 tau(   9) = (  -0.0000000   3.9272031  15.5539039  )
        10           Sc1 tau(  10) = (   1.7005288   0.9818008  15.5539039  )
        11           Sc1 tau(  11) = (   5.1015865   0.9818008  15.5539039  )
        12           La1 tau(  12) = (   3.4010577   3.9272031  15.5539039  )

     number of k points=    20  Fermi-Dirac smearing, width (Ry)=  0.0110
                       cart. coord. in units 2pi/alat
        k(    1) = (   0.0000000   0.0000000   0.0000000), wk =   0.0555556
        k(    2) = (   0.0000000   0.0282927   0.0000000), wk =   0.1111111
        k(    3) = (   0.0000000   0.0565854   0.0000000), wk =   0.1111111
        k(    4) = (   0.0000000  -0.0848780   0.0000000), wk =   0.0555556
        k(    5) = (   0.0245022   0.0141463   0.0000000), wk =   0.1111111
        k(    6) = (   0.0245022   0.0424390   0.0000000), wk =   0.1111111
        k(    7) = (   0.0245022   0.0707317   0.0000000), wk =   0.1111111
        k(    8) = (   0.0245022  -0.0707317   0.0000000), wk =   0.1111111
        k(    9) = (   0.0245022  -0.0424390   0.0000000), wk =   0.1111111
        k(   10) = (   0.0245022  -0.0141463   0.0000000), wk =   0.1111111
        k(   11) = (   0.0490044   0.0282927   0.0000000), wk =   0.1111111
        k(   12) = (   0.0490044   0.0565854   0.0000000), wk =   0.1111111
        k(   13) = (   0.0490044   0.0848780   0.0000000), wk =   0.1111111
        k(   14) = (   0.0490044  -0.0565854   0.0000000), wk =   0.1111111
        k(   15) = (   0.0490044  -0.0282927   0.0000000), wk =   0.1111111
        k(   16) = (   0.0490044   0.0000000   0.0000000), wk =   0.1111111
        k(   17) = (  -0.0735065  -0.0424390   0.0000000), wk =   0.0555556
        k(   18) = (  -0.0735065  -0.0141463   0.0000000), wk =   0.1111111
        k(   19) = (  -0.0735065   0.0141463   0.0000000), wk =   0.1111111
        k(   20) = (  -0.0735065  -0.1273171   0.0000000), wk =   0.0555556

     Largest allocated arrays     est. size (Mb)     dimensions
     Largest temporary arrays     est. size (Mb)     dimensions

     Initial potential from superposition of free atoms
     Check: negative starting charge=   -0.209934

     starting charge  131.88217, renormalised to  132.00000

     negative rho (up, down):  2.101E-01 0.000E+00

     *
     * You are using vdW-DF for exchange-correlation in this calculation.
     * Please cite the following three references that made this development
     * possible:
     *
     *   M. Dion, H. Rydberg, E. Schroder, D. C. Langreth, and
     *   B. I. Lundqvist, Phys. Rev. Lett. 92, 246401 (2004).
     *
     *   T. Thonhauser, V. R. Cooper, S. Li, A. Puzder, P. Hyldgaard, and
     *   D. C. Langreth, Phys. Rev. B 76, 125112 (2007).
     *
     *   G. Roman-Perez and J. M. Soler, Phys. Rev. Lett. 103, 096102 (2009).
     *
     *
     * If you are using vdW-DF2, please also cite:
     *
     *   K. Lee, E. D. Murray, L. Kong, B. I. Lundqvist, and
     *   D. C. Langreth, Phys. Rev. B 82, 081101(R) (2010).
     *
     *
     * If you are calculating the stress with vdW-DF, please also cite:
     *
     *   R. Sabatini, E. Kucukbenli, B. Kolb, T. Thonhauser, and
     *   S. de Gironcoli, J. Phys.: Condens. Matter 24, 424209 (2012).
     *

     Carrying out vdW-DF run using the following parameters:

     Nqs =      20    Nr_points =    1024   r_max =   100.000
     q_mesh =
               0.00001000     0.04494208     0.09755937     0.15916263
               0.23128650     0.31572767     0.41458969     0.53033537
               0.66584808     0.82450364     1.01025438     1.22772762
               1.48234092     1.78043706     2.12944203     2.53805004
               3.01644009     3.57652955     4.23227104     5.00000000

     Gradients computed in reciprocal space

     Adding external electric field

     Computed dipole along edir(3) :
        Dipole                0.0000 Ry au,          0.0000 Debye
        Dipole field          0.0000 Ry au

        Potential amp.       -0.0000 Ry
        Total length         47.0826 bohr

     Starting wfc are  177 randomized atomic wfcs

     Self-consistent Calculation

     iteration #  1     ecut=    36.75 Ry     beta=0.10
     Davidson diagonalization with overlap
     ethr =  1.00E-02,  avg # of iterations =  1.9

[...]

     total energy              =   -1164.38995673 Ry
     Harris-Foulkes estimate   =   -1165.89644919 Ry
     estimated scf accuracy    <       8.40074244 Ry

[...]

     iteration #  8     ecut=    36.75 Ry     beta=0.10
     Davidson diagonalization with overlap
     c_bands:  1 eigenvalues not converged
     c_bands:  1 eigenvalues not converged
     ethr =  2.25E-05,  avg # of iterations = 11.1

[...]

     End of self-consistent calculation

          k = 0.0000 0.0000 0.0000 ( 26073 PWs)   bands (ev):

   -49.3345 -49.3342 -49.3176 -49.3175 -49.3174 -49.3174 -48.9573 -48.9405
   -48.9404 -32.0390 -32.0377 -31.5428 -28.0030 -27.9939 -27.9761 -27.9761
   -27.9709 -27.9709 -27.9528 -27.9473 -27.9235 -27.9235 -27.9192 -27.9191
   -27.8353 -27.8340 -27.7845 -27.7844 -27.7836 -27.7835 -27.6116 -27.5941
   -27.5940 -27.5182 -27.5182 -27.5135 -27.5087 -27.4171 -27.4171 -15.7202
   -15.7041 -15.6572 -15.6571 -15.6535 -15.6535 -15.2364 -15.2183 -15.2183
    -3.2526  -2.3406  -1.4173  -0.8912  -0.8912  -0.7812  -0.7812  -0.4337
    -0.4337   0.0309   0.1400   0.1825   0.1825   0.2783   0.3305   0.5090
     0.5090   0.5905   1.0378   1.0943   1.2513   1.2736   1.5186   1.5186
     1.6416   1.7738   1.7738   1.9135   2.0075   2.1320   2.1320   2.1390
     2.1856   2.2331   2.2331   2.2521   2.2521   2.3336   2.3336   2.4185
     2.4185   2.5366   2.5366   2.6479   2.6953   2.6953   2.7632   2.7634

[...]

          k =-0.0735-0.0424 0.0000 ( 25946 PWs)   bands (ev):

[...]

     the Fermi energy is     0.8448 ev

!    total energy              =   -1165.19282100 Ry
     Harris-Foulkes estimate   =   -1165.19282632 Ry
     estimated scf accuracy    <       0.00000082 Ry

     The total energy is the sum of the following terms:

     one-electron contribution =   -6187.34134965 Ry
     hartree contribution      =    3082.63180925 Ry
     xc contribution           =    -276.63372262 Ry
     ewald contribution        =    2216.29360703 Ry
     electric field correction =       0.00000015 Ry
     smearing contrib. (-TS)   =      -0.14316516 Ry

     convergence has been achieved in  20 iterations

 BEEF-vdW xc energy contributions
           1 :   -240.356420240673
           2 :    216.922058301916
           3 :   -178.211748304315
           4 :    135.984260360081
           5 :   -99.8351675576307
           6 :    73.8875036624668
           7 :   -57.2789342209470
           8 :    46.9885501392592
           9 :   -40.4599259736165
[...]
               b(3) = (  0.000000  0.000000  0.039133 )

     PseudoPot. # 1 for Sc read from file:
     /afs/slac.stanford.edu/u/if/mamunm/psp/gbrv1.5pbe/Sc.UPF
     MD5 check sum: db30a2753ba66ef00f23801d899b7e7f
     Pseudo is Ultrasoft + core correction, Zval = 11.0
     Generated by new atomic code, or converted to UPF format
     Using radial grid of  849 points,  6 beta functions with:
                l(1) =   0
                l(2) =   0
                l(3) =   1
                l(4) =   1
                l(5) =   2
                l(6) =   2
     Q(r) pseudized with  6 coefficients,  rinner =    1.200   1.200   1.200
                                                       1.200   1.200

     PseudoPot. # 2 for La read from file:
     /afs/slac.stanford.edu/u/if/mamunm/psp/gbrv1.5pbe/La.UPF
     MD5 check sum: 5937b0c7494ba0601a847275249473aa
     Pseudo is Ultrasoft + core correction, Zval = 11.0
     Generated by new atomic code, or converted to UPF format
     Using radial grid of  995 points,  8 beta functions with:
                l(1) =   0
                l(2) =   0
                l(3) =   1
                l(4) =   1
                l(5) =   2
                l(6) =   2
                l(7) =   3
                l(8) =   3
     Q(r) pseudized with  8 coefficients,  rinner =    1.700   1.700   1.700
                                                       1.700   1.700   1.700
                                                       1.700

     vdW kernel table read from file vdW_kernel_table
     MD5 check sum: 095c7af220d748ca6e76c0b4c6cfb241

     atomic species   valence    mass     pseudopotential
        Sc1           11.00    44.95591     Sc( 1.00)
        La1           11.00   138.90547     La( 1.00)

     No symmetry found

   Cartesian axes

     site n.     atom                  positions (alat units)
         1           Sc1 tau(   1) = (   0.0000000   0.0000000  10.0000000  )
         2           Sc1 tau(   2) = (  -1.7005288   2.9454023  10.0000000  )
         3           Sc1 tau(   3) = (   1.7005288   2.9454023  10.0000000  )
         4           La1 tau(   4) = (   3.4010577   0.0000000  10.0000000  )
         5           Sc1 tau(   5) = (   3.4010577   1.9636016  12.7769519  )
         6           Sc1 tau(   6) = (   1.7005288   4.9090039  12.7769519  )
         7           Sc1 tau(   7) = (  -1.7005288   4.9090039  12.7769519  )
         8           La1 tau(   8) = (  -0.0000000   1.9636016  12.7769519  )
         9           Sc1 tau(   9) = (  -0.0000478   3.9543911  15.3497256  )
        10           Sc1 tau(  10) = (   1.7240352   0.9682343  15.3497300  )
        11           Sc1 tau(  11) = (   5.0780115   0.9682453  15.3497132  )
        12           La1 tau(  12) = (   3.4009916   3.9272467  15.7321606  )

     number of k points=    20  Fermi-Dirac smearing, width (Ry)=  0.0110
                       cart. coord. in units 2pi/alat
        k(    1) = (   0.0000000   0.0000000   0.0000000), wk =   0.0555556
        k(    2) = (   0.0000000   0.0282927   0.0000000), wk =   0.1111111
        k(    3) = (   0.0000000   0.0565854   0.0000000), wk =   0.1111111
        k(    4) = (   0.0000000  -0.0848780   0.0000000), wk =   0.0555556
        k(    5) = (   0.0245022   0.0141463   0.0000000), wk =   0.1111111
        k(    6) = (   0.0245022   0.0424390   0.0000000), wk =   0.1111111
        k(    7) = (   0.0245022   0.0707317   0.0000000), wk =   0.1111111
        k(    8) = (   0.0245022  -0.0707317   0.0000000), wk =   0.1111111
        k(    9) = (   0.0245022  -0.0424390   0.0000000), wk =   0.1111111
        k(   10) = (   0.0245022  -0.0141463   0.0000000), wk =   0.1111111
        k(   11) = (   0.0490044   0.0282927   0.0000000), wk =   0.1111111
        k(   12) = (   0.0490044   0.0565854   0.0000000), wk =   0.1111111
        k(   13) = (   0.0490044   0.0848780   0.0000000), wk =   0.1111111
        k(   14) = (   0.0490044  -0.0565854   0.0000000), wk =   0.1111111
        k(   15) = (   0.0490044  -0.0282927   0.0000000), wk =   0.1111111
        k(   16) = (   0.0490044   0.0000000   0.0000000), wk =   0.1111111
        k(   17) = (  -0.0735065  -0.0424390   0.0000000), wk =   0.0555556
        k(   18) = (  -0.0735065  -0.0141463   0.0000000), wk =   0.1111111
        k(   19) = (  -0.0735065   0.0141463   0.0000000), wk =   0.1111111
        k(   20) = (  -0.0735065  -0.1273171   0.0000000), wk =   0.0555556

     Largest allocated arrays     est. size (Mb)     dimensions
     Largest temporary arrays     est. size (Mb)     dimensions

     Initial potential from superposition of free atoms
     Check: negative starting charge=   -0.210012

     starting charge  131.88217, renormalised to  132.00000

[...]

     *
     * You are using vdW-DF for exchange-correlation in this calculation.
     * Please cite the following three references that made this development
     * possible:
     *
     *   M. Dion, H. Rydberg, E. Schroder, D. C. Langreth, and
     *   B. I. Lundqvist, Phys. Rev. Lett. 92, 246401 (2004).
     *
     *   T. Thonhauser, V. R. Cooper, S. Li, A. Puzder, P. Hyldgaard, and
     *   D. C. Langreth, Phys. Rev. B 76, 125112 (2007).
     *
     *   G. Roman-Perez and J. M. Soler, Phys. Rev. Lett. 103, 096102 (2009).
     *
     *
     * If you are using vdW-DF2, please also cite:
     *
     *   K. Lee, E. D. Murray, L. Kong, B. I. Lundqvist, and
     *   D. C. Langreth, Phys. Rev. B 82, 081101(R) (2010).
     *
     *
     * If you are calculating the stress with vdW-DF, please also cite:
     *
     *   R. Sabatini, E. Kucukbenli, B. Kolb, T. Thonhauser, and
     *   S. de Gironcoli, J. Phys.: Condens. Matter 24, 424209 (2012).
     *

     Carrying out vdW-DF run using the following parameters:

     Nqs =      20    Nr_points =    1024   r_max =   100.000
     q_mesh =
               0.00001000     0.04494208     0.09755937     0.15916263
               0.23128650     0.31572767     0.41458969     0.53033537
               0.66584808     0.82450364     1.01025438     1.22772762
               1.48234092     1.78043706     2.12944203     2.53805004
               3.01644009     3.57652955     4.23227104     5.00000000

     Gradients computed in reciprocal space

[...]

     Starting wfc are  177 randomized atomic wfcs

     Self-consistent Calculation

[...]

     total energy              =   -1165.20140802 Ry
     Harris-Foulkes estimate   =   -1165.20140874 Ry
     estimated scf accuracy    <       0.00000158 Ry

     iteration # 20     ecut=    36.75 Ry     beta=0.10
     Davidson diagonalization with overlap
     ethr =  1.20E-09,  avg # of iterations =  4.0

[...]

     negative rho (up, down):  1.483E-01 0.000E+00

     Adding external electric field

     Computed dipole along edir(3) :
        Dipole                0.0625 Ry au,          0.1589 Debye
        Dipole field          0.0001 Ry au

        Potential amp.       -0.0107 Ry
        Total length         47.0826 bohr

     End of self-consistent calculation

[...]

          k = 0.0490 0.0000 0.0000 ( 25989 PWs)   bands (ev):

[...]

          k =-0.0735-0.1273 0.0000 ( 25946 PWs)   bands (ev):

   -49.2993 -49.2937 -49.2881 -49.1566 -49.1500 -49.1445 -48.8708 -48.8652
   -48.8597 -32.1903 -32.0120 -31.4239 -27.9610 -27.9528 -27.9453 -27.8955
   -27.8487 -27.8446 -27.8358 -27.8288 -27.8246 -27.8167 -27.8117 -27.7696
   -27.7618 -27.7239 -27.7212 -27.7022 -27.6889 -27.6295 -27.5155 -27.4696
   -27.4675 -27.4644 -27.4599 -27.4315 -27.4046 -27.3868 -27.3487 -15.8383
   -15.8033 -15.7887 -15.6893 -15.6509 -15.6337 -15.1580 -15.1353 -15.1177
    -2.0210  -1.9794  -1.3109  -1.0117  -0.6619  -0.2868  -0.2861  -0.1994
     0.0985   0.3121   0.3202   0.5632   0.5712   0.6310   0.7522   0.8023
     0.8151   0.8561   0.8817   0.9159   0.9840   1.0382   1.1036   1.1657
     1.2926   1.3227   1.3560   1.4681   1.5340   1.5560   1.6586   1.7101
     1.7443   1.8100   1.9941   2.1149   2.1987   2.2992   2.3059   2.3589
     2.4152   2.4830   2.5150   2.5183   2.6077   2.6155   2.6394   2.6525

     the Fermi energy is     0.8793 ev

!    total energy              =   -1165.20140320 Ry
     Harris-Foulkes estimate   =   -1165.20140807 Ry
     estimated scf accuracy    <       0.00000057 Ry

     The total energy is the sum of the following terms:

     one-electron contribution =   -6279.31044920 Ry
     hartree contribution      =    3128.94736223 Ry
     xc contribution           =    -276.71270707 Ry
     ewald contribution        =    2262.01612367 Ry
     electric field correction =       0.00000711 Ry
     smearing contrib. (-TS)   =      -0.14173995 Ry

     convergence has been achieved in  20 iterations

 BEEF-vdW xc energy contributions
           1 :   -240.436192578002
           2 :    217.028644862570
           3 :   -178.336995201652
           4 :    136.088435803721
           5 :   -99.8857715675742
           6 :    73.8915692113042
           7 :   -57.2756049283284
           8 :    47.0114284756142
           9 :   -40.5101423005976
          10 :    36.5112725309056
          11 :   -34.4166067201107
          12 :    33.3278867277291
          13 :   -31.8648086152742
          14 :    28.8525696540560
          15 :   -24.1350977329847
          16 :    18.7123034697808
          17 :   -14.0528447988652
          18 :    11.1482018182663
          19 :   -10.0414861091637
          20 :    10.0899567199353
          21 :   -10.5932583941966
          22 :    11.1969919369009
          23 :   -11.8126670686264
          24 :    12.2946664939045
          25 :   -12.3051331607932
          26 :    11.5369996653358
          27 :   -10.0622548539752
          28 :    8.42523624989650
          29 :   -7.33560808099764
          30 :    7.18734703824259
          31 :   -23.8617186303368
          32 :   -17.1304729407345

     Forces acting on atoms (Ry/au):

     negative rho (up, down):  1.483E-01 0.000E+00
     atom    1 type  1   force =    -0.00000004   -0.00507332    0.00899183
     atom    2 type  1   force =    -0.00438532    0.00254084    0.00899178
     atom    3 type  1   force =     0.00438537    0.00254145    0.00898920
     atom    4 type  2   force =    -0.00000098    0.00000594   -0.01058333
     atom    5 type  1   force =    -0.00000424    0.00247883   -0.00274771
     atom    6 type  1   force =     0.00214529   -0.00124137   -0.00274977
     atom    7 type  1   force =    -0.00214794   -0.00123740   -0.00274865
     atom    8 type  2   force =    -0.00000263    0.00000006   -0.01229751
     atom    9 type  1   force =     0.00000381    0.00003867    0.00113063
     atom   10 type  1   force =     0.00002402   -0.00002338    0.00113412
     atom   11 type  1   force =    -0.00002362   -0.00002569    0.00113633
     atom   12 type  2   force =     0.00000626   -0.00000465    0.00075308

     Total force =     0.025068     Total SCF correction =     0.001454

     entering subroutine stress ...

     negative rho (up, down):  1.483E-01 0.000E+00
          total   stress  (Ry/bohr**3)                   (kbar)     P=   -3.16
  -0.00002691  -0.00000000   0.00000000         -3.96     -0.00      0.00
  -0.00000000  -0.00002691  -0.00000000         -0.00     -3.96     -0.00
   0.00000000  -0.00000000  -0.00001057          0.00     -0.00     -1.56

 !ASE

     Writing output data file calc.save

     General routines

     Parallel routines

   This run was terminated on:  10:30:31   1Jan2019

   JOB DONE.
Job  /afs/slac/g/suncat/bin/suncat-tsmpirun -x LD_LIBRARY_PATH -wdir /scratch/qe648971_eor5o pw.x -in pw.inp

TID   HOST_NAME   COMMAND_LINE            STATUS            TERMINATION_TIME
00000 suncat0146 pw.x -in pw.inp   Done                     01/01/2019 10:30:31
00001 suncat0146 pw.x -in pw.inp   Done                     01/01/2019 10:30:31
00002 suncat0146 pw.x -in pw.inp   Done                     01/01/2019 10:30:31
00003 suncat0146 pw.x -in pw.inp   Done                     01/01/2019 10:30:31
00004 suncat0146 pw.x -in pw.inp   Done                     01/01/2019 10:30:31
00005 suncat0146 pw.x -in pw.inp   Done                     01/01/2019 10:30:31
00006 suncat0146 pw.x -in pw.inp   Done                     01/01/2019 10:30:31
00007 suncat0146 pw.x -in pw.inp   Done                     01/01/2019 10:30:31
00008 suncat0136 pw.x -in pw.inp   Done                     01/01/2019 10:30:31
00009 suncat0136 pw.x -in pw.inp   Done                     01/01/2019 10:30:31
00010 suncat0136 pw.x -in pw.inp   Done                     01/01/2019 10:30:31
00011 suncat0136 pw.x -in pw.inp   Done                     01/01/2019 10:30:31
00012 suncat0136 pw.x -in pw.inp   Done                     01/01/2019 10:30:31
00013 suncat0136 pw.x -in pw.inp   Done                     01/01/2019 10:30:31
00014 suncat0136 pw.x -in pw.inp   Done                     01/01/2019 10:30:31
00015 suncat0136 pw.x -in pw.inp   Done                     01/01/2019 10:30:31
00016 suncat0248 pw.x -in pw.inp   Done                     01/01/2019 10:30:31
00017 suncat0248 pw.x -in pw.inp   Done                     01/01/2019 10:30:31
00018 suncat0248 pw.x -in pw.inp   Done                     01/01/2019 10:30:31
00019 suncat0248 pw.x -in pw.inp   Done                     01/01/2019 10:30:31
00020 suncat0248 pw.x -in pw.inp   Done                     01/01/2019 10:30:31
00021 suncat0248 pw.x -in pw.inp   Done                     01/01/2019 10:30:31
00022 suncat0248 pw.x -in pw.inp   Done                     01/01/2019 10:30:31
00023 suncat0248 pw.x -in pw.inp   Done                     01/01/2019 10:30:31
00024 suncat0247 pw.x -in pw.inp   Done                     01/01/2019 10:30:31
00025 suncat0247 pw.x -in pw.inp   Done                     01/01/2019 10:30:31
00026 suncat0247 pw.x -in pw.inp   Done                     01/01/2019 10:30:31
00027 suncat0247 pw.x -in pw.inp   Done                     01/01/2019 10:30:31
00028 suncat0247 pw.x -in pw.inp   Done                     01/01/2019 10:30:31
00029 suncat0247 pw.x -in pw.inp   Done                     01/01/2019 10:30:31
00030 suncat0247 pw.x -in pw.inp   Done                     01/01/2019 10:30:31
00031 suncat0247 pw.x -in pw.inp   Done                     01/01/2019 10:30:31
00032 suncat0246 pw.x -in pw.inp   Done                     01/01/2019 10:30:31
00033 suncat0246 pw.x -in pw.inp   Done                     01/01/2019 10:30:31
00034 suncat0246 pw.x -in pw.inp   Done                     01/01/2019 10:30:31
00035 suncat0246 pw.x -in pw.inp   Done                     01/01/2019 10:30:31
00036 suncat0246 pw.x -in pw.inp   Done                     01/01/2019 10:30:31
00037 suncat0246 pw.x -in pw.inp   Done                     01/01/2019 10:30:31
00038 suncat0246 pw.x -in pw.inp   Done                     01/01/2019 10:30:31
00039 suncat0246 pw.x -in pw.inp   Done                     01/01/2019 10:30:31
00040 suncat0245 pw.x -in pw.inp   Done                     01/01/2019 10:30:31
00041 suncat0245 pw.x -in pw.inp   Done                     01/01/2019 10:30:31
00042 suncat0245 pw.x -in pw.inp   Done                     01/01/2019 10:30:31
00043 suncat0245 pw.x -in pw.inp   Done                     01/01/2019 10:30:31
00044 suncat0245 pw.x -in pw.inp   Done                     01/01/2019 10:30:31
00045 suncat0245 pw.x -in pw.inp   Done                     01/01/2019 10:30:31
00046 suncat0245 pw.x -in pw.inp   Done                     01/01/2019 10:30:31
00047 suncat0245 pw.x -in pw.inp   Done                     01/01/2019 10:30:31
00048 suncat0214 pw.x -in pw.inp   Done                     01/01/2019 10:30:31
00049 suncat0214 pw.x -in pw.inp   Done                     01/01/2019 10:30:31
00050 suncat0214 pw.x -in pw.inp   Done                     01/01/2019 10:30:31
00051 suncat0214 pw.x -in pw.inp   Done                     01/01/2019 10:30:31
00052 suncat0214 pw.x -in pw.inp   Done                     01/01/2019 10:30:31
00053 suncat0214 pw.x -in pw.inp   Done                     01/01/2019 10:30:31
00054 suncat0214 pw.x -in pw.inp   Done                     01/01/2019 10:30:31
00055 suncat0214 pw.x -in pw.inp   Done                     01/01/2019 10:30:31
00056 suncat0213 pw.x -in pw.inp   Done                     01/01/2019 10:30:31
00057 suncat0213 pw.x -in pw.inp   Done                     01/01/2019 10:30:31
00058 suncat0213 pw.x -in pw.inp   Done                     01/01/2019 10:30:31
00059 suncat0213 pw.x -in pw.inp   Done                     01/01/2019 10:30:31
00060 suncat0213 pw.x -in pw.inp   Done                     01/01/2019 10:30:31
00061 suncat0213 pw.x -in pw.inp   Done                     01/01/2019 10:30:31
00062 suncat0213 pw.x -in pw.inp   Done                     01/01/2019 10:30:31
00063 suncat0213 pw.x -in pw.inp   Done                     01/01/2019 10:30:31