     Program PWSCF v.5.1rc2 (svn rev. 11289) starts on 25Dec2018 at 14:14:26

     Current dimensions of program PWSCF are:
     Max number of different atomic species (ntypx) = 10
     Max number of k-points (npk) =  40000
     Max angular momentum in pseudopotentials (lmaxx) =  3
     Presently stress not available with electric field

     IMPORTANT: XC functional enforced from input :
     Exchange-correlation      = BEEF-VDW ( 1  4 27 13 2)
     Any further DFT definition will be discarded
     Please, verify this is what you really want

     Subspace diagonalization in iterative solution of the eigenvalue problem:
     a serial algorithm will be used

     bravais-lattice index     =            0
     lattice parameter (alat)  =       1.8897  a.u.
     unit-cell volume          =    4007.4281 (a.u.)^3
     number of atoms/cell      =           12
     number of atomic types    =            2
     number of electrons       =       162.00
     number of Kohn-Sham states=          111
     kinetic-energy cutoff     =      36.7493  Ry
     charge density cutoff     =     367.4932  Ry
     convergence threshold     =      1.0E-06
     mixing beta               =       0.1000
     number of iterations used =           10  plain     mixing
     Exchange-correlation      = BEEF-VDW ( 1  4 27 13 2)
     nstep                     =           50

     celldm(1)=   1.889726  celldm(2)=   0.000000  celldm(3)=   0.000000
     celldm(4)=   0.000000  celldm(5)=   0.000000  celldm(6)=   0.000000

     crystal axes: (cart. coord. in units of alat)
               a(1) = (   5.308358   0.000000   0.000000 )
               a(2) = (  -2.654179   4.597173   0.000000 )
               a(3) = (   0.000000   0.000000  24.334256 )

     reciprocal axes: (cart. coord. in units 2 pi/alat)
               b(1) = (  0.188382  0.108762  0.000000 )
               b(2) = (  0.000000  0.217525  0.000000 )
               b(3) = (  0.000000  0.000000  0.041094 )

     PseudoPot. # 1 for Cr read from file:
     /afs/slac.stanford.edu/u/if/mamunm/psp/gbrv1.5pbe/Cr.UPF
     MD5 check sum: 0d52af634a40206e4dee301ad30da4bf
     Pseudo is Ultrasoft + core correction, Zval = 14.0
     Generated by new atomic code, or converted to UPF format
     Using radial grid of  857 points,  6 beta functions with:
                l(1) =   0
                l(2) =   0
                l(3) =   1
                l(4) =   1
                l(5) =   2
                l(6) =   2
     Q(r) pseudized with  8 coefficients,  rinner =    0.950   0.950   0.950
                                                       0.950   0.950

     PseudoPot. # 2 for Ti read from file:
     /afs/slac.stanford.edu/u/if/mamunm/psp/gbrv1.5pbe/Ti.UPF
     MD5 check sum: 88a00a6731bd790ddea75d31a80cb452
     Pseudo is Ultrasoft + core correction, Zval = 12.0
     Generated by new atomic code, or converted to UPF format
     Using radial grid of  851 points,  6 beta functions with:
                l(1) =   0
                l(2) =   0
                l(3) =   1
                l(4) =   1
                l(5) =   2
                l(6) =   2
     Q(r) pseudized with  6 coefficients,  rinner =    1.000   1.000   1.000
                                                       1.000   1.000

     vdW kernel table read from file vdW_kernel_table
     MD5 check sum: 095c7af220d748ca6e76c0b4c6cfb241

     atomic species   valence    mass     pseudopotential
        Cr1           14.00    51.99610     Cr( 1.00)
        Ti1           12.00    47.86700     Ti( 1.00)

     No symmetry found

   Cartesian axes

     site n.     atom                  positions (alat units)
         1           Cr1 tau(   1) = (   0.0000000   0.0000000  10.0000000  )
         2           Cr1 tau(   2) = (  -1.3270895   2.2985865  10.0000000  )
         3           Cr1 tau(   3) = (   1.3270895   2.2985865  10.0000000  )
         4           Ti1 tau(   4) = (   2.6541790   0.0000000  10.0000000  )
         5           Cr1 tau(   5) = (   2.6541790   1.5323910  12.1671281  )
         6           Cr1 tau(   6) = (   1.3270895   3.8309775  12.1671281  )
         7           Cr1 tau(   7) = (  -1.3270895   3.8309775  12.1671281  )
         8           Ti1 tau(   8) = (   0.0000000   1.5323910  12.1671281  )
         9           Cr1 tau(   9) = (  -0.0000000   3.0647820  14.3342562  )
        10           Cr1 tau(  10) = (   1.3270895   0.7661955  14.3342562  )
        11           Cr1 tau(  11) = (   3.9812686   0.7661955  14.3342562  )
        12           Ti1 tau(  12) = (   2.6541790   3.0647820  14.3342562  )

     number of k points=    20  Fermi-Dirac smearing, width (Ry)=  0.0110
                       cart. coord. in units 2pi/alat
        k(    1) = (   0.0000000   0.0000000   0.0000000), wk =   0.0555556
        k(    2) = (   0.0000000   0.0362542   0.0000000), wk =   0.1111111
        k(    3) = (   0.0000000   0.0725083   0.0000000), wk =   0.1111111
        k(    4) = (   0.0000000  -0.1087625   0.0000000), wk =   0.0555556
        k(    5) = (   0.0313970   0.0181271   0.0000000), wk =   0.1111111
        k(    6) = (   0.0313970   0.0543812   0.0000000), wk =   0.1111111
        k(    7) = (   0.0313970   0.0906354   0.0000000), wk =   0.1111111
        k(    8) = (   0.0313970  -0.0906354   0.0000000), wk =   0.1111111
        k(    9) = (   0.0313970  -0.0543812   0.0000000), wk =   0.1111111
        k(   10) = (   0.0313970  -0.0181271   0.0000000), wk =   0.1111111
        k(   11) = (   0.0627941   0.0362542   0.0000000), wk =   0.1111111
        k(   12) = (   0.0627941   0.0725083   0.0000000), wk =   0.1111111
        k(   13) = (   0.0627941   0.1087625   0.0000000), wk =   0.1111111
        k(   14) = (   0.0627941  -0.0725083   0.0000000), wk =   0.1111111
        k(   15) = (   0.0627941  -0.0362542   0.0000000), wk =   0.1111111
        k(   16) = (   0.0627941   0.0000000   0.0000000), wk =   0.1111111
        k(   17) = (  -0.0941911  -0.0543812   0.0000000), wk =   0.0555556
        k(   18) = (  -0.0941911  -0.0181271   0.0000000), wk =   0.1111111
        k(   19) = (  -0.0941911   0.0181271   0.0000000), wk =   0.1111111
        k(   20) = (  -0.0941911  -0.1631437   0.0000000), wk =   0.0555556

     Largest allocated arrays     est. size (Mb)     dimensions
     Largest temporary arrays     est. size (Mb)     dimensions

     Check: negative/imaginary core charge=   -0.000005    0.000000

     Initial potential from superposition of free atoms
     Check: negative starting charge=   -0.014310

     starting charge  149.99973, renormalised to  162.00000

     negative rho (up, down):  1.545E-02 0.000E+00

     *
     * You are using vdW-DF for exchange-correlation in this calculation.
     * Please cite the following three references that made this development
     * possible:
     *
     *   M. Dion, H. Rydberg, E. Schroder, D. C. Langreth, and
     *   B. I. Lundqvist, Phys. Rev. Lett. 92, 246401 (2004).
     *
     *   T. Thonhauser, V. R. Cooper, S. Li, A. Puzder, P. Hyldgaard, and
     *   D. C. Langreth, Phys. Rev. B 76, 125112 (2007).
     *
     *   G. Roman-Perez and J. M. Soler, Phys. Rev. Lett. 103, 096102 (2009).
     *
     *
     * If you are using vdW-DF2, please also cite:
     *
     *   K. Lee, E. D. Murray, L. Kong, B. I. Lundqvist, and
     *   D. C. Langreth, Phys. Rev. B 82, 081101(R) (2010).
     *
     *
     * If you are calculating the stress with vdW-DF, please also cite:
     *
     *   R. Sabatini, E. Kucukbenli, B. Kolb, T. Thonhauser, and
     *   S. de Gironcoli, J. Phys.: Condens. Matter 24, 424209 (2012).
     *

     Carrying out vdW-DF run using the following parameters:

     Nqs =      20    Nr_points =    1024   r_max =   100.000
     q_mesh =
               0.00001000     0.04494208     0.09755937     0.15916263
               0.23128650     0.31572767     0.41458969     0.53033537
               0.66584808     0.82450364     1.01025438     1.22772762
               1.48234092     1.78043706     2.12944203     2.53805004
               3.01644009     3.57652955     4.23227104     5.00000000

     Gradients computed in reciprocal space

     Adding external electric field

     Computed dipole along edir(3) :
        Dipole                0.0000 Ry au,          0.0000 Debye
        Dipole field          0.0000 Ry au

        Potential amp.       -0.0000 Ry
        Total length         44.8355 bohr

     Starting wfc are  120 randomized atomic wfcs

     Self-consistent Calculation

     iteration #  1     ecut=    36.75 Ry     beta=0.10
     Davidson diagonalization with overlap
     ethr =  1.00E-02,  avg # of iterations =  7.7

[...]

     total energy              =   -1945.00917467 Ry
     Harris-Foulkes estimate   =   -1954.43921767 Ry
     estimated scf accuracy    <      54.17094865 Ry

[...]

     End of self-consistent calculation

          k = 0.0000 0.0000 0.0000 ( 15161 PWs)   bands (ev):

   -70.6741 -70.6150 -70.6149 -70.5079 -70.5036 -70.4521 -70.4519 -70.4511
   -70.4509 -55.7791 -55.7785 -55.5759 -42.2154 -42.0767 -42.0767 -42.0602
   -42.0087 -41.9899 -41.9823 -41.9822 -41.8647 -41.8484 -41.8483 -41.8344
   -41.8169 -41.8169 -41.8161 -41.8159 -41.7670 -41.7669 -41.7524 -41.7368
   -41.7367 -41.6307 -41.6196 -41.5931 -41.5930 -41.5908 -41.5907 -32.0967
   -32.0860 -31.9806 -31.9806 -31.9780 -31.9780 -31.8466 -31.8092 -31.8092
    -5.2976  -3.6887  -2.6122  -2.2653  -2.2653  -2.1304  -2.0363  -2.0363
    -1.7943  -1.4807  -1.4806  -1.4796  -1.4743  -1.4743  -1.3666  -0.6259
    -0.5677  -0.5676   0.2212   0.2949   0.2949   0.3457   0.5748   0.7275
     0.8629   0.8855   0.8855   0.9097   0.9099   1.0271   1.0271   1.1949
     1.1950   1.2439   1.2440   1.3314   1.6053   1.7045   1.7045   1.8463
     2.0093   2.0761   2.0762   2.2584   2.2585   2.6789   2.6790   2.7858
     2.9811   2.9812   3.0075   3.1462   3.2291   3.2291   3.3348   3.3694
     3.5565   3.5565   3.6069   3.8243   3.8243   4.0503   4.0504

[...]

          k =-0.0942-0.0544 0.0000 ( 15094 PWs)   bands (ev):

[...]

     the Fermi energy is     0.9951 ev

!    total energy              =   -1945.69418839 Ry
     Harris-Foulkes estimate   =   -1945.69419015 Ry
     estimated scf accuracy    <       0.00000073 Ry

     The total energy is the sum of the following terms:

     one-electron contribution =  -16718.08082069 Ry
     hartree contribution      =    8348.39652563 Ry
     xc contribution           =    -265.42886477 Ry
     ewald contribution        =    6689.56938129 Ry
     electric field correction =       0.00000003 Ry
     smearing contrib. (-TS)   =      -0.15040988 Ry

     convergence has been achieved in  28 iterations

 BEEF-vdW xc energy contributions
           1 :   -229.487744351705
           2 :    206.240962048423
           3 :   -167.577078494195
           4 :    125.328341549967
           5 :   -90.0360972633238
           6 :    66.9880486666686
           7 :   -55.3624711886402
           8 :    50.3440463356574
           9 :   -46.5816826475070
          10 :    40.9611135048593
          11 :   -33.4504661565904
          12 :    26.0429551839942
          13 :   -20.8422917546016
          14 :    18.5727610937270
[...]
     /afs/slac.stanford.edu/u/if/mamunm/psp/gbrv1.5pbe/Cr.UPF
     MD5 check sum: 0d52af634a40206e4dee301ad30da4bf
     Pseudo is Ultrasoft + core correction, Zval = 14.0
     Generated by new atomic code, or converted to UPF format
     Using radial grid of  857 points,  6 beta functions with:
                l(1) =   0
                l(2) =   0
                l(3) =   1
                l(4) =   1
                l(5) =   2
                l(6) =   2
     Q(r) pseudized with  8 coefficients,  rinner =    0.950   0.950   0.950
                                                       0.950   0.950

     PseudoPot. # 2 for Ti read from file:
     /afs/slac.stanford.edu/u/if/mamunm/psp/gbrv1.5pbe/Ti.UPF
     MD5 check sum: 88a00a6731bd790ddea75d31a80cb452
     Pseudo is Ultrasoft + core correction, Zval = 12.0
     Generated by new atomic code, or converted to UPF format
     Using radial grid of  851 points,  6 beta functions with:
                l(1) =   0
                l(2) =   0
                l(3) =   1
                l(4) =   1
                l(5) =   2
                l(6) =   2
     Q(r) pseudized with  6 coefficients,  rinner =    1.000   1.000   1.000
                                                       1.000   1.000

     vdW kernel table read from file vdW_kernel_table
     MD5 check sum: 095c7af220d748ca6e76c0b4c6cfb241

     atomic species   valence    mass     pseudopotential
        Cr1           14.00    51.99610     Cr( 1.00)
        Ti1           12.00    47.86700     Ti( 1.00)

     No symmetry found

   Cartesian axes

     site n.     atom                  positions (alat units)
         1           Cr1 tau(   1) = (   0.0000000   0.0000000  10.0000000  )
         2           Cr1 tau(   2) = (  -1.3270895   2.2985865  10.0000000  )
         3           Cr1 tau(   3) = (   1.3270895   2.2985865  10.0000000  )
         4           Ti1 tau(   4) = (   2.6541790   0.0000000  10.0000000  )
         5           Cr1 tau(   5) = (   2.6541790   1.5323910  12.1671281  )
         6           Cr1 tau(   6) = (   1.3270895   3.8309775  12.1671281  )
         7           Cr1 tau(   7) = (  -1.3270895   3.8309775  12.1671281  )
         8           Ti1 tau(   8) = (   0.0000000   1.5323910  12.1671281  )
         9           Cr1 tau(   9) = (   0.0000536   3.1712602  14.1295150  )
        10           Cr1 tau(  10) = (   1.4193702   0.7130040  14.1295310  )
        11           Cr1 tau(  11) = (   3.8889255   0.7129099  14.1295121  )
        12           Ti1 tau(  12) = (   2.6542121   3.0648294  14.6479843  )

     number of k points=    20  Fermi-Dirac smearing, width (Ry)=  0.0110
                       cart. coord. in units 2pi/alat
        k(    1) = (   0.0000000   0.0000000   0.0000000), wk =   0.0555556
        k(    2) = (   0.0000000   0.0362542   0.0000000), wk =   0.1111111
        k(    3) = (   0.0000000   0.0725083   0.0000000), wk =   0.1111111
        k(    4) = (   0.0000000  -0.1087625   0.0000000), wk =   0.0555556
        k(    5) = (   0.0313970   0.0181271   0.0000000), wk =   0.1111111
        k(    6) = (   0.0313970   0.0543812   0.0000000), wk =   0.1111111
        k(    7) = (   0.0313970   0.0906354   0.0000000), wk =   0.1111111
        k(    8) = (   0.0313970  -0.0906354   0.0000000), wk =   0.1111111
        k(    9) = (   0.0313970  -0.0543812   0.0000000), wk =   0.1111111
        k(   10) = (   0.0313970  -0.0181271   0.0000000), wk =   0.1111111
        k(   11) = (   0.0627941   0.0362542   0.0000000), wk =   0.1111111
        k(   12) = (   0.0627941   0.0725083   0.0000000), wk =   0.1111111
        k(   13) = (   0.0627941   0.1087625   0.0000000), wk =   0.1111111
        k(   14) = (   0.0627941  -0.0725083   0.0000000), wk =   0.1111111
        k(   15) = (   0.0627941  -0.0362542   0.0000000), wk =   0.1111111
        k(   16) = (   0.0627941   0.0000000   0.0000000), wk =   0.1111111
        k(   17) = (  -0.0941911  -0.0543812   0.0000000), wk =   0.0555556
        k(   18) = (  -0.0941911  -0.0181271   0.0000000), wk =   0.1111111
        k(   19) = (  -0.0941911   0.0181271   0.0000000), wk =   0.1111111
        k(   20) = (  -0.0941911  -0.1631437   0.0000000), wk =   0.0555556

     Largest allocated arrays     est. size (Mb)     dimensions
     Largest temporary arrays     est. size (Mb)     dimensions

     Check: negative/imaginary core charge=   -0.000005    0.000000

     Initial potential from superposition of free atoms
     Check: negative starting charge=   -0.015419

     starting charge  149.99973, renormalised to  162.00000

[...]

     *
     * You are using vdW-DF for exchange-correlation in this calculation.
     * Please cite the following three references that made this development
     * possible:
     *
     *   M. Dion, H. Rydberg, E. Schroder, D. C. Langreth, and
     *   B. I. Lundqvist, Phys. Rev. Lett. 92, 246401 (2004).
     *
     *   T. Thonhauser, V. R. Cooper, S. Li, A. Puzder, P. Hyldgaard, and
     *   D. C. Langreth, Phys. Rev. B 76, 125112 (2007).
     *
     *   G. Roman-Perez and J. M. Soler, Phys. Rev. Lett. 103, 096102 (2009).
     *
     *
     * If you are using vdW-DF2, please also cite:
     *
     *   K. Lee, E. D. Murray, L. Kong, B. I. Lundqvist, and
     *   D. C. Langreth, Phys. Rev. B 82, 081101(R) (2010).
     *
     *
     * If you are calculating the stress with vdW-DF, please also cite:
     *
     *   R. Sabatini, E. Kucukbenli, B. Kolb, T. Thonhauser, and
     *   S. de Gironcoli, J. Phys.: Condens. Matter 24, 424209 (2012).
     *

     Carrying out vdW-DF run using the following parameters:

     Nqs =      20    Nr_points =    1024   r_max =   100.000
     q_mesh =
               0.00001000     0.04494208     0.09755937     0.15916263
               0.23128650     0.31572767     0.41458969     0.53033537
               0.66584808     0.82450364     1.01025438     1.22772762
               1.48234092     1.78043706     2.12944203     2.53805004
               3.01644009     3.57652955     4.23227104     5.00000000

     Gradients computed in reciprocal space

[...]

     Starting wfc are  120 randomized atomic wfcs

     Self-consistent Calculation

[...]

     total energy              =   -1945.72115833 Ry
     Harris-Foulkes estimate   =   -1945.72115820 Ry
     estimated scf accuracy    <       0.00000198 Ry

     iteration # 28     ecut=    36.75 Ry     beta=0.10
     Davidson diagonalization with overlap
     ethr =  1.22E-09,  avg # of iterations =  1.2

[...]

     negative rho (up, down):  1.320E-02 0.000E+00

     Adding external electric field

     Computed dipole along edir(3) :
        Dipole                0.1469 Ry au,          0.3735 Debye
        Dipole field          0.0005 Ry au

        Potential amp.       -0.0413 Ry
        Total length         44.8355 bohr

     End of self-consistent calculation

[...]

          k = 0.0628 0.0000 0.0000 ( 15076 PWs)   bands (ev):

[...]

          k =-0.0942-0.1631 0.0000 ( 15094 PWs)   bands (ev):

   -70.4417 -70.4188 -70.3965 -70.2677 -70.2618 -70.2492 -70.2316 -70.2152
   -70.2044 -55.9288 -55.5351 -55.3057 -41.9830 -41.9127 -41.8526 -41.8477
   -41.7864 -41.7641 -41.7548 -41.7322 -41.6988 -41.6903 -41.6282 -41.6069
   -41.5833 -41.5581 -41.5516 -41.5429 -41.5336 -41.5287 -41.5127 -41.4890
   -41.4617 -41.4322 -41.4313 -41.4190 -41.4091 -41.3799 -41.3479 -32.3146
   -32.0733 -32.0667 -31.8467 -31.7523 -31.7413 -31.5997 -31.5619 -31.5510
    -3.4134  -3.2960  -2.0486  -1.9864  -1.5777  -1.4095  -1.3139  -1.2375
    -1.1520  -1.1223  -0.7952  -0.7377  -0.6066  -0.4894  -0.4418  -0.3509
    -0.1925  -0.1003  -0.0798  -0.0015   0.0872   0.1307   0.3177   0.4593
     0.5169   0.5318   0.5980   0.6631   0.7222   0.7387   0.7727   0.9420
     1.0104   1.0560   1.2136   1.3573   1.4797   1.4950   1.5096   1.5761
     1.8215   1.9737   2.0687   2.1836   2.2129   2.2214   2.2558   2.2677
     2.4660   2.4963   2.6772   2.7523   2.7838   3.0065   3.0292   3.1906
     3.3561   3.4228   3.4911   3.5889   3.6253   3.7818   4.0776

     the Fermi energy is     1.2176 ev

!    total energy              =   -1945.72115485 Ry
     Harris-Foulkes estimate   =   -1945.72115978 Ry
     estimated scf accuracy    <       0.00000077 Ry

     The total energy is the sum of the following terms:

     one-electron contribution =  -16917.18756326 Ry
     hartree contribution      =    8449.07964860 Ry
     xc contribution           =    -265.58095602 Ry
     ewald contribution        =    6788.10693856 Ry
     electric field correction =       0.00006769 Ry
     smearing contrib. (-TS)   =      -0.13929042 Ry

     convergence has been achieved in  28 iterations

 BEEF-vdW xc energy contributions
           1 :   -229.646501320713
           2 :    206.455516549004
           3 :   -167.858145379640
           4 :    125.611100187601
           5 :   -90.1968966714393
           6 :    66.9243628327327
           7 :   -55.0824964856009
           8 :    49.9779865725999
           9 :   -46.2932844730806
          10 :    40.8347619069154
          11 :   -33.4437709366223
          12 :    26.0264960881199
          13 :   -20.6845667254502
          14 :    18.2179900918243
          15 :   -17.8014910021889
          16 :    17.7717562543320
          17 :   -16.8169933599121
          18 :    14.7459743552160
          19 :   -12.4193259600253
          20 :    11.0054821612184
          21 :   -11.1314166036571
          22 :    12.4916319552670
          23 :   -14.1210458205686
          24 :    15.0755494304595
          25 :   -15.0272001888141
          26 :    14.3881428738759
          27 :   -13.9328503470506
          28 :    14.2202884435004
          29 :   -15.2218869331725
          30 :    16.3806222020664
          31 :   -22.9945572049051
          32 :   -16.4860649432914

     Forces acting on atoms (Ry/au):

     negative rho (up, down):  1.320E-02 0.000E+00
     atom    1 type  1   force =     0.00000197   -0.01884810    0.01521390
     atom    2 type  1   force =    -0.01631925    0.00942246    0.01521818
     atom    3 type  1   force =     0.01633072    0.00942714    0.01523603
     atom    4 type  2   force =    -0.00000106    0.00000068   -0.02967031
     atom    5 type  1   force =    -0.00000152    0.02402519    0.00543816
     atom    6 type  1   force =     0.02080468   -0.01201362    0.00543787
     atom    7 type  1   force =    -0.02080507   -0.01201253    0.00544483
     atom    8 type  2   force =    -0.00000487   -0.00000621   -0.02958124
     atom    9 type  1   force =     0.00000064    0.00014407   -0.00035859
     atom   10 type  1   force =     0.00012008   -0.00006602   -0.00035451
     atom   11 type  1   force =    -0.00013199   -0.00007376   -0.00035331
     atom   12 type  2   force =     0.00000568    0.00000070   -0.00167102

     Total force =     0.073076     Total SCF correction =     0.002823

     entering subroutine stress ...

     negative rho (up, down):  1.320E-02 0.000E+00
          total   stress  (Ry/bohr**3)                   (kbar)     P=  -17.80
  -0.00016914  -0.00000001  -0.00000000        -24.88     -0.00     -0.00
  -0.00000001  -0.00016912   0.00000000         -0.00    -24.88      0.00
  -0.00000000   0.00000000  -0.00002471         -0.00      0.00     -3.63

 !ASE

     Writing output data file calc.save

     General routines

     Parallel routines

   This run was terminated on:  17: 0:33  25Dec2018

   JOB DONE.
Job  /afs/slac/g/suncat/bin/suncat-tsmpirun -x LD_LIBRARY_PATH -wdir /scratch/qe109540_rWceu pw.x -in pw.inp

TID   HOST_NAME   COMMAND_LINE            STATUS            TERMINATION_TIME
00000 suncat0091 pw.x -in pw.inp   Done                     12/25/2018 17:00:33
00001 suncat0091 pw.x -in pw.inp   Done                     12/25/2018 17:00:33
00002 suncat0091 pw.x -in pw.inp   Done                     12/25/2018 17:00:33
00003 suncat0091 pw.x -in pw.inp   Done                     12/25/2018 17:00:33
00004 suncat0091 pw.x -in pw.inp   Done                     12/25/2018 17:00:33
00005 suncat0091 pw.x -in pw.inp   Done                     12/25/2018 17:00:33
00006 suncat0091 pw.x -in pw.inp   Done                     12/25/2018 17:00:33
00007 suncat0091 pw.x -in pw.inp   Done                     12/25/2018 17:00:33
00008 suncat0090 pw.x -in pw.inp   Done                     12/25/2018 17:00:33
00009 suncat0090 pw.x -in pw.inp   Done                     12/25/2018 17:00:33
00010 suncat0090 pw.x -in pw.inp   Done                     12/25/2018 17:00:33
00011 suncat0090 pw.x -in pw.inp   Done                     12/25/2018 17:00:33
00012 suncat0090 pw.x -in pw.inp   Done                     12/25/2018 17:00:33
00013 suncat0090 pw.x -in pw.inp   Done                     12/25/2018 17:00:33
00014 suncat0090 pw.x -in pw.inp   Done                     12/25/2018 17:00:33
00015 suncat0090 pw.x -in pw.inp   Done                     12/25/2018 17:00:33
00016 suncat0089 pw.x -in pw.inp   Done                     12/25/2018 17:00:33
00017 suncat0089 pw.x -in pw.inp   Done                     12/25/2018 17:00:33
00018 suncat0089 pw.x -in pw.inp   Done                     12/25/2018 17:00:33
00019 suncat0089 pw.x -in pw.inp   Done                     12/25/2018 17:00:33
00020 suncat0089 pw.x -in pw.inp   Done                     12/25/2018 17:00:33
00021 suncat0089 pw.x -in pw.inp   Done                     12/25/2018 17:00:33
00022 suncat0089 pw.x -in pw.inp   Done                     12/25/2018 17:00:33
00023 suncat0089 pw.x -in pw.inp   Done                     12/25/2018 17:00:33
00024 suncat0088 pw.x -in pw.inp   Done                     12/25/2018 17:00:33
00025 suncat0088 pw.x -in pw.inp   Done                     12/25/2018 17:00:33
00026 suncat0088 pw.x -in pw.inp   Done                     12/25/2018 17:00:33
00027 suncat0088 pw.x -in pw.inp   Done                     12/25/2018 17:00:33
00028 suncat0088 pw.x -in pw.inp   Done                     12/25/2018 17:00:33
00029 suncat0088 pw.x -in pw.inp   Done                     12/25/2018 17:00:33
00030 suncat0088 pw.x -in pw.inp   Done                     12/25/2018 17:00:33
00031 suncat0088 pw.x -in pw.inp   Done                     12/25/2018 17:00:33
00032 suncat0087 pw.x -in pw.inp   Done                     12/25/2018 17:00:33
00033 suncat0087 pw.x -in pw.inp   Done                     12/25/2018 17:00:33
00034 suncat0087 pw.x -in pw.inp   Done                     12/25/2018 17:00:33
00035 suncat0087 pw.x -in pw.inp   Done                     12/25/2018 17:00:33
00036 suncat0087 pw.x -in pw.inp   Done                     12/25/2018 17:00:33
00037 suncat0087 pw.x -in pw.inp   Done                     12/25/2018 17:00:33
00038 suncat0087 pw.x -in pw.inp   Done                     12/25/2018 17:00:33
00039 suncat0087 pw.x -in pw.inp   Done                     12/25/2018 17:00:33
00040 suncat0075 pw.x -in pw.inp   Done                     12/25/2018 17:00:33
00041 suncat0075 pw.x -in pw.inp   Done                     12/25/2018 17:00:33
00042 suncat0075 pw.x -in pw.inp   Done                     12/25/2018 17:00:33
00043 suncat0075 pw.x -in pw.inp   Done                     12/25/2018 17:00:33
00044 suncat0075 pw.x -in pw.inp   Done                     12/25/2018 17:00:33
00045 suncat0075 pw.x -in pw.inp   Done                     12/25/2018 17:00:33
00046 suncat0075 pw.x -in pw.inp   Done                     12/25/2018 17:00:33
00047 suncat0075 pw.x -in pw.inp   Done                     12/25/2018 17:00:33
00048 suncat0156 pw.x -in pw.inp   Done                     12/25/2018 17:00:33
00049 suncat0156 pw.x -in pw.inp   Done                     12/25/2018 17:00:33
00050 suncat0156 pw.x -in pw.inp   Done                     12/25/2018 17:00:33
00051 suncat0156 pw.x -in pw.inp   Done                     12/25/2018 17:00:33
00052 suncat0156 pw.x -in pw.inp   Done                     12/25/2018 17:00:33
00053 suncat0156 pw.x -in pw.inp   Done                     12/25/2018 17:00:33
00054 suncat0156 pw.x -in pw.inp   Done                     12/25/2018 17:00:33
00055 suncat0156 pw.x -in pw.inp   Done                     12/25/2018 17:00:33
00056 suncat0153 pw.x -in pw.inp   Done                     12/25/2018 17:00:33
00057 suncat0153 pw.x -in pw.inp   Done                     12/25/2018 17:00:33
00058 suncat0153 pw.x -in pw.inp   Done                     12/25/2018 17:00:33
00059 suncat0153 pw.x -in pw.inp   Done                     12/25/2018 17:00:33
00060 suncat0153 pw.x -in pw.inp   Done                     12/25/2018 17:00:33
00061 suncat0153 pw.x -in pw.inp   Done                     12/25/2018 17:00:33
00062 suncat0153 pw.x -in pw.inp   Done                     12/25/2018 17:00:33
00063 suncat0153 pw.x -in pw.inp   Done                     12/25/2018 17:00:33