     Program PWSCF v.5.1rc2 (svn rev. 11289) starts on 26Dec2018 at 16:21:55

     Current dimensions of program PWSCF are:
     Max number of different atomic species (ntypx) = 10
     Max number of k-points (npk) =  40000
     Max angular momentum in pseudopotentials (lmaxx) =  3
     Presently stress not available with electric field

     IMPORTANT: XC functional enforced from input :
     Exchange-correlation      = BEEF-VDW ( 1  4 27 13 2)
     Any further DFT definition will be discarded
     Please, verify this is what you really want

     Subspace diagonalization in iterative solution of the eigenvalue problem:
     a serial algorithm will be used

     bravais-lattice index     =            0
     lattice parameter (alat)  =       1.8897  a.u.
     unit-cell volume          =    4429.4629 (a.u.)^3
     number of atoms/cell      =           12
     number of atomic types    =            2
     number of electrons       =       174.00
     number of Kohn-Sham states=          117
     kinetic-energy cutoff     =      36.7493  Ry
     charge density cutoff     =     367.4932  Ry
     convergence threshold     =      1.0E-06
     mixing beta               =       0.1000
     number of iterations used =           10  plain     mixing
     Exchange-correlation      = BEEF-VDW ( 1  4 27 13 2)
     nstep                     =           50

     celldm(1)=   1.889726  celldm(2)=   0.000000  celldm(3)=   0.000000
     celldm(4)=   0.000000  celldm(5)=   0.000000  celldm(6)=   0.000000

     crystal axes: (cart. coord. in units of alat)
               a(1) = (   5.557684   0.000000   0.000000 )
               a(2) = (  -2.778842   4.813095   0.000000 )
               a(3) = (   0.000000   0.000000  24.537830 )

     reciprocal axes: (cart. coord. in units 2 pi/alat)
               b(1) = (  0.179931  0.103883  0.000000 )
               b(2) = (  0.000000  0.207767  0.000000 )
               b(3) = (  0.000000  0.000000  0.040753 )

     PseudoPot. # 1 for Ir read from file:
     /afs/slac.stanford.edu/u/if/mamunm/psp/gbrv1.5pbe/Ir.UPF
     MD5 check sum: 8836f839c3459d2b385c504ce6d91f2c
     Pseudo is Ultrasoft + core correction, Zval = 15.0
     Generated by new atomic code, or converted to UPF format
     Using radial grid of  983 points,  7 beta functions with:
                l(1) =   0
                l(2) =   0
                l(3) =   1
                l(4) =   1
                l(5) =   1
                l(6) =   2
                l(7) =   2
     Q(r) pseudized with  8 coefficients,  rinner =    1.400   1.400   1.400
                                                       1.400   1.400

     PseudoPot. # 2 for Ta read from file:
     /afs/slac.stanford.edu/u/if/mamunm/psp/gbrv1.5pbe/Ta.UPF
     MD5 check sum: f8bbe9446314a3b8ea5d9f3e3836c939
     Pseudo is Ultrasoft + core correction, Zval = 13.0
     Generated by new atomic code, or converted to UPF format
     Using radial grid of  921 points,  7 beta functions with:
                l(1) =   0
                l(2) =   0
                l(3) =   1
                l(4) =   1
                l(5) =   2
                l(6) =   2
                l(7) =   3
     Q(r) pseudized with  6 coefficients,  rinner =    1.300   1.300   1.300
                                                       1.300   1.300   1.300
                                                       1.300

     vdW kernel table read from file vdW_kernel_table
     MD5 check sum: 095c7af220d748ca6e76c0b4c6cfb241

     atomic species   valence    mass     pseudopotential
        Ir1           15.00   192.21700     Ir( 1.00)
        Ta1           13.00   180.94788     Ta( 1.00)

     No symmetry found

   Cartesian axes

     site n.     atom                  positions (alat units)
         1           Ir1 tau(   1) = (   0.0000000   0.0000000  10.0000000  )
         2           Ir1 tau(   2) = (  -1.3894210   2.4065477  10.0000000  )
         3           Ir1 tau(   3) = (   1.3894210   2.4065477  10.0000000  )
         4           Ta1 tau(   4) = (   2.7788419   0.0000000  10.0000000  )
         5           Ir1 tau(   5) = (   2.7788419   1.6043651  12.2689149  )
         6           Ir1 tau(   6) = (   1.3894210   4.0109129  12.2689149  )
         7           Ir1 tau(   7) = (  -1.3894210   4.0109129  12.2689149  )
         8           Ta1 tau(   8) = (   0.0000000   1.6043651  12.2689149  )
         9           Ir1 tau(   9) = (  -0.0000000   3.2087303  14.5378299  )
        10           Ir1 tau(  10) = (   1.3894210   0.8021826  14.5378299  )
        11           Ir1 tau(  11) = (   4.1682629   0.8021826  14.5378299  )
        12           Ta1 tau(  12) = (   2.7788419   3.2087303  14.5378299  )

     number of k points=    20  Fermi-Dirac smearing, width (Ry)=  0.0110
                       cart. coord. in units 2pi/alat
        k(    1) = (   0.0000000   0.0000000   0.0000000), wk =   0.0555556
        k(    2) = (   0.0000000   0.0346278   0.0000000), wk =   0.1111111
        k(    3) = (   0.0000000   0.0692555   0.0000000), wk =   0.1111111
        k(    4) = (   0.0000000  -0.1038833   0.0000000), wk =   0.0555556
        k(    5) = (   0.0299885   0.0173139   0.0000000), wk =   0.1111111
        k(    6) = (   0.0299885   0.0519416   0.0000000), wk =   0.1111111
        k(    7) = (   0.0299885   0.0865694   0.0000000), wk =   0.1111111
        k(    8) = (   0.0299885  -0.0865694   0.0000000), wk =   0.1111111
        k(    9) = (   0.0299885  -0.0519416   0.0000000), wk =   0.1111111
        k(   10) = (   0.0299885  -0.0173139   0.0000000), wk =   0.1111111
        k(   11) = (   0.0599770   0.0346278   0.0000000), wk =   0.1111111
        k(   12) = (   0.0599770   0.0692555   0.0000000), wk =   0.1111111
        k(   13) = (   0.0599770   0.1038833   0.0000000), wk =   0.1111111
        k(   14) = (   0.0599770  -0.0692555   0.0000000), wk =   0.1111111
        k(   15) = (   0.0599770  -0.0346278   0.0000000), wk =   0.1111111
        k(   16) = (   0.0599770   0.0000000   0.0000000), wk =   0.1111111
        k(   17) = (  -0.0899655  -0.0519416   0.0000000), wk =   0.0555556
        k(   18) = (  -0.0899655  -0.0173139   0.0000000), wk =   0.1111111
        k(   19) = (  -0.0899655   0.0173139   0.0000000), wk =   0.1111111
        k(   20) = (  -0.0899655  -0.1558249   0.0000000), wk =   0.0555556

     Largest allocated arrays     est. size (Mb)     dimensions
     Largest temporary arrays     est. size (Mb)     dimensions

     Initial potential from superposition of free atoms
     Check: negative starting charge=   -3.566931

     starting charge  169.49638, renormalised to  174.00000

     negative rho (up, down):  3.662E+00 0.000E+00

     *
     * You are using vdW-DF for exchange-correlation in this calculation.
     * Please cite the following three references that made this development
     * possible:
     *
     *   M. Dion, H. Rydberg, E. Schroder, D. C. Langreth, and
     *   B. I. Lundqvist, Phys. Rev. Lett. 92, 246401 (2004).
     *
     *   T. Thonhauser, V. R. Cooper, S. Li, A. Puzder, P. Hyldgaard, and
     *   D. C. Langreth, Phys. Rev. B 76, 125112 (2007).
     *
     *   G. Roman-Perez and J. M. Soler, Phys. Rev. Lett. 103, 096102 (2009).
     *
     *
     * If you are using vdW-DF2, please also cite:
     *
     *   K. Lee, E. D. Murray, L. Kong, B. I. Lundqvist, and
     *   D. C. Langreth, Phys. Rev. B 82, 081101(R) (2010).
     *
     *
     * If you are calculating the stress with vdW-DF, please also cite:
     *
     *   R. Sabatini, E. Kucukbenli, B. Kolb, T. Thonhauser, and
     *   S. de Gironcoli, J. Phys.: Condens. Matter 24, 424209 (2012).
     *

     Carrying out vdW-DF run using the following parameters:

     Nqs =      20    Nr_points =    1024   r_max =   100.000
     q_mesh =
               0.00001000     0.04494208     0.09755937     0.15916263
               0.23128650     0.31572767     0.41458969     0.53033537
               0.66584808     0.82450364     1.01025438     1.22772762
               1.48234092     1.78043706     2.12944203     2.53805004
               3.01644009     3.57652955     4.23227104     5.00000000

     Gradients computed in reciprocal space

     Adding external electric field

     Computed dipole along edir(3) :
        Dipole                0.0000 Ry au,          0.0000 Debye
        Dipole field          0.0000 Ry au

        Potential amp.       -0.0000 Ry
        Total length         45.2105 bohr

     Starting wfc are  147 randomized atomic wfcs

     Self-consistent Calculation

     iteration #  1     ecut=    36.75 Ry     beta=0.10
     Davidson diagonalization with overlap
     ethr =  1.00E-02,  avg # of iterations =  7.9

[...]

     total energy              =   -2080.34789691 Ry
     Harris-Foulkes estimate   =   -2082.20414459 Ry
     estimated scf accuracy    <      11.85324008 Ry

[...]

     End of self-consistent calculation

          k = 0.0000 0.0000 0.0000 ( 16667 PWs)   bands (ev):

   -66.6414 -66.6413 -66.5825 -47.2902 -47.1589 -47.1587 -47.1289 -47.0682
   -47.0680 -46.9390 -46.8676 -46.8674 -46.7530 -46.7419 -46.6496 -46.6496
   -46.6248 -46.6248 -46.4971 -46.4607 -46.4552 -46.4551 -46.4459 -46.4408
   -46.4336 -46.4336 -46.3416 -46.3415 -46.3411 -46.3411 -33.0856 -33.0708
   -32.9351 -32.9351 -32.8385 -32.8385 -32.8344 -32.8344 -32.7986  -6.5761
    -4.6789  -4.2553  -3.9218  -3.9217  -3.8512  -3.5992  -3.5991  -3.5916
    -3.0694  -3.0694  -2.9987  -2.7975  -2.7893  -2.7893  -1.4617  -1.3399
    -1.3399  -0.9488  -0.9488  -0.6971  -0.4268  -0.4080  -0.3084  -0.2156
    -0.2156   0.0920   0.0920   0.3367   0.3367   0.4817   0.4817   0.5575
     0.5575   1.4547   1.4675   1.5240   1.8094   1.8094   1.9244   1.9244
     2.0233   2.0233   2.7651   2.9134   2.9243   2.9444   2.9444   3.4444
     3.7977   3.7977   3.9681   4.0226   4.0467   4.3341   4.3341   4.6573
     4.6573   4.7724   5.1755   5.1755   5.3627   5.3627   5.5016   5.5016
     6.1101   6.1101   6.4666   6.4666   6.5123   6.8219   7.0549   7.1613
     7.1613   7.4373   7.7036   8.3714   9.3278

[...]

          k =-0.0900-0.0519 0.0000 ( 16668 PWs)   bands (ev):

[...]

     the Fermi energy is     2.4221 ev

!    total energy              =   -2079.90141598 Ry
     Harris-Foulkes estimate   =   -2079.90142176 Ry
     estimated scf accuracy    <       0.00000088 Ry

     The total energy is the sum of the following terms:

     one-electron contribution =  -16641.81668989 Ry
     hartree contribution      =    8339.44996136 Ry
     xc contribution           =    -598.62264244 Ry
     ewald contribution        =    6821.14944963 Ry
     electric field correction =       0.00000000 Ry
     smearing contrib. (-TS)   =      -0.06149464 Ry

     convergence has been achieved in  16 iterations

 BEEF-vdW xc energy contributions
           1 :   -529.374233543205
           2 :    491.822309422108
           3 :   -424.925385422829
           4 :    342.228886389413
           5 :   -258.384105257623
           6 :    185.188545410646
           7 :   -129.121156675132
           8 :    90.9064235250860
           9 :   -66.8919802657415
          10 :    51.4306010848940
[...]
     Pseudo is Ultrasoft + core correction, Zval = 15.0
     Generated by new atomic code, or converted to UPF format
     Using radial grid of  983 points,  7 beta functions with:
                l(1) =   0
                l(2) =   0
                l(3) =   1
                l(4) =   1
                l(5) =   1
                l(6) =   2
                l(7) =   2
     Q(r) pseudized with  8 coefficients,  rinner =    1.400   1.400   1.400
                                                       1.400   1.400

     PseudoPot. # 2 for Ta read from file:
     /afs/slac.stanford.edu/u/if/mamunm/psp/gbrv1.5pbe/Ta.UPF
     MD5 check sum: f8bbe9446314a3b8ea5d9f3e3836c939
     Pseudo is Ultrasoft + core correction, Zval = 13.0
     Generated by new atomic code, or converted to UPF format
     Using radial grid of  921 points,  7 beta functions with:
                l(1) =   0
                l(2) =   0
                l(3) =   1
                l(4) =   1
                l(5) =   2
                l(6) =   2
                l(7) =   3
     Q(r) pseudized with  6 coefficients,  rinner =    1.300   1.300   1.300
                                                       1.300   1.300   1.300
                                                       1.300

     vdW kernel table read from file vdW_kernel_table
     MD5 check sum: 095c7af220d748ca6e76c0b4c6cfb241

     atomic species   valence    mass     pseudopotential
        Ir1           15.00   192.21700     Ir( 1.00)
        Ta1           13.00   180.94788     Ta( 1.00)

     No symmetry found

   Cartesian axes

     site n.     atom                  positions (alat units)
         1           Ir1 tau(   1) = (   0.0000000   0.0000000  10.0000000  )
         2           Ir1 tau(   2) = (  -1.3894210   2.4065477  10.0000000  )
         3           Ir1 tau(   3) = (   1.3894210   2.4065477  10.0000000  )
         4           Ta1 tau(   4) = (   2.7788419   0.0000000  10.0000000  )
         5           Ir1 tau(   5) = (   2.7788419   1.6043651  12.2689149  )
         6           Ir1 tau(   6) = (   1.3894210   4.0109129  12.2689149  )
         7           Ir1 tau(   7) = (  -1.3894210   4.0109129  12.2689149  )
         8           Ta1 tau(   8) = (   0.0000000   1.6043651  12.2689149  )
         9           Ir1 tau(   9) = (  -0.0000069   3.1714189  14.4647232  )
        10           Ir1 tau(  10) = (   1.3571012   0.8208394  14.4647240  )
        11           Ir1 tau(  11) = (   4.2005705   0.8208412  14.4647241  )
        12           Ta1 tau(  12) = (   2.7788304   3.2087325  14.4485456  )

     number of k points=    20  Fermi-Dirac smearing, width (Ry)=  0.0110
                       cart. coord. in units 2pi/alat
        k(    1) = (   0.0000000   0.0000000   0.0000000), wk =   0.0555556
        k(    2) = (   0.0000000   0.0346278   0.0000000), wk =   0.1111111
        k(    3) = (   0.0000000   0.0692555   0.0000000), wk =   0.1111111
        k(    4) = (   0.0000000  -0.1038833   0.0000000), wk =   0.0555556
        k(    5) = (   0.0299885   0.0173139   0.0000000), wk =   0.1111111
        k(    6) = (   0.0299885   0.0519416   0.0000000), wk =   0.1111111
        k(    7) = (   0.0299885   0.0865694   0.0000000), wk =   0.1111111
        k(    8) = (   0.0299885  -0.0865694   0.0000000), wk =   0.1111111
        k(    9) = (   0.0299885  -0.0519416   0.0000000), wk =   0.1111111
        k(   10) = (   0.0299885  -0.0173139   0.0000000), wk =   0.1111111
        k(   11) = (   0.0599770   0.0346278   0.0000000), wk =   0.1111111
        k(   12) = (   0.0599770   0.0692555   0.0000000), wk =   0.1111111
        k(   13) = (   0.0599770   0.1038833   0.0000000), wk =   0.1111111
        k(   14) = (   0.0599770  -0.0692555   0.0000000), wk =   0.1111111
        k(   15) = (   0.0599770  -0.0346278   0.0000000), wk =   0.1111111
        k(   16) = (   0.0599770   0.0000000   0.0000000), wk =   0.1111111
        k(   17) = (  -0.0899655  -0.0519416   0.0000000), wk =   0.0555556
        k(   18) = (  -0.0899655  -0.0173139   0.0000000), wk =   0.1111111
        k(   19) = (  -0.0899655   0.0173139   0.0000000), wk =   0.1111111
        k(   20) = (  -0.0899655  -0.1558249   0.0000000), wk =   0.0555556

     Largest allocated arrays     est. size (Mb)     dimensions
     Largest temporary arrays     est. size (Mb)     dimensions

     Initial potential from superposition of free atoms
     Check: negative starting charge=   -3.558773

     starting charge  169.49638, renormalised to  174.00000

[...]

     *
     * You are using vdW-DF for exchange-correlation in this calculation.
     * Please cite the following three references that made this development
     * possible:
     *
     *   M. Dion, H. Rydberg, E. Schroder, D. C. Langreth, and
     *   B. I. Lundqvist, Phys. Rev. Lett. 92, 246401 (2004).
     *
     *   T. Thonhauser, V. R. Cooper, S. Li, A. Puzder, P. Hyldgaard, and
     *   D. C. Langreth, Phys. Rev. B 76, 125112 (2007).
     *
     *   G. Roman-Perez and J. M. Soler, Phys. Rev. Lett. 103, 096102 (2009).
     *
     *
     * If you are using vdW-DF2, please also cite:
     *
     *   K. Lee, E. D. Murray, L. Kong, B. I. Lundqvist, and
     *   D. C. Langreth, Phys. Rev. B 82, 081101(R) (2010).
     *
     *
     * If you are calculating the stress with vdW-DF, please also cite:
     *
     *   R. Sabatini, E. Kucukbenli, B. Kolb, T. Thonhauser, and
     *   S. de Gironcoli, J. Phys.: Condens. Matter 24, 424209 (2012).
     *

     Carrying out vdW-DF run using the following parameters:

     Nqs =      20    Nr_points =    1024   r_max =   100.000
     q_mesh =
               0.00001000     0.04494208     0.09755937     0.15916263
               0.23128650     0.31572767     0.41458969     0.53033537
               0.66584808     0.82450364     1.01025438     1.22772762
               1.48234092     1.78043706     2.12944203     2.53805004
               3.01644009     3.57652955     4.23227104     5.00000000

     Gradients computed in reciprocal space

[...]

     Starting wfc are  147 randomized atomic wfcs

     Self-consistent Calculation

[...]

     total energy              =   -2079.92292195 Ry
     Harris-Foulkes estimate   =   -2079.92290732 Ry
     estimated scf accuracy    <       0.00000219 Ry

     iteration # 16     ecut=    36.75 Ry     beta=0.10
     Davidson diagonalization with overlap
     ethr =  1.26E-09,  avg # of iterations =  2.7

[...]

     negative rho (up, down):  3.204E+00 0.000E+00

     Adding external electric field

     Computed dipole along edir(3) :
        Dipole                0.0018 Ry au,          0.0046 Debye
        Dipole field          0.0000 Ry au

        Potential amp.       -0.0005 Ry
        Total length         45.2105 bohr

     End of self-consistent calculation

[...]

          k = 0.0600 0.0000 0.0000 ( 16608 PWs)   bands (ev):

[...]

          k =-0.0900-0.1558 0.0000 ( 16668 PWs)   bands (ev):

   -66.6603 -66.5475 -66.5194 -47.2594 -47.1699 -47.1539 -47.1282 -47.1135
   -47.0990 -47.0988 -47.0804 -46.9317 -46.7395 -46.6601 -46.6282 -46.6058
   -46.5484 -46.5461 -46.5390 -46.5329 -46.5319 -46.5173 -46.5161 -46.4983
   -46.4923 -46.4472 -46.4300 -46.4256 -46.4144 -46.3416 -33.1050 -32.9967
   -32.9156 -32.9022 -32.8743 -32.8587 -32.7918 -32.7752 -32.7520  -4.8299
    -4.7170  -3.3110  -3.2588  -2.9915  -2.9535  -2.9387  -2.8083  -2.7970
    -2.6676  -2.4095  -2.1440  -2.1242  -1.8093  -1.7984  -1.6635  -1.6627
    -1.5622  -1.3961  -1.1458  -0.9631  -0.7567  -0.5738  -0.3989  -0.3826
    -0.3528  -0.2520  -0.1593  -0.1210  -0.0628   0.0349   0.0552   0.0935
     0.1543   0.2763   0.4352   0.4981   0.6945   0.8023   0.9656   0.9838
     1.0350   1.2503   1.2946   1.6446   1.6752   1.9823   2.0410   2.1783
     2.2833   2.8412   2.9235   3.2166   3.4727   3.5631   3.6282   3.8719
     3.9486   4.2527   4.4350   4.4473   4.9415   5.1368   5.2257   5.6069
     5.6392   6.0989   6.6081   7.4245   7.7499   8.0621   8.1123   8.3943
     8.4477   8.5618   8.8921   8.9750   9.0628

     the Fermi energy is     2.4215 ev

!    total energy              =   -2079.92292286 Ry
     Harris-Foulkes estimate   =   -2079.92292215 Ry
     estimated scf accuracy    <       0.00000092 Ry

     The total energy is the sum of the following terms:

     one-electron contribution =  -16826.61123022 Ry
     hartree contribution      =    8431.73342389 Ry
     xc contribution           =    -598.83340088 Ry
     ewald contribution        =    6913.84682915 Ry
     electric field correction =       0.00000001 Ry
     smearing contrib. (-TS)   =      -0.05854481 Ry

     convergence has been achieved in  16 iterations

 BEEF-vdW xc energy contributions
           1 :   -529.890667160022
           2 :    492.412838746589
           3 :   -425.616734330655
           4 :    342.978968277500
           5 :   -259.098767290557
           6 :    185.767366254998
           7 :   -129.508536478622
           8 :    91.1208147777886
           9 :   -67.0188161921216
          10 :    51.5838279070472
          11 :   -39.5386962790296
          12 :    27.5498986987748
          13 :   -14.7100673381093
          14 :    2.02220376557693
          15 :    8.66846944198676
          16 :   -15.7741344285841
          17 :    18.6918883942454
          18 :   -17.9870037034141
          19 :    15.0889788310850
          20 :   -11.7197497898147
          21 :    9.30837857318409
          22 :   -8.58880423914934
          23 :    9.47606483561015
          24 :   -11.2255202824795
          25 :    12.7973779245164
          26 :   -13.2928536542627
          27 :    12.3045399423961
          28 :   -10.0566179678655
          29 :    7.28727074913252
          30 :   -4.92631794429326
          31 :   -45.7302975668257
          32 :   -34.2463329620466

     Forces acting on atoms (Ry/au):

     negative rho (up, down):  3.204E+00 0.000E+00
     atom    1 type  1   force =    -0.00000019    0.02284225    0.01861147
     atom    2 type  1   force =     0.01978192   -0.01142096    0.01861250
     atom    3 type  1   force =    -0.01978241   -0.01142110    0.01861250
     atom    4 type  2   force =    -0.00000012    0.00000037    0.02563580
     atom    5 type  1   force =    -0.00000051    0.00028993   -0.01846188
     atom    6 type  1   force =     0.00025008   -0.00014377   -0.01846151
     atom    7 type  1   force =    -0.00025181   -0.00014475   -0.01846162
     atom    8 type  2   force =    -0.00000010    0.00000001   -0.02442834
     atom    9 type  1   force =     0.00000053   -0.00039866   -0.00039625
     atom   10 type  1   force =    -0.00034364    0.00019881   -0.00039674
     atom   11 type  1   force =     0.00034510    0.00019878   -0.00039725
     atom   12 type  2   force =     0.00000114   -0.00000089   -0.00046868

     Total force =     0.069874     Total SCF correction =     0.003363

     entering subroutine stress ...

     negative rho (up, down):  3.204E+00 0.000E+00
          total   stress  (Ry/bohr**3)                   (kbar)     P=  -27.91
  -0.00022092  -0.00000000   0.00000000        -32.50     -0.00      0.00
  -0.00000000  -0.00022092  -0.00000000         -0.00    -32.50     -0.00
   0.00000000  -0.00000000  -0.00012736          0.00     -0.00    -18.74

 !ASE

     Writing output data file calc.save

     General routines

     Parallel routines

   This run was terminated on:  17:22:13  26Dec2018

   JOB DONE.
Job  /afs/slac/g/suncat/bin/suncat-tsmpirun -x LD_LIBRARY_PATH -wdir /scratch/qe109966_q5ATu pw.x -in pw.inp

TID   HOST_NAME   COMMAND_LINE            STATUS            TERMINATION_TIME
00000 suncat0136 pw.x -in pw.inp   Done                     12/26/2018 17:22:13
00001 suncat0136 pw.x -in pw.inp   Done                     12/26/2018 17:22:13
00002 suncat0136 pw.x -in pw.inp   Done                     12/26/2018 17:22:13
00003 suncat0136 pw.x -in pw.inp   Done                     12/26/2018 17:22:13
00004 suncat0136 pw.x -in pw.inp   Done                     12/26/2018 17:22:13
00005 suncat0136 pw.x -in pw.inp   Done                     12/26/2018 17:22:13
00006 suncat0136 pw.x -in pw.inp   Done                     12/26/2018 17:22:13
00007 suncat0136 pw.x -in pw.inp   Done                     12/26/2018 17:22:13
00008 suncat0135 pw.x -in pw.inp   Done                     12/26/2018 17:22:13
00009 suncat0135 pw.x -in pw.inp   Done                     12/26/2018 17:22:13
00010 suncat0135 pw.x -in pw.inp   Done                     12/26/2018 17:22:13
00011 suncat0135 pw.x -in pw.inp   Done                     12/26/2018 17:22:13
00012 suncat0135 pw.x -in pw.inp   Done                     12/26/2018 17:22:13
00013 suncat0135 pw.x -in pw.inp   Done                     12/26/2018 17:22:13
00014 suncat0135 pw.x -in pw.inp   Done                     12/26/2018 17:22:13
00015 suncat0135 pw.x -in pw.inp   Done                     12/26/2018 17:22:13
00016 suncat0134 pw.x -in pw.inp   Done                     12/26/2018 17:22:13
00017 suncat0134 pw.x -in pw.inp   Done                     12/26/2018 17:22:13
00018 suncat0134 pw.x -in pw.inp   Done                     12/26/2018 17:22:13
00019 suncat0134 pw.x -in pw.inp   Done                     12/26/2018 17:22:13
00020 suncat0134 pw.x -in pw.inp   Done                     12/26/2018 17:22:13
00021 suncat0134 pw.x -in pw.inp   Done                     12/26/2018 17:22:13
00022 suncat0134 pw.x -in pw.inp   Done                     12/26/2018 17:22:13
00023 suncat0134 pw.x -in pw.inp   Done                     12/26/2018 17:22:13
00024 suncat0232 pw.x -in pw.inp   Done                     12/26/2018 17:22:13
00025 suncat0232 pw.x -in pw.inp   Done                     12/26/2018 17:22:13
00026 suncat0232 pw.x -in pw.inp   Done                     12/26/2018 17:22:13
00027 suncat0232 pw.x -in pw.inp   Done                     12/26/2018 17:22:13
00028 suncat0232 pw.x -in pw.inp   Done                     12/26/2018 17:22:13
00029 suncat0232 pw.x -in pw.inp   Done                     12/26/2018 17:22:13
00030 suncat0232 pw.x -in pw.inp   Done                     12/26/2018 17:22:13
00031 suncat0232 pw.x -in pw.inp   Done                     12/26/2018 17:22:13
00032 suncat0220 pw.x -in pw.inp   Done                     12/26/2018 17:22:13
00033 suncat0220 pw.x -in pw.inp   Done                     12/26/2018 17:22:13
00034 suncat0220 pw.x -in pw.inp   Done                     12/26/2018 17:22:13
00035 suncat0220 pw.x -in pw.inp   Done                     12/26/2018 17:22:13
00036 suncat0220 pw.x -in pw.inp   Done                     12/26/2018 17:22:13
00037 suncat0220 pw.x -in pw.inp   Done                     12/26/2018 17:22:13
00038 suncat0220 pw.x -in pw.inp   Done                     12/26/2018 17:22:13
00039 suncat0220 pw.x -in pw.inp   Done                     12/26/2018 17:22:13
00040 suncat0219 pw.x -in pw.inp   Done                     12/26/2018 17:22:13
00041 suncat0219 pw.x -in pw.inp   Done                     12/26/2018 17:22:13
00042 suncat0219 pw.x -in pw.inp   Done                     12/26/2018 17:22:13
00043 suncat0219 pw.x -in pw.inp   Done                     12/26/2018 17:22:13
00044 suncat0219 pw.x -in pw.inp   Done                     12/26/2018 17:22:13
00045 suncat0219 pw.x -in pw.inp   Done                     12/26/2018 17:22:13
00046 suncat0219 pw.x -in pw.inp   Done                     12/26/2018 17:22:13
00047 suncat0219 pw.x -in pw.inp   Done                     12/26/2018 17:22:13
00048 suncat0201 pw.x -in pw.inp   Done                     12/26/2018 17:22:13
00049 suncat0201 pw.x -in pw.inp   Done                     12/26/2018 17:22:13
00050 suncat0201 pw.x -in pw.inp   Done                     12/26/2018 17:22:13
00051 suncat0201 pw.x -in pw.inp   Done                     12/26/2018 17:22:13
00052 suncat0201 pw.x -in pw.inp   Done                     12/26/2018 17:22:13
00053 suncat0201 pw.x -in pw.inp   Done                     12/26/2018 17:22:13
00054 suncat0201 pw.x -in pw.inp   Done                     12/26/2018 17:22:13
00055 suncat0201 pw.x -in pw.inp   Done                     12/26/2018 17:22:13
00056 suncat0200 pw.x -in pw.inp   Done                     12/26/2018 17:22:13
00057 suncat0200 pw.x -in pw.inp   Done                     12/26/2018 17:22:13
00058 suncat0200 pw.x -in pw.inp   Done                     12/26/2018 17:22:13
00059 suncat0200 pw.x -in pw.inp   Done                     12/26/2018 17:22:13
00060 suncat0200 pw.x -in pw.inp   Done                     12/26/2018 17:22:13
00061 suncat0200 pw.x -in pw.inp   Done                     12/26/2018 17:22:13
00062 suncat0200 pw.x -in pw.inp   Done                     12/26/2018 17:22:13
00063 suncat0200 pw.x -in pw.inp   Done                     12/26/2018 17:22:13