     Program PWSCF v.5.1rc2 (svn rev. 11289) starts on 28Dec2018 at  1:50:57

     Current dimensions of program PWSCF are:
     Max number of different atomic species (ntypx) = 10
     Max number of k-points (npk) =  40000
     Max angular momentum in pseudopotentials (lmaxx) =  3
     Presently stress not available with electric field

     IMPORTANT: XC functional enforced from input :
     Exchange-correlation      = BEEF-VDW ( 1  4 27 13 2)
     Any further DFT definition will be discarded
     Please, verify this is what you really want

     Subspace diagonalization in iterative solution of the eigenvalue problem:
     a serial algorithm will be used

     bravais-lattice index     =            0
     lattice parameter (alat)  =       1.8897  a.u.
     unit-cell volume          =    4671.6179 (a.u.)^3
     number of atoms/cell      =           12
     number of atomic types    =            2
     number of electrons       =       171.00
     number of Kohn-Sham states=          115
     kinetic-energy cutoff     =      36.7493  Ry
     charge density cutoff     =     367.4932  Ry
     convergence threshold     =      1.0E-06
     mixing beta               =       0.1000
     number of iterations used =           10  plain     mixing
     Exchange-correlation      = BEEF-VDW ( 1  4 27 13 2)
     nstep                     =           50

     celldm(1)=   1.889726  celldm(2)=   0.000000  celldm(3)=   0.000000
     celldm(4)=   0.000000  celldm(5)=   0.000000  celldm(6)=   0.000000

     crystal axes: (cart. coord. in units of alat)
               a(1) = (   5.694620   0.000000   0.000000 )
               a(2) = (  -2.847310   4.931686   0.000000 )
               a(3) = (   0.000000   0.000000  24.649638 )

     reciprocal axes: (cart. coord. in units 2 pi/alat)
               b(1) = (  0.175604  0.101385  0.000000 )
               b(2) = (  0.000000  0.202770  0.000000 )
               b(3) = (  0.000000  0.000000  0.040569 )

     PseudoPot. # 1 for Tc read from file:
     /afs/slac.stanford.edu/u/if/mamunm/psp/gbrv1.5pbe/Tc.UPF
     MD5 check sum: 9eb49e5b028550b2339a02317eb7b844
     Pseudo is Ultrasoft + core correction, Zval = 15.0
     Generated by new atomic code, or converted to UPF format
     Using radial grid of  965 points,  6 beta functions with:
                l(1) =   0
                l(2) =   0
                l(3) =   1
                l(4) =   1
                l(5) =   2
                l(6) =   2
     Q(r) pseudized with  8 coefficients,  rinner =    1.300   1.300   1.300
                                                       1.300   1.300

     PseudoPot. # 2 for Zr read from file:
     /afs/slac.stanford.edu/u/if/mamunm/psp/gbrv1.5pbe/Zr.UPF
     MD5 check sum: 5db81b1e868ab7776c4564c113de050b
     Pseudo is Ultrasoft + core correction, Zval = 12.0
     Generated by new atomic code, or converted to UPF format
     Using radial grid of  887 points,  6 beta functions with:
                l(1) =   0
                l(2) =   0
                l(3) =   1
                l(4) =   1
                l(5) =   2
                l(6) =   2
     Q(r) pseudized with  6 coefficients,  rinner =    1.200   1.200   1.200
                                                       1.200   1.200

     vdW kernel table read from file vdW_kernel_table
     MD5 check sum: 095c7af220d748ca6e76c0b4c6cfb241

     atomic species   valence    mass     pseudopotential
        Tc1           15.00    97.90721     Tc( 1.00)
        Zr1           12.00    91.22400     Zr( 1.00)

     No symmetry found

   Cartesian axes

     site n.     atom                  positions (alat units)
         1           Tc1 tau(   1) = (   0.0000000   0.0000000  10.0000000  )
         2           Tc1 tau(   2) = (  -1.4236551   2.4658429  10.0000000  )
         3           Tc1 tau(   3) = (   1.4236551   2.4658429  10.0000000  )
         4           Zr1 tau(   4) = (   2.8473101   0.0000000  10.0000000  )
         5           Tc1 tau(   5) = (   2.8473101   1.6438953  12.3248190  )
         6           Tc1 tau(   6) = (   1.4236551   4.1097382  12.3248190  )
         7           Tc1 tau(   7) = (  -1.4236551   4.1097382  12.3248190  )
         8           Zr1 tau(   8) = (   0.0000000   1.6438953  12.3248190  )
         9           Tc1 tau(   9) = (  -0.0000000   3.2877905  14.6496380  )
        10           Tc1 tau(  10) = (   1.4236551   0.8219476  14.6496380  )
        11           Tc1 tau(  11) = (   4.2709652   0.8219476  14.6496380  )
        12           Zr1 tau(  12) = (   2.8473101   3.2877905  14.6496380  )

     number of k points=    20  Fermi-Dirac smearing, width (Ry)=  0.0110
                       cart. coord. in units 2pi/alat
        k(    1) = (   0.0000000   0.0000000   0.0000000), wk =   0.0555556
        k(    2) = (   0.0000000   0.0337951   0.0000000), wk =   0.1111111
        k(    3) = (   0.0000000   0.0675901   0.0000000), wk =   0.1111111
        k(    4) = (   0.0000000  -0.1013852   0.0000000), wk =   0.0555556
        k(    5) = (   0.0292674   0.0168975   0.0000000), wk =   0.1111111
        k(    6) = (   0.0292674   0.0506926   0.0000000), wk =   0.1111111
        k(    7) = (   0.0292674   0.0844877   0.0000000), wk =   0.1111111
        k(    8) = (   0.0292674  -0.0844877   0.0000000), wk =   0.1111111
        k(    9) = (   0.0292674  -0.0506926   0.0000000), wk =   0.1111111
        k(   10) = (   0.0292674  -0.0168975   0.0000000), wk =   0.1111111
        k(   11) = (   0.0585348   0.0337951   0.0000000), wk =   0.1111111
        k(   12) = (   0.0585348   0.0675901   0.0000000), wk =   0.1111111
        k(   13) = (   0.0585348   0.1013852   0.0000000), wk =   0.1111111
        k(   14) = (   0.0585348  -0.0675901   0.0000000), wk =   0.1111111
        k(   15) = (   0.0585348  -0.0337951   0.0000000), wk =   0.1111111
        k(   16) = (   0.0585348   0.0000000   0.0000000), wk =   0.1111111
        k(   17) = (  -0.0878022  -0.0506926   0.0000000), wk =   0.0555556
        k(   18) = (  -0.0878022  -0.0168975   0.0000000), wk =   0.1111111
        k(   19) = (  -0.0878022   0.0168975   0.0000000), wk =   0.1111111
        k(   20) = (  -0.0878022  -0.1520778   0.0000000), wk =   0.0555556

     Largest allocated arrays     est. size (Mb)     dimensions
     Largest temporary arrays     est. size (Mb)     dimensions

     Check: negative/imaginary core charge=   -0.000018    0.000000

     Initial potential from superposition of free atoms
     Check: negative starting charge=   -1.310836

     starting charge  161.99330, renormalised to  171.00000

     negative rho (up, down):  1.384E+00 0.000E+00

     *
     * You are using vdW-DF for exchange-correlation in this calculation.
     * Please cite the following three references that made this development
     * possible:
     *
     *   M. Dion, H. Rydberg, E. Schroder, D. C. Langreth, and
     *   B. I. Lundqvist, Phys. Rev. Lett. 92, 246401 (2004).
     *
     *   T. Thonhauser, V. R. Cooper, S. Li, A. Puzder, P. Hyldgaard, and
     *   D. C. Langreth, Phys. Rev. B 76, 125112 (2007).
     *
     *   G. Roman-Perez and J. M. Soler, Phys. Rev. Lett. 103, 096102 (2009).
     *
     *
     * If you are using vdW-DF2, please also cite:
     *
     *   K. Lee, E. D. Murray, L. Kong, B. I. Lundqvist, and
     *   D. C. Langreth, Phys. Rev. B 82, 081101(R) (2010).
     *
     *
     * If you are calculating the stress with vdW-DF, please also cite:
     *
     *   R. Sabatini, E. Kucukbenli, B. Kolb, T. Thonhauser, and
     *   S. de Gironcoli, J. Phys.: Condens. Matter 24, 424209 (2012).
     *

     Carrying out vdW-DF run using the following parameters:

     Nqs =      20    Nr_points =    1024   r_max =   100.000
     q_mesh =
               0.00001000     0.04494208     0.09755937     0.15916263
               0.23128650     0.31572767     0.41458969     0.53033537
               0.66584808     0.82450364     1.01025438     1.22772762
               1.48234092     1.78043706     2.12944203     2.53805004
               3.01644009     3.57652955     4.23227104     5.00000000

     Gradients computed in reciprocal space

     Adding external electric field

     Computed dipole along edir(3) :
        Dipole                0.0000 Ry au,          0.0000 Debye
        Dipole field          0.0000 Ry au

        Potential amp.       -0.0000 Ry
        Total length         45.4165 bohr

     Starting wfc are  156 randomized atomic wfcs

     Self-consistent Calculation

     iteration #  1     ecut=    36.75 Ry     beta=0.10
     Davidson diagonalization with overlap
     ethr =  1.00E-02,  avg # of iterations =  3.5

[...]

     total energy              =   -1877.90793385 Ry
     Harris-Foulkes estimate   =   -1879.36050329 Ry
     estimated scf accuracy    <       9.46177626 Ry

[...]

     End of self-consistent calculation

          k = 0.0000 0.0000 0.0000 ( 17663 PWs)   bands (ev):

   -64.6152 -64.5469 -64.5468 -64.4525 -64.4468 -64.3888 -64.3886 -64.3873
   -64.3872 -46.6956 -46.6940 -46.0967 -36.9578 -36.7898 -36.7898 -36.7865
   -36.7714 -36.7061 -36.6853 -36.6852 -36.5335 -36.5335 -36.4995 -36.4579
   -36.4471 -36.4471 -36.4350 -36.4348 -36.3511 -36.3511 -36.3481 -36.3112
   -36.3112 -36.2233 -36.2039 -36.1908 -36.1907 -36.1862 -36.1861 -24.8030
   -24.7740 -24.6405 -24.6405 -24.6331 -24.6331 -24.1645 -24.1327 -24.1327
    -3.5844  -2.3001  -2.1190  -2.0666  -2.0666  -2.0070  -1.7288  -1.7288
    -1.5438  -1.4576  -1.4576  -1.4552  -1.2432  -1.2431  -1.2096  -0.2282
    -0.0982  -0.0982   0.5468   0.5468   0.7409   0.8122   0.9957   1.2293
     1.4011   1.4011   1.5494   1.5494   1.7542   1.7542   1.7714   1.7715
     1.9316   1.9316   2.0280   2.6255   2.7632   2.9562   2.9562   2.9937
     2.9937   3.2940   3.2940   3.3400   3.6253   3.9249   3.9250   4.1004
     4.7029   4.7585   4.8122   4.8122   4.9626   5.0444   5.1379   5.1379
     5.4715   5.6325   5.6325   5.7764   6.0020   6.2201   6.2201   6.4660
     6.4660   6.4801   6.4801

[...]

          k =-0.0878-0.0507 0.0000 ( 17556 PWs)   bands (ev):

[...]

     the Fermi energy is     2.1731 ev

!    total energy              =   -1876.67847400 Ry
     Harris-Foulkes estimate   =   -1876.67846991 Ry
     estimated scf accuracy    <       0.00000090 Ry

     The total energy is the sum of the following terms:

     one-electron contribution =  -15367.73733163 Ry
     hartree contribution      =    7682.44978167 Ry
     xc contribution           =    -353.06171450 Ry
     ewald contribution        =    6161.77457460 Ry
     electric field correction =       0.00000001 Ry
     smearing contrib. (-TS)   =      -0.10378415 Ry

     convergence has been achieved in  19 iterations

 BEEF-vdW xc energy contributions
           1 :   -308.114066831848
           2 :    282.530799514023
           3 :   -237.400194940608
           4 :    182.358550147979
           5 :   -127.433068791519
           6 :    80.0791929282476
           7 :   -43.7224069627051
           8 :    17.9565044443639
           9 :  -5.516119784067541E-002
          10 :   -13.1305559641380
          11 :    23.6582452770441
          12 :   -31.9122710212003
[...]
     MD5 check sum: 9eb49e5b028550b2339a02317eb7b844
     Pseudo is Ultrasoft + core correction, Zval = 15.0
     Generated by new atomic code, or converted to UPF format
     Using radial grid of  965 points,  6 beta functions with:
                l(1) =   0
                l(2) =   0
                l(3) =   1
                l(4) =   1
                l(5) =   2
                l(6) =   2
     Q(r) pseudized with  8 coefficients,  rinner =    1.300   1.300   1.300
                                                       1.300   1.300

     PseudoPot. # 2 for Zr read from file:
     /afs/slac.stanford.edu/u/if/mamunm/psp/gbrv1.5pbe/Zr.UPF
     MD5 check sum: 5db81b1e868ab7776c4564c113de050b
     Pseudo is Ultrasoft + core correction, Zval = 12.0
     Generated by new atomic code, or converted to UPF format
     Using radial grid of  887 points,  6 beta functions with:
                l(1) =   0
                l(2) =   0
                l(3) =   1
                l(4) =   1
                l(5) =   2
                l(6) =   2
     Q(r) pseudized with  6 coefficients,  rinner =    1.200   1.200   1.200
                                                       1.200   1.200

     vdW kernel table read from file vdW_kernel_table
     MD5 check sum: 095c7af220d748ca6e76c0b4c6cfb241

     atomic species   valence    mass     pseudopotential
        Tc1           15.00    97.90721     Tc( 1.00)
        Zr1           12.00    91.22400     Zr( 1.00)

     No symmetry found

   Cartesian axes

     site n.     atom                  positions (alat units)
         1           Tc1 tau(   1) = (   0.0000000   0.0000000  10.0000000  )
         2           Tc1 tau(   2) = (  -1.4236551   2.4658429  10.0000000  )
         3           Tc1 tau(   3) = (   1.4236551   2.4658429  10.0000000  )
         4           Zr1 tau(   4) = (   2.8473101   0.0000000  10.0000000  )
         5           Tc1 tau(   5) = (   2.8473101   1.6438953  12.3248190  )
         6           Tc1 tau(   6) = (   1.4236551   4.1097382  12.3248190  )
         7           Tc1 tau(   7) = (  -1.4236551   4.1097382  12.3248190  )
         8           Zr1 tau(   8) = (   0.0000000   1.6438953  12.3248190  )
         9           Tc1 tau(   9) = (   0.0000215   3.3876490  14.4598952  )
        10           Tc1 tau(  10) = (   1.5102697   0.7719586  14.4598618  )
        11           Tc1 tau(  11) = (   4.1844443   0.7719871  14.4598798  )
        12           Zr1 tau(  12) = (   2.8473196   3.2878171  14.8286536  )

     number of k points=    20  Fermi-Dirac smearing, width (Ry)=  0.0110
                       cart. coord. in units 2pi/alat
        k(    1) = (   0.0000000   0.0000000   0.0000000), wk =   0.0555556
        k(    2) = (   0.0000000   0.0337951   0.0000000), wk =   0.1111111
        k(    3) = (   0.0000000   0.0675901   0.0000000), wk =   0.1111111
        k(    4) = (   0.0000000  -0.1013852   0.0000000), wk =   0.0555556
        k(    5) = (   0.0292674   0.0168975   0.0000000), wk =   0.1111111
        k(    6) = (   0.0292674   0.0506926   0.0000000), wk =   0.1111111
        k(    7) = (   0.0292674   0.0844877   0.0000000), wk =   0.1111111
        k(    8) = (   0.0292674  -0.0844877   0.0000000), wk =   0.1111111
        k(    9) = (   0.0292674  -0.0506926   0.0000000), wk =   0.1111111
        k(   10) = (   0.0292674  -0.0168975   0.0000000), wk =   0.1111111
        k(   11) = (   0.0585348   0.0337951   0.0000000), wk =   0.1111111
        k(   12) = (   0.0585348   0.0675901   0.0000000), wk =   0.1111111
        k(   13) = (   0.0585348   0.1013852   0.0000000), wk =   0.1111111
        k(   14) = (   0.0585348  -0.0675901   0.0000000), wk =   0.1111111
        k(   15) = (   0.0585348  -0.0337951   0.0000000), wk =   0.1111111
        k(   16) = (   0.0585348   0.0000000   0.0000000), wk =   0.1111111
        k(   17) = (  -0.0878022  -0.0506926   0.0000000), wk =   0.0555556
        k(   18) = (  -0.0878022  -0.0168975   0.0000000), wk =   0.1111111
        k(   19) = (  -0.0878022   0.0168975   0.0000000), wk =   0.1111111
        k(   20) = (  -0.0878022  -0.1520778   0.0000000), wk =   0.0555556

     Largest allocated arrays     est. size (Mb)     dimensions
     Largest temporary arrays     est. size (Mb)     dimensions

     Check: negative/imaginary core charge=   -0.000018    0.000000

     Initial potential from superposition of free atoms
     Check: negative starting charge=   -1.307996

     starting charge  161.99330, renormalised to  171.00000

[...]

     *
     * You are using vdW-DF for exchange-correlation in this calculation.
     * Please cite the following three references that made this development
     * possible:
     *
     *   M. Dion, H. Rydberg, E. Schroder, D. C. Langreth, and
     *   B. I. Lundqvist, Phys. Rev. Lett. 92, 246401 (2004).
     *
     *   T. Thonhauser, V. R. Cooper, S. Li, A. Puzder, P. Hyldgaard, and
     *   D. C. Langreth, Phys. Rev. B 76, 125112 (2007).
     *
     *   G. Roman-Perez and J. M. Soler, Phys. Rev. Lett. 103, 096102 (2009).
     *
     *
     * If you are using vdW-DF2, please also cite:
     *
     *   K. Lee, E. D. Murray, L. Kong, B. I. Lundqvist, and
     *   D. C. Langreth, Phys. Rev. B 82, 081101(R) (2010).
     *
     *
     * If you are calculating the stress with vdW-DF, please also cite:
     *
     *   R. Sabatini, E. Kucukbenli, B. Kolb, T. Thonhauser, and
     *   S. de Gironcoli, J. Phys.: Condens. Matter 24, 424209 (2012).
     *

     Carrying out vdW-DF run using the following parameters:

     Nqs =      20    Nr_points =    1024   r_max =   100.000
     q_mesh =
               0.00001000     0.04494208     0.09755937     0.15916263
               0.23128650     0.31572767     0.41458969     0.53033537
               0.66584808     0.82450364     1.01025438     1.22772762
               1.48234092     1.78043706     2.12944203     2.53805004
               3.01644009     3.57652955     4.23227104     5.00000000

     Gradients computed in reciprocal space

[...]

     Starting wfc are  156 randomized atomic wfcs

     Self-consistent Calculation

[...]

     total energy              =   -1876.70716104 Ry
     Harris-Foulkes estimate   =   -1876.70715983 Ry
     estimated scf accuracy    <       0.00000108 Ry

     iteration # 19     ecut=    36.75 Ry     beta=0.10
     Davidson diagonalization with overlap
     ethr =  6.31E-10,  avg # of iterations =  1.3

[...]

     negative rho (up, down):  1.361E+00 0.000E+00

     Adding external electric field

     Computed dipole along edir(3) :
        Dipole                0.1202 Ry au,          0.3054 Debye
        Dipole field          0.0003 Ry au

        Potential amp.       -0.0294 Ry
        Total length         45.4165 bohr

     End of self-consistent calculation

[...]

          k = 0.0585 0.0000 0.0000 ( 17597 PWs)   bands (ev):

[...]

          k =-0.0878-0.1521 0.0000 ( 17556 PWs)   bands (ev):

   -64.5246 -64.4997 -64.4751 -64.3040 -64.2925 -64.2717 -64.2552 -64.2511
   -64.2418 -46.8582 -46.5336 -45.8606 -36.8638 -36.7736 -36.6926 -36.6795
   -36.5939 -36.5714 -36.5417 -36.5253 -36.4894 -36.4870 -36.3774 -36.3278
   -36.3193 -36.2999 -36.2885 -36.2743 -36.2549 -36.2464 -36.2392 -36.2023
   -36.1841 -36.1497 -36.1382 -36.1362 -36.1289 -36.0558 -36.0278 -24.9735
   -24.7936 -24.7704 -24.6292 -24.5172 -24.4883 -23.9634 -23.9445 -23.9333
    -2.0953  -1.8850  -1.3613  -1.3045  -1.1350  -0.9805  -0.9368  -0.9066
    -0.8429  -0.6909  -0.5285  -0.4447  -0.4214  -0.3058  -0.1568  -0.0495
     0.1755   0.1826   0.2973   0.3911   0.6184   0.6226   0.8992   0.9804
     1.0549   1.0885   1.2420   1.2850   1.3021   1.3852   1.4015   1.5442
     1.5970   1.6628   1.9303   1.9635   2.0105   2.1194   2.2202   2.4017
     2.4497   2.5825   2.8921   2.9279   2.9876   2.9976   3.1513   3.2012
     3.5173   3.7311   3.7849   3.9514   4.0797   4.5978   4.7198   4.7451
     5.0877   5.1006   5.1139   5.5780   5.5843   5.8351   5.8719   6.0717
     6.4299   6.9103   6.9895

     the Fermi energy is     2.3375 ev

!    total energy              =   -1876.70716523 Ry
     Harris-Foulkes estimate   =   -1876.70716336 Ry
     estimated scf accuracy    <       0.00000069 Ry

     The total energy is the sum of the following terms:

     one-electron contribution =  -15613.23967107 Ry
     hartree contribution      =    7805.81618700 Ry
     xc contribution           =    -353.26518193 Ry
     ewald contribution        =    6284.07612791 Ry
     electric field correction =       0.00003884 Ry
     smearing contrib. (-TS)   =      -0.09466598 Ry

     convergence has been achieved in  19 iterations

 BEEF-vdW xc energy contributions
           1 :   -308.552056983058
           2 :    283.066345546496
           3 :   -238.069823436611
           4 :    183.107644041911
           5 :   -128.127664421867
           6 :    80.5707522237756
           7 :   -43.9325704846815
           8 :    17.9303470378248
           9 :   5.783246220687488E-002
          10 :   -13.1554051000671
          11 :    23.4813475085775
          12 :   -31.5303789271406
          13 :    36.4711184380206
          14 :   -37.0698038113754
          15 :    32.6735291884482
          16 :   -23.8129826494538
          17 :    12.1897747880892
          18 :  -0.158566522497722
          19 :   -10.0252657034238
          20 :    16.8395838466972
          21 :   -19.7895347832348
          22 :    19.2891557003995
          23 :   -16.2648732506702
          24 :    11.6971114188736
          25 :   -6.32117920391539
          26 :   0.576786077851864
          27 :    5.23821874900960
          28 :   -10.7601166839342
          29 :    15.4419272792429
          30 :   -18.6101836727957
          31 :   -30.2519488646986
          32 :   -22.2406775370976

     Forces acting on atoms (Ry/au):

     negative rho (up, down):  1.361E+00 0.000E+00
     atom    1 type  1   force =     0.00000326   -0.01868854    0.01555954
     atom    2 type  1   force =    -0.01618388    0.00934603    0.01555680
     atom    3 type  1   force =     0.01618612    0.00934437    0.01555180
     atom    4 type  2   force =    -0.00000441   -0.00000132   -0.02067129
     atom    5 type  1   force =    -0.00000434    0.01349743    0.00245093
     atom    6 type  1   force =     0.01168675   -0.00675230    0.00245541
     atom    7 type  1   force =    -0.01168440   -0.00674583    0.00245490
     atom    8 type  2   force =     0.00000913    0.00000363   -0.03569963
     atom    9 type  1   force =    -0.00000086    0.00021584    0.00023986
     atom   10 type  1   force =     0.00018371   -0.00010676    0.00024632
     atom   11 type  1   force =    -0.00019409   -0.00011128    0.00024263
     atom   12 type  2   force =     0.00000300   -0.00000126    0.00161274

     Total force =     0.063584     Total SCF correction =     0.003854

     entering subroutine stress ...

     negative rho (up, down):  1.361E+00 0.000E+00
          total   stress  (Ry/bohr**3)                   (kbar)     P=  -19.22
  -0.00018075   0.00000000  -0.00000000        -26.59      0.00     -0.00
   0.00000000  -0.00018075   0.00000000          0.00    -26.59      0.00
  -0.00000000   0.00000000  -0.00003043         -0.00      0.00     -4.48

 !ASE

     Writing output data file calc.save

     General routines

     Parallel routines

   This run was terminated on:   3:18:19  28Dec2018

   JOB DONE.
Job  /afs/slac/g/suncat/bin/suncat-tsmpirun -x LD_LIBRARY_PATH -wdir /scratch/qe111100_HYzDG pw.x -in pw.inp

TID   HOST_NAME   COMMAND_LINE            STATUS            TERMINATION_TIME
00000 suncat0060 pw.x -in pw.inp   Done                     12/28/2018 03:18:19
00001 suncat0060 pw.x -in pw.inp   Done                     12/28/2018 03:18:19
00002 suncat0060 pw.x -in pw.inp   Done                     12/28/2018 03:18:19
00003 suncat0060 pw.x -in pw.inp   Done                     12/28/2018 03:18:19
00004 suncat0060 pw.x -in pw.inp   Done                     12/28/2018 03:18:19
00005 suncat0060 pw.x -in pw.inp   Done                     12/28/2018 03:18:19
00006 suncat0060 pw.x -in pw.inp   Done                     12/28/2018 03:18:19
00007 suncat0060 pw.x -in pw.inp   Done                     12/28/2018 03:18:19
00008 suncat0059 pw.x -in pw.inp   Done                     12/28/2018 03:18:19
00009 suncat0059 pw.x -in pw.inp   Done                     12/28/2018 03:18:19
00010 suncat0059 pw.x -in pw.inp   Done                     12/28/2018 03:18:19
00011 suncat0059 pw.x -in pw.inp   Done                     12/28/2018 03:18:19
00012 suncat0059 pw.x -in pw.inp   Done                     12/28/2018 03:18:19
00013 suncat0059 pw.x -in pw.inp   Done                     12/28/2018 03:18:19
00014 suncat0059 pw.x -in pw.inp   Done                     12/28/2018 03:18:19
00015 suncat0059 pw.x -in pw.inp   Done                     12/28/2018 03:18:19
00016 suncat0180 pw.x -in pw.inp   Done                     12/28/2018 03:18:19
00017 suncat0180 pw.x -in pw.inp   Done                     12/28/2018 03:18:19
00018 suncat0180 pw.x -in pw.inp   Done                     12/28/2018 03:18:19
00019 suncat0180 pw.x -in pw.inp   Done                     12/28/2018 03:18:19
00020 suncat0180 pw.x -in pw.inp   Done                     12/28/2018 03:18:19
00021 suncat0180 pw.x -in pw.inp   Done                     12/28/2018 03:18:19
00022 suncat0180 pw.x -in pw.inp   Done                     12/28/2018 03:18:19
00023 suncat0180 pw.x -in pw.inp   Done                     12/28/2018 03:18:19
00024 suncat0167 pw.x -in pw.inp   Done                     12/28/2018 03:18:19
00025 suncat0167 pw.x -in pw.inp   Done                     12/28/2018 03:18:19
00026 suncat0167 pw.x -in pw.inp   Done                     12/28/2018 03:18:19
00027 suncat0167 pw.x -in pw.inp   Done                     12/28/2018 03:18:19
00028 suncat0167 pw.x -in pw.inp   Done                     12/28/2018 03:18:19
00029 suncat0167 pw.x -in pw.inp   Done                     12/28/2018 03:18:19
00030 suncat0167 pw.x -in pw.inp   Done                     12/28/2018 03:18:19
00031 suncat0167 pw.x -in pw.inp   Done                     12/28/2018 03:18:19
00032 suncat0166 pw.x -in pw.inp   Done                     12/28/2018 03:18:19
00033 suncat0166 pw.x -in pw.inp   Done                     12/28/2018 03:18:19
00034 suncat0166 pw.x -in pw.inp   Done                     12/28/2018 03:18:19
00035 suncat0166 pw.x -in pw.inp   Done                     12/28/2018 03:18:19
00036 suncat0166 pw.x -in pw.inp   Done                     12/28/2018 03:18:19
00037 suncat0166 pw.x -in pw.inp   Done                     12/28/2018 03:18:19
00038 suncat0166 pw.x -in pw.inp   Done                     12/28/2018 03:18:19
00039 suncat0166 pw.x -in pw.inp   Done                     12/28/2018 03:18:19
00040 suncat0149 pw.x -in pw.inp   Done                     12/28/2018 03:18:19
00041 suncat0149 pw.x -in pw.inp   Done                     12/28/2018 03:18:19
00042 suncat0149 pw.x -in pw.inp   Done                     12/28/2018 03:18:19
00043 suncat0149 pw.x -in pw.inp   Done                     12/28/2018 03:18:19
00044 suncat0149 pw.x -in pw.inp   Done                     12/28/2018 03:18:19
00045 suncat0149 pw.x -in pw.inp   Done                     12/28/2018 03:18:19
00046 suncat0149 pw.x -in pw.inp   Done                     12/28/2018 03:18:19
00047 suncat0149 pw.x -in pw.inp   Done                     12/28/2018 03:18:19
00048 suncat0148 pw.x -in pw.inp   Done                     12/28/2018 03:18:19
00049 suncat0148 pw.x -in pw.inp   Done                     12/28/2018 03:18:19
00050 suncat0148 pw.x -in pw.inp   Done                     12/28/2018 03:18:19
00051 suncat0148 pw.x -in pw.inp   Done                     12/28/2018 03:18:19
00052 suncat0148 pw.x -in pw.inp   Done                     12/28/2018 03:18:19
00053 suncat0148 pw.x -in pw.inp   Done                     12/28/2018 03:18:19
00054 suncat0148 pw.x -in pw.inp   Done                     12/28/2018 03:18:19
00055 suncat0148 pw.x -in pw.inp   Done                     12/28/2018 03:18:19
00056 suncat0142 pw.x -in pw.inp   Done                     12/28/2018 03:18:19
00057 suncat0142 pw.x -in pw.inp   Done                     12/28/2018 03:18:19
00058 suncat0142 pw.x -in pw.inp   Done                     12/28/2018 03:18:19
00059 suncat0142 pw.x -in pw.inp   Done                     12/28/2018 03:18:19
00060 suncat0142 pw.x -in pw.inp   Done                     12/28/2018 03:18:19
00061 suncat0142 pw.x -in pw.inp   Done                     12/28/2018 03:18:19
00062 suncat0142 pw.x -in pw.inp   Done                     12/28/2018 03:18:19
00063 suncat0142 pw.x -in pw.inp   Done                     12/28/2018 03:18:19