     Program PWSCF v.5.1rc2 (svn rev. 11289) starts on 27Dec2018 at 22:18:37

     Current dimensions of program PWSCF are:
     Max number of different atomic species (ntypx) = 10
     Max number of k-points (npk) =  40000
     Max angular momentum in pseudopotentials (lmaxx) =  3
     Presently stress not available with electric field

     IMPORTANT: XC functional enforced from input :
     Exchange-correlation      = BEEF-VDW ( 1  4 27 13 2)
     Any further DFT definition will be discarded
     Please, verify this is what you really want

     Subspace diagonalization in iterative solution of the eigenvalue problem:
     a serial algorithm will be used

     bravais-lattice index     =            0
     lattice parameter (alat)  =       1.8897  a.u.
     unit-cell volume          =    4531.1033 (a.u.)^3
     number of atoms/cell      =           12
     number of atomic types    =            2
     number of electrons       =       180.00
     number of Kohn-Sham states=          120
     kinetic-energy cutoff     =      36.7493  Ry
     charge density cutoff     =     367.4932  Ry
     convergence threshold     =      1.0E-06
     mixing beta               =       0.1000
     number of iterations used =           10  plain     mixing
     Exchange-correlation      = BEEF-VDW ( 1  4 27 13 2)
     nstep                     =           50

     celldm(1)=   1.889726  celldm(2)=   0.000000  celldm(3)=   0.000000
     celldm(4)=   0.000000  celldm(5)=   0.000000  celldm(6)=   0.000000

     crystal axes: (cart. coord. in units of alat)
               a(1) = (   5.615672   0.000000   0.000000 )
               a(2) = (  -2.807836   4.863314   0.000000 )
               a(3) = (   0.000000   0.000000  24.585177 )

     reciprocal axes: (cart. coord. in units 2 pi/alat)
               b(1) = (  0.178073  0.102811  0.000000 )
               b(2) = (  0.000000  0.205621  0.000000 )
               b(3) = (  0.000000  0.000000  0.040675 )

     PseudoPot. # 1 for Ru read from file:
     /afs/slac.stanford.edu/u/if/mamunm/psp/gbrv1.5pbe/Ru.UPF
     MD5 check sum: 7158a806dd851261a58e6920c40ebe78
     Pseudo is Ultrasoft + core correction, Zval = 16.0
     Generated by new atomic code, or converted to UPF format
     Using radial grid of  967 points,  6 beta functions with:
                l(1) =   0
                l(2) =   0
                l(3) =   1
                l(4) =   1
                l(5) =   2
                l(6) =   2
     Q(r) pseudized with  8 coefficients,  rinner =    1.300   1.300   1.300
                                                       1.300   1.300

     PseudoPot. # 2 for Zr read from file:
     /afs/slac.stanford.edu/u/if/mamunm/psp/gbrv1.5pbe/Zr.UPF
     MD5 check sum: 5db81b1e868ab7776c4564c113de050b
     Pseudo is Ultrasoft + core correction, Zval = 12.0
     Generated by new atomic code, or converted to UPF format
     Using radial grid of  887 points,  6 beta functions with:
                l(1) =   0
                l(2) =   0
                l(3) =   1
                l(4) =   1
                l(5) =   2
                l(6) =   2
     Q(r) pseudized with  6 coefficients,  rinner =    1.200   1.200   1.200
                                                       1.200   1.200

     vdW kernel table read from file vdW_kernel_table
     MD5 check sum: 095c7af220d748ca6e76c0b4c6cfb241

     atomic species   valence    mass     pseudopotential
        Ru1           16.00   101.07000     Ru( 1.00)
        Zr1           12.00    91.22400     Zr( 1.00)

     No symmetry found

   Cartesian axes

     site n.     atom                  positions (alat units)
         1           Ru1 tau(   1) = (   0.0000000   0.0000000  10.0000000  )
         2           Ru1 tau(   2) = (  -1.4039179   2.4316571  10.0000000  )
         3           Ru1 tau(   3) = (   1.4039179   2.4316571  10.0000000  )
         4           Zr1 tau(   4) = (   2.8078358   0.0000000  10.0000000  )
         5           Ru1 tau(   5) = (   2.8078358   1.6211047  12.2925883  )
         6           Ru1 tau(   6) = (   1.4039179   4.0527618  12.2925883  )
         7           Ru1 tau(   7) = (  -1.4039179   4.0527618  12.2925883  )
         8           Zr1 tau(   8) = (   0.0000000   1.6211047  12.2925883  )
         9           Ru1 tau(   9) = (  -0.0000000   3.2422095  14.5851766  )
        10           Ru1 tau(  10) = (   1.4039179   0.8105524  14.5851766  )
        11           Ru1 tau(  11) = (   4.2117536   0.8105524  14.5851766  )
        12           Zr1 tau(  12) = (   2.8078358   3.2422095  14.5851766  )

     number of k points=    20  Fermi-Dirac smearing, width (Ry)=  0.0110
                       cart. coord. in units 2pi/alat
        k(    1) = (   0.0000000   0.0000000   0.0000000), wk =   0.0555556
        k(    2) = (   0.0000000   0.0342702   0.0000000), wk =   0.1111111
        k(    3) = (   0.0000000   0.0685404   0.0000000), wk =   0.1111111
        k(    4) = (   0.0000000  -0.1028105   0.0000000), wk =   0.0555556
        k(    5) = (   0.0296788   0.0171351   0.0000000), wk =   0.1111111
        k(    6) = (   0.0296788   0.0514053   0.0000000), wk =   0.1111111
        k(    7) = (   0.0296788   0.0856755   0.0000000), wk =   0.1111111
        k(    8) = (   0.0296788  -0.0856755   0.0000000), wk =   0.1111111
        k(    9) = (   0.0296788  -0.0514053   0.0000000), wk =   0.1111111
        k(   10) = (   0.0296788  -0.0171351   0.0000000), wk =   0.1111111
        k(   11) = (   0.0593577   0.0342702   0.0000000), wk =   0.1111111
        k(   12) = (   0.0593577   0.0685404   0.0000000), wk =   0.1111111
        k(   13) = (   0.0593577   0.1028105   0.0000000), wk =   0.1111111
        k(   14) = (   0.0593577  -0.0685404   0.0000000), wk =   0.1111111
        k(   15) = (   0.0593577  -0.0342702   0.0000000), wk =   0.1111111
        k(   16) = (   0.0593577   0.0000000   0.0000000), wk =   0.1111111
        k(   17) = (  -0.0890365  -0.0514053   0.0000000), wk =   0.0555556
        k(   18) = (  -0.0890365  -0.0171351   0.0000000), wk =   0.1111111
        k(   19) = (  -0.0890365   0.0171351   0.0000000), wk =   0.1111111
        k(   20) = (  -0.0890365  -0.1542158   0.0000000), wk =   0.0555556

     Largest allocated arrays     est. size (Mb)     dimensions
     Largest temporary arrays     est. size (Mb)     dimensions

     Initial potential from superposition of free atoms
     Check: negative starting charge=   -0.840937

     starting charge  170.99341, renormalised to  180.00000

     negative rho (up, down):  8.852E-01 0.000E+00

     *
     * You are using vdW-DF for exchange-correlation in this calculation.
     * Please cite the following three references that made this development
     * possible:
     *
     *   M. Dion, H. Rydberg, E. Schroder, D. C. Langreth, and
     *   B. I. Lundqvist, Phys. Rev. Lett. 92, 246401 (2004).
     *
     *   T. Thonhauser, V. R. Cooper, S. Li, A. Puzder, P. Hyldgaard, and
     *   D. C. Langreth, Phys. Rev. B 76, 125112 (2007).
     *
     *   G. Roman-Perez and J. M. Soler, Phys. Rev. Lett. 103, 096102 (2009).
     *
     *
     * If you are using vdW-DF2, please also cite:
     *
     *   K. Lee, E. D. Murray, L. Kong, B. I. Lundqvist, and
     *   D. C. Langreth, Phys. Rev. B 82, 081101(R) (2010).
     *
     *
     * If you are calculating the stress with vdW-DF, please also cite:
     *
     *   R. Sabatini, E. Kucukbenli, B. Kolb, T. Thonhauser, and
     *   S. de Gironcoli, J. Phys.: Condens. Matter 24, 424209 (2012).
     *

     Carrying out vdW-DF run using the following parameters:

     Nqs =      20    Nr_points =    1024   r_max =   100.000
     q_mesh =
               0.00001000     0.04494208     0.09755937     0.15916263
               0.23128650     0.31572767     0.41458969     0.53033537
               0.66584808     0.82450364     1.01025438     1.22772762
               1.48234092     1.78043706     2.12944203     2.53805004
               3.01644009     3.57652955     4.23227104     5.00000000

     Gradients computed in reciprocal space

     Adding external electric field

     Computed dipole along edir(3) :
        Dipole                0.0000 Ry au,          0.0000 Debye
        Dipole field          0.0000 Ry au

        Potential amp.       -0.0000 Ry
        Total length         45.2978 bohr

     Starting wfc are  156 randomized atomic wfcs

     Self-consistent Calculation

     iteration #  1     ecut=    36.75 Ry     beta=0.10
     Davidson diagonalization with overlap
     ethr =  1.00E-02,  avg # of iterations =  5.0

[...]

     total energy              =   -2056.41306117 Ry
     Harris-Foulkes estimate   =   -2058.24996073 Ry
     estimated scf accuracy    <      11.63728956 Ry

[...]

     End of self-consistent calculation

          k = 0.0000 0.0000 0.0000 ( 17015 PWs)   bands (ev):

   -70.3455 -70.2954 -70.2954 -70.0080 -70.0063 -69.9590 -69.9590 -69.9586
   -69.9585 -46.8103 -46.8075 -46.1817 -40.5502 -40.4157 -40.4157 -40.3952
   -40.3425 -40.3425 -40.2580 -40.2302 -40.1595 -40.0518 -40.0518 -40.0432
   -40.0432 -40.0033 -40.0032 -39.9792 -39.9361 -39.9360 -39.9251 -39.9016
   -39.9015 -39.7854 -39.7774 -39.7758 -39.7758 -39.7725 -39.7725 -24.9177
   -24.8920 -24.7319 -24.7319 -24.7253 -24.7253 -24.2106 -24.2106 -24.2035
    -3.6082  -2.3029  -2.2624  -2.2418  -2.2418  -2.1355  -1.9127  -1.9127
    -1.7560  -1.6899  -1.6899  -1.5832  -1.4050  -1.4050  -1.3470  -0.4013
    -0.2990  -0.2990   0.1677   0.1678   0.4025   0.6222   0.6306   0.7449
     0.9631   0.9631   1.1011   1.1011   1.3683   1.3683   1.4708   1.4709
     1.5182   1.5183   2.0463   2.1365   2.4861   2.4862   2.5404   2.5404
     2.6839   2.6839   2.7331   3.3588   3.3588   3.3797   3.4766   3.6595
     3.9167   4.2115   4.2614   4.7400   4.7400   4.8307   5.1748   5.1748
     5.3533   5.3533   5.3884   5.8923   5.8923   6.0583   6.0583   6.0873
     6.0873   6.3454   6.4148   6.6601   6.6601   7.1148   7.2686   7.2686

[...]

          k =-0.0890-0.0514 0.0000 ( 17080 PWs)   bands (ev):

[...]

     the Fermi energy is     2.3159 ev

!    total energy              =   -2055.36860415 Ry
     Harris-Foulkes estimate   =   -2055.36861099 Ry
     estimated scf accuracy    <       0.00000084 Ry

     The total energy is the sum of the following terms:

     one-electron contribution =  -17696.23019017 Ry
     hartree contribution      =    8848.92797565 Ry
     xc contribution           =    -296.96417770 Ry
     ewald contribution        =    7088.98905690 Ry
     electric field correction =       0.00000000 Ry
     smearing contrib. (-TS)   =      -0.09126882 Ry

     convergence has been achieved in  17 iterations

 BEEF-vdW xc energy contributions
           1 :   -256.987985319495
           2 :    235.318749191402
           3 :   -197.922053441234
           4 :    154.240183952077
           5 :   -113.727794162539
           6 :    82.8771820866355
           7 :   -63.7812803000233
           8 :    54.5012006453645
           9 :   -50.7695042336727
          10 :    48.1486493236527
          11 :   -43.7481601070440
          12 :    36.9255629360237
          13 :   -28.8990004610576
[...]
     /afs/slac.stanford.edu/u/if/mamunm/psp/gbrv1.5pbe/Ru.UPF
     MD5 check sum: 7158a806dd851261a58e6920c40ebe78
     Pseudo is Ultrasoft + core correction, Zval = 16.0
     Generated by new atomic code, or converted to UPF format
     Using radial grid of  967 points,  6 beta functions with:
                l(1) =   0
                l(2) =   0
                l(3) =   1
                l(4) =   1
                l(5) =   2
                l(6) =   2
     Q(r) pseudized with  8 coefficients,  rinner =    1.300   1.300   1.300
                                                       1.300   1.300

     PseudoPot. # 2 for Zr read from file:
     /afs/slac.stanford.edu/u/if/mamunm/psp/gbrv1.5pbe/Zr.UPF
     MD5 check sum: 5db81b1e868ab7776c4564c113de050b
     Pseudo is Ultrasoft + core correction, Zval = 12.0
     Generated by new atomic code, or converted to UPF format
     Using radial grid of  887 points,  6 beta functions with:
                l(1) =   0
                l(2) =   0
                l(3) =   1
                l(4) =   1
                l(5) =   2
                l(6) =   2
     Q(r) pseudized with  6 coefficients,  rinner =    1.200   1.200   1.200
                                                       1.200   1.200

     vdW kernel table read from file vdW_kernel_table
     MD5 check sum: 095c7af220d748ca6e76c0b4c6cfb241

     atomic species   valence    mass     pseudopotential
        Ru1           16.00   101.07000     Ru( 1.00)
        Zr1           12.00    91.22400     Zr( 1.00)

     No symmetry found

   Cartesian axes

     site n.     atom                  positions (alat units)
         1           Ru1 tau(   1) = (   0.0000000   0.0000000  10.0000000  )
         2           Ru1 tau(   2) = (  -1.4039179   2.4316571  10.0000000  )
         3           Ru1 tau(   3) = (   1.4039179   2.4316571  10.0000000  )
         4           Zr1 tau(   4) = (   2.8078358   0.0000000  10.0000000  )
         5           Ru1 tau(   5) = (   2.8078358   1.6211047  12.2925883  )
         6           Ru1 tau(   6) = (   1.4039179   4.0527618  12.2925883  )
         7           Ru1 tau(   7) = (  -1.4039179   4.0527618  12.2925883  )
         8           Zr1 tau(   8) = (   0.0000000   1.6211047  12.2925883  )
         9           Ru1 tau(   9) = (  -0.0000021   3.2806295  14.4898420  )
        10           Ru1 tau(  10) = (   1.4372367   0.7913175  14.4898352  )
        11           Ru1 tau(  11) = (   4.1784450   0.7913253  14.4898329  )
        12           Zr1 tau(  12) = (   2.8078359   3.2422188  14.5127337  )

     number of k points=    20  Fermi-Dirac smearing, width (Ry)=  0.0110
                       cart. coord. in units 2pi/alat
        k(    1) = (   0.0000000   0.0000000   0.0000000), wk =   0.0555556
        k(    2) = (   0.0000000   0.0342702   0.0000000), wk =   0.1111111
        k(    3) = (   0.0000000   0.0685404   0.0000000), wk =   0.1111111
        k(    4) = (   0.0000000  -0.1028105   0.0000000), wk =   0.0555556
        k(    5) = (   0.0296788   0.0171351   0.0000000), wk =   0.1111111
        k(    6) = (   0.0296788   0.0514053   0.0000000), wk =   0.1111111
        k(    7) = (   0.0296788   0.0856755   0.0000000), wk =   0.1111111
        k(    8) = (   0.0296788  -0.0856755   0.0000000), wk =   0.1111111
        k(    9) = (   0.0296788  -0.0514053   0.0000000), wk =   0.1111111
        k(   10) = (   0.0296788  -0.0171351   0.0000000), wk =   0.1111111
        k(   11) = (   0.0593577   0.0342702   0.0000000), wk =   0.1111111
        k(   12) = (   0.0593577   0.0685404   0.0000000), wk =   0.1111111
        k(   13) = (   0.0593577   0.1028105   0.0000000), wk =   0.1111111
        k(   14) = (   0.0593577  -0.0685404   0.0000000), wk =   0.1111111
        k(   15) = (   0.0593577  -0.0342702   0.0000000), wk =   0.1111111
        k(   16) = (   0.0593577   0.0000000   0.0000000), wk =   0.1111111
        k(   17) = (  -0.0890365  -0.0514053   0.0000000), wk =   0.0555556
        k(   18) = (  -0.0890365  -0.0171351   0.0000000), wk =   0.1111111
        k(   19) = (  -0.0890365   0.0171351   0.0000000), wk =   0.1111111
        k(   20) = (  -0.0890365  -0.1542158   0.0000000), wk =   0.0555556

     Largest allocated arrays     est. size (Mb)     dimensions
     Largest temporary arrays     est. size (Mb)     dimensions

     Initial potential from superposition of free atoms
     Check: negative starting charge=   -0.839156

     starting charge  170.99341, renormalised to  180.00000

[...]

     *
     * You are using vdW-DF for exchange-correlation in this calculation.
     * Please cite the following three references that made this development
     * possible:
     *
     *   M. Dion, H. Rydberg, E. Schroder, D. C. Langreth, and
     *   B. I. Lundqvist, Phys. Rev. Lett. 92, 246401 (2004).
     *
     *   T. Thonhauser, V. R. Cooper, S. Li, A. Puzder, P. Hyldgaard, and
     *   D. C. Langreth, Phys. Rev. B 76, 125112 (2007).
     *
     *   G. Roman-Perez and J. M. Soler, Phys. Rev. Lett. 103, 096102 (2009).
     *
     *
     * If you are using vdW-DF2, please also cite:
     *
     *   K. Lee, E. D. Murray, L. Kong, B. I. Lundqvist, and
     *   D. C. Langreth, Phys. Rev. B 82, 081101(R) (2010).
     *
     *
     * If you are calculating the stress with vdW-DF, please also cite:
     *
     *   R. Sabatini, E. Kucukbenli, B. Kolb, T. Thonhauser, and
     *   S. de Gironcoli, J. Phys.: Condens. Matter 24, 424209 (2012).
     *

     Carrying out vdW-DF run using the following parameters:

     Nqs =      20    Nr_points =    1024   r_max =   100.000
     q_mesh =
               0.00001000     0.04494208     0.09755937     0.15916263
               0.23128650     0.31572767     0.41458969     0.53033537
               0.66584808     0.82450364     1.01025438     1.22772762
               1.48234092     1.78043706     2.12944203     2.53805004
               3.01644009     3.57652955     4.23227104     5.00000000

     Gradients computed in reciprocal space

[...]

     Starting wfc are  156 randomized atomic wfcs

     Self-consistent Calculation

[...]

     total energy              =   -2055.37886705 Ry
     Harris-Foulkes estimate   =   -2055.37886881 Ry
     estimated scf accuracy    <       0.00000503 Ry

     iteration # 18     ecut=    36.75 Ry     beta=0.10
     Davidson diagonalization with overlap
     ethr =  2.63E-09,  avg # of iterations =  2.7

[...]

     negative rho (up, down):  8.670E-01 0.000E+00

     Adding external electric field

     Computed dipole along edir(3) :
        Dipole                0.0365 Ry au,          0.0929 Debye
        Dipole field          0.0001 Ry au

        Potential amp.       -0.0092 Ry
        Total length         45.2978 bohr

     End of self-consistent calculation

[...]

          k = 0.0594 0.0000 0.0000 ( 17028 PWs)   bands (ev):

[...]

          k =-0.0890-0.1542 0.0000 ( 17080 PWs)   bands (ev):

   -70.3406 -70.3238 -70.3067 -69.9900 -69.9691 -69.9544 -69.9509 -69.9347
   -69.9186 -46.7996 -46.7146 -46.0937 -40.5019 -40.4355 -40.3896 -40.3885
   -40.3109 -40.3007 -40.2701 -40.2443 -40.1375 -40.1019 -40.0856 -39.9972
   -39.9627 -39.9411 -39.9368 -39.9261 -39.9114 -39.9071 -39.8929 -39.8865
   -39.8788 -39.8691 -39.8631 -39.8576 -39.8480 -39.7709 -39.7382 -24.8978
   -24.8209 -24.7515 -24.7270 -24.6876 -24.6618 -24.1720 -24.1452 -24.1233
    -2.2113  -2.0103  -1.5140  -1.4663  -1.4319  -1.2976  -1.2338  -1.1643
    -1.0618  -0.8842  -0.8402  -0.7767  -0.7126  -0.5569  -0.5174  -0.3266
    -0.1471  -0.1148  -0.0025   0.0613   0.3030   0.4336   0.5777   0.6848
     0.7298   0.7719   0.8625   0.8971   0.9470   1.0314   1.0658   1.0982
     1.1294   1.2003   1.3148   1.3353   1.4862   1.6726   1.7571   1.8260
     1.8755   2.0137   2.1636   2.3499   2.3676   2.4459   2.7644   2.7874
     2.8457   2.9361   3.3397   3.7547   3.8566   3.8976   4.4691   4.6173
     4.7067   4.8622   4.9101   5.2373   5.3809   5.5191   5.6933   5.8515
     6.0810   6.3757   6.7654   7.1767   7.3573   7.5032   7.9293   8.0307

     the Fermi energy is     2.3423 ev

!    total energy              =   -2055.37886325 Ry
     Harris-Foulkes estimate   =   -2055.37886655 Ry
     estimated scf accuracy    <       0.00000081 Ry

     The total energy is the sum of the following terms:

     one-electron contribution =  -17926.21154745 Ry
     hartree contribution      =    8964.03095501 Ry
     xc contribution           =    -297.14111967 Ry
     ewald contribution        =    7204.03178566 Ry
     electric field correction =       0.00000370 Ry
     smearing contrib. (-TS)   =      -0.08894050 Ry

     convergence has been achieved in  18 iterations

 BEEF-vdW xc energy contributions
           1 :   -257.226326570488
           2 :    235.632768698518
           3 :   -198.335256671878
           4 :    154.702223206137
           5 :   -114.135720816442
           6 :    83.1291303069067
           7 :   -63.8338801126930
           8 :    54.3982457625495
           9 :   -50.6240030572466
          10 :    48.0865057730721
          11 :   -43.8436332680348
          12 :    37.1638374397917
          13 :   -29.1862087784392
          14 :    21.8749369985899
          15 :   -16.8592351278167
          16 :    14.6832930099540
          17 :   -14.7073976548930
          18 :    15.5714460376626
          19 :   -15.9091694756631
          20 :    14.9523552399017
          21 :   -12.7703116473583
          22 :    10.0873943764091
          23 :   -7.82259870256911
          24 :    6.60761805727429
          25 :   -6.51556633189796
          26 :    7.09828222978967
          27 :   -7.66820806376347
          28 :    7.65562427599343
          29 :   -6.86215757117679
          30 :    5.50478710356003
          31 :   -27.1970586499519
          32 :   -20.5463169821284

     Forces acting on atoms (Ry/au):

     negative rho (up, down):  8.670E-01 0.000E+00
     atom    1 type  1   force =     0.00000147   -0.01154755    0.01543514
     atom    2 type  1   force =    -0.01000024    0.00577556    0.01543372
     atom    3 type  1   force =     0.00999591    0.00577138    0.01543189
     atom    4 type  2   force =    -0.00000169   -0.00000133    0.01081173
     atom    5 type  1   force =    -0.00000891    0.00152418   -0.01428995
     atom    6 type  1   force =     0.00131602   -0.00076958   -0.01429119
     atom    7 type  1   force =    -0.00131438   -0.00075834   -0.01428007
     atom    8 type  2   force =     0.00001843    0.00000587   -0.01363095
     atom    9 type  1   force =    -0.00000070   -0.00010271   -0.00018081
     atom   10 type  1   force =    -0.00009241    0.00005189   -0.00017889
     atom   11 type  1   force =     0.00008676    0.00004945   -0.00018622
     atom   12 type  2   force =    -0.00000026    0.00000118   -0.00007440

     Total force =     0.045129     Total SCF correction =     0.003741

     entering subroutine stress ...

     negative rho (up, down):  8.670E-01 0.000E+00
          total   stress  (Ry/bohr**3)                   (kbar)     P=  -16.70
  -0.00014155  -0.00000000  -0.00000000        -20.82     -0.00     -0.00
  -0.00000000  -0.00014155   0.00000000         -0.00    -20.82      0.00
  -0.00000000   0.00000000  -0.00005748         -0.00      0.00     -8.46

 !ASE

     Writing output data file calc.save

     General routines

     Parallel routines

   This run was terminated on:  23:22: 7  27Dec2018

   JOB DONE.
Job  /afs/slac/g/suncat/bin/suncat-tsmpirun -x LD_LIBRARY_PATH -wdir /scratch/qe110823_JASmZ pw.x -in pw.inp

TID   HOST_NAME   COMMAND_LINE            STATUS            TERMINATION_TIME
00000 suncat0046 pw.x -in pw.inp   Done                     12/27/2018 23:22:07
00001 suncat0046 pw.x -in pw.inp   Done                     12/27/2018 23:22:07
00002 suncat0046 pw.x -in pw.inp   Done                     12/27/2018 23:22:07
00003 suncat0046 pw.x -in pw.inp   Done                     12/27/2018 23:22:07
00004 suncat0046 pw.x -in pw.inp   Done                     12/27/2018 23:22:07
00005 suncat0046 pw.x -in pw.inp   Done                     12/27/2018 23:22:07
00006 suncat0046 pw.x -in pw.inp   Done                     12/27/2018 23:22:07
00007 suncat0046 pw.x -in pw.inp   Done                     12/27/2018 23:22:07
00008 suncat0014 pw.x -in pw.inp   Done                     12/27/2018 23:22:07
00009 suncat0014 pw.x -in pw.inp   Done                     12/27/2018 23:22:07
00010 suncat0014 pw.x -in pw.inp   Done                     12/27/2018 23:22:07
00011 suncat0014 pw.x -in pw.inp   Done                     12/27/2018 23:22:07
00012 suncat0014 pw.x -in pw.inp   Done                     12/27/2018 23:22:07
00013 suncat0014 pw.x -in pw.inp   Done                     12/27/2018 23:22:07
00014 suncat0014 pw.x -in pw.inp   Done                     12/27/2018 23:22:07
00015 suncat0014 pw.x -in pw.inp   Done                     12/27/2018 23:22:07
00016 suncat0198 pw.x -in pw.inp   Done                     12/27/2018 23:22:07
00017 suncat0198 pw.x -in pw.inp   Done                     12/27/2018 23:22:07
00018 suncat0198 pw.x -in pw.inp   Done                     12/27/2018 23:22:07
00019 suncat0198 pw.x -in pw.inp   Done                     12/27/2018 23:22:07
00020 suncat0198 pw.x -in pw.inp   Done                     12/27/2018 23:22:07
00021 suncat0198 pw.x -in pw.inp   Done                     12/27/2018 23:22:07
00022 suncat0198 pw.x -in pw.inp   Done                     12/27/2018 23:22:07
00023 suncat0198 pw.x -in pw.inp   Done                     12/27/2018 23:22:07
00024 suncat0194 pw.x -in pw.inp   Done                     12/27/2018 23:22:07
00025 suncat0194 pw.x -in pw.inp   Done                     12/27/2018 23:22:07
00026 suncat0194 pw.x -in pw.inp   Done                     12/27/2018 23:22:07
00027 suncat0194 pw.x -in pw.inp   Done                     12/27/2018 23:22:07
00028 suncat0194 pw.x -in pw.inp   Done                     12/27/2018 23:22:07
00029 suncat0194 pw.x -in pw.inp   Done                     12/27/2018 23:22:07
00030 suncat0194 pw.x -in pw.inp   Done                     12/27/2018 23:22:07
00031 suncat0194 pw.x -in pw.inp   Done                     12/27/2018 23:22:07
00032 suncat0188 pw.x -in pw.inp   Done                     12/27/2018 23:22:07
00033 suncat0188 pw.x -in pw.inp   Done                     12/27/2018 23:22:07
00034 suncat0188 pw.x -in pw.inp   Done                     12/27/2018 23:22:07
00035 suncat0188 pw.x -in pw.inp   Done                     12/27/2018 23:22:07
00036 suncat0188 pw.x -in pw.inp   Done                     12/27/2018 23:22:07
00037 suncat0188 pw.x -in pw.inp   Done                     12/27/2018 23:22:07
00038 suncat0188 pw.x -in pw.inp   Done                     12/27/2018 23:22:07
00039 suncat0188 pw.x -in pw.inp   Done                     12/27/2018 23:22:07
00040 suncat0129 pw.x -in pw.inp   Done                     12/27/2018 23:22:07
00041 suncat0129 pw.x -in pw.inp   Done                     12/27/2018 23:22:07
00042 suncat0129 pw.x -in pw.inp   Done                     12/27/2018 23:22:07
00043 suncat0129 pw.x -in pw.inp   Done                     12/27/2018 23:22:07
00044 suncat0129 pw.x -in pw.inp   Done                     12/27/2018 23:22:07
00045 suncat0129 pw.x -in pw.inp   Done                     12/27/2018 23:22:07
00046 suncat0129 pw.x -in pw.inp   Done                     12/27/2018 23:22:07
00047 suncat0129 pw.x -in pw.inp   Done                     12/27/2018 23:22:07
00048 suncat0254 pw.x -in pw.inp   Done                     12/27/2018 23:22:07
00049 suncat0254 pw.x -in pw.inp   Done                     12/27/2018 23:22:07
00050 suncat0254 pw.x -in pw.inp   Done                     12/27/2018 23:22:07
00051 suncat0254 pw.x -in pw.inp   Done                     12/27/2018 23:22:07
00052 suncat0254 pw.x -in pw.inp   Done                     12/27/2018 23:22:07
00053 suncat0254 pw.x -in pw.inp   Done                     12/27/2018 23:22:07
00054 suncat0254 pw.x -in pw.inp   Done                     12/27/2018 23:22:07
00055 suncat0254 pw.x -in pw.inp   Done                     12/27/2018 23:22:07
00056 suncat0253 pw.x -in pw.inp   Done                     12/27/2018 23:22:07
00057 suncat0253 pw.x -in pw.inp   Done                     12/27/2018 23:22:07
00058 suncat0253 pw.x -in pw.inp   Done                     12/27/2018 23:22:07
00059 suncat0253 pw.x -in pw.inp   Done                     12/27/2018 23:22:07
00060 suncat0253 pw.x -in pw.inp   Done                     12/27/2018 23:22:07
00061 suncat0253 pw.x -in pw.inp   Done                     12/27/2018 23:22:07
00062 suncat0253 pw.x -in pw.inp   Done                     12/27/2018 23:22:07
00063 suncat0253 pw.x -in pw.inp   Done                     12/27/2018 23:22:07