     Program PWSCF v.5.1rc2 (svn rev. 11289) starts on 31Dec2018 at 20:40:46

     Current dimensions of program PWSCF are:
     Max number of different atomic species (ntypx) = 10
     Max number of k-points (npk) =  40000
     Max angular momentum in pseudopotentials (lmaxx) =  3
     Presently stress not available with electric field

     IMPORTANT: XC functional enforced from input :
     Exchange-correlation      = BEEF-VDW ( 1  4 27 13 2)
     Any further DFT definition will be discarded
     Please, verify this is what you really want

     Subspace diagonalization in iterative solution of the eigenvalue problem:
     a serial algorithm will be used

     bravais-lattice index     =            0
     lattice parameter (alat)  =       1.8897  a.u.
     unit-cell volume          =    4371.5314 (a.u.)^3
     number of atoms/cell      =           12
     number of atomic types    =            2
     number of electrons       =       183.00
     number of Kohn-Sham states=          121
     kinetic-energy cutoff     =      36.7493  Ry
     charge density cutoff     =     367.4932  Ry
     convergence threshold     =      1.0E-06
     mixing beta               =       0.1000
     number of iterations used =           10  plain     mixing
     Exchange-correlation      = BEEF-VDW ( 1  4 27 13 2)
     nstep                     =           50

     celldm(1)=   1.889726  celldm(2)=   0.000000  celldm(3)=   0.000000
     celldm(4)=   0.000000  celldm(5)=   0.000000  celldm(6)=   0.000000

     crystal axes: (cart. coord. in units of alat)
               a(1) = (   5.524291   0.000000   0.000000 )
               a(2) = (  -2.762145   4.784176   0.000000 )
               a(3) = (   0.000000   0.000000  24.510565 )

     reciprocal axes: (cart. coord. in units 2 pi/alat)
               b(1) = (  0.181019  0.104511  0.000000 )
               b(2) = (  0.000000  0.209022  0.000000 )
               b(3) = (  0.000000  0.000000  0.040799 )

     PseudoPot. # 1 for Re read from file:
     /afs/slac.stanford.edu/u/if/mamunm/psp/gbrv1.5pbe/Re.UPF
     MD5 check sum: 85f993410f3e006da9d71c142b4ad953
     Pseudo is Ultrasoft + core correction, Zval = 15.0
     Generated by new atomic code, or converted to UPF format
     Using radial grid of  981 points,  8 beta functions with:
                l(1) =   0
                l(2) =   0
                l(3) =   1
                l(4) =   1
                l(5) =   2
                l(6) =   2
                l(7) =   3
                l(8) =   3
     Q(r) pseudized with  8 coefficients,  rinner =    1.150   1.150   1.150
                                                       1.150   1.150   1.150
                                                       1.150

     PseudoPot. # 2 for Pd read from file:
     /afs/slac.stanford.edu/u/if/mamunm/psp/gbrv1.5pbe/Pd.UPF
     MD5 check sum: 2d733d2bc2cbfd217af676df1668a4bc
     Pseudo is Ultrasoft + core correction, Zval = 16.0
     Generated by new atomic code, or converted to UPF format
     Using radial grid of  887 points,  6 beta functions with:
                l(1) =   0
                l(2) =   0
                l(3) =   1
                l(4) =   1
                l(5) =   2
                l(6) =   2
     Q(r) pseudized with  8 coefficients,  rinner =    1.130   1.130   1.130
                                                       1.130   1.130

     vdW kernel table read from file vdW_kernel_table
     MD5 check sum: 095c7af220d748ca6e76c0b4c6cfb241

     atomic species   valence    mass     pseudopotential
        Re1           15.00   186.20700     Re( 1.00)
        Pd1           16.00   106.42000     Pd( 1.00)

     No symmetry found

   Cartesian axes

     site n.     atom                  positions (alat units)
         1           Re1 tau(   1) = (   0.0000000   0.0000000  10.0000000  )
         2           Re1 tau(   2) = (  -1.3810727   2.3920881  10.0000000  )
         3           Re1 tau(   3) = (   1.3810727   2.3920881  10.0000000  )
         4           Pd1 tau(   4) = (   2.7621454   0.0000000  10.0000000  )
         5           Re1 tau(   5) = (   2.7621454   1.5947254  12.2552823  )
         6           Re1 tau(   6) = (   1.3810727   3.9868135  12.2552823  )
         7           Re1 tau(   7) = (  -1.3810727   3.9868135  12.2552823  )
         8           Pd1 tau(   8) = (   0.0000000   1.5947254  12.2552823  )
         9           Re1 tau(   9) = (  -0.0000000   3.1894508  14.5105645  )
        10           Re1 tau(  10) = (   1.3810727   0.7973627  14.5105645  )
        11           Re1 tau(  11) = (   4.1432181   0.7973627  14.5105645  )
        12           Pd1 tau(  12) = (   2.7621454   3.1894508  14.5105645  )

     number of k points=    20  Fermi-Dirac smearing, width (Ry)=  0.0110
                       cart. coord. in units 2pi/alat
        k(    1) = (   0.0000000   0.0000000   0.0000000), wk =   0.0555556
        k(    2) = (   0.0000000   0.0348371   0.0000000), wk =   0.1111111
        k(    3) = (   0.0000000   0.0696741   0.0000000), wk =   0.1111111
        k(    4) = (   0.0000000  -0.1045112   0.0000000), wk =   0.0555556
        k(    5) = (   0.0301698   0.0174185   0.0000000), wk =   0.1111111
        k(    6) = (   0.0301698   0.0522556   0.0000000), wk =   0.1111111
        k(    7) = (   0.0301698   0.0870927   0.0000000), wk =   0.1111111
        k(    8) = (   0.0301698  -0.0870927   0.0000000), wk =   0.1111111
        k(    9) = (   0.0301698  -0.0522556   0.0000000), wk =   0.1111111
        k(   10) = (   0.0301698  -0.0174185   0.0000000), wk =   0.1111111
        k(   11) = (   0.0603396   0.0348371   0.0000000), wk =   0.1111111
        k(   12) = (   0.0603396   0.0696741   0.0000000), wk =   0.1111111
        k(   13) = (   0.0603396   0.1045112   0.0000000), wk =   0.1111111
        k(   14) = (   0.0603396  -0.0696741   0.0000000), wk =   0.1111111
        k(   15) = (   0.0603396  -0.0348371   0.0000000), wk =   0.1111111
        k(   16) = (   0.0603396   0.0000000   0.0000000), wk =   0.1111111
        k(   17) = (  -0.0905094  -0.0522556   0.0000000), wk =   0.0555556
        k(   18) = (  -0.0905094  -0.0174185   0.0000000), wk =   0.1111111
        k(   19) = (  -0.0905094   0.0174185   0.0000000), wk =   0.1111111
        k(   20) = (  -0.0905094  -0.1567668   0.0000000), wk =   0.0555556

     Largest allocated arrays     est. size (Mb)     dimensions
     Largest temporary arrays     est. size (Mb)     dimensions

     Initial potential from superposition of free atoms
     Check: negative starting charge=   -1.381471

     starting charge  176.99957, renormalised to  183.00000

     negative rho (up, down):  1.428E+00 0.000E+00

     *
     * You are using vdW-DF for exchange-correlation in this calculation.
     * Please cite the following three references that made this development
     * possible:
     *
     *   M. Dion, H. Rydberg, E. Schroder, D. C. Langreth, and
     *   B. I. Lundqvist, Phys. Rev. Lett. 92, 246401 (2004).
     *
     *   T. Thonhauser, V. R. Cooper, S. Li, A. Puzder, P. Hyldgaard, and
     *   D. C. Langreth, Phys. Rev. B 76, 125112 (2007).
     *
     *   G. Roman-Perez and J. M. Soler, Phys. Rev. Lett. 103, 096102 (2009).
     *
     *
     * If you are using vdW-DF2, please also cite:
     *
     *   K. Lee, E. D. Murray, L. Kong, B. I. Lundqvist, and
     *   D. C. Langreth, Phys. Rev. B 82, 081101(R) (2010).
     *
     *
     * If you are calculating the stress with vdW-DF, please also cite:
     *
     *   R. Sabatini, E. Kucukbenli, B. Kolb, T. Thonhauser, and
     *   S. de Gironcoli, J. Phys.: Condens. Matter 24, 424209 (2012).
     *

     Carrying out vdW-DF run using the following parameters:

     Nqs =      20    Nr_points =    1024   r_max =   100.000
     q_mesh =
               0.00001000     0.04494208     0.09755937     0.15916263
               0.23128650     0.31572767     0.41458969     0.53033537
               0.66584808     0.82450364     1.01025438     1.22772762
               1.48234092     1.78043706     2.12944203     2.53805004
               3.01644009     3.57652955     4.23227104     5.00000000

     Gradients computed in reciprocal space

     Adding external electric field

     Computed dipole along edir(3) :
        Dipole                0.0000 Ry au,          0.0000 Debye
        Dipole field          0.0000 Ry au

        Potential amp.       -0.0000 Ry
        Total length         45.1603 bohr

     Starting wfc are  153 randomized atomic wfcs

     Self-consistent Calculation

     iteration #  1     ecut=    36.75 Ry     beta=0.10
     Davidson diagonalization with overlap
     ethr =  1.00E-02,  avg # of iterations =  6.7

[...]

     total energy              =   -2324.24705445 Ry
     Harris-Foulkes estimate   =   -2332.80335209 Ry
     estimated scf accuracy    <      47.95573675 Ry

[...]

     End of self-consistent calculation

          k = 0.0000 0.0000 0.0000 ( 16391 PWs)   bands (ev):

   -78.5443 -78.4904 -78.4904 -78.1384 -78.1368 -78.0862 -78.0862 -78.0858
   -78.0858 -49.0195 -49.0194 -48.9656 -48.4897 -48.4897 -48.4890 -48.4890
   -48.3977 -48.3953 -40.6783 -40.4276 -40.4276 -40.3780 -40.2445 -40.2445
   -40.1659 -40.1388 -40.0196 -39.9381 -39.9380 -39.9185 -39.9185 -39.8879
   -39.8231 -39.8231 -39.7994 -39.7994 -39.7142 -39.6999 -39.6999 -39.5737
   -39.5552 -39.4029 -39.4029 -39.3991 -39.3991  -6.3508  -4.4589  -4.1267
    -3.9079  -3.9079  -3.6448  -3.5933  -3.5933  -3.2152  -3.0202  -3.0202
    -2.9790  -2.8191  -2.8191  -2.4572  -1.5935  -1.5935  -1.2162  -1.2162
    -1.1112  -0.8534  -0.6379  -0.4879  -0.3118  -0.3118   0.1049   0.1049
     0.3557   0.3557   0.4304   0.4304   0.5287   0.9574   0.9574   1.0378
     1.5188   1.5221   1.5221   1.5684   1.5684   2.0484   2.4372   2.4373
     2.8931   2.9066   3.0753   3.7861   3.7861   3.8086   3.8086   3.9526
     4.0443   4.0443   4.0477   4.0477   4.4095   4.4095   4.6272   4.6272
     4.6560   4.6561   5.1187   5.1187   5.1380   5.8893   5.9869   6.2350
     6.4617   6.4617   6.5109   6.6062   6.9695   7.1335   7.3723   7.3723
     7.6900

[...]

          k =-0.0905-0.0523 0.0000 ( 16456 PWs)   bands (ev):

[...]

     the Fermi energy is     2.3647 ev

!    total energy              =   -2328.55477393 Ry
     Harris-Foulkes estimate   =   -2328.55477829 Ry
     estimated scf accuracy    <       0.00000091 Ry

     The total energy is the sum of the following terms:

     one-electron contribution =  -18827.57094337 Ry
     hartree contribution      =    9411.48096099 Ry
     xc contribution           =    -583.93714060 Ry
     ewald contribution        =    7671.53594385 Ry
     electric field correction =       0.00000000 Ry
     smearing contrib. (-TS)   =      -0.06359481 Ry

     convergence has been achieved in  16 iterations

 BEEF-vdW xc energy contributions
           1 :   -517.534693082194
           2 :    479.954160648802
           3 :   -412.980792755056
           4 :    330.157588446202
           5 :   -246.163585729481
           6 :    172.821858783612
           7 :   -116.594879636010
           8 :    78.1673131876747
           9 :   -53.9245826015007
[...]
     Generated by new atomic code, or converted to UPF format
     Using radial grid of  981 points,  8 beta functions with:
                l(1) =   0
                l(2) =   0
                l(3) =   1
                l(4) =   1
                l(5) =   2
                l(6) =   2
                l(7) =   3
                l(8) =   3
     Q(r) pseudized with  8 coefficients,  rinner =    1.150   1.150   1.150
                                                       1.150   1.150   1.150
                                                       1.150

     PseudoPot. # 2 for Pd read from file:
     /afs/slac.stanford.edu/u/if/mamunm/psp/gbrv1.5pbe/Pd.UPF
     MD5 check sum: 2d733d2bc2cbfd217af676df1668a4bc
     Pseudo is Ultrasoft + core correction, Zval = 16.0
     Generated by new atomic code, or converted to UPF format
     Using radial grid of  887 points,  6 beta functions with:
                l(1) =   0
                l(2) =   0
                l(3) =   1
                l(4) =   1
                l(5) =   2
                l(6) =   2
     Q(r) pseudized with  8 coefficients,  rinner =    1.130   1.130   1.130
                                                       1.130   1.130

     vdW kernel table read from file vdW_kernel_table
     MD5 check sum: 095c7af220d748ca6e76c0b4c6cfb241

     atomic species   valence    mass     pseudopotential
        Re1           15.00   186.20700     Re( 1.00)
        Pd1           16.00   106.42000     Pd( 1.00)

     No symmetry found

   Cartesian axes

     site n.     atom                  positions (alat units)
         1           Re1 tau(   1) = (   0.0000000   0.0000000  10.0000000  )
         2           Re1 tau(   2) = (  -1.3810727   2.3920881  10.0000000  )
         3           Re1 tau(   3) = (   1.3810727   2.3920881  10.0000000  )
         4           Pd1 tau(   4) = (   2.7621454   0.0000000  10.0000000  )
         5           Re1 tau(   5) = (   2.7621454   1.5947254  12.2552823  )
         6           Re1 tau(   6) = (   1.3810727   3.9868135  12.2552823  )
         7           Re1 tau(   7) = (  -1.3810727   3.9868135  12.2552823  )
         8           Pd1 tau(   8) = (   0.0000000   1.5947254  12.2552823  )
         9           Re1 tau(   9) = (  -0.0000013   3.2963253  14.3993588  )
        10           Re1 tau(  10) = (   1.4736170   0.7439326  14.3993605  )
        11           Re1 tau(  11) = (   4.0506766   0.7439368  14.3993588  )
        12           Pd1 tau(  12) = (   2.7621403   3.1894491  14.5309974  )

     number of k points=    20  Fermi-Dirac smearing, width (Ry)=  0.0110
                       cart. coord. in units 2pi/alat
        k(    1) = (   0.0000000   0.0000000   0.0000000), wk =   0.0555556
        k(    2) = (   0.0000000   0.0348371   0.0000000), wk =   0.1111111
        k(    3) = (   0.0000000   0.0696741   0.0000000), wk =   0.1111111
        k(    4) = (   0.0000000  -0.1045112   0.0000000), wk =   0.0555556
        k(    5) = (   0.0301698   0.0174185   0.0000000), wk =   0.1111111
        k(    6) = (   0.0301698   0.0522556   0.0000000), wk =   0.1111111
        k(    7) = (   0.0301698   0.0870927   0.0000000), wk =   0.1111111
        k(    8) = (   0.0301698  -0.0870927   0.0000000), wk =   0.1111111
        k(    9) = (   0.0301698  -0.0522556   0.0000000), wk =   0.1111111
        k(   10) = (   0.0301698  -0.0174185   0.0000000), wk =   0.1111111
        k(   11) = (   0.0603396   0.0348371   0.0000000), wk =   0.1111111
        k(   12) = (   0.0603396   0.0696741   0.0000000), wk =   0.1111111
        k(   13) = (   0.0603396   0.1045112   0.0000000), wk =   0.1111111
        k(   14) = (   0.0603396  -0.0696741   0.0000000), wk =   0.1111111
        k(   15) = (   0.0603396  -0.0348371   0.0000000), wk =   0.1111111
        k(   16) = (   0.0603396   0.0000000   0.0000000), wk =   0.1111111
        k(   17) = (  -0.0905094  -0.0522556   0.0000000), wk =   0.0555556
        k(   18) = (  -0.0905094  -0.0174185   0.0000000), wk =   0.1111111
        k(   19) = (  -0.0905094   0.0174185   0.0000000), wk =   0.1111111
        k(   20) = (  -0.0905094  -0.1567668   0.0000000), wk =   0.0555556

     Largest allocated arrays     est. size (Mb)     dimensions
     Largest temporary arrays     est. size (Mb)     dimensions

     Initial potential from superposition of free atoms
     Check: negative starting charge=   -1.388492

     starting charge  176.99957, renormalised to  183.00000

[...]

     *
     * You are using vdW-DF for exchange-correlation in this calculation.
     * Please cite the following three references that made this development
     * possible:
     *
     *   M. Dion, H. Rydberg, E. Schroder, D. C. Langreth, and
     *   B. I. Lundqvist, Phys. Rev. Lett. 92, 246401 (2004).
     *
     *   T. Thonhauser, V. R. Cooper, S. Li, A. Puzder, P. Hyldgaard, and
     *   D. C. Langreth, Phys. Rev. B 76, 125112 (2007).
     *
     *   G. Roman-Perez and J. M. Soler, Phys. Rev. Lett. 103, 096102 (2009).
     *
     *
     * If you are using vdW-DF2, please also cite:
     *
     *   K. Lee, E. D. Murray, L. Kong, B. I. Lundqvist, and
     *   D. C. Langreth, Phys. Rev. B 82, 081101(R) (2010).
     *
     *
     * If you are calculating the stress with vdW-DF, please also cite:
     *
     *   R. Sabatini, E. Kucukbenli, B. Kolb, T. Thonhauser, and
     *   S. de Gironcoli, J. Phys.: Condens. Matter 24, 424209 (2012).
     *

     Carrying out vdW-DF run using the following parameters:

     Nqs =      20    Nr_points =    1024   r_max =   100.000
     q_mesh =
               0.00001000     0.04494208     0.09755937     0.15916263
               0.23128650     0.31572767     0.41458969     0.53033537
               0.66584808     0.82450364     1.01025438     1.22772762
               1.48234092     1.78043706     2.12944203     2.53805004
               3.01644009     3.57652955     4.23227104     5.00000000

     Gradients computed in reciprocal space

[...]

     Starting wfc are  153 randomized atomic wfcs

     Self-consistent Calculation

[...]

     total energy              =   -2328.58533399 Ry
     Harris-Foulkes estimate   =   -2328.58533828 Ry
     estimated scf accuracy    <       0.00001144 Ry

     iteration # 17     ecut=    36.75 Ry     beta=0.10
     Davidson diagonalization with overlap
     ethr =  4.41E-09,  avg # of iterations =  3.9

[...]

     negative rho (up, down):  1.452E+00 0.000E+00

     Adding external electric field

     Computed dipole along edir(3) :
        Dipole                0.0097 Ry au,          0.0246 Debye
        Dipole field          0.0000 Ry au

        Potential amp.       -0.0025 Ry
        Total length         45.1603 bohr

     End of self-consistent calculation

[...]

          k = 0.0603 0.0000 0.0000 ( 16456 PWs)   bands (ev):

[...]

          k =-0.0905-0.1568 0.0000 ( 16456 PWs)   bands (ev):

   -78.4970 -78.4786 -78.4600 -78.1230 -78.1060 -78.0886 -78.0814 -78.0277
   -78.0182 -49.0282 -49.0261 -48.9586 -48.4644 -48.4624 -48.3668 -48.3649
   -48.3630 -48.2631 -40.5543 -40.4056 -40.3591 -40.3026 -40.2704 -40.2486
   -40.1911 -40.1839 -40.0818 -40.0042 -39.9074 -39.8922 -39.8319 -39.8155
   -39.8004 -39.7685 -39.7384 -39.7377 -39.7201 -39.7110 -39.6424 -39.6061
   -39.6001 -39.5617 -39.4940 -39.4247 -39.3363  -4.7106  -4.4315  -3.1872
    -3.0793  -2.9471  -2.8610  -2.8218  -2.7665  -2.6516  -2.5376  -2.4959
    -2.0352  -2.0056  -1.9668  -1.7425  -1.6517  -1.5138  -1.3643  -1.3548
    -1.2350  -1.1711  -0.7966  -0.7601  -0.7148  -0.5561  -0.4380  -0.2853
    -0.1555  -0.1018   0.0159   0.2534   0.3045   0.3714   0.5543   0.5959
     0.5967   0.6282   0.7907   0.8342   1.1261   1.2522   1.5024   1.5242
     1.7386   1.8379   2.0108   2.1892   2.3140   2.3961   2.5458   2.6680
     3.0582   3.2446   3.3740   3.4200   3.6593   3.7086   3.8110   3.9821
     4.0392   4.2681   4.8382   5.1326   5.1999   5.5247   5.8655   5.9590
     6.7020   7.3024   7.8219   7.9192   7.9951   8.4735   8.5785   8.6901
     8.9473

     the Fermi energy is     2.3641 ev

!    total energy              =   -2328.58533456 Ry
     Harris-Foulkes estimate   =   -2328.58533605 Ry
     estimated scf accuracy    <       0.00000100 Ry

     The total energy is the sum of the following terms:

     one-electron contribution =  -19037.68513672 Ry
     hartree contribution      =    9516.65537470 Ry
     xc contribution           =    -584.24904937 Ry
     ewald contribution        =    7776.75104737 Ry
     electric field correction =       0.00000027 Ry
     smearing contrib. (-TS)   =      -0.05757080 Ry

     convergence has been achieved in  17 iterations

 BEEF-vdW xc energy contributions
           1 :   -517.846381104133
           2 :    480.350831386786
           3 :   -413.497268938598
           4 :    330.750220536236
           5 :   -246.719510355736
           6 :    173.205537990073
           7 :   -116.712285405799
           8 :    78.0165908248848
           9 :   -53.6063019308880
          10 :    38.1385866601962
          11 :   -26.8327827161598
          12 :    16.9351700018602
          13 :   -7.93800814985900
          14 :   0.792026590070350
          15 :    3.29728498143299
          16 :   -3.87257181043856
          17 :    1.62985991593894
          18 :    1.83682914667486
          19 :   -4.72715865359839
          20 :    5.77932414171187
          21 :   -4.71604007657686
          22 :    2.21981061465033
          23 :   0.496987244975230
          24 :   -2.29164234148629
          25 :    2.57642618180205
          26 :   -1.49178573557572
          27 :  -0.269911401667173
          28 :    1.86296018795099
          29 :   -2.69504871108199
          30 :    2.64887997383983
          31 :   -44.1830362836539
          32 :   -32.7912380597228

     Forces acting on atoms (Ry/au):

     negative rho (up, down):  1.452E+00 0.000E+00
     atom    1 type  1   force =    -0.00000125   -0.03621333    0.03128048
     atom    2 type  1   force =    -0.03136289    0.01810704    0.03128070
     atom    3 type  1   force =     0.03136124    0.01810663    0.03127897
     atom    4 type  2   force =    -0.00000079    0.00000085   -0.01199998
     atom    5 type  1   force =     0.00000708    0.00447252   -0.02063566
     atom    6 type  1   force =     0.00386850   -0.00223337   -0.02063036
     atom    7 type  1   force =    -0.00387033   -0.00224246   -0.02063543
     atom    8 type  2   force =     0.00000199   -0.00000046   -0.01848211
     atom    9 type  1   force =    -0.00000186   -0.00039144   -0.00039218
     atom   10 type  1   force =    -0.00033734    0.00019602   -0.00039148
     atom   11 type  1   force =     0.00033461    0.00019613   -0.00039276
     atom   12 type  2   force =     0.00000104    0.00000188   -0.00028018

     Total force =     0.093238     Total SCF correction =     0.002515

     entering subroutine stress ...

     negative rho (up, down):  1.452E+00 0.000E+00
          total   stress  (Ry/bohr**3)                   (kbar)     P=  -25.79
  -0.00020773   0.00000000   0.00000000        -30.56      0.00      0.00
   0.00000000  -0.00020772  -0.00000000          0.00    -30.56     -0.00
   0.00000000  -0.00000000  -0.00011040          0.00     -0.00    -16.24

 !ASE

     Writing output data file calc.save

     General routines

     Parallel routines

   This run was terminated on:  22: 5:54  31Dec2018

   JOB DONE.
Job  /afs/slac/g/suncat/bin/suncat-tsmpirun -x LD_LIBRARY_PATH -wdir /scratch/qe648857_nuu5d pw.x -in pw.inp

TID   HOST_NAME   COMMAND_LINE            STATUS            TERMINATION_TIME
00000 suncat0169 pw.x -in pw.inp   Done                     12/31/2018 22:05:54
00001 suncat0169 pw.x -in pw.inp   Done                     12/31/2018 22:05:54
00002 suncat0169 pw.x -in pw.inp   Done                     12/31/2018 22:05:54
00003 suncat0169 pw.x -in pw.inp   Done                     12/31/2018 22:05:54
00004 suncat0169 pw.x -in pw.inp   Done                     12/31/2018 22:05:54
00005 suncat0169 pw.x -in pw.inp   Done                     12/31/2018 22:05:54
00006 suncat0169 pw.x -in pw.inp   Done                     12/31/2018 22:05:54
00007 suncat0169 pw.x -in pw.inp   Done                     12/31/2018 22:05:54
00008 suncat0168 pw.x -in pw.inp   Done                     12/31/2018 22:05:54
00009 suncat0168 pw.x -in pw.inp   Done                     12/31/2018 22:05:54
00010 suncat0168 pw.x -in pw.inp   Done                     12/31/2018 22:05:54
00011 suncat0168 pw.x -in pw.inp   Done                     12/31/2018 22:05:54
00012 suncat0168 pw.x -in pw.inp   Done                     12/31/2018 22:05:54
00013 suncat0168 pw.x -in pw.inp   Done                     12/31/2018 22:05:54
00014 suncat0168 pw.x -in pw.inp   Done                     12/31/2018 22:05:54
00015 suncat0168 pw.x -in pw.inp   Done                     12/31/2018 22:05:54
00016 suncat0161 pw.x -in pw.inp   Done                     12/31/2018 22:05:54
00017 suncat0161 pw.x -in pw.inp   Done                     12/31/2018 22:05:54
00018 suncat0161 pw.x -in pw.inp   Done                     12/31/2018 22:05:54
00019 suncat0161 pw.x -in pw.inp   Done                     12/31/2018 22:05:54
00020 suncat0161 pw.x -in pw.inp   Done                     12/31/2018 22:05:54
00021 suncat0161 pw.x -in pw.inp   Done                     12/31/2018 22:05:54
00022 suncat0161 pw.x -in pw.inp   Done                     12/31/2018 22:05:54
00023 suncat0161 pw.x -in pw.inp   Done                     12/31/2018 22:05:54
00024 suncat0137 pw.x -in pw.inp   Done                     12/31/2018 22:05:54
00025 suncat0137 pw.x -in pw.inp   Done                     12/31/2018 22:05:54
00026 suncat0137 pw.x -in pw.inp   Done                     12/31/2018 22:05:54
00027 suncat0137 pw.x -in pw.inp   Done                     12/31/2018 22:05:54
00028 suncat0137 pw.x -in pw.inp   Done                     12/31/2018 22:05:54
00029 suncat0137 pw.x -in pw.inp   Done                     12/31/2018 22:05:54
00030 suncat0137 pw.x -in pw.inp   Done                     12/31/2018 22:05:54
00031 suncat0137 pw.x -in pw.inp   Done                     12/31/2018 22:05:54
00032 suncat0117 pw.x -in pw.inp   Done                     12/31/2018 22:05:54
00033 suncat0117 pw.x -in pw.inp   Done                     12/31/2018 22:05:54
00034 suncat0117 pw.x -in pw.inp   Done                     12/31/2018 22:05:54
00035 suncat0117 pw.x -in pw.inp   Done                     12/31/2018 22:05:54
00036 suncat0117 pw.x -in pw.inp   Done                     12/31/2018 22:05:54
00037 suncat0117 pw.x -in pw.inp   Done                     12/31/2018 22:05:54
00038 suncat0117 pw.x -in pw.inp   Done                     12/31/2018 22:05:54
00039 suncat0117 pw.x -in pw.inp   Done                     12/31/2018 22:05:54
00040 suncat0250 pw.x -in pw.inp   Done                     12/31/2018 22:05:54
00041 suncat0250 pw.x -in pw.inp   Done                     12/31/2018 22:05:54
00042 suncat0250 pw.x -in pw.inp   Done                     12/31/2018 22:05:54
00043 suncat0250 pw.x -in pw.inp   Done                     12/31/2018 22:05:54
00044 suncat0250 pw.x -in pw.inp   Done                     12/31/2018 22:05:54
00045 suncat0250 pw.x -in pw.inp   Done                     12/31/2018 22:05:54
00046 suncat0250 pw.x -in pw.inp   Done                     12/31/2018 22:05:54
00047 suncat0250 pw.x -in pw.inp   Done                     12/31/2018 22:05:54
00048 suncat0249 pw.x -in pw.inp   Done                     12/31/2018 22:05:54
00049 suncat0249 pw.x -in pw.inp   Done                     12/31/2018 22:05:54
00050 suncat0249 pw.x -in pw.inp   Done                     12/31/2018 22:05:54
00051 suncat0249 pw.x -in pw.inp   Done                     12/31/2018 22:05:54
00052 suncat0249 pw.x -in pw.inp   Done                     12/31/2018 22:05:54
00053 suncat0249 pw.x -in pw.inp   Done                     12/31/2018 22:05:54
00054 suncat0249 pw.x -in pw.inp   Done                     12/31/2018 22:05:54
00055 suncat0249 pw.x -in pw.inp   Done                     12/31/2018 22:05:54
00056 suncat0231 pw.x -in pw.inp   Done                     12/31/2018 22:05:54
00057 suncat0231 pw.x -in pw.inp   Done                     12/31/2018 22:05:54
00058 suncat0231 pw.x -in pw.inp   Done                     12/31/2018 22:05:54
00059 suncat0231 pw.x -in pw.inp   Done                     12/31/2018 22:05:54
00060 suncat0231 pw.x -in pw.inp   Done                     12/31/2018 22:05:54
00061 suncat0231 pw.x -in pw.inp   Done                     12/31/2018 22:05:54
00062 suncat0231 pw.x -in pw.inp   Done                     12/31/2018 22:05:54
00063 suncat0231 pw.x -in pw.inp   Done                     12/31/2018 22:05:54