     Program PWSCF v.5.1rc2 (svn rev. 11289) starts on 19Dec2018 at  5:40:24

     Current dimensions of program PWSCF are:
     Max number of different atomic species (ntypx) = 10
     Max number of k-points (npk) =  40000
     Max angular momentum in pseudopotentials (lmaxx) =  3
     Presently stress not available with electric field

     IMPORTANT: XC functional enforced from input :
     Exchange-correlation      = BEEF-VDW ( 1  4 27 13 2)
     Any further DFT definition will be discarded
     Please, verify this is what you really want

     Subspace diagonalization in iterative solution of the eigenvalue problem:
     a serial algorithm will be used

     Found symmetry operation: I + (  0.5000  0.0000  0.0000)
     This is a supercell, fractional translations are disabled

     bravais-lattice index     =            0
     lattice parameter (alat)  =       1.8897  a.u.
     unit-cell volume          =    5133.1187 (a.u.)^3
     number of atoms/cell      =           12
     number of atomic types    =            2
     number of electrons       =       150.00
     number of Kohn-Sham states=          105
     kinetic-energy cutoff     =      36.7493  Ry
     charge density cutoff     =     367.4932  Ry
     convergence threshold     =      1.0E-06
     mixing beta               =       0.1000
     number of iterations used =           10  plain     mixing
     Exchange-correlation      = BEEF-VDW ( 1  4 27 13 2)
     nstep                     =           50

     celldm(1)=   1.889726  celldm(2)=   0.000000  celldm(3)=   0.000000
     celldm(4)=   0.000000  celldm(5)=   0.000000  celldm(6)=   0.000000

     crystal axes: (cart. coord. in units of alat)
               a(1) = (   5.568252   0.000000   0.000000 )
               a(2) = (  -2.784126   5.507296   0.000000 )
               a(3) = (   0.000000   0.000000  24.804325 )

     reciprocal axes: (cart. coord. in units 2 pi/alat)
               b(1) = (  0.179590  0.090789  0.000000 )
               b(2) = (  0.000000  0.181577  0.000000 )
               b(3) = (  0.000000  0.000000  0.040316 )

     PseudoPot. # 1 for Sc read from file:
     /afs/slac.stanford.edu/u/if/mamunm/psp/gbrv1.5pbe/Sc.UPF
     MD5 check sum: db30a2753ba66ef00f23801d899b7e7f
     Pseudo is Ultrasoft + core correction, Zval = 11.0
     Generated by new atomic code, or converted to UPF format
     Using radial grid of  849 points,  6 beta functions with:
                l(1) =   0
                l(2) =   0
                l(3) =   1
                l(4) =   1
                l(5) =   2
                l(6) =   2
     Q(r) pseudized with  6 coefficients,  rinner =    1.200   1.200   1.200
                                                       1.200   1.200

     PseudoPot. # 2 for W  read from file:
     /afs/slac.stanford.edu/u/if/mamunm/psp/gbrv1.5pbe/W.UPF
     MD5 check sum: 9c083fa34c2a2ea0f02f1f893e16e1c8
     Pseudo is Ultrasoft + core correction, Zval = 14.0
     Generated by new atomic code, or converted to UPF format
     Using radial grid of  923 points,  8 beta functions with:
                l(1) =   0
                l(2) =   0
                l(3) =   0
                l(4) =   1
                l(5) =   1
                l(6) =   2
                l(7) =   2
                l(8) =   3
     Q(r) pseudized with  6 coefficients,  rinner =    1.350   1.350   1.350
                                                       1.350   1.350   1.350
                                                       1.350

     vdW kernel table read from file vdW_kernel_table
     MD5 check sum: 095c7af220d748ca6e76c0b4c6cfb241

     atomic species   valence    mass     pseudopotential
        Sc1           11.00    44.95591     Sc( 1.00)
        W1            14.00   183.84000     W ( 1.00)

     No symmetry found

   Cartesian axes

     site n.     atom                  positions (alat units)
         1           Sc1 tau(   1) = (   0.0000000   0.0000000  10.0000000  )
         2           Sc1 tau(   2) = (   2.7841259   0.0000000  10.0000000  )
         3           W1  tau(   3) = (   1.3920630   2.7536481  10.0000000  )
         4           W1  tau(   4) = (  -1.3920630   2.7536481  10.0000000  )
         5           Sc1 tau(   5) = (   2.7841259   1.4074705  12.4021623  )
         6           Sc1 tau(   6) = (   0.0000000   1.4074705  12.4021623  )
         7           W1  tau(   7) = (  -1.3920630   4.1611186  12.4021623  )
         8           W1  tau(   8) = (   1.3920630   4.1611186  12.4021623  )
         9           Sc1 tau(   9) = (  -0.0000000   2.8149411  14.8043246  )
        10           Sc1 tau(  10) = (   2.7841259   2.8149411  14.8043246  )
        11           W1  tau(  11) = (   4.1761889   0.0612930  14.8043246  )
        12           W1  tau(  12) = (   1.3920630   0.0612930  14.8043246  )

     number of k points=    20  Fermi-Dirac smearing, width (Ry)=  0.0110
                       cart. coord. in units 2pi/alat
        k(    1) = (   0.0000000   0.0000000   0.0000000), wk =   0.0555556
        k(    2) = (   0.0000000   0.0302629   0.0000000), wk =   0.1111111
        k(    3) = (   0.0000000   0.0605258   0.0000000), wk =   0.1111111
        k(    4) = (   0.0000000  -0.0907887   0.0000000), wk =   0.0555556
        k(    5) = (   0.0299316   0.0151314   0.0000000), wk =   0.1111111
        k(    6) = (   0.0299316   0.0453943   0.0000000), wk =   0.1111111
        k(    7) = (   0.0299316   0.0756572   0.0000000), wk =   0.1111111
        k(    8) = (   0.0299316  -0.0756572   0.0000000), wk =   0.1111111
        k(    9) = (   0.0299316  -0.0453943   0.0000000), wk =   0.1111111
        k(   10) = (   0.0299316  -0.0151314   0.0000000), wk =   0.1111111
        k(   11) = (   0.0598632   0.0302629   0.0000000), wk =   0.1111111
        k(   12) = (   0.0598632   0.0605258   0.0000000), wk =   0.1111111
        k(   13) = (   0.0598632   0.0907887   0.0000000), wk =   0.1111111
        k(   14) = (   0.0598632  -0.0605258   0.0000000), wk =   0.1111111
        k(   15) = (   0.0598632  -0.0302629   0.0000000), wk =   0.1111111
        k(   16) = (   0.0598632   0.0000000   0.0000000), wk =   0.1111111
        k(   17) = (  -0.0897948  -0.0453943   0.0000000), wk =   0.0555556
        k(   18) = (  -0.0897948  -0.0151314   0.0000000), wk =   0.1111111
        k(   19) = (  -0.0897948   0.0151314   0.0000000), wk =   0.1111111
        k(   20) = (  -0.0897948  -0.1361830   0.0000000), wk =   0.0555556

     Largest allocated arrays     est. size (Mb)     dimensions
     Largest temporary arrays     est. size (Mb)     dimensions

     Initial potential from superposition of free atoms
     Check: negative starting charge=   -0.377130

     starting charge  149.38355, renormalised to  150.00000

     negative rho (up, down):  3.787E-01 0.000E+00

     *
     * You are using vdW-DF for exchange-correlation in this calculation.
     * Please cite the following three references that made this development
     * possible:
     *
     *   M. Dion, H. Rydberg, E. Schroder, D. C. Langreth, and
     *   B. I. Lundqvist, Phys. Rev. Lett. 92, 246401 (2004).
     *
     *   T. Thonhauser, V. R. Cooper, S. Li, A. Puzder, P. Hyldgaard, and
     *   D. C. Langreth, Phys. Rev. B 76, 125112 (2007).
     *
     *   G. Roman-Perez and J. M. Soler, Phys. Rev. Lett. 103, 096102 (2009).
     *
     *
     * If you are using vdW-DF2, please also cite:
     *
     *   K. Lee, E. D. Murray, L. Kong, B. I. Lundqvist, and
     *   D. C. Langreth, Phys. Rev. B 82, 081101(R) (2010).
     *
     *
     * If you are calculating the stress with vdW-DF, please also cite:
     *
     *   R. Sabatini, E. Kucukbenli, B. Kolb, T. Thonhauser, and
     *   S. de Gironcoli, J. Phys.: Condens. Matter 24, 424209 (2012).
     *

     Carrying out vdW-DF run using the following parameters:

     Nqs =      20    Nr_points =    1024   r_max =   100.000
     q_mesh =
               0.00001000     0.04494208     0.09755937     0.15916263
               0.23128650     0.31572767     0.41458969     0.53033537
               0.66584808     0.82450364     1.01025438     1.22772762
               1.48234092     1.78043706     2.12944203     2.53805004
               3.01644009     3.57652955     4.23227104     5.00000000

     Gradients computed in reciprocal space

     Adding external electric field

     Computed dipole along edir(3) :
        Dipole                0.0000 Ry au,          0.0000 Debye
        Dipole field          0.0000 Ry au

        Potential amp.       -0.0000 Ry
        Total length         45.7015 bohr

     Starting wfc are  156 randomized atomic wfcs

     Self-consistent Calculation

     iteration #  1     ecut=    36.75 Ry     beta=0.10
     Davidson diagonalization with overlap
     ethr =  1.00E-02,  avg # of iterations =  2.0

[...]

     total energy              =   -1530.53391025 Ry
     Harris-Foulkes estimate   =   -1531.53536435 Ry
     estimated scf accuracy    <       5.66485714 Ry

[...]

     iteration #  8     ecut=    36.75 Ry     beta=0.10
     Davidson diagonalization with overlap
     c_bands:  1 eigenvalues not converged
     ethr =  1.66E-05,  avg # of iterations =  5.2

[...]

     End of self-consistent calculation

          k = 0.0000 0.0000 0.0000 ( 19341 PWs)   bands (ev):

   -72.8282 -72.7822 -72.7247 -72.7221 -72.6790 -72.6765 -48.2747 -48.2706
   -48.1545 -48.1507 -47.8534 -47.7335 -37.2604 -37.1463 -37.0918 -37.0858
   -37.0582 -36.8719 -36.8580 -36.7901 -36.7846 -36.7814 -36.7788 -36.7046
   -36.6995 -36.6242 -36.5566 -36.5365 -36.3747 -36.3716 -27.3376 -27.3351
   -27.0843 -26.9676 -26.9273 -26.9242 -26.8236 -26.7622 -26.7561 -26.6612
   -26.6534 -26.5111 -26.5095 -26.3899 -26.3304 -26.3001 -26.2268 -26.1004
    -5.1688  -3.7275  -2.7645  -2.2879  -1.9322  -1.9147  -1.7934  -1.7501
    -1.2954  -1.2890  -1.2584  -1.2381  -1.0141  -0.8809  -0.7791  -0.5727
     0.0650   0.1021   0.3551   0.3648   0.5272   1.1922   1.2122   1.4672
     1.5020   1.6277   1.7337   1.7578   1.9975   2.0367   2.4060   2.4472
     2.4933   2.5176   2.5254   2.7445   2.7616   2.9239   3.0066   3.1914
     3.3139   3.3249   3.4012   3.4999   3.6938   3.9180   4.0233   4.0323
     4.1526   4.2444   4.5885   4.7016   4.7061   4.9021   4.9758   5.1854
     5.2253

[...]

          k =-0.0898-0.0454 0.0000 ( 19328 PWs)   bands (ev):

[...]

     the Fermi energy is     1.3690 ev

!    total energy              =   -1531.07707272 Ry
     Harris-Foulkes estimate   =   -1531.07707394 Ry
     estimated scf accuracy    <       0.00000006 Ry

     The total energy is the sum of the following terms:

     one-electron contribution =  -10788.89914942 Ry
     hartree contribution      =    5376.86072962 Ry
     xc contribution           =    -338.49503174 Ry
     ewald contribution        =    4219.55207968 Ry
     electric field correction =       0.00000000 Ry
     smearing contrib. (-TS)   =      -0.09570087 Ry

     convergence has been achieved in  19 iterations

 BEEF-vdW xc energy contributions
           1 :   -295.238285313487
           2 :    269.990985174797
           3 :   -227.009647862157
           4 :    177.730277156332
[...]

[...]

   This run was terminated on:   5:58:20  19Dec2018

[...]

     Program PWSCF v.5.1rc2 (svn rev. 11289) starts on 19Dec2018 at  5:58:26

[...]

   This run was terminated on:   6: 2:50  19Dec2018

[...]

     Program PWSCF v.5.1rc2 (svn rev. 11289) starts on 19Dec2018 at  6: 2:56

     Current dimensions of program PWSCF are:
     Max number of different atomic species (ntypx) = 10
     Max number of k-points (npk) =  40000
     Max angular momentum in pseudopotentials (lmaxx) =  3
     Presently stress not available with electric field

     IMPORTANT: XC functional enforced from input :
     Exchange-correlation      = BEEF-VDW ( 1  4 27 13 2)
     Any further DFT definition will be discarded
     Please, verify this is what you really want

     Subspace diagonalization in iterative solution of the eigenvalue problem:
     a serial algorithm will be used

     Found symmetry operation: I + (  0.5000  0.0000  0.0000)
     This is a supercell, fractional translations are disabled

     bravais-lattice index     =            0
     lattice parameter (alat)  =       1.8897  a.u.
     unit-cell volume          =    5133.1187 (a.u.)^3
     number of atoms/cell      =           12
     number of atomic types    =            2
     number of electrons       =       150.00
     number of Kohn-Sham states=          105
     kinetic-energy cutoff     =      36.7493  Ry
     charge density cutoff     =     367.4932  Ry
     convergence threshold     =      1.0E-06
     mixing beta               =       0.1000
     number of iterations used =           10  plain     mixing
     Exchange-correlation      = BEEF-VDW ( 1  4 27 13 2)
     nstep                     =           50

     celldm(1)=   1.889726  celldm(2)=   0.000000  celldm(3)=   0.000000
     celldm(4)=   0.000000  celldm(5)=   0.000000  celldm(6)=   0.000000

     crystal axes: (cart. coord. in units of alat)
               a(1) = (   5.568252   0.000000   0.000000 )
               a(2) = (  -2.784126   5.507296   0.000000 )
               a(3) = (   0.000000   0.000000  24.804325 )

     reciprocal axes: (cart. coord. in units 2 pi/alat)
               b(1) = (  0.179590  0.090789  0.000000 )
               b(2) = (  0.000000  0.181577  0.000000 )
               b(3) = (  0.000000  0.000000  0.040316 )

     PseudoPot. # 1 for Sc read from file:
     /afs/slac.stanford.edu/u/if/mamunm/psp/gbrv1.5pbe/Sc.UPF
     MD5 check sum: db30a2753ba66ef00f23801d899b7e7f
     Pseudo is Ultrasoft + core correction, Zval = 11.0
     Generated by new atomic code, or converted to UPF format
     Using radial grid of  849 points,  6 beta functions with:
                l(1) =   0
                l(2) =   0
                l(3) =   1
                l(4) =   1
                l(5) =   2
                l(6) =   2
     Q(r) pseudized with  6 coefficients,  rinner =    1.200   1.200   1.200
                                                       1.200   1.200

     PseudoPot. # 2 for W  read from file:
     /afs/slac.stanford.edu/u/if/mamunm/psp/gbrv1.5pbe/W.UPF
     MD5 check sum: 9c083fa34c2a2ea0f02f1f893e16e1c8
     Pseudo is Ultrasoft + core correction, Zval = 14.0
     Generated by new atomic code, or converted to UPF format
     Using radial grid of  923 points,  8 beta functions with:
                l(1) =   0
                l(2) =   0
                l(3) =   0
                l(4) =   1
                l(5) =   1
                l(6) =   2
                l(7) =   2
                l(8) =   3
     Q(r) pseudized with  6 coefficients,  rinner =    1.350   1.350   1.350
                                                       1.350   1.350   1.350
                                                       1.350

     vdW kernel table read from file vdW_kernel_table
     MD5 check sum: 095c7af220d748ca6e76c0b4c6cfb241

     atomic species   valence    mass     pseudopotential
        Sc1           11.00    44.95591     Sc( 1.00)
        W1            14.00   183.84000     W ( 1.00)

     No symmetry found

   Cartesian axes

     site n.     atom                  positions (alat units)
         1           Sc1 tau(   1) = (   0.0000000   0.0000000  10.0000000  )
         2           Sc1 tau(   2) = (   2.7841259   0.0000000  10.0000000  )
         3           W1  tau(   3) = (   1.3920630   2.7536481  10.0000000  )
         4           W1  tau(   4) = (  -1.3920630   2.7536481  10.0000000  )
         5           Sc1 tau(   5) = (   2.7841259   1.4074705  12.4021623  )
         6           Sc1 tau(   6) = (   0.0000000   1.4074705  12.4021623  )
         7           W1  tau(   7) = (  -1.3920630   4.1611186  12.4021623  )
         8           W1  tau(   8) = (   1.3920630   4.1611186  12.4021623  )
         9           Sc1 tau(   9) = (   0.0000030   2.9083377  14.9500631  )
        10           Sc1 tau(  10) = (   2.7841278   2.9083313  14.9500424  )
        11           W1  tau(  11) = (   4.1761872   0.0266378  14.5758848  )
        12           W1  tau(  12) = (   1.3920637   0.0266378  14.5758946  )

     number of k points=    20  Fermi-Dirac smearing, width (Ry)=  0.0110
                       cart. coord. in units 2pi/alat
        k(    1) = (   0.0000000   0.0000000   0.0000000), wk =   0.0555556
        k(    2) = (   0.0000000   0.0302629   0.0000000), wk =   0.1111111
        k(    3) = (   0.0000000   0.0605258   0.0000000), wk =   0.1111111
        k(    4) = (   0.0000000  -0.0907887   0.0000000), wk =   0.0555556
        k(    5) = (   0.0299316   0.0151314   0.0000000), wk =   0.1111111
        k(    6) = (   0.0299316   0.0453943   0.0000000), wk =   0.1111111
        k(    7) = (   0.0299316   0.0756572   0.0000000), wk =   0.1111111
        k(    8) = (   0.0299316  -0.0756572   0.0000000), wk =   0.1111111
        k(    9) = (   0.0299316  -0.0453943   0.0000000), wk =   0.1111111
        k(   10) = (   0.0299316  -0.0151314   0.0000000), wk =   0.1111111
        k(   11) = (   0.0598632   0.0302629   0.0000000), wk =   0.1111111
        k(   12) = (   0.0598632   0.0605258   0.0000000), wk =   0.1111111
        k(   13) = (   0.0598632   0.0907887   0.0000000), wk =   0.1111111
        k(   14) = (   0.0598632  -0.0605258   0.0000000), wk =   0.1111111
        k(   15) = (   0.0598632  -0.0302629   0.0000000), wk =   0.1111111
        k(   16) = (   0.0598632   0.0000000   0.0000000), wk =   0.1111111
        k(   17) = (  -0.0897948  -0.0453943   0.0000000), wk =   0.0555556
        k(   18) = (  -0.0897948  -0.0151314   0.0000000), wk =   0.1111111
        k(   19) = (  -0.0897948   0.0151314   0.0000000), wk =   0.1111111
        k(   20) = (  -0.0897948  -0.1361830   0.0000000), wk =   0.0555556

     Largest allocated arrays     est. size (Mb)     dimensions
     Largest temporary arrays     est. size (Mb)     dimensions

     Initial potential from superposition of free atoms
     Check: negative starting charge=   -0.377441

     starting charge  149.38355, renormalised to  150.00000

[...]

     *
     * You are using vdW-DF for exchange-correlation in this calculation.
     * Please cite the following three references that made this development
     * possible:
     *
     *   M. Dion, H. Rydberg, E. Schroder, D. C. Langreth, and
     *   B. I. Lundqvist, Phys. Rev. Lett. 92, 246401 (2004).
     *
     *   T. Thonhauser, V. R. Cooper, S. Li, A. Puzder, P. Hyldgaard, and
     *   D. C. Langreth, Phys. Rev. B 76, 125112 (2007).
     *
     *   G. Roman-Perez and J. M. Soler, Phys. Rev. Lett. 103, 096102 (2009).
     *
     *
     * If you are using vdW-DF2, please also cite:
     *
     *   K. Lee, E. D. Murray, L. Kong, B. I. Lundqvist, and
     *   D. C. Langreth, Phys. Rev. B 82, 081101(R) (2010).
     *
     *
     * If you are calculating the stress with vdW-DF, please also cite:
     *
     *   R. Sabatini, E. Kucukbenli, B. Kolb, T. Thonhauser, and
     *   S. de Gironcoli, J. Phys.: Condens. Matter 24, 424209 (2012).
     *

     Carrying out vdW-DF run using the following parameters:

     Nqs =      20    Nr_points =    1024   r_max =   100.000
     q_mesh =
               0.00001000     0.04494208     0.09755937     0.15916263
               0.23128650     0.31572767     0.41458969     0.53033537
               0.66584808     0.82450364     1.01025438     1.22772762
               1.48234092     1.78043706     2.12944203     2.53805004
               3.01644009     3.57652955     4.23227104     5.00000000

     Gradients computed in reciprocal space

[...]

     Starting wfc are  156 randomized atomic wfcs

     Self-consistent Calculation

[...]

     iteration # 10     ecut=    36.75 Ry     beta=0.10
     Davidson diagonalization with overlap
     c_bands:  1 eigenvalues not converged
     ethr =  1.56E-06,  avg # of iterations =  4.2

[...]

     total energy              =   -1531.11656016 Ry
     Harris-Foulkes estimate   =   -1531.11656001 Ry
     estimated scf accuracy    <       0.00000146 Ry

     iteration # 17     ecut=    36.75 Ry     beta=0.10
     Davidson diagonalization with overlap
     ethr =  9.71E-10,  avg # of iterations =  2.0

[...]

     negative rho (up, down):  3.914E-01 0.000E+00

     Adding external electric field

     Computed dipole along edir(3) :
        Dipole                0.1409 Ry au,          0.3582 Debye
        Dipole field          0.0003 Ry au

        Potential amp.       -0.0315 Ry
        Total length         45.7015 bohr

     End of self-consistent calculation

[...]

          k = 0.0599 0.0000 0.0000 ( 19326 PWs)   bands (ev):

[...]

          k =-0.0898-0.1362 0.0000 ( 19328 PWs)   bands (ev):

   -72.5977 -72.5977 -72.5479 -72.5479 -72.4047 -72.4047 -48.1658 -48.1658
   -48.0516 -48.0516 -47.5785 -47.5785 -37.0575 -37.0575 -36.7225 -36.7225
   -36.6587 -36.6587 -36.6325 -36.6325 -36.5922 -36.5922 -36.5721 -36.5721
   -36.4978 -36.4978 -36.4533 -36.4533 -36.2273 -36.2273 -26.8761 -26.8761
   -26.8454 -26.8454 -26.7795 -26.7794 -26.7729 -26.7729 -26.6717 -26.6717
   -26.5478 -26.5478 -26.3167 -26.3167 -26.1645 -26.1645 -26.0915 -26.0915
    -3.2930  -3.2930  -1.9876  -1.9876  -1.1829  -1.1829  -1.0096  -1.0096
    -0.8394  -0.8394  -0.4616  -0.4616  -0.0564  -0.0564   0.0156   0.0156
     0.3840   0.3840   0.5612   0.5612   0.8000   0.8000   0.9022   0.9022
     1.0586   1.0586   1.1831   1.1831   1.5734   1.5734   1.8094   1.8094
     2.0784   2.0784   2.1774   2.1774   2.5438   2.5438   2.9306   2.9306
     3.2799   3.2799   3.4061   3.4061   3.6378   3.6379   3.7161   3.7161
     3.9389   3.9389   4.0103   4.0103   4.0883   4.0883   4.4736   4.4737
     4.6515

     the Fermi energy is     1.5273 ev

!    total energy              =   -1531.11655871 Ry
     Harris-Foulkes estimate   =   -1531.11656303 Ry
     estimated scf accuracy    <       0.00000057 Ry

     The total energy is the sum of the following terms:

     one-electron contribution =  -10883.96683060 Ry
     hartree contribution      =    5425.29829767 Ry
     xc contribution           =    -338.67588305 Ry
     ewald contribution        =    4266.32150280 Ry
     electric field correction =       0.00004862 Ry
     smearing contrib. (-TS)   =      -0.09369415 Ry

     convergence has been achieved in  17 iterations

 BEEF-vdW xc energy contributions
           1 :   -295.421920704930
           2 :    270.229523314521
           3 :   -227.323546784230
           4 :    178.078254998991
           5 :   -132.932669571908
           6 :    97.9365476695469
           7 :   -73.9977705319832
           8 :    58.4539400299576
           9 :   -47.5584172183898
          10 :    38.4657136185413
          11 :   -29.9948600708552
          12 :    22.2678090826435
          13 :   -15.8533753471077
          14 :    11.0905469287430
          15 :   -7.90232721666155
          16 :    5.96486095806517
          17 :   -4.91514890372162
          18 :    4.41969872055427
          19 :   -4.15997914019351
          20 :    3.86565972005474
          21 :   -3.42111932271763
          22 :    2.93885611210521
          23 :   -2.68729655459913
          24 :    2.88032020719379
          25 :   -3.47310847953304
          26 :    4.13496235091549
          27 :   -4.44826061275012
          28 :    4.19979321093825
          29 :   -3.54343163668614
          30 :    2.90278279057344
          31 :   -28.6139765837728
          32 :   -21.1325290938832

     Forces acting on atoms (Ry/au):

     negative rho (up, down):  3.914E-01 0.000E+00
     atom    1 type  1   force =     0.00000072   -0.01584058   -0.02764158
     atom    2 type  1   force =    -0.00000046   -0.01583982   -0.02764197
     atom    3 type  2   force =     0.00000017    0.01154082    0.05078126
     atom    4 type  2   force =     0.00000136    0.01153886    0.05078032
     atom    5 type  1   force =    -0.00000056    0.01472848   -0.00295474
     atom    6 type  1   force =     0.00000071    0.01473048   -0.00295243
     atom    7 type  2   force =    -0.00000375   -0.01314204   -0.02176869
     atom    8 type  2   force =    -0.00000012   -0.01314372   -0.02177080
     atom    9 type  1   force =    -0.00000054    0.00143120    0.00030902
     atom   10 type  1   force =     0.00000037    0.00143032    0.00031034
     atom   11 type  2   force =     0.00000003    0.00128341    0.00127386
     atom   12 type  2   force =     0.00000206    0.00128258    0.00127542

     Total force =     0.095964     Total SCF correction =     0.003933

     entering subroutine stress ...

     negative rho (up, down):  3.914E-01 0.000E+00
          total   stress  (Ry/bohr**3)                   (kbar)     P=  -17.61
  -0.00011390  -0.00000000  -0.00000000        -16.76     -0.00     -0.00
  -0.00000000  -0.00016878   0.00001238         -0.00    -24.83      1.82
  -0.00000000   0.00001238  -0.00007645         -0.00      1.82    -11.25

 !ASE

     Writing output data file calc.save

     General routines

     Parallel routines

   This run was terminated on:   6: 7:22  19Dec2018

   JOB DONE.
Job  /afs/slac/g/suncat/bin/suncat-tsmpirun -x LD_LIBRARY_PATH -wdir /scratch/qe530592_jEwvx pw.x -in pw.inp

TID   HOST_NAME   COMMAND_LINE            STATUS            TERMINATION_TIME
00000 suncat2046 pw.x -in pw.inp   Done                     12/19/2018 06:07:22
00001 suncat2046 pw.x -in pw.inp   Done                     12/19/2018 06:07:22
00002 suncat2046 pw.x -in pw.inp   Done                     12/19/2018 06:07:22
00003 suncat2046 pw.x -in pw.inp   Done                     12/19/2018 06:07:22
00004 suncat2046 pw.x -in pw.inp   Done                     12/19/2018 06:07:22
00005 suncat2046 pw.x -in pw.inp   Done                     12/19/2018 06:07:22
00006 suncat2046 pw.x -in pw.inp   Done                     12/19/2018 06:07:22
00007 suncat2046 pw.x -in pw.inp   Done                     12/19/2018 06:07:22
00008 suncat2046 pw.x -in pw.inp   Done                     12/19/2018 06:07:22
00009 suncat2046 pw.x -in pw.inp   Done                     12/19/2018 06:07:22
00010 suncat2046 pw.x -in pw.inp   Done                     12/19/2018 06:07:22
00011 suncat2046 pw.x -in pw.inp   Done                     12/19/2018 06:07:22
00012 suncat2046 pw.x -in pw.inp   Done                     12/19/2018 06:07:22
00013 suncat2046 pw.x -in pw.inp   Done                     12/19/2018 06:07:22
00014 suncat2046 pw.x -in pw.inp   Done                     12/19/2018 06:07:22
00015 suncat2046 pw.x -in pw.inp   Done                     12/19/2018 06:07:22
00016 suncat2045 pw.x -in pw.inp   Done                     12/19/2018 06:07:22
00017 suncat2045 pw.x -in pw.inp   Done                     12/19/2018 06:07:22
00018 suncat2045 pw.x -in pw.inp   Done                     12/19/2018 06:07:22
00019 suncat2045 pw.x -in pw.inp   Done                     12/19/2018 06:07:22
00020 suncat2045 pw.x -in pw.inp   Done                     12/19/2018 06:07:22
00021 suncat2045 pw.x -in pw.inp   Done                     12/19/2018 06:07:22
00022 suncat2045 pw.x -in pw.inp   Done                     12/19/2018 06:07:22
00023 suncat2045 pw.x -in pw.inp   Done                     12/19/2018 06:07:22
00024 suncat2045 pw.x -in pw.inp   Done                     12/19/2018 06:07:22
00025 suncat2045 pw.x -in pw.inp   Done                     12/19/2018 06:07:22
00026 suncat2045 pw.x -in pw.inp   Done                     12/19/2018 06:07:22
00027 suncat2045 pw.x -in pw.inp   Done                     12/19/2018 06:07:22
00028 suncat2045 pw.x -in pw.inp   Done                     12/19/2018 06:07:22
00029 suncat2045 pw.x -in pw.inp   Done                     12/19/2018 06:07:22
00030 suncat2045 pw.x -in pw.inp   Done                     12/19/2018 06:07:22
00031 suncat2045 pw.x -in pw.inp   Done                     12/19/2018 06:07:22