     Program PWSCF v.5.1rc2 (svn rev. 11289) starts on  1Jan2019 at  3:50: 8

     Current dimensions of program PWSCF are:
     Max number of different atomic species (ntypx) = 10
     Max number of k-points (npk) =  40000
     Max angular momentum in pseudopotentials (lmaxx) =  3
     Presently stress not available with electric field

     IMPORTANT: XC functional enforced from input :
     Exchange-correlation      = BEEF-VDW ( 1  4 27 13 2)
     Any further DFT definition will be discarded
     Please, verify this is what you really want

     Subspace diagonalization in iterative solution of the eigenvalue problem:
     a serial algorithm will be used

     bravais-lattice index     =            0
     lattice parameter (alat)  =       1.8897  a.u.
     unit-cell volume          =    4658.0059 (a.u.)^3
     number of atoms/cell      =           12
     number of atomic types    =            2
     number of electrons       =       186.00
     number of Kohn-Sham states=          123
     kinetic-energy cutoff     =      36.7493  Ry
     charge density cutoff     =     367.4932  Ry
     convergence threshold     =      1.0E-06
     mixing beta               =       0.1000
     number of iterations used =           10  plain     mixing
     Exchange-correlation      = BEEF-VDW ( 1  4 27 13 2)
     nstep                     =           50

     celldm(1)=   1.889726  celldm(2)=   0.000000  celldm(3)=   0.000000
     celldm(4)=   0.000000  celldm(5)=   0.000000  celldm(6)=   0.000000

     crystal axes: (cart. coord. in units of alat)
               a(1) = (   5.687033   0.000000   0.000000 )
               a(2) = (  -2.843516   4.925115   0.000000 )
               a(3) = (   0.000000   0.000000  24.643443 )

     reciprocal axes: (cart. coord. in units 2 pi/alat)
               b(1) = (  0.175839  0.101520  0.000000 )
               b(2) = (  0.000000  0.203041  0.000000 )
               b(3) = (  0.000000  0.000000  0.040579 )

     PseudoPot. # 1 for Ru read from file:
     /afs/slac.stanford.edu/u/if/mamunm/psp/gbrv1.5pbe/Ru.UPF
     MD5 check sum: 7158a806dd851261a58e6920c40ebe78
     Pseudo is Ultrasoft + core correction, Zval = 16.0
     Generated by new atomic code, or converted to UPF format
     Using radial grid of  967 points,  6 beta functions with:
                l(1) =   0
                l(2) =   0
                l(3) =   1
                l(4) =   1
                l(5) =   2
                l(6) =   2
     Q(r) pseudized with  8 coefficients,  rinner =    1.300   1.300   1.300
                                                       1.300   1.300

     PseudoPot. # 2 for Pb read from file:
     /afs/slac.stanford.edu/u/if/mamunm/psp/gbrv1.5pbe/Pb.UPF
     MD5 check sum: 3d1c1779aa92214d1e8f3a7db79003e2
     Pseudo is Ultrasoft + core correction, Zval = 14.0
     Generated by new atomic code, or converted to UPF format
     Using radial grid of  899 points,  6 beta functions with:
                l(1) =   0
                l(2) =   0
                l(3) =   1
                l(4) =   1
                l(5) =   2
                l(6) =   2
     Q(r) pseudized with  6 coefficients,  rinner =    1.000   1.000   1.000
                                                       1.000   1.000

     vdW kernel table read from file vdW_kernel_table
     MD5 check sum: 095c7af220d748ca6e76c0b4c6cfb241

     atomic species   valence    mass     pseudopotential
        Ru1           16.00   101.07000     Ru( 1.00)
        Pb1           14.00   207.20000     Pb( 1.00)

     No symmetry found

   Cartesian axes

     site n.     atom                  positions (alat units)
         1           Ru1 tau(   1) = (   0.0000000   0.0000000  10.0000000  )
         2           Ru1 tau(   2) = (  -1.4217581   2.4625573  10.0000000  )
         3           Ru1 tau(   3) = (   1.4217581   2.4625573  10.0000000  )
         4           Pb1 tau(   4) = (   2.8435163   0.0000000  10.0000000  )
         5           Ru1 tau(   5) = (   2.8435163   1.6417049  12.3217213  )
         6           Ru1 tau(   6) = (   1.4217581   4.1042622  12.3217213  )
         7           Ru1 tau(   7) = (  -1.4217581   4.1042622  12.3217213  )
         8           Pb1 tau(   8) = (   0.0000000   1.6417049  12.3217213  )
         9           Ru1 tau(   9) = (  -0.0000000   3.2834098  14.6434426  )
        10           Ru1 tau(  10) = (   1.4217581   0.8208524  14.6434426  )
        11           Ru1 tau(  11) = (   4.2652744   0.8208524  14.6434426  )
        12           Pb1 tau(  12) = (   2.8435163   3.2834098  14.6434426  )

     number of k points=    20  Fermi-Dirac smearing, width (Ry)=  0.0110
                       cart. coord. in units 2pi/alat
        k(    1) = (   0.0000000   0.0000000   0.0000000), wk =   0.0555556
        k(    2) = (   0.0000000   0.0338402   0.0000000), wk =   0.1111111
        k(    3) = (   0.0000000   0.0676803   0.0000000), wk =   0.1111111
        k(    4) = (   0.0000000  -0.1015205   0.0000000), wk =   0.0555556
        k(    5) = (   0.0293064   0.0169201   0.0000000), wk =   0.1111111
        k(    6) = (   0.0293064   0.0507602   0.0000000), wk =   0.1111111
        k(    7) = (   0.0293064   0.0846004   0.0000000), wk =   0.1111111
        k(    8) = (   0.0293064  -0.0846004   0.0000000), wk =   0.1111111
        k(    9) = (   0.0293064  -0.0507602   0.0000000), wk =   0.1111111
        k(   10) = (   0.0293064  -0.0169201   0.0000000), wk =   0.1111111
        k(   11) = (   0.0586129   0.0338402   0.0000000), wk =   0.1111111
        k(   12) = (   0.0586129   0.0676803   0.0000000), wk =   0.1111111
        k(   13) = (   0.0586129   0.1015205   0.0000000), wk =   0.1111111
        k(   14) = (   0.0586129  -0.0676803   0.0000000), wk =   0.1111111
        k(   15) = (   0.0586129  -0.0338402   0.0000000), wk =   0.1111111
        k(   16) = (   0.0586129   0.0000000   0.0000000), wk =   0.1111111
        k(   17) = (  -0.0879193  -0.0507602   0.0000000), wk =   0.0555556
        k(   18) = (  -0.0879193  -0.0169201   0.0000000), wk =   0.1111111
        k(   19) = (  -0.0879193   0.0169201   0.0000000), wk =   0.1111111
        k(   20) = (  -0.0879193  -0.1522807   0.0000000), wk =   0.0555556

     Largest allocated arrays     est. size (Mb)     dimensions
     Largest temporary arrays     est. size (Mb)     dimensions

     Check: negative/imaginary core charge=   -0.000001    0.000000

     Initial potential from superposition of free atoms
     Check: negative starting charge=   -0.707529

     starting charge  176.99280, renormalised to  186.00000

     negative rho (up, down):  7.435E-01 0.000E+00

     *
     * You are using vdW-DF for exchange-correlation in this calculation.
     * Please cite the following three references that made this development
     * possible:
     *
     *   M. Dion, H. Rydberg, E. Schroder, D. C. Langreth, and
     *   B. I. Lundqvist, Phys. Rev. Lett. 92, 246401 (2004).
     *
     *   T. Thonhauser, V. R. Cooper, S. Li, A. Puzder, P. Hyldgaard, and
     *   D. C. Langreth, Phys. Rev. B 76, 125112 (2007).
     *
     *   G. Roman-Perez and J. M. Soler, Phys. Rev. Lett. 103, 096102 (2009).
     *
     *
     * If you are using vdW-DF2, please also cite:
     *
     *   K. Lee, E. D. Murray, L. Kong, B. I. Lundqvist, and
     *   D. C. Langreth, Phys. Rev. B 82, 081101(R) (2010).
     *
     *
     * If you are calculating the stress with vdW-DF, please also cite:
     *
     *   R. Sabatini, E. Kucukbenli, B. Kolb, T. Thonhauser, and
     *   S. de Gironcoli, J. Phys.: Condens. Matter 24, 424209 (2012).
     *

     Carrying out vdW-DF run using the following parameters:

     Nqs =      20    Nr_points =    1024   r_max =   100.000
     q_mesh =
               0.00001000     0.04494208     0.09755937     0.15916263
               0.23128650     0.31572767     0.41458969     0.53033537
               0.66584808     0.82450364     1.01025438     1.22772762
               1.48234092     1.78043706     2.12944203     2.53805004
               3.01644009     3.57652955     4.23227104     5.00000000

     Gradients computed in reciprocal space

     Adding external electric field

     Computed dipole along edir(3) :
        Dipole               -0.0000 Ry au,         -0.0000 Debye
        Dipole field         -0.0000 Ry au

        Potential amp.        0.0000 Ry
        Total length         45.4051 bohr

     Starting wfc are  144 randomized atomic wfcs

     Self-consistent Calculation

     iteration #  1     ecut=    36.75 Ry     beta=0.10
     Davidson diagonalization with overlap
     ethr =  1.00E-02,  avg # of iterations =  7.6

[...]

     total energy              =   -2254.79932024 Ry
     Harris-Foulkes estimate   =   -2256.06352188 Ry
     estimated scf accuracy    <       8.14642697 Ry

[...]

     End of self-consistent calculation

          k = 0.0000 0.0000 0.0000 ( 17603 PWs)   bands (ev):

   -70.4988 -70.4559 -70.4559 -70.2615 -70.2598 -70.2199 -70.2198 -70.2195
   -70.2194 -40.6788 -40.5979 -40.5979 -40.5450 -40.4961 -40.4959 -40.4958
   -40.4518 -40.3925 -40.3237 -40.3237 -40.2763 -40.2763 -40.2433 -40.2432
   -40.1957 -40.1570 -40.1569 -40.1363 -40.1272 -40.1272 -40.1110 -40.1028
   -40.0762 -40.0762 -40.0715 -40.0714 -15.1367 -15.1367 -15.1280 -15.0912
   -15.0912 -14.7871 -14.7748 -14.7748 -14.7690 -14.7686 -14.7686 -14.7258
   -14.7258 -14.7148 -14.7148  -8.4033  -7.1385  -7.0357  -2.5520  -2.3331
    -2.0491  -1.4966  -1.4966  -1.3588  -1.2238  -1.2238  -1.1771  -1.1771
    -1.0893  -1.0676  -1.0676  -0.5067  -0.5067  -0.1386   0.0488   0.0488
     0.0844   0.5153   0.5823   0.5823   0.7233   0.7233   0.8670   1.2843
     1.4787   1.5439   1.5439   1.5584   1.5584   1.8012   1.8012   1.8289
     1.9425   1.9425   2.2026   2.2027   2.3085   2.3086   2.4821   2.4821
     2.9701   3.0152   3.0603   3.0603   3.2714   3.5110   3.7327   3.7480
     3.7911   3.8660   3.8660   4.1866   4.1866   4.3280   4.8927   6.0077
     6.4737   6.4756   7.0218   7.8478   8.6169   8.6169   8.6321   8.6321
     8.7101   9.3109   9.3109

[...]

          k =-0.0879-0.0508 0.0000 ( 17484 PWs)   bands (ev):

[...]

     the Fermi energy is     2.1359 ev

!    total energy              =   -2253.62198427 Ry
     Harris-Foulkes estimate   =   -2253.62203269 Ry
     estimated scf accuracy    <       0.00000024 Ry

     The total energy is the sum of the following terms:

     one-electron contribution =  -18314.08948052 Ry
     hartree contribution      =    9177.38116097 Ry
     xc contribution           =    -437.92352044 Ry
     ewald contribution        =    7321.12518215 Ry
     electric field correction =       0.00000001 Ry
     smearing contrib. (-TS)   =      -0.11532644 Ry

     convergence has been achieved in  20 iterations

 BEEF-vdW xc energy contributions
           1 :   -384.452091288754
           2 :    354.948336917612
           3 :   -303.453352975974
           4 :    242.063946148863
           5 :   -183.209303184451
           6 :    135.863398282424
           7 :   -103.502204232460
           8 :    84.2994823686323
           9 :   -73.1557302281633
          10 :    64.4911940355768
[...]
     Pseudo is Ultrasoft + core correction, Zval = 16.0
     Generated by new atomic code, or converted to UPF format
     Using radial grid of  967 points,  6 beta functions with:
                l(1) =   0
                l(2) =   0
                l(3) =   1
                l(4) =   1
                l(5) =   2
                l(6) =   2
     Q(r) pseudized with  8 coefficients,  rinner =    1.300   1.300   1.300
                                                       1.300   1.300

     PseudoPot. # 2 for Pb read from file:
     /afs/slac.stanford.edu/u/if/mamunm/psp/gbrv1.5pbe/Pb.UPF
     MD5 check sum: 3d1c1779aa92214d1e8f3a7db79003e2
     Pseudo is Ultrasoft + core correction, Zval = 14.0
     Generated by new atomic code, or converted to UPF format
     Using radial grid of  899 points,  6 beta functions with:
                l(1) =   0
                l(2) =   0
                l(3) =   1
                l(4) =   1
                l(5) =   2
                l(6) =   2
     Q(r) pseudized with  6 coefficients,  rinner =    1.000   1.000   1.000
                                                       1.000   1.000

     vdW kernel table read from file vdW_kernel_table
     MD5 check sum: 095c7af220d748ca6e76c0b4c6cfb241

     atomic species   valence    mass     pseudopotential
        Ru1           16.00   101.07000     Ru( 1.00)
        Pb1           14.00   207.20000     Pb( 1.00)

     No symmetry found

   Cartesian axes

     site n.     atom                  positions (alat units)
         1           Ru1 tau(   1) = (   0.0000000   0.0000000  10.0000000  )
         2           Ru1 tau(   2) = (  -1.4217581   2.4625573  10.0000000  )
         3           Ru1 tau(   3) = (   1.4217581   2.4625573  10.0000000  )
         4           Pb1 tau(   4) = (   2.8435163   0.0000000  10.0000000  )
         5           Ru1 tau(   5) = (   2.8435163   1.6417049  12.3217213  )
         6           Ru1 tau(   6) = (   1.4217581   4.1042622  12.3217213  )
         7           Ru1 tau(   7) = (  -1.4217581   4.1042622  12.3217213  )
         8           Pb1 tau(   8) = (   0.0000000   1.6417049  12.3217213  )
         9           Ru1 tau(   9) = (   0.0000216   3.3922584  14.4574344  )
        10           Ru1 tau(  10) = (   1.5160021   0.7664127  14.4574195  )
        11           Ru1 tau(  11) = (   4.1710202   0.7663815  14.4574322  )
        12           Pb1 tau(  12) = (   2.8435350   3.2833924  15.0170484  )

     number of k points=    20  Fermi-Dirac smearing, width (Ry)=  0.0110
                       cart. coord. in units 2pi/alat
        k(    1) = (   0.0000000   0.0000000   0.0000000), wk =   0.0555556
        k(    2) = (   0.0000000   0.0338402   0.0000000), wk =   0.1111111
        k(    3) = (   0.0000000   0.0676803   0.0000000), wk =   0.1111111
        k(    4) = (   0.0000000  -0.1015205   0.0000000), wk =   0.0555556
        k(    5) = (   0.0293064   0.0169201   0.0000000), wk =   0.1111111
        k(    6) = (   0.0293064   0.0507602   0.0000000), wk =   0.1111111
        k(    7) = (   0.0293064   0.0846004   0.0000000), wk =   0.1111111
        k(    8) = (   0.0293064  -0.0846004   0.0000000), wk =   0.1111111
        k(    9) = (   0.0293064  -0.0507602   0.0000000), wk =   0.1111111
        k(   10) = (   0.0293064  -0.0169201   0.0000000), wk =   0.1111111
        k(   11) = (   0.0586129   0.0338402   0.0000000), wk =   0.1111111
        k(   12) = (   0.0586129   0.0676803   0.0000000), wk =   0.1111111
        k(   13) = (   0.0586129   0.1015205   0.0000000), wk =   0.1111111
        k(   14) = (   0.0586129  -0.0676803   0.0000000), wk =   0.1111111
        k(   15) = (   0.0586129  -0.0338402   0.0000000), wk =   0.1111111
        k(   16) = (   0.0586129   0.0000000   0.0000000), wk =   0.1111111
        k(   17) = (  -0.0879193  -0.0507602   0.0000000), wk =   0.0555556
        k(   18) = (  -0.0879193  -0.0169201   0.0000000), wk =   0.1111111
        k(   19) = (  -0.0879193   0.0169201   0.0000000), wk =   0.1111111
        k(   20) = (  -0.0879193  -0.1522807   0.0000000), wk =   0.0555556

     Largest allocated arrays     est. size (Mb)     dimensions
     Largest temporary arrays     est. size (Mb)     dimensions

     Check: negative/imaginary core charge=   -0.000001    0.000000

     Initial potential from superposition of free atoms
     Check: negative starting charge=   -0.703757

     starting charge  176.99280, renormalised to  186.00000

[...]

     *
     * You are using vdW-DF for exchange-correlation in this calculation.
     * Please cite the following three references that made this development
     * possible:
     *
     *   M. Dion, H. Rydberg, E. Schroder, D. C. Langreth, and
     *   B. I. Lundqvist, Phys. Rev. Lett. 92, 246401 (2004).
     *
     *   T. Thonhauser, V. R. Cooper, S. Li, A. Puzder, P. Hyldgaard, and
     *   D. C. Langreth, Phys. Rev. B 76, 125112 (2007).
     *
     *   G. Roman-Perez and J. M. Soler, Phys. Rev. Lett. 103, 096102 (2009).
     *
     *
     * If you are using vdW-DF2, please also cite:
     *
     *   K. Lee, E. D. Murray, L. Kong, B. I. Lundqvist, and
     *   D. C. Langreth, Phys. Rev. B 82, 081101(R) (2010).
     *
     *
     * If you are calculating the stress with vdW-DF, please also cite:
     *
     *   R. Sabatini, E. Kucukbenli, B. Kolb, T. Thonhauser, and
     *   S. de Gironcoli, J. Phys.: Condens. Matter 24, 424209 (2012).
     *

     Carrying out vdW-DF run using the following parameters:

     Nqs =      20    Nr_points =    1024   r_max =   100.000
     q_mesh =
               0.00001000     0.04494208     0.09755937     0.15916263
               0.23128650     0.31572767     0.41458969     0.53033537
               0.66584808     0.82450364     1.01025438     1.22772762
               1.48234092     1.78043706     2.12944203     2.53805004
               3.01644009     3.57652955     4.23227104     5.00000000

     Gradients computed in reciprocal space

[...]

     Starting wfc are  144 randomized atomic wfcs

     Self-consistent Calculation

[...]

     total energy              =   -2253.67131932 Ry
     Harris-Foulkes estimate   =   -2253.67132543 Ry
     estimated scf accuracy    <       0.00000112 Ry

     iteration # 21     ecut=    36.75 Ry     beta=0.10
     Davidson diagonalization with overlap
     ethr =  6.02E-10,  avg # of iterations =  4.5

[...]

     negative rho (up, down):  7.295E-01 0.000E+00

     Adding external electric field

     Computed dipole along edir(3) :
        Dipole                0.1193 Ry au,          0.3032 Debye
        Dipole field          0.0003 Ry au

        Potential amp.       -0.0292 Ry
        Total length         45.4051 bohr

     End of self-consistent calculation

[...]

          k = 0.0586 0.0000 0.0000 ( 17551 PWs)   bands (ev):

[...]

          k =-0.0879-0.1523 0.0000 ( 17484 PWs)   bands (ev):

   -70.4389 -70.4234 -70.4079 -70.2443 -70.2063 -70.1984 -70.0733 -70.0591
   -70.0457 -40.6577 -40.5906 -40.5361 -40.5208 -40.4637 -40.4151 -40.4140
   -40.3914 -40.3241 -40.2589 -40.2228 -40.2090 -40.1989 -40.1393 -40.1283
   -40.1142 -40.1010 -40.0983 -40.0887 -40.0540 -40.0454 -40.0342 -40.0206
   -39.9714 -39.9539 -39.9538 -39.9185 -15.0169 -14.9963 -14.9821 -14.9611
   -14.9604 -14.7086 -14.6710 -14.6655 -14.6483 -14.6410 -14.6356 -14.6097
   -14.6034 -14.5881 -14.5835  -7.4738  -6.7090  -6.3547  -3.1287  -2.4827
    -2.2821  -2.0629  -1.8984  -1.3110  -1.2200  -1.1881  -1.1073  -0.9727
    -0.9241  -0.8595  -0.6529  -0.4749  -0.4724  -0.4186  -0.3369  -0.1565
     0.0007   0.2826   0.3203   0.4249   0.5012   0.6706   0.7914   0.8159
     0.8313   0.9006   1.0618   1.1038   1.4189   1.5667   1.5697   1.6476
     1.7126   1.8203   1.9182   1.9880   2.0871   2.1179   2.1224   2.2018
     2.4927   2.6311   2.8572   3.1247   3.2236   3.4201   3.6936   4.1311
     4.4653   4.7617   4.8357   5.4408   5.5325   5.8918   6.9374   7.1150
     7.5590   7.7976   7.9736   8.0849   8.2493   8.2963   8.6303   8.8341
     8.9718   9.2987   9.4074

     the Fermi energy is     2.2791 ev

!    total energy              =   -2253.67127496 Ry
     Harris-Foulkes estimate   =   -2253.67132054 Ry
     estimated scf accuracy    <       0.00000072 Ry

     The total energy is the sum of the following terms:

     one-electron contribution =  -18456.57982126 Ry
     hartree contribution      =    9249.12205752 Ry
     xc contribution           =    -438.01258893 Ry
     ewald contribution        =    7391.91120202 Ry
     electric field correction =       0.00003838 Ry
     smearing contrib. (-TS)   =      -0.11216269 Ry

     convergence has been achieved in  21 iterations

 BEEF-vdW xc energy contributions
           1 :   -384.728684485707
           2 :    355.269054073855
           3 :   -303.828721456401
           4 :    242.454238856335
           5 :   -183.538074169830
           6 :    136.055452930598
           7 :   -103.523352518753
           8 :    84.1771424327429
           9 :   -72.9720028289571
          10 :    64.3523841507625
          11 :   -54.5734357850391
          12 :    42.7237269666211
          13 :   -30.2900899659800
          14 :    19.7554167554026
          15 :   -13.0470323116900
          16 :    10.5622411109110
          17 :   -11.1086275368591
          18 :    12.6270826371648
          19 :   -13.2340722943089
          20 :    12.0391561376816
          21 :   -9.37369513556132
          22 :    6.39665297010129
          23 :   -4.35346946084712
          24 :    3.89853897417993
          25 :   -4.80932663720000
          26 :    6.18705637091392
          27 :   -6.98708839441042
          28 :    6.57245756885726
          29 :   -5.00360616703449
          30 :    2.93972399672248
          31 :   -35.6857257698023
          32 :   -26.7477974896637

     Forces acting on atoms (Ry/au):

     negative rho (up, down):  7.295E-01 0.000E+00
     atom    1 type  1   force =    -0.00000468   -0.01904713    0.02530585
     atom    2 type  1   force =    -0.01649269    0.00951872    0.02530850
     atom    3 type  1   force =     0.01651315    0.00953710    0.02531381
     atom    4 type  2   force =    -0.00002187    0.00000313   -0.05776475
     atom    5 type  1   force =    -0.00001763    0.02363468    0.00235009
     atom    6 type  1   force =     0.02046570   -0.01183340    0.00233489
     atom    7 type  1   force =    -0.02044910   -0.01180342    0.00237237
     atom    8 type  2   force =    -0.00006695   -0.00001565   -0.02892299
     atom    9 type  1   force =     0.00002342   -0.00024175    0.00107734
     atom   10 type  1   force =    -0.00019535    0.00013476    0.00108120
     atom   11 type  1   force =     0.00021059    0.00011657    0.00106357
     atom   12 type  2   force =     0.00003541   -0.00000360    0.00048012

     Total force =     0.094231     Total SCF correction =     0.003923

     entering subroutine stress ...

     negative rho (up, down):  7.295E-01 0.000E+00
          total   stress  (Ry/bohr**3)                   (kbar)     P=  -14.11
  -0.00013608   0.00000002   0.00000002        -20.02      0.00      0.00
   0.00000002  -0.00013608   0.00000000          0.00    -20.02      0.00
   0.00000002   0.00000000  -0.00001561          0.00      0.00     -2.30

 !ASE

     Writing output data file calc.save

     General routines

     Parallel routines

   This run was terminated on:   5:17:14   1Jan2019

   JOB DONE.
Job  /afs/slac/g/suncat/bin/suncat-tsmpirun -x LD_LIBRARY_PATH -wdir /scratch/qe648939_ztcsr pw.x -in pw.inp

TID   HOST_NAME   COMMAND_LINE            STATUS            TERMINATION_TIME
00000 suncat0041 pw.x -in pw.inp   Done                     01/01/2019 05:17:14
00001 suncat0041 pw.x -in pw.inp   Done                     01/01/2019 05:17:14
00002 suncat0041 pw.x -in pw.inp   Done                     01/01/2019 05:17:14
00003 suncat0041 pw.x -in pw.inp   Done                     01/01/2019 05:17:14
00004 suncat0041 pw.x -in pw.inp   Done                     01/01/2019 05:17:14
00005 suncat0041 pw.x -in pw.inp   Done                     01/01/2019 05:17:14
00006 suncat0041 pw.x -in pw.inp   Done                     01/01/2019 05:17:14
00007 suncat0041 pw.x -in pw.inp   Done                     01/01/2019 05:17:14
00008 suncat0039 pw.x -in pw.inp   Done                     01/01/2019 05:17:14
00009 suncat0039 pw.x -in pw.inp   Done                     01/01/2019 05:17:14
00010 suncat0039 pw.x -in pw.inp   Done                     01/01/2019 05:17:14
00011 suncat0039 pw.x -in pw.inp   Done                     01/01/2019 05:17:14
00012 suncat0039 pw.x -in pw.inp   Done                     01/01/2019 05:17:14
00013 suncat0039 pw.x -in pw.inp   Done                     01/01/2019 05:17:14
00014 suncat0039 pw.x -in pw.inp   Done                     01/01/2019 05:17:14
00015 suncat0039 pw.x -in pw.inp   Done                     01/01/2019 05:17:14
00016 suncat0139 pw.x -in pw.inp   Done                     01/01/2019 05:17:14
00017 suncat0139 pw.x -in pw.inp   Done                     01/01/2019 05:17:14
00018 suncat0139 pw.x -in pw.inp   Done                     01/01/2019 05:17:14
00019 suncat0139 pw.x -in pw.inp   Done                     01/01/2019 05:17:14
00020 suncat0139 pw.x -in pw.inp   Done                     01/01/2019 05:17:14
00021 suncat0139 pw.x -in pw.inp   Done                     01/01/2019 05:17:14
00022 suncat0139 pw.x -in pw.inp   Done                     01/01/2019 05:17:14
00023 suncat0139 pw.x -in pw.inp   Done                     01/01/2019 05:17:14
00024 suncat0133 pw.x -in pw.inp   Done                     01/01/2019 05:17:14
00025 suncat0133 pw.x -in pw.inp   Done                     01/01/2019 05:17:14
00026 suncat0133 pw.x -in pw.inp   Done                     01/01/2019 05:17:14
00027 suncat0133 pw.x -in pw.inp   Done                     01/01/2019 05:17:14
00028 suncat0133 pw.x -in pw.inp   Done                     01/01/2019 05:17:14
00029 suncat0133 pw.x -in pw.inp   Done                     01/01/2019 05:17:14
00030 suncat0133 pw.x -in pw.inp   Done                     01/01/2019 05:17:14
00031 suncat0133 pw.x -in pw.inp   Done                     01/01/2019 05:17:14
00032 suncat0123 pw.x -in pw.inp   Done                     01/01/2019 05:17:14
00033 suncat0123 pw.x -in pw.inp   Done                     01/01/2019 05:17:14
00034 suncat0123 pw.x -in pw.inp   Done                     01/01/2019 05:17:14
00035 suncat0123 pw.x -in pw.inp   Done                     01/01/2019 05:17:14
00036 suncat0123 pw.x -in pw.inp   Done                     01/01/2019 05:17:14
00037 suncat0123 pw.x -in pw.inp   Done                     01/01/2019 05:17:14
00038 suncat0123 pw.x -in pw.inp   Done                     01/01/2019 05:17:14
00039 suncat0123 pw.x -in pw.inp   Done                     01/01/2019 05:17:14
00040 suncat0122 pw.x -in pw.inp   Done                     01/01/2019 05:17:14
00041 suncat0122 pw.x -in pw.inp   Done                     01/01/2019 05:17:14
00042 suncat0122 pw.x -in pw.inp   Done                     01/01/2019 05:17:14
00043 suncat0122 pw.x -in pw.inp   Done                     01/01/2019 05:17:14
00044 suncat0122 pw.x -in pw.inp   Done                     01/01/2019 05:17:14
00045 suncat0122 pw.x -in pw.inp   Done                     01/01/2019 05:17:14
00046 suncat0122 pw.x -in pw.inp   Done                     01/01/2019 05:17:14
00047 suncat0122 pw.x -in pw.inp   Done                     01/01/2019 05:17:14
00048 suncat0207 pw.x -in pw.inp   Done                     01/01/2019 05:17:14
00049 suncat0207 pw.x -in pw.inp   Done                     01/01/2019 05:17:14
00050 suncat0207 pw.x -in pw.inp   Done                     01/01/2019 05:17:14
00051 suncat0207 pw.x -in pw.inp   Done                     01/01/2019 05:17:14
00052 suncat0207 pw.x -in pw.inp   Done                     01/01/2019 05:17:14
00053 suncat0207 pw.x -in pw.inp   Done                     01/01/2019 05:17:14
00054 suncat0207 pw.x -in pw.inp   Done                     01/01/2019 05:17:14
00055 suncat0207 pw.x -in pw.inp   Done                     01/01/2019 05:17:14
00056 suncat0206 pw.x -in pw.inp   Done                     01/01/2019 05:17:14
00057 suncat0206 pw.x -in pw.inp   Done                     01/01/2019 05:17:14
00058 suncat0206 pw.x -in pw.inp   Done                     01/01/2019 05:17:14
00059 suncat0206 pw.x -in pw.inp   Done                     01/01/2019 05:17:14
00060 suncat0206 pw.x -in pw.inp   Done                     01/01/2019 05:17:14
00061 suncat0206 pw.x -in pw.inp   Done                     01/01/2019 05:17:14
00062 suncat0206 pw.x -in pw.inp   Done                     01/01/2019 05:17:14
00063 suncat0206 pw.x -in pw.inp   Done                     01/01/2019 05:17:14