     Program PWSCF v.5.1rc2 (svn rev. 11289) starts on 19Dec2018 at  9:28:53

     Current dimensions of program PWSCF are:
     Max number of different atomic species (ntypx) = 10
     Max number of k-points (npk) =  40000
     Max angular momentum in pseudopotentials (lmaxx) =  3
     Presently stress not available with electric field

     IMPORTANT: XC functional enforced from input :
     Exchange-correlation      = BEEF-VDW ( 1  4 27 13 2)
     Any further DFT definition will be discarded
     Please, verify this is what you really want

     Subspace diagonalization in iterative solution of the eigenvalue problem:
     a serial algorithm will be used

     Found symmetry operation: I + ( -0.5000  0.0000  0.0000)
     This is a supercell, fractional translations are disabled

     bravais-lattice index     =            0
     lattice parameter (alat)  =       1.8897  a.u.
     unit-cell volume          =    4220.4504 (a.u.)^3
     number of atoms/cell      =           12
     number of atomic types    =            2
     number of electrons       =       198.00
     number of Kohn-Sham states=          129
     kinetic-energy cutoff     =      36.7493  Ry
     charge density cutoff     =     367.4932  Ry
     convergence threshold     =      1.0E-06
     mixing beta               =       0.1000
     number of iterations used =           10  plain     mixing
     Exchange-correlation      = BEEF-VDW ( 1  4 27 13 2)
     nstep                     =           50

     celldm(1)=   1.889726  celldm(2)=   0.000000  celldm(3)=   0.000000
     celldm(4)=   0.000000  celldm(5)=   0.000000  celldm(6)=   0.000000

     crystal axes: (cart. coord. in units of alat)
               a(1) = (   5.312732   0.000000   0.000000 )
               a(2) = (  -2.656366   4.818134   0.000000 )
               a(3) = (   0.000000   0.000000  24.432356 )

     reciprocal axes: (cart. coord. in units 2 pi/alat)
               b(1) = (  0.188227  0.103775  0.000000 )
               b(2) = (  0.000000  0.207549  0.000000 )
               b(3) = (  0.000000  0.000000  0.040929 )

     PseudoPot. # 1 for Cu read from file:
     /afs/slac.stanford.edu/u/if/mamunm/psp/gbrv1.5pbe/Cu.UPF
     MD5 check sum: 6e991ff952a84172a2a52a1c1e996048
     Pseudo is Ultrasoft + core correction, Zval = 19.0
     Generated by new atomic code, or converted to UPF format
     Using radial grid of  867 points,  6 beta functions with:
                l(1) =   0
                l(2) =   0
                l(3) =   1
                l(4) =   1
                l(5) =   2
                l(6) =   2
     Q(r) pseudized with  8 coefficients,  rinner =    1.150   1.150   1.150
                                                       1.150   1.150

     PseudoPot. # 2 for W  read from file:
     /afs/slac.stanford.edu/u/if/mamunm/psp/gbrv1.5pbe/W.UPF
     MD5 check sum: 9c083fa34c2a2ea0f02f1f893e16e1c8
     Pseudo is Ultrasoft + core correction, Zval = 14.0
     Generated by new atomic code, or converted to UPF format
     Using radial grid of  923 points,  8 beta functions with:
                l(1) =   0
                l(2) =   0
                l(3) =   0
                l(4) =   1
                l(5) =   1
                l(6) =   2
                l(7) =   2
                l(8) =   3
     Q(r) pseudized with  6 coefficients,  rinner =    1.350   1.350   1.350
                                                       1.350   1.350   1.350
                                                       1.350

     vdW kernel table read from file vdW_kernel_table
     MD5 check sum: 095c7af220d748ca6e76c0b4c6cfb241

     atomic species   valence    mass     pseudopotential
        Cu1           19.00    63.54600     Cu( 1.00)
        W1            14.00   183.84000     W ( 1.00)

     No symmetry found

   Cartesian axes

     site n.     atom                  positions (alat units)
         1           Cu1 tau(   1) = (   0.0000000   0.0000000  10.0000000  )
         2           Cu1 tau(   2) = (   2.6563662   0.0000000  10.0000000  )
         3           W1  tau(   3) = (   1.3281831   2.4090672  10.0000000  )
         4           W1  tau(   4) = (  -1.3281831   2.4090672  10.0000000  )
         5           Cu1 tau(   5) = (   2.6563662   1.4645256  12.2161782  )
         6           Cu1 tau(   6) = (  -0.0000000   1.4645256  12.2161782  )
         7           W1  tau(   7) = (  -1.3281831   3.8735928  12.2161782  )
         8           W1  tau(   8) = (   1.3281831   3.8735928  12.2161782  )
         9           Cu1 tau(   9) = (   0.0000000   2.9290512  14.4323565  )
        10           Cu1 tau(  10) = (   2.6563662   2.9290512  14.4323565  )
        11           W1  tau(  11) = (   3.9845492   0.5199840  14.4323565  )
        12           W1  tau(  12) = (   1.3281831   0.5199840  14.4323565  )

     number of k points=    20  Fermi-Dirac smearing, width (Ry)=  0.0110
                       cart. coord. in units 2pi/alat
        k(    1) = (   0.0000000   0.0000000   0.0000000), wk =   0.0555556
        k(    2) = (   0.0000000   0.0345915   0.0000000), wk =   0.1111111
        k(    3) = (   0.0000000   0.0691831   0.0000000), wk =   0.1111111
        k(    4) = (   0.0000000  -0.1037746   0.0000000), wk =   0.0555556
        k(    5) = (   0.0313712   0.0172958   0.0000000), wk =   0.1111111
        k(    6) = (   0.0313712   0.0518873   0.0000000), wk =   0.1111111
        k(    7) = (   0.0313712   0.0864788   0.0000000), wk =   0.1111111
        k(    8) = (   0.0313712  -0.0864788   0.0000000), wk =   0.1111111
        k(    9) = (   0.0313712  -0.0518873   0.0000000), wk =   0.1111111
        k(   10) = (   0.0313712  -0.0172958   0.0000000), wk =   0.1111111
        k(   11) = (   0.0627424   0.0345915   0.0000000), wk =   0.1111111
        k(   12) = (   0.0627424   0.0691831   0.0000000), wk =   0.1111111
        k(   13) = (   0.0627424   0.1037746   0.0000000), wk =   0.1111111
        k(   14) = (   0.0627424  -0.0691831   0.0000000), wk =   0.1111111
        k(   15) = (   0.0627424  -0.0345915   0.0000000), wk =   0.1111111
        k(   16) = (   0.0627424   0.0000000   0.0000000), wk =   0.1111111
        k(   17) = (  -0.0941135  -0.0518873   0.0000000), wk =   0.0555556
        k(   18) = (  -0.0941135  -0.0172958   0.0000000), wk =   0.1111111
        k(   19) = (  -0.0941135   0.0172958   0.0000000), wk =   0.1111111
        k(   20) = (  -0.0941135  -0.1556619   0.0000000), wk =   0.0555556

     Largest allocated arrays     est. size (Mb)     dimensions
     Largest temporary arrays     est. size (Mb)     dimensions

     Initial potential from superposition of free atoms
     Check: negative starting charge=   -0.379591

     starting charge  191.39795, renormalised to  198.00000

     negative rho (up, down):  3.927E-01 0.000E+00

     *
     * You are using vdW-DF for exchange-correlation in this calculation.
     * Please cite the following three references that made this development
     * possible:
     *
     *   M. Dion, H. Rydberg, E. Schroder, D. C. Langreth, and
     *   B. I. Lundqvist, Phys. Rev. Lett. 92, 246401 (2004).
     *
     *   T. Thonhauser, V. R. Cooper, S. Li, A. Puzder, P. Hyldgaard, and
     *   D. C. Langreth, Phys. Rev. B 76, 125112 (2007).
     *
     *   G. Roman-Perez and J. M. Soler, Phys. Rev. Lett. 103, 096102 (2009).
     *
     *
     * If you are using vdW-DF2, please also cite:
     *
     *   K. Lee, E. D. Murray, L. Kong, B. I. Lundqvist, and
     *   D. C. Langreth, Phys. Rev. B 82, 081101(R) (2010).
     *
     *
     * If you are calculating the stress with vdW-DF, please also cite:
     *
     *   R. Sabatini, E. Kucukbenli, B. Kolb, T. Thonhauser, and
     *   S. de Gironcoli, J. Phys.: Condens. Matter 24, 424209 (2012).
     *

     Carrying out vdW-DF run using the following parameters:

     Nqs =      20    Nr_points =    1024   r_max =   100.000
     q_mesh =
               0.00001000     0.04494208     0.09755937     0.15916263
               0.23128650     0.31572767     0.41458969     0.53033537
               0.66584808     0.82450364     1.01025438     1.22772762
               1.48234092     1.78043706     2.12944203     2.53805004
               3.01644009     3.57652955     4.23227104     5.00000000

     Gradients computed in reciprocal space

     Adding external electric field

     Computed dipole along edir(3) :
        Dipole               -0.0000 Ry au,         -0.0000 Debye
        Dipole field         -0.0000 Ry au

        Potential amp.        0.0000 Ry
        Total length         45.0162 bohr

     Starting wfc are  156 randomized atomic wfcs

     Self-consistent Calculation

     iteration #  1     ecut=    36.75 Ry     beta=0.10
     Davidson diagonalization with overlap
     ethr =  1.00E-02,  avg # of iterations =  7.2

[...]

     total energy              =   -3392.40802156 Ry
     Harris-Foulkes estimate   =   -3393.42269532 Ry
     estimated scf accuracy    <       6.20823656 Ry

[...]

     iteration #  8     ecut=    36.75 Ry     beta=0.10
     Davidson diagonalization with overlap
     c_bands:  1 eigenvalues not converged
     ethr =  3.98E-06,  avg # of iterations =  5.7

[...]

     End of self-consistent calculation

          k = 0.0000 0.0000 0.0000 ( 15797 PWs)   bands (ev):

  -111.7502-111.7477-111.3981-111.3981-111.3956-111.3955 -73.0189 -72.9480
   -72.9355 -72.9353 -72.8662 -72.8541 -69.1682 -69.1652 -69.1468 -69.1120
   -69.0772 -69.0743 -68.8322 -68.8321 -68.8292 -68.8290 -68.7903 -68.7902
   -68.7555 -68.7554 -68.7195 -68.7193 -68.7167 -68.7163 -37.6543 -37.4971
   -37.4392 -37.4254 -37.3553 -37.2006 -37.1522 -37.0844 -37.0773 -37.0538
   -37.0277 -36.9559 -36.9300 -36.6922 -36.5841 -36.5351 -36.3412 -36.3342
    -7.0278  -5.1095  -4.1647  -4.0677  -3.8426  -3.6665  -3.4532  -3.3604
    -3.0906  -3.0347  -2.9798  -2.8849  -2.8450  -2.8350  -2.6526  -2.0053
    -1.9976  -1.9884  -1.9826  -1.8738  -1.6441  -1.6227  -1.6176  -1.5710
    -1.4927  -1.4478  -1.2838  -1.2414  -1.2253  -1.2026  -1.0080  -0.9785
    -0.9608  -0.9117  -0.7248  -0.6079  -0.4449  -0.2875  -0.2158  -0.1605
    -0.1293  -0.1083   0.1509   0.2667   0.7646   0.9452   1.1727   1.1830
     1.2796   1.7324   2.0978   2.1765   2.2920   2.4866   2.6216   3.0171
     3.0207   3.0888   3.2975   3.3730   3.8840   3.9388   4.3177   4.3313
     4.4734   4.6521   4.6605   4.7151   4.8393   5.0162   5.6418   5.7291
     5.8207   5.9542   6.5747   7.0111   7.4516   7.7410   7.7990   7.8267
     7.9064

[...]

          k =-0.0941-0.0519 0.0000 ( 15842 PWs)   bands (ev):

[...]

     the Fermi energy is     1.5003 ev

!    total energy              =   -3391.76561155 Ry
     Harris-Foulkes estimate   =   -3391.76559896 Ry
     estimated scf accuracy    <       0.00000040 Ry

     The total energy is the sum of the following terms:

     one-electron contribution =  -24512.97470490 Ry
     hartree contribution      =   12253.80981572 Ry
     xc contribution           =    -494.86565465 Ry
     ewald contribution        =    9362.32992046 Ry
     electric field correction =       0.00000000 Ry
     smearing contrib. (-TS)   =      -0.06498818 Ry

[...]

     Current dimensions of program PWSCF are:
     Max number of different atomic species (ntypx) = 10
     Max number of k-points (npk) =  40000
     Max angular momentum in pseudopotentials (lmaxx) =  3
     Presently stress not available with electric field

     IMPORTANT: XC functional enforced from input :
     Exchange-correlation      = BEEF-VDW ( 1  4 27 13 2)
     Any further DFT definition will be discarded
     Please, verify this is what you really want

     Subspace diagonalization in iterative solution of the eigenvalue problem:
     a serial algorithm will be used

     Found symmetry operation: I + ( -0.5000  0.0000  0.0000)
     This is a supercell, fractional translations are disabled

     bravais-lattice index     =            0
     lattice parameter (alat)  =       1.8897  a.u.
     unit-cell volume          =    4220.4504 (a.u.)^3
     number of atoms/cell      =           12
     number of atomic types    =            2
     number of electrons       =       198.00
     number of Kohn-Sham states=          129
     kinetic-energy cutoff     =      36.7493  Ry
     charge density cutoff     =     367.4932  Ry
     convergence threshold     =      1.0E-06
     mixing beta               =       0.1000
     number of iterations used =           10  plain     mixing
     Exchange-correlation      = BEEF-VDW ( 1  4 27 13 2)
     nstep                     =           50

     celldm(1)=   1.889726  celldm(2)=   0.000000  celldm(3)=   0.000000
     celldm(4)=   0.000000  celldm(5)=   0.000000  celldm(6)=   0.000000

     crystal axes: (cart. coord. in units of alat)
               a(1) = (   5.312732   0.000000   0.000000 )
               a(2) = (  -2.656366   4.818134   0.000000 )
               a(3) = (   0.000000   0.000000  24.432356 )

     reciprocal axes: (cart. coord. in units 2 pi/alat)
               b(1) = (  0.188227  0.103775  0.000000 )
               b(2) = (  0.000000  0.207549  0.000000 )
               b(3) = (  0.000000  0.000000  0.040929 )

     PseudoPot. # 1 for Cu read from file:
     /afs/slac.stanford.edu/u/if/mamunm/psp/gbrv1.5pbe/Cu.UPF
     MD5 check sum: 6e991ff952a84172a2a52a1c1e996048
     Pseudo is Ultrasoft + core correction, Zval = 19.0
     Generated by new atomic code, or converted to UPF format
     Using radial grid of  867 points,  6 beta functions with:
                l(1) =   0
                l(2) =   0
                l(3) =   1
                l(4) =   1
                l(5) =   2
                l(6) =   2
     Q(r) pseudized with  8 coefficients,  rinner =    1.150   1.150   1.150
                                                       1.150   1.150

     PseudoPot. # 2 for W  read from file:
     /afs/slac.stanford.edu/u/if/mamunm/psp/gbrv1.5pbe/W.UPF
     MD5 check sum: 9c083fa34c2a2ea0f02f1f893e16e1c8
     Pseudo is Ultrasoft + core correction, Zval = 14.0
     Generated by new atomic code, or converted to UPF format
     Using radial grid of  923 points,  8 beta functions with:
                l(1) =   0
                l(2) =   0
                l(3) =   0
                l(4) =   1
                l(5) =   1
                l(6) =   2
                l(7) =   2
                l(8) =   3
     Q(r) pseudized with  6 coefficients,  rinner =    1.350   1.350   1.350
                                                       1.350   1.350   1.350
                                                       1.350

     vdW kernel table read from file vdW_kernel_table
     MD5 check sum: 095c7af220d748ca6e76c0b4c6cfb241

     atomic species   valence    mass     pseudopotential
        Cu1           19.00    63.54600     Cu( 1.00)
        W1            14.00   183.84000     W ( 1.00)

     No symmetry found

   Cartesian axes

     site n.     atom                  positions (alat units)
         1           Cu1 tau(   1) = (   0.0000000   0.0000000  10.0000000  )
         2           Cu1 tau(   2) = (   2.6563662   0.0000000  10.0000000  )
         3           W1  tau(   3) = (   1.3281831   2.4090672  10.0000000  )
         4           W1  tau(   4) = (  -1.3281831   2.4090672  10.0000000  )
         5           Cu1 tau(   5) = (   2.6563662   1.4645256  12.2161782  )
         6           Cu1 tau(   6) = (  -0.0000000   1.4645256  12.2161782  )
         7           W1  tau(   7) = (  -1.3281831   3.8735928  12.2161782  )
         8           W1  tau(   8) = (   1.3281831   3.8735928  12.2161782  )
         9           Cu1 tau(   9) = (  -0.0000020   2.9180078  14.4472329  )
        10           Cu1 tau(  10) = (   2.6563647   2.9180047  14.4472315  )
        11           W1  tau(  11) = (   3.9845511   0.5211297  14.3724458  )
        12           W1  tau(  12) = (   1.3281807   0.5211305  14.3724444  )

     number of k points=    20  Fermi-Dirac smearing, width (Ry)=  0.0110
                       cart. coord. in units 2pi/alat
        k(    1) = (   0.0000000   0.0000000   0.0000000), wk =   0.0555556
        k(    2) = (   0.0000000   0.0345915   0.0000000), wk =   0.1111111
        k(    3) = (   0.0000000   0.0691831   0.0000000), wk =   0.1111111
        k(    4) = (   0.0000000  -0.1037746   0.0000000), wk =   0.0555556
        k(    5) = (   0.0313712   0.0172958   0.0000000), wk =   0.1111111
        k(    6) = (   0.0313712   0.0518873   0.0000000), wk =   0.1111111
        k(    7) = (   0.0313712   0.0864788   0.0000000), wk =   0.1111111
        k(    8) = (   0.0313712  -0.0864788   0.0000000), wk =   0.1111111
        k(    9) = (   0.0313712  -0.0518873   0.0000000), wk =   0.1111111
        k(   10) = (   0.0313712  -0.0172958   0.0000000), wk =   0.1111111
        k(   11) = (   0.0627424   0.0345915   0.0000000), wk =   0.1111111
        k(   12) = (   0.0627424   0.0691831   0.0000000), wk =   0.1111111
        k(   13) = (   0.0627424   0.1037746   0.0000000), wk =   0.1111111
        k(   14) = (   0.0627424  -0.0691831   0.0000000), wk =   0.1111111
        k(   15) = (   0.0627424  -0.0345915   0.0000000), wk =   0.1111111
        k(   16) = (   0.0627424   0.0000000   0.0000000), wk =   0.1111111
        k(   17) = (  -0.0941135  -0.0518873   0.0000000), wk =   0.0555556
        k(   18) = (  -0.0941135  -0.0172958   0.0000000), wk =   0.1111111
        k(   19) = (  -0.0941135   0.0172958   0.0000000), wk =   0.1111111
        k(   20) = (  -0.0941135  -0.1556619   0.0000000), wk =   0.0555556

     Largest allocated arrays     est. size (Mb)     dimensions
     Largest temporary arrays     est. size (Mb)     dimensions

     Initial potential from superposition of free atoms
     Check: negative starting charge=   -0.381139

     starting charge  191.39795, renormalised to  198.00000

[...]

     *
     * You are using vdW-DF for exchange-correlation in this calculation.
     * Please cite the following three references that made this development
     * possible:
     *
     *   M. Dion, H. Rydberg, E. Schroder, D. C. Langreth, and
     *   B. I. Lundqvist, Phys. Rev. Lett. 92, 246401 (2004).
     *
     *   T. Thonhauser, V. R. Cooper, S. Li, A. Puzder, P. Hyldgaard, and
     *   D. C. Langreth, Phys. Rev. B 76, 125112 (2007).
     *
     *   G. Roman-Perez and J. M. Soler, Phys. Rev. Lett. 103, 096102 (2009).
     *
     *
     * If you are using vdW-DF2, please also cite:
     *
     *   K. Lee, E. D. Murray, L. Kong, B. I. Lundqvist, and
     *   D. C. Langreth, Phys. Rev. B 82, 081101(R) (2010).
     *
     *
     * If you are calculating the stress with vdW-DF, please also cite:
     *
     *   R. Sabatini, E. Kucukbenli, B. Kolb, T. Thonhauser, and
     *   S. de Gironcoli, J. Phys.: Condens. Matter 24, 424209 (2012).
     *

     Carrying out vdW-DF run using the following parameters:

     Nqs =      20    Nr_points =    1024   r_max =   100.000
     q_mesh =
               0.00001000     0.04494208     0.09755937     0.15916263
               0.23128650     0.31572767     0.41458969     0.53033537
               0.66584808     0.82450364     1.01025438     1.22772762
               1.48234092     1.78043706     2.12944203     2.53805004
               3.01644009     3.57652955     4.23227104     5.00000000

     Gradients computed in reciprocal space

[...]

     Starting wfc are  156 randomized atomic wfcs

     Self-consistent Calculation

[...]

     iteration #  9     ecut=    36.75 Ry     beta=0.10
     Davidson diagonalization with overlap
     c_bands:  1 eigenvalues not converged
     ethr =  2.72E-06,  avg # of iterations =  4.3

[...]

     total energy              =   -3391.76798320 Ry
     Harris-Foulkes estimate   =   -3391.76798102 Ry
     estimated scf accuracy    <       0.00000183 Ry

     iteration # 17     ecut=    36.75 Ry     beta=0.10
     Davidson diagonalization with overlap
     ethr =  9.27E-10,  avg # of iterations =  2.0

[...]

     negative rho (up, down):  3.949E-01 0.000E+00

     Adding external electric field

     Computed dipole along edir(3) :
        Dipole               -0.0017 Ry au,         -0.0042 Debye
        Dipole field         -0.0000 Ry au

        Potential amp.        0.0004 Ry
        Total length         45.0162 bohr

     End of self-consistent calculation

[...]

          k = 0.0627 0.0000 0.0000 ( 15850 PWs)   bands (ev):

[...]

          k =-0.0941-0.1557 0.0000 ( 15842 PWs)   bands (ev):

  -111.7942-111.7942-111.4055-111.4055-111.3753-111.3753 -72.9804 -72.9804
   -72.9132 -72.9132 -72.8715 -72.8715 -69.2115 -69.2115 -69.1751 -69.1751
   -69.1209 -69.1209 -68.8387 -68.8387 -68.8114 -68.8114 -68.7807 -68.7807
   -68.7578 -68.7578 -68.7278 -68.7278 -68.6901 -68.6901 -37.4690 -37.4690
   -37.1476 -37.1476 -37.1228 -37.1228 -37.0885 -37.0885 -37.0120 -37.0120
   -36.9897 -36.9897 -36.9135 -36.9135 -36.8880 -36.8880 -36.6069 -36.6069
    -5.1254  -5.1254  -3.5522  -3.5522  -3.1636  -3.1636  -2.9314  -2.9314
    -2.7726  -2.7726  -2.5021  -2.5021  -2.2667  -2.2667  -2.2338  -2.2338
    -2.0452  -2.0451  -1.8404  -1.8404  -1.7728  -1.7728  -1.5816  -1.5816
    -1.5509  -1.5509  -1.5273  -1.5273  -1.4907  -1.4907  -1.3738  -1.3738
    -1.2835  -1.2835  -1.0451  -1.0451  -0.6168  -0.6168  -0.5104  -0.5104
    -0.0247  -0.0247   0.1895   0.1895   0.8166   0.8166   0.9152   0.9152
     1.1885   1.1885   1.3976   1.3976   1.4956   1.4956   1.6519   1.6519
     1.9277   1.9277   2.7494   2.7494   3.3522   3.3522   3.5085   3.5085
     4.3140   4.3140   4.5303   4.5303   5.1035   5.1035   5.9788   5.9788
     7.0084   7.0084   7.4935   7.4935   7.9128   7.9129   8.2461   8.2461
     9.0635

     the Fermi energy is     1.4972 ev

!    total energy              =   -3391.76799374 Ry
     Harris-Foulkes estimate   =   -3391.76798346 Ry
     estimated scf accuracy    <       0.00000023 Ry

     The total energy is the sum of the following terms:

     one-electron contribution =  -24567.99462914 Ry
     hartree contribution      =   12281.25611051 Ry
     xc contribution           =    -494.92835584 Ry
     ewald contribution        =    9389.96388060 Ry
     electric field correction =       0.00000001 Ry
     smearing contrib. (-TS)   =      -0.06499988 Ry

     convergence has been achieved in  17 iterations

 BEEF-vdW xc energy contributions
           1 :   -437.170899256982
           2 :    400.746356536618
           3 :   -337.728986547179
           4 :    263.612558146820
           5 :   -193.544344309952
           6 :    137.338445563393
           7 :   -97.5315556007324
           8 :    70.8237262642036
           9 :   -51.5914503413511
          10 :    35.3522516843636
          11 :   -20.4928001350653
          12 :    7.83231434259000
          13 :    1.12669097679481
          14 :   -5.86433775515860
          15 :    7.40160076426912
          16 :   -7.64227624426053
          17 :    8.18367311757947
          18 :   -9.49286074269071
          19 :    10.9389515570402
          20 :   -11.5297880678564
          21 :    10.7600842344123
          22 :   -8.99078634413559
          23 :    7.16483161411054
          24 :   -6.13637166981948
          25 :    6.11906331502405
          26 :   -6.62319870049487
          27 :    6.87640359238475
          28 :   -6.39325999008292
          29 :    5.28802434022452
          30 :   -4.13887306112804
          31 :   -37.1840466041040
          32 :   -26.7566672986096

     Forces acting on atoms (Ry/au):

     negative rho (up, down):  3.949E-01 0.000E+00
     atom    1 type  1   force =    -0.00000068    0.00262972   -0.00418120
     atom    2 type  1   force =     0.00000044    0.00262948   -0.00418085
     atom    3 type  2   force =     0.00000009   -0.00001816    0.01622994
     atom    4 type  2   force =    -0.00000031   -0.00001811    0.01622988
     atom    5 type  1   force =     0.00000037    0.00336801   -0.00665718
     atom    6 type  1   force =    -0.00000012    0.00336954   -0.00665721
     atom    7 type  2   force =    -0.00000029   -0.00720401   -0.00642133
     atom    8 type  2   force =    -0.00000004   -0.00720393   -0.00642094
     atom    9 type  1   force =     0.00000080    0.00100765    0.00122955
     atom   10 type  1   force =    -0.00000004    0.00100697    0.00123033
     atom   11 type  2   force =    -0.00000025    0.00021647   -0.00020078
     atom   12 type  2   force =     0.00000004    0.00021638   -0.00020020

     Total force =     0.029638     Total SCF correction =     0.003466
     SCF correction compared to forces is large: reduce conv_thr to get better values

     entering subroutine stress ...

     negative rho (up, down):  3.949E-01 0.000E+00
          total   stress  (Ry/bohr**3)                   (kbar)     P=  -32.37
  -0.00032000  -0.00000000   0.00000000        -47.07     -0.00      0.00
  -0.00000000  -0.00023359  -0.00000315         -0.00    -34.36     -0.46
   0.00000000  -0.00000315  -0.00010660          0.00     -0.46    -15.68

 !ASE

     Writing output data file calc.save

     General routines

     Parallel routines

   This run was terminated on:  10:16:24  19Dec2018

   JOB DONE.
Job  /afs/slac/g/suncat/bin/suncat-tsmpirun -x LD_LIBRARY_PATH -wdir /scratch/qe529817_jJyMj pw.x -in pw.inp

TID   HOST_NAME   COMMAND_LINE            STATUS            TERMINATION_TIME
00000 suncat0142 pw.x -in pw.inp   Done                     12/19/2018 10:16:24
00001 suncat0142 pw.x -in pw.inp   Done                     12/19/2018 10:16:24
00002 suncat0142 pw.x -in pw.inp   Done                     12/19/2018 10:16:24
00003 suncat0142 pw.x -in pw.inp   Done                     12/19/2018 10:16:24
00004 suncat0142 pw.x -in pw.inp   Done                     12/19/2018 10:16:24
00005 suncat0142 pw.x -in pw.inp   Done                     12/19/2018 10:16:24
00006 suncat0142 pw.x -in pw.inp   Done                     12/19/2018 10:16:24
00007 suncat0142 pw.x -in pw.inp   Done                     12/19/2018 10:16:24
00008 suncat0141 pw.x -in pw.inp   Done                     12/19/2018 10:16:24
00009 suncat0141 pw.x -in pw.inp   Done                     12/19/2018 10:16:24
00010 suncat0141 pw.x -in pw.inp   Done                     12/19/2018 10:16:24
00011 suncat0141 pw.x -in pw.inp   Done                     12/19/2018 10:16:24
00012 suncat0141 pw.x -in pw.inp   Done                     12/19/2018 10:16:24
00013 suncat0141 pw.x -in pw.inp   Done                     12/19/2018 10:16:24
00014 suncat0141 pw.x -in pw.inp   Done                     12/19/2018 10:16:24
00015 suncat0141 pw.x -in pw.inp   Done                     12/19/2018 10:16:24
00016 suncat0140 pw.x -in pw.inp   Done                     12/19/2018 10:16:24
00017 suncat0140 pw.x -in pw.inp   Done                     12/19/2018 10:16:24
00018 suncat0140 pw.x -in pw.inp   Done                     12/19/2018 10:16:24
00019 suncat0140 pw.x -in pw.inp   Done                     12/19/2018 10:16:24
00020 suncat0140 pw.x -in pw.inp   Done                     12/19/2018 10:16:24
00021 suncat0140 pw.x -in pw.inp   Done                     12/19/2018 10:16:24
00022 suncat0140 pw.x -in pw.inp   Done                     12/19/2018 10:16:24
00023 suncat0140 pw.x -in pw.inp   Done                     12/19/2018 10:16:24
00024 suncat0139 pw.x -in pw.inp   Done                     12/19/2018 10:16:24
00025 suncat0139 pw.x -in pw.inp   Done                     12/19/2018 10:16:24
00026 suncat0139 pw.x -in pw.inp   Done                     12/19/2018 10:16:24
00027 suncat0139 pw.x -in pw.inp   Done                     12/19/2018 10:16:24
00028 suncat0139 pw.x -in pw.inp   Done                     12/19/2018 10:16:24
00029 suncat0139 pw.x -in pw.inp   Done                     12/19/2018 10:16:24
00030 suncat0139 pw.x -in pw.inp   Done                     12/19/2018 10:16:24
00031 suncat0139 pw.x -in pw.inp   Done                     12/19/2018 10:16:24