     Program PWSCF v.5.1rc2 (svn rev. 11289) starts on 26Dec2018 at 12:49:40

     Current dimensions of program PWSCF are:
     Max number of different atomic species (ntypx) = 10
     Max number of k-points (npk) =  40000
     Max angular momentum in pseudopotentials (lmaxx) =  3
     Presently stress not available with electric field

     IMPORTANT: XC functional enforced from input :
     Exchange-correlation      = BEEF-VDW ( 1  4 27 13 2)
     Any further DFT definition will be discarded
     Please, verify this is what you really want

     Subspace diagonalization in iterative solution of the eigenvalue problem:
     a serial algorithm will be used

     bravais-lattice index     =            0
     lattice parameter (alat)  =       1.8897  a.u.
     unit-cell volume          =    5970.3366 (a.u.)^3
     number of atoms/cell      =           12
     number of atomic types    =            2
     number of electrons       =       165.00
     number of Kohn-Sham states=          112
     kinetic-energy cutoff     =      36.7493  Ry
     charge density cutoff     =     367.4932  Ry
     convergence threshold     =      1.0E-06
     mixing beta               =       0.1000
     number of iterations used =           10  plain     mixing
     Exchange-correlation      = BEEF-VDW ( 1  4 27 13 2)
     nstep                     =           50

     celldm(1)=   1.889726  celldm(2)=   0.000000  celldm(3)=   0.000000
     celldm(4)=   0.000000  celldm(5)=   0.000000  celldm(6)=   0.000000

     crystal axes: (cart. coord. in units of alat)
               a(1) = (   6.367165   0.000000   0.000000 )
               a(2) = (  -3.183583   5.514127   0.000000 )
               a(3) = (   0.000000   0.000000  25.198769 )

     reciprocal axes: (cart. coord. in units 2 pi/alat)
               b(1) = (  0.157056  0.090676  0.000000 )
               b(2) = (  0.000000  0.181352  0.000000 )
               b(3) = (  0.000000  0.000000  0.039684 )

     PseudoPot. # 1 for In read from file:
     /afs/slac.stanford.edu/u/if/mamunm/psp/gbrv1.5pbe/In.UPF
     MD5 check sum: 90777abd96fbb83f2e67db2a40c566b9
     Pseudo is Ultrasoft + core correction, Zval = 13.0
     Generated by new atomic code, or converted to UPF format
     Using radial grid of  889 points,  6 beta functions with:
                l(1) =   0
                l(2) =   0
                l(3) =   1
                l(4) =   1
                l(5) =   2
                l(6) =   2
     Q(r) pseudized with  6 coefficients,  rinner =    1.400   1.400   1.400
                                                       1.400   1.400

     PseudoPot. # 2 for Pd read from file:
     /afs/slac.stanford.edu/u/if/mamunm/psp/gbrv1.5pbe/Pd.UPF
     MD5 check sum: 2d733d2bc2cbfd217af676df1668a4bc
     Pseudo is Ultrasoft + core correction, Zval = 16.0
     Generated by new atomic code, or converted to UPF format
     Using radial grid of  887 points,  6 beta functions with:
                l(1) =   0
                l(2) =   0
                l(3) =   1
                l(4) =   1
                l(5) =   2
                l(6) =   2
     Q(r) pseudized with  8 coefficients,  rinner =    1.130   1.130   1.130
                                                       1.130   1.130

     vdW kernel table read from file vdW_kernel_table
     MD5 check sum: 095c7af220d748ca6e76c0b4c6cfb241

     atomic species   valence    mass     pseudopotential
        In1           13.00   114.81800     In( 1.00)
        Pd1           16.00   106.42000     Pd( 1.00)

     No symmetry found

   Cartesian axes

     site n.     atom                  positions (alat units)
         1           In1 tau(   1) = (   0.0000000   0.0000000  10.0000000  )
         2           In1 tau(   2) = (  -1.5917913   2.7570635  10.0000000  )
         3           In1 tau(   3) = (   1.5917913   2.7570635  10.0000000  )
         4           Pd1 tau(   4) = (   3.1835827   0.0000000  10.0000000  )
         5           In1 tau(   5) = (   3.1835827   1.8380423  12.5993844  )
         6           In1 tau(   6) = (   1.5917913   4.5951058  12.5993844  )
         7           In1 tau(   7) = (  -1.5917913   4.5951058  12.5993844  )
         8           Pd1 tau(   8) = (   0.0000000   1.8380423  12.5993844  )
         9           In1 tau(   9) = (  -0.0000000   3.6760846  15.1987688  )
        10           In1 tau(  10) = (   1.5917913   0.9190212  15.1987688  )
        11           In1 tau(  11) = (   4.7753740   0.9190212  15.1987688  )
        12           Pd1 tau(  12) = (   3.1835827   3.6760846  15.1987688  )

     number of k points=    20  Fermi-Dirac smearing, width (Ry)=  0.0110
                       cart. coord. in units 2pi/alat
        k(    1) = (   0.0000000   0.0000000   0.0000000), wk =   0.0555556
        k(    2) = (   0.0000000   0.0302254   0.0000000), wk =   0.1111111
        k(    3) = (   0.0000000   0.0604508   0.0000000), wk =   0.1111111
        k(    4) = (   0.0000000  -0.0906762   0.0000000), wk =   0.0555556
        k(    5) = (   0.0261760   0.0151127   0.0000000), wk =   0.1111111
        k(    6) = (   0.0261760   0.0453381   0.0000000), wk =   0.1111111
        k(    7) = (   0.0261760   0.0755635   0.0000000), wk =   0.1111111
        k(    8) = (   0.0261760  -0.0755635   0.0000000), wk =   0.1111111
        k(    9) = (   0.0261760  -0.0453381   0.0000000), wk =   0.1111111
        k(   10) = (   0.0261760  -0.0151127   0.0000000), wk =   0.1111111
        k(   11) = (   0.0523519   0.0302254   0.0000000), wk =   0.1111111
        k(   12) = (   0.0523519   0.0604508   0.0000000), wk =   0.1111111
        k(   13) = (   0.0523519   0.0906762   0.0000000), wk =   0.1111111
        k(   14) = (   0.0523519  -0.0604508   0.0000000), wk =   0.1111111
        k(   15) = (   0.0523519  -0.0302254   0.0000000), wk =   0.1111111
        k(   16) = (   0.0523519   0.0000000   0.0000000), wk =   0.1111111
        k(   17) = (  -0.0785279  -0.0453381   0.0000000), wk =   0.0555556
        k(   18) = (  -0.0785279  -0.0151127   0.0000000), wk =   0.1111111
        k(   19) = (  -0.0785279   0.0151127   0.0000000), wk =   0.1111111
        k(   20) = (  -0.0785279  -0.1360143   0.0000000), wk =   0.0555556

     Largest allocated arrays     est. size (Mb)     dimensions
     Largest temporary arrays     est. size (Mb)     dimensions

     Initial potential from superposition of free atoms
     Check: negative starting charge=   -0.226774

     starting charge  149.99998, renormalised to  165.00000

     negative rho (up, down):  2.495E-01 0.000E+00

     *
     * You are using vdW-DF for exchange-correlation in this calculation.
     * Please cite the following three references that made this development
     * possible:
     *
     *   M. Dion, H. Rydberg, E. Schroder, D. C. Langreth, and
     *   B. I. Lundqvist, Phys. Rev. Lett. 92, 246401 (2004).
     *
     *   T. Thonhauser, V. R. Cooper, S. Li, A. Puzder, P. Hyldgaard, and
     *   D. C. Langreth, Phys. Rev. B 76, 125112 (2007).
     *
     *   G. Roman-Perez and J. M. Soler, Phys. Rev. Lett. 103, 096102 (2009).
     *
     *
     * If you are using vdW-DF2, please also cite:
     *
     *   K. Lee, E. D. Murray, L. Kong, B. I. Lundqvist, and
     *   D. C. Langreth, Phys. Rev. B 82, 081101(R) (2010).
     *
     *
     * If you are calculating the stress with vdW-DF, please also cite:
     *
     *   R. Sabatini, E. Kucukbenli, B. Kolb, T. Thonhauser, and
     *   S. de Gironcoli, J. Phys.: Condens. Matter 24, 424209 (2012).
     *

     Carrying out vdW-DF run using the following parameters:

     Nqs =      20    Nr_points =    1024   r_max =   100.000
     q_mesh =
               0.00001000     0.04494208     0.09755937     0.15916263
               0.23128650     0.31572767     0.41458969     0.53033537
               0.66584808     0.82450364     1.01025438     1.22772762
               1.48234092     1.78043706     2.12944203     2.53805004
               3.01644009     3.57652955     4.23227104     5.00000000

     Gradients computed in reciprocal space

     Adding external electric field

     Computed dipole along edir(3) :
        Dipole               -0.0000 Ry au,         -0.0000 Debye
        Dipole field         -0.0000 Ry au

        Potential amp.        0.0000 Ry
        Total length         46.4283 bohr

     Starting wfc are  117 randomized atomic wfcs

     Self-consistent Calculation

     iteration #  1     ecut=    36.75 Ry     beta=0.10
     Davidson diagonalization with overlap
     ethr =  1.00E-02,  avg # of iterations =  8.3

[...]

     total energy              =   -1793.01873918 Ry
     Harris-Foulkes estimate   =   -1837.66471053 Ry
     estimated scf accuracy    <     256.93522078 Ry

[...]

     End of self-consistent calculation

          k = 0.0000 0.0000 0.0000 ( 22489 PWs)   bands (ev):

   -49.2087 -49.2087 -49.1987 -48.8895 -48.8895 -48.8885 -48.8885 -48.7831
   -48.7821 -14.5971 -14.5525 -14.5524 -14.5462 -14.5051 -14.4864 -14.4198
   -14.4198 -14.4169 -14.4169 -14.3905 -14.3905 -14.3896 -14.3552 -14.3397
   -14.3397 -14.3230 -14.2562 -14.2509 -14.2509 -14.2245 -14.1966 -14.1783
   -14.1783 -14.1720 -14.1720 -14.1349 -14.1349 -14.1309 -14.1201 -14.1201
   -14.1159 -14.1158 -14.0987 -14.0987 -14.0528 -14.0528 -14.0255 -14.0255
   -14.0066 -13.9808 -13.9774 -13.9774 -13.9124 -13.9089  -8.3202  -6.9140
    -5.0012  -3.9606  -3.9606  -3.3360  -3.3360  -2.6763  -2.6763  -2.6296
    -2.2555  -1.6987  -1.6788  -1.6788  -1.5762  -1.5762  -1.2301  -1.2301
    -1.0739  -0.9506  -0.9212  -0.8877  -0.8877  -0.7267  -0.7267  -0.5714
    -0.5714  -0.5056  -0.0566  -0.0566   0.7952   0.7952   0.9090   1.3194
     1.3194   2.4704   2.5166   3.0670   4.0162   4.4088   4.4089   4.4161
     4.4161   4.4387   4.9903   5.1901   5.5645   5.8355   6.2236   6.7720
     6.7721   7.0479   7.0956   7.5101   7.5101   7.6830   7.8151   7.8278

[...]

          k =-0.0785-0.0453 0.0000 ( 22480 PWs)   bands (ev):

[...]

     the Fermi energy is     0.6094 ev

!    total energy              =   -1812.42462621 Ry
     Harris-Foulkes estimate   =   -1812.42648715 Ry
     estimated scf accuracy    <       0.00000045 Ry

     The total energy is the sum of the following terms:

     one-electron contribution =  -11257.32035452 Ry
     hartree contribution      =    5700.14547942 Ry
     xc contribution           =    -449.85155865 Ry
     ewald contribution        =    4194.63261012 Ry
     electric field correction =       0.00000001 Ry
     smearing contrib. (-TS)   =      -0.03080259 Ry

     convergence has been achieved in  19 iterations

 BEEF-vdW xc energy contributions
           1 :   -393.557274399250
           2 :    359.698099043054
           3 :   -302.444462750134
           4 :    237.854682530470
           5 :   -180.746897419668
           6 :    139.335029394538
           7 :   -113.621655301318
           8 :    97.7327288180277
           9 :   -84.4333958001804
          10 :    69.1877937638017
          11 :   -51.7766360323299
          12 :    35.1206083185621
          13 :   -22.5705130968591
          14 :    15.5521439894628
          15 :   -12.8919578805483
[...]

     PseudoPot. # 1 for In read from file:
     /afs/slac.stanford.edu/u/if/mamunm/psp/gbrv1.5pbe/In.UPF
     MD5 check sum: 90777abd96fbb83f2e67db2a40c566b9
     Pseudo is Ultrasoft + core correction, Zval = 13.0
     Generated by new atomic code, or converted to UPF format
     Using radial grid of  889 points,  6 beta functions with:
                l(1) =   0
                l(2) =   0
                l(3) =   1
                l(4) =   1
                l(5) =   2
                l(6) =   2
     Q(r) pseudized with  6 coefficients,  rinner =    1.400   1.400   1.400
                                                       1.400   1.400

     PseudoPot. # 2 for Pd read from file:
     /afs/slac.stanford.edu/u/if/mamunm/psp/gbrv1.5pbe/Pd.UPF
     MD5 check sum: 2d733d2bc2cbfd217af676df1668a4bc
     Pseudo is Ultrasoft + core correction, Zval = 16.0
     Generated by new atomic code, or converted to UPF format
     Using radial grid of  887 points,  6 beta functions with:
                l(1) =   0
                l(2) =   0
                l(3) =   1
                l(4) =   1
                l(5) =   2
                l(6) =   2
     Q(r) pseudized with  8 coefficients,  rinner =    1.130   1.130   1.130
                                                       1.130   1.130

     vdW kernel table read from file vdW_kernel_table
     MD5 check sum: 095c7af220d748ca6e76c0b4c6cfb241

     atomic species   valence    mass     pseudopotential
        In1           13.00   114.81800     In( 1.00)
        Pd1           16.00   106.42000     Pd( 1.00)

     No symmetry found

   Cartesian axes

     site n.     atom                  positions (alat units)
         1           In1 tau(   1) = (   0.0000000   0.0000000  10.0000000  )
         2           In1 tau(   2) = (  -1.5917913   2.7570635  10.0000000  )
         3           In1 tau(   3) = (   1.5917913   2.7570635  10.0000000  )
         4           Pd1 tau(   4) = (   3.1835827   0.0000000  10.0000000  )
         5           In1 tau(   5) = (   3.1835827   1.8380423  12.5993844  )
         6           In1 tau(   6) = (   1.5917913   4.5951058  12.5993844  )
         7           In1 tau(   7) = (  -1.5917913   4.5951058  12.5993844  )
         8           Pd1 tau(   8) = (   0.0000000   1.8380423  12.5993844  )
         9           In1 tau(   9) = (  -0.0000019   3.6536839  15.3763221  )
        10           In1 tau(  10) = (   1.5723981   0.9301974  15.3764059  )
        11           In1 tau(  11) = (   4.7947688   0.9301982  15.3764053  )
        12           Pd1 tau(  12) = (   3.1835829   3.6762247  14.7957488  )

     number of k points=    20  Fermi-Dirac smearing, width (Ry)=  0.0110
                       cart. coord. in units 2pi/alat
        k(    1) = (   0.0000000   0.0000000   0.0000000), wk =   0.0555556
        k(    2) = (   0.0000000   0.0302254   0.0000000), wk =   0.1111111
        k(    3) = (   0.0000000   0.0604508   0.0000000), wk =   0.1111111
        k(    4) = (   0.0000000  -0.0906762   0.0000000), wk =   0.0555556
        k(    5) = (   0.0261760   0.0151127   0.0000000), wk =   0.1111111
        k(    6) = (   0.0261760   0.0453381   0.0000000), wk =   0.1111111
        k(    7) = (   0.0261760   0.0755635   0.0000000), wk =   0.1111111
        k(    8) = (   0.0261760  -0.0755635   0.0000000), wk =   0.1111111
        k(    9) = (   0.0261760  -0.0453381   0.0000000), wk =   0.1111111
        k(   10) = (   0.0261760  -0.0151127   0.0000000), wk =   0.1111111
        k(   11) = (   0.0523519   0.0302254   0.0000000), wk =   0.1111111
        k(   12) = (   0.0523519   0.0604508   0.0000000), wk =   0.1111111
        k(   13) = (   0.0523519   0.0906762   0.0000000), wk =   0.1111111
        k(   14) = (   0.0523519  -0.0604508   0.0000000), wk =   0.1111111
        k(   15) = (   0.0523519  -0.0302254   0.0000000), wk =   0.1111111
        k(   16) = (   0.0523519   0.0000000   0.0000000), wk =   0.1111111
        k(   17) = (  -0.0785279  -0.0453381   0.0000000), wk =   0.0555556
        k(   18) = (  -0.0785279  -0.0151127   0.0000000), wk =   0.1111111
        k(   19) = (  -0.0785279   0.0151127   0.0000000), wk =   0.1111111
        k(   20) = (  -0.0785279  -0.1360143   0.0000000), wk =   0.0555556

     Largest allocated arrays     est. size (Mb)     dimensions
     Largest temporary arrays     est. size (Mb)     dimensions

     Initial potential from superposition of free atoms
     Check: negative starting charge=   -0.227541

     starting charge  149.99998, renormalised to  165.00000

[...]

     *
     * You are using vdW-DF for exchange-correlation in this calculation.
     * Please cite the following three references that made this development
     * possible:
     *
     *   M. Dion, H. Rydberg, E. Schroder, D. C. Langreth, and
     *   B. I. Lundqvist, Phys. Rev. Lett. 92, 246401 (2004).
     *
     *   T. Thonhauser, V. R. Cooper, S. Li, A. Puzder, P. Hyldgaard, and
     *   D. C. Langreth, Phys. Rev. B 76, 125112 (2007).
     *
     *   G. Roman-Perez and J. M. Soler, Phys. Rev. Lett. 103, 096102 (2009).
     *
     *
     * If you are using vdW-DF2, please also cite:
     *
     *   K. Lee, E. D. Murray, L. Kong, B. I. Lundqvist, and
     *   D. C. Langreth, Phys. Rev. B 82, 081101(R) (2010).
     *
     *
     * If you are calculating the stress with vdW-DF, please also cite:
     *
     *   R. Sabatini, E. Kucukbenli, B. Kolb, T. Thonhauser, and
     *   S. de Gironcoli, J. Phys.: Condens. Matter 24, 424209 (2012).
     *

     Carrying out vdW-DF run using the following parameters:

     Nqs =      20    Nr_points =    1024   r_max =   100.000
     q_mesh =
               0.00001000     0.04494208     0.09755937     0.15916263
               0.23128650     0.31572767     0.41458969     0.53033537
               0.66584808     0.82450364     1.01025438     1.22772762
               1.48234092     1.78043706     2.12944203     2.53805004
               3.01644009     3.57652955     4.23227104     5.00000000

     Gradients computed in reciprocal space

[...]

     Starting wfc are  117 randomized atomic wfcs

     Self-consistent Calculation

[...]

     total energy              =   -1812.44112877 Ry
     Harris-Foulkes estimate   =   -1812.44112663 Ry
     estimated scf accuracy    <       0.00000196 Ry

     iteration # 21     ecut=    36.75 Ry     beta=0.10
     Davidson diagonalization with overlap
     ethr =  1.19E-09,  avg # of iterations =  2.0

[...]

     negative rho (up, down):  2.348E-01 0.000E+00

     Adding external electric field

     Computed dipole along edir(3) :
        Dipole                0.0897 Ry au,          0.2280 Debye
        Dipole field          0.0002 Ry au

        Potential amp.       -0.0175 Ry
        Total length         46.4283 bohr

     End of self-consistent calculation

[...]

          k = 0.0524 0.0000 0.0000 ( 22457 PWs)   bands (ev):

[...]

          k =-0.0785-0.1360 0.0000 ( 22480 PWs)   bands (ev):

   -49.0953 -49.0952 -49.0738 -49.0738 -49.0662 -49.0614 -48.8321 -48.8321
   -48.7194 -14.4681 -14.3880 -14.3778 -14.3656 -14.3497 -14.3346 -14.3156
   -14.2972 -14.2840 -14.2738 -14.2532 -14.2457 -14.2196 -14.2133 -14.2067
   -14.2040 -14.1933 -14.1686 -14.1647 -14.1550 -14.1512 -14.1444 -14.1377
   -14.1365 -14.1289 -14.1276 -14.1157 -14.1104 -14.1100 -14.1026 -14.0952
   -14.0877 -14.0867 -14.0827 -14.0712 -14.0707 -14.0511 -14.0485 -14.0339
   -14.0262 -14.0196 -13.9970 -13.9648 -13.9234 -13.8985  -7.0830  -6.7103
    -5.5454  -5.4254  -4.5210  -4.3194  -3.8478  -3.1879  -2.6906  -2.2490
    -2.1293  -1.9609  -1.9564  -1.7035  -1.7022  -1.6372  -1.6205  -1.4207
    -1.3442  -1.3162  -1.0895  -1.0506  -0.8268  -0.7362  -0.4920  -0.2080
     0.2867   0.7249   1.0539   1.9161   2.2516   2.2918   2.3350   2.6085
     3.0940   3.3805   3.4363   3.4400   3.5902   4.1865   4.2815   4.4031
     4.7222   4.8066   4.9914   5.1053   5.5801   5.5918   5.6565   5.7649
     6.0495   6.0747   6.1493   6.3348   6.5350   6.6829   6.7471   6.9472

     the Fermi energy is     0.6753 ev

!    total energy              =   -1812.44113362 Ry
     Harris-Foulkes estimate   =   -1812.44112840 Ry
     estimated scf accuracy    <       0.00000048 Ry

     The total energy is the sum of the following terms:

     one-electron contribution =  -11229.75140068 Ry
     hartree contribution      =    5686.58785995 Ry
     xc contribution           =    -449.82406986 Ry
     ewald contribution        =    4180.57791802 Ry
     electric field correction =       0.00001694 Ry
     smearing contrib. (-TS)   =      -0.03145799 Ry

     convergence has been achieved in  21 iterations

 BEEF-vdW xc energy contributions
           1 :   -393.584781680264
           2 :    359.709956988610
           3 :   -302.431247064228
           4 :    237.818432234311
           5 :   -180.701061775171
           6 :    139.295962363838
           7 :   -113.597196348831
           8 :    97.7183443407921
           9 :   -84.4196726172685
          10 :    69.1721524337028
          11 :   -51.7675125278252
          12 :    35.1294900517809
          13 :   -22.5994362907377
          14 :    15.5888885909324
          15 :   -12.9190054655352
          16 :    11.8985633460808
          17 :   -10.1343660557824
          18 :    6.81222578180478
          19 :   -2.76172923004538
          20 :  -0.499531204528466
          21 :    1.94287909348736
          22 :   -1.64252214990472
          23 :   0.546974738759332
          24 :   0.270981848269003
          25 :  -0.289339843903463
          26 :  -0.292352578919122
          27 :   0.886628884423658
          28 :   -1.01905358401854
          29 :   0.619273322098820
          30 :   4.220537268116686E-002
          31 :   -36.2138630013585
          32 :   -26.3880681175434

     Forces acting on atoms (Ry/au):

     negative rho (up, down):  2.348E-01 0.000E+00
     atom    1 type  1   force =    -0.00000002    0.01165255   -0.01106601
     atom    2 type  1   force =     0.01008909   -0.00582331   -0.01106422
     atom    3 type  1   force =    -0.01008949   -0.00582366   -0.01106360
     atom    4 type  2   force =    -0.00000005    0.00000372    0.02415797
     atom    5 type  1   force =    -0.00000005   -0.01137463    0.00346856
     atom    6 type  1   force =    -0.00985384    0.00569136    0.00346425
     atom    7 type  1   force =     0.00985373    0.00569157    0.00346431
     atom    8 type  2   force =     0.00000024    0.00000077   -0.00058919
     atom    9 type  1   force =     0.00000039   -0.00072470   -0.00081231
     atom   10 type  1   force =    -0.00061780    0.00035289   -0.00081964
     atom   11 type  1   force =     0.00061764    0.00035211   -0.00081825
     atom   12 type  2   force =     0.00000017    0.00000133    0.00167813

     Total force =     0.042299     Total SCF correction =     0.002118

     entering subroutine stress ...

     negative rho (up, down):  2.348E-01 0.000E+00
          total   stress  (Ry/bohr**3)                   (kbar)     P=   -7.31
  -0.00007334   0.00000000   0.00000000        -10.79      0.00      0.00
   0.00000000  -0.00007329  -0.00000000          0.00    -10.78     -0.00
   0.00000000  -0.00000000  -0.00000248          0.00     -0.00     -0.36

 !ASE

     Writing output data file calc.save

     General routines

     Parallel routines

   This run was terminated on:  14:42:29  26Dec2018

   JOB DONE.
Job  /afs/slac/g/suncat/bin/suncat-tsmpirun -x LD_LIBRARY_PATH -wdir /scratch/qe109887_aI22O pw.x -in pw.inp

TID   HOST_NAME   COMMAND_LINE            STATUS            TERMINATION_TIME
00000 suncat0169 pw.x -in pw.inp   Done                     12/26/2018 14:42:29
00001 suncat0169 pw.x -in pw.inp   Done                     12/26/2018 14:42:29
00002 suncat0169 pw.x -in pw.inp   Done                     12/26/2018 14:42:29
00003 suncat0169 pw.x -in pw.inp   Done                     12/26/2018 14:42:29
00004 suncat0169 pw.x -in pw.inp   Done                     12/26/2018 14:42:29
00005 suncat0169 pw.x -in pw.inp   Done                     12/26/2018 14:42:29
00006 suncat0169 pw.x -in pw.inp   Done                     12/26/2018 14:42:29
00007 suncat0169 pw.x -in pw.inp   Done                     12/26/2018 14:42:29
00008 suncat0168 pw.x -in pw.inp   Done                     12/26/2018 14:42:29
00009 suncat0168 pw.x -in pw.inp   Done                     12/26/2018 14:42:29
00010 suncat0168 pw.x -in pw.inp   Done                     12/26/2018 14:42:29
00011 suncat0168 pw.x -in pw.inp   Done                     12/26/2018 14:42:29
00012 suncat0168 pw.x -in pw.inp   Done                     12/26/2018 14:42:29
00013 suncat0168 pw.x -in pw.inp   Done                     12/26/2018 14:42:29
00014 suncat0168 pw.x -in pw.inp   Done                     12/26/2018 14:42:29
00015 suncat0168 pw.x -in pw.inp   Done                     12/26/2018 14:42:29
00016 suncat0161 pw.x -in pw.inp   Done                     12/26/2018 14:42:29
00017 suncat0161 pw.x -in pw.inp   Done                     12/26/2018 14:42:29
00018 suncat0161 pw.x -in pw.inp   Done                     12/26/2018 14:42:29
00019 suncat0161 pw.x -in pw.inp   Done                     12/26/2018 14:42:29
00020 suncat0161 pw.x -in pw.inp   Done                     12/26/2018 14:42:29
00021 suncat0161 pw.x -in pw.inp   Done                     12/26/2018 14:42:29
00022 suncat0161 pw.x -in pw.inp   Done                     12/26/2018 14:42:29
00023 suncat0161 pw.x -in pw.inp   Done                     12/26/2018 14:42:29
00024 suncat0159 pw.x -in pw.inp   Done                     12/26/2018 14:42:29
00025 suncat0159 pw.x -in pw.inp   Done                     12/26/2018 14:42:29
00026 suncat0159 pw.x -in pw.inp   Done                     12/26/2018 14:42:29
00027 suncat0159 pw.x -in pw.inp   Done                     12/26/2018 14:42:29
00028 suncat0159 pw.x -in pw.inp   Done                     12/26/2018 14:42:29
00029 suncat0159 pw.x -in pw.inp   Done                     12/26/2018 14:42:29
00030 suncat0159 pw.x -in pw.inp   Done                     12/26/2018 14:42:29
00031 suncat0159 pw.x -in pw.inp   Done                     12/26/2018 14:42:29
00032 suncat0156 pw.x -in pw.inp   Done                     12/26/2018 14:42:29
00033 suncat0156 pw.x -in pw.inp   Done                     12/26/2018 14:42:29
00034 suncat0156 pw.x -in pw.inp   Done                     12/26/2018 14:42:29
00035 suncat0156 pw.x -in pw.inp   Done                     12/26/2018 14:42:29
00036 suncat0156 pw.x -in pw.inp   Done                     12/26/2018 14:42:29
00037 suncat0156 pw.x -in pw.inp   Done                     12/26/2018 14:42:29
00038 suncat0156 pw.x -in pw.inp   Done                     12/26/2018 14:42:29
00039 suncat0156 pw.x -in pw.inp   Done                     12/26/2018 14:42:29
00040 suncat0153 pw.x -in pw.inp   Done                     12/26/2018 14:42:29
00041 suncat0153 pw.x -in pw.inp   Done                     12/26/2018 14:42:29
00042 suncat0153 pw.x -in pw.inp   Done                     12/26/2018 14:42:29
00043 suncat0153 pw.x -in pw.inp   Done                     12/26/2018 14:42:29
00044 suncat0153 pw.x -in pw.inp   Done                     12/26/2018 14:42:29
00045 suncat0153 pw.x -in pw.inp   Done                     12/26/2018 14:42:29
00046 suncat0153 pw.x -in pw.inp   Done                     12/26/2018 14:42:29
00047 suncat0153 pw.x -in pw.inp   Done                     12/26/2018 14:42:29
00048 suncat0114 pw.x -in pw.inp   Done                     12/26/2018 14:42:29
00049 suncat0114 pw.x -in pw.inp   Done                     12/26/2018 14:42:29
00050 suncat0114 pw.x -in pw.inp   Done                     12/26/2018 14:42:29
00051 suncat0114 pw.x -in pw.inp   Done                     12/26/2018 14:42:29
00052 suncat0114 pw.x -in pw.inp   Done                     12/26/2018 14:42:29
00053 suncat0114 pw.x -in pw.inp   Done                     12/26/2018 14:42:29
00054 suncat0114 pw.x -in pw.inp   Done                     12/26/2018 14:42:29
00055 suncat0114 pw.x -in pw.inp   Done                     12/26/2018 14:42:29
00056 suncat0267 pw.x -in pw.inp   Done                     12/26/2018 14:42:29
00057 suncat0267 pw.x -in pw.inp   Done                     12/26/2018 14:42:29
00058 suncat0267 pw.x -in pw.inp   Done                     12/26/2018 14:42:29
00059 suncat0267 pw.x -in pw.inp   Done                     12/26/2018 14:42:29
00060 suncat0267 pw.x -in pw.inp   Done                     12/26/2018 14:42:29
00061 suncat0267 pw.x -in pw.inp   Done                     12/26/2018 14:42:29
00062 suncat0267 pw.x -in pw.inp   Done                     12/26/2018 14:42:29
00063 suncat0267 pw.x -in pw.inp   Done                     12/26/2018 14:42:29