     Program PWSCF v.5.1rc2 (svn rev. 11289) starts on 25Dec2018 at 19:30:39

     Current dimensions of program PWSCF are:
     Max number of different atomic species (ntypx) = 10
     Max number of k-points (npk) =  40000
     Max angular momentum in pseudopotentials (lmaxx) =  3
     Presently stress not available with electric field

     IMPORTANT: XC functional enforced from input :
     Exchange-correlation      = BEEF-VDW ( 1  4 27 13 2)
     Any further DFT definition will be discarded
     Please, verify this is what you really want

     Subspace diagonalization in iterative solution of the eigenvalue problem:
     a serial algorithm will be used

     Generating pointlists ...
     new r_m :   0.4125 (alat units)  0.7795 (a.u.) for type    1
     new r_m :   0.4125 (alat units)  0.7795 (a.u.) for type    2

     bravais-lattice index     =            0
     lattice parameter (alat)  =       1.8897  a.u.
     unit-cell volume          =    4250.3627 (a.u.)^3
     number of atoms/cell      =           12
     number of atomic types    =            2
     number of electrons       =       180.00
     number of Kohn-Sham states=          120
     kinetic-energy cutoff     =      36.7493  Ry
     charge density cutoff     =     367.4932  Ry
     convergence threshold     =      1.0E-06
     mixing beta               =       0.1000
     number of iterations used =           10  plain     mixing
     Exchange-correlation      = BEEF-VDW ( 1  4 27 13 2)
     nstep                     =           50

     celldm(1)=   1.889726  celldm(2)=   0.000000  celldm(3)=   0.000000
     celldm(4)=   0.000000  celldm(5)=   0.000000  celldm(6)=   0.000000

     crystal axes: (cart. coord. in units of alat)
               a(1) = (   5.453616   0.000000   0.000000 )
               a(2) = (  -2.726808   4.722970   0.000000 )
               a(3) = (   0.000000   0.000000  24.452859 )

     reciprocal axes: (cart. coord. in units 2 pi/alat)
               b(1) = (  0.183365  0.105866  0.000000 )
               b(2) = (  0.000000  0.211731  0.000000 )
               b(3) = (  0.000000  0.000000  0.040895 )

     PseudoPot. # 1 for Fe read from file:
     /afs/slac.stanford.edu/u/if/mamunm/psp/gbrv1.5pbe/Fe.UPF
     MD5 check sum: a130daea23fe5165f5d574ae7f82ed95
     Pseudo is Ultrasoft + core correction, Zval = 16.0
     Generated by new atomic code, or converted to UPF format
     Using radial grid of  861 points,  6 beta functions with:
                l(1) =   0
                l(2) =   0
                l(3) =   1
                l(4) =   1
                l(5) =   2
                l(6) =   2
     Q(r) pseudized with  8 coefficients,  rinner =    1.000   1.000   1.000
                                                       1.000   1.000

     PseudoPot. # 2 for Hg read from file:
     /afs/slac.stanford.edu/u/if/mamunm/psp/gbrv1.5pbe/Hg.UPF
     MD5 check sum: 8f42caffe07f7fd9c0a564347f8c5498
     Pseudo is Ultrasoft + core correction, Zval = 12.0
     Generated by new atomic code, or converted to UPF format
     Using radial grid of  985 points,  6 beta functions with:
                l(1) =   0
                l(2) =   0
                l(3) =   1
                l(4) =   1
                l(5) =   2
                l(6) =   2
     Q(r) pseudized with  8 coefficients,  rinner =    2.000   2.000   2.000
                                                       2.000   2.000

     vdW kernel table read from file vdW_kernel_table
     MD5 check sum: 095c7af220d748ca6e76c0b4c6cfb241

     atomic species   valence    mass     pseudopotential
        Fe1           16.00    55.84500     Fe( 1.00)
        Hg1           12.00   200.59200     Hg( 1.00)

     Starting magnetic structure
     atomic species   magnetization
        Fe1          0.125
        Hg1          0.167

     No symmetry found

   Cartesian axes

     site n.     atom                  positions (alat units)
         1           Fe1 tau(   1) = (   0.0000000   0.0000000  10.0000000  )
         2           Fe1 tau(   2) = (  -1.3634040   2.3614850  10.0000000  )
         3           Fe1 tau(   3) = (   1.3634040   2.3614850  10.0000000  )
         4           Hg1 tau(   4) = (   2.7268080   0.0000000  10.0000000  )
         5           Fe1 tau(   5) = (   2.7268080   1.5743233  12.2264294  )
         6           Fe1 tau(   6) = (   1.3634040   3.9358084  12.2264294  )
         7           Fe1 tau(   7) = (  -1.3634040   3.9358084  12.2264294  )
         8           Hg1 tau(   8) = (   0.0000000   1.5743233  12.2264294  )
         9           Fe1 tau(   9) = (  -0.0000000   3.1486467  14.4528588  )
        10           Fe1 tau(  10) = (   1.3634040   0.7871617  14.4528588  )
        11           Fe1 tau(  11) = (   4.0902120   0.7871617  14.4528588  )
        12           Hg1 tau(  12) = (   2.7268080   3.1486467  14.4528588  )

     number of k points=    40  Fermi-Dirac smearing, width (Ry)=  0.0110
                       cart. coord. in units 2pi/alat
        k(    1) = (   0.0000000   0.0000000   0.0000000), wk =   0.0277778
        k(    2) = (   0.0000000   0.0352885   0.0000000), wk =   0.0555556
        k(    3) = (   0.0000000   0.0705771   0.0000000), wk =   0.0555556
        k(    4) = (   0.0000000  -0.1058656   0.0000000), wk =   0.0277778
        k(    5) = (   0.0305608   0.0176443   0.0000000), wk =   0.0555556
        k(    6) = (   0.0305608   0.0529328   0.0000000), wk =   0.0555556
        k(    7) = (   0.0305608   0.0882213   0.0000000), wk =   0.0555556
        k(    8) = (   0.0305608  -0.0882213   0.0000000), wk =   0.0555556
        k(    9) = (   0.0305608  -0.0529328   0.0000000), wk =   0.0555556
        k(   10) = (   0.0305608  -0.0176443   0.0000000), wk =   0.0555556
        k(   11) = (   0.0611215   0.0352885   0.0000000), wk =   0.0555556
        k(   12) = (   0.0611215   0.0705771   0.0000000), wk =   0.0555556
        k(   13) = (   0.0611215   0.1058656   0.0000000), wk =   0.0555556
        k(   14) = (   0.0611215  -0.0705771   0.0000000), wk =   0.0555556
        k(   15) = (   0.0611215  -0.0352885   0.0000000), wk =   0.0555556
        k(   16) = (   0.0611215   0.0000000   0.0000000), wk =   0.0555556
        k(   17) = (  -0.0916823  -0.0529328   0.0000000), wk =   0.0277778
        k(   18) = (  -0.0916823  -0.0176443   0.0000000), wk =   0.0555556
        k(   19) = (  -0.0916823   0.0176443   0.0000000), wk =   0.0555556
        k(   20) = (  -0.0916823  -0.1587984   0.0000000), wk =   0.0277778
        k(   21) = (   0.0000000   0.0000000   0.0000000), wk =   0.0277778
        k(   22) = (   0.0000000   0.0352885   0.0000000), wk =   0.0555556
        k(   23) = (   0.0000000   0.0705771   0.0000000), wk =   0.0555556
        k(   24) = (   0.0000000  -0.1058656   0.0000000), wk =   0.0277778
        k(   25) = (   0.0305608   0.0176443   0.0000000), wk =   0.0555556
        k(   26) = (   0.0305608   0.0529328   0.0000000), wk =   0.0555556
        k(   27) = (   0.0305608   0.0882213   0.0000000), wk =   0.0555556
        k(   28) = (   0.0305608  -0.0882213   0.0000000), wk =   0.0555556
        k(   29) = (   0.0305608  -0.0529328   0.0000000), wk =   0.0555556
        k(   30) = (   0.0305608  -0.0176443   0.0000000), wk =   0.0555556
        k(   31) = (   0.0611215   0.0352885   0.0000000), wk =   0.0555556
        k(   32) = (   0.0611215   0.0705771   0.0000000), wk =   0.0555556
        k(   33) = (   0.0611215   0.1058656   0.0000000), wk =   0.0555556
        k(   34) = (   0.0611215  -0.0705771   0.0000000), wk =   0.0555556
        k(   35) = (   0.0611215  -0.0352885   0.0000000), wk =   0.0555556
        k(   36) = (   0.0611215   0.0000000   0.0000000), wk =   0.0555556
        k(   37) = (  -0.0916823  -0.0529328   0.0000000), wk =   0.0277778
        k(   38) = (  -0.0916823  -0.0176443   0.0000000), wk =   0.0555556
        k(   39) = (  -0.0916823   0.0176443   0.0000000), wk =   0.0555556
        k(   40) = (  -0.0916823  -0.1587984   0.0000000), wk =   0.0277778

     Largest allocated arrays     est. size (Mb)     dimensions
     Largest temporary arrays     est. size (Mb)     dimensions

     Check: negative/imaginary core charge=   -0.000006    0.000000

     Initial potential from superposition of free atoms
     Check: negative starting charge=(component1):   -0.000120

     starting charge  170.99977, renormalised to  180.00000

     negative rho (up, down):  1.261E-04 9.815E-05

     *
     * You are using vdW-DF for exchange-correlation in this calculation.
     * Please cite the following three references that made this development
     * possible:
     *
     *   M. Dion, H. Rydberg, E. Schroder, D. C. Langreth, and
     *   B. I. Lundqvist, Phys. Rev. Lett. 92, 246401 (2004).
     *
     *   T. Thonhauser, V. R. Cooper, S. Li, A. Puzder, P. Hyldgaard, and
     *   D. C. Langreth, Phys. Rev. B 76, 125112 (2007).
     *
     *   G. Roman-Perez and J. M. Soler, Phys. Rev. Lett. 103, 096102 (2009).
     *
     *
     * If you are using vdW-DF2, please also cite:
     *
     *   K. Lee, E. D. Murray, L. Kong, B. I. Lundqvist, and
     *   D. C. Langreth, Phys. Rev. B 82, 081101(R) (2010).
     *
     *
     * If you are calculating the stress with vdW-DF, please also cite:
     *
     *   R. Sabatini, E. Kucukbenli, B. Kolb, T. Thonhauser, and
     *   S. de Gironcoli, J. Phys.: Condens. Matter 24, 424209 (2012).
     *

     Carrying out vdW-DF run using the following parameters:

     Nqs =      20    Nr_points =    1024   r_max =   100.000
     q_mesh =
               0.00001000     0.04494208     0.09755937     0.15916263
               0.23128650     0.31572767     0.41458969     0.53033537
               0.66584808     0.82450364     1.01025438     1.22772762
               1.48234092     1.78043706     2.12944203     2.53805004
               3.01644009     3.57652955     4.23227104     5.00000000

     Gradients computed in reciprocal space

     Adding external electric field

     Computed dipole along edir(3) :
        Dipole               -0.0000 Ry au,         -0.0000 Debye
        Dipole field         -0.0000 Ry au

        Potential amp.        0.0000 Ry
        Total length         45.0540 bohr

[...]

     Starting wfc are  144 randomized atomic wfcs

     Self-consistent Calculation

     iteration #  1     ecut=    36.75 Ry     beta=0.10
     Davidson diagonalization with overlap
     ethr =  1.00E-02,  avg # of iterations =  8.3

[...]

     Magnetic moment per site:
     atom:    1    charge:    7.2633    magn:    0.9191    constr:    0.0000
     atom:    2    charge:    7.2633    magn:    0.9191    constr:    0.0000
     atom:    3    charge:    7.2633    magn:    0.9191    constr:    0.0000
     atom:    4    charge:    1.9953    magn:    0.3163    constr:    0.0000
     atom:    5    charge:    7.2462    magn:    0.9143    constr:    0.0000
     atom:    6    charge:    7.2462    magn:    0.9143    constr:    0.0000
     atom:    7    charge:    7.2462    magn:    0.9143    constr:    0.0000
     atom:    8    charge:    1.9921    magn:    0.3156    constr:    0.0000
[...]
        k(    2) = (   0.0000000   0.0352885   0.0000000), wk =   0.0555556
        k(    3) = (   0.0000000   0.0705771   0.0000000), wk =   0.0555556
        k(    4) = (   0.0000000  -0.1058656   0.0000000), wk =   0.0277778
        k(    5) = (   0.0305608   0.0176443   0.0000000), wk =   0.0555556
        k(    6) = (   0.0305608   0.0529328   0.0000000), wk =   0.0555556
        k(    7) = (   0.0305608   0.0882213   0.0000000), wk =   0.0555556
        k(    8) = (   0.0305608  -0.0882213   0.0000000), wk =   0.0555556
        k(    9) = (   0.0305608  -0.0529328   0.0000000), wk =   0.0555556
        k(   10) = (   0.0305608  -0.0176443   0.0000000), wk =   0.0555556
        k(   11) = (   0.0611215   0.0352885   0.0000000), wk =   0.0555556
        k(   12) = (   0.0611215   0.0705771   0.0000000), wk =   0.0555556
        k(   13) = (   0.0611215   0.1058656   0.0000000), wk =   0.0555556
        k(   14) = (   0.0611215  -0.0705771   0.0000000), wk =   0.0555556
        k(   15) = (   0.0611215  -0.0352885   0.0000000), wk =   0.0555556
        k(   16) = (   0.0611215   0.0000000   0.0000000), wk =   0.0555556
        k(   17) = (  -0.0916823  -0.0529328   0.0000000), wk =   0.0277778
        k(   18) = (  -0.0916823  -0.0176443   0.0000000), wk =   0.0555556
        k(   19) = (  -0.0916823   0.0176443   0.0000000), wk =   0.0555556
        k(   20) = (  -0.0916823  -0.1587984   0.0000000), wk =   0.0277778
        k(   21) = (   0.0000000   0.0000000   0.0000000), wk =   0.0277778
        k(   22) = (   0.0000000   0.0352885   0.0000000), wk =   0.0555556
        k(   23) = (   0.0000000   0.0705771   0.0000000), wk =   0.0555556
        k(   24) = (   0.0000000  -0.1058656   0.0000000), wk =   0.0277778
        k(   25) = (   0.0305608   0.0176443   0.0000000), wk =   0.0555556
        k(   26) = (   0.0305608   0.0529328   0.0000000), wk =   0.0555556
        k(   27) = (   0.0305608   0.0882213   0.0000000), wk =   0.0555556
        k(   28) = (   0.0305608  -0.0882213   0.0000000), wk =   0.0555556
        k(   29) = (   0.0305608  -0.0529328   0.0000000), wk =   0.0555556
        k(   30) = (   0.0305608  -0.0176443   0.0000000), wk =   0.0555556
        k(   31) = (   0.0611215   0.0352885   0.0000000), wk =   0.0555556
        k(   32) = (   0.0611215   0.0705771   0.0000000), wk =   0.0555556
        k(   33) = (   0.0611215   0.1058656   0.0000000), wk =   0.0555556
        k(   34) = (   0.0611215  -0.0705771   0.0000000), wk =   0.0555556
        k(   35) = (   0.0611215  -0.0352885   0.0000000), wk =   0.0555556
        k(   36) = (   0.0611215   0.0000000   0.0000000), wk =   0.0555556
        k(   37) = (  -0.0916823  -0.0529328   0.0000000), wk =   0.0277778
        k(   38) = (  -0.0916823  -0.0176443   0.0000000), wk =   0.0555556
        k(   39) = (  -0.0916823   0.0176443   0.0000000), wk =   0.0555556
        k(   40) = (  -0.0916823  -0.1587984   0.0000000), wk =   0.0277778

     Largest allocated arrays     est. size (Mb)     dimensions
     Largest temporary arrays     est. size (Mb)     dimensions

     Check: negative/imaginary core charge=   -0.000006    0.000000

     Initial potential from superposition of free atoms
     Check: negative starting charge=(component1):   -0.000108

     starting charge  170.99977, renormalised to  180.00000

[...]

     *
     * You are using vdW-DF for exchange-correlation in this calculation.
     * Please cite the following three references that made this development
     * possible:
     *
     *   M. Dion, H. Rydberg, E. Schroder, D. C. Langreth, and
     *   B. I. Lundqvist, Phys. Rev. Lett. 92, 246401 (2004).
     *
     *   T. Thonhauser, V. R. Cooper, S. Li, A. Puzder, P. Hyldgaard, and
     *   D. C. Langreth, Phys. Rev. B 76, 125112 (2007).
     *
     *   G. Roman-Perez and J. M. Soler, Phys. Rev. Lett. 103, 096102 (2009).
     *
     *
     * If you are using vdW-DF2, please also cite:
     *
     *   K. Lee, E. D. Murray, L. Kong, B. I. Lundqvist, and
     *   D. C. Langreth, Phys. Rev. B 82, 081101(R) (2010).
     *
     *
     * If you are calculating the stress with vdW-DF, please also cite:
     *
     *   R. Sabatini, E. Kucukbenli, B. Kolb, T. Thonhauser, and
     *   S. de Gironcoli, J. Phys.: Condens. Matter 24, 424209 (2012).
     *

     Carrying out vdW-DF run using the following parameters:

     Nqs =      20    Nr_points =    1024   r_max =   100.000
     q_mesh =
               0.00001000     0.04494208     0.09755937     0.15916263
               0.23128650     0.31572767     0.41458969     0.53033537
               0.66584808     0.82450364     1.01025438     1.22772762
               1.48234092     1.78043706     2.12944203     2.53805004
               3.01644009     3.57652955     4.23227104     5.00000000

     Gradients computed in reciprocal space

[...]

     Starting wfc are  144 randomized atomic wfcs

     Self-consistent Calculation

[...]

     total energy              =   -2589.03831242 Ry
     Harris-Foulkes estimate   =   -2589.03830974 Ry
     estimated scf accuracy    <       0.00000122 Ry

[...]

     iteration # 28     ecut=    36.75 Ry     beta=0.10
     Davidson diagonalization with overlap
     ethr =  6.79E-10,  avg # of iterations =  1.4

[...]

     negative rho (up, down):  2.251E-04 1.004E-03

[...]

     Adding external electric field

     Computed dipole along edir(3) :
        Dipole               -0.0415 Ry au,         -0.1056 Debye
        Dipole field         -0.0001 Ry au

        Potential amp.        0.0111 Ry
        Total length         45.0540 bohr

     Magnetic moment per site:
     atom:    1    charge:    7.0991    magn:    1.3628    constr:    0.0000
     atom:    2    charge:    7.0993    magn:    1.3627    constr:    0.0000
     atom:    3    charge:    7.0989    magn:    1.3630    constr:    0.0000
     atom:    4    charge:    1.9978    magn:    0.0113    constr:    0.0000
     atom:    5    charge:    7.0827    magn:    1.2956    constr:    0.0000
     atom:    6    charge:    7.0827    magn:    1.2956    constr:    0.0000
     atom:    7    charge:    7.0827    magn:    1.2956    constr:    0.0000
     atom:    8    charge:    2.0018    magn:    0.0103    constr:    0.0000
     atom:    9    charge:    7.0980    magn:    1.3271    constr:    0.0000
     atom:   10    charge:    7.0981    magn:    1.3270    constr:    0.0000
     atom:   11    charge:    7.0981    magn:    1.3270    constr:    0.0000
     atom:   12    charge:    1.9876    magn:    0.0056    constr:    0.0000

     End of self-consistent calculation

 ------ SPIN UP ------------

[...]

 ------ SPIN DOWN ----------

[...]

          k = 0.0611 0.0000 0.0000 ( 15990 PWs)   bands (ev):

[...]

          k =-0.0917-0.1588 0.0000 ( 16024 PWs)   bands (ev):

   -84.4765 -84.4720 -84.4667 -84.4138 -84.3939 -84.3889 -84.3862 -84.3818
   -84.3783 -50.6387 -50.6334 -50.6273 -50.6221 -50.6117 -50.6039 -50.5910
   -50.5778 -50.5758 -50.5654 -50.5616 -50.5558 -50.5516 -50.5378 -50.5250
   -50.5201 -50.5092 -50.4913 -50.4877 -50.4741 -50.4665 -50.4483 -50.4361
   -50.4243 -50.4161 -50.4137 -50.4057  -7.2352  -7.1000  -7.0987  -7.0447
    -7.0079  -6.8643  -6.6854  -6.6581  -6.5856  -6.4707  -6.3276  -6.2616
    -6.1975  -6.0732  -6.0133  -5.7428  -5.5075  -4.3342  -3.4854  -2.4472
    -2.1452  -2.1213  -1.0944  -0.8291  -0.5634  -0.5546  -0.3825  -0.3325
    -0.2364  -0.1638  -0.0163   0.0393   0.1203   0.2167   0.2699   0.3433
     0.3811   0.3812   0.5569   0.6745   0.6897   0.7358   0.9729   0.9730
     1.1394   1.1616   1.2398   1.2581   1.6015   1.6179   1.6986   1.8007
     1.8246   1.8282   1.9736   1.9811   2.0678   2.0782   2.1838   2.1942
     2.2922   2.4376   2.5521   2.6288   2.6952   2.7016   2.8076   3.3780
     3.5277   3.7355   4.0134   4.4430   5.0137   5.0534   6.0454   6.1794
     6.6435   6.7204   6.9245   7.0029   7.2818   7.7420   7.7873   7.8583

     the Fermi energy is     0.8672 ev

!    total energy              =   -2589.03832260 Ry
     Harris-Foulkes estimate   =   -2589.03831270 Ry
     estimated scf accuracy    <       0.00000081 Ry

     The total energy is the sum of the following terms:

     one-electron contribution =  -19867.78073691 Ry
     hartree contribution      =    9955.64787147 Ry
     xc contribution           =    -394.19109624 Ry
     ewald contribution        =    7717.36416019 Ry
     electric field correction =       0.00000510 Ry
     smearing contrib. (-TS)   =      -0.07852621 Ry

     total magnetization       =    24.78 Bohr mag/cell
     absolute magnetization    =    26.75 Bohr mag/cell

     convergence has been achieved in  28 iterations

 BEEF-vdW xc energy contributions
           1 :   -345.300700547226
           2 :    314.027833544941
           3 :   -261.243895972634
           4 :    201.736376557312
           5 :   -148.915659760751
           6 :    110.144636144897
           7 :   -85.7425002386307
           8 :    71.2546139521123
           9 :   -61.0894729759723
          10 :    51.4060924749309
          11 :   -41.1179628056805
          12 :    31.1206813079863
          13 :   -22.7714954585328
          14 :    16.7183519047187
          15 :   -12.6474258167432
          16 :    9.75271028733454
          17 :   -7.36287169453425
          18 :    5.24509940391829
          19 :   -3.51121910859661
          20 :    2.32269622739233
          21 :   -1.66385020951537
          22 :    1.30262743120988
          23 :  -0.922854725426816
          24 :   0.301797676834155
          25 :   0.572195956454266
          26 :   -1.50736066301903
          27 :    2.21826295008162
          28 :   -2.48721662249761
          29 :    2.29412704959503
          30 :   -1.85311491221313
          31 :   -30.8586934384057
          32 :   -22.0897802574877

     Forces acting on atoms (Ry/au):

     negative rho (up, down):  2.251E-04 1.004E-03
     atom    1 type  1   force =     0.00000711   -0.01614157    0.01314334
     atom    2 type  1   force =    -0.01397907    0.00807540    0.01317037
     atom    3 type  1   force =     0.01397123    0.00806338    0.01313280
     atom    4 type  2   force =    -0.00000646    0.00000351   -0.05078761
     atom    5 type  1   force =    -0.00006467    0.01575285    0.00405432
     atom    6 type  1   force =     0.01363459   -0.00791786    0.00402324
     atom    7 type  1   force =    -0.01362758   -0.00783890    0.00409035
     atom    8 type  2   force =     0.00006890    0.00000668   -0.00251160
     atom    9 type  1   force =    -0.00001186   -0.00083486   -0.00002632
     atom   10 type  1   force =    -0.00071054    0.00041901   -0.00004258
     atom   11 type  1   force =     0.00070838    0.00043088   -0.00001994
     atom   12 type  2   force =     0.00000997   -0.00001851    0.00177363

     Total force =     0.068442     Total SCF correction =     0.002614

     entering subroutine stress ...

     negative rho (up, down):  2.251E-04 1.004E-03
          total   stress  (Ry/bohr**3)                   (kbar)     P=   -5.80
  -0.00006425  -0.00000002  -0.00000001         -9.45     -0.00     -0.00
  -0.00000002  -0.00006425   0.00000000         -0.00     -9.45      0.00
  -0.00000001   0.00000000   0.00001022         -0.00      0.00      1.50

 !ASE

     Writing output data file calc.save

     General routines

     Parallel routines

   This run was terminated on:  23:27:42  25Dec2018

   JOB DONE.
Job  /afs/slac/g/suncat/bin/suncat-tsmpirun -x LD_LIBRARY_PATH -wdir /scratch/qe109622_IqsIT pw.x -in pw.inp

TID   HOST_NAME   COMMAND_LINE            STATUS            TERMINATION_TIME
00000 suncat0139 pw.x -in pw.inp   Done                     12/25/2018 23:27:42
00001 suncat0139 pw.x -in pw.inp   Done                     12/25/2018 23:27:42
00002 suncat0139 pw.x -in pw.inp   Done                     12/25/2018 23:27:42
00003 suncat0139 pw.x -in pw.inp   Done                     12/25/2018 23:27:42
00004 suncat0139 pw.x -in pw.inp   Done                     12/25/2018 23:27:42
00005 suncat0139 pw.x -in pw.inp   Done                     12/25/2018 23:27:42
00006 suncat0139 pw.x -in pw.inp   Done                     12/25/2018 23:27:42
00007 suncat0139 pw.x -in pw.inp   Done                     12/25/2018 23:27:42
00008 suncat0124 pw.x -in pw.inp   Done                     12/25/2018 23:27:42
00009 suncat0124 pw.x -in pw.inp   Done                     12/25/2018 23:27:42
00010 suncat0124 pw.x -in pw.inp   Done                     12/25/2018 23:27:42
00011 suncat0124 pw.x -in pw.inp   Done                     12/25/2018 23:27:42
00012 suncat0124 pw.x -in pw.inp   Done                     12/25/2018 23:27:42
00013 suncat0124 pw.x -in pw.inp   Done                     12/25/2018 23:27:42
00014 suncat0124 pw.x -in pw.inp   Done                     12/25/2018 23:27:42
00015 suncat0124 pw.x -in pw.inp   Done                     12/25/2018 23:27:42
00016 suncat0123 pw.x -in pw.inp   Done                     12/25/2018 23:27:42
00017 suncat0123 pw.x -in pw.inp   Done                     12/25/2018 23:27:42
00018 suncat0123 pw.x -in pw.inp   Done                     12/25/2018 23:27:42
00019 suncat0123 pw.x -in pw.inp   Done                     12/25/2018 23:27:42
00020 suncat0123 pw.x -in pw.inp   Done                     12/25/2018 23:27:42
00021 suncat0123 pw.x -in pw.inp   Done                     12/25/2018 23:27:42
00022 suncat0123 pw.x -in pw.inp   Done                     12/25/2018 23:27:42
00023 suncat0123 pw.x -in pw.inp   Done                     12/25/2018 23:27:42
00024 suncat0122 pw.x -in pw.inp   Done                     12/25/2018 23:27:42
00025 suncat0122 pw.x -in pw.inp   Done                     12/25/2018 23:27:42
00026 suncat0122 pw.x -in pw.inp   Done                     12/25/2018 23:27:42
00027 suncat0122 pw.x -in pw.inp   Done                     12/25/2018 23:27:42
00028 suncat0122 pw.x -in pw.inp   Done                     12/25/2018 23:27:42
00029 suncat0122 pw.x -in pw.inp   Done                     12/25/2018 23:27:42
00030 suncat0122 pw.x -in pw.inp   Done                     12/25/2018 23:27:42
00031 suncat0122 pw.x -in pw.inp   Done                     12/25/2018 23:27:42
00032 suncat0241 pw.x -in pw.inp   Done                     12/25/2018 23:27:42
00033 suncat0241 pw.x -in pw.inp   Done                     12/25/2018 23:27:42
00034 suncat0241 pw.x -in pw.inp   Done                     12/25/2018 23:27:42
00035 suncat0241 pw.x -in pw.inp   Done                     12/25/2018 23:27:42
00036 suncat0241 pw.x -in pw.inp   Done                     12/25/2018 23:27:42
00037 suncat0241 pw.x -in pw.inp   Done                     12/25/2018 23:27:42
00038 suncat0241 pw.x -in pw.inp   Done                     12/25/2018 23:27:42
00039 suncat0241 pw.x -in pw.inp   Done                     12/25/2018 23:27:42
00040 suncat0240 pw.x -in pw.inp   Done                     12/25/2018 23:27:42
00041 suncat0240 pw.x -in pw.inp   Done                     12/25/2018 23:27:42
00042 suncat0240 pw.x -in pw.inp   Done                     12/25/2018 23:27:42
00043 suncat0240 pw.x -in pw.inp   Done                     12/25/2018 23:27:42
00044 suncat0240 pw.x -in pw.inp   Done                     12/25/2018 23:27:42
00045 suncat0240 pw.x -in pw.inp   Done                     12/25/2018 23:27:42
00046 suncat0240 pw.x -in pw.inp   Done                     12/25/2018 23:27:42
00047 suncat0240 pw.x -in pw.inp   Done                     12/25/2018 23:27:42
00048 suncat0239 pw.x -in pw.inp   Done                     12/25/2018 23:27:42
00049 suncat0239 pw.x -in pw.inp   Done                     12/25/2018 23:27:42
00050 suncat0239 pw.x -in pw.inp   Done                     12/25/2018 23:27:42
00051 suncat0239 pw.x -in pw.inp   Done                     12/25/2018 23:27:42
00052 suncat0239 pw.x -in pw.inp   Done                     12/25/2018 23:27:42
00053 suncat0239 pw.x -in pw.inp   Done                     12/25/2018 23:27:42
00054 suncat0239 pw.x -in pw.inp   Done                     12/25/2018 23:27:42
00055 suncat0239 pw.x -in pw.inp   Done                     12/25/2018 23:27:42
00056 suncat0098 pw.x -in pw.inp   Done                     12/25/2018 23:27:42
00057 suncat0098 pw.x -in pw.inp   Done                     12/25/2018 23:27:42
00058 suncat0098 pw.x -in pw.inp   Done                     12/25/2018 23:27:42
00059 suncat0098 pw.x -in pw.inp   Done                     12/25/2018 23:27:42
00060 suncat0098 pw.x -in pw.inp   Done                     12/25/2018 23:27:42
00061 suncat0098 pw.x -in pw.inp   Done                     12/25/2018 23:27:42
00062 suncat0098 pw.x -in pw.inp   Done                     12/25/2018 23:27:42
00063 suncat0098 pw.x -in pw.inp   Done                     12/25/2018 23:27:42