     Program PWSCF v.5.1rc2 (svn rev. 11289) starts on  1Jan2019 at  5:17:36

     Current dimensions of program PWSCF are:
     Max number of different atomic species (ntypx) = 10
     Max number of k-points (npk) =  40000
     Max angular momentum in pseudopotentials (lmaxx) =  3
     Presently stress not available with electric field

     IMPORTANT: XC functional enforced from input :
     Exchange-correlation      = BEEF-VDW ( 1  4 27 13 2)
     Any further DFT definition will be discarded
     Please, verify this is what you really want

     Subspace diagonalization in iterative solution of the eigenvalue problem:
     a serial algorithm will be used

     bravais-lattice index     =            0
     lattice parameter (alat)  =       1.8897  a.u.
     unit-cell volume          =    5849.5703 (a.u.)^3
     number of atoms/cell      =           12
     number of atomic types    =            2
     number of electrons       =       156.00
     number of Kohn-Sham states=          108
     kinetic-energy cutoff     =      36.7493  Ry
     charge density cutoff     =     367.4932  Ry
     convergence threshold     =      1.0E-06
     mixing beta               =       0.1000
     number of iterations used =           10  plain     mixing
     Exchange-correlation      = BEEF-VDW ( 1  4 27 13 2)
     nstep                     =           50

     celldm(1)=   1.889726  celldm(2)=   0.000000  celldm(3)=   0.000000
     celldm(4)=   0.000000  celldm(5)=   0.000000  celldm(6)=   0.000000

     crystal axes: (cart. coord. in units of alat)
               a(1) = (   6.308444   0.000000   0.000000 )
               a(2) = (  -3.154222   5.463273   0.000000 )
               a(3) = (   0.000000   0.000000  25.150823 )

     reciprocal axes: (cart. coord. in units 2 pi/alat)
               b(1) = (  0.158518  0.091520  0.000000 )
               b(2) = (  0.000000  0.183040  0.000000 )
               b(3) = (  0.000000  0.000000  0.039760 )

     PseudoPot. # 1 for Sc read from file:
     /afs/slac.stanford.edu/u/if/mamunm/psp/gbrv1.5pbe/Sc.UPF
     MD5 check sum: db30a2753ba66ef00f23801d899b7e7f
     Pseudo is Ultrasoft + core correction, Zval = 11.0
     Generated by new atomic code, or converted to UPF format
     Using radial grid of  849 points,  6 beta functions with:
                l(1) =   0
                l(2) =   0
                l(3) =   1
                l(4) =   1
                l(5) =   2
                l(6) =   2
     Q(r) pseudized with  6 coefficients,  rinner =    1.200   1.200   1.200
                                                       1.200   1.200

     PseudoPot. # 2 for Ag read from file:
     /afs/slac.stanford.edu/u/if/mamunm/psp/gbrv1.5pbe/Ag.UPF
     MD5 check sum: d66d668201baa78d5eb5b04ef7011058
     Pseudo is Ultrasoft + core correction, Zval = 19.0
     Generated by new atomic code, or converted to UPF format
     Using radial grid of  887 points,  6 beta functions with:
                l(1) =   0
                l(2) =   0
                l(3) =   1
                l(4) =   1
                l(5) =   2
                l(6) =   2
     Q(r) pseudized with  6 coefficients,  rinner =    1.300   1.300   1.300
                                                       1.300   1.300

     vdW kernel table read from file vdW_kernel_table
     MD5 check sum: 095c7af220d748ca6e76c0b4c6cfb241

     atomic species   valence    mass     pseudopotential
        Sc1           11.00    44.95591     Sc( 1.00)
        Ag1           19.00   107.86820     Ag( 1.00)

     No symmetry found

   Cartesian axes

     site n.     atom                  positions (alat units)
         1           Sc1 tau(   1) = (   0.0000000   0.0000000  10.0000000  )
         2           Sc1 tau(   2) = (  -1.5771110   2.7316365  10.0000000  )
         3           Sc1 tau(   3) = (   1.5771110   2.7316365  10.0000000  )
         4           Ag1 tau(   4) = (   3.1542221   0.0000000  10.0000000  )
         5           Sc1 tau(   5) = (   3.1542221   1.8210910  12.5754115  )
         6           Sc1 tau(   6) = (   1.5771110   4.5527274  12.5754115  )
         7           Sc1 tau(   7) = (  -1.5771110   4.5527274  12.5754115  )
         8           Ag1 tau(   8) = (   0.0000000   1.8210910  12.5754115  )
         9           Sc1 tau(   9) = (  -0.0000000   3.6421819  15.1508231  )
        10           Sc1 tau(  10) = (   1.5771110   0.9105455  15.1508231  )
        11           Sc1 tau(  11) = (   4.7313331   0.9105455  15.1508231  )
        12           Ag1 tau(  12) = (   3.1542221   3.6421819  15.1508231  )

     number of k points=    20  Fermi-Dirac smearing, width (Ry)=  0.0110
                       cart. coord. in units 2pi/alat
        k(    1) = (   0.0000000   0.0000000   0.0000000), wk =   0.0555556
        k(    2) = (   0.0000000   0.0305067   0.0000000), wk =   0.1111111
        k(    3) = (   0.0000000   0.0610135   0.0000000), wk =   0.1111111
        k(    4) = (   0.0000000  -0.0915202   0.0000000), wk =   0.0555556
        k(    5) = (   0.0264196   0.0152534   0.0000000), wk =   0.1111111
        k(    6) = (   0.0264196   0.0457601   0.0000000), wk =   0.1111111
        k(    7) = (   0.0264196   0.0762669   0.0000000), wk =   0.1111111
        k(    8) = (   0.0264196  -0.0762669   0.0000000), wk =   0.1111111
        k(    9) = (   0.0264196  -0.0457601   0.0000000), wk =   0.1111111
        k(   10) = (   0.0264196  -0.0152534   0.0000000), wk =   0.1111111
        k(   11) = (   0.0528392   0.0305067   0.0000000), wk =   0.1111111
        k(   12) = (   0.0528392   0.0610135   0.0000000), wk =   0.1111111
        k(   13) = (   0.0528392   0.0915202   0.0000000), wk =   0.1111111
        k(   14) = (   0.0528392  -0.0610135   0.0000000), wk =   0.1111111
        k(   15) = (   0.0528392  -0.0305067   0.0000000), wk =   0.1111111
        k(   16) = (   0.0528392  -0.0000000   0.0000000), wk =   0.1111111
        k(   17) = (  -0.0792588  -0.0457601   0.0000000), wk =   0.0555556
        k(   18) = (  -0.0792588  -0.0152534   0.0000000), wk =   0.1111111
        k(   19) = (  -0.0792588   0.0152534   0.0000000), wk =   0.1111111
        k(   20) = (  -0.0792588  -0.1372803   0.0000000), wk =   0.0555556

     Largest allocated arrays     est. size (Mb)     dimensions
     Largest temporary arrays     est. size (Mb)     dimensions

     Initial potential from superposition of free atoms
     Check: negative starting charge=   -0.001038

     starting charge  154.47824, renormalised to  156.00000

     negative rho (up, down):  1.048E-03 0.000E+00

     *
     * You are using vdW-DF for exchange-correlation in this calculation.
     * Please cite the following three references that made this development
     * possible:
     *
     *   M. Dion, H. Rydberg, E. Schroder, D. C. Langreth, and
     *   B. I. Lundqvist, Phys. Rev. Lett. 92, 246401 (2004).
     *
     *   T. Thonhauser, V. R. Cooper, S. Li, A. Puzder, P. Hyldgaard, and
     *   D. C. Langreth, Phys. Rev. B 76, 125112 (2007).
     *
     *   G. Roman-Perez and J. M. Soler, Phys. Rev. Lett. 103, 096102 (2009).
     *
     *
     * If you are using vdW-DF2, please also cite:
     *
     *   K. Lee, E. D. Murray, L. Kong, B. I. Lundqvist, and
     *   D. C. Langreth, Phys. Rev. B 82, 081101(R) (2010).
     *
     *
     * If you are calculating the stress with vdW-DF, please also cite:
     *
     *   R. Sabatini, E. Kucukbenli, B. Kolb, T. Thonhauser, and
     *   S. de Gironcoli, J. Phys.: Condens. Matter 24, 424209 (2012).
     *

     Carrying out vdW-DF run using the following parameters:

     Nqs =      20    Nr_points =    1024   r_max =   100.000
     q_mesh =
               0.00001000     0.04494208     0.09755937     0.15916263
               0.23128650     0.31572767     0.41458969     0.53033537
               0.66584808     0.82450364     1.01025438     1.22772762
               1.48234092     1.78043706     2.12944203     2.53805004
               3.01644009     3.57652955     4.23227104     5.00000000

     Gradients computed in reciprocal space

     Adding external electric field

     Computed dipole along edir(3) :
        Dipole                0.0000 Ry au,          0.0000 Debye
        Dipole field          0.0000 Ry au

        Potential amp.       -0.0000 Ry
        Total length         46.3400 bohr

     Starting wfc are  156 randomized atomic wfcs

     Self-consistent Calculation

     iteration #  1     ecut=    36.75 Ry     beta=0.10
     Davidson diagonalization with overlap
     ethr =  1.00E-02,  avg # of iterations =  1.9

[...]

     total energy              =   -1742.82037187 Ry
     Harris-Foulkes estimate   =   -1743.86087751 Ry
     estimated scf accuracy    <       5.95011586 Ry

[...]

     End of self-consistent calculation

          k = 0.0000 0.0000 0.0000 ( 22027 PWs)   bands (ev):

   -91.6202 -91.5145 -91.5143 -55.0779 -55.0779 -55.0707 -54.9922 -54.9922
   -54.9920 -54.9920 -54.9572 -54.9571 -49.3056 -49.3043 -49.2618 -49.2618
   -49.2615 -49.2615 -48.9801 -48.9376 -48.9373 -28.0260 -27.9949 -27.9944
   -27.9786 -27.9659 -27.9659 -27.9538 -27.9538 -27.9420 -27.9419 -27.9367
   -27.9367 -27.7799 -27.7750 -27.7731 -27.6525 -27.6525 -27.6392 -27.6392
   -27.6091 -27.6090 -27.5298 -27.5180 -27.5178 -27.4460 -27.3873 -27.3872
    -4.5284  -4.0262  -4.0262  -4.0057  -4.0048  -4.0048  -3.9326  -3.9056
    -3.9056  -3.8539  -3.8539  -3.7945  -3.6961  -3.6961  -3.6293  -3.6293
    -3.0507  -2.0453  -1.0825  -0.8474  -0.7842   0.1942   0.1942   0.3171
     0.4106   0.4107   0.5710   0.7732   0.7733   0.9136   0.9137   0.9558
     1.0619   1.0750   1.0750   1.2171   1.4276   1.7283   1.7283   1.7759
     1.7759   1.8350   2.0307   2.0307   2.0408   2.0408   2.3207   2.3277
     3.0327   3.1309   3.1309   3.2854   3.2854   3.3145   3.3145   3.3220
     3.3565   3.3566   3.6257   3.6258

[...]

          k =-0.0793-0.0458 0.0000 ( 21932 PWs)   bands (ev):

[...]

     the Fermi energy is     0.8292 ev

!    total energy              =   -1743.20278266 Ry
     Harris-Foulkes estimate   =   -1743.20278489 Ry
     estimated scf accuracy    <       0.00000061 Ry

     The total energy is the sum of the following terms:

     one-electron contribution =  -10658.89286047 Ry
     hartree contribution      =    5312.43604901 Ry
     xc contribution           =    -214.82375869 Ry
     ewald contribution        =    3818.21343898 Ry
     electric field correction =       0.00000002 Ry
     smearing contrib. (-TS)   =      -0.13565151 Ry

     convergence has been achieved in  17 iterations

 BEEF-vdW xc energy contributions
           1 :   -183.842360428951
           2 :    163.848304936577
           3 :   -131.812518672108
           4 :    99.0023381099209
           5 :   -74.1377348240526
           6 :    60.0285987646610
           7 :   -54.1660913127966
           8 :    51.8941030227566
           9 :   -49.5847560133013
          10 :    46.0083755072193
          11 :   -41.7701709839362
          12 :    37.8977125860991
          13 :   -34.8271290619095
          14 :    32.3304004082509
          15 :   -30.0575941339260
          16 :    27.9762776089683
[...]
     /afs/slac.stanford.edu/u/if/mamunm/psp/gbrv1.5pbe/Sc.UPF
     MD5 check sum: db30a2753ba66ef00f23801d899b7e7f
     Pseudo is Ultrasoft + core correction, Zval = 11.0
     Generated by new atomic code, or converted to UPF format
     Using radial grid of  849 points,  6 beta functions with:
                l(1) =   0
                l(2) =   0
                l(3) =   1
                l(4) =   1
                l(5) =   2
                l(6) =   2
     Q(r) pseudized with  6 coefficients,  rinner =    1.200   1.200   1.200
                                                       1.200   1.200

     PseudoPot. # 2 for Ag read from file:
     /afs/slac.stanford.edu/u/if/mamunm/psp/gbrv1.5pbe/Ag.UPF
     MD5 check sum: d66d668201baa78d5eb5b04ef7011058
     Pseudo is Ultrasoft + core correction, Zval = 19.0
     Generated by new atomic code, or converted to UPF format
     Using radial grid of  887 points,  6 beta functions with:
                l(1) =   0
                l(2) =   0
                l(3) =   1
                l(4) =   1
                l(5) =   2
                l(6) =   2
     Q(r) pseudized with  6 coefficients,  rinner =    1.300   1.300   1.300
                                                       1.300   1.300

     vdW kernel table read from file vdW_kernel_table
     MD5 check sum: 095c7af220d748ca6e76c0b4c6cfb241

     atomic species   valence    mass     pseudopotential
        Sc1           11.00    44.95591     Sc( 1.00)
        Ag1           19.00   107.86820     Ag( 1.00)

     No symmetry found

   Cartesian axes

     site n.     atom                  positions (alat units)
         1           Sc1 tau(   1) = (   0.0000000   0.0000000  10.0000000  )
         2           Sc1 tau(   2) = (  -1.5771110   2.7316365  10.0000000  )
         3           Sc1 tau(   3) = (   1.5771110   2.7316365  10.0000000  )
         4           Ag1 tau(   4) = (   3.1542221   0.0000000  10.0000000  )
         5           Sc1 tau(   5) = (   3.1542221   1.8210910  12.5754115  )
         6           Sc1 tau(   6) = (   1.5771110   4.5527274  12.5754115  )
         7           Sc1 tau(   7) = (  -1.5771110   4.5527274  12.5754115  )
         8           Ag1 tau(   8) = (   0.0000000   1.8210910  12.5754115  )
         9           Sc1 tau(   9) = (   0.0000132   3.6297585  15.1601413  )
        10           Sc1 tau(  10) = (   1.5663110   0.9166557  15.1601591  )
        11           Sc1 tau(  11) = (   4.7421211   0.9166334  15.1601733  )
        12           Ag1 tau(  12) = (   3.1542038   3.6423515  14.9834929  )

     number of k points=    20  Fermi-Dirac smearing, width (Ry)=  0.0110
                       cart. coord. in units 2pi/alat
        k(    1) = (   0.0000000   0.0000000   0.0000000), wk =   0.0555556
        k(    2) = (   0.0000000   0.0305067   0.0000000), wk =   0.1111111
        k(    3) = (   0.0000000   0.0610135   0.0000000), wk =   0.1111111
        k(    4) = (   0.0000000  -0.0915202   0.0000000), wk =   0.0555556
        k(    5) = (   0.0264196   0.0152534   0.0000000), wk =   0.1111111
        k(    6) = (   0.0264196   0.0457601   0.0000000), wk =   0.1111111
        k(    7) = (   0.0264196   0.0762669   0.0000000), wk =   0.1111111
        k(    8) = (   0.0264196  -0.0762669   0.0000000), wk =   0.1111111
        k(    9) = (   0.0264196  -0.0457601   0.0000000), wk =   0.1111111
        k(   10) = (   0.0264196  -0.0152534   0.0000000), wk =   0.1111111
        k(   11) = (   0.0528392   0.0305067   0.0000000), wk =   0.1111111
        k(   12) = (   0.0528392   0.0610135   0.0000000), wk =   0.1111111
        k(   13) = (   0.0528392   0.0915202   0.0000000), wk =   0.1111111
        k(   14) = (   0.0528392  -0.0610135   0.0000000), wk =   0.1111111
        k(   15) = (   0.0528392  -0.0305067   0.0000000), wk =   0.1111111
        k(   16) = (   0.0528392  -0.0000000   0.0000000), wk =   0.1111111
        k(   17) = (  -0.0792588  -0.0457601   0.0000000), wk =   0.0555556
        k(   18) = (  -0.0792588  -0.0152534   0.0000000), wk =   0.1111111
        k(   19) = (  -0.0792588   0.0152534   0.0000000), wk =   0.1111111
        k(   20) = (  -0.0792588  -0.1372803   0.0000000), wk =   0.0555556

     Largest allocated arrays     est. size (Mb)     dimensions
     Largest temporary arrays     est. size (Mb)     dimensions

     Initial potential from superposition of free atoms
     Check: negative starting charge=   -0.001034

     starting charge  154.47824, renormalised to  156.00000

[...]

     *
     * You are using vdW-DF for exchange-correlation in this calculation.
     * Please cite the following three references that made this development
     * possible:
     *
     *   M. Dion, H. Rydberg, E. Schroder, D. C. Langreth, and
     *   B. I. Lundqvist, Phys. Rev. Lett. 92, 246401 (2004).
     *
     *   T. Thonhauser, V. R. Cooper, S. Li, A. Puzder, P. Hyldgaard, and
     *   D. C. Langreth, Phys. Rev. B 76, 125112 (2007).
     *
     *   G. Roman-Perez and J. M. Soler, Phys. Rev. Lett. 103, 096102 (2009).
     *
     *
     * If you are using vdW-DF2, please also cite:
     *
     *   K. Lee, E. D. Murray, L. Kong, B. I. Lundqvist, and
     *   D. C. Langreth, Phys. Rev. B 82, 081101(R) (2010).
     *
     *
     * If you are calculating the stress with vdW-DF, please also cite:
     *
     *   R. Sabatini, E. Kucukbenli, B. Kolb, T. Thonhauser, and
     *   S. de Gironcoli, J. Phys.: Condens. Matter 24, 424209 (2012).
     *

     Carrying out vdW-DF run using the following parameters:

     Nqs =      20    Nr_points =    1024   r_max =   100.000
     q_mesh =
               0.00001000     0.04494208     0.09755937     0.15916263
               0.23128650     0.31572767     0.41458969     0.53033537
               0.66584808     0.82450364     1.01025438     1.22772762
               1.48234092     1.78043706     2.12944203     2.53805004
               3.01644009     3.57652955     4.23227104     5.00000000

     Gradients computed in reciprocal space

[...]

     Starting wfc are  156 randomized atomic wfcs

     Self-consistent Calculation

[...]

     total energy              =   -1743.20587692 Ry
     Harris-Foulkes estimate   =   -1743.20587698 Ry
     estimated scf accuracy    <       0.00000109 Ry

     iteration # 18     ecut=    36.75 Ry     beta=0.10
     Davidson diagonalization with overlap
     ethr =  6.98E-10,  avg # of iterations =  2.8

[...]

     negative rho (up, down):  8.491E-04 0.000E+00

     Adding external electric field

     Computed dipole along edir(3) :
        Dipole                0.0249 Ry au,          0.0634 Debye
        Dipole field          0.0001 Ry au

        Potential amp.       -0.0050 Ry
        Total length         46.3400 bohr

     End of self-consistent calculation

[...]

          k = 0.0528-0.0000 0.0000 ( 22033 PWs)   bands (ev):

[...]

          k =-0.0793-0.1373 0.0000 ( 21932 PWs)   bands (ev):

   -91.6049 -91.5895 -91.4939 -55.0702 -55.0700 -55.0679 -55.0477 -55.0476
   -55.0402 -54.9712 -54.9711 -54.9374 -49.2783 -49.2673 -49.2636 -49.2530
   -49.2492 -49.2385 -48.9398 -48.9256 -48.9113 -27.9759 -27.9707 -27.9606
   -27.9425 -27.9388 -27.9350 -27.9321 -27.9262 -27.8632 -27.8475 -27.8361
   -27.8298 -27.8252 -27.8181 -27.7661 -27.7568 -27.6677 -27.6381 -27.6319
   -27.5608 -27.5311 -27.5215 -27.5027 -27.4835 -27.4711 -27.4667 -27.3750
    -3.9927  -3.9532  -3.9421  -3.8999  -3.8747  -3.8710  -3.8524  -3.8426
    -3.8297  -3.8072  -3.7742  -3.7488  -3.7172  -3.6936  -3.6000  -3.0341
    -3.0152  -2.0249  -1.8536  -1.0984  -0.7129  -0.6938  -0.0618   0.0140
     0.3407   0.3630   0.5430   0.7334   0.7427   0.7764   0.8269   0.9661
     1.0105   1.0702   1.0979   1.3849   1.4399   1.4685   1.4798   1.6082
     1.6411   1.8447   1.9241   2.0219   2.1240   2.1381   2.1914   2.2397
     2.4314   2.9273   2.9387   3.0000   3.0158   3.0305   3.1267   3.1409
     3.1745   3.2103   3.3234   3.4061

     the Fermi energy is     0.8512 ev

!    total energy              =   -1743.20587501 Ry
     Harris-Foulkes estimate   =   -1743.20587701 Ry
     estimated scf accuracy    <       0.00000038 Ry

     The total energy is the sum of the following terms:

     one-electron contribution =  -10736.07980104 Ry
     hartree contribution      =    5351.06720691 Ry
     xc contribution           =    -214.83335654 Ry
     ewald contribution        =    3856.77492405 Ry
     electric field correction =       0.00000134 Ry
     smearing contrib. (-TS)   =      -0.13484973 Ry

     convergence has been achieved in  18 iterations

 BEEF-vdW xc energy contributions
           1 :   -183.862233348495
           2 :    163.884684315040
           3 :   -131.864572782631
           4 :    99.0487637327513
           5 :   -74.1504509121522
           6 :    59.9935767364138
           7 :   -54.0956118710896
           8 :    51.8200311588203
           9 :   -49.5372036378818
          10 :    45.9966611719603
          11 :   -41.7804326156357
          12 :    37.9064831537066
          13 :   -34.8176809287513
          14 :    32.3001819457671
          15 :   -30.0159547014779
          16 :    27.9380821280100
          17 :   -26.2835207943553
          18 :    25.1342264058544
          19 :   -24.2318385737797
          20 :    23.1747166718062
          21 :   -21.7929077576478
          22 :    20.3024821769546
          23 :   -19.0913468593498
          24 :    18.3534584773546
          25 :   -17.9189302897578
          26 :    17.4240805796410
          27 :   -16.6512219307142
          28 :    15.7206936895271
          29 :   -14.9672396366963
          30 :    14.6247094173073
          31 :   -20.2303882081255
          32 :   -14.5872348098595

     Forces acting on atoms (Ry/au):

     negative rho (up, down):  8.491E-04 0.000E+00
     atom    1 type  1   force =    -0.00000374    0.00405502   -0.00213177
     atom    2 type  1   force =     0.00350966   -0.00202954   -0.00213157
     atom    3 type  1   force =    -0.00350976   -0.00202562   -0.00212835
     atom    4 type  2   force =     0.00000507    0.00001137    0.01594574
     atom    5 type  1   force =    -0.00000195   -0.00142149   -0.00179311
     atom    6 type  1   force =    -0.00123739    0.00072329   -0.00181165
     atom    7 type  1   force =     0.00123774    0.00072446   -0.00180962
     atom    8 type  2   force =     0.00000252    0.00000049   -0.00092178
     atom    9 type  1   force =     0.00000043   -0.00024798   -0.00090721
     atom   10 type  1   force =    -0.00016832    0.00010775   -0.00090390
     atom   11 type  1   force =     0.00016941    0.00010745   -0.00090647
     atom   12 type  2   force =    -0.00000369   -0.00000520   -0.00050031

     Total force =     0.018352     Total SCF correction =     0.003040
     SCF correction compared to forces is large: reduce conv_thr to get better values

     entering subroutine stress ...

     negative rho (up, down):  8.491E-04 0.000E+00
          total   stress  (Ry/bohr**3)                   (kbar)     P=   -3.67
  -0.00002912   0.00000000  -0.00000000         -4.28      0.00     -0.00
   0.00000000  -0.00002917  -0.00000000          0.00     -4.29     -0.00
  -0.00000000  -0.00000000  -0.00001650         -0.00     -0.00     -2.43

 !ASE

     Writing output data file calc.save

     General routines

     Parallel routines

   This run was terminated on:   6:29:46   1Jan2019

   JOB DONE.
Job  /afs/slac/g/suncat/bin/suncat-tsmpirun -x LD_LIBRARY_PATH -wdir /scratch/qe648948_XvxW9 pw.x -in pw.inp

TID   HOST_NAME   COMMAND_LINE            STATUS            TERMINATION_TIME
00000 suncat0041 pw.x -in pw.inp   Done                     01/01/2019 06:29:46
00001 suncat0041 pw.x -in pw.inp   Done                     01/01/2019 06:29:46
00002 suncat0041 pw.x -in pw.inp   Done                     01/01/2019 06:29:46
00003 suncat0041 pw.x -in pw.inp   Done                     01/01/2019 06:29:46
00004 suncat0041 pw.x -in pw.inp   Done                     01/01/2019 06:29:46
00005 suncat0041 pw.x -in pw.inp   Done                     01/01/2019 06:29:46
00006 suncat0041 pw.x -in pw.inp   Done                     01/01/2019 06:29:46
00007 suncat0041 pw.x -in pw.inp   Done                     01/01/2019 06:29:46
00008 suncat0039 pw.x -in pw.inp   Done                     01/01/2019 06:29:46
00009 suncat0039 pw.x -in pw.inp   Done                     01/01/2019 06:29:46
00010 suncat0039 pw.x -in pw.inp   Done                     01/01/2019 06:29:46
00011 suncat0039 pw.x -in pw.inp   Done                     01/01/2019 06:29:46
00012 suncat0039 pw.x -in pw.inp   Done                     01/01/2019 06:29:46
00013 suncat0039 pw.x -in pw.inp   Done                     01/01/2019 06:29:46
00014 suncat0039 pw.x -in pw.inp   Done                     01/01/2019 06:29:46
00015 suncat0039 pw.x -in pw.inp   Done                     01/01/2019 06:29:46
00016 suncat0139 pw.x -in pw.inp   Done                     01/01/2019 06:29:46
00017 suncat0139 pw.x -in pw.inp   Done                     01/01/2019 06:29:46
00018 suncat0139 pw.x -in pw.inp   Done                     01/01/2019 06:29:46
00019 suncat0139 pw.x -in pw.inp   Done                     01/01/2019 06:29:46
00020 suncat0139 pw.x -in pw.inp   Done                     01/01/2019 06:29:46
00021 suncat0139 pw.x -in pw.inp   Done                     01/01/2019 06:29:46
00022 suncat0139 pw.x -in pw.inp   Done                     01/01/2019 06:29:46
00023 suncat0139 pw.x -in pw.inp   Done                     01/01/2019 06:29:46
00024 suncat0133 pw.x -in pw.inp   Done                     01/01/2019 06:29:46
00025 suncat0133 pw.x -in pw.inp   Done                     01/01/2019 06:29:46
00026 suncat0133 pw.x -in pw.inp   Done                     01/01/2019 06:29:46
00027 suncat0133 pw.x -in pw.inp   Done                     01/01/2019 06:29:46
00028 suncat0133 pw.x -in pw.inp   Done                     01/01/2019 06:29:46
00029 suncat0133 pw.x -in pw.inp   Done                     01/01/2019 06:29:46
00030 suncat0133 pw.x -in pw.inp   Done                     01/01/2019 06:29:46
00031 suncat0133 pw.x -in pw.inp   Done                     01/01/2019 06:29:46
00032 suncat0123 pw.x -in pw.inp   Done                     01/01/2019 06:29:46
00033 suncat0123 pw.x -in pw.inp   Done                     01/01/2019 06:29:46
00034 suncat0123 pw.x -in pw.inp   Done                     01/01/2019 06:29:46
00035 suncat0123 pw.x -in pw.inp   Done                     01/01/2019 06:29:46
00036 suncat0123 pw.x -in pw.inp   Done                     01/01/2019 06:29:46
00037 suncat0123 pw.x -in pw.inp   Done                     01/01/2019 06:29:46
00038 suncat0123 pw.x -in pw.inp   Done                     01/01/2019 06:29:46
00039 suncat0123 pw.x -in pw.inp   Done                     01/01/2019 06:29:46
00040 suncat0122 pw.x -in pw.inp   Done                     01/01/2019 06:29:46
00041 suncat0122 pw.x -in pw.inp   Done                     01/01/2019 06:29:46
00042 suncat0122 pw.x -in pw.inp   Done                     01/01/2019 06:29:46
00043 suncat0122 pw.x -in pw.inp   Done                     01/01/2019 06:29:46
00044 suncat0122 pw.x -in pw.inp   Done                     01/01/2019 06:29:46
00045 suncat0122 pw.x -in pw.inp   Done                     01/01/2019 06:29:46
00046 suncat0122 pw.x -in pw.inp   Done                     01/01/2019 06:29:46
00047 suncat0122 pw.x -in pw.inp   Done                     01/01/2019 06:29:46
00048 suncat0207 pw.x -in pw.inp   Done                     01/01/2019 06:29:46
00049 suncat0207 pw.x -in pw.inp   Done                     01/01/2019 06:29:46
00050 suncat0207 pw.x -in pw.inp   Done                     01/01/2019 06:29:46
00051 suncat0207 pw.x -in pw.inp   Done                     01/01/2019 06:29:46
00052 suncat0207 pw.x -in pw.inp   Done                     01/01/2019 06:29:46
00053 suncat0207 pw.x -in pw.inp   Done                     01/01/2019 06:29:46
00054 suncat0207 pw.x -in pw.inp   Done                     01/01/2019 06:29:46
00055 suncat0207 pw.x -in pw.inp   Done                     01/01/2019 06:29:46
00056 suncat0206 pw.x -in pw.inp   Done                     01/01/2019 06:29:46
00057 suncat0206 pw.x -in pw.inp   Done                     01/01/2019 06:29:46
00058 suncat0206 pw.x -in pw.inp   Done                     01/01/2019 06:29:46
00059 suncat0206 pw.x -in pw.inp   Done                     01/01/2019 06:29:46
00060 suncat0206 pw.x -in pw.inp   Done                     01/01/2019 06:29:46
00061 suncat0206 pw.x -in pw.inp   Done                     01/01/2019 06:29:46
00062 suncat0206 pw.x -in pw.inp   Done                     01/01/2019 06:29:46
00063 suncat0206 pw.x -in pw.inp   Done                     01/01/2019 06:29:46