     Program PWSCF v.5.1rc2 (svn rev. 11289) starts on 27Dec2018 at 19:42:37

     Current dimensions of program PWSCF are:
     Max number of different atomic species (ntypx) = 10
     Max number of k-points (npk) =  40000
     Max angular momentum in pseudopotentials (lmaxx) =  3
     Presently stress not available with electric field

     IMPORTANT: XC functional enforced from input :
     Exchange-correlation      = BEEF-VDW ( 1  4 27 13 2)
     Any further DFT definition will be discarded
     Please, verify this is what you really want

     Subspace diagonalization in iterative solution of the eigenvalue problem:
     a serial algorithm will be used

     bravais-lattice index     =            0
     lattice parameter (alat)  =       1.8897  a.u.
     unit-cell volume          =    4569.2182 (a.u.)^3
     number of atoms/cell      =           12
     number of atomic types    =            2
     number of electrons       =       174.00
     number of Kohn-Sham states=          117
     kinetic-energy cutoff     =      36.7493  Ry
     charge density cutoff     =     367.4932  Ry
     convergence threshold     =      1.0E-06
     mixing beta               =       0.1000
     number of iterations used =           10  plain     mixing
     Exchange-correlation      = BEEF-VDW ( 1  4 27 13 2)
     nstep                     =           50

     celldm(1)=   1.889726  celldm(2)=   0.000000  celldm(3)=   0.000000
     celldm(4)=   0.000000  celldm(5)=   0.000000  celldm(6)=   0.000000

     crystal axes: (cart. coord. in units of alat)
               a(1) = (   5.637224   0.000000   0.000000 )
               a(2) = (  -2.818612   4.881979   0.000000 )
               a(3) = (   0.000000   0.000000  24.602774 )

     reciprocal axes: (cart. coord. in units 2 pi/alat)
               b(1) = (  0.177392  0.102417  0.000000 )
               b(2) = (  0.000000  0.204835  0.000000 )
               b(3) = (  0.000000  0.000000  0.040646 )

     PseudoPot. # 1 for Re read from file:
     /afs/slac.stanford.edu/u/if/mamunm/psp/gbrv1.5pbe/Re.UPF
     MD5 check sum: 85f993410f3e006da9d71c142b4ad953
     Pseudo is Ultrasoft + core correction, Zval = 15.0
     Generated by new atomic code, or converted to UPF format
     Using radial grid of  981 points,  8 beta functions with:
                l(1) =   0
                l(2) =   0
                l(3) =   1
                l(4) =   1
                l(5) =   2
                l(6) =   2
                l(7) =   3
                l(8) =   3
     Q(r) pseudized with  8 coefficients,  rinner =    1.150   1.150   1.150
                                                       1.150   1.150   1.150
                                                       1.150

     PseudoPot. # 2 for Ta read from file:
     /afs/slac.stanford.edu/u/if/mamunm/psp/gbrv1.5pbe/Ta.UPF
     MD5 check sum: f8bbe9446314a3b8ea5d9f3e3836c939
     Pseudo is Ultrasoft + core correction, Zval = 13.0
     Generated by new atomic code, or converted to UPF format
     Using radial grid of  921 points,  7 beta functions with:
                l(1) =   0
                l(2) =   0
                l(3) =   1
                l(4) =   1
                l(5) =   2
                l(6) =   2
                l(7) =   3
     Q(r) pseudized with  6 coefficients,  rinner =    1.300   1.300   1.300
                                                       1.300   1.300   1.300
                                                       1.300

     vdW kernel table read from file vdW_kernel_table
     MD5 check sum: 095c7af220d748ca6e76c0b4c6cfb241

     atomic species   valence    mass     pseudopotential
        Re1           15.00   186.20700     Re( 1.00)
        Ta1           13.00   180.94788     Ta( 1.00)

     No symmetry found

   Cartesian axes

     site n.     atom                  positions (alat units)
         1           Re1 tau(   1) = (   0.0000000   0.0000000  10.0000000  )
         2           Re1 tau(   2) = (  -1.4093060   2.4409896  10.0000000  )
         3           Re1 tau(   3) = (   1.4093060   2.4409896  10.0000000  )
         4           Ta1 tau(   4) = (   2.8186120   0.0000000  10.0000000  )
         5           Re1 tau(   5) = (   2.8186120   1.6273264  12.3013871  )
         6           Re1 tau(   6) = (   1.4093060   4.0683160  12.3013871  )
         7           Re1 tau(   7) = (  -1.4093060   4.0683160  12.3013871  )
         8           Ta1 tau(   8) = (   0.0000000   1.6273264  12.3013871  )
         9           Re1 tau(   9) = (  -0.0000000   3.2546528  14.6027741  )
        10           Re1 tau(  10) = (   1.4093060   0.8136632  14.6027741  )
        11           Re1 tau(  11) = (   4.2279180   0.8136632  14.6027741  )
        12           Ta1 tau(  12) = (   2.8186120   3.2546528  14.6027741  )

     number of k points=    20  Fermi-Dirac smearing, width (Ry)=  0.0110
                       cart. coord. in units 2pi/alat
        k(    1) = (   0.0000000   0.0000000   0.0000000), wk =   0.0555556
        k(    2) = (   0.0000000   0.0341392   0.0000000), wk =   0.1111111
        k(    3) = (   0.0000000   0.0682783   0.0000000), wk =   0.1111111
        k(    4) = (   0.0000000  -0.1024175   0.0000000), wk =   0.0555556
        k(    5) = (   0.0295654   0.0170696   0.0000000), wk =   0.1111111
        k(    6) = (   0.0295654   0.0512087   0.0000000), wk =   0.1111111
        k(    7) = (   0.0295654   0.0853479   0.0000000), wk =   0.1111111
        k(    8) = (   0.0295654  -0.0853479   0.0000000), wk =   0.1111111
        k(    9) = (   0.0295654  -0.0512087   0.0000000), wk =   0.1111111
        k(   10) = (   0.0295654  -0.0170696   0.0000000), wk =   0.1111111
        k(   11) = (   0.0591308   0.0341392   0.0000000), wk =   0.1111111
        k(   12) = (   0.0591308   0.0682783   0.0000000), wk =   0.1111111
        k(   13) = (   0.0591308   0.1024175   0.0000000), wk =   0.1111111
        k(   14) = (   0.0591308  -0.0682783   0.0000000), wk =   0.1111111
        k(   15) = (   0.0591308  -0.0341392   0.0000000), wk =   0.1111111
        k(   16) = (   0.0591308   0.0000000   0.0000000), wk =   0.1111111
        k(   17) = (  -0.0886961  -0.0512087   0.0000000), wk =   0.0555556
        k(   18) = (  -0.0886961  -0.0170696   0.0000000), wk =   0.1111111
        k(   19) = (  -0.0886961   0.0170696   0.0000000), wk =   0.1111111
        k(   20) = (  -0.0886961  -0.1536262   0.0000000), wk =   0.0555556

     Largest allocated arrays     est. size (Mb)     dimensions
     Largest temporary arrays     est. size (Mb)     dimensions

     Initial potential from superposition of free atoms
     Check: negative starting charge=   -1.425507

     starting charge  169.49626, renormalised to  174.00000

     negative rho (up, down):  1.463E+00 0.000E+00

     *
     * You are using vdW-DF for exchange-correlation in this calculation.
     * Please cite the following three references that made this development
     * possible:
     *
     *   M. Dion, H. Rydberg, E. Schroder, D. C. Langreth, and
     *   B. I. Lundqvist, Phys. Rev. Lett. 92, 246401 (2004).
     *
     *   T. Thonhauser, V. R. Cooper, S. Li, A. Puzder, P. Hyldgaard, and
     *   D. C. Langreth, Phys. Rev. B 76, 125112 (2007).
     *
     *   G. Roman-Perez and J. M. Soler, Phys. Rev. Lett. 103, 096102 (2009).
     *
     *
     * If you are using vdW-DF2, please also cite:
     *
     *   K. Lee, E. D. Murray, L. Kong, B. I. Lundqvist, and
     *   D. C. Langreth, Phys. Rev. B 82, 081101(R) (2010).
     *
     *
     * If you are calculating the stress with vdW-DF, please also cite:
     *
     *   R. Sabatini, E. Kucukbenli, B. Kolb, T. Thonhauser, and
     *   S. de Gironcoli, J. Phys.: Condens. Matter 24, 424209 (2012).
     *

     Carrying out vdW-DF run using the following parameters:

     Nqs =      20    Nr_points =    1024   r_max =   100.000
     q_mesh =
               0.00001000     0.04494208     0.09755937     0.15916263
               0.23128650     0.31572767     0.41458969     0.53033537
               0.66584808     0.82450364     1.01025438     1.22772762
               1.48234092     1.78043706     2.12944203     2.53805004
               3.01644009     3.57652955     4.23227104     5.00000000

     Gradients computed in reciprocal space

     Adding external electric field

     Computed dipole along edir(3) :
        Dipole                0.0000 Ry au,          0.0000 Debye
        Dipole field          0.0000 Ry au

        Potential amp.       -0.0000 Ry
        Total length         45.3302 bohr

     Starting wfc are  156 randomized atomic wfcs

     Self-consistent Calculation

     iteration #  1     ecut=    36.75 Ry     beta=0.10
     Davidson diagonalization with overlap
     ethr =  1.00E-02,  avg # of iterations =  2.1

[...]

     total energy              =   -2159.16980382 Ry
     Harris-Foulkes estimate   =   -2159.47332212 Ry
     estimated scf accuracy    <       2.07518495 Ry

[...]

     End of self-consistent calculation

          k = 0.0000 0.0000 0.0000 ( 17219 PWs)   bands (ev):

   -77.7755 -77.7321 -77.7321 -77.6715 -77.6679 -77.6314 -77.6314 -77.6305
   -77.6305 -65.6565 -65.6563 -65.3693 -39.8838 -39.7151 -39.7151 -39.6865
   -39.6659 -39.6209 -39.5776 -39.5776 -39.4660 -39.4288 -39.4288 -39.3926
   -39.3926 -39.3488 -39.3488 -39.3290 -39.2404 -39.2263 -39.2263 -39.1638
   -39.1638 -39.0905 -39.0665 -39.0259 -39.0259 -39.0219 -39.0219 -32.1279
   -32.1043 -31.9133 -31.9133 -31.9074 -31.9074 -31.7588 -31.7588 -31.7309
    -5.8943  -4.0844  -3.3530  -2.8453  -2.8453  -2.8256  -2.6042  -2.6042
    -2.5364  -1.8693  -1.8618  -1.8618  -1.8088  -1.7847  -1.7847  -0.4556
    -0.2699  -0.2699   0.6414   0.6414   0.6975   0.7604   1.0828   1.5100
     1.5184   1.5184   1.5488   1.5488   1.8262   1.8262   1.9682   2.1095
     2.1095   2.1489   2.1489   2.2638   3.0629   3.0946   3.0946   3.3011
     3.3561   3.7191   3.7191   4.1597   4.1597   4.3628   4.4384   4.4384
     4.7205   4.7206   5.3292   5.3364   5.3364   5.6786   6.2568   6.3607
     6.3607   6.5622   6.6735   6.6776   6.6776   6.7789   6.7789   6.8685
     6.9210   7.1331   7.3571   7.3571   7.6545

[...]

          k =-0.0887-0.0512 0.0000 ( 17232 PWs)   bands (ev):

[...]

     the Fermi energy is     2.5483 ev

!    total energy              =   -2158.91374795 Ry
     Harris-Foulkes estimate   =   -2158.91374830 Ry
     estimated scf accuracy    <       0.00000063 Ry

     The total energy is the sum of the following terms:

     one-electron contribution =  -16176.41409058 Ry
     hartree contribution      =    8072.52527937 Ry
     xc contribution           =    -617.42543781 Ry
     ewald contribution        =    6562.48119776 Ry
     electric field correction =       0.00000002 Ry
     smearing contrib. (-TS)   =      -0.08069671 Ry

     convergence has been achieved in  17 iterations

 BEEF-vdW xc energy contributions
           1 :   -547.514811904504
           2 :    508.225588846208
           3 :   -438.067889611779
           4 :    350.970595527648
           5 :   -262.024275727127
           6 :    183.402525743254
           7 :   -121.859733730651
           8 :    78.3777985761092
[...]
     Using radial grid of  981 points,  8 beta functions with:
                l(1) =   0
                l(2) =   0
                l(3) =   1
                l(4) =   1
                l(5) =   2
                l(6) =   2
                l(7) =   3
                l(8) =   3
     Q(r) pseudized with  8 coefficients,  rinner =    1.150   1.150   1.150
                                                       1.150   1.150   1.150
                                                       1.150

     PseudoPot. # 2 for Ta read from file:
     /afs/slac.stanford.edu/u/if/mamunm/psp/gbrv1.5pbe/Ta.UPF
     MD5 check sum: f8bbe9446314a3b8ea5d9f3e3836c939
     Pseudo is Ultrasoft + core correction, Zval = 13.0
     Generated by new atomic code, or converted to UPF format
     Using radial grid of  921 points,  7 beta functions with:
                l(1) =   0
                l(2) =   0
                l(3) =   1
                l(4) =   1
                l(5) =   2
                l(6) =   2
                l(7) =   3
     Q(r) pseudized with  6 coefficients,  rinner =    1.300   1.300   1.300
                                                       1.300   1.300   1.300
                                                       1.300

     vdW kernel table read from file vdW_kernel_table
     MD5 check sum: 095c7af220d748ca6e76c0b4c6cfb241

     atomic species   valence    mass     pseudopotential
        Re1           15.00   186.20700     Re( 1.00)
        Ta1           13.00   180.94788     Ta( 1.00)

     No symmetry found

   Cartesian axes

     site n.     atom                  positions (alat units)
         1           Re1 tau(   1) = (   0.0000000   0.0000000  10.0000000  )
         2           Re1 tau(   2) = (  -1.4093060   2.4409896  10.0000000  )
         3           Re1 tau(   3) = (   1.4093060   2.4409896  10.0000000  )
         4           Ta1 tau(   4) = (   2.8186120   0.0000000  10.0000000  )
         5           Re1 tau(   5) = (   2.8186120   1.6273264  12.3013871  )
         6           Re1 tau(   6) = (   1.4093060   4.0683160  12.3013871  )
         7           Re1 tau(   7) = (  -1.4093060   4.0683160  12.3013871  )
         8           Ta1 tau(   8) = (   0.0000000   1.6273264  12.3013871  )
         9           Re1 tau(   9) = (  -0.0000119   3.2820403  14.5105716  )
        10           Re1 tau(  10) = (   1.4330344   0.7999568  14.5105711  )
        11           Re1 tau(  11) = (   4.2042008   0.7999774  14.5105705  )
        12           Ta1 tau(  12) = (   2.8186096   3.2546442  14.5718660  )

     number of k points=    20  Fermi-Dirac smearing, width (Ry)=  0.0110
                       cart. coord. in units 2pi/alat
        k(    1) = (   0.0000000   0.0000000   0.0000000), wk =   0.0555556
        k(    2) = (   0.0000000   0.0341392   0.0000000), wk =   0.1111111
        k(    3) = (   0.0000000   0.0682783   0.0000000), wk =   0.1111111
        k(    4) = (   0.0000000  -0.1024175   0.0000000), wk =   0.0555556
        k(    5) = (   0.0295654   0.0170696   0.0000000), wk =   0.1111111
        k(    6) = (   0.0295654   0.0512087   0.0000000), wk =   0.1111111
        k(    7) = (   0.0295654   0.0853479   0.0000000), wk =   0.1111111
        k(    8) = (   0.0295654  -0.0853479   0.0000000), wk =   0.1111111
        k(    9) = (   0.0295654  -0.0512087   0.0000000), wk =   0.1111111
        k(   10) = (   0.0295654  -0.0170696   0.0000000), wk =   0.1111111
        k(   11) = (   0.0591308   0.0341392   0.0000000), wk =   0.1111111
        k(   12) = (   0.0591308   0.0682783   0.0000000), wk =   0.1111111
        k(   13) = (   0.0591308   0.1024175   0.0000000), wk =   0.1111111
        k(   14) = (   0.0591308  -0.0682783   0.0000000), wk =   0.1111111
        k(   15) = (   0.0591308  -0.0341392   0.0000000), wk =   0.1111111
        k(   16) = (   0.0591308   0.0000000   0.0000000), wk =   0.1111111
        k(   17) = (  -0.0886961  -0.0512087   0.0000000), wk =   0.0555556
        k(   18) = (  -0.0886961  -0.0170696   0.0000000), wk =   0.1111111
        k(   19) = (  -0.0886961   0.0170696   0.0000000), wk =   0.1111111
        k(   20) = (  -0.0886961  -0.1536262   0.0000000), wk =   0.0555556

     Largest allocated arrays     est. size (Mb)     dimensions
     Largest temporary arrays     est. size (Mb)     dimensions

     Initial potential from superposition of free atoms
     Check: negative starting charge=   -1.431648

     starting charge  169.49626, renormalised to  174.00000

[...]

     *
     * You are using vdW-DF for exchange-correlation in this calculation.
     * Please cite the following three references that made this development
     * possible:
     *
     *   M. Dion, H. Rydberg, E. Schroder, D. C. Langreth, and
     *   B. I. Lundqvist, Phys. Rev. Lett. 92, 246401 (2004).
     *
     *   T. Thonhauser, V. R. Cooper, S. Li, A. Puzder, P. Hyldgaard, and
     *   D. C. Langreth, Phys. Rev. B 76, 125112 (2007).
     *
     *   G. Roman-Perez and J. M. Soler, Phys. Rev. Lett. 103, 096102 (2009).
     *
     *
     * If you are using vdW-DF2, please also cite:
     *
     *   K. Lee, E. D. Murray, L. Kong, B. I. Lundqvist, and
     *   D. C. Langreth, Phys. Rev. B 82, 081101(R) (2010).
     *
     *
     * If you are calculating the stress with vdW-DF, please also cite:
     *
     *   R. Sabatini, E. Kucukbenli, B. Kolb, T. Thonhauser, and
     *   S. de Gironcoli, J. Phys.: Condens. Matter 24, 424209 (2012).
     *

     Carrying out vdW-DF run using the following parameters:

     Nqs =      20    Nr_points =    1024   r_max =   100.000
     q_mesh =
               0.00001000     0.04494208     0.09755937     0.15916263
               0.23128650     0.31572767     0.41458969     0.53033537
               0.66584808     0.82450364     1.01025438     1.22772762
               1.48234092     1.78043706     2.12944203     2.53805004
               3.01644009     3.57652955     4.23227104     5.00000000

     Gradients computed in reciprocal space

[...]

     Starting wfc are  156 randomized atomic wfcs

     Self-consistent Calculation

[...]

     total energy              =   -2158.93628121 Ry
     Harris-Foulkes estimate   =   -2158.93628222 Ry
     estimated scf accuracy    <       0.00000184 Ry

     iteration # 16     ecut=    36.75 Ry     beta=0.10
     Davidson diagonalization with overlap
     ethr =  1.06E-09,  avg # of iterations =  2.0

[...]

     negative rho (up, down):  1.490E+00 0.000E+00

     Adding external electric field

     Computed dipole along edir(3) :
        Dipole                0.0267 Ry au,          0.0679 Debye
        Dipole field          0.0001 Ry au

        Potential amp.       -0.0067 Ry
        Total length         45.3302 bohr

     End of self-consistent calculation

[...]

          k = 0.0591 0.0000 0.0000 ( 17178 PWs)   bands (ev):

[...]

          k =-0.0887-0.1536 0.0000 ( 17232 PWs)   bands (ev):

   -77.6989 -77.6848 -77.6690 -77.6402 -77.6284 -77.6155 -77.5446 -77.5300
   -77.5176 -65.6353 -65.5661 -65.2306 -39.7466 -39.6543 -39.6021 -39.5572
   -39.5330 -39.5034 -39.4877 -39.4335 -39.4274 -39.3816 -39.3700 -39.3188
   -39.2975 -39.2820 -39.2770 -39.2355 -39.2347 -39.2198 -39.1829 -39.1689
   -39.1520 -39.1139 -39.1061 -39.0910 -39.0678 -39.0201 -38.9399 -32.0969
   -32.0379 -31.9235 -31.9005 -31.8668 -31.8432 -31.6792 -31.6552 -31.5993
    -4.0150  -3.9020  -2.4307  -2.4021  -1.8628  -1.8053  -1.7393  -1.7138
    -1.6020  -1.5800  -0.9985  -0.8206  -0.7680  -0.5660  -0.4651  -0.3537
    -0.2694  -0.1233   0.0080   0.1372   0.2202   0.4643   0.7287   0.8983
     0.9638   1.0336   1.0485   1.1120   1.1381   1.1676   1.3657   1.4654
     1.5070   1.6134   1.8418   1.8965   2.0209   2.2107   2.2317   2.4206
     2.7495   2.8633   2.9521   3.3335   3.3459   3.4597   3.6213   3.7199
     3.8893   4.2133   4.2379   4.3312   4.4805   4.6992   4.8630   5.1401
     5.3777   5.3943   5.6046   5.8544   6.1235   6.4400   6.5513   6.8127
     6.9485   7.4754   7.8889   7.9537   8.0988

     the Fermi energy is     2.5804 ev

!    total energy              =   -2158.93627536 Ry
     Harris-Foulkes estimate   =   -2158.93628138 Ry
     estimated scf accuracy    <       0.00000049 Ry

     The total energy is the sum of the following terms:

     one-electron contribution =  -16360.10841381 Ry
     hartree contribution      =    8164.73468269 Ry
     xc contribution           =    -617.65917676 Ry
     ewald contribution        =    6654.17523350 Ry
     electric field correction =       0.00000196 Ry
     smearing contrib. (-TS)   =      -0.07860295 Ry

     convergence has been achieved in  16 iterations

 BEEF-vdW xc energy contributions
           1 :   -548.177705505498
           2 :    508.955658802497
           3 :   -438.887421651413
           4 :    351.836956192822
           5 :   -262.845590832275
           6 :    184.082798322719
           7 :   -122.350695547101
           8 :    78.7094001011203
           9 :   -49.9549636469976
          10 :    31.0422978168974
          11 :   -17.3776770887498
          12 :    6.18793080920659
          13 :    3.27930838301734
          14 :   -10.4594574248179
          15 :    14.5276494279303
          16 :   -15.2615501101411
          17 :    13.3771784297110
          18 :   -10.3028942695944
          19 :    7.59864636077316
          20 :   -6.34804386623216
          21 :    6.81066421651406
          22 :   -8.45974073247044
          23 :    10.3350840036144
          24 :   -11.5150503681772
          25 :    11.4920222888650
          26 :   -10.3146572776388
          27 :    8.47705595424111
          28 :   -6.64241294449039
          29 :    5.34306493481358
          30 :   -4.78707351660330
          31 :   -46.1873593606717
          32 :   -34.2573065304748

     Forces acting on atoms (Ry/au):

     negative rho (up, down):  1.490E+00 0.000E+00
     atom    1 type  1   force =     0.00000014   -0.01183282    0.02223733
     atom    2 type  1   force =    -0.01024782    0.00591651    0.02223555
     atom    3 type  1   force =     0.01024750    0.00591766    0.02223666
     atom    4 type  2   force =    -0.00000054    0.00000021    0.01004789
     atom    5 type  1   force =     0.00000136    0.00303140   -0.01635368
     atom    6 type  1   force =     0.00262650   -0.00151532   -0.01635445
     atom    7 type  1   force =    -0.00262553   -0.00151751   -0.01635571
     atom    8 type  2   force =     0.00000039   -0.00000027   -0.02774178
     atom    9 type  1   force =     0.00000292    0.00001844   -0.00018374
     atom   10 type  1   force =     0.00001485   -0.00000867   -0.00018293
     atom   11 type  1   force =    -0.00001473   -0.00001289   -0.00018272
     atom   12 type  2   force =    -0.00000505    0.00000326    0.00059757

     Total force =     0.060037     Total SCF correction =     0.002057

     entering subroutine stress ...

     negative rho (up, down):  1.490E+00 0.000E+00
          total   stress  (Ry/bohr**3)                   (kbar)     P=  -36.32
  -0.00031641  -0.00000000  -0.00000000        -46.55     -0.00     -0.00
  -0.00000000  -0.00031641   0.00000000         -0.00    -46.55      0.00
  -0.00000000   0.00000000  -0.00010797         -0.00      0.00    -15.88

 !ASE

     Writing output data file calc.save

     General routines

     Parallel routines

   This run was terminated on:  20:44: 8  27Dec2018

   JOB DONE.
Job  /afs/slac/g/suncat/bin/suncat-tsmpirun -x LD_LIBRARY_PATH -wdir /scratch/qe110644_xIWUB pw.x -in pw.inp

TID   HOST_NAME   COMMAND_LINE            STATUS            TERMINATION_TIME
00000 suncat0085 pw.x -in pw.inp   Done                     12/27/2018 20:44:08
00001 suncat0085 pw.x -in pw.inp   Done                     12/27/2018 20:44:08
00002 suncat0085 pw.x -in pw.inp   Done                     12/27/2018 20:44:08
00003 suncat0085 pw.x -in pw.inp   Done                     12/27/2018 20:44:08
00004 suncat0085 pw.x -in pw.inp   Done                     12/27/2018 20:44:08
00005 suncat0085 pw.x -in pw.inp   Done                     12/27/2018 20:44:08
00006 suncat0085 pw.x -in pw.inp   Done                     12/27/2018 20:44:08
00007 suncat0085 pw.x -in pw.inp   Done                     12/27/2018 20:44:08
00008 suncat0084 pw.x -in pw.inp   Done                     12/27/2018 20:44:08
00009 suncat0084 pw.x -in pw.inp   Done                     12/27/2018 20:44:08
00010 suncat0084 pw.x -in pw.inp   Done                     12/27/2018 20:44:08
00011 suncat0084 pw.x -in pw.inp   Done                     12/27/2018 20:44:08
00012 suncat0084 pw.x -in pw.inp   Done                     12/27/2018 20:44:08
00013 suncat0084 pw.x -in pw.inp   Done                     12/27/2018 20:44:08
00014 suncat0084 pw.x -in pw.inp   Done                     12/27/2018 20:44:08
00015 suncat0084 pw.x -in pw.inp   Done                     12/27/2018 20:44:08
00016 suncat0083 pw.x -in pw.inp   Done                     12/27/2018 20:44:08
00017 suncat0083 pw.x -in pw.inp   Done                     12/27/2018 20:44:08
00018 suncat0083 pw.x -in pw.inp   Done                     12/27/2018 20:44:08
00019 suncat0083 pw.x -in pw.inp   Done                     12/27/2018 20:44:08
00020 suncat0083 pw.x -in pw.inp   Done                     12/27/2018 20:44:08
00021 suncat0083 pw.x -in pw.inp   Done                     12/27/2018 20:44:08
00022 suncat0083 pw.x -in pw.inp   Done                     12/27/2018 20:44:08
00023 suncat0083 pw.x -in pw.inp   Done                     12/27/2018 20:44:08
00024 suncat0081 pw.x -in pw.inp   Done                     12/27/2018 20:44:08
00025 suncat0081 pw.x -in pw.inp   Done                     12/27/2018 20:44:08
00026 suncat0081 pw.x -in pw.inp   Done                     12/27/2018 20:44:08
00027 suncat0081 pw.x -in pw.inp   Done                     12/27/2018 20:44:08
00028 suncat0081 pw.x -in pw.inp   Done                     12/27/2018 20:44:08
00029 suncat0081 pw.x -in pw.inp   Done                     12/27/2018 20:44:08
00030 suncat0081 pw.x -in pw.inp   Done                     12/27/2018 20:44:08
00031 suncat0081 pw.x -in pw.inp   Done                     12/27/2018 20:44:08
00032 suncat0073 pw.x -in pw.inp   Done                     12/27/2018 20:44:08
00033 suncat0073 pw.x -in pw.inp   Done                     12/27/2018 20:44:08
00034 suncat0073 pw.x -in pw.inp   Done                     12/27/2018 20:44:08
00035 suncat0073 pw.x -in pw.inp   Done                     12/27/2018 20:44:08
00036 suncat0073 pw.x -in pw.inp   Done                     12/27/2018 20:44:08
00037 suncat0073 pw.x -in pw.inp   Done                     12/27/2018 20:44:08
00038 suncat0073 pw.x -in pw.inp   Done                     12/27/2018 20:44:08
00039 suncat0073 pw.x -in pw.inp   Done                     12/27/2018 20:44:08
00040 suncat0244 pw.x -in pw.inp   Done                     12/27/2018 20:44:08
00041 suncat0244 pw.x -in pw.inp   Done                     12/27/2018 20:44:08
00042 suncat0244 pw.x -in pw.inp   Done                     12/27/2018 20:44:08
00043 suncat0244 pw.x -in pw.inp   Done                     12/27/2018 20:44:08
00044 suncat0244 pw.x -in pw.inp   Done                     12/27/2018 20:44:08
00045 suncat0244 pw.x -in pw.inp   Done                     12/27/2018 20:44:08
00046 suncat0244 pw.x -in pw.inp   Done                     12/27/2018 20:44:08
00047 suncat0244 pw.x -in pw.inp   Done                     12/27/2018 20:44:08
00048 suncat0243 pw.x -in pw.inp   Done                     12/27/2018 20:44:08
00049 suncat0243 pw.x -in pw.inp   Done                     12/27/2018 20:44:08
00050 suncat0243 pw.x -in pw.inp   Done                     12/27/2018 20:44:08
00051 suncat0243 pw.x -in pw.inp   Done                     12/27/2018 20:44:08
00052 suncat0243 pw.x -in pw.inp   Done                     12/27/2018 20:44:08
00053 suncat0243 pw.x -in pw.inp   Done                     12/27/2018 20:44:08
00054 suncat0243 pw.x -in pw.inp   Done                     12/27/2018 20:44:08
00055 suncat0243 pw.x -in pw.inp   Done                     12/27/2018 20:44:08
00056 suncat0242 pw.x -in pw.inp   Done                     12/27/2018 20:44:08
00057 suncat0242 pw.x -in pw.inp   Done                     12/27/2018 20:44:08
00058 suncat0242 pw.x -in pw.inp   Done                     12/27/2018 20:44:08
00059 suncat0242 pw.x -in pw.inp   Done                     12/27/2018 20:44:08
00060 suncat0242 pw.x -in pw.inp   Done                     12/27/2018 20:44:08
00061 suncat0242 pw.x -in pw.inp   Done                     12/27/2018 20:44:08
00062 suncat0242 pw.x -in pw.inp   Done                     12/27/2018 20:44:08
00063 suncat0242 pw.x -in pw.inp   Done                     12/27/2018 20:44:08