     Program PWSCF v.5.1rc2 (svn rev. 11289) starts on 25Dec2018 at 18:26:29

     Current dimensions of program PWSCF are:
     Max number of different atomic species (ntypx) = 10
     Max number of k-points (npk) =  40000
     Max angular momentum in pseudopotentials (lmaxx) =  3
     Presently stress not available with electric field

     IMPORTANT: XC functional enforced from input :
     Exchange-correlation      = BEEF-VDW ( 1  4 27 13 2)
     Any further DFT definition will be discarded
     Please, verify this is what you really want

     Subspace diagonalization in iterative solution of the eigenvalue problem:
     a serial algorithm will be used

     bravais-lattice index     =            0
     lattice parameter (alat)  =       1.8897  a.u.
     unit-cell volume          =    3959.2639 (a.u.)^3
     number of atoms/cell      =           12
     number of atomic types    =            2
     number of electrons       =       216.00
     number of Kohn-Sham states=          138
     kinetic-energy cutoff     =      36.7493  Ry
     charge density cutoff     =     367.4932  Ry
     convergence threshold     =      1.0E-06
     mixing beta               =       0.1000
     number of iterations used =           10  plain     mixing
     Exchange-correlation      = BEEF-VDW ( 1  4 27 13 2)
     nstep                     =           50

     celldm(1)=   1.889726  celldm(2)=   0.000000  celldm(3)=   0.000000
     celldm(4)=   0.000000  celldm(5)=   0.000000  celldm(6)=   0.000000

     crystal axes: (cart. coord. in units of alat)
               a(1) = (   5.278966   0.000000   0.000000 )
               a(2) = (  -2.639483   4.571718   0.000000 )
               a(3) = (   0.000000   0.000000  24.310257 )

     reciprocal axes: (cart. coord. in units 2 pi/alat)
               b(1) = (  0.189431  0.109368  0.000000 )
               b(2) = (  0.000000  0.218736  0.000000 )
               b(3) = (  0.000000  0.000000  0.041135 )

     PseudoPot. # 1 for Cu read from file:
     /afs/slac.stanford.edu/u/if/mamunm/psp/gbrv1.5pbe/Cu.UPF
     MD5 check sum: 6e991ff952a84172a2a52a1c1e996048
     Pseudo is Ultrasoft + core correction, Zval = 19.0
     Generated by new atomic code, or converted to UPF format
     Using radial grid of  867 points,  6 beta functions with:
                l(1) =   0
                l(2) =   0
                l(3) =   1
                l(4) =   1
                l(5) =   2
                l(6) =   2
     Q(r) pseudized with  8 coefficients,  rinner =    1.150   1.150   1.150
                                                       1.150   1.150

     PseudoPot. # 2 for Tc read from file:
     /afs/slac.stanford.edu/u/if/mamunm/psp/gbrv1.5pbe/Tc.UPF
     MD5 check sum: 9eb49e5b028550b2339a02317eb7b844
     Pseudo is Ultrasoft + core correction, Zval = 15.0
     Generated by new atomic code, or converted to UPF format
     Using radial grid of  965 points,  6 beta functions with:
                l(1) =   0
                l(2) =   0
                l(3) =   1
                l(4) =   1
                l(5) =   2
                l(6) =   2
     Q(r) pseudized with  8 coefficients,  rinner =    1.300   1.300   1.300
                                                       1.300   1.300

     vdW kernel table read from file vdW_kernel_table
     MD5 check sum: 095c7af220d748ca6e76c0b4c6cfb241

     atomic species   valence    mass     pseudopotential
        Cu1           19.00    63.54600     Cu( 1.00)
        Tc1           15.00    97.90721     Tc( 1.00)

     No symmetry found

   Cartesian axes

     site n.     atom                  positions (alat units)
         1           Cu1 tau(   1) = (   0.0000000   0.0000000  10.0000000  )
         2           Cu1 tau(   2) = (  -1.3197414   2.2858591  10.0000000  )
         3           Cu1 tau(   3) = (   1.3197414   2.2858591  10.0000000  )
         4           Tc1 tau(   4) = (   2.6394828   0.0000000  10.0000000  )
         5           Cu1 tau(   5) = (   2.6394828   1.5239061  12.1551287  )
         6           Cu1 tau(   6) = (   1.3197414   3.8097652  12.1551287  )
         7           Cu1 tau(   7) = (  -1.3197414   3.8097652  12.1551287  )
         8           Tc1 tau(   8) = (   0.0000000   1.5239061  12.1551287  )
         9           Cu1 tau(   9) = (  -0.0000000   3.0478122  14.3102573  )
        10           Cu1 tau(  10) = (   1.3197414   0.7619530  14.3102573  )
        11           Cu1 tau(  11) = (   3.9592242   0.7619530  14.3102573  )
        12           Tc1 tau(  12) = (   2.6394828   3.0478122  14.3102573  )

     number of k points=    20  Fermi-Dirac smearing, width (Ry)=  0.0110
                       cart. coord. in units 2pi/alat
        k(    1) = (   0.0000000   0.0000000   0.0000000), wk =   0.0555556
        k(    2) = (   0.0000000   0.0364560   0.0000000), wk =   0.1111111
        k(    3) = (   0.0000000   0.0729120   0.0000000), wk =   0.1111111
        k(    4) = (   0.0000000  -0.1093681   0.0000000), wk =   0.0555556
        k(    5) = (   0.0315718   0.0182280   0.0000000), wk =   0.1111111
        k(    6) = (   0.0315718   0.0546840   0.0000000), wk =   0.1111111
        k(    7) = (   0.0315718   0.0911401   0.0000000), wk =   0.1111111
        k(    8) = (   0.0315718  -0.0911401   0.0000000), wk =   0.1111111
        k(    9) = (   0.0315718  -0.0546840   0.0000000), wk =   0.1111111
        k(   10) = (   0.0315718  -0.0182280   0.0000000), wk =   0.1111111
        k(   11) = (   0.0631437   0.0364560   0.0000000), wk =   0.1111111
        k(   12) = (   0.0631437   0.0729120   0.0000000), wk =   0.1111111
        k(   13) = (   0.0631437   0.1093681   0.0000000), wk =   0.1111111
        k(   14) = (   0.0631437  -0.0729120   0.0000000), wk =   0.1111111
        k(   15) = (   0.0631437  -0.0364560   0.0000000), wk =   0.1111111
        k(   16) = (   0.0631437   0.0000000   0.0000000), wk =   0.1111111
        k(   17) = (  -0.0947155  -0.0546840   0.0000000), wk =   0.0555556
        k(   18) = (  -0.0947155  -0.0182280   0.0000000), wk =   0.1111111
        k(   19) = (  -0.0947155   0.0182280   0.0000000), wk =   0.1111111
        k(   20) = (  -0.0947155  -0.1640521   0.0000000), wk =   0.0555556

     Largest allocated arrays     est. size (Mb)     dimensions
     Largest temporary arrays     est. size (Mb)     dimensions

     Check: negative/imaginary core charge=   -0.000011    0.000000

     Initial potential from superposition of free atoms
     Check: negative starting charge=   -0.377045

     starting charge  203.99990, renormalised to  216.00000

     negative rho (up, down):  3.992E-01 0.000E+00

     *
     * You are using vdW-DF for exchange-correlation in this calculation.
     * Please cite the following three references that made this development
     * possible:
     *
     *   M. Dion, H. Rydberg, E. Schroder, D. C. Langreth, and
     *   B. I. Lundqvist, Phys. Rev. Lett. 92, 246401 (2004).
     *
     *   T. Thonhauser, V. R. Cooper, S. Li, A. Puzder, P. Hyldgaard, and
     *   D. C. Langreth, Phys. Rev. B 76, 125112 (2007).
     *
     *   G. Roman-Perez and J. M. Soler, Phys. Rev. Lett. 103, 096102 (2009).
     *
     *
     * If you are using vdW-DF2, please also cite:
     *
     *   K. Lee, E. D. Murray, L. Kong, B. I. Lundqvist, and
     *   D. C. Langreth, Phys. Rev. B 82, 081101(R) (2010).
     *
     *
     * If you are calculating the stress with vdW-DF, please also cite:
     *
     *   R. Sabatini, E. Kucukbenli, B. Kolb, T. Thonhauser, and
     *   S. de Gironcoli, J. Phys.: Condens. Matter 24, 424209 (2012).
     *

     Carrying out vdW-DF run using the following parameters:

     Nqs =      20    Nr_points =    1024   r_max =   100.000
     q_mesh =
               0.00001000     0.04494208     0.09755937     0.15916263
               0.23128650     0.31572767     0.41458969     0.53033537
               0.66584808     0.82450364     1.01025438     1.22772762
               1.48234092     1.78043706     2.12944203     2.53805004
               3.01644009     3.57652955     4.23227104     5.00000000

     Gradients computed in reciprocal space

     Adding external electric field

     Computed dipole along edir(3) :
        Dipole                0.0000 Ry au,          0.0000 Debye
        Dipole field          0.0000 Ry au

        Potential amp.       -0.0000 Ry
        Total length         44.7912 bohr

     Starting wfc are  156 randomized atomic wfcs

     Self-consistent Calculation

     iteration #  1     ecut=    36.75 Ry     beta=0.10
     Davidson diagonalization with overlap
     ethr =  1.00E-02,  avg # of iterations =  7.1

[...]

     total energy              =   -4136.45807662 Ry
     Harris-Foulkes estimate   =   -4184.84133191 Ry
     estimated scf accuracy    <     268.72953755 Ry

[...]

     End of self-consistent calculation

          k = 0.0000 0.0000 0.0000 ( 15005 PWs)   bands (ev):

  -111.6626-111.6583-111.6583-111.5894-111.5894-111.5852-111.5852-111.5852
  -111.5852 -69.0986 -69.0986 -69.0981 -69.0818 -69.0818 -69.0772 -69.0714
   -69.0714 -69.0669 -69.0669 -69.0520 -69.0505 -69.0034 -69.0032 -68.9874
   -68.9698 -68.9698 -68.9697 -68.9697 -68.9517 -68.9517 -68.8927 -68.8889
   -68.8759 -68.8759 -68.8747 -68.8747 -65.9853 -65.6293 -65.6288 -38.0914
   -37.9454 -37.9454 -37.6590 -37.6571 -37.6550 -37.6550 -37.6544 -37.6544
    -6.7362  -5.0452  -4.0799  -3.7734  -3.7734  -3.6837  -3.6837  -3.2007
    -3.1974  -3.1974  -3.1150  -3.1113  -3.1113  -3.0398  -2.8673  -2.4046
    -2.4046  -2.3180  -2.0803  -2.0803  -1.9568  -1.9311  -1.8944  -1.8346
    -1.8053  -1.8053  -1.7638  -1.7638  -1.6923  -1.6923  -1.5931  -1.5931
    -1.5551  -1.5551  -1.3465  -1.1634  -1.1634  -1.1229  -1.1229  -1.0795
    -1.0795  -0.9469  -0.8170  -0.8170  -0.7521  -0.7109  -0.7097  -0.6658
    -0.3973   0.1811   0.5300   0.5300   0.5393   0.5393   0.6082   0.6082
     0.7930   0.7930   1.1824   1.2299   1.2299   1.3255   1.5376   1.5376
     1.7007   2.2059   2.2059   3.4007   3.5702   3.5702   3.6265   3.6265
     3.6969   4.6560   4.9336   5.2741   6.1792   6.7805   6.7805   6.9147
     6.9276   6.9276   7.4547   7.7612   8.0088   8.0088   8.3461   8.5297
     9.2305  10.3029

[...]

          k =-0.0947-0.0547 0.0000 ( 14874 PWs)   bands (ev):

[...]

     the Fermi energy is     0.8655 ev

!    total energy              =   -4169.92065919 Ry
     Harris-Foulkes estimate   =   -4169.92065031 Ry
     estimated scf accuracy    <       0.00000037 Ry

     The total energy is the sum of the following terms:

     one-electron contribution =  -31571.76908229 Ry
     hartree contribution      =   15797.12796401 Ry
     xc contribution           =    -458.99315855 Ry
     ewald contribution        =   12063.79874888 Ry
     electric field correction =       0.00000001 Ry
     smearing contrib. (-TS)   =      -0.08513125 Ry

     convergence has been achieved in  22 iterations

 BEEF-vdW xc energy contributions
           1 :   -405.890157510103
           2 :    369.093289148350
           3 :   -306.113769050236
           4 :    233.334913789380
           5 :   -166.173279846180
           6 :    113.696239892345
[...]
                l(2) =   0
                l(3) =   1
                l(4) =   1
                l(5) =   2
                l(6) =   2
     Q(r) pseudized with  8 coefficients,  rinner =    1.150   1.150   1.150
                                                       1.150   1.150

     PseudoPot. # 2 for Tc read from file:
     /afs/slac.stanford.edu/u/if/mamunm/psp/gbrv1.5pbe/Tc.UPF
     MD5 check sum: 9eb49e5b028550b2339a02317eb7b844
     Pseudo is Ultrasoft + core correction, Zval = 15.0
     Generated by new atomic code, or converted to UPF format
     Using radial grid of  965 points,  6 beta functions with:
                l(1) =   0
                l(2) =   0
                l(3) =   1
                l(4) =   1
                l(5) =   2
                l(6) =   2
     Q(r) pseudized with  8 coefficients,  rinner =    1.300   1.300   1.300
                                                       1.300   1.300

     vdW kernel table read from file vdW_kernel_table
     MD5 check sum: 095c7af220d748ca6e76c0b4c6cfb241

     atomic species   valence    mass     pseudopotential
        Cu1           19.00    63.54600     Cu( 1.00)
        Tc1           15.00    97.90721     Tc( 1.00)

     No symmetry found

   Cartesian axes

     site n.     atom                  positions (alat units)
         1           Cu1 tau(   1) = (   0.0000000   0.0000000  10.0000000  )
         2           Cu1 tau(   2) = (  -1.3197414   2.2858591  10.0000000  )
         3           Cu1 tau(   3) = (   1.3197414   2.2858591  10.0000000  )
         4           Tc1 tau(   4) = (   2.6394828   0.0000000  10.0000000  )
         5           Cu1 tau(   5) = (   2.6394828   1.5239061  12.1551287  )
         6           Cu1 tau(   6) = (   1.3197414   3.8097652  12.1551287  )
         7           Cu1 tau(   7) = (  -1.3197414   3.8097652  12.1551287  )
         8           Tc1 tau(   8) = (   0.0000000   1.5239061  12.1551287  )
         9           Cu1 tau(   9) = (   0.0000013   3.0673141  14.2953826  )
        10           Cu1 tau(  10) = (   1.3366233   0.7522040  14.2953852  )
        11           Cu1 tau(  11) = (   3.9423352   0.7521935  14.2953787  )
        12           Tc1 tau(  12) = (   2.6394931   3.0478125  14.2273569  )

     number of k points=    20  Fermi-Dirac smearing, width (Ry)=  0.0110
                       cart. coord. in units 2pi/alat
        k(    1) = (   0.0000000   0.0000000   0.0000000), wk =   0.0555556
        k(    2) = (   0.0000000   0.0364560   0.0000000), wk =   0.1111111
        k(    3) = (   0.0000000   0.0729120   0.0000000), wk =   0.1111111
        k(    4) = (   0.0000000  -0.1093681   0.0000000), wk =   0.0555556
        k(    5) = (   0.0315718   0.0182280   0.0000000), wk =   0.1111111
        k(    6) = (   0.0315718   0.0546840   0.0000000), wk =   0.1111111
        k(    7) = (   0.0315718   0.0911401   0.0000000), wk =   0.1111111
        k(    8) = (   0.0315718  -0.0911401   0.0000000), wk =   0.1111111
        k(    9) = (   0.0315718  -0.0546840   0.0000000), wk =   0.1111111
        k(   10) = (   0.0315718  -0.0182280   0.0000000), wk =   0.1111111
        k(   11) = (   0.0631437   0.0364560   0.0000000), wk =   0.1111111
        k(   12) = (   0.0631437   0.0729120   0.0000000), wk =   0.1111111
        k(   13) = (   0.0631437   0.1093681   0.0000000), wk =   0.1111111
        k(   14) = (   0.0631437  -0.0729120   0.0000000), wk =   0.1111111
        k(   15) = (   0.0631437  -0.0364560   0.0000000), wk =   0.1111111
        k(   16) = (   0.0631437   0.0000000   0.0000000), wk =   0.1111111
        k(   17) = (  -0.0947155  -0.0546840   0.0000000), wk =   0.0555556
        k(   18) = (  -0.0947155  -0.0182280   0.0000000), wk =   0.1111111
        k(   19) = (  -0.0947155   0.0182280   0.0000000), wk =   0.1111111
        k(   20) = (  -0.0947155  -0.1640521   0.0000000), wk =   0.0555556

     Largest allocated arrays     est. size (Mb)     dimensions
     Largest temporary arrays     est. size (Mb)     dimensions

     Check: negative/imaginary core charge=   -0.000011    0.000000

     Initial potential from superposition of free atoms
     Check: negative starting charge=   -0.376966

     starting charge  203.99990, renormalised to  216.00000

[...]

     *
     * You are using vdW-DF for exchange-correlation in this calculation.
     * Please cite the following three references that made this development
     * possible:
     *
     *   M. Dion, H. Rydberg, E. Schroder, D. C. Langreth, and
     *   B. I. Lundqvist, Phys. Rev. Lett. 92, 246401 (2004).
     *
     *   T. Thonhauser, V. R. Cooper, S. Li, A. Puzder, P. Hyldgaard, and
     *   D. C. Langreth, Phys. Rev. B 76, 125112 (2007).
     *
     *   G. Roman-Perez and J. M. Soler, Phys. Rev. Lett. 103, 096102 (2009).
     *
     *
     * If you are using vdW-DF2, please also cite:
     *
     *   K. Lee, E. D. Murray, L. Kong, B. I. Lundqvist, and
     *   D. C. Langreth, Phys. Rev. B 82, 081101(R) (2010).
     *
     *
     * If you are calculating the stress with vdW-DF, please also cite:
     *
     *   R. Sabatini, E. Kucukbenli, B. Kolb, T. Thonhauser, and
     *   S. de Gironcoli, J. Phys.: Condens. Matter 24, 424209 (2012).
     *

     Carrying out vdW-DF run using the following parameters:

     Nqs =      20    Nr_points =    1024   r_max =   100.000
     q_mesh =
               0.00001000     0.04494208     0.09755937     0.15916263
               0.23128650     0.31572767     0.41458969     0.53033537
               0.66584808     0.82450364     1.01025438     1.22772762
               1.48234092     1.78043706     2.12944203     2.53805004
               3.01644009     3.57652955     4.23227104     5.00000000

     Gradients computed in reciprocal space

[...]

     Starting wfc are  156 randomized atomic wfcs

     Self-consistent Calculation

[...]

     total energy              =   -4169.92249316 Ry
     Harris-Foulkes estimate   =   -4169.92249217 Ry
     estimated scf accuracy    <       0.00000198 Ry

     iteration # 24     ecut=    36.75 Ry     beta=0.10
     Davidson diagonalization with overlap
     ethr =  9.19E-10,  avg # of iterations =  2.0

[...]

     negative rho (up, down):  3.894E-01 0.000E+00

     Adding external electric field

     Computed dipole along edir(3) :
        Dipole               -0.0022 Ry au,         -0.0055 Debye
        Dipole field         -0.0000 Ry au

        Potential amp.        0.0006 Ry
        Total length         44.7912 bohr

     End of self-consistent calculation

[...]

          k = 0.0631 0.0000 0.0000 ( 14919 PWs)   bands (ev):

[...]

          k =-0.0947-0.1641 0.0000 ( 14874 PWs)   bands (ev):

  -111.7095-111.7081-111.7067-111.5984-111.5970-111.5956-111.5946-111.5930
  -111.5916 -69.1545 -69.1478 -69.1432 -69.1342 -69.1283 -69.1219 -69.0824
   -69.0794 -69.0753 -69.0726 -69.0697 -69.0661 -69.0185 -69.0079 -69.0013
   -68.9986 -68.9954 -68.9911 -68.9871 -68.9804 -68.9765 -68.8962 -68.8920
   -68.8909 -68.8865 -68.8853 -68.8810 -66.0000 -65.6468 -65.6308 -38.1033
   -37.9652 -37.9633 -37.6859 -37.6777 -37.6758 -37.6624 -37.6605 -37.6566
    -5.0684  -5.0175  -3.7837  -3.6031  -3.3066  -3.2200  -3.2007  -3.0754
    -2.8636  -2.8396  -2.7510  -2.6381  -2.5763  -2.5518  -2.5123  -2.4843
    -2.3077  -2.3032  -2.2900  -2.2299  -2.2002  -2.1600  -1.9982  -1.9353
    -1.8875  -1.8717  -1.8635  -1.8577  -1.8404  -1.7912  -1.7793  -1.7536
    -1.7357  -1.6704  -1.6437  -1.6335  -1.5618  -1.5205  -1.4543  -1.4399
    -1.4151  -1.3629  -1.2987  -1.2744  -1.1767  -1.0823  -1.0472  -0.9473
    -0.8910  -0.7519  -0.5986  -0.5679   0.0496   0.0929   0.2296   0.3721
     0.3812   0.4311   0.5152   0.5820   0.5828   0.8253   1.1343   1.4552
     1.5504   2.1176   2.7003   3.0439   3.5888   3.9914   4.5737   4.7335
     5.4845   5.5749   6.3496   6.3635   6.7982   6.8328   6.9290   6.9358
     7.8249   8.0086   8.0653   8.3265   8.4193   8.4892   8.4981   8.8964
     9.0978   9.1542

     the Fermi energy is     0.8515 ev

!    total energy              =   -4169.92249905 Ry
     Harris-Foulkes estimate   =   -4169.92249343 Ry
     estimated scf accuracy    <       0.00000043 Ry

     The total energy is the sum of the following terms:

     one-electron contribution =  -31693.23011072 Ry
     hartree contribution      =   15857.70304641 Ry
     xc contribution           =    -459.03129168 Ry
     ewald contribution        =   12124.72026891 Ry
     electric field correction =       0.00000001 Ry
     smearing contrib. (-TS)   =      -0.08441199 Ry

     convergence has been achieved in  24 iterations

 BEEF-vdW xc energy contributions
           1 :   -405.932086428156
           2 :    369.161222908629
           3 :   -306.211951324389
           4 :    233.439780943329
           5 :   -166.248635708876
           6 :    113.719102831100
           7 :   -77.0147832466008
           8 :    51.6442614640093
           9 :   -31.7495564695340
          10 :    13.7639039481102
          11 :    2.33948576467486
          12 :   -14.3534525833782
          13 :    20.2957979604961
          14 :   -20.2365247887763
          15 :    16.4110801575812
          16 :   -11.8468913250581
          17 :    8.63408927979719
          18 :   -7.04940282620066
          19 :    5.98212008140649
          20 :   -4.19773176545982
          21 :    1.45707350336488
          22 :    1.26176520865533
          23 :   -2.50295710130752
          24 :    1.41571358497163
          25 :    1.61071564591884
          26 :   -5.18433324857449
          27 :    7.80274269562904
          28 :   -8.75288421790628
          29 :    8.40587646202471
          30 :   -7.76028787476082
          31 :   -33.5964656674541
          32 :   -23.3455764893074

     Forces acting on atoms (Ry/au):

     negative rho (up, down):  3.894E-01 0.000E+00
     atom    1 type  1   force =    -0.00000114   -0.00444437    0.00269967
     atom    2 type  1   force =    -0.00384620    0.00222231    0.00269776
     atom    3 type  1   force =     0.00384793    0.00222364    0.00269930
     atom    4 type  2   force =    -0.00000019    0.00000001    0.01621756
     atom    5 type  1   force =    -0.00000027   -0.00375260   -0.00747606
     atom    6 type  1   force =    -0.00324986    0.00187676   -0.00747635
     atom    7 type  1   force =     0.00325030    0.00187594   -0.00747668
     atom    8 type  2   force =    -0.00000011    0.00000007    0.00039698
     atom    9 type  1   force =     0.00000084   -0.00032545   -0.00099849
     atom   10 type  1   force =    -0.00028179    0.00016260   -0.00099848
     atom   11 type  1   force =     0.00028278    0.00016273   -0.00099859
     atom   12 type  2   force =    -0.00000229   -0.00000164    0.00071337

     Total force =     0.023622     Total SCF correction =     0.004594
     SCF correction compared to forces is large: reduce conv_thr to get better values

     entering subroutine stress ...

     negative rho (up, down):  3.894E-01 0.000E+00
          total   stress  (Ry/bohr**3)                   (kbar)     P=  -20.55
  -0.00016120   0.00000000  -0.00000000        -23.71      0.00     -0.00
   0.00000000  -0.00016120   0.00000000          0.00    -23.71      0.00
  -0.00000000   0.00000000  -0.00009674         -0.00      0.00    -14.23

 !ASE

     Writing output data file calc.save

     General routines

     Parallel routines

   This run was terminated on:  19:34: 1  25Dec2018

   JOB DONE.
Job  /afs/slac/g/suncat/bin/suncat-tsmpirun -x LD_LIBRARY_PATH -wdir /scratch/qe109598_tgpwU pw.x -in pw.inp

TID   HOST_NAME   COMMAND_LINE            STATUS            TERMINATION_TIME
00000 suncat0180 pw.x -in pw.inp   Done                     12/25/2018 19:34:01
00001 suncat0180 pw.x -in pw.inp   Done                     12/25/2018 19:34:01
00002 suncat0180 pw.x -in pw.inp   Done                     12/25/2018 19:34:01
00003 suncat0180 pw.x -in pw.inp   Done                     12/25/2018 19:34:01
00004 suncat0180 pw.x -in pw.inp   Done                     12/25/2018 19:34:01
00005 suncat0180 pw.x -in pw.inp   Done                     12/25/2018 19:34:01
00006 suncat0180 pw.x -in pw.inp   Done                     12/25/2018 19:34:01
00007 suncat0180 pw.x -in pw.inp   Done                     12/25/2018 19:34:01
00008 suncat0167 pw.x -in pw.inp   Done                     12/25/2018 19:34:01
00009 suncat0167 pw.x -in pw.inp   Done                     12/25/2018 19:34:01
00010 suncat0167 pw.x -in pw.inp   Done                     12/25/2018 19:34:01
00011 suncat0167 pw.x -in pw.inp   Done                     12/25/2018 19:34:01
00012 suncat0167 pw.x -in pw.inp   Done                     12/25/2018 19:34:01
00013 suncat0167 pw.x -in pw.inp   Done                     12/25/2018 19:34:01
00014 suncat0167 pw.x -in pw.inp   Done                     12/25/2018 19:34:01
00015 suncat0167 pw.x -in pw.inp   Done                     12/25/2018 19:34:01
00016 suncat0166 pw.x -in pw.inp   Done                     12/25/2018 19:34:01
00017 suncat0166 pw.x -in pw.inp   Done                     12/25/2018 19:34:01
00018 suncat0166 pw.x -in pw.inp   Done                     12/25/2018 19:34:01
00019 suncat0166 pw.x -in pw.inp   Done                     12/25/2018 19:34:01
00020 suncat0166 pw.x -in pw.inp   Done                     12/25/2018 19:34:01
00021 suncat0166 pw.x -in pw.inp   Done                     12/25/2018 19:34:01
00022 suncat0166 pw.x -in pw.inp   Done                     12/25/2018 19:34:01
00023 suncat0166 pw.x -in pw.inp   Done                     12/25/2018 19:34:01
00024 suncat0165 pw.x -in pw.inp   Done                     12/25/2018 19:34:01
00025 suncat0165 pw.x -in pw.inp   Done                     12/25/2018 19:34:01
00026 suncat0165 pw.x -in pw.inp   Done                     12/25/2018 19:34:01
00027 suncat0165 pw.x -in pw.inp   Done                     12/25/2018 19:34:01
00028 suncat0165 pw.x -in pw.inp   Done                     12/25/2018 19:34:01
00029 suncat0165 pw.x -in pw.inp   Done                     12/25/2018 19:34:01
00030 suncat0165 pw.x -in pw.inp   Done                     12/25/2018 19:34:01
00031 suncat0165 pw.x -in pw.inp   Done                     12/25/2018 19:34:01
00032 suncat0164 pw.x -in pw.inp   Done                     12/25/2018 19:34:01
00033 suncat0164 pw.x -in pw.inp   Done                     12/25/2018 19:34:01
00034 suncat0164 pw.x -in pw.inp   Done                     12/25/2018 19:34:01
00035 suncat0164 pw.x -in pw.inp   Done                     12/25/2018 19:34:01
00036 suncat0164 pw.x -in pw.inp   Done                     12/25/2018 19:34:01
00037 suncat0164 pw.x -in pw.inp   Done                     12/25/2018 19:34:01
00038 suncat0164 pw.x -in pw.inp   Done                     12/25/2018 19:34:01
00039 suncat0164 pw.x -in pw.inp   Done                     12/25/2018 19:34:01
00040 suncat0149 pw.x -in pw.inp   Done                     12/25/2018 19:34:01
00041 suncat0149 pw.x -in pw.inp   Done                     12/25/2018 19:34:01
00042 suncat0149 pw.x -in pw.inp   Done                     12/25/2018 19:34:01
00043 suncat0149 pw.x -in pw.inp   Done                     12/25/2018 19:34:01
00044 suncat0149 pw.x -in pw.inp   Done                     12/25/2018 19:34:01
00045 suncat0149 pw.x -in pw.inp   Done                     12/25/2018 19:34:01
00046 suncat0149 pw.x -in pw.inp   Done                     12/25/2018 19:34:01
00047 suncat0149 pw.x -in pw.inp   Done                     12/25/2018 19:34:01
00048 suncat0148 pw.x -in pw.inp   Done                     12/25/2018 19:34:01
00049 suncat0148 pw.x -in pw.inp   Done                     12/25/2018 19:34:01
00050 suncat0148 pw.x -in pw.inp   Done                     12/25/2018 19:34:01
00051 suncat0148 pw.x -in pw.inp   Done                     12/25/2018 19:34:01
00052 suncat0148 pw.x -in pw.inp   Done                     12/25/2018 19:34:01
00053 suncat0148 pw.x -in pw.inp   Done                     12/25/2018 19:34:01
00054 suncat0148 pw.x -in pw.inp   Done                     12/25/2018 19:34:01
00055 suncat0148 pw.x -in pw.inp   Done                     12/25/2018 19:34:01
00056 suncat0137 pw.x -in pw.inp   Done                     12/25/2018 19:34:01
00057 suncat0137 pw.x -in pw.inp   Done                     12/25/2018 19:34:01
00058 suncat0137 pw.x -in pw.inp   Done                     12/25/2018 19:34:01
00059 suncat0137 pw.x -in pw.inp   Done                     12/25/2018 19:34:01
00060 suncat0137 pw.x -in pw.inp   Done                     12/25/2018 19:34:01
00061 suncat0137 pw.x -in pw.inp   Done                     12/25/2018 19:34:01
00062 suncat0137 pw.x -in pw.inp   Done                     12/25/2018 19:34:01
00063 suncat0137 pw.x -in pw.inp   Done                     12/25/2018 19:34:01