     Program PWSCF v.5.1rc2 (svn rev. 11289) starts on  1Jan2019 at 22:41:43

     Current dimensions of program PWSCF are:
     Max number of different atomic species (ntypx) = 10
     Max number of k-points (npk) =  40000
     Max angular momentum in pseudopotentials (lmaxx) =  3
     Presently stress not available with electric field

     IMPORTANT: XC functional enforced from input :
     Exchange-correlation      = BEEF-VDW ( 1  4 27 13 2)
     Any further DFT definition will be discarded
     Please, verify this is what you really want

     Subspace diagonalization in iterative solution of the eigenvalue problem:
     a serial algorithm will be used

     bravais-lattice index     =            0
     lattice parameter (alat)  =       1.8897  a.u.
     unit-cell volume          =    4777.3778 (a.u.)^3
     number of atoms/cell      =           12
     number of atomic types    =            2
     number of electrons       =       150.00
     number of Kohn-Sham states=          105
     kinetic-energy cutoff     =      36.7493  Ry
     charge density cutoff     =     367.4932  Ry
     convergence threshold     =      1.0E-06
     mixing beta               =       0.1000
     number of iterations used =           10  plain     mixing
     Exchange-correlation      = BEEF-VDW ( 1  4 27 13 2)
     nstep                     =           50

     celldm(1)=   1.889726  celldm(2)=   0.000000  celldm(3)=   0.000000
     celldm(4)=   0.000000  celldm(5)=   0.000000  celldm(6)=   0.000000

     crystal axes: (cart. coord. in units of alat)
               a(1) = (   5.753145   0.000000   0.000000 )
               a(2) = (  -2.876573   4.982370   0.000000 )
               a(3) = (   0.000000   0.000000  24.697424 )

     reciprocal axes: (cart. coord. in units 2 pi/alat)
               b(1) = (  0.173818  0.100354  0.000000 )
               b(2) = (  0.000000  0.200708  0.000000 )
               b(3) = (  0.000000  0.000000  0.040490 )

     PseudoPot. # 1 for Ti read from file:
     /afs/slac.stanford.edu/u/if/mamunm/psp/gbrv1.5pbe/Ti.UPF
     MD5 check sum: 88a00a6731bd790ddea75d31a80cb452
     Pseudo is Ultrasoft + core correction, Zval = 12.0
     Generated by new atomic code, or converted to UPF format
     Using radial grid of  851 points,  6 beta functions with:
                l(1) =   0
                l(2) =   0
                l(3) =   1
                l(4) =   1
                l(5) =   2
                l(6) =   2
     Q(r) pseudized with  6 coefficients,  rinner =    1.000   1.000   1.000
                                                       1.000   1.000

     PseudoPot. # 2 for Mo read from file:
     /afs/slac.stanford.edu/u/if/mamunm/psp/gbrv1.5pbe/Mo.UPF
     MD5 check sum: 30c4dcd161f5d35cd49bb5239c51a633
     Pseudo is Ultrasoft + core correction, Zval = 14.0
     Generated by new atomic code, or converted to UPF format
     Using radial grid of  889 points,  6 beta functions with:
                l(1) =   0
                l(2) =   0
                l(3) =   1
                l(4) =   1
                l(5) =   2
                l(6) =   2
     Q(r) pseudized with  6 coefficients,  rinner =    1.000   1.000   1.000
                                                       1.000   1.000

     vdW kernel table read from file vdW_kernel_table
     MD5 check sum: 095c7af220d748ca6e76c0b4c6cfb241

     atomic species   valence    mass     pseudopotential
        Ti1           12.00    47.86700     Ti( 1.00)
        Mo1           14.00    95.95000     Mo( 1.00)

     No symmetry found

   Cartesian axes

     site n.     atom                  positions (alat units)
         1           Ti1 tau(   1) = (   0.0000000   0.0000000  10.0000000  )
         2           Ti1 tau(   2) = (  -1.4382863   2.4911850  10.0000000  )
         3           Ti1 tau(   3) = (   1.4382863   2.4911850  10.0000000  )
         4           Mo1 tau(   4) = (   2.8765727   0.0000000  10.0000000  )
         5           Ti1 tau(   5) = (   2.8765727   1.6607900  12.3487118  )
         6           Ti1 tau(   6) = (   1.4382863   4.1519751  12.3487118  )
         7           Ti1 tau(   7) = (  -1.4382863   4.1519751  12.3487118  )
         8           Mo1 tau(   8) = (   0.0000000   1.6607900  12.3487118  )
         9           Ti1 tau(   9) = (  -0.0000000   3.3215800  14.6974235  )
        10           Ti1 tau(  10) = (   1.4382863   0.8303950  14.6974235  )
        11           Ti1 tau(  11) = (   4.3148590   0.8303950  14.6974235  )
        12           Mo1 tau(  12) = (   2.8765727   3.3215800  14.6974235  )

     number of k points=    20  Fermi-Dirac smearing, width (Ry)=  0.0110
                       cart. coord. in units 2pi/alat
        k(    1) = (   0.0000000   0.0000000   0.0000000), wk =   0.0555556
        k(    2) = (   0.0000000   0.0334513   0.0000000), wk =   0.1111111
        k(    3) = (   0.0000000   0.0669026   0.0000000), wk =   0.1111111
        k(    4) = (   0.0000000  -0.1003538   0.0000000), wk =   0.0555556
        k(    5) = (   0.0289697   0.0167256   0.0000000), wk =   0.1111111
        k(    6) = (   0.0289697   0.0501769   0.0000000), wk =   0.1111111
        k(    7) = (   0.0289697   0.0836282   0.0000000), wk =   0.1111111
        k(    8) = (   0.0289697  -0.0836282   0.0000000), wk =   0.1111111
        k(    9) = (   0.0289697  -0.0501769   0.0000000), wk =   0.1111111
        k(   10) = (   0.0289697  -0.0167256   0.0000000), wk =   0.1111111
        k(   11) = (   0.0579393   0.0334513   0.0000000), wk =   0.1111111
        k(   12) = (   0.0579393   0.0669026   0.0000000), wk =   0.1111111
        k(   13) = (   0.0579393   0.1003538   0.0000000), wk =   0.1111111
        k(   14) = (   0.0579393  -0.0669026   0.0000000), wk =   0.1111111
        k(   15) = (   0.0579393  -0.0334513   0.0000000), wk =   0.1111111
        k(   16) = (   0.0579393   0.0000000   0.0000000), wk =   0.1111111
        k(   17) = (  -0.0869090  -0.0501769   0.0000000), wk =   0.0555556
        k(   18) = (  -0.0869090  -0.0167256   0.0000000), wk =   0.1111111
        k(   19) = (  -0.0869090   0.0167256   0.0000000), wk =   0.1111111
        k(   20) = (  -0.0869090  -0.1505308   0.0000000), wk =   0.0555556

     Largest allocated arrays     est. size (Mb)     dimensions
     Largest temporary arrays     est. size (Mb)     dimensions

     Check: negative/imaginary core charge=   -0.000005    0.000000

     Initial potential from superposition of free atoms
     Check: negative starting charge=   -0.011619

     starting charge  140.99641, renormalised to  150.00000

     negative rho (up, down):  1.236E-02 0.000E+00

     *
     * You are using vdW-DF for exchange-correlation in this calculation.
     * Please cite the following three references that made this development
     * possible:
     *
     *   M. Dion, H. Rydberg, E. Schroder, D. C. Langreth, and
     *   B. I. Lundqvist, Phys. Rev. Lett. 92, 246401 (2004).
     *
     *   T. Thonhauser, V. R. Cooper, S. Li, A. Puzder, P. Hyldgaard, and
     *   D. C. Langreth, Phys. Rev. B 76, 125112 (2007).
     *
     *   G. Roman-Perez and J. M. Soler, Phys. Rev. Lett. 103, 096102 (2009).
     *
     *
     * If you are using vdW-DF2, please also cite:
     *
     *   K. Lee, E. D. Murray, L. Kong, B. I. Lundqvist, and
     *   D. C. Langreth, Phys. Rev. B 82, 081101(R) (2010).
     *
     *
     * If you are calculating the stress with vdW-DF, please also cite:
     *
     *   R. Sabatini, E. Kucukbenli, B. Kolb, T. Thonhauser, and
     *   S. de Gironcoli, J. Phys.: Condens. Matter 24, 424209 (2012).
     *

     Carrying out vdW-DF run using the following parameters:

     Nqs =      20    Nr_points =    1024   r_max =   100.000
     q_mesh =
               0.00001000     0.04494208     0.09755937     0.15916263
               0.23128650     0.31572767     0.41458969     0.53033537
               0.66584808     0.82450364     1.01025438     1.22772762
               1.48234092     1.78043706     2.12944203     2.53805004
               3.01644009     3.57652955     4.23227104     5.00000000

     Gradients computed in reciprocal space

     Adding external electric field

     Computed dipole along edir(3) :
        Dipole               -0.0000 Ry au,         -0.0000 Debye
        Dipole field         -0.0000 Ry au

        Potential amp.        0.0000 Ry
        Total length         45.5046 bohr

     Starting wfc are  129 randomized atomic wfcs

     Self-consistent Calculation

     iteration #  1     ecut=    36.75 Ry     beta=0.10
     Davidson diagonalization with overlap
     ethr =  1.00E-02,  avg # of iterations =  3.2

[...]

     total energy              =   -1498.65677401 Ry
     Harris-Foulkes estimate   =   -1501.22960090 Ry
     estimated scf accuracy    <      14.80919436 Ry

[...]

     End of self-consistent calculation

          k = 0.0000 0.0000 0.0000 ( 18019 PWs)   bands (ev):

   -59.6609 -59.5228 -59.5224 -56.0000 -55.9941 -55.9291 -55.9291 -55.9275
   -55.9275 -55.8429 -55.7813 -55.7813 -33.7601 -33.7601 -33.7345 -33.6293
   -33.6293 -33.6209 -33.6209 -33.6117 -33.5789 -32.4847 -32.4469 -32.3484
   -32.2854 -32.2853 -32.2681 -32.2407 -32.2257 -32.2257 -32.2170 -32.2170
   -32.2075 -32.2075 -32.0594 -32.0594 -32.0433 -32.0234 -31.9599 -31.9509
   -31.9509 -31.9420 -31.9420 -31.9327 -31.9327 -31.8662 -31.8124 -31.8124
    -4.4970  -3.1510  -2.1977  -1.9513  -1.9512  -1.7351  -1.7351  -1.3982
    -1.2783  -1.2678  -1.2678  -1.0963  -1.0963  -0.9520  -0.7914  -0.3306
    -0.3306   0.0870   0.5730   0.7033   0.7033   0.8141   1.1374   1.2576
     1.3651   1.6166   1.6166   1.6374   1.6374   1.6858   1.7222   1.7222
     1.7665   1.7665   1.8183   1.8183   1.9609   2.0339   2.2871   2.2871
     2.7847   2.7847   2.8151   2.9294   3.0919   3.0919   3.2659   3.2659
     3.4488   3.4488   3.6545   3.6545   3.6677   4.0721   4.0721   4.0769
     4.2089

[...]

          k =-0.0869-0.0502 0.0000 ( 17948 PWs)   bands (ev):

[...]

     the Fermi energy is     1.0882 ev

!    total energy              =   -1498.71111857 Ry
     Harris-Foulkes estimate   =   -1498.71111457 Ry
     estimated scf accuracy    <       0.00000075 Ry

     The total energy is the sum of the following terms:

     one-electron contribution =  -11737.39524741 Ry
     hartree contribution      =    5855.33558484 Ry
     xc contribution           =    -228.43352316 Ry
     ewald contribution        =    4611.91101370 Ry
     electric field correction =       0.00000002 Ry
     smearing contrib. (-TS)   =      -0.12894656 Ry

     convergence has been achieved in  22 iterations

 BEEF-vdW xc energy contributions
           1 :   -196.248085956140
           2 :    176.339713713510
           3 :   -143.350367061163
           4 :    107.395592414856
           5 :   -77.1777374932225
           6 :    56.7065370611368
           7 :   -44.9439649667710
           8 :    37.9240808139258
           9 :   -31.6759118927828
          10 :    24.2051409517859
          11 :   -15.7750719696687
          12 :    7.83554038082391
          13 :   -1.62513545521338
          14 :   -2.62707183209329
          15 :    5.55929657193701
[...]

     PseudoPot. # 1 for Ti read from file:
     /afs/slac.stanford.edu/u/if/mamunm/psp/gbrv1.5pbe/Ti.UPF
     MD5 check sum: 88a00a6731bd790ddea75d31a80cb452
     Pseudo is Ultrasoft + core correction, Zval = 12.0
     Generated by new atomic code, or converted to UPF format
     Using radial grid of  851 points,  6 beta functions with:
                l(1) =   0
                l(2) =   0
                l(3) =   1
                l(4) =   1
                l(5) =   2
                l(6) =   2
     Q(r) pseudized with  6 coefficients,  rinner =    1.000   1.000   1.000
                                                       1.000   1.000

     PseudoPot. # 2 for Mo read from file:
     /afs/slac.stanford.edu/u/if/mamunm/psp/gbrv1.5pbe/Mo.UPF
     MD5 check sum: 30c4dcd161f5d35cd49bb5239c51a633
     Pseudo is Ultrasoft + core correction, Zval = 14.0
     Generated by new atomic code, or converted to UPF format
     Using radial grid of  889 points,  6 beta functions with:
                l(1) =   0
                l(2) =   0
                l(3) =   1
                l(4) =   1
                l(5) =   2
                l(6) =   2
     Q(r) pseudized with  6 coefficients,  rinner =    1.000   1.000   1.000
                                                       1.000   1.000

     vdW kernel table read from file vdW_kernel_table
     MD5 check sum: 095c7af220d748ca6e76c0b4c6cfb241

     atomic species   valence    mass     pseudopotential
        Ti1           12.00    47.86700     Ti( 1.00)
        Mo1           14.00    95.95000     Mo( 1.00)

     No symmetry found

   Cartesian axes

     site n.     atom                  positions (alat units)
         1           Ti1 tau(   1) = (   0.0000000   0.0000000  10.0000000  )
         2           Ti1 tau(   2) = (  -1.4382863   2.4911850  10.0000000  )
         3           Ti1 tau(   3) = (   1.4382863   2.4911850  10.0000000  )
         4           Mo1 tau(   4) = (   2.8765727   0.0000000  10.0000000  )
         5           Ti1 tau(   5) = (   2.8765727   1.6607900  12.3487118  )
         6           Ti1 tau(   6) = (   1.4382863   4.1519751  12.3487118  )
         7           Ti1 tau(   7) = (  -1.4382863   4.1519751  12.3487118  )
         8           Mo1 tau(   8) = (   0.0000000   1.6607900  12.3487118  )
         9           Ti1 tau(   9) = (   0.0000083   3.3005519  14.6815109  )
        10           Ti1 tau(  10) = (   1.4200775   0.8409149  14.6815021  )
        11           Ti1 tau(  11) = (   4.3330708   0.8409104  14.6814917  )
        12           Mo1 tau(  12) = (   2.8765686   3.3215852  14.3961643  )

     number of k points=    20  Fermi-Dirac smearing, width (Ry)=  0.0110
                       cart. coord. in units 2pi/alat
        k(    1) = (   0.0000000   0.0000000   0.0000000), wk =   0.0555556
        k(    2) = (   0.0000000   0.0334513   0.0000000), wk =   0.1111111
        k(    3) = (   0.0000000   0.0669026   0.0000000), wk =   0.1111111
        k(    4) = (   0.0000000  -0.1003538   0.0000000), wk =   0.0555556
        k(    5) = (   0.0289697   0.0167256   0.0000000), wk =   0.1111111
        k(    6) = (   0.0289697   0.0501769   0.0000000), wk =   0.1111111
        k(    7) = (   0.0289697   0.0836282   0.0000000), wk =   0.1111111
        k(    8) = (   0.0289697  -0.0836282   0.0000000), wk =   0.1111111
        k(    9) = (   0.0289697  -0.0501769   0.0000000), wk =   0.1111111
        k(   10) = (   0.0289697  -0.0167256   0.0000000), wk =   0.1111111
        k(   11) = (   0.0579393   0.0334513   0.0000000), wk =   0.1111111
        k(   12) = (   0.0579393   0.0669026   0.0000000), wk =   0.1111111
        k(   13) = (   0.0579393   0.1003538   0.0000000), wk =   0.1111111
        k(   14) = (   0.0579393  -0.0669026   0.0000000), wk =   0.1111111
        k(   15) = (   0.0579393  -0.0334513   0.0000000), wk =   0.1111111
        k(   16) = (   0.0579393   0.0000000   0.0000000), wk =   0.1111111
        k(   17) = (  -0.0869090  -0.0501769   0.0000000), wk =   0.0555556
        k(   18) = (  -0.0869090  -0.0167256   0.0000000), wk =   0.1111111
        k(   19) = (  -0.0869090   0.0167256   0.0000000), wk =   0.1111111
        k(   20) = (  -0.0869090  -0.1505308   0.0000000), wk =   0.0555556

     Largest allocated arrays     est. size (Mb)     dimensions
     Largest temporary arrays     est. size (Mb)     dimensions

     Check: negative/imaginary core charge=   -0.000005    0.000000

     Initial potential from superposition of free atoms
     Check: negative starting charge=   -0.012521

     starting charge  140.99641, renormalised to  150.00000

[...]

     *
     * You are using vdW-DF for exchange-correlation in this calculation.
     * Please cite the following three references that made this development
     * possible:
     *
     *   M. Dion, H. Rydberg, E. Schroder, D. C. Langreth, and
     *   B. I. Lundqvist, Phys. Rev. Lett. 92, 246401 (2004).
     *
     *   T. Thonhauser, V. R. Cooper, S. Li, A. Puzder, P. Hyldgaard, and
     *   D. C. Langreth, Phys. Rev. B 76, 125112 (2007).
     *
     *   G. Roman-Perez and J. M. Soler, Phys. Rev. Lett. 103, 096102 (2009).
     *
     *
     * If you are using vdW-DF2, please also cite:
     *
     *   K. Lee, E. D. Murray, L. Kong, B. I. Lundqvist, and
     *   D. C. Langreth, Phys. Rev. B 82, 081101(R) (2010).
     *
     *
     * If you are calculating the stress with vdW-DF, please also cite:
     *
     *   R. Sabatini, E. Kucukbenli, B. Kolb, T. Thonhauser, and
     *   S. de Gironcoli, J. Phys.: Condens. Matter 24, 424209 (2012).
     *

     Carrying out vdW-DF run using the following parameters:

     Nqs =      20    Nr_points =    1024   r_max =   100.000
     q_mesh =
               0.00001000     0.04494208     0.09755937     0.15916263
               0.23128650     0.31572767     0.41458969     0.53033537
               0.66584808     0.82450364     1.01025438     1.22772762
               1.48234092     1.78043706     2.12944203     2.53805004
               3.01644009     3.57652955     4.23227104     5.00000000

     Gradients computed in reciprocal space

[...]

     Starting wfc are  129 randomized atomic wfcs

     Self-consistent Calculation

[...]

     total energy              =   -1498.72455317 Ry
     Harris-Foulkes estimate   =   -1498.72455314 Ry
     estimated scf accuracy    <       0.00000123 Ry

     iteration # 22     ecut=    36.75 Ry     beta=0.10
     Davidson diagonalization with overlap
     ethr =  8.20E-10,  avg # of iterations =  2.0

[...]

     negative rho (up, down):  8.082E-03 0.000E+00

     Adding external electric field

     Computed dipole along edir(3) :
        Dipole                0.0724 Ry au,          0.1841 Debye
        Dipole field          0.0002 Ry au

        Potential amp.       -0.0173 Ry
        Total length         45.5046 bohr

     End of self-consistent calculation

[...]

          k = 0.0579 0.0000 0.0000 ( 17987 PWs)   bands (ev):

[...]

          k =-0.0869-0.1505 0.0000 ( 17948 PWs)   bands (ev):

   -59.6277 -59.4444 -59.3736 -55.9480 -55.9235 -55.9055 -55.9012 -55.8823
   -55.8595 -55.6954 -55.6745 -55.6532 -33.7101 -33.7020 -33.6822 -33.5362
   -33.5282 -33.5111 -33.5060 -33.4865 -33.4704 -32.3186 -32.3029 -32.2920
   -32.2595 -32.2338 -32.2075 -32.1715 -32.1636 -32.1565 -32.1192 -32.1173
   -32.1011 -32.1010 -32.0843 -32.0716 -32.0500 -32.0144 -31.9227 -31.9047
   -31.8880 -31.8789 -31.8555 -31.8375 -31.8267 -31.8229 -31.8166 -31.7057
    -2.9382  -2.8101  -1.8652  -1.6693  -1.3361  -1.3350  -1.0684  -1.0125
    -0.8763  -0.6682  -0.6165  -0.4138  -0.3629  -0.2534  -0.2067   0.0591
     0.0795   0.1098   0.1686   0.3767   0.4047   0.5089   0.6068   0.7033
     0.7356   0.8628   0.9590   1.0170   1.1262   1.1391   1.2373   1.2951
     1.3722   1.5810   1.6230   1.6824   1.8401   1.8608   2.0818   2.1109
     2.3617   2.5179   2.5425   2.7278   2.7851   2.7925   2.8976   3.0366
     3.0953   3.1011   3.1146   3.1574   3.1665   3.2339   3.4464   3.4774
     3.7153

     the Fermi energy is     1.1482 ev

!    total energy              =   -1498.72455588 Ry
     Harris-Foulkes estimate   =   -1498.72455205 Ry
     estimated scf accuracy    <       0.00000062 Ry

     The total energy is the sum of the following terms:

     one-electron contribution =  -11892.48993001 Ry
     hartree contribution      =    5933.28240318 Ry
     xc contribution           =    -228.60246295 Ry
     ewald contribution        =    4689.21257026 Ry
     electric field correction =       0.00001380 Ry
     smearing contrib. (-TS)   =      -0.12715016 Ry

     convergence has been achieved in  22 iterations

 BEEF-vdW xc energy contributions
           1 :   -196.511952645747
           2 :    176.655364116843
           3 :   -143.723766044378
           4 :    107.770414470742
           5 :   -77.4627755942464
           6 :    56.8349872896054
           7 :   -44.9259954046864
           8 :    37.8490768638197
           9 :   -31.6548921817666
          10 :    24.2951666840593
          11 :   -15.9455460571355
          12 :    8.00157658928688
          13 :   -1.71715082103213
          14 :   -2.61574616426503
          15 :    5.58017546912060
          16 :   -7.94736104106391
          17 :    10.0229246659256
          18 :   -11.5199656222101
          19 :    11.9548342457355
          20 :   -11.1616892963069
          21 :    9.48056352412431
          22 :   -7.50598141829454
          23 :    5.64677277306629
          24 :   -3.87687644397454
          25 :    1.86003521184543
          26 :   0.672440445723055
          27 :   -3.60420259133542
          28 :    6.42300180780217
          29 :   -8.52400400820957
          30 :    9.59367472519963
          31 :   -21.2315773815077
          32 :   -15.4357304898710

     Forces acting on atoms (Ry/au):

     negative rho (up, down):  8.082E-03 0.000E+00
     atom    1 type  1   force =     0.00000000    0.00214298    0.00201410
     atom    2 type  1   force =     0.00185668   -0.00107075    0.00201243
     atom    3 type  1   force =    -0.00185592   -0.00107064    0.00201664
     atom    4 type  2   force =    -0.00000026    0.00000002    0.03030146
     atom    5 type  1   force =    -0.00000259   -0.01469170   -0.01531401
     atom    6 type  1   force =    -0.01272460    0.00734363   -0.01531417
     atom    7 type  1   force =     0.01272477    0.00734628   -0.01531166
     atom    8 type  2   force =    -0.00000007    0.00000016    0.00694937
     atom    9 type  1   force =    -0.00000187    0.00046479    0.00129510
     atom   10 type  1   force =     0.00040043   -0.00023367    0.00129468
     atom   11 type  1   force =    -0.00039767   -0.00023124    0.00128907
     atom   12 type  2   force =     0.00000110    0.00000015   -0.00123301

     Total force =     0.048484     Total SCF correction =     0.003989

     entering subroutine stress ...

     negative rho (up, down):  8.082E-03 0.000E+00
          total   stress  (Ry/bohr**3)                   (kbar)     P=  -10.68
  -0.00009328   0.00000000   0.00000001        -13.72      0.00      0.00
   0.00000000  -0.00009328   0.00000000          0.00    -13.72      0.00
   0.00000001   0.00000000  -0.00003127          0.00      0.00     -4.60

 !ASE

     Writing output data file calc.save

     General routines

     Parallel routines

   This run was terminated on:   0:20:10   2Jan2019

   JOB DONE.
Job  /afs/slac/g/suncat/bin/suncat-tsmpirun -x LD_LIBRARY_PATH -wdir /scratch/qe649207_dHZIP pw.x -in pw.inp

TID   HOST_NAME   COMMAND_LINE            STATUS            TERMINATION_TIME
00000 suncat0154 pw.x -in pw.inp   Done                     01/02/2019 00:20:10
00001 suncat0154 pw.x -in pw.inp   Done                     01/02/2019 00:20:10
00002 suncat0154 pw.x -in pw.inp   Done                     01/02/2019 00:20:10
00003 suncat0154 pw.x -in pw.inp   Done                     01/02/2019 00:20:10
00004 suncat0154 pw.x -in pw.inp   Done                     01/02/2019 00:20:10
00005 suncat0154 pw.x -in pw.inp   Done                     01/02/2019 00:20:10
00006 suncat0154 pw.x -in pw.inp   Done                     01/02/2019 00:20:10
00007 suncat0154 pw.x -in pw.inp   Done                     01/02/2019 00:20:10
00008 suncat0143 pw.x -in pw.inp   Done                     01/02/2019 00:20:10
00009 suncat0143 pw.x -in pw.inp   Done                     01/02/2019 00:20:10
00010 suncat0143 pw.x -in pw.inp   Done                     01/02/2019 00:20:10
00011 suncat0143 pw.x -in pw.inp   Done                     01/02/2019 00:20:10
00012 suncat0143 pw.x -in pw.inp   Done                     01/02/2019 00:20:10
00013 suncat0143 pw.x -in pw.inp   Done                     01/02/2019 00:20:10
00014 suncat0143 pw.x -in pw.inp   Done                     01/02/2019 00:20:10
00015 suncat0143 pw.x -in pw.inp   Done                     01/02/2019 00:20:10
00016 suncat0108 pw.x -in pw.inp   Done                     01/02/2019 00:20:10
00017 suncat0108 pw.x -in pw.inp   Done                     01/02/2019 00:20:10
00018 suncat0108 pw.x -in pw.inp   Done                     01/02/2019 00:20:10
00019 suncat0108 pw.x -in pw.inp   Done                     01/02/2019 00:20:10
00020 suncat0108 pw.x -in pw.inp   Done                     01/02/2019 00:20:10
00021 suncat0108 pw.x -in pw.inp   Done                     01/02/2019 00:20:10
00022 suncat0108 pw.x -in pw.inp   Done                     01/02/2019 00:20:10
00023 suncat0108 pw.x -in pw.inp   Done                     01/02/2019 00:20:10
00024 suncat0252 pw.x -in pw.inp   Done                     01/02/2019 00:20:10
00025 suncat0252 pw.x -in pw.inp   Done                     01/02/2019 00:20:10
00026 suncat0252 pw.x -in pw.inp   Done                     01/02/2019 00:20:10
00027 suncat0252 pw.x -in pw.inp   Done                     01/02/2019 00:20:10
00028 suncat0252 pw.x -in pw.inp   Done                     01/02/2019 00:20:10
00029 suncat0252 pw.x -in pw.inp   Done                     01/02/2019 00:20:10
00030 suncat0252 pw.x -in pw.inp   Done                     01/02/2019 00:20:10
00031 suncat0252 pw.x -in pw.inp   Done                     01/02/2019 00:20:10
00032 suncat0226 pw.x -in pw.inp   Done                     01/02/2019 00:20:10
00033 suncat0226 pw.x -in pw.inp   Done                     01/02/2019 00:20:10
00034 suncat0226 pw.x -in pw.inp   Done                     01/02/2019 00:20:10
00035 suncat0226 pw.x -in pw.inp   Done                     01/02/2019 00:20:10
00036 suncat0226 pw.x -in pw.inp   Done                     01/02/2019 00:20:10
00037 suncat0226 pw.x -in pw.inp   Done                     01/02/2019 00:20:10
00038 suncat0226 pw.x -in pw.inp   Done                     01/02/2019 00:20:10
00039 suncat0226 pw.x -in pw.inp   Done                     01/02/2019 00:20:10
00040 suncat0225 pw.x -in pw.inp   Done                     01/02/2019 00:20:10
00041 suncat0225 pw.x -in pw.inp   Done                     01/02/2019 00:20:10
00042 suncat0225 pw.x -in pw.inp   Done                     01/02/2019 00:20:10
00043 suncat0225 pw.x -in pw.inp   Done                     01/02/2019 00:20:10
00044 suncat0225 pw.x -in pw.inp   Done                     01/02/2019 00:20:10
00045 suncat0225 pw.x -in pw.inp   Done                     01/02/2019 00:20:10
00046 suncat0225 pw.x -in pw.inp   Done                     01/02/2019 00:20:10
00047 suncat0225 pw.x -in pw.inp   Done                     01/02/2019 00:20:10
00048 suncat0224 pw.x -in pw.inp   Done                     01/02/2019 00:20:10
00049 suncat0224 pw.x -in pw.inp   Done                     01/02/2019 00:20:10
00050 suncat0224 pw.x -in pw.inp   Done                     01/02/2019 00:20:10
00051 suncat0224 pw.x -in pw.inp   Done                     01/02/2019 00:20:10
00052 suncat0224 pw.x -in pw.inp   Done                     01/02/2019 00:20:10
00053 suncat0224 pw.x -in pw.inp   Done                     01/02/2019 00:20:10
00054 suncat0224 pw.x -in pw.inp   Done                     01/02/2019 00:20:10
00055 suncat0224 pw.x -in pw.inp   Done                     01/02/2019 00:20:10
00056 suncat0223 pw.x -in pw.inp   Done                     01/02/2019 00:20:10
00057 suncat0223 pw.x -in pw.inp   Done                     01/02/2019 00:20:10
00058 suncat0223 pw.x -in pw.inp   Done                     01/02/2019 00:20:10
00059 suncat0223 pw.x -in pw.inp   Done                     01/02/2019 00:20:10
00060 suncat0223 pw.x -in pw.inp   Done                     01/02/2019 00:20:10
00061 suncat0223 pw.x -in pw.inp   Done                     01/02/2019 00:20:10
00062 suncat0223 pw.x -in pw.inp   Done                     01/02/2019 00:20:10
00063 suncat0223 pw.x -in pw.inp   Done                     01/02/2019 00:20:10