     Program PWSCF v.5.1rc2 (svn rev. 11289) starts on 19Dec2018 at 20:55: 1

     Current dimensions of program PWSCF are:
     Max number of different atomic species (ntypx) = 10
     Max number of k-points (npk) =  40000
     Max angular momentum in pseudopotentials (lmaxx) =  3
     Presently stress not available with electric field

     IMPORTANT: XC functional enforced from input :
     Exchange-correlation      = BEEF-VDW ( 1  4 27 13 2)
     Any further DFT definition will be discarded
     Please, verify this is what you really want

     Subspace diagonalization in iterative solution of the eigenvalue problem:
     a serial algorithm will be used

     bravais-lattice index     =            0
     lattice parameter (alat)  =       1.8897  a.u.
     unit-cell volume          =    5229.6573 (a.u.)^3
     number of atoms/cell      =           12
     number of atomic types    =            2
     number of electrons       =       153.00
     number of Kohn-Sham states=          106
     kinetic-energy cutoff     =      36.7493  Ry
     charge density cutoff     =     367.4932  Ry
     convergence threshold     =      1.0E-06
     mixing beta               =       0.1000
     number of iterations used =           10  plain     mixing
     Exchange-correlation      = BEEF-VDW ( 1  4 27 13 2)
     nstep                     =           50

     celldm(1)=   1.889726  celldm(2)=   0.000000  celldm(3)=   0.000000
     celldm(4)=   0.000000  celldm(5)=   0.000000  celldm(6)=   0.000000

     crystal axes: (cart. coord. in units of alat)
               a(1) = (   5.995360   0.000000   0.000000 )
               a(2) = (  -2.997680   5.192134   0.000000 )
               a(3) = (   0.000000   0.000000  24.895191 )

     reciprocal axes: (cart. coord. in units 2 pi/alat)
               b(1) = (  0.166796  0.096300  0.000000 )
               b(2) = (  0.000000  0.192599  0.000000 )
               b(3) = (  0.000000  0.000000  0.040168 )

     PseudoPot. # 1 for Cd read from file:
     /afs/slac.stanford.edu/u/if/mamunm/psp/gbrv1.5pbe/Cd.UPF
     MD5 check sum: 17164a7926edb8e0dc231208abae86a6
     Pseudo is Ultrasoft + core correction, Zval = 12.0
     Generated by new atomic code, or converted to UPF format
     Using radial grid of  889 points,  6 beta functions with:
                l(1) =   0
                l(2) =   0
                l(3) =   1
                l(4) =   1
                l(5) =   2
                l(6) =   2
     Q(r) pseudized with  6 coefficients,  rinner =    1.000   1.000   1.000
                                                       1.000   1.000

     PseudoPot. # 2 for Ir read from file:
     /afs/slac.stanford.edu/u/if/mamunm/psp/gbrv1.5pbe/Ir.UPF
     MD5 check sum: 8836f839c3459d2b385c504ce6d91f2c
     Pseudo is Ultrasoft + core correction, Zval = 15.0
     Generated by new atomic code, or converted to UPF format
     Using radial grid of  983 points,  7 beta functions with:
                l(1) =   0
                l(2) =   0
                l(3) =   1
                l(4) =   1
                l(5) =   1
                l(6) =   2
                l(7) =   2
     Q(r) pseudized with  8 coefficients,  rinner =    1.400   1.400   1.400
                                                       1.400   1.400

     vdW kernel table read from file vdW_kernel_table
     MD5 check sum: 095c7af220d748ca6e76c0b4c6cfb241

     atomic species   valence    mass     pseudopotential
        Cd1           12.00   112.41400     Cd( 1.00)
        Ir1           15.00   192.21700     Ir( 1.00)

     No symmetry found

   Cartesian axes

     site n.     atom                  positions (alat units)
         1           Cd1 tau(   1) = (   0.0000000   0.0000000  10.0000000  )
         2           Cd1 tau(   2) = (  -1.4988400   2.5960670  10.0000000  )
         3           Cd1 tau(   3) = (   1.4988400   2.5960670  10.0000000  )
         4           Ir1 tau(   4) = (   2.9976800   0.0000000  10.0000000  )
         5           Cd1 tau(   5) = (   2.9976800   1.7307114  12.4475955  )
         6           Cd1 tau(   6) = (   1.4988400   4.3267784  12.4475955  )
         7           Cd1 tau(   7) = (  -1.4988400   4.3267784  12.4475955  )
         8           Ir1 tau(   8) = (   0.0000000   1.7307114  12.4475955  )
         9           Cd1 tau(   9) = (  -0.0000000   3.4614227  14.8951910  )
        10           Cd1 tau(  10) = (   1.4988400   0.8653557  14.8951910  )
        11           Cd1 tau(  11) = (   4.4965200   0.8653557  14.8951910  )
        12           Ir1 tau(  12) = (   2.9976800   3.4614227  14.8951910  )

     number of k points=    20  Fermi-Dirac smearing, width (Ry)=  0.0110
                       cart. coord. in units 2pi/alat
        k(    1) = (   0.0000000   0.0000000   0.0000000), wk =   0.0555556
        k(    2) = (   0.0000000   0.0320998   0.0000000), wk =   0.1111111
        k(    3) = (   0.0000000   0.0641997   0.0000000), wk =   0.1111111
        k(    4) = (   0.0000000  -0.0962995   0.0000000), wk =   0.0555556
        k(    5) = (   0.0277993   0.0160499   0.0000000), wk =   0.1111111
        k(    6) = (   0.0277993   0.0481498   0.0000000), wk =   0.1111111
        k(    7) = (   0.0277993   0.0802496   0.0000000), wk =   0.1111111
        k(    8) = (   0.0277993  -0.0802496   0.0000000), wk =   0.1111111
        k(    9) = (   0.0277993  -0.0481498   0.0000000), wk =   0.1111111
        k(   10) = (   0.0277993  -0.0160499   0.0000000), wk =   0.1111111
        k(   11) = (   0.0555986   0.0320998   0.0000000), wk =   0.1111111
        k(   12) = (   0.0555986   0.0641997   0.0000000), wk =   0.1111111
        k(   13) = (   0.0555986   0.0962995   0.0000000), wk =   0.1111111
        k(   14) = (   0.0555986  -0.0641997   0.0000000), wk =   0.1111111
        k(   15) = (   0.0555986  -0.0320998   0.0000000), wk =   0.1111111
        k(   16) = (   0.0555986   0.0000000   0.0000000), wk =   0.1111111
        k(   17) = (  -0.0833978  -0.0481498   0.0000000), wk =   0.0555556
        k(   18) = (  -0.0833978  -0.0160499   0.0000000), wk =   0.1111111
        k(   19) = (  -0.0833978   0.0160499   0.0000000), wk =   0.1111111
        k(   20) = (  -0.0833978  -0.1444493   0.0000000), wk =   0.0555556

     Largest allocated arrays     est. size (Mb)     dimensions
     Largest temporary arrays     est. size (Mb)     dimensions

     Initial potential from superposition of free atoms
     Check: negative starting charge=   -1.284319

     starting charge  146.99953, renormalised to  153.00000

     negative rho (up, down):  1.337E+00 0.000E+00

     *
     * You are using vdW-DF for exchange-correlation in this calculation.
     * Please cite the following three references that made this development
     * possible:
     *
     *   M. Dion, H. Rydberg, E. Schroder, D. C. Langreth, and
     *   B. I. Lundqvist, Phys. Rev. Lett. 92, 246401 (2004).
     *
     *   T. Thonhauser, V. R. Cooper, S. Li, A. Puzder, P. Hyldgaard, and
     *   D. C. Langreth, Phys. Rev. B 76, 125112 (2007).
     *
     *   G. Roman-Perez and J. M. Soler, Phys. Rev. Lett. 103, 096102 (2009).
     *
     *
     * If you are using vdW-DF2, please also cite:
     *
     *   K. Lee, E. D. Murray, L. Kong, B. I. Lundqvist, and
     *   D. C. Langreth, Phys. Rev. B 82, 081101(R) (2010).
     *
     *
     * If you are calculating the stress with vdW-DF, please also cite:
     *
     *   R. Sabatini, E. Kucukbenli, B. Kolb, T. Thonhauser, and
     *   S. de Gironcoli, J. Phys.: Condens. Matter 24, 424209 (2012).
     *

     Carrying out vdW-DF run using the following parameters:

     Nqs =      20    Nr_points =    1024   r_max =   100.000
     q_mesh =
               0.00001000     0.04494208     0.09755937     0.15916263
               0.23128650     0.31572767     0.41458969     0.53033537
               0.66584808     0.82450364     1.01025438     1.22772762
               1.48234092     1.78043706     2.12944203     2.53805004
               3.01644009     3.57652955     4.23227104     5.00000000

     Gradients computed in reciprocal space

     Adding external electric field

     Computed dipole along edir(3) :
        Dipole                0.0000 Ry au,          0.0000 Debye
        Dipole field          0.0000 Ry au

        Potential amp.       -0.0000 Ry
        Total length         45.8690 bohr

     Starting wfc are  117 randomized atomic wfcs

     Self-consistent Calculation

     iteration #  1     ecut=    36.75 Ry     beta=0.10
     Davidson diagonalization with overlap
     ethr =  1.00E-02,  avg # of iterations =  7.7

[...]

     total energy              =   -1594.12298794 Ry
     Harris-Foulkes estimate   =   -1596.28016988 Ry
     estimated scf accuracy    <      12.71730207 Ry

[...]

     End of self-consistent calculation

          k = 0.0000 0.0000 0.0000 ( 19543 PWs)   bands (ev):

   -47.3553 -47.3553 -47.2915 -47.1977 -47.1977 -47.1976 -47.1976 -47.0773
   -47.0771  -9.1557  -8.9506  -8.9159  -8.9159  -8.8144  -8.8021  -8.7469
    -8.6628  -8.6628  -8.5325  -8.5324  -8.5192  -8.5192  -8.4146  -8.3315
    -8.3315  -8.2685  -8.2238  -8.1158  -8.1020  -8.1020  -8.0403  -8.0085
    -8.0085  -7.9478  -7.9478  -7.7874  -7.7874  -7.7244  -7.7244  -7.6991
    -7.6920  -7.6920  -7.6750  -7.6750  -7.6432  -7.6432  -7.4882  -7.4882
    -7.4595  -7.4069  -7.4028  -7.3734  -7.3734  -7.1792  -7.1751  -5.6083
    -3.1691  -2.0441  -2.0441  -1.6194  -1.5774  -1.5774  -1.2859  -1.2859
    -1.2649  -0.6535  -0.6535  -0.3485  -0.2942  -0.2942  -0.0164  -0.0164
     0.0804   0.4045   0.5561   0.5561   0.8772   1.2335   1.2335   1.2405
     1.2590   1.2590   2.5676   3.3014   3.3014   3.8113   3.8113   3.8351
     4.0881   4.4444   4.5534   4.5534   4.6977   5.0921   6.0632   6.2205
     7.2293   7.2294   7.3035   7.4297   7.6618   7.6618   7.9490   8.2672
     9.0678   9.1413

[...]

          k =-0.0834-0.0481 0.0000 ( 19684 PWs)   bands (ev):

[...]

     the Fermi energy is     0.7819 ev

!    total energy              =   -1594.59497295 Ry
     Harris-Foulkes estimate   =   -1594.59615229 Ry
     estimated scf accuracy    <       0.00000060 Ry

     The total energy is the sum of the following terms:

     one-electron contribution =  -10852.51930458 Ry
     hartree contribution      =    5504.49789701 Ry
     xc contribution           =    -523.33304814 Ry
     ewald contribution        =    4276.79691433 Ry
     electric field correction =       0.00000000 Ry
     smearing contrib. (-TS)   =      -0.03743157 Ry

     convergence has been achieved in  15 iterations

 BEEF-vdW xc energy contributions
           1 :   -459.935700424223
           2 :    422.893195287385
           3 :   -359.358447793438
           4 :    285.841421151624
           5 :   -218.270396703912
           6 :    166.645464346868
           7 :   -133.007710656754
           8 :    113.038104109152
           9 :   -99.8842873373114
          10 :    87.9955269218228
          11 :   -75.1718198206273
          12 :    62.2933085350995
          13 :   -51.5090575212878
          14 :    44.2904420398936
          15 :   -40.4829246755396
          16 :    38.6371824851030
[...]
     Pseudo is Ultrasoft + core correction, Zval = 12.0
     Generated by new atomic code, or converted to UPF format
     Using radial grid of  889 points,  6 beta functions with:
                l(1) =   0
                l(2) =   0
                l(3) =   1
                l(4) =   1
                l(5) =   2
                l(6) =   2
     Q(r) pseudized with  6 coefficients,  rinner =    1.000   1.000   1.000
                                                       1.000   1.000

     PseudoPot. # 2 for Ir read from file:
     /afs/slac.stanford.edu/u/if/mamunm/psp/gbrv1.5pbe/Ir.UPF
     MD5 check sum: 8836f839c3459d2b385c504ce6d91f2c
     Pseudo is Ultrasoft + core correction, Zval = 15.0
     Generated by new atomic code, or converted to UPF format
     Using radial grid of  983 points,  7 beta functions with:
                l(1) =   0
                l(2) =   0
                l(3) =   1
                l(4) =   1
                l(5) =   1
                l(6) =   2
                l(7) =   2
     Q(r) pseudized with  8 coefficients,  rinner =    1.400   1.400   1.400
                                                       1.400   1.400

     vdW kernel table read from file vdW_kernel_table
     MD5 check sum: 095c7af220d748ca6e76c0b4c6cfb241

     atomic species   valence    mass     pseudopotential
        Cd1           12.00   112.41400     Cd( 1.00)
        Ir1           15.00   192.21700     Ir( 1.00)

     No symmetry found

   Cartesian axes

     site n.     atom                  positions (alat units)
         1           Cd1 tau(   1) = (   0.0000000   0.0000000  10.0000000  )
         2           Cd1 tau(   2) = (  -1.4988400   2.5960670  10.0000000  )
         3           Cd1 tau(   3) = (   1.4988400   2.5960670  10.0000000  )
         4           Ir1 tau(   4) = (   2.9976800   0.0000000  10.0000000  )
         5           Cd1 tau(   5) = (   2.9976800   1.7307114  12.4475955  )
         6           Cd1 tau(   6) = (   1.4988400   4.3267784  12.4475955  )
         7           Cd1 tau(   7) = (  -1.4988400   4.3267784  12.4475955  )
         8           Ir1 tau(   8) = (   0.0000000   1.7307114  12.4475955  )
         9           Cd1 tau(   9) = (   0.0000014   3.4464706  15.0743916  )
        10           Cd1 tau(  10) = (   1.4858818   0.8728044  15.0744166  )
        11           Cd1 tau(  11) = (   4.5094854   0.8728035  15.0744266  )
        12           Ir1 tau(  12) = (   2.9976836   3.4614216  14.6751129  )

     number of k points=    20  Fermi-Dirac smearing, width (Ry)=  0.0110
                       cart. coord. in units 2pi/alat
        k(    1) = (   0.0000000   0.0000000   0.0000000), wk =   0.0555556
        k(    2) = (   0.0000000   0.0320998   0.0000000), wk =   0.1111111
        k(    3) = (   0.0000000   0.0641997   0.0000000), wk =   0.1111111
        k(    4) = (   0.0000000  -0.0962995   0.0000000), wk =   0.0555556
        k(    5) = (   0.0277993   0.0160499   0.0000000), wk =   0.1111111
        k(    6) = (   0.0277993   0.0481498   0.0000000), wk =   0.1111111
        k(    7) = (   0.0277993   0.0802496   0.0000000), wk =   0.1111111
        k(    8) = (   0.0277993  -0.0802496   0.0000000), wk =   0.1111111
        k(    9) = (   0.0277993  -0.0481498   0.0000000), wk =   0.1111111
        k(   10) = (   0.0277993  -0.0160499   0.0000000), wk =   0.1111111
        k(   11) = (   0.0555986   0.0320998   0.0000000), wk =   0.1111111
        k(   12) = (   0.0555986   0.0641997   0.0000000), wk =   0.1111111
        k(   13) = (   0.0555986   0.0962995   0.0000000), wk =   0.1111111
        k(   14) = (   0.0555986  -0.0641997   0.0000000), wk =   0.1111111
        k(   15) = (   0.0555986  -0.0320998   0.0000000), wk =   0.1111111
        k(   16) = (   0.0555986   0.0000000   0.0000000), wk =   0.1111111
        k(   17) = (  -0.0833978  -0.0481498   0.0000000), wk =   0.0555556
        k(   18) = (  -0.0833978  -0.0160499   0.0000000), wk =   0.1111111
        k(   19) = (  -0.0833978   0.0160499   0.0000000), wk =   0.1111111
        k(   20) = (  -0.0833978  -0.1444493   0.0000000), wk =   0.0555556

     Largest allocated arrays     est. size (Mb)     dimensions
     Largest temporary arrays     est. size (Mb)     dimensions

     Initial potential from superposition of free atoms
     Check: negative starting charge=   -1.285074

     starting charge  146.99953, renormalised to  153.00000

[...]

     *
     * You are using vdW-DF for exchange-correlation in this calculation.
     * Please cite the following three references that made this development
     * possible:
     *
     *   M. Dion, H. Rydberg, E. Schroder, D. C. Langreth, and
     *   B. I. Lundqvist, Phys. Rev. Lett. 92, 246401 (2004).
     *
     *   T. Thonhauser, V. R. Cooper, S. Li, A. Puzder, P. Hyldgaard, and
     *   D. C. Langreth, Phys. Rev. B 76, 125112 (2007).
     *
     *   G. Roman-Perez and J. M. Soler, Phys. Rev. Lett. 103, 096102 (2009).
     *
     *
     * If you are using vdW-DF2, please also cite:
     *
     *   K. Lee, E. D. Murray, L. Kong, B. I. Lundqvist, and
     *   D. C. Langreth, Phys. Rev. B 82, 081101(R) (2010).
     *
     *
     * If you are calculating the stress with vdW-DF, please also cite:
     *
     *   R. Sabatini, E. Kucukbenli, B. Kolb, T. Thonhauser, and
     *   S. de Gironcoli, J. Phys.: Condens. Matter 24, 424209 (2012).
     *

     Carrying out vdW-DF run using the following parameters:

     Nqs =      20    Nr_points =    1024   r_max =   100.000
     q_mesh =
               0.00001000     0.04494208     0.09755937     0.15916263
               0.23128650     0.31572767     0.41458969     0.53033537
               0.66584808     0.82450364     1.01025438     1.22772762
               1.48234092     1.78043706     2.12944203     2.53805004
               3.01644009     3.57652955     4.23227104     5.00000000

     Gradients computed in reciprocal space

[...]

     Starting wfc are  117 randomized atomic wfcs

     Self-consistent Calculation

[...]

     iteration # 10     ecut=    36.75 Ry     beta=0.10
     Davidson diagonalization with overlap
     c_bands:  1 eigenvalues not converged
     ethr =  2.19E-06,  avg # of iterations =  6.0

[...]

     total energy              =   -1594.62310500 Ry
     Harris-Foulkes estimate   =   -1594.62310382 Ry
     estimated scf accuracy    <       0.00000193 Ry

     iteration # 16     ecut=    36.75 Ry     beta=0.10
     Davidson diagonalization with overlap
     ethr =  1.26E-09,  avg # of iterations =  4.0

[...]

     negative rho (up, down):  1.205E+00 0.000E+00

     Adding external electric field

     Computed dipole along edir(3) :
        Dipole                0.0495 Ry au,          0.1259 Debye
        Dipole field          0.0001 Ry au

        Potential amp.       -0.0109 Ry
        Total length         45.8690 bohr

     End of self-consistent calculation

[...]

          k = 0.0556 0.0000 0.0000 ( 19643 PWs)   bands (ev):

[...]

          k =-0.0834-0.1444 0.0000 ( 19684 PWs)   bands (ev):

   -47.2411 -47.2410 -47.2226 -47.2224 -47.1552 -47.1483 -47.1228 -47.1227
   -47.0234  -8.7295  -8.6053  -8.5654  -8.4909  -8.4552  -8.4085  -8.3609
    -8.3239  -8.3166  -8.2659  -8.2518  -8.2346  -8.1801  -8.1424  -8.0999
    -8.0936  -8.0413  -7.9830  -7.9553  -7.9529  -7.9421  -7.9229  -7.8876
    -7.8809  -7.8701  -7.8512  -7.8407  -7.8086  -7.7893  -7.7790  -7.7654
    -7.7575  -7.7446  -7.7245  -7.7155  -7.6989  -7.6869  -7.6288  -7.5836
    -7.5588  -7.5424  -7.5193  -7.4054  -7.3067  -7.2451  -5.6801  -5.5224
    -4.2085  -3.7632  -3.0727  -2.1439  -2.0099  -1.8707  -1.5190  -1.4206
    -1.0302  -0.9796  -0.7745  -0.6994  -0.6964  -0.5902  -0.4058  -0.2493
    -0.1170  -0.0304   0.4758   0.5455   0.8267   1.0960   1.2857   2.4852
     2.5468   2.7400   2.9565   4.8841   4.9286   5.0456   5.0476   5.1691
     5.4761   5.5225   5.6605   5.9938   6.0650   6.3788   6.4209   6.5799
     6.6447   6.6757   7.3415   7.3769   7.4099   7.4551   7.5007   7.8107
     7.8926   7.9379

     the Fermi energy is     0.8587 ev

!    total energy              =   -1594.62308713 Ry
     Harris-Foulkes estimate   =   -1594.62310508 Ry
     estimated scf accuracy    <       0.00000073 Ry

     The total energy is the sum of the following terms:

     one-electron contribution =  -10750.18908050 Ry
     hartree contribution      =    5453.82578720 Ry
     xc contribution           =    -523.28672564 Ry
     ewald contribution        =    4225.06336878 Ry
     electric field correction =       0.00000589 Ry
     smearing contrib. (-TS)   =      -0.03644286 Ry

     convergence has been achieved in  16 iterations

 BEEF-vdW xc energy contributions
           1 :   -460.078885032744
           2 :    422.994406137702
           3 :   -359.409372318189
           4 :    285.877253515204
           5 :   -218.343981393117
           6 :    166.784871309815
           7 :   -133.192977044308
           8 :    113.216377678079
           9 :   -100.011214862547
          10 :    88.0701600270477
          11 :   -75.2377535106885
          12 :    62.4051590658332
          13 :   -51.6904180140065
          14 :    44.5159967711242
          15 :   -40.6984311989583
          16 :    38.8018048490258
          17 :   -37.2067125571050
          18 :    35.0537441791865
          19 :   -32.5011472418659
          20 :    30.2866442373070
          21 :   -29.0216005273008
          22 :    28.7229352641060
          23 :   -28.8389987710155
          24 :    28.6643908527706
          25 :   -27.8133828800969
          26 :    26.4352607095942
          27 :   -25.0630264697408
          28 :    24.2307540202286
          29 :   -24.1265370674873
          30 :    24.4952480407457
          31 :   -40.7614049646081
          32 :   -29.9625314424479

     Forces acting on atoms (Ry/au):

     negative rho (up, down):  1.205E+00 0.000E+00
     atom    1 type  1   force =    -0.00000107    0.00909200   -0.02067723
     atom    2 type  1   force =     0.00787987   -0.00454658   -0.02066723
     atom    3 type  1   force =    -0.00787624   -0.00454419   -0.02065986
     atom    4 type  2   force =    -0.00000146    0.00000052    0.05084597
     atom    5 type  1   force =    -0.00000752   -0.01266633    0.00118338
     atom    6 type  1   force =    -0.01096807    0.00632870    0.00119405
     atom    7 type  1   force =     0.01097094    0.00633957    0.00118125
     atom    8 type  2   force =    -0.00000119   -0.00000001    0.00544905
     atom    9 type  1   force =     0.00000422   -0.00155836    0.00066133
     atom   10 type  1   force =    -0.00135016    0.00078405    0.00065869
     atom   11 type  1   force =     0.00135175    0.00077262    0.00066550
     atom   12 type  2   force =    -0.00000108   -0.00000199    0.00016509

     Total force =     0.068109     Total SCF correction =     0.002195

     entering subroutine stress ...

     negative rho (up, down):  1.205E+00 0.000E+00
          total   stress  (Ry/bohr**3)                   (kbar)     P=  -14.07
  -0.00013278   0.00000000  -0.00000000        -19.53      0.00     -0.00
   0.00000000  -0.00013278   0.00000000          0.00    -19.53      0.00
  -0.00000000   0.00000000  -0.00002130         -0.00      0.00     -3.13

 !ASE

     Writing output data file calc.save

     General routines

     Parallel routines

   This run was terminated on:  22:20:18  19Dec2018

   JOB DONE.
Job  /afs/slac/g/suncat/bin/suncat-tsmpirun -x LD_LIBRARY_PATH -wdir /scratch/qe773434_jlqvo pw.x -in pw.inp

TID   HOST_NAME   COMMAND_LINE            STATUS            TERMINATION_TIME
00000 suncat0054 pw.x -in pw.inp   Done                     12/19/2018 22:20:18
00001 suncat0054 pw.x -in pw.inp   Done                     12/19/2018 22:20:18
00002 suncat0054 pw.x -in pw.inp   Done                     12/19/2018 22:20:18
00003 suncat0054 pw.x -in pw.inp   Done                     12/19/2018 22:20:18
00004 suncat0054 pw.x -in pw.inp   Done                     12/19/2018 22:20:18
00005 suncat0054 pw.x -in pw.inp   Done                     12/19/2018 22:20:18
00006 suncat0054 pw.x -in pw.inp   Done                     12/19/2018 22:20:18
00007 suncat0054 pw.x -in pw.inp   Done                     12/19/2018 22:20:18
00008 suncat0053 pw.x -in pw.inp   Done                     12/19/2018 22:20:19
00009 suncat0053 pw.x -in pw.inp   Done                     12/19/2018 22:20:18
00010 suncat0053 pw.x -in pw.inp   Done                     12/19/2018 22:20:19
00011 suncat0053 pw.x -in pw.inp   Done                     12/19/2018 22:20:19
00012 suncat0053 pw.x -in pw.inp   Done                     12/19/2018 22:20:19
00013 suncat0053 pw.x -in pw.inp   Done                     12/19/2018 22:20:18
00014 suncat0053 pw.x -in pw.inp   Done                     12/19/2018 22:20:19
00015 suncat0053 pw.x -in pw.inp   Done                     12/19/2018 22:20:19
00016 suncat0040 pw.x -in pw.inp   Done                     12/19/2018 22:20:19
00017 suncat0040 pw.x -in pw.inp   Done                     12/19/2018 22:20:18
00018 suncat0040 pw.x -in pw.inp   Done                     12/19/2018 22:20:19
00019 suncat0040 pw.x -in pw.inp   Done                     12/19/2018 22:20:18
00020 suncat0040 pw.x -in pw.inp   Done                     12/19/2018 22:20:19
00021 suncat0040 pw.x -in pw.inp   Done                     12/19/2018 22:20:18
00022 suncat0040 pw.x -in pw.inp   Done                     12/19/2018 22:20:18
00023 suncat0040 pw.x -in pw.inp   Done                     12/19/2018 22:20:18
00024 suncat0039 pw.x -in pw.inp   Done                     12/19/2018 22:20:18
00025 suncat0039 pw.x -in pw.inp   Done                     12/19/2018 22:20:18
00026 suncat0039 pw.x -in pw.inp   Done                     12/19/2018 22:20:18
00027 suncat0039 pw.x -in pw.inp   Done                     12/19/2018 22:20:18
00028 suncat0039 pw.x -in pw.inp   Done                     12/19/2018 22:20:18
00029 suncat0039 pw.x -in pw.inp   Done                     12/19/2018 22:20:18
00030 suncat0039 pw.x -in pw.inp   Done                     12/19/2018 22:20:18
00031 suncat0039 pw.x -in pw.inp   Done                     12/19/2018 22:20:18
00032 suncat0038 pw.x -in pw.inp   Done                     12/19/2018 22:20:18
00033 suncat0038 pw.x -in pw.inp   Done                     12/19/2018 22:20:18
00034 suncat0038 pw.x -in pw.inp   Done                     12/19/2018 22:20:18
00035 suncat0038 pw.x -in pw.inp   Done                     12/19/2018 22:20:18
00036 suncat0038 pw.x -in pw.inp   Done                     12/19/2018 22:20:18
00037 suncat0038 pw.x -in pw.inp   Done                     12/19/2018 22:20:18
00038 suncat0038 pw.x -in pw.inp   Done                     12/19/2018 22:20:18
00039 suncat0038 pw.x -in pw.inp   Done                     12/19/2018 22:20:18
00040 suncat0037 pw.x -in pw.inp   Done                     12/19/2018 22:20:18
00041 suncat0037 pw.x -in pw.inp   Done                     12/19/2018 22:20:18
00042 suncat0037 pw.x -in pw.inp   Done                     12/19/2018 22:20:18
00043 suncat0037 pw.x -in pw.inp   Done                     12/19/2018 22:20:18
00044 suncat0037 pw.x -in pw.inp   Done                     12/19/2018 22:20:19
00045 suncat0037 pw.x -in pw.inp   Done                     12/19/2018 22:20:18
00046 suncat0037 pw.x -in pw.inp   Done                     12/19/2018 22:20:18
00047 suncat0037 pw.x -in pw.inp   Done                     12/19/2018 22:20:19
00048 suncat0180 pw.x -in pw.inp   Done                     12/19/2018 22:20:18
00049 suncat0180 pw.x -in pw.inp   Done                     12/19/2018 22:20:19
00050 suncat0180 pw.x -in pw.inp   Done                     12/19/2018 22:20:19
00051 suncat0180 pw.x -in pw.inp   Done                     12/19/2018 22:20:19
00052 suncat0180 pw.x -in pw.inp   Done                     12/19/2018 22:20:19
00053 suncat0180 pw.x -in pw.inp   Done                     12/19/2018 22:20:19
00054 suncat0180 pw.x -in pw.inp   Done                     12/19/2018 22:20:19
00055 suncat0180 pw.x -in pw.inp   Done                     12/19/2018 22:20:19
00056 suncat0179 pw.x -in pw.inp   Done                     12/19/2018 22:20:19
00057 suncat0179 pw.x -in pw.inp   Done                     12/19/2018 22:20:18
00058 suncat0179 pw.x -in pw.inp   Done                     12/19/2018 22:20:19
00059 suncat0179 pw.x -in pw.inp   Done                     12/19/2018 22:20:19
00060 suncat0179 pw.x -in pw.inp   Done                     12/19/2018 22:20:19
00061 suncat0179 pw.x -in pw.inp   Done                     12/19/2018 22:20:19
00062 suncat0179 pw.x -in pw.inp   Done                     12/19/2018 22:20:19
00063 suncat0179 pw.x -in pw.inp   Done                     12/19/2018 22:20:19