     Program PWSCF v.5.1rc2 (svn rev. 11289) starts on 19Dec2018 at 23:17:13

     Current dimensions of program PWSCF are:
     Max number of different atomic species (ntypx) = 10
     Max number of k-points (npk) =  40000
     Max angular momentum in pseudopotentials (lmaxx) =  3
     Presently stress not available with electric field

     IMPORTANT: XC functional enforced from input :
     Exchange-correlation      = BEEF-VDW ( 1  4 27 13 2)
     Any further DFT definition will be discarded
     Please, verify this is what you really want

     Subspace diagonalization in iterative solution of the eigenvalue problem:
     a serial algorithm will be used

     bravais-lattice index     =            0
     lattice parameter (alat)  =       1.8897  a.u.
     unit-cell volume          =    5382.9020 (a.u.)^3
     number of atoms/cell      =           12
     number of atomic types    =            2
     number of electrons       =       156.00
     number of Kohn-Sham states=          108
     kinetic-energy cutoff     =      36.7493  Ry
     charge density cutoff     =     367.4932  Ry
     convergence threshold     =      1.0E-06
     mixing beta               =       0.1000
     number of iterations used =           10  plain     mixing
     Exchange-correlation      = BEEF-VDW ( 1  4 27 13 2)
     nstep                     =           50

     celldm(1)=   1.889726  celldm(2)=   0.000000  celldm(3)=   0.000000
     celldm(4)=   0.000000  celldm(5)=   0.000000  celldm(6)=   0.000000

     crystal axes: (cart. coord. in units of alat)
               a(1) = (   6.074671   0.000000   0.000000 )
               a(2) = (  -3.037336   5.260820   0.000000 )
               a(3) = (   0.000000   0.000000  24.959948 )

     reciprocal axes: (cart. coord. in units 2 pi/alat)
               b(1) = (  0.164618  0.095042  0.000000 )
               b(2) = (  0.000000  0.190084  0.000000 )
               b(3) = (  0.000000  0.000000  0.040064 )

     PseudoPot. # 1 for Cd read from file:
     /afs/slac.stanford.edu/u/if/mamunm/psp/gbrv1.5pbe/Cd.UPF
     MD5 check sum: 17164a7926edb8e0dc231208abae86a6
     Pseudo is Ultrasoft + core correction, Zval = 12.0
     Generated by new atomic code, or converted to UPF format
     Using radial grid of  889 points,  6 beta functions with:
                l(1) =   0
                l(2) =   0
                l(3) =   1
                l(4) =   1
                l(5) =   2
                l(6) =   2
     Q(r) pseudized with  6 coefficients,  rinner =    1.000   1.000   1.000
                                                       1.000   1.000

     PseudoPot. # 2 for Pd read from file:
     /afs/slac.stanford.edu/u/if/mamunm/psp/gbrv1.5pbe/Pd.UPF
     MD5 check sum: 2d733d2bc2cbfd217af676df1668a4bc
     Pseudo is Ultrasoft + core correction, Zval = 16.0
     Generated by new atomic code, or converted to UPF format
     Using radial grid of  887 points,  6 beta functions with:
                l(1) =   0
                l(2) =   0
                l(3) =   1
                l(4) =   1
                l(5) =   2
                l(6) =   2
     Q(r) pseudized with  8 coefficients,  rinner =    1.130   1.130   1.130
                                                       1.130   1.130

     vdW kernel table read from file vdW_kernel_table
     MD5 check sum: 095c7af220d748ca6e76c0b4c6cfb241

     atomic species   valence    mass     pseudopotential
        Cd1           12.00   112.41400     Cd( 1.00)
        Pd1           16.00   106.42000     Pd( 1.00)

     No symmetry found

   Cartesian axes

     site n.     atom                  positions (alat units)
         1           Cd1 tau(   1) = (   0.0000000   0.0000000  10.0000000  )
         2           Cd1 tau(   2) = (  -1.5186678   2.6304098  10.0000000  )
         3           Cd1 tau(   3) = (   1.5186678   2.6304098  10.0000000  )
         4           Pd1 tau(   4) = (   3.0373356   0.0000000  10.0000000  )
         5           Cd1 tau(   5) = (   3.0373356   1.7536065  12.4799742  )
         6           Cd1 tau(   6) = (   1.5186678   4.3840163  12.4799742  )
         7           Cd1 tau(   7) = (  -1.5186678   4.3840163  12.4799742  )
         8           Pd1 tau(   8) = (   0.0000000   1.7536065  12.4799742  )
         9           Cd1 tau(   9) = (  -0.0000000   3.5072131  14.9599483  )
        10           Cd1 tau(  10) = (   1.5186678   0.8768033  14.9599483  )
        11           Cd1 tau(  11) = (   4.5560034   0.8768033  14.9599483  )
        12           Pd1 tau(  12) = (   3.0373356   3.5072131  14.9599483  )

     number of k points=    20  Fermi-Dirac smearing, width (Ry)=  0.0110
                       cart. coord. in units 2pi/alat
        k(    1) = (   0.0000000   0.0000000   0.0000000), wk =   0.0555556
        k(    2) = (   0.0000000   0.0316807   0.0000000), wk =   0.1111111
        k(    3) = (   0.0000000   0.0633615   0.0000000), wk =   0.1111111
        k(    4) = (   0.0000000  -0.0950422   0.0000000), wk =   0.0555556
        k(    5) = (   0.0274363   0.0158404   0.0000000), wk =   0.1111111
        k(    6) = (   0.0274363   0.0475211   0.0000000), wk =   0.1111111
        k(    7) = (   0.0274363   0.0792019   0.0000000), wk =   0.1111111
        k(    8) = (   0.0274363  -0.0792019   0.0000000), wk =   0.1111111
        k(    9) = (   0.0274363  -0.0475211   0.0000000), wk =   0.1111111
        k(   10) = (   0.0274363  -0.0158404   0.0000000), wk =   0.1111111
        k(   11) = (   0.0548727   0.0316807   0.0000000), wk =   0.1111111
        k(   12) = (   0.0548727   0.0633615   0.0000000), wk =   0.1111111
        k(   13) = (   0.0548727   0.0950422   0.0000000), wk =   0.1111111
        k(   14) = (   0.0548727  -0.0633615   0.0000000), wk =   0.1111111
        k(   15) = (   0.0548727  -0.0316807   0.0000000), wk =   0.1111111
        k(   16) = (   0.0548727   0.0000000   0.0000000), wk =   0.1111111
        k(   17) = (  -0.0823090  -0.0475211   0.0000000), wk =   0.0555556
        k(   18) = (  -0.0823090  -0.0158404   0.0000000), wk =   0.1111111
        k(   19) = (  -0.0823090   0.0158404   0.0000000), wk =   0.1111111
        k(   20) = (  -0.0823090  -0.1425633   0.0000000), wk =   0.0555556

     Largest allocated arrays     est. size (Mb)     dimensions
     Largest temporary arrays     est. size (Mb)     dimensions

     Initial potential from superposition of free atoms
     Check: negative starting charge=   -0.412422

     starting charge  149.99961, renormalised to  156.00000

     negative rho (up, down):  4.289E-01 0.000E+00

     *
     * You are using vdW-DF for exchange-correlation in this calculation.
     * Please cite the following three references that made this development
     * possible:
     *
     *   M. Dion, H. Rydberg, E. Schroder, D. C. Langreth, and
     *   B. I. Lundqvist, Phys. Rev. Lett. 92, 246401 (2004).
     *
     *   T. Thonhauser, V. R. Cooper, S. Li, A. Puzder, P. Hyldgaard, and
     *   D. C. Langreth, Phys. Rev. B 76, 125112 (2007).
     *
     *   G. Roman-Perez and J. M. Soler, Phys. Rev. Lett. 103, 096102 (2009).
     *
     *
     * If you are using vdW-DF2, please also cite:
     *
     *   K. Lee, E. D. Murray, L. Kong, B. I. Lundqvist, and
     *   D. C. Langreth, Phys. Rev. B 82, 081101(R) (2010).
     *
     *
     * If you are calculating the stress with vdW-DF, please also cite:
     *
     *   R. Sabatini, E. Kucukbenli, B. Kolb, T. Thonhauser, and
     *   S. de Gironcoli, J. Phys.: Condens. Matter 24, 424209 (2012).
     *

     Carrying out vdW-DF run using the following parameters:

     Nqs =      20    Nr_points =    1024   r_max =   100.000
     q_mesh =
               0.00001000     0.04494208     0.09755937     0.15916263
               0.23128650     0.31572767     0.41458969     0.53033537
               0.66584808     0.82450364     1.01025438     1.22772762
               1.48234092     1.78043706     2.12944203     2.53805004
               3.01644009     3.57652955     4.23227104     5.00000000

     Gradients computed in reciprocal space

     Adding external electric field

     Computed dipole along edir(3) :
        Dipole               -0.0000 Ry au,         -0.0000 Debye
        Dipole field         -0.0000 Ry au

        Potential amp.        0.0000 Ry
        Total length         45.9883 bohr

     Starting wfc are  117 randomized atomic wfcs

     Self-consistent Calculation

     iteration #  1     ecut=    36.75 Ry     beta=0.10
     Davidson diagonalization with overlap
     ethr =  1.00E-02,  avg # of iterations =  7.7

[...]

     total energy              =   -1641.39686813 Ry
     Harris-Foulkes estimate   =   -1647.18059176 Ry
     estimated scf accuracy    <      32.73667986 Ry

[...]

     End of self-consistent calculation

          k = 0.0000 0.0000 0.0000 ( 20215 PWs)   bands (ev):

   -49.3252 -49.3252 -49.2822 -49.0212 -49.0212 -49.0212 -49.0212 -48.8977
   -48.8976  -9.2445  -9.0999  -9.0718  -9.0716  -8.9337  -8.9293  -8.8763
    -8.8190  -8.8189  -8.7540  -8.7539  -8.6883  -8.6883  -8.5769  -8.5464
    -8.5464  -8.4812  -8.4296  -8.3266  -8.3266  -8.3104  -8.2489  -8.2451
    -8.2449  -8.2008  -8.2007  -8.0308  -8.0308  -7.9874  -7.9874  -7.9748
    -7.9261  -7.9261  -7.9231  -7.9231  -7.8696  -7.8696  -7.7846  -7.7846
    -7.7430  -7.7055  -7.6488  -7.6488  -7.4770  -7.4715  -7.2201  -5.4936
    -3.3149  -2.4894  -2.4894  -2.0076  -2.0076  -2.0046  -2.0046  -1.7983
    -1.6877  -1.4563  -1.4563  -1.4072  -1.4072  -1.1914  -1.1914  -0.8513
    -0.7246  -0.1417  -0.1417   0.1841   0.2306   0.3573   0.3573   0.6879
     0.7464   0.7464   2.1256   2.1256   2.7508   3.1165   3.1165   3.7016
     3.7640   3.7640   4.0087   4.4819   4.6145   4.8443   5.7878   5.8405
     6.5956   6.5956   6.7970   6.7970   6.9199   7.1041   7.5914   7.9377
     8.6358   8.6360   8.6606   8.8847

[...]

          k =-0.0823-0.0475 0.0000 ( 20292 PWs)   bands (ev):

[...]

     the Fermi energy is     0.5974 ev

!    total energy              =   -1644.26200540 Ry
     Harris-Foulkes estimate   =   -1644.26441457 Ry
     estimated scf accuracy    <       0.00000065 Ry

     The total energy is the sum of the following terms:

     one-electron contribution =  -11084.30263505 Ry
     hartree contribution      =    5623.85480879 Ry
     xc contribution           =    -464.99116523 Ry
     ewald contribution        =    4281.20611324 Ry
     electric field correction =       0.00000000 Ry
     smearing contrib. (-TS)   =      -0.02912716 Ry

     convergence has been achieved in  14 iterations

 BEEF-vdW xc energy contributions
           1 :   -406.866730452513
           2 :    372.174649104246
           3 :   -313.494683873781
           4 :    247.342802052324
           5 :   -189.131922610198
           6 :    147.696198464204
           7 :   -123.542768893325
           8 :    111.027047398791
           9 :   -102.726118821169
          10 :    93.4663684063349
          11 :   -82.0933131431261
          12 :    70.6088321914692
          13 :   -61.7903732079913
          14 :    57.0033874752135
          15 :   -55.4410715868399
          16 :    54.9221075201094
[...]
               b(3) = (  0.000000  0.000000  0.040064 )

     PseudoPot. # 1 for Cd read from file:
     /afs/slac.stanford.edu/u/if/mamunm/psp/gbrv1.5pbe/Cd.UPF
     MD5 check sum: 17164a7926edb8e0dc231208abae86a6
     Pseudo is Ultrasoft + core correction, Zval = 12.0
     Generated by new atomic code, or converted to UPF format
     Using radial grid of  889 points,  6 beta functions with:
                l(1) =   0
                l(2) =   0
                l(3) =   1
                l(4) =   1
                l(5) =   2
                l(6) =   2
     Q(r) pseudized with  6 coefficients,  rinner =    1.000   1.000   1.000
                                                       1.000   1.000

     PseudoPot. # 2 for Pd read from file:
     /afs/slac.stanford.edu/u/if/mamunm/psp/gbrv1.5pbe/Pd.UPF
     MD5 check sum: 2d733d2bc2cbfd217af676df1668a4bc
     Pseudo is Ultrasoft + core correction, Zval = 16.0
     Generated by new atomic code, or converted to UPF format
     Using radial grid of  887 points,  6 beta functions with:
                l(1) =   0
                l(2) =   0
                l(3) =   1
                l(4) =   1
                l(5) =   2
                l(6) =   2
     Q(r) pseudized with  8 coefficients,  rinner =    1.130   1.130   1.130
                                                       1.130   1.130

     vdW kernel table read from file vdW_kernel_table
     MD5 check sum: 095c7af220d748ca6e76c0b4c6cfb241

     atomic species   valence    mass     pseudopotential
        Cd1           12.00   112.41400     Cd( 1.00)
        Pd1           16.00   106.42000     Pd( 1.00)

     No symmetry found

   Cartesian axes

     site n.     atom                  positions (alat units)
         1           Cd1 tau(   1) = (   0.0000000   0.0000000  10.0000000  )
         2           Cd1 tau(   2) = (  -1.5186678   2.6304098  10.0000000  )
         3           Cd1 tau(   3) = (   1.5186678   2.6304098  10.0000000  )
         4           Pd1 tau(   4) = (   3.0373356   0.0000000  10.0000000  )
         5           Cd1 tau(   5) = (   3.0373356   1.7536065  12.4799742  )
         6           Cd1 tau(   6) = (   1.5186678   4.3840163  12.4799742  )
         7           Cd1 tau(   7) = (  -1.5186678   4.3840163  12.4799742  )
         8           Pd1 tau(   8) = (   0.0000000   1.7536065  12.4799742  )
         9           Cd1 tau(   9) = (  -0.0000071   3.4924894  15.1703385  )
        10           Cd1 tau(  10) = (   1.5059033   0.8842098  15.1704321  )
        11           Cd1 tau(  11) = (   4.5687697   0.8842044  15.1704159  )
        12           Pd1 tau(  12) = (   3.0373407   3.5072115  14.7402731  )

     number of k points=    20  Fermi-Dirac smearing, width (Ry)=  0.0110
                       cart. coord. in units 2pi/alat
        k(    1) = (   0.0000000   0.0000000   0.0000000), wk =   0.0555556
        k(    2) = (   0.0000000   0.0316807   0.0000000), wk =   0.1111111
        k(    3) = (   0.0000000   0.0633615   0.0000000), wk =   0.1111111
        k(    4) = (   0.0000000  -0.0950422   0.0000000), wk =   0.0555556
        k(    5) = (   0.0274363   0.0158404   0.0000000), wk =   0.1111111
        k(    6) = (   0.0274363   0.0475211   0.0000000), wk =   0.1111111
        k(    7) = (   0.0274363   0.0792019   0.0000000), wk =   0.1111111
        k(    8) = (   0.0274363  -0.0792019   0.0000000), wk =   0.1111111
        k(    9) = (   0.0274363  -0.0475211   0.0000000), wk =   0.1111111
        k(   10) = (   0.0274363  -0.0158404   0.0000000), wk =   0.1111111
        k(   11) = (   0.0548727   0.0316807   0.0000000), wk =   0.1111111
        k(   12) = (   0.0548727   0.0633615   0.0000000), wk =   0.1111111
        k(   13) = (   0.0548727   0.0950422   0.0000000), wk =   0.1111111
        k(   14) = (   0.0548727  -0.0633615   0.0000000), wk =   0.1111111
        k(   15) = (   0.0548727  -0.0316807   0.0000000), wk =   0.1111111
        k(   16) = (   0.0548727   0.0000000   0.0000000), wk =   0.1111111
        k(   17) = (  -0.0823090  -0.0475211   0.0000000), wk =   0.0555556
        k(   18) = (  -0.0823090  -0.0158404   0.0000000), wk =   0.1111111
        k(   19) = (  -0.0823090   0.0158404   0.0000000), wk =   0.1111111
        k(   20) = (  -0.0823090  -0.1425633   0.0000000), wk =   0.0555556

     Largest allocated arrays     est. size (Mb)     dimensions
     Largest temporary arrays     est. size (Mb)     dimensions

     Initial potential from superposition of free atoms
     Check: negative starting charge=   -0.417487

     starting charge  149.99961, renormalised to  156.00000

[...]

     *
     * You are using vdW-DF for exchange-correlation in this calculation.
     * Please cite the following three references that made this development
     * possible:
     *
     *   M. Dion, H. Rydberg, E. Schroder, D. C. Langreth, and
     *   B. I. Lundqvist, Phys. Rev. Lett. 92, 246401 (2004).
     *
     *   T. Thonhauser, V. R. Cooper, S. Li, A. Puzder, P. Hyldgaard, and
     *   D. C. Langreth, Phys. Rev. B 76, 125112 (2007).
     *
     *   G. Roman-Perez and J. M. Soler, Phys. Rev. Lett. 103, 096102 (2009).
     *
     *
     * If you are using vdW-DF2, please also cite:
     *
     *   K. Lee, E. D. Murray, L. Kong, B. I. Lundqvist, and
     *   D. C. Langreth, Phys. Rev. B 82, 081101(R) (2010).
     *
     *
     * If you are calculating the stress with vdW-DF, please also cite:
     *
     *   R. Sabatini, E. Kucukbenli, B. Kolb, T. Thonhauser, and
     *   S. de Gironcoli, J. Phys.: Condens. Matter 24, 424209 (2012).
     *

     Carrying out vdW-DF run using the following parameters:

     Nqs =      20    Nr_points =    1024   r_max =   100.000
     q_mesh =
               0.00001000     0.04494208     0.09755937     0.15916263
               0.23128650     0.31572767     0.41458969     0.53033537
               0.66584808     0.82450364     1.01025438     1.22772762
               1.48234092     1.78043706     2.12944203     2.53805004
               3.01644009     3.57652955     4.23227104     5.00000000

     Gradients computed in reciprocal space

[...]

     Starting wfc are  117 randomized atomic wfcs

     Self-consistent Calculation

[...]

     total energy              =   -1644.28048902 Ry
     Harris-Foulkes estimate   =   -1644.28049105 Ry
     estimated scf accuracy    <       0.00000148 Ry

     iteration # 15     ecut=    36.75 Ry     beta=0.10
     Davidson diagonalization with overlap
     ethr =  9.50E-10,  avg # of iterations =  3.6

[...]

     negative rho (up, down):  4.319E-01 0.000E+00

     Adding external electric field

     Computed dipole along edir(3) :
        Dipole                0.0471 Ry au,          0.1197 Debye
        Dipole field          0.0001 Ry au

        Potential amp.       -0.0101 Ry
        Total length         45.9883 bohr

     End of self-consistent calculation

[...]

          k = 0.0549 0.0000 0.0000 ( 20285 PWs)   bands (ev):

[...]

          k =-0.0823-0.1426 0.0000 ( 20292 PWs)   bands (ev):

   -49.1778 -49.1778 -49.1213 -49.1212 -49.1095 -49.0606 -48.9926 -48.9925
   -48.8732  -8.9221  -8.7952  -8.7479  -8.7064  -8.6371  -8.6038  -8.5930
    -8.5472  -8.5258  -8.5042  -8.5036  -8.4847  -8.4147  -8.3749  -8.3562
    -8.3186  -8.2621  -8.2337  -8.2009  -8.1649  -8.1638  -8.1464  -8.1327
    -8.1247  -8.1224  -8.0986  -8.0970  -8.0785  -8.0604  -8.0504  -8.0368
    -8.0272  -8.0140  -7.9943  -7.9832  -7.9820  -7.9726  -7.9028  -7.8686
    -7.8266  -7.8098  -7.8045  -7.7367  -7.6133  -7.5596  -5.6207  -5.3704
    -4.1025  -3.8217  -3.1062  -2.4131  -2.2704  -2.1925  -1.9902  -1.8660
    -1.8575  -1.7325  -1.6582  -1.5858  -1.5703  -1.4954  -1.3783  -1.3206
    -1.1436  -1.0771  -0.4453  -0.1825  -0.0828  -0.0424   0.5726   1.8810
     1.9943   2.0491   2.4613   4.3076   4.4310   4.5250   4.6443   4.8236
     4.8323   4.8640   5.3275   5.6072   5.6356   5.9821   6.0859   6.1129
     6.1441   6.3018   6.6084   6.9475   6.9971   7.0739   7.0905   7.1308
     7.4017   7.4805   7.7608   8.0547

     the Fermi energy is     0.6644 ev

!    total energy              =   -1644.28048059 Ry
     Harris-Foulkes estimate   =   -1644.28048946 Ry
     estimated scf accuracy    <       0.00000080 Ry

     The total energy is the sum of the following terms:

     one-electron contribution =  -10953.88466557 Ry
     hartree contribution      =    5558.99072984 Ry
     xc contribution           =    -464.92929806 Ry
     ewald contribution        =    4215.57300356 Ry
     electric field correction =       0.00000518 Ry
     smearing contrib. (-TS)   =      -0.03025554 Ry

     convergence has been achieved in  15 iterations

 BEEF-vdW xc energy contributions
           1 :   -406.915228764037
           2 :    372.164666948185
           3 :   -313.415156473968
           4 :    247.242557009984
           5 :   -189.085222195120
           6 :    147.746650512204
           7 :   -123.669136043026
           8 :    111.158542492434
           9 :   -102.796081847388
          10 :    93.4627524811292
          11 :   -82.0668716934937
          12 :    70.6330066892800
          13 :   -61.9040277918592
          14 :    57.1810393704238
          15 :   -55.6133264056033
          16 :    55.0298600381357
          17 :   -53.4628138228600
          18 :    50.2684560098932
          19 :   -46.2222309290979
          20 :    42.7181073531070
          21 :   -40.7356592302360
          22 :    40.2578175958872
          23 :   -40.4190504734181
          24 :    40.1611597112362
          25 :   -38.9055093768244
          26 :    36.8267425045442
          27 :   -34.6274059257265
          28 :    33.0283760475850
          29 :   -32.3259174276003
          30 :    32.2695860477722
          31 :   -37.2007895959773
          32 :   -27.2221816870302

     Forces acting on atoms (Ry/au):

     negative rho (up, down):  4.319E-01 0.000E+00
     atom    1 type  1   force =    -0.00000007    0.00812542   -0.01620416
     atom    2 type  1   force =     0.00703916   -0.00406523   -0.01620720
     atom    3 type  1   force =    -0.00703790   -0.00406707   -0.01620467
     atom    4 type  2   force =     0.00000244   -0.00000062    0.02628762
     atom    5 type  1   force =    -0.00000876   -0.01058895    0.00549963
     atom    6 type  1   force =    -0.00916398    0.00529577    0.00549466
     atom    7 type  1   force =     0.00917488    0.00529697    0.00548666
     atom    8 type  2   force =     0.00000079   -0.00000117    0.00481677
     atom    9 type  1   force =    -0.00000213   -0.00091193    0.00011706
     atom   10 type  1   force =    -0.00079119    0.00045652    0.00011915
     atom   11 type  1   force =     0.00078683    0.00045776    0.00011916
     atom   12 type  2   force =    -0.00000007    0.00000254    0.00067532

     Total force =     0.046154     Total SCF correction =     0.003513

     entering subroutine stress ...

     negative rho (up, down):  4.319E-01 0.000E+00
          total   stress  (Ry/bohr**3)                   (kbar)     P=   -8.85
  -0.00008832   0.00000000   0.00000000        -12.99      0.00      0.00
   0.00000000  -0.00008832  -0.00000000          0.00    -12.99     -0.00
   0.00000000  -0.00000000  -0.00000375          0.00     -0.00     -0.55

 !ASE

     Writing output data file calc.save

     General routines

     Parallel routines

   This run was terminated on:   0:41:37  20Dec2018

   JOB DONE.
Job  /afs/slac/g/suncat/bin/suncat-tsmpirun -x LD_LIBRARY_PATH -wdir /scratch/qe773450_wTHsW pw.x -in pw.inp

TID   HOST_NAME   COMMAND_LINE            STATUS            TERMINATION_TIME
00000 suncat0191 pw.x -in pw.inp   Done                     12/20/2018 00:41:37
00001 suncat0191 pw.x -in pw.inp   Done                     12/20/2018 00:41:37
00002 suncat0191 pw.x -in pw.inp   Done                     12/20/2018 00:41:37
00003 suncat0191 pw.x -in pw.inp   Done                     12/20/2018 00:41:37
00004 suncat0191 pw.x -in pw.inp   Done                     12/20/2018 00:41:37
00005 suncat0191 pw.x -in pw.inp   Done                     12/20/2018 00:41:37
00006 suncat0191 pw.x -in pw.inp   Done                     12/20/2018 00:41:37
00007 suncat0191 pw.x -in pw.inp   Done                     12/20/2018 00:41:37
00008 suncat0190 pw.x -in pw.inp   Done                     12/20/2018 00:41:37
00009 suncat0190 pw.x -in pw.inp   Done                     12/20/2018 00:41:37
00010 suncat0190 pw.x -in pw.inp   Done                     12/20/2018 00:41:37
00011 suncat0190 pw.x -in pw.inp   Done                     12/20/2018 00:41:37
00012 suncat0190 pw.x -in pw.inp   Done                     12/20/2018 00:41:37
00013 suncat0190 pw.x -in pw.inp   Done                     12/20/2018 00:41:37
00014 suncat0190 pw.x -in pw.inp   Done                     12/20/2018 00:41:37
00015 suncat0190 pw.x -in pw.inp   Done                     12/20/2018 00:41:37
00016 suncat0009 pw.x -in pw.inp   Done                     12/20/2018 00:41:37
00017 suncat0009 pw.x -in pw.inp   Done                     12/20/2018 00:41:37
00018 suncat0009 pw.x -in pw.inp   Done                     12/20/2018 00:41:37
00019 suncat0009 pw.x -in pw.inp   Done                     12/20/2018 00:41:37
00020 suncat0009 pw.x -in pw.inp   Done                     12/20/2018 00:41:37
00021 suncat0009 pw.x -in pw.inp   Done                     12/20/2018 00:41:37
00022 suncat0009 pw.x -in pw.inp   Done                     12/20/2018 00:41:37
00023 suncat0009 pw.x -in pw.inp   Done                     12/20/2018 00:41:37
00024 suncat0008 pw.x -in pw.inp   Done                     12/20/2018 00:41:37
00025 suncat0008 pw.x -in pw.inp   Done                     12/20/2018 00:41:37
00026 suncat0008 pw.x -in pw.inp   Done                     12/20/2018 00:41:37
00027 suncat0008 pw.x -in pw.inp   Done                     12/20/2018 00:41:37
00028 suncat0008 pw.x -in pw.inp   Done                     12/20/2018 00:41:37
00029 suncat0008 pw.x -in pw.inp   Done                     12/20/2018 00:41:37
00030 suncat0008 pw.x -in pw.inp   Done                     12/20/2018 00:41:37
00031 suncat0008 pw.x -in pw.inp   Done                     12/20/2018 00:41:37
00032 suncat0169 pw.x -in pw.inp   Done                     12/20/2018 00:41:37
00033 suncat0169 pw.x -in pw.inp   Done                     12/20/2018 00:41:37
00034 suncat0169 pw.x -in pw.inp   Done                     12/20/2018 00:41:37
00035 suncat0169 pw.x -in pw.inp   Done                     12/20/2018 00:41:37
00036 suncat0169 pw.x -in pw.inp   Done                     12/20/2018 00:41:37
00037 suncat0169 pw.x -in pw.inp   Done                     12/20/2018 00:41:37
00038 suncat0169 pw.x -in pw.inp   Done                     12/20/2018 00:41:37
00039 suncat0169 pw.x -in pw.inp   Done                     12/20/2018 00:41:37
00040 suncat0168 pw.x -in pw.inp   Done                     12/20/2018 00:41:37
00041 suncat0168 pw.x -in pw.inp   Done                     12/20/2018 00:41:37
00042 suncat0168 pw.x -in pw.inp   Done                     12/20/2018 00:41:37
00043 suncat0168 pw.x -in pw.inp   Done                     12/20/2018 00:41:37
00044 suncat0168 pw.x -in pw.inp   Done                     12/20/2018 00:41:37
00045 suncat0168 pw.x -in pw.inp   Done                     12/20/2018 00:41:37
00046 suncat0168 pw.x -in pw.inp   Done                     12/20/2018 00:41:37
00047 suncat0168 pw.x -in pw.inp   Done                     12/20/2018 00:41:37
00048 suncat0110 pw.x -in pw.inp   Done                     12/20/2018 00:41:37
00049 suncat0110 pw.x -in pw.inp   Done                     12/20/2018 00:41:37
00050 suncat0110 pw.x -in pw.inp   Done                     12/20/2018 00:41:37
00051 suncat0110 pw.x -in pw.inp   Done                     12/20/2018 00:41:37
00052 suncat0110 pw.x -in pw.inp   Done                     12/20/2018 00:41:37
00053 suncat0110 pw.x -in pw.inp   Done                     12/20/2018 00:41:37
00054 suncat0110 pw.x -in pw.inp   Done                     12/20/2018 00:41:37
00055 suncat0110 pw.x -in pw.inp   Done                     12/20/2018 00:41:37
00056 suncat0109 pw.x -in pw.inp   Done                     12/20/2018 00:41:37
00057 suncat0109 pw.x -in pw.inp   Done                     12/20/2018 00:41:37
00058 suncat0109 pw.x -in pw.inp   Done                     12/20/2018 00:41:37
00059 suncat0109 pw.x -in pw.inp   Done                     12/20/2018 00:41:37
00060 suncat0109 pw.x -in pw.inp   Done                     12/20/2018 00:41:37
00061 suncat0109 pw.x -in pw.inp   Done                     12/20/2018 00:41:37
00062 suncat0109 pw.x -in pw.inp   Done                     12/20/2018 00:41:37
00063 suncat0109 pw.x -in pw.inp   Done                     12/20/2018 00:41:37