     Program PWSCF v.5.1rc2 (svn rev. 11289) starts on 19Dec2018 at  1:58:46

     Current dimensions of program PWSCF are:
     Max number of different atomic species (ntypx) = 10
     Max number of k-points (npk) =  40000
     Max angular momentum in pseudopotentials (lmaxx) =  3
     Presently stress not available with electric field

     IMPORTANT: XC functional enforced from input :
     Exchange-correlation      = BEEF-VDW ( 1  4 27 13 2)
     Any further DFT definition will be discarded
     Please, verify this is what you really want

     Subspace diagonalization in iterative solution of the eigenvalue problem:
     a serial algorithm will be used

     Found symmetry operation: I + (  0.5000  0.5000  0.0000)
     This is a supercell, fractional translations are disabled

     bravais-lattice index     =            0
     lattice parameter (alat)  =       1.8897  a.u.
     unit-cell volume          =    5956.3011 (a.u.)^3
     number of atoms/cell      =           12
     number of atomic types    =            2
     number of electrons       =       162.00
     number of Kohn-Sham states=          111
     kinetic-energy cutoff     =      36.7493  Ry
     charge density cutoff     =     367.4932  Ry
     convergence threshold     =      1.0E-06
     mixing beta               =       0.1000
     number of iterations used =           10  plain     mixing
     Exchange-correlation      = BEEF-VDW ( 1  4 27 13 2)
     nstep                     =           50

     celldm(1)=   1.889726  celldm(2)=   0.000000  celldm(3)=   0.000000
     celldm(4)=   0.000000  celldm(5)=   0.000000  celldm(6)=   0.000000

     crystal axes: (cart. coord. in units of alat)
               a(1) = (   6.119139   0.000000   0.000000 )
               a(2) = (   2.034971   5.770854   0.000000 )
               a(3) = (   0.000000   0.000000  24.994797 )

     reciprocal axes: (cart. coord. in units 2 pi/alat)
               b(1) = (  0.163422 -0.057627  0.000000 )
               b(2) = (  0.000000  0.173285  0.000000 )
               b(3) = (  0.000000  0.000000  0.040008 )

     PseudoPot. # 1 for Pd read from file:
     /afs/slac.stanford.edu/u/if/mamunm/psp/gbrv1.5pbe/Pd.UPF
     MD5 check sum: 2d733d2bc2cbfd217af676df1668a4bc
     Pseudo is Ultrasoft + core correction, Zval = 16.0
     Generated by new atomic code, or converted to UPF format
     Using radial grid of  887 points,  6 beta functions with:
                l(1) =   0
                l(2) =   0
                l(3) =   1
                l(4) =   1
                l(5) =   2
                l(6) =   2
     Q(r) pseudized with  8 coefficients,  rinner =    1.130   1.130   1.130
                                                       1.130   1.130

     PseudoPot. # 2 for Y  read from file:
     /afs/slac.stanford.edu/u/if/mamunm/psp/gbrv1.5pbe/Y.UPF
     MD5 check sum: d034151ed7554c50b6e82763ed42c788
     Pseudo is Ultrasoft + core correction, Zval = 11.0
     Generated by new atomic code, or converted to UPF format
     Using radial grid of  885 points,  6 beta functions with:
                l(1) =   0
                l(2) =   0
                l(3) =   1
                l(4) =   1
                l(5) =   2
                l(6) =   2
     Q(r) pseudized with  8 coefficients,  rinner =    1.200   1.200   1.200
                                                       1.200   1.200

     vdW kernel table read from file vdW_kernel_table
     MD5 check sum: 095c7af220d748ca6e76c0b4c6cfb241

     atomic species   valence    mass     pseudopotential
        Pd1           16.00   106.42000     Pd( 1.00)
        Y1            11.00    88.90584     Y ( 1.00)

     No symmetry found

   Cartesian axes

     site n.     atom                  positions (alat units)
         1           Pd1 tau(   1) = (   0.0000000   0.0000000  10.0000000  )
         2           Pd1 tau(   2) = (   4.0770552   2.8854271  10.0000000  )
         3           Y1  tau(   3) = (   3.0595696   0.0000000  10.0000000  )
         4           Y1  tau(   4) = (   1.0174856   2.8854271  10.0000000  )
         5           Pd1 tau(   5) = (   6.1191393   4.3306576  12.4973983  )
         6           Pd1 tau(   6) = (   2.0420841   1.4452305  12.4973983  )
         7           Y1  tau(   7) = (   3.0595696   4.3306576  12.4973983  )
         8           Y1  tau(   8) = (   5.1016537   1.4452305  12.4973983  )
         9           Pd1 tau(   9) = (   4.0841681   2.8904611  14.9947966  )
        10           Pd1 tau(  10) = (   0.0071129   0.0050340  14.9947966  )
        11           Y1  tau(  11) = (   1.0245985   2.8904611  14.9947966  )
        12           Y1  tau(  12) = (   3.0666825   0.0050340  14.9947966  )

     number of k points=    20  Fermi-Dirac smearing, width (Ry)=  0.0110
                       cart. coord. in units 2pi/alat
        k(    1) = (   0.0000000   0.0000000   0.0000000), wk =   0.0555556
        k(    2) = (   0.0000000   0.0288808   0.0000000), wk =   0.1111111
        k(    3) = (   0.0000000   0.0577615   0.0000000), wk =   0.1111111
        k(    4) = (   0.0000000  -0.0866423   0.0000000), wk =   0.0555556
        k(    5) = (   0.0272369  -0.0096045   0.0000000), wk =   0.1111111
        k(    6) = (   0.0272369   0.0192762   0.0000000), wk =   0.1111111
        k(    7) = (   0.0272369   0.0481570   0.0000000), wk =   0.1111111
        k(    8) = (   0.0272369  -0.0962468   0.0000000), wk =   0.1111111
        k(    9) = (   0.0272369  -0.0673661   0.0000000), wk =   0.1111111
        k(   10) = (   0.0272369  -0.0384853   0.0000000), wk =   0.1111111
        k(   11) = (   0.0544739  -0.0192091   0.0000000), wk =   0.1111111
        k(   12) = (   0.0544739   0.0096717   0.0000000), wk =   0.1111111
        k(   13) = (   0.0544739   0.0385524   0.0000000), wk =   0.1111111
        k(   14) = (   0.0544739  -0.1058514   0.0000000), wk =   0.1111111
        k(   15) = (   0.0544739  -0.0769706   0.0000000), wk =   0.1111111
        k(   16) = (   0.0544739  -0.0480898   0.0000000), wk =   0.1111111
        k(   17) = (  -0.0817108   0.0288136   0.0000000), wk =   0.0555556
        k(   18) = (  -0.0817108   0.0576944   0.0000000), wk =   0.1111111
        k(   19) = (  -0.0817108   0.0865751   0.0000000), wk =   0.1111111
        k(   20) = (  -0.0817108  -0.0578287   0.0000000), wk =   0.0555556

     Largest allocated arrays     est. size (Mb)     dimensions
     Largest temporary arrays     est. size (Mb)     dimensions

     Initial potential from superposition of free atoms
     Check: negative starting charge=   -0.441797

     starting charge  158.97314, renormalised to  162.00000

     negative rho (up, down):  4.502E-01 0.000E+00

     *
     * You are using vdW-DF for exchange-correlation in this calculation.
     * Please cite the following three references that made this development
     * possible:
     *
     *   M. Dion, H. Rydberg, E. Schroder, D. C. Langreth, and
     *   B. I. Lundqvist, Phys. Rev. Lett. 92, 246401 (2004).
     *
     *   T. Thonhauser, V. R. Cooper, S. Li, A. Puzder, P. Hyldgaard, and
     *   D. C. Langreth, Phys. Rev. B 76, 125112 (2007).
     *
     *   G. Roman-Perez and J. M. Soler, Phys. Rev. Lett. 103, 096102 (2009).
     *
     *
     * If you are using vdW-DF2, please also cite:
     *
     *   K. Lee, E. D. Murray, L. Kong, B. I. Lundqvist, and
     *   D. C. Langreth, Phys. Rev. B 82, 081101(R) (2010).
     *
     *
     * If you are calculating the stress with vdW-DF, please also cite:
     *
     *   R. Sabatini, E. Kucukbenli, B. Kolb, T. Thonhauser, and
     *   S. de Gironcoli, J. Phys.: Condens. Matter 24, 424209 (2012).
     *

     Carrying out vdW-DF run using the following parameters:

     Nqs =      20    Nr_points =    1024   r_max =   100.000
     q_mesh =
               0.00001000     0.04494208     0.09755937     0.15916263
               0.23128650     0.31572767     0.41458969     0.53033537
               0.66584808     0.82450364     1.01025438     1.22772762
               1.48234092     1.78043706     2.12944203     2.53805004
               3.01644009     3.57652955     4.23227104     5.00000000

     Gradients computed in reciprocal space

     Adding external electric field

     Computed dipole along edir(3) :
        Dipole               -0.0000 Ry au,         -0.0000 Debye
        Dipole field         -0.0000 Ry au

        Potential amp.        0.0000 Ry
        Total length         46.0525 bohr

     Starting wfc are  150 randomized atomic wfcs

     Self-consistent Calculation

     iteration #  1     ecut=    36.75 Ry     beta=0.10
     Davidson diagonalization with overlap
     ethr =  1.00E-02,  avg # of iterations =  2.0

[...]

     total energy              =   -1760.84114630 Ry
     Harris-Foulkes estimate   =   -1763.39942227 Ry
     estimated scf accuracy    <      15.01064867 Ry

[...]

     End of self-consistent calculation

          k = 0.0000 0.0000 0.0000 ( 22401 PWs)   bands (ev):

   -48.9955 -48.9944 -48.9936 -48.9826 -48.9716 -48.9707 -48.7269 -48.7268
   -48.7260 -48.7259 -48.6389 -48.6388 -48.6281 -48.6281 -48.5629 -48.5627
   -48.5619 -48.5618 -42.1527 -42.1515 -42.1277 -42.1274 -41.5550 -41.5307
   -22.1875 -22.1837 -22.1740 -22.1678 -22.1498 -22.1295 -22.0282 -22.0091
   -22.0084 -21.9812 -21.8689 -21.8683 -21.6587 -21.5004 -21.4850 -21.4536
   -21.4503 -21.3307  -3.7482  -2.6014  -2.4721  -2.2829  -2.2764  -2.2312
    -2.2255  -2.1960  -2.1772  -2.1192  -1.8619  -1.8481  -1.6906  -1.6571
    -1.6264  -1.5945  -1.4435  -1.4288  -1.4136  -1.2942  -1.2553  -1.2465
    -1.2430  -1.1138  -1.0508  -0.7730  -0.7685  -0.7516  -0.6864  -0.6166
    -0.5891  -0.3815   0.1833   0.5511   0.7275   0.8161   1.3200   1.8026
     1.9322   2.1435   2.2649   2.3138   2.5519   2.7714   2.7765   2.7906
     2.9246   2.9269   3.0050   3.1191   3.3653   3.5876   3.7126   3.7261
     4.0542   4.0948   4.1425   4.3275   4.4249   4.5465   4.7737   4.8097
     4.9660   5.1236   5.2764   5.3388   5.3987   5.4498   5.5303

[...]

          k =-0.0817 0.0288 0.0000 ( 22418 PWs)   bands (ev):

[...]

     the Fermi energy is     1.5904 ev

!    total energy              =   -1761.58234595 Ry
     Harris-Foulkes estimate   =   -1761.58236061 Ry
     estimated scf accuracy    <       0.00000075 Ry

     The total energy is the sum of the following terms:

     one-electron contribution =  -10988.68649962 Ry
     hartree contribution      =    5514.79572023 Ry
     xc contribution           =    -364.71976870 Ry
     ewald contribution        =    4077.07829351 Ry
     electric field correction =       0.00000001 Ry
     smearing contrib. (-TS)   =      -0.05009138 Ry

     convergence has been achieved in  15 iterations

 BEEF-vdW xc energy contributions
           1 :   -317.915247743784
           2 :    288.153319497107
           3 :   -236.987266925799
           4 :    177.405210554745
           5 :   -121.908101294263
           6 :    78.6090489675732
           7 :   -49.9811600596037
           8 :    34.0400878335663
           9 :   -26.7450885752597
          10 :    24.2475842865305
          11 :   -24.1010740078025
          12 :    25.2547218447527
[...]

[...]

   This run was terminated on:   2: 8: 3  19Dec2018

[...]

     Program PWSCF v.5.1rc2 (svn rev. 11289) starts on 19Dec2018 at  2: 8: 9

[...]

   This run was terminated on:   2:12:59  19Dec2018

[...]

     Program PWSCF v.5.1rc2 (svn rev. 11289) starts on 19Dec2018 at  2:13: 5

[...]

     Total force =     0.038821     Total SCF correction =     0.004796
     SCF correction compared to forces is large: reduce conv_thr to get better values

[...]

     Program PWSCF v.5.1rc2 (svn rev. 11289) starts on 19Dec2018 at  2:22:37

     Current dimensions of program PWSCF are:
     Max number of different atomic species (ntypx) = 10
     Max number of k-points (npk) =  40000
     Max angular momentum in pseudopotentials (lmaxx) =  3
     Presently stress not available with electric field

     IMPORTANT: XC functional enforced from input :
     Exchange-correlation      = BEEF-VDW ( 1  4 27 13 2)
     Any further DFT definition will be discarded
     Please, verify this is what you really want

     Subspace diagonalization in iterative solution of the eigenvalue problem:
     a serial algorithm will be used

     Found symmetry operation: I + (  0.5000  0.5000  0.0000)
     This is a supercell, fractional translations are disabled

     bravais-lattice index     =            0
     lattice parameter (alat)  =       1.8897  a.u.
     unit-cell volume          =    5956.3011 (a.u.)^3
     number of atoms/cell      =           12
     number of atomic types    =            2
     number of electrons       =       162.00
     number of Kohn-Sham states=          111
     kinetic-energy cutoff     =      36.7493  Ry
     charge density cutoff     =     367.4932  Ry
     convergence threshold     =      1.0E-06
     mixing beta               =       0.1000
     number of iterations used =           10  plain     mixing
     Exchange-correlation      = BEEF-VDW ( 1  4 27 13 2)
     nstep                     =           50

     celldm(1)=   1.889726  celldm(2)=   0.000000  celldm(3)=   0.000000
     celldm(4)=   0.000000  celldm(5)=   0.000000  celldm(6)=   0.000000

     crystal axes: (cart. coord. in units of alat)
               a(1) = (   6.119139   0.000000   0.000000 )
               a(2) = (   2.034971   5.770854   0.000000 )
               a(3) = (   0.000000   0.000000  24.994797 )

     reciprocal axes: (cart. coord. in units 2 pi/alat)
               b(1) = (  0.163422 -0.057627  0.000000 )
               b(2) = (  0.000000  0.173285  0.000000 )
               b(3) = (  0.000000  0.000000  0.040008 )

     PseudoPot. # 1 for Pd read from file:
     /afs/slac.stanford.edu/u/if/mamunm/psp/gbrv1.5pbe/Pd.UPF
     MD5 check sum: 2d733d2bc2cbfd217af676df1668a4bc
     Pseudo is Ultrasoft + core correction, Zval = 16.0
     Generated by new atomic code, or converted to UPF format
     Using radial grid of  887 points,  6 beta functions with:
                l(1) =   0
                l(2) =   0
                l(3) =   1
                l(4) =   1
                l(5) =   2
                l(6) =   2
     Q(r) pseudized with  8 coefficients,  rinner =    1.130   1.130   1.130
                                                       1.130   1.130

     PseudoPot. # 2 for Y  read from file:
     /afs/slac.stanford.edu/u/if/mamunm/psp/gbrv1.5pbe/Y.UPF
     MD5 check sum: d034151ed7554c50b6e82763ed42c788
     Pseudo is Ultrasoft + core correction, Zval = 11.0
     Generated by new atomic code, or converted to UPF format
     Using radial grid of  885 points,  6 beta functions with:
                l(1) =   0
                l(2) =   0
                l(3) =   1
                l(4) =   1
                l(5) =   2
                l(6) =   2
     Q(r) pseudized with  8 coefficients,  rinner =    1.200   1.200   1.200
                                                       1.200   1.200

     vdW kernel table read from file vdW_kernel_table
     MD5 check sum: 095c7af220d748ca6e76c0b4c6cfb241

     atomic species   valence    mass     pseudopotential
        Pd1           16.00   106.42000     Pd( 1.00)
        Y1            11.00    88.90584     Y ( 1.00)

     No symmetry found

   Cartesian axes

     site n.     atom                  positions (alat units)
         1           Pd1 tau(   1) = (   0.0000000   0.0000000  10.0000000  )
         2           Pd1 tau(   2) = (   4.0770552   2.8854271  10.0000000  )
         3           Y1  tau(   3) = (   3.0595696   0.0000000  10.0000000  )
         4           Y1  tau(   4) = (   1.0174856   2.8854271  10.0000000  )
         5           Pd1 tau(   5) = (   6.1191393   4.3306576  12.4973983  )
         6           Pd1 tau(   6) = (   2.0420841   1.4452305  12.4973983  )
         7           Y1  tau(   7) = (   3.0595696   4.3306576  12.4973983  )
         8           Y1  tau(   8) = (   5.1016537   1.4452305  12.4973983  )
         9           Pd1 tau(   9) = (   4.0828329   2.8895308  14.7805835  )
        10           Pd1 tau(  10) = (   0.0057808   0.0040764  14.7805818  )
        11           Y1  tau(  11) = (   1.0225481   2.8890183  14.9992785  )
        12           Y1  tau(  12) = (   3.0646645   0.0036012  14.9992829  )

     number of k points=    20  Fermi-Dirac smearing, width (Ry)=  0.0110
                       cart. coord. in units 2pi/alat
        k(    1) = (   0.0000000   0.0000000   0.0000000), wk =   0.0555556
        k(    2) = (   0.0000000   0.0288808   0.0000000), wk =   0.1111111
        k(    3) = (   0.0000000   0.0577615   0.0000000), wk =   0.1111111
        k(    4) = (   0.0000000  -0.0866423   0.0000000), wk =   0.0555556
        k(    5) = (   0.0272369  -0.0096045   0.0000000), wk =   0.1111111
        k(    6) = (   0.0272369   0.0192762   0.0000000), wk =   0.1111111
        k(    7) = (   0.0272369   0.0481570   0.0000000), wk =   0.1111111
        k(    8) = (   0.0272369  -0.0962468   0.0000000), wk =   0.1111111
        k(    9) = (   0.0272369  -0.0673661   0.0000000), wk =   0.1111111
        k(   10) = (   0.0272369  -0.0384853   0.0000000), wk =   0.1111111
        k(   11) = (   0.0544739  -0.0192091   0.0000000), wk =   0.1111111
        k(   12) = (   0.0544739   0.0096717   0.0000000), wk =   0.1111111
        k(   13) = (   0.0544739   0.0385524   0.0000000), wk =   0.1111111
        k(   14) = (   0.0544739  -0.1058514   0.0000000), wk =   0.1111111
        k(   15) = (   0.0544739  -0.0769706   0.0000000), wk =   0.1111111
        k(   16) = (   0.0544739  -0.0480898   0.0000000), wk =   0.1111111
        k(   17) = (  -0.0817108   0.0288136   0.0000000), wk =   0.0555556
        k(   18) = (  -0.0817108   0.0576944   0.0000000), wk =   0.1111111
        k(   19) = (  -0.0817108   0.0865751   0.0000000), wk =   0.1111111
        k(   20) = (  -0.0817108  -0.0578287   0.0000000), wk =   0.0555556

     Largest allocated arrays     est. size (Mb)     dimensions
     Largest temporary arrays     est. size (Mb)     dimensions

     Initial potential from superposition of free atoms
     Check: negative starting charge=   -0.443177

     starting charge  158.97314, renormalised to  162.00000

[...]

     *
     * You are using vdW-DF for exchange-correlation in this calculation.
     * Please cite the following three references that made this development
     * possible:
     *
     *   M. Dion, H. Rydberg, E. Schroder, D. C. Langreth, and
     *   B. I. Lundqvist, Phys. Rev. Lett. 92, 246401 (2004).
     *
     *   T. Thonhauser, V. R. Cooper, S. Li, A. Puzder, P. Hyldgaard, and
     *   D. C. Langreth, Phys. Rev. B 76, 125112 (2007).
     *
     *   G. Roman-Perez and J. M. Soler, Phys. Rev. Lett. 103, 096102 (2009).
     *
     *
     * If you are using vdW-DF2, please also cite:
     *
     *   K. Lee, E. D. Murray, L. Kong, B. I. Lundqvist, and
     *   D. C. Langreth, Phys. Rev. B 82, 081101(R) (2010).
     *
     *
     * If you are calculating the stress with vdW-DF, please also cite:
     *
     *   R. Sabatini, E. Kucukbenli, B. Kolb, T. Thonhauser, and
     *   S. de Gironcoli, J. Phys.: Condens. Matter 24, 424209 (2012).
     *

     Carrying out vdW-DF run using the following parameters:

     Nqs =      20    Nr_points =    1024   r_max =   100.000
     q_mesh =
               0.00001000     0.04494208     0.09755937     0.15916263
               0.23128650     0.31572767     0.41458969     0.53033537
               0.66584808     0.82450364     1.01025438     1.22772762
               1.48234092     1.78043706     2.12944203     2.53805004
               3.01644009     3.57652955     4.23227104     5.00000000

     Gradients computed in reciprocal space

[...]

     Starting wfc are  150 randomized atomic wfcs

     Self-consistent Calculation

[...]

     total energy              =   -1761.59218573 Ry
     Harris-Foulkes estimate   =   -1761.59218691 Ry
     estimated scf accuracy    <       0.00000141 Ry

     iteration # 16     ecut=    36.75 Ry     beta=0.10
     Davidson diagonalization with overlap
     ethr =  8.70E-10,  avg # of iterations =  3.5

[...]

     negative rho (up, down):  4.638E-01 0.000E+00

     Adding external electric field

     Computed dipole along edir(3) :
        Dipole                0.0723 Ry au,          0.1839 Debye
        Dipole field          0.0002 Ry au

        Potential amp.       -0.0141 Ry
        Total length         46.0525 bohr

     End of self-consistent calculation

[...]

          k = 0.0545-0.0481 0.0000 ( 22410 PWs)   bands (ev):

[...]

          k =-0.0817-0.0578 0.0000 ( 22378 PWs)   bands (ev):

   -48.9092 -48.9079 -48.9077 -48.8966 -48.8824 -48.8811 -48.7760 -48.7746
   -48.7453 -48.7339 -48.6905 -48.6893 -48.6392 -48.6378 -48.5467 -48.5357
   -48.4684 -48.4675 -42.0883 -42.0774 -42.0649 -42.0542 -41.3343 -41.3098
   -22.1270 -22.1264 -22.1191 -22.0919 -22.0825 -22.0595 -21.9845 -21.9577
   -21.9315 -21.9142 -21.8036 -21.7970 -21.4640 -21.3005 -21.2935 -21.2710
   -21.2602 -21.1270  -2.3106  -2.1359  -1.8975  -1.8734  -1.8221  -1.7987
    -1.7377  -1.6934  -1.6527  -1.5991  -1.5156  -1.5144  -1.4988  -1.3662
    -1.3164  -1.2784  -1.1772  -1.1764  -1.1263  -1.1240  -1.0571  -1.0293
    -1.0200  -0.9928  -0.9358  -0.8900  -0.8549  -0.7921  -0.7207  -0.5962
    -0.5878  -0.5568  -0.3555  -0.1795   0.4269   0.4974   0.6237   0.9623
     0.9635   1.0572   1.1121   1.6947   1.7908   1.8061   2.0215   2.0256
     2.3986   2.4728   2.6281   2.9830   3.1251   3.2465   3.2887   3.6199
     3.7306   3.7600   3.8520   3.9221   3.9677   4.2336   4.4200   4.7337
     5.0644   5.4230   5.5820   5.7695   5.8034   5.9869   6.0021

     the Fermi energy is     1.6631 ev

!    total energy              =   -1761.59217262 Ry
     Harris-Foulkes estimate   =   -1761.59218762 Ry
     estimated scf accuracy    <       0.00000063 Ry

     The total energy is the sum of the following terms:

     one-electron contribution =  -11176.92605698 Ry
     hartree contribution      =    5609.30576149 Ry
     xc contribution           =    -364.79602370 Ry
     ewald contribution        =    4170.87318907 Ry
     electric field correction =       0.00001104 Ry
     smearing contrib. (-TS)   =      -0.04905353 Ry

     convergence has been achieved in  16 iterations

 BEEF-vdW xc energy contributions
           1 :   -318.000922299814
           2 :    288.297210378124
           3 :   -237.191580904730
           4 :    177.604714715196
           5 :   -122.011382294255
           6 :    78.5632567771821
           7 :   -49.8139005867031
           8 :    33.8455698293959
           9 :   -26.6229315845420
          10 :    24.2399705246404
          11 :   -24.1742922570669
          12 :    25.3334026407840
          13 :   -27.3245707259404
          14 :    29.6702228111179
          15 :   -31.5114247653626
          16 :    31.8541631635707
          17 :   -30.0422437257594
          18 :    26.0920880431257
          19 :   -20.7217134087168
          20 :    15.1017071365133
          21 :   -10.4622335906046
          22 :    7.70794071644121
          23 :   -7.16751408458543
          24 :    8.54008002670713
          25 :   -11.0383225374011
          26 :    13.6710452452652
          27 :   -15.5717698418574
          28 :    16.2564854904790
          29 :   -15.7146160142637
          30 :    14.3088463045090
          31 :   -30.6540867326979
          32 :   -21.8192910033858

     Forces acting on atoms (Ry/au):

     negative rho (up, down):  4.638E-01 0.000E+00
     atom    1 type  1   force =     0.00003678    0.00002505    0.02097897
     atom    2 type  1   force =     0.00003561    0.00002562    0.02097876
     atom    3 type  2   force =     0.00022316    0.00015603   -0.00383915
     atom    4 type  2   force =     0.00021989    0.00015763   -0.00383817
     atom    5 type  1   force =    -0.00001249   -0.00000745    0.00122811
     atom    6 type  1   force =    -0.00001186   -0.00000976    0.00122754
     atom    7 type  2   force =    -0.00012732   -0.00009023   -0.01758308
     atom    8 type  2   force =    -0.00012657   -0.00008914   -0.01758372
     atom    9 type  1   force =    -0.00008413   -0.00005977    0.00080437
     atom   10 type  1   force =    -0.00008356   -0.00005894    0.00080423
     atom   11 type  2   force =    -0.00003298   -0.00002580   -0.00158935
     atom   12 type  2   force =    -0.00003654   -0.00002325   -0.00158852

     Total force =     0.039213     Total SCF correction =     0.003407

     entering subroutine stress ...

     negative rho (up, down):  4.638E-01 0.000E+00
          total   stress  (Ry/bohr**3)                   (kbar)     P=   -9.71
  -0.00009340  -0.00003476  -0.00000057        -13.74     -5.11     -0.08
  -0.00003476  -0.00006888  -0.00000041         -5.11    -10.13     -0.06
  -0.00000057  -0.00000041  -0.00003583         -0.08     -0.06     -5.27

 !ASE

     Writing output data file calc.save

     General routines

     Parallel routines

   This run was terminated on:   2:27:22  19Dec2018

   JOB DONE.
Job  /afs/slac/g/suncat/bin/suncat-tsmpirun -x LD_LIBRARY_PATH -wdir /scratch/qe530436_QvJV1 pw.x -in pw.inp

TID   HOST_NAME   COMMAND_LINE            STATUS            TERMINATION_TIME
00000 suncat2054 pw.x -in pw.inp   Done                     12/19/2018 02:27:22
00001 suncat2054 pw.x -in pw.inp   Done                     12/19/2018 02:27:22
00002 suncat2054 pw.x -in pw.inp   Done                     12/19/2018 02:27:22
00003 suncat2054 pw.x -in pw.inp   Done                     12/19/2018 02:27:22
00004 suncat2054 pw.x -in pw.inp   Done                     12/19/2018 02:27:22
00005 suncat2054 pw.x -in pw.inp   Done                     12/19/2018 02:27:22
00006 suncat2054 pw.x -in pw.inp   Done                     12/19/2018 02:27:22
00007 suncat2054 pw.x -in pw.inp   Done                     12/19/2018 02:27:22
00008 suncat2054 pw.x -in pw.inp   Done                     12/19/2018 02:27:22
00009 suncat2054 pw.x -in pw.inp   Done                     12/19/2018 02:27:22
00010 suncat2054 pw.x -in pw.inp   Done                     12/19/2018 02:27:22
00011 suncat2054 pw.x -in pw.inp   Done                     12/19/2018 02:27:22
00012 suncat2054 pw.x -in pw.inp   Done                     12/19/2018 02:27:22
00013 suncat2054 pw.x -in pw.inp   Done                     12/19/2018 02:27:22
00014 suncat2054 pw.x -in pw.inp   Done                     12/19/2018 02:27:22
00015 suncat2054 pw.x -in pw.inp   Done                     12/19/2018 02:27:22
00016 suncat2053 pw.x -in pw.inp   Done                     12/19/2018 02:27:22
00017 suncat2053 pw.x -in pw.inp   Done                     12/19/2018 02:27:22
00018 suncat2053 pw.x -in pw.inp   Done                     12/19/2018 02:27:22
00019 suncat2053 pw.x -in pw.inp   Done                     12/19/2018 02:27:22
00020 suncat2053 pw.x -in pw.inp   Done                     12/19/2018 02:27:22
00021 suncat2053 pw.x -in pw.inp   Done                     12/19/2018 02:27:22
00022 suncat2053 pw.x -in pw.inp   Done                     12/19/2018 02:27:22
00023 suncat2053 pw.x -in pw.inp   Done                     12/19/2018 02:27:22
00024 suncat2053 pw.x -in pw.inp   Done                     12/19/2018 02:27:22
00025 suncat2053 pw.x -in pw.inp   Done                     12/19/2018 02:27:22
00026 suncat2053 pw.x -in pw.inp   Done                     12/19/2018 02:27:22
00027 suncat2053 pw.x -in pw.inp   Done                     12/19/2018 02:27:22
00028 suncat2053 pw.x -in pw.inp   Done                     12/19/2018 02:27:22
00029 suncat2053 pw.x -in pw.inp   Done                     12/19/2018 02:27:22
00030 suncat2053 pw.x -in pw.inp   Done                     12/19/2018 02:27:22
00031 suncat2053 pw.x -in pw.inp   Done                     12/19/2018 02:27:22