     Program PWSCF v.5.1rc2 (svn rev. 11289) starts on 31Dec2018 at 19:21:42

     Current dimensions of program PWSCF are:
     Max number of different atomic species (ntypx) = 10
     Max number of k-points (npk) =  40000
     Max angular momentum in pseudopotentials (lmaxx) =  3
     Presently stress not available with electric field

     IMPORTANT: XC functional enforced from input :
     Exchange-correlation      = BEEF-VDW ( 1  4 27 13 2)
     Any further DFT definition will be discarded
     Please, verify this is what you really want

     Subspace diagonalization in iterative solution of the eigenvalue problem:
     a serial algorithm will be used

     bravais-lattice index     =            0
     lattice parameter (alat)  =       1.8897  a.u.
     unit-cell volume          =    4453.2160 (a.u.)^3
     number of atoms/cell      =           12
     number of atomic types    =            2
     number of electrons       =       177.00
     number of Kohn-Sham states=          118
     kinetic-energy cutoff     =      36.7493  Ry
     charge density cutoff     =     367.4932  Ry
     convergence threshold     =      1.0E-06
     mixing beta               =       0.1000
     number of iterations used =           10  plain     mixing
     Exchange-correlation      = BEEF-VDW ( 1  4 27 13 2)
     nstep                     =           50

     celldm(1)=   1.889726  celldm(2)=   0.000000  celldm(3)=   0.000000
     celldm(4)=   0.000000  celldm(5)=   0.000000  celldm(6)=   0.000000

     crystal axes: (cart. coord. in units of alat)
               a(1) = (   5.571303   0.000000   0.000000 )
               a(2) = (  -2.785652   4.824890   0.000000 )
               a(3) = (   0.000000   0.000000  24.548950 )

     reciprocal axes: (cart. coord. in units 2 pi/alat)
               b(1) = (  0.179491  0.103629  0.000000 )
               b(2) = (  0.000000  0.207259  0.000000 )
               b(3) = (  0.000000  0.000000  0.040735 )

     PseudoPot. # 1 for Re read from file:
     /afs/slac.stanford.edu/u/if/mamunm/psp/gbrv1.5pbe/Re.UPF
     MD5 check sum: 85f993410f3e006da9d71c142b4ad953
     Pseudo is Ultrasoft + core correction, Zval = 15.0
     Generated by new atomic code, or converted to UPF format
     Using radial grid of  981 points,  8 beta functions with:
                l(1) =   0
                l(2) =   0
                l(3) =   1
                l(4) =   1
                l(5) =   2
                l(6) =   2
                l(7) =   3
                l(8) =   3
     Q(r) pseudized with  8 coefficients,  rinner =    1.150   1.150   1.150
                                                       1.150   1.150   1.150
                                                       1.150

     PseudoPot. # 2 for Mo read from file:
     /afs/slac.stanford.edu/u/if/mamunm/psp/gbrv1.5pbe/Mo.UPF
     MD5 check sum: 30c4dcd161f5d35cd49bb5239c51a633
     Pseudo is Ultrasoft + core correction, Zval = 14.0
     Generated by new atomic code, or converted to UPF format
     Using radial grid of  889 points,  6 beta functions with:
                l(1) =   0
                l(2) =   0
                l(3) =   1
                l(4) =   1
                l(5) =   2
                l(6) =   2
     Q(r) pseudized with  6 coefficients,  rinner =    1.000   1.000   1.000
                                                       1.000   1.000

     vdW kernel table read from file vdW_kernel_table
     MD5 check sum: 095c7af220d748ca6e76c0b4c6cfb241

     atomic species   valence    mass     pseudopotential
        Re1           15.00   186.20700     Re( 1.00)
        Mo1           14.00    95.95000     Mo( 1.00)

     No symmetry found

   Cartesian axes

     site n.     atom                  positions (alat units)
         1           Re1 tau(   1) = (   0.0000000   0.0000000  10.0000000  )
         2           Re1 tau(   2) = (  -1.3928258   2.4124451  10.0000000  )
         3           Re1 tau(   3) = (   1.3928258   2.4124451  10.0000000  )
         4           Mo1 tau(   4) = (   2.7856517   0.0000000  10.0000000  )
         5           Re1 tau(   5) = (   2.7856517   1.6082967  12.2744751  )
         6           Re1 tau(   6) = (   1.3928258   4.0207418  12.2744751  )
         7           Re1 tau(   7) = (  -1.3928258   4.0207418  12.2744751  )
         8           Mo1 tau(   8) = (  -0.0000000   1.6082967  12.2744751  )
         9           Re1 tau(   9) = (  -0.0000000   3.2165935  14.5489501  )
        10           Re1 tau(  10) = (   1.3928258   0.8041484  14.5489501  )
        11           Re1 tau(  11) = (   4.1784775   0.8041484  14.5489501  )
        12           Mo1 tau(  12) = (   2.7856517   3.2165935  14.5489501  )

     number of k points=    20  Fermi-Dirac smearing, width (Ry)=  0.0110
                       cart. coord. in units 2pi/alat
        k(    1) = (   0.0000000   0.0000000   0.0000000), wk =   0.0555556
        k(    2) = (   0.0000000   0.0345431   0.0000000), wk =   0.1111111
        k(    3) = (   0.0000000   0.0690862   0.0000000), wk =   0.1111111
        k(    4) = (   0.0000000  -0.1036293   0.0000000), wk =   0.0555556
        k(    5) = (   0.0299152   0.0172716   0.0000000), wk =   0.1111111
        k(    6) = (   0.0299152   0.0518147   0.0000000), wk =   0.1111111
        k(    7) = (   0.0299152   0.0863578   0.0000000), wk =   0.1111111
        k(    8) = (   0.0299152  -0.0863578   0.0000000), wk =   0.1111111
        k(    9) = (   0.0299152  -0.0518147   0.0000000), wk =   0.1111111
        k(   10) = (   0.0299152  -0.0172716   0.0000000), wk =   0.1111111
        k(   11) = (   0.0598304   0.0345431   0.0000000), wk =   0.1111111
        k(   12) = (   0.0598304   0.0690862   0.0000000), wk =   0.1111111
        k(   13) = (   0.0598304   0.1036293   0.0000000), wk =   0.1111111
        k(   14) = (   0.0598304  -0.0690862   0.0000000), wk =   0.1111111
        k(   15) = (   0.0598304  -0.0345431   0.0000000), wk =   0.1111111
        k(   16) = (   0.0598304   0.0000000   0.0000000), wk =   0.1111111
        k(   17) = (  -0.0897456  -0.0518147   0.0000000), wk =   0.0555556
        k(   18) = (  -0.0897456  -0.0172716   0.0000000), wk =   0.1111111
        k(   19) = (  -0.0897456   0.0172716   0.0000000), wk =   0.1111111
        k(   20) = (  -0.0897456  -0.1554440   0.0000000), wk =   0.0555556

     Largest allocated arrays     est. size (Mb)     dimensions
     Largest temporary arrays     est. size (Mb)     dimensions

     Initial potential from superposition of free atoms
     Check: negative starting charge=   -1.151170

     starting charge  172.49640, renormalised to  177.00000

     negative rho (up, down):  1.181E+00 0.000E+00

     *
     * You are using vdW-DF for exchange-correlation in this calculation.
     * Please cite the following three references that made this development
     * possible:
     *
     *   M. Dion, H. Rydberg, E. Schroder, D. C. Langreth, and
     *   B. I. Lundqvist, Phys. Rev. Lett. 92, 246401 (2004).
     *
     *   T. Thonhauser, V. R. Cooper, S. Li, A. Puzder, P. Hyldgaard, and
     *   D. C. Langreth, Phys. Rev. B 76, 125112 (2007).
     *
     *   G. Roman-Perez and J. M. Soler, Phys. Rev. Lett. 103, 096102 (2009).
     *
     *
     * If you are using vdW-DF2, please also cite:
     *
     *   K. Lee, E. D. Murray, L. Kong, B. I. Lundqvist, and
     *   D. C. Langreth, Phys. Rev. B 82, 081101(R) (2010).
     *
     *
     * If you are calculating the stress with vdW-DF, please also cite:
     *
     *   R. Sabatini, E. Kucukbenli, B. Kolb, T. Thonhauser, and
     *   S. de Gironcoli, J. Phys.: Condens. Matter 24, 424209 (2012).
     *

     Carrying out vdW-DF run using the following parameters:

     Nqs =      20    Nr_points =    1024   r_max =   100.000
     q_mesh =
               0.00001000     0.04494208     0.09755937     0.15916263
               0.23128650     0.31572767     0.41458969     0.53033537
               0.66584808     0.82450364     1.01025438     1.22772762
               1.48234092     1.78043706     2.12944203     2.53805004
               3.01644009     3.57652955     4.23227104     5.00000000

     Gradients computed in reciprocal space

     Adding external electric field

     Computed dipole along edir(3) :
        Dipole               -0.0000 Ry au,         -0.0000 Debye
        Dipole field         -0.0000 Ry au

        Potential amp.        0.0000 Ry
        Total length         45.2310 bohr

     Starting wfc are  156 randomized atomic wfcs

     Self-consistent Calculation

     iteration #  1     ecut=    36.75 Ry     beta=0.10
     Davidson diagonalization with overlap
     ethr =  1.00E-02,  avg # of iterations =  2.4

[...]

     total energy              =   -2149.40607150 Ry
     Harris-Foulkes estimate   =   -2149.70744532 Ry
     estimated scf accuracy    <       2.06472902 Ry

[...]

     End of self-consistent calculation

          k = 0.0000 0.0000 0.0000 ( 16703 PWs)   bands (ev):

   -77.8869 -77.8368 -77.8353 -77.7691 -77.7648 -77.7223 -77.7223 -77.7213
   -77.7212 -58.4916 -58.4787 -58.4783 -40.0414 -39.8423 -39.8420 -39.8278
   -39.7787 -39.7359 -39.7015 -39.7013 -39.5661 -39.5404 -39.5404 -39.4843
   -39.4843 -39.4442 -39.4441 -39.4115 -39.3132 -39.2974 -39.2972 -39.2511
   -39.2507 -39.1710 -39.1416 -39.0687 -39.0687 -39.0650 -39.0650 -32.6173
   -32.5936 -32.5401 -32.5401 -32.4817 -32.4248 -32.4248 -32.4189 -32.4189
    -5.6946  -3.9217  -3.4548  -3.0547  -3.0545  -2.8851  -2.7883  -2.7883
    -2.3336  -2.1060  -2.1059  -2.0884  -1.9581  -1.9581  -1.7537  -0.6026
    -0.4641  -0.4641   0.4771   0.4772   0.5119   0.5712   0.8150   1.1712
     1.1713   1.4505   1.5306   1.5307   1.5545   1.5545   1.7036   1.7037
     1.8358   1.8358   1.9395   2.0282   3.0762   3.0763   3.0838   3.1756
     3.3228   3.4842   3.4842   3.9650   3.9651   4.4022   4.4805   4.4805
     4.6391   4.6391   4.7131   4.7131   5.0206   5.4366   5.5584   5.5585
     5.7489   5.7489   6.3862   6.4687   6.4689   6.7251   6.7722   6.7722
     6.8388   6.8888   6.8888   6.9294   6.9457   6.9458

[...]

          k =-0.0897-0.0518 0.0000 ( 16784 PWs)   bands (ev):

[...]

     the Fermi energy is     2.6065 ev

!    total energy              =   -2149.14213460 Ry
     Harris-Foulkes estimate   =   -2149.14625506 Ry
     estimated scf accuracy    <       0.00000080 Ry

     The total energy is the sum of the following terms:

     one-electron contribution =  -17204.60616136 Ry
     hartree contribution      =    8588.36945322 Ry
     xc contribution           =    -546.53847584 Ry
     ewald contribution        =    7013.70059136 Ry
     electric field correction =       0.00000000 Ry
     smearing contrib. (-TS)   =      -0.06754198 Ry

     convergence has been achieved in  15 iterations

 BEEF-vdW xc energy contributions
           1 :   -483.840513102619
           2 :    448.932105546134
           3 :   -386.611097354828
           4 :    309.297018580394
           5 :   -230.522694620034
           6 :    161.299615678041
           7 :   -107.821783028099
           8 :    71.0187647724073
           9 :   -47.7993915155796
          10 :    33.2431786075360
[...]
     Pseudo is Ultrasoft + core correction, Zval = 15.0
     Generated by new atomic code, or converted to UPF format
     Using radial grid of  981 points,  8 beta functions with:
                l(1) =   0
                l(2) =   0
                l(3) =   1
                l(4) =   1
                l(5) =   2
                l(6) =   2
                l(7) =   3
                l(8) =   3
     Q(r) pseudized with  8 coefficients,  rinner =    1.150   1.150   1.150
                                                       1.150   1.150   1.150
                                                       1.150

     PseudoPot. # 2 for Mo read from file:
     /afs/slac.stanford.edu/u/if/mamunm/psp/gbrv1.5pbe/Mo.UPF
     MD5 check sum: 30c4dcd161f5d35cd49bb5239c51a633
     Pseudo is Ultrasoft + core correction, Zval = 14.0
     Generated by new atomic code, or converted to UPF format
     Using radial grid of  889 points,  6 beta functions with:
                l(1) =   0
                l(2) =   0
                l(3) =   1
                l(4) =   1
                l(5) =   2
                l(6) =   2
     Q(r) pseudized with  6 coefficients,  rinner =    1.000   1.000   1.000
                                                       1.000   1.000

     vdW kernel table read from file vdW_kernel_table
     MD5 check sum: 095c7af220d748ca6e76c0b4c6cfb241

     atomic species   valence    mass     pseudopotential
        Re1           15.00   186.20700     Re( 1.00)
        Mo1           14.00    95.95000     Mo( 1.00)

     No symmetry found

   Cartesian axes

     site n.     atom                  positions (alat units)
         1           Re1 tau(   1) = (   0.0000000   0.0000000  10.0000000  )
         2           Re1 tau(   2) = (  -1.3928258   2.4124451  10.0000000  )
         3           Re1 tau(   3) = (   1.3928258   2.4124451  10.0000000  )
         4           Mo1 tau(   4) = (   2.7856517   0.0000000  10.0000000  )
         5           Re1 tau(   5) = (   2.7856517   1.6082967  12.2744751  )
         6           Re1 tau(   6) = (   1.3928258   4.0207418  12.2744751  )
         7           Re1 tau(   7) = (  -1.3928258   4.0207418  12.2744751  )
         8           Mo1 tau(   8) = (  -0.0000000   1.6082967  12.2744751  )
         9           Re1 tau(   9) = (  -0.0000032   3.2279259  14.4346753  )
        10           Re1 tau(  10) = (   1.4026834   0.7985179  14.4346801  )
        11           Re1 tau(  11) = (   4.1686294   0.7985079  14.4346888  )
        12           Mo1 tau(  12) = (   2.7856503   3.2165998  14.4582271  )

     number of k points=    20  Fermi-Dirac smearing, width (Ry)=  0.0110
                       cart. coord. in units 2pi/alat
        k(    1) = (   0.0000000   0.0000000   0.0000000), wk =   0.0555556
        k(    2) = (   0.0000000   0.0345431   0.0000000), wk =   0.1111111
        k(    3) = (   0.0000000   0.0690862   0.0000000), wk =   0.1111111
        k(    4) = (   0.0000000  -0.1036293   0.0000000), wk =   0.0555556
        k(    5) = (   0.0299152   0.0172716   0.0000000), wk =   0.1111111
        k(    6) = (   0.0299152   0.0518147   0.0000000), wk =   0.1111111
        k(    7) = (   0.0299152   0.0863578   0.0000000), wk =   0.1111111
        k(    8) = (   0.0299152  -0.0863578   0.0000000), wk =   0.1111111
        k(    9) = (   0.0299152  -0.0518147   0.0000000), wk =   0.1111111
        k(   10) = (   0.0299152  -0.0172716   0.0000000), wk =   0.1111111
        k(   11) = (   0.0598304   0.0345431   0.0000000), wk =   0.1111111
        k(   12) = (   0.0598304   0.0690862   0.0000000), wk =   0.1111111
        k(   13) = (   0.0598304   0.1036293   0.0000000), wk =   0.1111111
        k(   14) = (   0.0598304  -0.0690862   0.0000000), wk =   0.1111111
        k(   15) = (   0.0598304  -0.0345431   0.0000000), wk =   0.1111111
        k(   16) = (   0.0598304   0.0000000   0.0000000), wk =   0.1111111
        k(   17) = (  -0.0897456  -0.0518147   0.0000000), wk =   0.0555556
        k(   18) = (  -0.0897456  -0.0172716   0.0000000), wk =   0.1111111
        k(   19) = (  -0.0897456   0.0172716   0.0000000), wk =   0.1111111
        k(   20) = (  -0.0897456  -0.1554440   0.0000000), wk =   0.0555556

     Largest allocated arrays     est. size (Mb)     dimensions
     Largest temporary arrays     est. size (Mb)     dimensions

     Initial potential from superposition of free atoms
     Check: negative starting charge=   -1.150052

     starting charge  172.49640, renormalised to  177.00000

[...]

     *
     * You are using vdW-DF for exchange-correlation in this calculation.
     * Please cite the following three references that made this development
     * possible:
     *
     *   M. Dion, H. Rydberg, E. Schroder, D. C. Langreth, and
     *   B. I. Lundqvist, Phys. Rev. Lett. 92, 246401 (2004).
     *
     *   T. Thonhauser, V. R. Cooper, S. Li, A. Puzder, P. Hyldgaard, and
     *   D. C. Langreth, Phys. Rev. B 76, 125112 (2007).
     *
     *   G. Roman-Perez and J. M. Soler, Phys. Rev. Lett. 103, 096102 (2009).
     *
     *
     * If you are using vdW-DF2, please also cite:
     *
     *   K. Lee, E. D. Murray, L. Kong, B. I. Lundqvist, and
     *   D. C. Langreth, Phys. Rev. B 82, 081101(R) (2010).
     *
     *
     * If you are calculating the stress with vdW-DF, please also cite:
     *
     *   R. Sabatini, E. Kucukbenli, B. Kolb, T. Thonhauser, and
     *   S. de Gironcoli, J. Phys.: Condens. Matter 24, 424209 (2012).
     *

     Carrying out vdW-DF run using the following parameters:

     Nqs =      20    Nr_points =    1024   r_max =   100.000
     q_mesh =
               0.00001000     0.04494208     0.09755937     0.15916263
               0.23128650     0.31572767     0.41458969     0.53033537
               0.66584808     0.82450364     1.01025438     1.22772762
               1.48234092     1.78043706     2.12944203     2.53805004
               3.01644009     3.57652955     4.23227104     5.00000000

     Gradients computed in reciprocal space

[...]

     Starting wfc are  156 randomized atomic wfcs

     Self-consistent Calculation

[...]

     total energy              =   -2149.16995591 Ry
     Harris-Foulkes estimate   =   -2149.16995505 Ry
     estimated scf accuracy    <       0.00000216 Ry

     iteration # 15     ecut=    36.75 Ry     beta=0.10
     Davidson diagonalization with overlap
     ethr =  1.22E-09,  avg # of iterations =  2.0

[...]

     negative rho (up, down):  1.205E+00 0.000E+00

     Adding external electric field

     Computed dipole along edir(3) :
        Dipole                0.0304 Ry au,          0.0773 Debye
        Dipole field          0.0001 Ry au

        Potential amp.       -0.0078 Ry
        Total length         45.2310 bohr

     End of self-consistent calculation

[...]

          k = 0.0598 0.0000 0.0000 ( 16738 PWs)   bands (ev):

[...]

          k =-0.0897-0.1554 0.0000 ( 16784 PWs)   bands (ev):

   -77.8155 -77.7995 -77.7801 -77.7632 -77.7505 -77.7356 -77.6187 -77.6039
   -77.5888 -58.4957 -58.4100 -58.3298 -39.9023 -39.7973 -39.7432 -39.6890
   -39.6626 -39.6460 -39.6215 -39.5604 -39.5293 -39.5185 -39.4911 -39.4115
   -39.4051 -39.3896 -39.3788 -39.3522 -39.3401 -39.2862 -39.2739 -39.2474
   -39.2336 -39.1861 -39.1830 -39.1421 -39.1186 -39.0976 -38.9781 -32.6301
   -32.5136 -32.4891 -32.4714 -32.4520 -32.4451 -32.4049 -32.3328 -32.3095
    -4.0271  -3.7154  -2.4085  -2.3558  -2.0211  -1.9739  -1.8827  -1.8707
    -1.8443  -1.4678  -1.1962  -1.1505  -0.9620  -0.7533  -0.6995  -0.6752
    -0.4565  -0.3166  -0.2282  -0.0991   0.1264   0.2242   0.6787   0.7596
     0.8583   0.9460   0.9553   1.0126   1.0390   1.0714   1.2352   1.3277
     1.3841   1.5243   1.5837   1.6815   1.7102   1.8173   1.8930   1.9686
     2.7419   2.7435   2.8693   2.9501   3.1309   3.1470   3.3406   3.5534
     3.7292   3.8112   3.8522   3.9310   3.9607   4.0203   4.2578   4.4388
     4.6765   4.7996   5.1858   5.2680   6.0780   6.1365   6.2283   6.3077
     6.3476   6.4793   8.0096   8.0265   8.1709   8.2439

     the Fermi energy is     2.6338 ev

!    total energy              =   -2149.16995802 Ry
     Harris-Foulkes estimate   =   -2149.16995641 Ry
     estimated scf accuracy    <       0.00000065 Ry

     The total energy is the sum of the following terms:

     one-electron contribution =  -17474.91653221 Ry
     hartree contribution      =    8723.82264461 Ry
     xc contribution           =    -546.86185432 Ry
     ewald contribution        =    7148.84930303 Ry
     electric field correction =       0.00000261 Ry
     smearing contrib. (-TS)   =      -0.06352175 Ry

     convergence has been achieved in  15 iterations

 BEEF-vdW xc energy contributions
           1 :   -484.528398833470
           2 :    449.715805958636
           3 :   -387.526796917682
           4 :    310.292149668514
           5 :   -231.473350572601
           6 :    162.068126435505
           7 :   -108.327151978013
           8 :    71.2834709707676
           9 :   -47.9462398214287
          10 :    33.4411074477089
          11 :   -23.1813985440222
          12 :    14.3009723887151
          13 :   -6.02157654219025
          14 :  -0.919110079037978
          15 :    5.31793998112130
          16 :   -6.50063991096442
          17 :    4.84775089380969
          18 :   -1.70958719261580
          19 :   -1.16501236740271
          20 :    2.36408865029932
          21 :   -1.36175911136229
          22 :   -1.35476160036160
          23 :    4.59928709954102
          24 :   -7.06987168674129
          25 :    7.92184856260258
          26 :   -7.08484339811559
          27 :    5.20735437650990
          28 :   -3.28987861409826
          29 :    2.20000437744329
          30 :   -2.30424877918188
          31 :   -41.7974527822466
          32 :   -31.1603784204090

     Forces acting on atoms (Ry/au):

     negative rho (up, down):  1.205E+00 0.000E+00
     atom    1 type  1   force =    -0.00000050   -0.00560739    0.02689910
     atom    2 type  1   force =    -0.00485552    0.00280638    0.02689960
     atom    3 type  1   force =     0.00485603    0.00280490    0.02689566
     atom    4 type  2   force =    -0.00000040    0.00000119    0.01979811
     atom    5 type  1   force =     0.00000141    0.00216758   -0.02524768
     atom    6 type  1   force =     0.00187636   -0.00108215   -0.02524214
     atom    7 type  1   force =    -0.00187546   -0.00108297   -0.02524595
     atom    8 type  2   force =    -0.00000086    0.00000072   -0.02683169
     atom    9 type  1   force =    -0.00000210   -0.00084044    0.00050438
     atom   10 type  1   force =    -0.00074899    0.00040548    0.00050398
     atom   11 type  1   force =     0.00074847    0.00040757    0.00050200
     atom   12 type  2   force =     0.00000158    0.00001914    0.00056463

     Total force =     0.072843     Total SCF correction =     0.003074

     entering subroutine stress ...

     negative rho (up, down):  1.205E+00 0.000E+00
          total   stress  (Ry/bohr**3)                   (kbar)     P=  -32.63
  -0.00027275   0.00000000  -0.00000000        -40.12      0.00     -0.00
   0.00000000  -0.00027276  -0.00000001          0.00    -40.12     -0.00
  -0.00000000  -0.00000001  -0.00011985         -0.00     -0.00    -17.63

 !ASE

     Writing output data file calc.save

     General routines

     Parallel routines

   This run was terminated on:  20:51:43  31Dec2018

   JOB DONE.
Job  /afs/slac/g/suncat/bin/suncat-tsmpirun -x LD_LIBRARY_PATH -wdir /scratch/qe648848_sVO5b pw.x -in pw.inp

TID   HOST_NAME   COMMAND_LINE            STATUS            TERMINATION_TIME
00000 suncat0046 pw.x -in pw.inp   Done                     12/31/2018 20:51:43
00001 suncat0046 pw.x -in pw.inp   Done                     12/31/2018 20:51:43
00002 suncat0046 pw.x -in pw.inp   Done                     12/31/2018 20:51:43
00003 suncat0046 pw.x -in pw.inp   Done                     12/31/2018 20:51:43
00004 suncat0046 pw.x -in pw.inp   Done                     12/31/2018 20:51:43
00005 suncat0046 pw.x -in pw.inp   Done                     12/31/2018 20:51:43
00006 suncat0046 pw.x -in pw.inp   Done                     12/31/2018 20:51:43
00007 suncat0046 pw.x -in pw.inp   Done                     12/31/2018 20:51:43
00008 suncat0044 pw.x -in pw.inp   Done                     12/31/2018 20:51:43
00009 suncat0044 pw.x -in pw.inp   Done                     12/31/2018 20:51:43
00010 suncat0044 pw.x -in pw.inp   Done                     12/31/2018 20:51:43
00011 suncat0044 pw.x -in pw.inp   Done                     12/31/2018 20:51:43
00012 suncat0044 pw.x -in pw.inp   Done                     12/31/2018 20:51:43
00013 suncat0044 pw.x -in pw.inp   Done                     12/31/2018 20:51:43
00014 suncat0044 pw.x -in pw.inp   Done                     12/31/2018 20:51:43
00015 suncat0044 pw.x -in pw.inp   Done                     12/31/2018 20:51:43
00016 suncat0043 pw.x -in pw.inp   Done                     12/31/2018 20:51:43
00017 suncat0043 pw.x -in pw.inp   Done                     12/31/2018 20:51:43
00018 suncat0043 pw.x -in pw.inp   Done                     12/31/2018 20:51:43
00019 suncat0043 pw.x -in pw.inp   Done                     12/31/2018 20:51:43
00020 suncat0043 pw.x -in pw.inp   Done                     12/31/2018 20:51:43
00021 suncat0043 pw.x -in pw.inp   Done                     12/31/2018 20:51:43
00022 suncat0043 pw.x -in pw.inp   Done                     12/31/2018 20:51:43
00023 suncat0043 pw.x -in pw.inp   Done                     12/31/2018 20:51:43
00024 suncat0025 pw.x -in pw.inp   Done                     12/31/2018 20:51:43
00025 suncat0025 pw.x -in pw.inp   Done                     12/31/2018 20:51:43
00026 suncat0025 pw.x -in pw.inp   Done                     12/31/2018 20:51:43
00027 suncat0025 pw.x -in pw.inp   Done                     12/31/2018 20:51:43
00028 suncat0025 pw.x -in pw.inp   Done                     12/31/2018 20:51:43
00029 suncat0025 pw.x -in pw.inp   Done                     12/31/2018 20:51:43
00030 suncat0025 pw.x -in pw.inp   Done                     12/31/2018 20:51:43
00031 suncat0025 pw.x -in pw.inp   Done                     12/31/2018 20:51:43
00032 suncat0013 pw.x -in pw.inp   Done                     12/31/2018 20:51:43
00033 suncat0013 pw.x -in pw.inp   Done                     12/31/2018 20:51:43
00034 suncat0013 pw.x -in pw.inp   Done                     12/31/2018 20:51:43
00035 suncat0013 pw.x -in pw.inp   Done                     12/31/2018 20:51:43
00036 suncat0013 pw.x -in pw.inp   Done                     12/31/2018 20:51:43
00037 suncat0013 pw.x -in pw.inp   Done                     12/31/2018 20:51:43
00038 suncat0013 pw.x -in pw.inp   Done                     12/31/2018 20:51:43
00039 suncat0013 pw.x -in pw.inp   Done                     12/31/2018 20:51:43
00040 suncat0008 pw.x -in pw.inp   Done                     12/31/2018 20:51:43
00041 suncat0008 pw.x -in pw.inp   Done                     12/31/2018 20:51:43
00042 suncat0008 pw.x -in pw.inp   Done                     12/31/2018 20:51:43
00043 suncat0008 pw.x -in pw.inp   Done                     12/31/2018 20:51:43
00044 suncat0008 pw.x -in pw.inp   Done                     12/31/2018 20:51:43
00045 suncat0008 pw.x -in pw.inp   Done                     12/31/2018 20:51:43
00046 suncat0008 pw.x -in pw.inp   Done                     12/31/2018 20:51:43
00047 suncat0008 pw.x -in pw.inp   Done                     12/31/2018 20:51:43
00048 suncat0178 pw.x -in pw.inp   Done                     12/31/2018 20:51:43
00049 suncat0178 pw.x -in pw.inp   Done                     12/31/2018 20:51:43
00050 suncat0178 pw.x -in pw.inp   Done                     12/31/2018 20:51:43
00051 suncat0178 pw.x -in pw.inp   Done                     12/31/2018 20:51:43
00052 suncat0178 pw.x -in pw.inp   Done                     12/31/2018 20:51:43
00053 suncat0178 pw.x -in pw.inp   Done                     12/31/2018 20:51:43
00054 suncat0178 pw.x -in pw.inp   Done                     12/31/2018 20:51:43
00055 suncat0178 pw.x -in pw.inp   Done                     12/31/2018 20:51:43
00056 suncat0177 pw.x -in pw.inp   Done                     12/31/2018 20:51:43
00057 suncat0177 pw.x -in pw.inp   Done                     12/31/2018 20:51:43
00058 suncat0177 pw.x -in pw.inp   Done                     12/31/2018 20:51:43
00059 suncat0177 pw.x -in pw.inp   Done                     12/31/2018 20:51:43
00060 suncat0177 pw.x -in pw.inp   Done                     12/31/2018 20:51:43
00061 suncat0177 pw.x -in pw.inp   Done                     12/31/2018 20:51:43
00062 suncat0177 pw.x -in pw.inp   Done                     12/31/2018 20:51:43
00063 suncat0177 pw.x -in pw.inp   Done                     12/31/2018 20:51:43