     Program PWSCF v.5.1rc2 (svn rev. 11289) starts on 27Dec2018 at  3:11:44

     Current dimensions of program PWSCF are:
     Max number of different atomic species (ntypx) = 10
     Max number of k-points (npk) =  40000
     Max angular momentum in pseudopotentials (lmaxx) =  3
     Presently stress not available with electric field

     IMPORTANT: XC functional enforced from input :
     Exchange-correlation      = BEEF-VDW ( 1  4 27 13 2)
     Any further DFT definition will be discarded
     Please, verify this is what you really want

     Subspace diagonalization in iterative solution of the eigenvalue problem:
     a serial algorithm will be used

     bravais-lattice index     =            0
     lattice parameter (alat)  =       1.8897  a.u.
     unit-cell volume          =    4533.8988 (a.u.)^3
     number of atoms/cell      =           12
     number of atomic types    =            2
     number of electrons       =       174.00
     number of Kohn-Sham states=          117
     kinetic-energy cutoff     =      36.7493  Ry
     charge density cutoff     =     367.4932  Ry
     convergence threshold     =      1.0E-06
     mixing beta               =       0.1000
     number of iterations used =           10  plain     mixing
     Exchange-correlation      = BEEF-VDW ( 1  4 27 13 2)
     nstep                     =           50

     celldm(1)=   1.889726  celldm(2)=   0.000000  celldm(3)=   0.000000
     celldm(4)=   0.000000  celldm(5)=   0.000000  celldm(6)=   0.000000

     crystal axes: (cart. coord. in units of alat)
               a(1) = (   5.617256   0.000000   0.000000 )
               a(2) = (  -2.808628   4.864686   0.000000 )
               a(3) = (   0.000000   0.000000  24.586470 )

     reciprocal axes: (cart. coord. in units 2 pi/alat)
               b(1) = (  0.178023  0.102782  0.000000 )
               b(2) = (  0.000000  0.205563  0.000000 )
               b(3) = (  0.000000  0.000000  0.040673 )

     PseudoPot. # 1 for Mo read from file:
     /afs/slac.stanford.edu/u/if/mamunm/psp/gbrv1.5pbe/Mo.UPF
     MD5 check sum: 30c4dcd161f5d35cd49bb5239c51a633
     Pseudo is Ultrasoft + core correction, Zval = 14.0
     Generated by new atomic code, or converted to UPF format
     Using radial grid of  889 points,  6 beta functions with:
                l(1) =   0
                l(2) =   0
                l(3) =   1
                l(4) =   1
                l(5) =   2
                l(6) =   2
     Q(r) pseudized with  6 coefficients,  rinner =    1.000   1.000   1.000
                                                       1.000   1.000

     PseudoPot. # 2 for Pd read from file:
     /afs/slac.stanford.edu/u/if/mamunm/psp/gbrv1.5pbe/Pd.UPF
     MD5 check sum: 2d733d2bc2cbfd217af676df1668a4bc
     Pseudo is Ultrasoft + core correction, Zval = 16.0
     Generated by new atomic code, or converted to UPF format
     Using radial grid of  887 points,  6 beta functions with:
                l(1) =   0
                l(2) =   0
                l(3) =   1
                l(4) =   1
                l(5) =   2
                l(6) =   2
     Q(r) pseudized with  8 coefficients,  rinner =    1.130   1.130   1.130
                                                       1.130   1.130

     vdW kernel table read from file vdW_kernel_table
     MD5 check sum: 095c7af220d748ca6e76c0b4c6cfb241

     atomic species   valence    mass     pseudopotential
        Mo1           14.00    95.95000     Mo( 1.00)
        Pd1           16.00   106.42000     Pd( 1.00)

     No symmetry found

   Cartesian axes

     site n.     atom                  positions (alat units)
         1           Mo1 tau(   1) = (   0.0000000   0.0000000  10.0000000  )
         2           Mo1 tau(   2) = (  -1.4043140   2.4323431  10.0000000  )
         3           Mo1 tau(   3) = (   1.4043140   2.4323431  10.0000000  )
         4           Pd1 tau(   4) = (   2.8086279   0.0000000  10.0000000  )
         5           Mo1 tau(   5) = (   2.8086279   1.6215621  12.2932351  )
         6           Mo1 tau(   6) = (   1.4043140   4.0539052  12.2932351  )
         7           Mo1 tau(   7) = (  -1.4043140   4.0539052  12.2932351  )
         8           Pd1 tau(   8) = (   0.0000000   1.6215621  12.2932351  )
         9           Mo1 tau(   9) = (  -0.0000000   3.2431241  14.5864702  )
        10           Mo1 tau(  10) = (   1.4043140   0.8107810  14.5864702  )
        11           Mo1 tau(  11) = (   4.2129419   0.8107810  14.5864702  )
        12           Pd1 tau(  12) = (   2.8086279   3.2431241  14.5864702  )

     number of k points=    20  Fermi-Dirac smearing, width (Ry)=  0.0110
                       cart. coord. in units 2pi/alat
        k(    1) = (   0.0000000   0.0000000   0.0000000), wk =   0.0555556
        k(    2) = (   0.0000000   0.0342605   0.0000000), wk =   0.1111111
        k(    3) = (   0.0000000   0.0685210   0.0000000), wk =   0.1111111
        k(    4) = (   0.0000000  -0.1027816   0.0000000), wk =   0.0555556
        k(    5) = (   0.0296705   0.0171303   0.0000000), wk =   0.1111111
        k(    6) = (   0.0296705   0.0513908   0.0000000), wk =   0.1111111
        k(    7) = (   0.0296705   0.0856513   0.0000000), wk =   0.1111111
        k(    8) = (   0.0296705  -0.0856513   0.0000000), wk =   0.1111111
        k(    9) = (   0.0296705  -0.0513908   0.0000000), wk =   0.1111111
        k(   10) = (   0.0296705  -0.0171303   0.0000000), wk =   0.1111111
        k(   11) = (   0.0593410   0.0342605   0.0000000), wk =   0.1111111
        k(   12) = (   0.0593410   0.0685210   0.0000000), wk =   0.1111111
        k(   13) = (   0.0593410   0.1027816   0.0000000), wk =   0.1111111
        k(   14) = (   0.0593410  -0.0685210   0.0000000), wk =   0.1111111
        k(   15) = (   0.0593410  -0.0342605   0.0000000), wk =   0.1111111
        k(   16) = (   0.0593410   0.0000000   0.0000000), wk =   0.1111111
        k(   17) = (  -0.0890114  -0.0513908   0.0000000), wk =   0.0555556
        k(   18) = (  -0.0890114  -0.0171303   0.0000000), wk =   0.1111111
        k(   19) = (  -0.0890114   0.0171303   0.0000000), wk =   0.1111111
        k(   20) = (  -0.0890114  -0.1541723   0.0000000), wk =   0.0555556

     Largest allocated arrays     est. size (Mb)     dimensions
     Largest temporary arrays     est. size (Mb)     dimensions

     Initial potential from superposition of free atoms
     Check: negative starting charge=   -0.227748

     starting charge  172.49041, renormalised to  174.00000

     negative rho (up, down):  2.297E-01 0.000E+00

     *
     * You are using vdW-DF for exchange-correlation in this calculation.
     * Please cite the following three references that made this development
     * possible:
     *
     *   M. Dion, H. Rydberg, E. Schroder, D. C. Langreth, and
     *   B. I. Lundqvist, Phys. Rev. Lett. 92, 246401 (2004).
     *
     *   T. Thonhauser, V. R. Cooper, S. Li, A. Puzder, P. Hyldgaard, and
     *   D. C. Langreth, Phys. Rev. B 76, 125112 (2007).
     *
     *   G. Roman-Perez and J. M. Soler, Phys. Rev. Lett. 103, 096102 (2009).
     *
     *
     * If you are using vdW-DF2, please also cite:
     *
     *   K. Lee, E. D. Murray, L. Kong, B. I. Lundqvist, and
     *   D. C. Langreth, Phys. Rev. B 82, 081101(R) (2010).
     *
     *
     * If you are calculating the stress with vdW-DF, please also cite:
     *
     *   R. Sabatini, E. Kucukbenli, B. Kolb, T. Thonhauser, and
     *   S. de Gironcoli, J. Phys.: Condens. Matter 24, 424209 (2012).
     *

     Carrying out vdW-DF run using the following parameters:

     Nqs =      20    Nr_points =    1024   r_max =   100.000
     q_mesh =
               0.00001000     0.04494208     0.09755937     0.15916263
               0.23128650     0.31572767     0.41458969     0.53033537
               0.66584808     0.82450364     1.01025438     1.22772762
               1.48234092     1.78043706     2.12944203     2.53805004
               3.01644009     3.57652955     4.23227104     5.00000000

     Gradients computed in reciprocal space

     Adding external electric field

     Computed dipole along edir(3) :
        Dipole               -0.0000 Ry au,         -0.0000 Debye
        Dipole field         -0.0000 Ry au

        Potential amp.        0.0000 Ry
        Total length         45.3002 bohr

     Starting wfc are  153 randomized atomic wfcs

     Self-consistent Calculation

     iteration #  1     ecut=    36.75 Ry     beta=0.10
     Davidson diagonalization with overlap
     ethr =  1.00E-02,  avg # of iterations =  2.0

[...]

     total energy              =   -1856.36774205 Ry
     Harris-Foulkes estimate   =   -1860.51671411 Ry
     estimated scf accuracy    <      23.18142160 Ry

[...]

     End of self-consistent calculation

          k = 0.0000 0.0000 0.0000 ( 17063 PWs)   bands (ev):

   -59.0611 -58.9742 -58.9383 -58.9193 -58.9193 -58.8575 -58.8575 -58.8456
   -58.8455 -48.8099 -48.8099 -48.8066 -48.5144 -48.5144 -48.5141 -48.5141
   -48.4275 -48.4263 -33.6232 -33.4208 -33.4016 -33.3206 -33.3206 -33.3031
   -33.2714 -33.2714 -33.1384 -33.1383 -33.0615 -32.9462 -32.9462 -32.9343
   -32.9343 -32.8179 -32.7026 -32.6974 -32.6973 -32.6947 -32.6036 -32.5968
   -32.5968 -32.4880 -32.4880 -32.4814 -32.4814  -4.1505  -2.9293  -2.9293
    -2.8594  -2.8243  -2.6164  -2.5828  -2.5828  -2.3664  -2.3664  -2.3485
    -2.2811  -2.1997  -2.1997  -1.7072  -1.3197  -1.3197  -1.0011  -1.0011
    -0.5746  -0.3034  -0.2926   0.0487   0.4022   0.4022   0.5728   0.5728
     0.8450   0.8450   1.0181   1.0181   1.1308   1.5602   1.5602   1.7108
     1.7458   1.8039   1.8039   2.0267   2.0267   2.3923   2.8415   2.8415
     3.0232   3.0797   3.3145   3.9396   3.9396   3.9822   3.9822   4.2787
     4.2787   4.3719   4.3719   4.5526   4.5526   4.6033   4.6619   4.6620
     4.7403   4.7403   5.1466   5.1466   5.1741   6.0210   6.1282   6.2103
     6.2991   6.3460   6.4671   6.6695   6.7453

[...]

          k =-0.0890-0.0514 0.0000 ( 17088 PWs)   bands (ev):

[...]

     the Fermi energy is     2.1202 ev

!    total energy              =   -1858.79230804 Ry
     Harris-Foulkes estimate   =   -1858.79230560 Ry
     estimated scf accuracy    <       0.00000015 Ry

     The total energy is the sum of the following terms:

     one-electron contribution =  -16428.32801898 Ry
     hartree contribution      =    8220.64050591 Ry
     xc contribution           =    -277.28436390 Ry
     ewald contribution        =    6626.26990541 Ry
     electric field correction =       0.00000001 Ry
     smearing contrib. (-TS)   =      -0.09033648 Ry

     convergence has been achieved in  19 iterations

 BEEF-vdW xc energy contributions
           1 :   -239.329318523556
           2 :    218.793861429067
           3 :   -183.563647826273
           4 :    142.908191287164
           5 :   -106.113482597820
           6 :    79.4694709160309
           7 :   -64.8071614723038
           8 :    59.8716122102039
           9 :   -60.0971530496661
          10 :    60.8317523414040
          11 :   -59.0848412287469
          12 :    54.2049010915065
          13 :   -47.4589764011076
          14 :    40.9125181905907
[...]
     PseudoPot. # 1 for Mo read from file:
     /afs/slac.stanford.edu/u/if/mamunm/psp/gbrv1.5pbe/Mo.UPF
     MD5 check sum: 30c4dcd161f5d35cd49bb5239c51a633
     Pseudo is Ultrasoft + core correction, Zval = 14.0
     Generated by new atomic code, or converted to UPF format
     Using radial grid of  889 points,  6 beta functions with:
                l(1) =   0
                l(2) =   0
                l(3) =   1
                l(4) =   1
                l(5) =   2
                l(6) =   2
     Q(r) pseudized with  6 coefficients,  rinner =    1.000   1.000   1.000
                                                       1.000   1.000

     PseudoPot. # 2 for Pd read from file:
     /afs/slac.stanford.edu/u/if/mamunm/psp/gbrv1.5pbe/Pd.UPF
     MD5 check sum: 2d733d2bc2cbfd217af676df1668a4bc
     Pseudo is Ultrasoft + core correction, Zval = 16.0
     Generated by new atomic code, or converted to UPF format
     Using radial grid of  887 points,  6 beta functions with:
                l(1) =   0
                l(2) =   0
                l(3) =   1
                l(4) =   1
                l(5) =   2
                l(6) =   2
     Q(r) pseudized with  8 coefficients,  rinner =    1.130   1.130   1.130
                                                       1.130   1.130

     vdW kernel table read from file vdW_kernel_table
     MD5 check sum: 095c7af220d748ca6e76c0b4c6cfb241

     atomic species   valence    mass     pseudopotential
        Mo1           14.00    95.95000     Mo( 1.00)
        Pd1           16.00   106.42000     Pd( 1.00)

     No symmetry found

   Cartesian axes

     site n.     atom                  positions (alat units)
         1           Mo1 tau(   1) = (   0.0000000   0.0000000  10.0000000  )
         2           Mo1 tau(   2) = (  -1.4043140   2.4323431  10.0000000  )
         3           Mo1 tau(   3) = (   1.4043140   2.4323431  10.0000000  )
         4           Pd1 tau(   4) = (   2.8086279   0.0000000  10.0000000  )
         5           Mo1 tau(   5) = (   2.8086279   1.6215621  12.2932351  )
         6           Mo1 tau(   6) = (   1.4043140   4.0539052  12.2932351  )
         7           Mo1 tau(   7) = (  -1.4043140   4.0539052  12.2932351  )
         8           Pd1 tau(   8) = (   0.0000000   1.6215621  12.2932351  )
         9           Mo1 tau(   9) = (   0.0000040   3.2698579  14.4565929  )
        10           Mo1 tau(  10) = (   1.4274734   0.7974077  14.4565883  )
        11           Mo1 tau(  11) = (   4.1897897   0.7974075  14.4565925  )
        12           Pd1 tau(  12) = (   2.8086290   3.2431207  14.6325225  )

     number of k points=    20  Fermi-Dirac smearing, width (Ry)=  0.0110
                       cart. coord. in units 2pi/alat
        k(    1) = (   0.0000000   0.0000000   0.0000000), wk =   0.0555556
        k(    2) = (   0.0000000   0.0342605   0.0000000), wk =   0.1111111
        k(    3) = (   0.0000000   0.0685210   0.0000000), wk =   0.1111111
        k(    4) = (   0.0000000  -0.1027816   0.0000000), wk =   0.0555556
        k(    5) = (   0.0296705   0.0171303   0.0000000), wk =   0.1111111
        k(    6) = (   0.0296705   0.0513908   0.0000000), wk =   0.1111111
        k(    7) = (   0.0296705   0.0856513   0.0000000), wk =   0.1111111
        k(    8) = (   0.0296705  -0.0856513   0.0000000), wk =   0.1111111
        k(    9) = (   0.0296705  -0.0513908   0.0000000), wk =   0.1111111
        k(   10) = (   0.0296705  -0.0171303   0.0000000), wk =   0.1111111
        k(   11) = (   0.0593410   0.0342605   0.0000000), wk =   0.1111111
        k(   12) = (   0.0593410   0.0685210   0.0000000), wk =   0.1111111
        k(   13) = (   0.0593410   0.1027816   0.0000000), wk =   0.1111111
        k(   14) = (   0.0593410  -0.0685210   0.0000000), wk =   0.1111111
        k(   15) = (   0.0593410  -0.0342605   0.0000000), wk =   0.1111111
        k(   16) = (   0.0593410   0.0000000   0.0000000), wk =   0.1111111
        k(   17) = (  -0.0890114  -0.0513908   0.0000000), wk =   0.0555556
        k(   18) = (  -0.0890114  -0.0171303   0.0000000), wk =   0.1111111
        k(   19) = (  -0.0890114   0.0171303   0.0000000), wk =   0.1111111
        k(   20) = (  -0.0890114  -0.1541723   0.0000000), wk =   0.0555556

     Largest allocated arrays     est. size (Mb)     dimensions
     Largest temporary arrays     est. size (Mb)     dimensions

     Initial potential from superposition of free atoms
     Check: negative starting charge=   -0.230322

     starting charge  172.49041, renormalised to  174.00000

[...]

     *
     * You are using vdW-DF for exchange-correlation in this calculation.
     * Please cite the following three references that made this development
     * possible:
     *
     *   M. Dion, H. Rydberg, E. Schroder, D. C. Langreth, and
     *   B. I. Lundqvist, Phys. Rev. Lett. 92, 246401 (2004).
     *
     *   T. Thonhauser, V. R. Cooper, S. Li, A. Puzder, P. Hyldgaard, and
     *   D. C. Langreth, Phys. Rev. B 76, 125112 (2007).
     *
     *   G. Roman-Perez and J. M. Soler, Phys. Rev. Lett. 103, 096102 (2009).
     *
     *
     * If you are using vdW-DF2, please also cite:
     *
     *   K. Lee, E. D. Murray, L. Kong, B. I. Lundqvist, and
     *   D. C. Langreth, Phys. Rev. B 82, 081101(R) (2010).
     *
     *
     * If you are calculating the stress with vdW-DF, please also cite:
     *
     *   R. Sabatini, E. Kucukbenli, B. Kolb, T. Thonhauser, and
     *   S. de Gironcoli, J. Phys.: Condens. Matter 24, 424209 (2012).
     *

     Carrying out vdW-DF run using the following parameters:

     Nqs =      20    Nr_points =    1024   r_max =   100.000
     q_mesh =
               0.00001000     0.04494208     0.09755937     0.15916263
               0.23128650     0.31572767     0.41458969     0.53033537
               0.66584808     0.82450364     1.01025438     1.22772762
               1.48234092     1.78043706     2.12944203     2.53805004
               3.01644009     3.57652955     4.23227104     5.00000000

     Gradients computed in reciprocal space

[...]

     Starting wfc are  153 randomized atomic wfcs

     Self-consistent Calculation

[...]

     total energy              =   -1858.80701094 Ry
     Harris-Foulkes estimate   =   -1858.80700972 Ry
     estimated scf accuracy    <       0.00000110 Ry

     iteration # 18     ecut=    36.75 Ry     beta=0.10
     Davidson diagonalization with overlap
     ethr =  6.33E-10,  avg # of iterations =  2.0

[...]

     negative rho (up, down):  2.455E-01 0.000E+00

     Adding external electric field

     Computed dipole along edir(3) :
        Dipole                0.0168 Ry au,          0.0426 Debye
        Dipole field          0.0000 Ry au

        Potential amp.       -0.0042 Ry
        Total length         45.3002 bohr

     End of self-consistent calculation

[...]

          k = 0.0593 0.0000 0.0000 ( 17028 PWs)   bands (ev):

[...]

          k =-0.0890-0.1542 0.0000 ( 17088 PWs)   bands (ev):

   -59.0222 -58.9953 -58.9420 -58.9265 -58.9224 -58.8835 -58.8511 -58.8271
   -58.7915 -48.9403 -48.9275 -48.9263 -48.5352 -48.5340 -48.4577 -48.4566
   -48.4492 -48.3410 -33.5032 -33.4276 -33.3411 -33.2677 -33.2425 -33.1909
   -33.1723 -33.1393 -33.1030 -33.0564 -33.0015 -32.9905 -32.9532 -32.9479
   -32.9171 -32.9039 -32.8961 -32.8221 -32.7875 -32.7534 -32.7381 -32.6331
   -32.6309 -32.5766 -32.5743 -32.5456 -32.4686  -2.8316  -2.6212  -2.3499
    -2.3457  -2.1345  -2.0901  -1.9675  -1.8642  -1.8229  -1.7346  -1.6758
    -1.4487  -1.3877  -1.3844  -1.1725  -1.1361  -1.0825  -0.9602  -0.8284
    -0.7688  -0.6901  -0.4168  -0.2997  -0.1066  -0.0147   0.2174   0.3302
     0.4173   0.4920   0.5084   0.8206   0.9335   0.9460   1.0742   1.2099
     1.2239   1.2758   1.3285   1.4000   1.4521   1.8441   1.8592   2.0324
     2.1520   2.2419   2.3273   2.5495   2.5752   2.8420   2.9397   2.9990
     3.4942   3.5129   3.5373   3.6663   3.7582   3.8610   3.9055   4.0959
     4.1162   4.3800   4.8909   5.1715   5.2307   5.5921   5.9263   6.0834
     6.7291   6.9605   7.3486   7.7062   7.7322

     the Fermi energy is     2.1046 ev

!    total energy              =   -1858.80701405 Ry
     Harris-Foulkes estimate   =   -1858.80701096 Ry
     estimated scf accuracy    <       0.00000069 Ry

     The total energy is the sum of the following terms:

     one-electron contribution =  -16617.66480834 Ry
     hartree contribution      =    8315.25638913 Ry
     xc contribution           =    -277.49784944 Ry
     ewald contribution        =    6721.18745119 Ry
     electric field correction =       0.00000078 Ry
     smearing contrib. (-TS)   =      -0.08819736 Ry

     convergence has been achieved in  18 iterations

 BEEF-vdW xc energy contributions
           1 :   -239.581886179888
           2 :    219.111322009977
           3 :   -183.967982615043
           4 :    143.357282891217
           5 :   -106.514203834976
           6 :    79.7220414690672
           7 :   -64.8585279299383
           8 :    59.7487426481887
           9 :   -59.8996930836066
          10 :    60.6872242015812
          11 :   -59.0884938918104
          12 :    54.3750453426671
          13 :   -47.7295351403674
          14 :    41.1666828183832
          15 :   -36.3578605702949
          16 :    33.8686526795686
          17 :   -33.0698963009852
          18 :    32.6354945771319
          19 :   -31.3047387786814
          20 :    28.4997278388790
          21 :   -24.5220228218596
          22 :    20.2855733217350
          23 :   -16.7826141573734
          24 :    14.5778324869881
          25 :   -13.5787420674726
          26 :    13.1553443612550
          27 :   -12.5099644968475
          28 :    11.0834725120529
          29 :   -8.79895578564270
          30 :    6.04159137731949
          31 :   -25.8792488690653
          32 :   -19.6549959048531

     Forces acting on atoms (Ry/au):

     negative rho (up, down):  2.455E-01 0.000E+00
     atom    1 type  1   force =     0.00000045   -0.00532446    0.02306235
     atom    2 type  1   force =    -0.00461120    0.00266218    0.02306147
     atom    3 type  1   force =     0.00461115    0.00266150    0.02306311
     atom    4 type  2   force =    -0.00000052    0.00000003   -0.01027888
     atom    5 type  1   force =     0.00000052    0.00164195   -0.01035386
     atom    6 type  1   force =     0.00142174   -0.00082105   -0.01035358
     atom    7 type  1   force =    -0.00142168   -0.00082162   -0.01035422
     atom    8 type  2   force =     0.00000058    0.00000182   -0.02690385
     atom    9 type  1   force =    -0.00000090    0.00094066   -0.00083370
     atom   10 type  1   force =     0.00081468   -0.00047066   -0.00083211
     atom   11 type  1   force =    -0.00081531   -0.00046998   -0.00083288
     atom   12 type  2   force =     0.00000051   -0.00000039    0.00155614

     Total force =     0.053357     Total SCF correction =     0.002843

     entering subroutine stress ...

     negative rho (up, down):  2.455E-01 0.000E+00
          total   stress  (Ry/bohr**3)                   (kbar)     P=  -16.29
  -0.00013547   0.00000000  -0.00000000        -19.93      0.00     -0.00
   0.00000000  -0.00013546   0.00000000          0.00    -19.93      0.00
  -0.00000000   0.00000000  -0.00006126         -0.00      0.00     -9.01

 !ASE

     Writing output data file calc.save

     General routines

     Parallel routines

   This run was terminated on:   3:56:36  27Dec2018

   JOB DONE.
Job  /afs/slac/g/suncat/bin/suncat-tsmpirun -x LD_LIBRARY_PATH -wdir /scratch/qe110142_4jTgu pw.x -in pw.inp

TID   HOST_NAME   COMMAND_LINE            STATUS            TERMINATION_TIME
00000 suncat0083 pw.x -in pw.inp   Done                     12/27/2018 03:56:36
00001 suncat0083 pw.x -in pw.inp   Done                     12/27/2018 03:56:36
00002 suncat0083 pw.x -in pw.inp   Done                     12/27/2018 03:56:36
00003 suncat0083 pw.x -in pw.inp   Done                     12/27/2018 03:56:36
00004 suncat0083 pw.x -in pw.inp   Done                     12/27/2018 03:56:36
00005 suncat0083 pw.x -in pw.inp   Done                     12/27/2018 03:56:36
00006 suncat0083 pw.x -in pw.inp   Done                     12/27/2018 03:56:36
00007 suncat0083 pw.x -in pw.inp   Done                     12/27/2018 03:56:36
00008 suncat0081 pw.x -in pw.inp   Done                     12/27/2018 03:56:36
00009 suncat0081 pw.x -in pw.inp   Done                     12/27/2018 03:56:36
00010 suncat0081 pw.x -in pw.inp   Done                     12/27/2018 03:56:36
00011 suncat0081 pw.x -in pw.inp   Done                     12/27/2018 03:56:36
00012 suncat0081 pw.x -in pw.inp   Done                     12/27/2018 03:56:36
00013 suncat0081 pw.x -in pw.inp   Done                     12/27/2018 03:56:36
00014 suncat0081 pw.x -in pw.inp   Done                     12/27/2018 03:56:36
00015 suncat0081 pw.x -in pw.inp   Done                     12/27/2018 03:56:36
00016 suncat0076 pw.x -in pw.inp   Done                     12/27/2018 03:56:36
00017 suncat0076 pw.x -in pw.inp   Done                     12/27/2018 03:56:36
00018 suncat0076 pw.x -in pw.inp   Done                     12/27/2018 03:56:36
00019 suncat0076 pw.x -in pw.inp   Done                     12/27/2018 03:56:36
00020 suncat0076 pw.x -in pw.inp   Done                     12/27/2018 03:56:36
00021 suncat0076 pw.x -in pw.inp   Done                     12/27/2018 03:56:36
00022 suncat0076 pw.x -in pw.inp   Done                     12/27/2018 03:56:36
00023 suncat0076 pw.x -in pw.inp   Done                     12/27/2018 03:56:36
00024 suncat0041 pw.x -in pw.inp   Done                     12/27/2018 03:56:36
00025 suncat0041 pw.x -in pw.inp   Done                     12/27/2018 03:56:36
00026 suncat0041 pw.x -in pw.inp   Done                     12/27/2018 03:56:36
00027 suncat0041 pw.x -in pw.inp   Done                     12/27/2018 03:56:36
00028 suncat0041 pw.x -in pw.inp   Done                     12/27/2018 03:56:36
00029 suncat0041 pw.x -in pw.inp   Done                     12/27/2018 03:56:36
00030 suncat0041 pw.x -in pw.inp   Done                     12/27/2018 03:56:36
00031 suncat0041 pw.x -in pw.inp   Done                     12/27/2018 03:56:36
00032 suncat0039 pw.x -in pw.inp   Done                     12/27/2018 03:56:36
00033 suncat0039 pw.x -in pw.inp   Done                     12/27/2018 03:56:36
00034 suncat0039 pw.x -in pw.inp   Done                     12/27/2018 03:56:36
00035 suncat0039 pw.x -in pw.inp   Done                     12/27/2018 03:56:36
00036 suncat0039 pw.x -in pw.inp   Done                     12/27/2018 03:56:36
00037 suncat0039 pw.x -in pw.inp   Done                     12/27/2018 03:56:36
00038 suncat0039 pw.x -in pw.inp   Done                     12/27/2018 03:56:36
00039 suncat0039 pw.x -in pw.inp   Done                     12/27/2018 03:56:36
00040 suncat0034 pw.x -in pw.inp   Done                     12/27/2018 03:56:36
00041 suncat0034 pw.x -in pw.inp   Done                     12/27/2018 03:56:36
00042 suncat0034 pw.x -in pw.inp   Done                     12/27/2018 03:56:36
00043 suncat0034 pw.x -in pw.inp   Done                     12/27/2018 03:56:36
00044 suncat0034 pw.x -in pw.inp   Done                     12/27/2018 03:56:36
00045 suncat0034 pw.x -in pw.inp   Done                     12/27/2018 03:56:36
00046 suncat0034 pw.x -in pw.inp   Done                     12/27/2018 03:56:36
00047 suncat0034 pw.x -in pw.inp   Done                     12/27/2018 03:56:36
00048 suncat0029 pw.x -in pw.inp   Done                     12/27/2018 03:56:36
00049 suncat0029 pw.x -in pw.inp   Done                     12/27/2018 03:56:36
00050 suncat0029 pw.x -in pw.inp   Done                     12/27/2018 03:56:36
00051 suncat0029 pw.x -in pw.inp   Done                     12/27/2018 03:56:36
00052 suncat0029 pw.x -in pw.inp   Done                     12/27/2018 03:56:36
00053 suncat0029 pw.x -in pw.inp   Done                     12/27/2018 03:56:36
00054 suncat0029 pw.x -in pw.inp   Done                     12/27/2018 03:56:36
00055 suncat0029 pw.x -in pw.inp   Done                     12/27/2018 03:56:36
00056 suncat0199 pw.x -in pw.inp   Done                     12/27/2018 03:56:36
00057 suncat0199 pw.x -in pw.inp   Done                     12/27/2018 03:56:36
00058 suncat0199 pw.x -in pw.inp   Done                     12/27/2018 03:56:36
00059 suncat0199 pw.x -in pw.inp   Done                     12/27/2018 03:56:36
00060 suncat0199 pw.x -in pw.inp   Done                     12/27/2018 03:56:36
00061 suncat0199 pw.x -in pw.inp   Done                     12/27/2018 03:56:36
00062 suncat0199 pw.x -in pw.inp   Done                     12/27/2018 03:56:36
00063 suncat0199 pw.x -in pw.inp   Done                     12/27/2018 03:56:36