     Program PWSCF v.5.1rc2 (svn rev. 11289) starts on 30Dec2018 at 12:17:54

     Current dimensions of program PWSCF are:
     Max number of different atomic species (ntypx) = 10
     Max number of k-points (npk) =  40000
     Max angular momentum in pseudopotentials (lmaxx) =  3
     Presently stress not available with electric field

     IMPORTANT: XC functional enforced from input :
     Exchange-correlation      = BEEF-VDW ( 1  4 27 13 2)
     Any further DFT definition will be discarded
     Please, verify this is what you really want

     Subspace diagonalization in iterative solution of the eigenvalue problem:
     a serial algorithm will be used

     Generating pointlists ...
     new r_m :   0.4125 (alat units)  0.7795 (a.u.) for type    1
     new r_m :   0.4125 (alat units)  0.7795 (a.u.) for type    2

     bravais-lattice index     =            0
     lattice parameter (alat)  =       1.8897  a.u.
     unit-cell volume          =    7110.6320 (a.u.)^3
     number of atoms/cell      =           12
     number of atomic types    =            2
     number of electrons       =       147.00
     number of Kohn-Sham states=          103
     kinetic-energy cutoff     =      36.7493  Ry
     charge density cutoff     =     367.4932  Ry
     convergence threshold     =      1.0E-06
     mixing beta               =       0.1000
     number of iterations used =           10  plain     mixing
     Exchange-correlation      = BEEF-VDW ( 1  4 27 13 2)
     nstep                     =           50

     celldm(1)=   1.889726  celldm(2)=   0.000000  celldm(3)=   0.000000
     celldm(4)=   0.000000  celldm(5)=   0.000000  celldm(6)=   0.000000

     crystal axes: (cart. coord. in units of alat)
               a(1) = (   6.890482   0.000000   0.000000 )
               a(2) = (  -3.445241   5.967333   0.000000 )
               a(3) = (   0.000000   0.000000  25.626055 )

     reciprocal axes: (cart. coord. in units 2 pi/alat)
               b(1) = (  0.145128  0.083790  0.000000 )
               b(2) = (  0.000000  0.167579  0.000000 )
               b(3) = (  0.000000  0.000000  0.039023 )

     PseudoPot. # 1 for La read from file:
     /afs/slac.stanford.edu/u/if/mamunm/psp/gbrv1.5pbe/La.UPF
     MD5 check sum: 5937b0c7494ba0601a847275249473aa
     Pseudo is Ultrasoft + core correction, Zval = 11.0
     Generated by new atomic code, or converted to UPF format
     Using radial grid of  995 points,  8 beta functions with:
                l(1) =   0
                l(2) =   0
                l(3) =   1
                l(4) =   1
                l(5) =   2
                l(6) =   2
                l(7) =   3
                l(8) =   3
     Q(r) pseudized with  8 coefficients,  rinner =    1.700   1.700   1.700
                                                       1.700   1.700   1.700
                                                       1.700

     PseudoPot. # 2 for Fe read from file:
     /afs/slac.stanford.edu/u/if/mamunm/psp/gbrv1.5pbe/Fe.UPF
     MD5 check sum: a130daea23fe5165f5d574ae7f82ed95
     Pseudo is Ultrasoft + core correction, Zval = 16.0
     Generated by new atomic code, or converted to UPF format
     Using radial grid of  861 points,  6 beta functions with:
                l(1) =   0
                l(2) =   0
                l(3) =   1
                l(4) =   1
                l(5) =   2
                l(6) =   2
     Q(r) pseudized with  8 coefficients,  rinner =    1.000   1.000   1.000
                                                       1.000   1.000

     vdW kernel table read from file vdW_kernel_table
     MD5 check sum: 095c7af220d748ca6e76c0b4c6cfb241

     atomic species   valence    mass     pseudopotential
        La1           11.00   138.90547     La( 1.00)
        Fe1           16.00    55.84500     Fe( 1.00)

     Starting magnetic structure
     atomic species   magnetization
        La1          0.182
        Fe1          0.125

     No symmetry found

   Cartesian axes

     site n.     atom                  positions (alat units)
         1           La1 tau(   1) = (   0.0000000   0.0000000  10.0000000  )
         2           La1 tau(   2) = (  -1.7226205   2.9836663  10.0000000  )
         3           La1 tau(   3) = (   1.7226205   2.9836663  10.0000000  )
         4           Fe1 tau(   4) = (   3.4452410   0.0000000  10.0000000  )
         5           La1 tau(   5) = (   3.4452410   1.9891108  12.8130275  )
         6           La1 tau(   6) = (   1.7226205   4.9727771  12.8130275  )
         7           La1 tau(   7) = (  -1.7226205   4.9727771  12.8130275  )
         8           Fe1 tau(   8) = (   0.0000000   1.9891108  12.8130275  )
         9           La1 tau(   9) = (  -0.0000000   3.9782217  15.6260551  )
        10           La1 tau(  10) = (   1.7226205   0.9945554  15.6260551  )
        11           La1 tau(  11) = (   5.1678616   0.9945554  15.6260551  )
        12           Fe1 tau(  12) = (   3.4452410   3.9782217  15.6260551  )

     number of k points=    40  Fermi-Dirac smearing, width (Ry)=  0.0110
                       cart. coord. in units 2pi/alat
        k(    1) = (   0.0000000   0.0000000   0.0000000), wk =   0.0277778
        k(    2) = (   0.0000000   0.0279298   0.0000000), wk =   0.0555556
        k(    3) = (   0.0000000   0.0558597   0.0000000), wk =   0.0555556
        k(    4) = (   0.0000000  -0.0837895   0.0000000), wk =   0.0277778
        k(    5) = (   0.0241880   0.0139649   0.0000000), wk =   0.0555556
        k(    6) = (   0.0241880   0.0418948   0.0000000), wk =   0.0555556
        k(    7) = (   0.0241880   0.0698246   0.0000000), wk =   0.0555556
        k(    8) = (   0.0241880  -0.0698246   0.0000000), wk =   0.0555556
        k(    9) = (   0.0241880  -0.0418948   0.0000000), wk =   0.0555556
        k(   10) = (   0.0241880  -0.0139649   0.0000000), wk =   0.0555556
        k(   11) = (   0.0483759   0.0279298   0.0000000), wk =   0.0555556
        k(   12) = (   0.0483759   0.0558597   0.0000000), wk =   0.0555556
        k(   13) = (   0.0483759   0.0837895   0.0000000), wk =   0.0555556
        k(   14) = (   0.0483759  -0.0558597   0.0000000), wk =   0.0555556
        k(   15) = (   0.0483759  -0.0279298   0.0000000), wk =   0.0555556
        k(   16) = (   0.0483759  -0.0000000   0.0000000), wk =   0.0555556
        k(   17) = (  -0.0725639  -0.0418948   0.0000000), wk =   0.0277778
        k(   18) = (  -0.0725639  -0.0139649   0.0000000), wk =   0.0555556
        k(   19) = (  -0.0725639   0.0139649   0.0000000), wk =   0.0555556
        k(   20) = (  -0.0725639  -0.1256843   0.0000000), wk =   0.0277778
        k(   21) = (   0.0000000   0.0000000   0.0000000), wk =   0.0277778
        k(   22) = (   0.0000000   0.0279298   0.0000000), wk =   0.0555556
        k(   23) = (   0.0000000   0.0558597   0.0000000), wk =   0.0555556
        k(   24) = (   0.0000000  -0.0837895   0.0000000), wk =   0.0277778
        k(   25) = (   0.0241880   0.0139649   0.0000000), wk =   0.0555556
        k(   26) = (   0.0241880   0.0418948   0.0000000), wk =   0.0555556
        k(   27) = (   0.0241880   0.0698246   0.0000000), wk =   0.0555556
        k(   28) = (   0.0241880  -0.0698246   0.0000000), wk =   0.0555556
        k(   29) = (   0.0241880  -0.0418948   0.0000000), wk =   0.0555556
        k(   30) = (   0.0241880  -0.0139649   0.0000000), wk =   0.0555556
        k(   31) = (   0.0483759   0.0279298   0.0000000), wk =   0.0555556
        k(   32) = (   0.0483759   0.0558597   0.0000000), wk =   0.0555556
        k(   33) = (   0.0483759   0.0837895   0.0000000), wk =   0.0555556
        k(   34) = (   0.0483759  -0.0558597   0.0000000), wk =   0.0555556
        k(   35) = (   0.0483759  -0.0279298   0.0000000), wk =   0.0555556
        k(   36) = (   0.0483759  -0.0000000   0.0000000), wk =   0.0555556
        k(   37) = (  -0.0725639  -0.0418948   0.0000000), wk =   0.0277778
        k(   38) = (  -0.0725639  -0.0139649   0.0000000), wk =   0.0555556
        k(   39) = (  -0.0725639   0.0139649   0.0000000), wk =   0.0555556
        k(   40) = (  -0.0725639  -0.1256843   0.0000000), wk =   0.0277778

     Largest allocated arrays     est. size (Mb)     dimensions
     Largest temporary arrays     est. size (Mb)     dimensions

     Check: negative/imaginary core charge=   -0.000002    0.000000

     Initial potential from superposition of free atoms
     Check: negative starting charge=(component1):   -0.368502
     Check: negative starting charge=(component2):   -0.255105

     starting charge  143.71137, renormalised to  147.00000

     negative rho (up, down):  3.769E-01 2.609E-01

     *
     * You are using vdW-DF for exchange-correlation in this calculation.
     * Please cite the following three references that made this development
     * possible:
     *
     *   M. Dion, H. Rydberg, E. Schroder, D. C. Langreth, and
     *   B. I. Lundqvist, Phys. Rev. Lett. 92, 246401 (2004).
     *
     *   T. Thonhauser, V. R. Cooper, S. Li, A. Puzder, P. Hyldgaard, and
     *   D. C. Langreth, Phys. Rev. B 76, 125112 (2007).
     *
     *   G. Roman-Perez and J. M. Soler, Phys. Rev. Lett. 103, 096102 (2009).
     *
     *
     * If you are using vdW-DF2, please also cite:
     *
     *   K. Lee, E. D. Murray, L. Kong, B. I. Lundqvist, and
     *   D. C. Langreth, Phys. Rev. B 82, 081101(R) (2010).
     *
     *
     * If you are calculating the stress with vdW-DF, please also cite:
     *
     *   R. Sabatini, E. Kucukbenli, B. Kolb, T. Thonhauser, and
     *   S. de Gironcoli, J. Phys.: Condens. Matter 24, 424209 (2012).
     *

     Carrying out vdW-DF run using the following parameters:

     Nqs =      20    Nr_points =    1024   r_max =   100.000
     q_mesh =
               0.00001000     0.04494208     0.09755937     0.15916263
               0.23128650     0.31572767     0.41458969     0.53033537
               0.66584808     0.82450364     1.01025438     1.22772762
               1.48234092     1.78043706     2.12944203     2.53805004
               3.01644009     3.57652955     4.23227104     5.00000000

     Gradients computed in reciprocal space

     Adding external electric field

     Computed dipole along edir(3) :
        Dipole               -0.0000 Ry au,         -0.0000 Debye
        Dipole field         -0.0000 Ry au

        Potential amp.        0.0000 Ry
        Total length         47.2156 bohr

[...]

     Starting wfc are  219 randomized atomic wfcs

     Self-consistent Calculation

     iteration #  1     ecut=    36.75 Ry     beta=0.10
     Davidson diagonalization with overlap
     ethr =  1.00E-02,  avg # of iterations =  2.0

[...]

     Magnetic moment per site:
     atom:    1    charge:    0.1246    magn:    0.0215    constr:    0.0000
     atom:    2    charge:    0.1246    magn:    0.0215    constr:    0.0000
     atom:    3    charge:    0.1246    magn:    0.0215    constr:    0.0000
     atom:    4    charge:    7.2840    magn:    0.8201    constr:    0.0000
     atom:    5    charge:    0.1270    magn:    0.0228    constr:    0.0000
     atom:    6    charge:    0.1270    magn:    0.0228    constr:    0.0000
[...]
        k(   10) = (   0.0241880  -0.0139649   0.0000000), wk =   0.0555556
        k(   11) = (   0.0483759   0.0279298   0.0000000), wk =   0.0555556
        k(   12) = (   0.0483759   0.0558597   0.0000000), wk =   0.0555556
        k(   13) = (   0.0483759   0.0837895   0.0000000), wk =   0.0555556
        k(   14) = (   0.0483759  -0.0558597   0.0000000), wk =   0.0555556
        k(   15) = (   0.0483759  -0.0279298   0.0000000), wk =   0.0555556
        k(   16) = (   0.0483759  -0.0000000   0.0000000), wk =   0.0555556
        k(   17) = (  -0.0725639  -0.0418948   0.0000000), wk =   0.0277778
        k(   18) = (  -0.0725639  -0.0139649   0.0000000), wk =   0.0555556
        k(   19) = (  -0.0725639   0.0139649   0.0000000), wk =   0.0555556
        k(   20) = (  -0.0725639  -0.1256843   0.0000000), wk =   0.0277778
        k(   21) = (   0.0000000   0.0000000   0.0000000), wk =   0.0277778
        k(   22) = (   0.0000000   0.0279298   0.0000000), wk =   0.0555556
        k(   23) = (   0.0000000   0.0558597   0.0000000), wk =   0.0555556
        k(   24) = (   0.0000000  -0.0837895   0.0000000), wk =   0.0277778
        k(   25) = (   0.0241880   0.0139649   0.0000000), wk =   0.0555556
        k(   26) = (   0.0241880   0.0418948   0.0000000), wk =   0.0555556
        k(   27) = (   0.0241880   0.0698246   0.0000000), wk =   0.0555556
        k(   28) = (   0.0241880  -0.0698246   0.0000000), wk =   0.0555556
        k(   29) = (   0.0241880  -0.0418948   0.0000000), wk =   0.0555556
        k(   30) = (   0.0241880  -0.0139649   0.0000000), wk =   0.0555556
        k(   31) = (   0.0483759   0.0279298   0.0000000), wk =   0.0555556
        k(   32) = (   0.0483759   0.0558597   0.0000000), wk =   0.0555556
        k(   33) = (   0.0483759   0.0837895   0.0000000), wk =   0.0555556
        k(   34) = (   0.0483759  -0.0558597   0.0000000), wk =   0.0555556
        k(   35) = (   0.0483759  -0.0279298   0.0000000), wk =   0.0555556
        k(   36) = (   0.0483759  -0.0000000   0.0000000), wk =   0.0555556
        k(   37) = (  -0.0725639  -0.0418948   0.0000000), wk =   0.0277778
        k(   38) = (  -0.0725639  -0.0139649   0.0000000), wk =   0.0555556
        k(   39) = (  -0.0725639   0.0139649   0.0000000), wk =   0.0555556
        k(   40) = (  -0.0725639  -0.1256843   0.0000000), wk =   0.0277778

     Largest allocated arrays     est. size (Mb)     dimensions
     Largest temporary arrays     est. size (Mb)     dimensions

     Check: negative/imaginary core charge=   -0.000002    0.000000

     Initial potential from superposition of free atoms
     Check: negative starting charge=(component1):   -0.367990
     Check: negative starting charge=(component2):   -0.254748

     starting charge  143.71137, renormalised to  147.00000

[...]

     *
     * You are using vdW-DF for exchange-correlation in this calculation.
     * Please cite the following three references that made this development
     * possible:
     *
     *   M. Dion, H. Rydberg, E. Schroder, D. C. Langreth, and
     *   B. I. Lundqvist, Phys. Rev. Lett. 92, 246401 (2004).
     *
     *   T. Thonhauser, V. R. Cooper, S. Li, A. Puzder, P. Hyldgaard, and
     *   D. C. Langreth, Phys. Rev. B 76, 125112 (2007).
     *
     *   G. Roman-Perez and J. M. Soler, Phys. Rev. Lett. 103, 096102 (2009).
     *
     *
     * If you are using vdW-DF2, please also cite:
     *
     *   K. Lee, E. D. Murray, L. Kong, B. I. Lundqvist, and
     *   D. C. Langreth, Phys. Rev. B 82, 081101(R) (2010).
     *
     *
     * If you are calculating the stress with vdW-DF, please also cite:
     *
     *   R. Sabatini, E. Kucukbenli, B. Kolb, T. Thonhauser, and
     *   S. de Gironcoli, J. Phys.: Condens. Matter 24, 424209 (2012).
     *

     Carrying out vdW-DF run using the following parameters:

     Nqs =      20    Nr_points =    1024   r_max =   100.000
     q_mesh =
               0.00001000     0.04494208     0.09755937     0.15916263
               0.23128650     0.31572767     0.41458969     0.53033537
               0.66584808     0.82450364     1.01025438     1.22772762
               1.48234092     1.78043706     2.12944203     2.53805004
               3.01644009     3.57652955     4.23227104     5.00000000

     Gradients computed in reciprocal space

[...]

     Starting wfc are  219 randomized atomic wfcs

     Self-consistent Calculation

[...]

     iteration # 22     ecut=    36.75 Ry     beta=0.10
     Davidson diagonalization with overlap
     c_bands:  1 eigenvalues not converged
     c_bands:  1 eigenvalues not converged
     c_bands:  1 eigenvalues not converged
     c_bands:  2 eigenvalues not converged
     c_bands:  1 eigenvalues not converged
     c_bands:  1 eigenvalues not converged
     c_bands:  1 eigenvalues not converged
     c_bands:  1 eigenvalues not converged
     c_bands:  3 eigenvalues not converged
     c_bands:  1 eigenvalues not converged
     c_bands:  1 eigenvalues not converged
     c_bands:  2 eigenvalues not converged
     ethr =  1.49E-06,  avg # of iterations = 15.1

[...]

     total energy              =   -1689.89237394 Ry
     Harris-Foulkes estimate   =   -1689.89237085 Ry
     estimated scf accuracy    <       0.00000143 Ry

[...]

     iteration # 40     ecut=    36.75 Ry     beta=0.10
     Davidson diagonalization with overlap
     ethr =  9.76E-10,  avg # of iterations =  4.4

[...]

     negative rho (up, down):  2.192E-01 1.789E-01

[...]

     Adding external electric field

     Computed dipole along edir(3) :
        Dipole                0.0726 Ry au,          0.1844 Debye
        Dipole field          0.0001 Ry au

        Potential amp.       -0.0121 Ry
        Total length         47.2156 bohr

     Magnetic moment per site:
     atom:    1    charge:    0.1643    magn:   -0.0082    constr:    0.0000
     atom:    2    charge:    0.1643    magn:   -0.0082    constr:    0.0000
     atom:    3    charge:    0.1643    magn:   -0.0082    constr:    0.0000
     atom:    4    charge:    7.1066    magn:    1.3412    constr:    0.0000
     atom:    5    charge:    0.1617    magn:   -0.0130    constr:    0.0000
     atom:    6    charge:    0.1617    magn:   -0.0130    constr:    0.0000
     atom:    7    charge:    0.1617    magn:   -0.0130    constr:    0.0000
     atom:    8    charge:    7.0775    magn:    1.3226    constr:    0.0000
     atom:    9    charge:    0.1642    magn:   -0.0090    constr:    0.0000
     atom:   10    charge:    0.1642    magn:   -0.0090    constr:    0.0000
     atom:   11    charge:    0.1642    magn:   -0.0090    constr:    0.0000
     atom:   12    charge:    7.0819    magn:    1.2532    constr:    0.0000

     End of self-consistent calculation

 ------ SPIN UP ------------

[...]

 ------ SPIN DOWN ----------

[...]

          k = 0.0484-0.0000 0.0000 ( 26799 PWs)   bands (ev):

[...]

          k =-0.0726-0.1257 0.0000 ( 26690 PWs)   bands (ev):

   -83.4554 -83.4219 -83.4038 -49.5464 -49.5464 -49.5427 -49.5391 -49.5140
   -49.5140 -49.5106 -49.5006 -49.5006 -31.2636 -31.1893 -31.1170 -31.1028
   -31.0467 -31.0246 -30.7408 -30.6709 -30.5920 -15.6270 -15.5091 -15.3800
   -15.2094 -15.1238 -15.0586 -15.0248 -14.9793 -14.9216 -14.8809 -14.8311
   -14.8132 -14.7990 -14.7872 -14.6785 -14.5953 -14.5870 -14.4422 -14.2841
   -14.2175 -14.2006 -14.0900 -14.0477 -14.0189 -13.9957 -13.9638 -13.6744
    -0.5484  -0.5307  -0.0362   0.3858   0.5844   0.6896   0.9482   1.1082
     1.1148   1.1234   1.1694   1.2197   1.3621   1.3747   1.5286   1.6106
     1.6512   1.7005   1.7124   1.8519   1.8999   1.9606   1.9970   2.0213
     2.1115   2.1507   2.1881   2.2229   2.3715   2.3913   2.4340   2.5599
     2.6045   2.6719   2.7359   2.7784   2.8408   2.9771   2.9914   3.0203
     3.0880   3.2154   3.2434   3.3066   3.3857   3.4275   3.4463   3.4613
     3.4938   3.5021   3.5547   3.5695   3.6105   3.6215   3.6439

     the Fermi energy is     2.0019 ev

!    total energy              =   -1689.89237963 Ry
     Harris-Foulkes estimate   =   -1689.89237359 Ry
     estimated scf accuracy    <       0.00000090 Ry

     The total energy is the sum of the following terms:

     one-electron contribution =   -7646.86770374 Ry
     hartree contribution      =    3834.54071954 Ry
     xc contribution           =    -547.77942388 Ry
     ewald contribution        =    2670.35359228 Ry
     electric field correction =       0.00000930 Ry
     smearing contrib. (-TS)   =      -0.13957313 Ry

     total magnetization       =     6.54 Bohr mag/cell
     absolute magnetization    =    11.43 Bohr mag/cell

     convergence has been achieved in  40 iterations

 BEEF-vdW xc energy contributions
           1 :   -484.534747017380
           2 :    444.609733810371
           3 :   -374.667530422870
           4 :    290.596087169823
           5 :   -208.656609575439
           6 :    140.794473341811
           7 :   -92.5260233306579
           8 :    63.4280523668682
           9 :   -49.2080804870461
          10 :    44.0872631470135
          11 :   -42.6526101692150
          12 :    40.8725548953254
          13 :   -36.4205814760242
          14 :    28.5935907298351
          15 :   -18.0544420088612
          16 :    6.44246322685672
          17 :    4.16064467340505
          18 :   -11.8640386497000
          19 :    15.5284788842126
          20 :   -15.0832130928193
          21 :    11.5061953475704
          22 :   -6.50200484687809
          23 :    1.97160130803650
          24 :   0.576625543802152
          25 :  -0.500918306144968
          26 :   -1.79948457375440
          27 :    5.10240938566244
          28 :   -7.91467609193114
          29 :    9.12170754437795
          30 :   -8.43917407938318
          31 :   -41.2995473557106
          32 :   -29.5531154967546

     Forces acting on atoms (Ry/au):

     negative rho (up, down):  2.192E-01 1.789E-01
     atom    1 type  1   force =     0.00000036    0.01832082   -0.00890985
     atom    2 type  1   force =     0.01586698   -0.00916095   -0.00891089
     atom    3 type  1   force =    -0.01586670   -0.00916022   -0.00891188
     atom    4 type  2   force =    -0.00000088    0.00000355    0.02362887
     atom    5 type  1   force =    -0.00000103   -0.00843596    0.00229605
     atom    6 type  1   force =    -0.00730495    0.00421589    0.00229544
     atom    7 type  1   force =     0.00730696    0.00421828    0.00229625
     atom    8 type  2   force =    -0.00000292   -0.00000042    0.00097165
     atom    9 type  1   force =    -0.00000239    0.00144201   -0.00108182
     atom   10 type  1   force =     0.00125269   -0.00072252   -0.00107974
     atom   11 type  1   force =    -0.00124884   -0.00072049   -0.00107831
     atom   12 type  2   force =     0.00000072    0.00000001   -0.00151579

     Total force =     0.045231     Total SCF correction =     0.002185

     entering subroutine stress ...

     negative rho (up, down):  2.192E-01 1.789E-01
          total   stress  (Ry/bohr**3)                   (kbar)     P=    0.37
   0.00000489   0.00000000  -0.00000000          0.72      0.00     -0.00
   0.00000000   0.00000489   0.00000000          0.00      0.72      0.00
  -0.00000000   0.00000000  -0.00000228         -0.00      0.00     -0.34

 !ASE

     Writing output data file calc.save

     General routines

     Parallel routines

   This run was terminated on:   3: 2:17  31Dec2018

   JOB DONE.
Job  /afs/slac/g/suncat/bin/suncat-tsmpirun -x LD_LIBRARY_PATH -wdir /scratch/qe648550_pyfkI pw.x -in pw.inp

TID   HOST_NAME   COMMAND_LINE            STATUS            TERMINATION_TIME
00000 suncat0036 pw.x -in pw.inp   Done                     12/31/2018 03:02:17
00001 suncat0036 pw.x -in pw.inp   Done                     12/31/2018 03:02:17
00002 suncat0036 pw.x -in pw.inp   Done                     12/31/2018 03:02:17
00003 suncat0036 pw.x -in pw.inp   Done                     12/31/2018 03:02:17
00004 suncat0036 pw.x -in pw.inp   Done                     12/31/2018 03:02:17
00005 suncat0036 pw.x -in pw.inp   Done                     12/31/2018 03:02:17
00006 suncat0036 pw.x -in pw.inp   Done                     12/31/2018 03:02:17
00007 suncat0036 pw.x -in pw.inp   Done                     12/31/2018 03:02:17
00008 suncat0035 pw.x -in pw.inp   Done                     12/31/2018 03:02:17
00009 suncat0035 pw.x -in pw.inp   Done                     12/31/2018 03:02:17
00010 suncat0035 pw.x -in pw.inp   Done                     12/31/2018 03:02:17
00011 suncat0035 pw.x -in pw.inp   Done                     12/31/2018 03:02:17
00012 suncat0035 pw.x -in pw.inp   Done                     12/31/2018 03:02:17
00013 suncat0035 pw.x -in pw.inp   Done                     12/31/2018 03:02:17
00014 suncat0035 pw.x -in pw.inp   Done                     12/31/2018 03:02:17
00015 suncat0035 pw.x -in pw.inp   Done                     12/31/2018 03:02:17
00016 suncat0033 pw.x -in pw.inp   Done                     12/31/2018 03:02:17
00017 suncat0033 pw.x -in pw.inp   Done                     12/31/2018 03:02:17
00018 suncat0033 pw.x -in pw.inp   Done                     12/31/2018 03:02:17
00019 suncat0033 pw.x -in pw.inp   Done                     12/31/2018 03:02:17
00020 suncat0033 pw.x -in pw.inp   Done                     12/31/2018 03:02:17
00021 suncat0033 pw.x -in pw.inp   Done                     12/31/2018 03:02:17
00022 suncat0033 pw.x -in pw.inp   Done                     12/31/2018 03:02:17
00023 suncat0033 pw.x -in pw.inp   Done                     12/31/2018 03:02:17
00024 suncat0032 pw.x -in pw.inp   Done                     12/31/2018 03:02:17
00025 suncat0032 pw.x -in pw.inp   Done                     12/31/2018 03:02:17
00026 suncat0032 pw.x -in pw.inp   Done                     12/31/2018 03:02:17
00027 suncat0032 pw.x -in pw.inp   Done                     12/31/2018 03:02:17
00028 suncat0032 pw.x -in pw.inp   Done                     12/31/2018 03:02:17
00029 suncat0032 pw.x -in pw.inp   Done                     12/31/2018 03:02:17
00030 suncat0032 pw.x -in pw.inp   Done                     12/31/2018 03:02:17
00031 suncat0032 pw.x -in pw.inp   Done                     12/31/2018 03:02:17
00032 suncat0029 pw.x -in pw.inp   Done                     12/31/2018 03:02:17
00033 suncat0029 pw.x -in pw.inp   Done                     12/31/2018 03:02:17
00034 suncat0029 pw.x -in pw.inp   Done                     12/31/2018 03:02:17
00035 suncat0029 pw.x -in pw.inp   Done                     12/31/2018 03:02:17
00036 suncat0029 pw.x -in pw.inp   Done                     12/31/2018 03:02:17
00037 suncat0029 pw.x -in pw.inp   Done                     12/31/2018 03:02:17
00038 suncat0029 pw.x -in pw.inp   Done                     12/31/2018 03:02:17
00039 suncat0029 pw.x -in pw.inp   Done                     12/31/2018 03:02:17
00040 suncat0019 pw.x -in pw.inp   Done                     12/31/2018 03:02:17
00041 suncat0019 pw.x -in pw.inp   Done                     12/31/2018 03:02:17
00042 suncat0019 pw.x -in pw.inp   Done                     12/31/2018 03:02:17
00043 suncat0019 pw.x -in pw.inp   Done                     12/31/2018 03:02:17
00044 suncat0019 pw.x -in pw.inp   Done                     12/31/2018 03:02:17
00045 suncat0019 pw.x -in pw.inp   Done                     12/31/2018 03:02:17
00046 suncat0019 pw.x -in pw.inp   Done                     12/31/2018 03:02:17
00047 suncat0019 pw.x -in pw.inp   Done                     12/31/2018 03:02:17
00048 suncat0018 pw.x -in pw.inp   Done                     12/31/2018 03:02:17
00049 suncat0018 pw.x -in pw.inp   Done                     12/31/2018 03:02:17
00050 suncat0018 pw.x -in pw.inp   Done                     12/31/2018 03:02:17
00051 suncat0018 pw.x -in pw.inp   Done                     12/31/2018 03:02:17
00052 suncat0018 pw.x -in pw.inp   Done                     12/31/2018 03:02:17
00053 suncat0018 pw.x -in pw.inp   Done                     12/31/2018 03:02:17
00054 suncat0018 pw.x -in pw.inp   Done                     12/31/2018 03:02:17
00055 suncat0018 pw.x -in pw.inp   Done                     12/31/2018 03:02:17
00056 suncat0001 pw.x -in pw.inp   Done                     12/31/2018 03:02:17
00057 suncat0001 pw.x -in pw.inp   Done                     12/31/2018 03:02:17
00058 suncat0001 pw.x -in pw.inp   Done                     12/31/2018 03:02:17
00059 suncat0001 pw.x -in pw.inp   Done                     12/31/2018 03:02:17
00060 suncat0001 pw.x -in pw.inp   Done                     12/31/2018 03:02:17
00061 suncat0001 pw.x -in pw.inp   Done                     12/31/2018 03:02:17
00062 suncat0001 pw.x -in pw.inp   Done                     12/31/2018 03:02:17
00063 suncat0001 pw.x -in pw.inp   Done                     12/31/2018 03:02:17