     Program PWSCF v.5.1rc2 (svn rev. 11289) starts on 19Dec2018 at 15: 8: 5

     Current dimensions of program PWSCF are:
     Max number of different atomic species (ntypx) = 10
     Max number of k-points (npk) =  40000
     Max angular momentum in pseudopotentials (lmaxx) =  3
     Presently stress not available with electric field

     IMPORTANT: XC functional enforced from input :
     Exchange-correlation      = BEEF-VDW ( 1  4 27 13 2)
     Any further DFT definition will be discarded
     Please, verify this is what you really want

     Subspace diagonalization in iterative solution of the eigenvalue problem:
     a serial algorithm will be used

     bravais-lattice index     =            0
     lattice parameter (alat)  =       1.8897  a.u.
     unit-cell volume          =    5320.4902 (a.u.)^3
     number of atoms/cell      =           12
     number of atomic types    =            2
     number of electrons       =       207.00
     number of Kohn-Sham states=          133
     kinetic-energy cutoff     =      36.7493  Ry
     charge density cutoff     =     367.4932  Ry
     convergence threshold     =      1.0E-06
     mixing beta               =       0.1000
     number of iterations used =           10  plain     mixing
     Exchange-correlation      = BEEF-VDW ( 1  4 27 13 2)
     nstep                     =           50

     celldm(1)=   1.889726  celldm(2)=   0.000000  celldm(3)=   0.000000
     celldm(4)=   0.000000  celldm(5)=   0.000000  celldm(6)=   0.000000

     crystal axes: (cart. coord. in units of alat)
               a(1) = (   6.042530   0.000000   0.000000 )
               a(2) = (  -3.021265   5.232984   0.000000 )
               a(3) = (   0.000000   0.000000  24.933705 )

     reciprocal axes: (cart. coord. in units 2 pi/alat)
               b(1) = (  0.165494  0.095548  0.000000 )
               b(2) = (  0.000000  0.191096  0.000000 )
               b(3) = (  0.000000  0.000000  0.040106 )

     PseudoPot. # 1 for Ag read from file:
     /afs/slac.stanford.edu/u/if/mamunm/psp/gbrv1.5pbe/Ag.UPF
     MD5 check sum: d66d668201baa78d5eb5b04ef7011058
     Pseudo is Ultrasoft + core correction, Zval = 19.0
     Generated by new atomic code, or converted to UPF format
     Using radial grid of  887 points,  6 beta functions with:
                l(1) =   0
                l(2) =   0
                l(3) =   1
                l(4) =   1
                l(5) =   2
                l(6) =   2
     Q(r) pseudized with  6 coefficients,  rinner =    1.300   1.300   1.300
                                                       1.300   1.300

     PseudoPot. # 2 for Hf read from file:
     /afs/slac.stanford.edu/u/if/mamunm/psp/gbrv1.5pbe/Hf.UPF
     MD5 check sum: 8ee9378dfe14276e333edf04c5e4aa26
     Pseudo is Ultrasoft + core correction, Zval = 12.0
     Generated by new atomic code, or converted to UPF format
     Using radial grid of  921 points,  8 beta functions with:
                l(1) =   0
                l(2) =   0
                l(3) =   0
                l(4) =   1
                l(5) =   1
                l(6) =   2
                l(7) =   2
                l(8) =   3
     Q(r) pseudized with  6 coefficients,  rinner =    1.200   1.200   1.200
                                                       1.200   1.200   1.200
                                                       1.200

     vdW kernel table read from file vdW_kernel_table
     MD5 check sum: 095c7af220d748ca6e76c0b4c6cfb241

     atomic species   valence    mass     pseudopotential
        Ag1           19.00   107.86820     Ag( 1.00)
        Hf1           12.00   178.49000     Hf( 1.00)

     No symmetry found

   Cartesian axes

     site n.     atom                  positions (alat units)
         1           Ag1 tau(   1) = (   0.0000000   0.0000000  10.0000000  )
         2           Ag1 tau(   2) = (  -1.5106324   2.6164921  10.0000000  )
         3           Ag1 tau(   3) = (   1.5106324   2.6164921  10.0000000  )
         4           Hf1 tau(   4) = (   3.0212649   0.0000000  10.0000000  )
         5           Ag1 tau(   5) = (   3.0212649   1.7443281  12.4668525  )
         6           Ag1 tau(   6) = (   1.5106324   4.3608202  12.4668525  )
         7           Ag1 tau(   7) = (  -1.5106324   4.3608202  12.4668525  )
         8           Hf1 tau(   8) = (   0.0000000   1.7443281  12.4668525  )
         9           Ag1 tau(   9) = (  -0.0000000   3.4886562  14.9337049  )
        10           Ag1 tau(  10) = (   1.5106324   0.8721640  14.9337049  )
        11           Ag1 tau(  11) = (   4.5318973   0.8721640  14.9337049  )
        12           Hf1 tau(  12) = (   3.0212649   3.4886562  14.9337049  )

     number of k points=    20  Fermi-Dirac smearing, width (Ry)=  0.0110
                       cart. coord. in units 2pi/alat
        k(    1) = (   0.0000000   0.0000000   0.0000000), wk =   0.0555556
        k(    2) = (   0.0000000   0.0318493   0.0000000), wk =   0.1111111
        k(    3) = (   0.0000000   0.0636985   0.0000000), wk =   0.1111111
        k(    4) = (   0.0000000  -0.0955478   0.0000000), wk =   0.0555556
        k(    5) = (   0.0275823   0.0159246   0.0000000), wk =   0.1111111
        k(    6) = (   0.0275823   0.0477739   0.0000000), wk =   0.1111111
        k(    7) = (   0.0275823   0.0796231   0.0000000), wk =   0.1111111
        k(    8) = (   0.0275823  -0.0796231   0.0000000), wk =   0.1111111
        k(    9) = (   0.0275823  -0.0477739   0.0000000), wk =   0.1111111
        k(   10) = (   0.0275823  -0.0159246   0.0000000), wk =   0.1111111
        k(   11) = (   0.0551645   0.0318493   0.0000000), wk =   0.1111111
        k(   12) = (   0.0551645   0.0636985   0.0000000), wk =   0.1111111
        k(   13) = (   0.0551645   0.0955478   0.0000000), wk =   0.1111111
        k(   14) = (   0.0551645  -0.0636985   0.0000000), wk =   0.1111111
        k(   15) = (   0.0551645  -0.0318493   0.0000000), wk =   0.1111111
        k(   16) = (   0.0551645   0.0000000   0.0000000), wk =   0.1111111
        k(   17) = (  -0.0827468  -0.0477739   0.0000000), wk =   0.0555556
        k(   18) = (  -0.0827468  -0.0159246   0.0000000), wk =   0.1111111
        k(   19) = (  -0.0827468   0.0159246   0.0000000), wk =   0.1111111
        k(   20) = (  -0.0827468  -0.1433217   0.0000000), wk =   0.0555556

     Largest allocated arrays     est. size (Mb)     dimensions
     Largest temporary arrays     est. size (Mb)     dimensions

     Check: negative/imaginary core charge=   -0.000003    0.000000

     Initial potential from superposition of free atoms
     Check: negative starting charge=   -0.322171

     starting charge  196.49957, renormalised to  207.00000

     negative rho (up, down):  3.394E-01 0.000E+00

     *
     * You are using vdW-DF for exchange-correlation in this calculation.
     * Please cite the following three references that made this development
     * possible:
     *
     *   M. Dion, H. Rydberg, E. Schroder, D. C. Langreth, and
     *   B. I. Lundqvist, Phys. Rev. Lett. 92, 246401 (2004).
     *
     *   T. Thonhauser, V. R. Cooper, S. Li, A. Puzder, P. Hyldgaard, and
     *   D. C. Langreth, Phys. Rev. B 76, 125112 (2007).
     *
     *   G. Roman-Perez and J. M. Soler, Phys. Rev. Lett. 103, 096102 (2009).
     *
     *
     * If you are using vdW-DF2, please also cite:
     *
     *   K. Lee, E. D. Murray, L. Kong, B. I. Lundqvist, and
     *   D. C. Langreth, Phys. Rev. B 82, 081101(R) (2010).
     *
     *
     * If you are calculating the stress with vdW-DF, please also cite:
     *
     *   R. Sabatini, E. Kucukbenli, B. Kolb, T. Thonhauser, and
     *   S. de Gironcoli, J. Phys.: Condens. Matter 24, 424209 (2012).
     *

     Carrying out vdW-DF run using the following parameters:

     Nqs =      20    Nr_points =    1024   r_max =   100.000
     q_mesh =
               0.00001000     0.04494208     0.09755937     0.15916263
               0.23128650     0.31572767     0.41458969     0.53033537
               0.66584808     0.82450364     1.01025438     1.22772762
               1.48234092     1.78043706     2.12944203     2.53805004
               3.01644009     3.57652955     4.23227104     5.00000000

     Gradients computed in reciprocal space

     Adding external electric field

     Computed dipole along edir(3) :
        Dipole                0.0000 Ry au,          0.0000 Debye
        Dipole field          0.0000 Ry au

        Potential amp.       -0.0000 Ry
        Total length         45.9399 bohr

     Starting wfc are  156 randomized atomic wfcs

     Self-consistent Calculation

     iteration #  1     ecut=    36.75 Ry     beta=0.10
     Davidson diagonalization with overlap
     ethr =  1.00E-02,  avg # of iterations =  7.2

[...]

     total energy              =   -3121.48827883 Ry
     Harris-Foulkes estimate   =   -3168.17798587 Ry
     estimated scf accuracy    <     264.92375076 Ry

[...]

     End of self-consistent calculation

          k = 0.0000 0.0000 0.0000 ( 19855 PWs)   bands (ev):

   -90.7666 -90.7623 -90.7623 -90.6210 -90.6209 -90.6167 -90.6167 -90.6166
   -90.6166 -62.3722 -62.3719 -62.0737 -54.3044 -54.2960 -54.2960 -54.2791
   -54.2791 -54.2664 -54.1921 -54.1921 -54.1918 -54.1918 -54.1876 -54.1673
   -54.1666 -54.1424 -54.1424 -54.1119 -54.1115 -54.0840 -54.0840 -54.0828
   -54.0828 -54.0361 -54.0327 -54.0020 -54.0020 -54.0012 -54.0012 -30.9273
   -30.9250 -30.7504 -30.7504 -30.7498 -30.7498 -30.5403 -30.5031 -30.5031
    -5.3069  -4.4661  -4.3311  -4.2298  -4.1697  -4.1697  -4.0990  -3.9996
    -3.9996  -3.9613  -3.9613  -3.9525  -3.9124  -3.8055  -3.8055  -3.3465
    -3.3139  -3.3139  -3.2665  -3.2665  -3.1185  -3.0852  -2.9720  -2.9480
    -2.9480  -2.8335  -2.8335  -2.7937  -2.7937  -2.6786  -2.6786  -2.5378
    -2.5332  -2.4566  -2.4566  -2.2951  -2.2951  -2.2550  -2.2550  -2.1321
    -2.1321  -2.0826  -1.8549  -1.8549  -1.8429  -1.7355  -1.7026  -0.4032
     0.7194   1.2452   1.2452   1.2759   1.2853   1.2853   1.7747   1.8180
     1.8180   2.0852   2.0852   2.5782   2.6512   2.7359   2.7359   2.7763
     2.7763   3.3919   3.3919   4.1258   4.1258   4.2802   4.5844   4.6026
     4.6026   5.0283   5.2774   5.5461   6.1700   6.3193   6.6058   6.8702
     6.8702   6.9149   6.9149   7.0296   7.4896

[...]

          k =-0.0827-0.0478 0.0000 ( 20040 PWs)   bands (ev):

[...]

     the Fermi energy is     1.6887 ev

!    total energy              =   -3151.31706352 Ry
     Harris-Foulkes estimate   =   -3151.31706540 Ry
     estimated scf accuracy    <       0.00000089 Ry

     The total energy is the sum of the following terms:

     one-electron contribution =  -20551.08589138 Ry
     hartree contribution      =   10263.12578618 Ry
     xc contribution           =    -502.08208665 Ry
     ewald contribution        =    7638.79349771 Ry
     electric field correction =       0.00000006 Ry
     smearing contrib. (-TS)   =      -0.06836945 Ry

     convergence has been achieved in  18 iterations

 BEEF-vdW xc energy contributions
           1 :   -443.620202269602
           2 :    406.915410482155
           3 :   -343.956379959949
           4 :    271.055036746036
[...]
                l(5) =   2
                l(6) =   2
     Q(r) pseudized with  6 coefficients,  rinner =    1.300   1.300   1.300
                                                       1.300   1.300

     PseudoPot. # 2 for Hf read from file:
     /afs/slac.stanford.edu/u/if/mamunm/psp/gbrv1.5pbe/Hf.UPF
     MD5 check sum: 8ee9378dfe14276e333edf04c5e4aa26
     Pseudo is Ultrasoft + core correction, Zval = 12.0
     Generated by new atomic code, or converted to UPF format
     Using radial grid of  921 points,  8 beta functions with:
                l(1) =   0
                l(2) =   0
                l(3) =   0
                l(4) =   1
                l(5) =   1
                l(6) =   2
                l(7) =   2
                l(8) =   3
     Q(r) pseudized with  6 coefficients,  rinner =    1.200   1.200   1.200
                                                       1.200   1.200   1.200
                                                       1.200

     vdW kernel table read from file vdW_kernel_table
     MD5 check sum: 095c7af220d748ca6e76c0b4c6cfb241

     atomic species   valence    mass     pseudopotential
        Ag1           19.00   107.86820     Ag( 1.00)
        Hf1           12.00   178.49000     Hf( 1.00)

     No symmetry found

   Cartesian axes

     site n.     atom                  positions (alat units)
         1           Ag1 tau(   1) = (   0.0000000   0.0000000  10.0000000  )
         2           Ag1 tau(   2) = (  -1.5106324   2.6164921  10.0000000  )
         3           Ag1 tau(   3) = (   1.5106324   2.6164921  10.0000000  )
         4           Hf1 tau(   4) = (   3.0212649   0.0000000  10.0000000  )
         5           Ag1 tau(   5) = (   3.0212649   1.7443281  12.4668525  )
         6           Ag1 tau(   6) = (   1.5106324   4.3608202  12.4668525  )
         7           Ag1 tau(   7) = (  -1.5106324   4.3608202  12.4668525  )
         8           Hf1 tau(   8) = (   0.0000000   1.7443281  12.4668525  )
         9           Ag1 tau(   9) = (  -0.0000004   3.4938236  14.9216553  )
        10           Ag1 tau(  10) = (   1.5151077   0.8695799  14.9216551  )
        11           Ag1 tau(  11) = (   4.5274223   0.8695806  14.9216547  )
        12           Hf1 tau(  12) = (   3.0212644   3.4886559  14.7427276  )

     number of k points=    20  Fermi-Dirac smearing, width (Ry)=  0.0110
                       cart. coord. in units 2pi/alat
        k(    1) = (   0.0000000   0.0000000   0.0000000), wk =   0.0555556
        k(    2) = (   0.0000000   0.0318493   0.0000000), wk =   0.1111111
        k(    3) = (   0.0000000   0.0636985   0.0000000), wk =   0.1111111
        k(    4) = (   0.0000000  -0.0955478   0.0000000), wk =   0.0555556
        k(    5) = (   0.0275823   0.0159246   0.0000000), wk =   0.1111111
        k(    6) = (   0.0275823   0.0477739   0.0000000), wk =   0.1111111
        k(    7) = (   0.0275823   0.0796231   0.0000000), wk =   0.1111111
        k(    8) = (   0.0275823  -0.0796231   0.0000000), wk =   0.1111111
        k(    9) = (   0.0275823  -0.0477739   0.0000000), wk =   0.1111111
        k(   10) = (   0.0275823  -0.0159246   0.0000000), wk =   0.1111111
        k(   11) = (   0.0551645   0.0318493   0.0000000), wk =   0.1111111
        k(   12) = (   0.0551645   0.0636985   0.0000000), wk =   0.1111111
        k(   13) = (   0.0551645   0.0955478   0.0000000), wk =   0.1111111
        k(   14) = (   0.0551645  -0.0636985   0.0000000), wk =   0.1111111
        k(   15) = (   0.0551645  -0.0318493   0.0000000), wk =   0.1111111
        k(   16) = (   0.0551645   0.0000000   0.0000000), wk =   0.1111111
        k(   17) = (  -0.0827468  -0.0477739   0.0000000), wk =   0.0555556
        k(   18) = (  -0.0827468  -0.0159246   0.0000000), wk =   0.1111111
        k(   19) = (  -0.0827468   0.0159246   0.0000000), wk =   0.1111111
        k(   20) = (  -0.0827468  -0.1433217   0.0000000), wk =   0.0555556

     Largest allocated arrays     est. size (Mb)     dimensions
     Largest temporary arrays     est. size (Mb)     dimensions

     Check: negative/imaginary core charge=   -0.000003    0.000000

     Initial potential from superposition of free atoms
     Check: negative starting charge=   -0.322574

     starting charge  196.49957, renormalised to  207.00000

[...]

     *
     * You are using vdW-DF for exchange-correlation in this calculation.
     * Please cite the following three references that made this development
     * possible:
     *
     *   M. Dion, H. Rydberg, E. Schroder, D. C. Langreth, and
     *   B. I. Lundqvist, Phys. Rev. Lett. 92, 246401 (2004).
     *
     *   T. Thonhauser, V. R. Cooper, S. Li, A. Puzder, P. Hyldgaard, and
     *   D. C. Langreth, Phys. Rev. B 76, 125112 (2007).
     *
     *   G. Roman-Perez and J. M. Soler, Phys. Rev. Lett. 103, 096102 (2009).
     *
     *
     * If you are using vdW-DF2, please also cite:
     *
     *   K. Lee, E. D. Murray, L. Kong, B. I. Lundqvist, and
     *   D. C. Langreth, Phys. Rev. B 82, 081101(R) (2010).
     *
     *
     * If you are calculating the stress with vdW-DF, please also cite:
     *
     *   R. Sabatini, E. Kucukbenli, B. Kolb, T. Thonhauser, and
     *   S. de Gironcoli, J. Phys.: Condens. Matter 24, 424209 (2012).
     *

     Carrying out vdW-DF run using the following parameters:

     Nqs =      20    Nr_points =    1024   r_max =   100.000
     q_mesh =
               0.00001000     0.04494208     0.09755937     0.15916263
               0.23128650     0.31572767     0.41458969     0.53033537
               0.66584808     0.82450364     1.01025438     1.22772762
               1.48234092     1.78043706     2.12944203     2.53805004
               3.01644009     3.57652955     4.23227104     5.00000000

     Gradients computed in reciprocal space

[...]

     Starting wfc are  156 randomized atomic wfcs

     Self-consistent Calculation

[...]

     total energy              =   -3151.33348629 Ry
     Harris-Foulkes estimate   =   -3151.33348805 Ry
     estimated scf accuracy    <       0.00001184 Ry

     iteration # 20     ecut=    36.75 Ry     beta=0.10
     Davidson diagonalization with overlap
     ethr =  4.07E-09,  avg # of iterations =  2.0

[...]

     negative rho (up, down):  3.435E-01 0.000E+00

     Adding external electric field

     Computed dipole along edir(3) :
        Dipole               -0.0297 Ry au,         -0.0756 Debye
        Dipole field         -0.0001 Ry au

        Potential amp.        0.0065 Ry
        Total length         45.9399 bohr

     End of self-consistent calculation

[...]

          k = 0.0552 0.0000 0.0000 ( 20017 PWs)   bands (ev):

[...]

          k =-0.0827-0.1433 0.0000 ( 20040 PWs)   bands (ev):

   -90.9045 -90.9031 -90.9017 -90.6553 -90.6539 -90.6525 -90.6523 -90.6509
   -90.6495 -62.4189 -62.3125 -62.0779 -54.4658 -54.4578 -54.4515 -54.4103
   -54.4028 -54.3954 -54.3007 -54.2886 -54.2743 -54.2270 -54.2244 -54.2193
   -54.2164 -54.2126 -54.2101 -54.1364 -54.1348 -54.1275 -54.1261 -54.1191
   -54.1183 -54.0620 -54.0581 -54.0517 -54.0479 -54.0388 -54.0356 -30.9745
   -30.8751 -30.8005 -30.7983 -30.7144 -30.7122 -30.5542 -30.5099 -30.5075
    -4.3173  -4.2591  -4.0722  -3.9875  -3.9572  -3.8573  -3.8061  -3.7970
    -3.7959  -3.7207  -3.6635  -3.6532  -3.5759  -3.5113  -3.4897  -3.4357
    -3.3934  -3.3594  -3.3510  -3.1622  -3.1313  -3.0500  -3.0184  -2.9878
    -2.9754  -2.9659  -2.9122  -2.9071  -2.8687  -2.8582  -2.8446  -2.8176
    -2.7315  -2.7278  -2.7033  -2.6779  -2.5812  -2.5728  -2.5444  -2.5283
    -2.5174  -2.4912  -2.4225  -2.2750  -2.1984  -1.9912  -1.8710  -1.8626
    -1.1166  -0.8090   0.2891   0.5190   0.7345   0.8392   1.3262   1.6435
     1.8651   1.9653   2.0284   2.1133   2.1324   2.3669   2.5423   2.5861
     2.7627   3.3316   3.6790   4.1743   4.7143   4.9844   5.0923   5.4071
     5.7385   5.7848   6.2650   6.3430   6.7573   6.7742   6.8906   6.9378
     7.1924   7.3592   7.8073   7.9247   7.9623

     the Fermi energy is     1.6524 ev

!    total energy              =   -3151.33348768 Ry
     Harris-Foulkes estimate   =   -3151.33348733 Ry
     estimated scf accuracy    <       0.00000100 Ry

     The total energy is the sum of the following terms:

     one-electron contribution =  -20670.56768052 Ry
     hartree contribution      =   10322.42678695 Ry
     xc contribution           =    -502.16505209 Ry
     ewald contribution        =    7699.03899703 Ry
     electric field correction =       0.00000209 Ry
     smearing contrib. (-TS)   =      -0.06654114 Ry

     convergence has been achieved in  20 iterations

 BEEF-vdW xc energy contributions
           1 :   -444.052024189698
           2 :    407.385279010399
           3 :   -344.470308037570
           4 :    271.576435489917
           5 :   -204.400282346783
           6 :    152.850673650887
           7 :   -119.191591725268
           8 :    99.6616184940267
           9 :   -88.0722722985166
          10 :    79.2339175536165
          11 :   -70.6832443471315
          12 :    62.3888875044266
          13 :   -55.2645613160860
          14 :    49.7219292957157
          15 :   -45.1511885264701
          16 :    40.4042450591672
          17 :   -34.7091981391650
          18 :    28.2689721645432
          19 :   -22.1563723339964
          20 :    17.6399156571594
          21 :   -15.4414210941590
          22 :    15.3859170929836
          23 :   -16.5899330951298
          24 :    17.9727273023516
          25 :   -18.7375921771475
          26 :    18.5704360398908
          27 :   -17.5460745398971
          28 :    15.9049224906393
          29 :   -13.8932279842330
          30 :    11.7440096016338
          31 :   -38.3817056919406
          32 :   -27.8373244320172

     Forces acting on atoms (Ry/au):

     negative rho (up, down):  3.435E-01 0.000E+00
     atom    1 type  1   force =    -0.00000002   -0.00078611    0.00102123
     atom    2 type  1   force =    -0.00068074    0.00039308    0.00102123
     atom    3 type  1   force =     0.00068075    0.00039310    0.00102124
     atom    4 type  2   force =    -0.00000000   -0.00000001    0.01797555
     atom    5 type  1   force =     0.00000001   -0.00681287   -0.00819991
     atom    6 type  1   force =    -0.00590017    0.00340639   -0.00819997
     atom    7 type  1   force =     0.00590014    0.00340638   -0.00819990
     atom    8 type  2   force =     0.00000006   -0.00000002    0.00234033
     atom    9 type  1   force =     0.00000001   -0.00078665    0.00006430
     atom   10 type  1   force =    -0.00068123    0.00039336    0.00006434
     atom   11 type  1   force =     0.00068117    0.00039331    0.00006443
     atom   12 type  2   force =     0.00000002    0.00000004    0.00102714

     Total force =     0.026028     Total SCF correction =     0.008347
     SCF correction compared to forces is large: reduce conv_thr to get better values

     entering subroutine stress ...

     negative rho (up, down):  3.435E-01 0.000E+00
          total   stress  (Ry/bohr**3)                   (kbar)     P=  -10.09
  -0.00008145  -0.00000000   0.00000000        -11.98     -0.00      0.00
  -0.00000000  -0.00008145   0.00000000         -0.00    -11.98      0.00
   0.00000000   0.00000000  -0.00004280          0.00      0.00     -6.30

 !ASE

     Writing output data file calc.save

     General routines

     Parallel routines

   This run was terminated on:  18:56:24  19Dec2018

   JOB DONE.
Job  /afs/slac/g/suncat/bin/suncat-tsmpirun -x LD_LIBRARY_PATH -wdir /scratch/qe773162_QKfnv pw.x -in pw.inp

TID   HOST_NAME   COMMAND_LINE            STATUS            TERMINATION_TIME
00000 suncat0145 pw.x -in pw.inp   Done                     12/19/2018 18:56:24
00001 suncat0145 pw.x -in pw.inp   Done                     12/19/2018 18:56:24
00002 suncat0145 pw.x -in pw.inp   Done                     12/19/2018 18:56:24
00003 suncat0145 pw.x -in pw.inp   Done                     12/19/2018 18:56:24
00004 suncat0145 pw.x -in pw.inp   Done                     12/19/2018 18:56:24
00005 suncat0145 pw.x -in pw.inp   Done                     12/19/2018 18:56:24
00006 suncat0145 pw.x -in pw.inp   Done                     12/19/2018 18:56:24
00007 suncat0145 pw.x -in pw.inp   Done                     12/19/2018 18:56:24
00008 suncat0144 pw.x -in pw.inp   Done                     12/19/2018 18:56:24
00009 suncat0144 pw.x -in pw.inp   Done                     12/19/2018 18:56:24
00010 suncat0144 pw.x -in pw.inp   Done                     12/19/2018 18:56:24
00011 suncat0144 pw.x -in pw.inp   Done                     12/19/2018 18:56:24
00012 suncat0144 pw.x -in pw.inp   Done                     12/19/2018 18:56:24
00013 suncat0144 pw.x -in pw.inp   Done                     12/19/2018 18:56:24
00014 suncat0144 pw.x -in pw.inp   Done                     12/19/2018 18:56:24
00015 suncat0144 pw.x -in pw.inp   Done                     12/19/2018 18:56:24
00016 suncat0143 pw.x -in pw.inp   Done                     12/19/2018 18:56:24
00017 suncat0143 pw.x -in pw.inp   Done                     12/19/2018 18:56:24
00018 suncat0143 pw.x -in pw.inp   Done                     12/19/2018 18:56:24
00019 suncat0143 pw.x -in pw.inp   Done                     12/19/2018 18:56:24
00020 suncat0143 pw.x -in pw.inp   Done                     12/19/2018 18:56:24
00021 suncat0143 pw.x -in pw.inp   Done                     12/19/2018 18:56:24
00022 suncat0143 pw.x -in pw.inp   Done                     12/19/2018 18:56:24
00023 suncat0143 pw.x -in pw.inp   Done                     12/19/2018 18:56:24
00024 suncat0142 pw.x -in pw.inp   Done                     12/19/2018 18:56:24
00025 suncat0142 pw.x -in pw.inp   Done                     12/19/2018 18:56:24
00026 suncat0142 pw.x -in pw.inp   Done                     12/19/2018 18:56:24
00027 suncat0142 pw.x -in pw.inp   Done                     12/19/2018 18:56:24
00028 suncat0142 pw.x -in pw.inp   Done                     12/19/2018 18:56:24
00029 suncat0142 pw.x -in pw.inp   Done                     12/19/2018 18:56:24
00030 suncat0142 pw.x -in pw.inp   Done                     12/19/2018 18:56:24
00031 suncat0142 pw.x -in pw.inp   Done                     12/19/2018 18:56:24
00032 suncat0141 pw.x -in pw.inp   Done                     12/19/2018 18:56:24
00033 suncat0141 pw.x -in pw.inp   Done                     12/19/2018 18:56:24
00034 suncat0141 pw.x -in pw.inp   Done                     12/19/2018 18:56:24
00035 suncat0141 pw.x -in pw.inp   Done                     12/19/2018 18:56:24
00036 suncat0141 pw.x -in pw.inp   Done                     12/19/2018 18:56:24
00037 suncat0141 pw.x -in pw.inp   Done                     12/19/2018 18:56:24
00038 suncat0141 pw.x -in pw.inp   Done                     12/19/2018 18:56:24
00039 suncat0141 pw.x -in pw.inp   Done                     12/19/2018 18:56:24
00040 suncat0140 pw.x -in pw.inp   Done                     12/19/2018 18:56:24
00041 suncat0140 pw.x -in pw.inp   Done                     12/19/2018 18:56:24
00042 suncat0140 pw.x -in pw.inp   Done                     12/19/2018 18:56:24
00043 suncat0140 pw.x -in pw.inp   Done                     12/19/2018 18:56:24
00044 suncat0140 pw.x -in pw.inp   Done                     12/19/2018 18:56:24
00045 suncat0140 pw.x -in pw.inp   Done                     12/19/2018 18:56:24
00046 suncat0140 pw.x -in pw.inp   Done                     12/19/2018 18:56:24
00047 suncat0140 pw.x -in pw.inp   Done                     12/19/2018 18:56:24
00048 suncat0139 pw.x -in pw.inp   Done                     12/19/2018 18:56:24
00049 suncat0139 pw.x -in pw.inp   Done                     12/19/2018 18:56:24
00050 suncat0139 pw.x -in pw.inp   Done                     12/19/2018 18:56:24
00051 suncat0139 pw.x -in pw.inp   Done                     12/19/2018 18:56:24
00052 suncat0139 pw.x -in pw.inp   Done                     12/19/2018 18:56:24
00053 suncat0139 pw.x -in pw.inp   Done                     12/19/2018 18:56:24
00054 suncat0139 pw.x -in pw.inp   Done                     12/19/2018 18:56:24
00055 suncat0139 pw.x -in pw.inp   Done                     12/19/2018 18:56:24
00056 suncat0138 pw.x -in pw.inp   Done                     12/19/2018 18:56:24
00057 suncat0138 pw.x -in pw.inp   Done                     12/19/2018 18:56:24
00058 suncat0138 pw.x -in pw.inp   Done                     12/19/2018 18:56:24
00059 suncat0138 pw.x -in pw.inp   Done                     12/19/2018 18:56:24
00060 suncat0138 pw.x -in pw.inp   Done                     12/19/2018 18:56:24
00061 suncat0138 pw.x -in pw.inp   Done                     12/19/2018 18:56:24
00062 suncat0138 pw.x -in pw.inp   Done                     12/19/2018 18:56:24
00063 suncat0138 pw.x -in pw.inp   Done                     12/19/2018 18:56:24