     Program PWSCF v.5.1rc2 (svn rev. 11289) starts on  1Jan2019 at 18:30:13

     Current dimensions of program PWSCF are:
     Max number of different atomic species (ntypx) = 10
     Max number of k-points (npk) =  40000
     Max angular momentum in pseudopotentials (lmaxx) =  3
     Presently stress not available with electric field

     IMPORTANT: XC functional enforced from input :
     Exchange-correlation      = BEEF-VDW ( 1  4 27 13 2)
     Any further DFT definition will be discarded
     Please, verify this is what you really want

     Subspace diagonalization in iterative solution of the eigenvalue problem:
     a serial algorithm will be used

     bravais-lattice index     =            0
     lattice parameter (alat)  =       1.8897  a.u.
     unit-cell volume          =    4543.8123 (a.u.)^3
     number of atoms/cell      =           12
     number of atomic types    =            2
     number of electrons       =       171.00
     number of Kohn-Sham states=          115
     kinetic-energy cutoff     =      36.7493  Ry
     charge density cutoff     =     367.4932  Ry
     convergence threshold     =      1.0E-06
     mixing beta               =       0.1000
     number of iterations used =           10  plain     mixing
     Exchange-correlation      = BEEF-VDW ( 1  4 27 13 2)
     nstep                     =           50

     celldm(1)=   1.889726  celldm(2)=   0.000000  celldm(3)=   0.000000
     celldm(4)=   0.000000  celldm(5)=   0.000000  celldm(6)=   0.000000

     crystal axes: (cart. coord. in units of alat)
               a(1) = (   5.622869   0.000000   0.000000 )
               a(2) = (  -2.811435   4.869548   0.000000 )
               a(3) = (   0.000000   0.000000  24.591054 )

     reciprocal axes: (cart. coord. in units 2 pi/alat)
               b(1) = (  0.177845  0.102679  0.000000 )
               b(2) = (  0.000000  0.205358  0.000000 )
               b(3) = (  0.000000  0.000000  0.040665 )

     PseudoPot. # 1 for Tc read from file:
     /afs/slac.stanford.edu/u/if/mamunm/psp/gbrv1.5pbe/Tc.UPF
     MD5 check sum: 9eb49e5b028550b2339a02317eb7b844
     Pseudo is Ultrasoft + core correction, Zval = 15.0
     Generated by new atomic code, or converted to UPF format
     Using radial grid of  965 points,  6 beta functions with:
                l(1) =   0
                l(2) =   0
                l(3) =   1
                l(4) =   1
                l(5) =   2
                l(6) =   2
     Q(r) pseudized with  8 coefficients,  rinner =    1.300   1.300   1.300
                                                       1.300   1.300

     PseudoPot. # 2 for Cd read from file:
     /afs/slac.stanford.edu/u/if/mamunm/psp/gbrv1.5pbe/Cd.UPF
     MD5 check sum: 17164a7926edb8e0dc231208abae86a6
     Pseudo is Ultrasoft + core correction, Zval = 12.0
     Generated by new atomic code, or converted to UPF format
     Using radial grid of  889 points,  6 beta functions with:
                l(1) =   0
                l(2) =   0
                l(3) =   1
                l(4) =   1
                l(5) =   2
                l(6) =   2
     Q(r) pseudized with  6 coefficients,  rinner =    1.000   1.000   1.000
                                                       1.000   1.000

     vdW kernel table read from file vdW_kernel_table
     MD5 check sum: 095c7af220d748ca6e76c0b4c6cfb241

     atomic species   valence    mass     pseudopotential
        Tc1           15.00    97.90721     Tc( 1.00)
        Cd1           12.00   112.41400     Cd( 1.00)

     No symmetry found

   Cartesian axes

     site n.     atom                  positions (alat units)
         1           Tc1 tau(   1) = (   0.0000000   0.0000000  10.0000000  )
         2           Tc1 tau(   2) = (  -1.4057174   2.4347739  10.0000000  )
         3           Tc1 tau(   3) = (   1.4057174   2.4347739  10.0000000  )
         4           Cd1 tau(   4) = (   2.8114347   0.0000000  10.0000000  )
         5           Tc1 tau(   5) = (   2.8114347   1.6231826  12.2955269  )
         6           Tc1 tau(   6) = (   1.4057174   4.0579565  12.2955269  )
         7           Tc1 tau(   7) = (  -1.4057174   4.0579565  12.2955269  )
         8           Cd1 tau(   8) = (   0.0000000   1.6231826  12.2955269  )
         9           Tc1 tau(   9) = (  -0.0000000   3.2463652  14.5910537  )
        10           Tc1 tau(  10) = (   1.4057174   0.8115913  14.5910537  )
        11           Tc1 tau(  11) = (   4.2171521   0.8115913  14.5910537  )
        12           Cd1 tau(  12) = (   2.8114347   3.2463652  14.5910537  )

     number of k points=    20  Fermi-Dirac smearing, width (Ry)=  0.0110
                       cart. coord. in units 2pi/alat
        k(    1) = (   0.0000000   0.0000000   0.0000000), wk =   0.0555556
        k(    2) = (   0.0000000   0.0342263   0.0000000), wk =   0.1111111
        k(    3) = (   0.0000000   0.0684526   0.0000000), wk =   0.1111111
        k(    4) = (   0.0000000  -0.1026789   0.0000000), wk =   0.0555556
        k(    5) = (   0.0296409   0.0171132   0.0000000), wk =   0.1111111
        k(    6) = (   0.0296409   0.0513395   0.0000000), wk =   0.1111111
        k(    7) = (   0.0296409   0.0855658   0.0000000), wk =   0.1111111
        k(    8) = (   0.0296409  -0.0855658   0.0000000), wk =   0.1111111
        k(    9) = (   0.0296409  -0.0513395   0.0000000), wk =   0.1111111
        k(   10) = (   0.0296409  -0.0171132   0.0000000), wk =   0.1111111
        k(   11) = (   0.0592817   0.0342263   0.0000000), wk =   0.1111111
        k(   12) = (   0.0592817   0.0684526   0.0000000), wk =   0.1111111
        k(   13) = (   0.0592817   0.1026789   0.0000000), wk =   0.1111111
        k(   14) = (   0.0592817  -0.0684526   0.0000000), wk =   0.1111111
        k(   15) = (   0.0592817  -0.0342263   0.0000000), wk =   0.1111111
        k(   16) = (   0.0592817   0.0000000   0.0000000), wk =   0.1111111
        k(   17) = (  -0.0889226  -0.0513395   0.0000000), wk =   0.0555556
        k(   18) = (  -0.0889226  -0.0171132   0.0000000), wk =   0.1111111
        k(   19) = (  -0.0889226   0.0171132   0.0000000), wk =   0.1111111
        k(   20) = (  -0.0889226  -0.1540184   0.0000000), wk =   0.0555556

     Largest allocated arrays     est. size (Mb)     dimensions
     Largest temporary arrays     est. size (Mb)     dimensions

     Check: negative/imaginary core charge=   -0.000017    0.000000

     Initial potential from superposition of free atoms
     Check: negative starting charge=   -1.194680

     starting charge  160.49963, renormalised to  171.00000

     negative rho (up, down):  1.273E+00 0.000E+00

     *
     * You are using vdW-DF for exchange-correlation in this calculation.
     * Please cite the following three references that made this development
     * possible:
     *
     *   M. Dion, H. Rydberg, E. Schroder, D. C. Langreth, and
     *   B. I. Lundqvist, Phys. Rev. Lett. 92, 246401 (2004).
     *
     *   T. Thonhauser, V. R. Cooper, S. Li, A. Puzder, P. Hyldgaard, and
     *   D. C. Langreth, Phys. Rev. B 76, 125112 (2007).
     *
     *   G. Roman-Perez and J. M. Soler, Phys. Rev. Lett. 103, 096102 (2009).
     *
     *
     * If you are using vdW-DF2, please also cite:
     *
     *   K. Lee, E. D. Murray, L. Kong, B. I. Lundqvist, and
     *   D. C. Langreth, Phys. Rev. B 82, 081101(R) (2010).
     *
     *
     * If you are calculating the stress with vdW-DF, please also cite:
     *
     *   R. Sabatini, E. Kucukbenli, B. Kolb, T. Thonhauser, and
     *   S. de Gironcoli, J. Phys.: Condens. Matter 24, 424209 (2012).
     *

     Carrying out vdW-DF run using the following parameters:

     Nqs =      20    Nr_points =    1024   r_max =   100.000
     q_mesh =
               0.00001000     0.04494208     0.09755937     0.15916263
               0.23128650     0.31572767     0.41458969     0.53033537
               0.66584808     0.82450364     1.01025438     1.22772762
               1.48234092     1.78043706     2.12944203     2.53805004
               3.01644009     3.57652955     4.23227104     5.00000000

     Gradients computed in reciprocal space

     Adding external electric field

     Computed dipole along edir(3) :
        Dipole                0.0000 Ry au,          0.0000 Debye
        Dipole field          0.0000 Ry au

        Potential amp.       -0.0000 Ry
        Total length         45.3086 bohr

     Starting wfc are  144 randomized atomic wfcs

     Self-consistent Calculation

     iteration #  1     ecut=    36.75 Ry     beta=0.10
     Davidson diagonalization with overlap
     ethr =  1.00E-02,  avg # of iterations =  8.6

[...]

     total energy              =   -1926.31708654 Ry
     Harris-Foulkes estimate   =   -1929.05007901 Ry
     estimated scf accuracy    <      17.06377524 Ry

[...]

     End of self-consistent calculation

          k = 0.0000 0.0000 0.0000 ( 17099 PWs)   bands (ev):

   -65.5267 -65.4502 -65.4493 -65.2021 -65.1983 -65.1283 -65.1283 -65.1273
   -65.1273 -37.8652 -37.6738 -37.6734 -37.6500 -37.5490 -37.5485 -37.5328
   -37.4961 -37.3343 -37.3165 -37.3165 -37.2571 -37.2568 -37.1869 -37.1840
   -37.1836 -37.1109 -37.1109 -37.0620 -37.0416 -37.0416 -36.9994 -36.9826
   -36.8956 -36.8956 -36.8922 -36.8921  -7.3852  -7.3852  -7.3353  -7.2947
    -7.2947  -7.0522  -7.0522  -7.0356  -7.0356  -7.0125  -6.9235  -6.7947
    -6.7947  -6.7808  -6.7808  -5.6556  -3.9722  -3.8560  -3.1431  -2.3891
    -2.1799  -1.6080  -1.4992  -1.4992  -1.2978  -1.2978  -1.1999  -1.0049
    -1.0049  -0.8696  -0.8696  -0.1631  -0.1630  -0.0747  -0.0747   0.1033
     0.4327   0.4947   0.7898   0.7898   1.0524   1.2958   1.2958   1.6136
     1.9697   1.9697   2.0446   2.1256   2.2581   2.2581   2.4571   2.4571
     2.5389   2.5389   2.7761   2.7761   2.9089   2.9089   2.9370   2.9370
     3.4911   3.5145   3.5145   3.6216   4.0804   4.4045   4.4750   4.6431
     4.8570   5.1109   5.1109   5.3740   5.3740   5.6109   5.8799   6.2775
     7.1264   7.5027   7.5716

[...]

          k =-0.0889-0.0513 0.0000 ( 17120 PWs)   bands (ev):

[...]

     the Fermi energy is     1.7252 ev

!    total energy              =   -1925.34908132 Ry
     Harris-Foulkes estimate   =   -1925.35246392 Ry
     estimated scf accuracy    <       0.00000081 Ry

     The total energy is the sum of the following terms:

     one-electron contribution =  -15810.75709427 Ry
     hartree contribution      =    7926.49713266 Ry
     xc contribution           =    -420.02688875 Ry
     ewald contribution        =    6379.02905175 Ry
     electric field correction =       0.00000000 Ry
     smearing contrib. (-TS)   =      -0.09128272 Ry

     convergence has been achieved in  18 iterations

 BEEF-vdW xc energy contributions
           1 :   -367.885238448288
           2 :    337.793013550051
           3 :   -284.980965118827
           4 :    221.227676810633
           5 :   -158.674202387290
           6 :    106.105425101436
           7 :   -67.1162024155510
           8 :    40.4807229135688
           9 :   -22.2465215256702
          10 :    8.30655679946710
          11 :    3.67795314042377
          12 :   -13.7242535495876
[...]
     MD5 check sum: 9eb49e5b028550b2339a02317eb7b844
     Pseudo is Ultrasoft + core correction, Zval = 15.0
     Generated by new atomic code, or converted to UPF format
     Using radial grid of  965 points,  6 beta functions with:
                l(1) =   0
                l(2) =   0
                l(3) =   1
                l(4) =   1
                l(5) =   2
                l(6) =   2
     Q(r) pseudized with  8 coefficients,  rinner =    1.300   1.300   1.300
                                                       1.300   1.300

     PseudoPot. # 2 for Cd read from file:
     /afs/slac.stanford.edu/u/if/mamunm/psp/gbrv1.5pbe/Cd.UPF
     MD5 check sum: 17164a7926edb8e0dc231208abae86a6
     Pseudo is Ultrasoft + core correction, Zval = 12.0
     Generated by new atomic code, or converted to UPF format
     Using radial grid of  889 points,  6 beta functions with:
                l(1) =   0
                l(2) =   0
                l(3) =   1
                l(4) =   1
                l(5) =   2
                l(6) =   2
     Q(r) pseudized with  6 coefficients,  rinner =    1.000   1.000   1.000
                                                       1.000   1.000

     vdW kernel table read from file vdW_kernel_table
     MD5 check sum: 095c7af220d748ca6e76c0b4c6cfb241

     atomic species   valence    mass     pseudopotential
        Tc1           15.00    97.90721     Tc( 1.00)
        Cd1           12.00   112.41400     Cd( 1.00)

     No symmetry found

   Cartesian axes

     site n.     atom                  positions (alat units)
         1           Tc1 tau(   1) = (   0.0000000   0.0000000  10.0000000  )
         2           Tc1 tau(   2) = (  -1.4057174   2.4347739  10.0000000  )
         3           Tc1 tau(   3) = (   1.4057174   2.4347739  10.0000000  )
         4           Cd1 tau(   4) = (   2.8114347   0.0000000  10.0000000  )
         5           Tc1 tau(   5) = (   2.8114347   1.6231826  12.2955269  )
         6           Tc1 tau(   6) = (   1.4057174   4.0579565  12.2955269  )
         7           Tc1 tau(   7) = (  -1.4057174   4.0579565  12.2955269  )
         8           Cd1 tau(   8) = (   0.0000000   1.6231826  12.2955269  )
         9           Tc1 tau(   9) = (   0.0000581   3.4323692  14.4469884  )
        10           Tc1 tau(  10) = (   1.5667747   0.7185252  14.4469573  )
        11           Tc1 tau(  11) = (   4.0560851   0.7184523  14.4469416  )
        12           Cd1 tau(  12) = (   2.8114681   3.2462454  15.0475782  )

     number of k points=    20  Fermi-Dirac smearing, width (Ry)=  0.0110
                       cart. coord. in units 2pi/alat
        k(    1) = (   0.0000000   0.0000000   0.0000000), wk =   0.0555556
        k(    2) = (   0.0000000   0.0342263   0.0000000), wk =   0.1111111
        k(    3) = (   0.0000000   0.0684526   0.0000000), wk =   0.1111111
        k(    4) = (   0.0000000  -0.1026789   0.0000000), wk =   0.0555556
        k(    5) = (   0.0296409   0.0171132   0.0000000), wk =   0.1111111
        k(    6) = (   0.0296409   0.0513395   0.0000000), wk =   0.1111111
        k(    7) = (   0.0296409   0.0855658   0.0000000), wk =   0.1111111
        k(    8) = (   0.0296409  -0.0855658   0.0000000), wk =   0.1111111
        k(    9) = (   0.0296409  -0.0513395   0.0000000), wk =   0.1111111
        k(   10) = (   0.0296409  -0.0171132   0.0000000), wk =   0.1111111
        k(   11) = (   0.0592817   0.0342263   0.0000000), wk =   0.1111111
        k(   12) = (   0.0592817   0.0684526   0.0000000), wk =   0.1111111
        k(   13) = (   0.0592817   0.1026789   0.0000000), wk =   0.1111111
        k(   14) = (   0.0592817  -0.0684526   0.0000000), wk =   0.1111111
        k(   15) = (   0.0592817  -0.0342263   0.0000000), wk =   0.1111111
        k(   16) = (   0.0592817   0.0000000   0.0000000), wk =   0.1111111
        k(   17) = (  -0.0889226  -0.0513395   0.0000000), wk =   0.0555556
        k(   18) = (  -0.0889226  -0.0171132   0.0000000), wk =   0.1111111
        k(   19) = (  -0.0889226   0.0171132   0.0000000), wk =   0.1111111
        k(   20) = (  -0.0889226  -0.1540184   0.0000000), wk =   0.0555556

     Largest allocated arrays     est. size (Mb)     dimensions
     Largest temporary arrays     est. size (Mb)     dimensions

     Check: negative/imaginary core charge=   -0.000017    0.000000

     Initial potential from superposition of free atoms
     Check: negative starting charge=   -1.194821

     starting charge  160.49963, renormalised to  171.00000

[...]

     *
     * You are using vdW-DF for exchange-correlation in this calculation.
     * Please cite the following three references that made this development
     * possible:
     *
     *   M. Dion, H. Rydberg, E. Schroder, D. C. Langreth, and
     *   B. I. Lundqvist, Phys. Rev. Lett. 92, 246401 (2004).
     *
     *   T. Thonhauser, V. R. Cooper, S. Li, A. Puzder, P. Hyldgaard, and
     *   D. C. Langreth, Phys. Rev. B 76, 125112 (2007).
     *
     *   G. Roman-Perez and J. M. Soler, Phys. Rev. Lett. 103, 096102 (2009).
     *
     *
     * If you are using vdW-DF2, please also cite:
     *
     *   K. Lee, E. D. Murray, L. Kong, B. I. Lundqvist, and
     *   D. C. Langreth, Phys. Rev. B 82, 081101(R) (2010).
     *
     *
     * If you are calculating the stress with vdW-DF, please also cite:
     *
     *   R. Sabatini, E. Kucukbenli, B. Kolb, T. Thonhauser, and
     *   S. de Gironcoli, J. Phys.: Condens. Matter 24, 424209 (2012).
     *

     Carrying out vdW-DF run using the following parameters:

     Nqs =      20    Nr_points =    1024   r_max =   100.000
     q_mesh =
               0.00001000     0.04494208     0.09755937     0.15916263
               0.23128650     0.31572767     0.41458969     0.53033537
               0.66584808     0.82450364     1.01025438     1.22772762
               1.48234092     1.78043706     2.12944203     2.53805004
               3.01644009     3.57652955     4.23227104     5.00000000

     Gradients computed in reciprocal space

[...]

     Starting wfc are  144 randomized atomic wfcs

     Self-consistent Calculation

[...]

     total energy              =   -1925.42479676 Ry
     Harris-Foulkes estimate   =   -1925.42479600 Ry
     estimated scf accuracy    <       0.00000238 Ry

     iteration # 19     ecut=    36.75 Ry     beta=0.10
     Davidson diagonalization with overlap
     ethr =  1.39E-09,  avg # of iterations =  3.0

[...]

     negative rho (up, down):  1.246E+00 0.000E+00

     Adding external electric field

     Computed dipole along edir(3) :
        Dipole                0.0588 Ry au,          0.1495 Debye
        Dipole field          0.0002 Ry au

        Potential amp.       -0.0147 Ry
        Total length         45.3086 bohr

     End of self-consistent calculation

[...]

          k = 0.0593 0.0000 0.0000 ( 17080 PWs)   bands (ev):

[...]

          k =-0.0889-0.1540 0.0000 ( 17120 PWs)   bands (ev):

   -65.4399 -65.4018 -65.3708 -65.3133 -65.1927 -65.1842 -65.0701 -65.0462
   -65.0218 -37.9007 -37.7404 -37.6703 -37.6590 -37.6243 -37.5092 -37.4672
   -37.4216 -37.3770 -37.3515 -37.2949 -37.2787 -37.1457 -37.1419 -37.1099
   -37.0832 -37.0581 -37.0458 -37.0349 -37.0207 -36.9946 -36.9931 -36.9520
   -36.9472 -36.9311 -36.8576 -36.8035  -7.2938  -7.2190  -7.1783  -7.1413
    -7.1264  -6.8952  -6.7791  -6.7355  -6.7085  -6.6966  -6.6761  -6.6023
    -6.5559  -6.5448  -6.5138  -4.0162  -3.6201  -2.7300  -2.6276  -2.4188
    -2.2265  -2.1178  -1.5554  -1.5431  -1.3924  -1.2257  -1.2126  -1.0753
    -0.9049  -0.7207  -0.7139  -0.5903  -0.3837  -0.2922  -0.1820  -0.0272
     0.0457   0.2513   0.3435   0.4371   0.4897   0.6134   0.7394   0.7996
     0.9583   0.9906   1.0837   1.0905   1.5868   1.6392   1.8524   1.9810
     2.0506   2.1022   2.1846   2.1879   2.4088   2.4898   2.5677   2.5715
     3.0013   3.2939   3.6448   3.6810   3.8448   4.0944   4.2328   5.0534
     5.5193   5.8855   5.9828   6.2946   6.8187   7.0988   7.1632   7.1928
     7.6215   7.6494   7.7424

     the Fermi energy is     1.8320 ev

!    total energy              =   -1925.42480233 Ry
     Harris-Foulkes estimate   =   -1925.42479866 Ry
     estimated scf accuracy    <       0.00000069 Ry

     The total energy is the sum of the following terms:

     one-electron contribution =  -15846.96481688 Ry
     hartree contribution      =    7944.79336727 Ry
     xc contribution           =    -420.22323023 Ry
     ewald contribution        =    6397.05337505 Ry
     electric field correction =       0.00000957 Ry
     smearing contrib. (-TS)   =      -0.08350709 Ry

     convergence has been achieved in  19 iterations

 BEEF-vdW xc energy contributions
           1 :   -368.318505753287
           2 :    338.259378241566
           3 :   -285.501771799421
           4 :    221.792295034136
           5 :   -159.217206258553
           6 :    106.508824195210
           7 :   -67.2510940726063
           8 :    40.2773841447436
           9 :   -21.7582865309631
          10 :    7.72127958183341
          11 :    4.10034972887377
          12 :   -13.7700198340536
          13 :    19.8740995546574
          14 :   -20.8774168803001
          15 :    16.2988098264183
          16 :   -7.19170467274051
          17 :   -4.19405265601074
          18 :    15.2586091351324
          19 :   -23.9429767170975
          20 :    29.2416796725480
          21 :   -31.1928500251900
          22 :    30.4554041980369
          23 :   -27.7796140989946
          24 :    23.6592104821557
          25 :   -18.3145768824963
          26 :    11.9349818594274
          27 :   -4.97091432180963
          28 :   -1.75173265338691
          29 :    7.18387725934974
          30 :   -10.3994766191799
          31 :   -34.4211607277850
          32 :   -25.2224359592580

     Forces acting on atoms (Ry/au):

     negative rho (up, down):  1.246E+00 0.000E+00
     atom    1 type  1   force =    -0.00000062   -0.03741658    0.02241210
     atom    2 type  1   force =    -0.03240367    0.01870674    0.02240759
     atom    3 type  1   force =     0.03240425    0.01870733    0.02241488
     atom    4 type  2   force =    -0.00000540    0.00000263   -0.06224232
     atom    5 type  1   force =    -0.00000015    0.01898007   -0.00071740
     atom    6 type  1   force =     0.01644008   -0.00949141   -0.00072110
     atom    7 type  1   force =    -0.01644214   -0.00949260   -0.00071802
     atom    8 type  2   force =     0.00000867   -0.00000196   -0.00235750
     atom    9 type  1   force =    -0.00001036   -0.00001083    0.00014456
     atom   10 type  1   force =    -0.00000878    0.00000149    0.00015219
     atom   11 type  1   force =     0.00001118    0.00001497    0.00015878
     atom   12 type  2   force =     0.00000695    0.00000014   -0.00093376

     Total force =     0.103296     Total SCF correction =     0.005416

     entering subroutine stress ...

     negative rho (up, down):  1.246E+00 0.000E+00
          total   stress  (Ry/bohr**3)                   (kbar)     P=  -17.59
  -0.00016754   0.00000001   0.00000001        -24.65      0.00      0.00
   0.00000001  -0.00016753   0.00000001          0.00    -24.64      0.00
   0.00000001   0.00000001  -0.00002361          0.00      0.00     -3.47

 !ASE

     Writing output data file calc.save

     General routines

     Parallel routines

   This run was terminated on:  20:49:17   1Jan2019

   JOB DONE.
Job  /afs/slac/g/suncat/bin/suncat-tsmpirun -x LD_LIBRARY_PATH -wdir /scratch/qe649138_WU0ud pw.x -in pw.inp

TID   HOST_NAME   COMMAND_LINE            STATUS            TERMINATION_TIME
00000 suncat0031 pw.x -in pw.inp   Done                     01/01/2019 20:49:17
00001 suncat0031 pw.x -in pw.inp   Done                     01/01/2019 20:49:17
00002 suncat0031 pw.x -in pw.inp   Done                     01/01/2019 20:49:17
00003 suncat0031 pw.x -in pw.inp   Done                     01/01/2019 20:49:17
00004 suncat0031 pw.x -in pw.inp   Done                     01/01/2019 20:49:17
00005 suncat0031 pw.x -in pw.inp   Done                     01/01/2019 20:49:17
00006 suncat0031 pw.x -in pw.inp   Done                     01/01/2019 20:49:17
00007 suncat0031 pw.x -in pw.inp   Done                     01/01/2019 20:49:17
00008 suncat0030 pw.x -in pw.inp   Done                     01/01/2019 20:49:17
00009 suncat0030 pw.x -in pw.inp   Done                     01/01/2019 20:49:17
00010 suncat0030 pw.x -in pw.inp   Done                     01/01/2019 20:49:17
00011 suncat0030 pw.x -in pw.inp   Done                     01/01/2019 20:49:17
00012 suncat0030 pw.x -in pw.inp   Done                     01/01/2019 20:49:17
00013 suncat0030 pw.x -in pw.inp   Done                     01/01/2019 20:49:17
00014 suncat0030 pw.x -in pw.inp   Done                     01/01/2019 20:49:17
00015 suncat0030 pw.x -in pw.inp   Done                     01/01/2019 20:49:17
00016 suncat0192 pw.x -in pw.inp   Done                     01/01/2019 20:49:17
00017 suncat0192 pw.x -in pw.inp   Done                     01/01/2019 20:49:17
00018 suncat0192 pw.x -in pw.inp   Done                     01/01/2019 20:49:17
00019 suncat0192 pw.x -in pw.inp   Done                     01/01/2019 20:49:17
00020 suncat0192 pw.x -in pw.inp   Done                     01/01/2019 20:49:17
00021 suncat0192 pw.x -in pw.inp   Done                     01/01/2019 20:49:17
00022 suncat0192 pw.x -in pw.inp   Done                     01/01/2019 20:49:17
00023 suncat0192 pw.x -in pw.inp   Done                     01/01/2019 20:49:17
00024 suncat0185 pw.x -in pw.inp   Done                     01/01/2019 20:49:17
00025 suncat0185 pw.x -in pw.inp   Done                     01/01/2019 20:49:17
00026 suncat0185 pw.x -in pw.inp   Done                     01/01/2019 20:49:17
00027 suncat0185 pw.x -in pw.inp   Done                     01/01/2019 20:49:17
00028 suncat0185 pw.x -in pw.inp   Done                     01/01/2019 20:49:17
00029 suncat0185 pw.x -in pw.inp   Done                     01/01/2019 20:49:17
00030 suncat0185 pw.x -in pw.inp   Done                     01/01/2019 20:49:17
00031 suncat0185 pw.x -in pw.inp   Done                     01/01/2019 20:49:17
00032 suncat0184 pw.x -in pw.inp   Done                     01/01/2019 20:49:17
00033 suncat0184 pw.x -in pw.inp   Done                     01/01/2019 20:49:17
00034 suncat0184 pw.x -in pw.inp   Done                     01/01/2019 20:49:17
00035 suncat0184 pw.x -in pw.inp   Done                     01/01/2019 20:49:17
00036 suncat0184 pw.x -in pw.inp   Done                     01/01/2019 20:49:17
00037 suncat0184 pw.x -in pw.inp   Done                     01/01/2019 20:49:17
00038 suncat0184 pw.x -in pw.inp   Done                     01/01/2019 20:49:17
00039 suncat0184 pw.x -in pw.inp   Done                     01/01/2019 20:49:17
00040 suncat0183 pw.x -in pw.inp   Done                     01/01/2019 20:49:17
00041 suncat0183 pw.x -in pw.inp   Done                     01/01/2019 20:49:17
00042 suncat0183 pw.x -in pw.inp   Done                     01/01/2019 20:49:17
00043 suncat0183 pw.x -in pw.inp   Done                     01/01/2019 20:49:17
00044 suncat0183 pw.x -in pw.inp   Done                     01/01/2019 20:49:17
00045 suncat0183 pw.x -in pw.inp   Done                     01/01/2019 20:49:17
00046 suncat0183 pw.x -in pw.inp   Done                     01/01/2019 20:49:17
00047 suncat0183 pw.x -in pw.inp   Done                     01/01/2019 20:49:17
00048 suncat0172 pw.x -in pw.inp   Done                     01/01/2019 20:49:17
00049 suncat0172 pw.x -in pw.inp   Done                     01/01/2019 20:49:17
00050 suncat0172 pw.x -in pw.inp   Done                     01/01/2019 20:49:17
00051 suncat0172 pw.x -in pw.inp   Done                     01/01/2019 20:49:17
00052 suncat0172 pw.x -in pw.inp   Done                     01/01/2019 20:49:17
00053 suncat0172 pw.x -in pw.inp   Done                     01/01/2019 20:49:17
00054 suncat0172 pw.x -in pw.inp   Done                     01/01/2019 20:49:17
00055 suncat0172 pw.x -in pw.inp   Done                     01/01/2019 20:49:17
00056 suncat0171 pw.x -in pw.inp   Done                     01/01/2019 20:49:17
00057 suncat0171 pw.x -in pw.inp   Done                     01/01/2019 20:49:17
00058 suncat0171 pw.x -in pw.inp   Done                     01/01/2019 20:49:17
00059 suncat0171 pw.x -in pw.inp   Done                     01/01/2019 20:49:17
00060 suncat0171 pw.x -in pw.inp   Done                     01/01/2019 20:49:17
00061 suncat0171 pw.x -in pw.inp   Done                     01/01/2019 20:49:17
00062 suncat0171 pw.x -in pw.inp   Done                     01/01/2019 20:49:17
00063 suncat0171 pw.x -in pw.inp   Done                     01/01/2019 20:49:17