     Program PWSCF v.5.1rc2 (svn rev. 11289) starts on 26Dec2018 at 10:24:54

     Current dimensions of program PWSCF are:
     Max number of different atomic species (ntypx) = 10
     Max number of k-points (npk) =  40000
     Max angular momentum in pseudopotentials (lmaxx) =  3
     Presently stress not available with electric field

     IMPORTANT: XC functional enforced from input :
     Exchange-correlation      = BEEF-VDW ( 1  4 27 13 2)
     Any further DFT definition will be discarded
     Please, verify this is what you really want

     Subspace diagonalization in iterative solution of the eigenvalue problem:
     a serial algorithm will be used

     bravais-lattice index     =            0
     lattice parameter (alat)  =       1.8897  a.u.
     unit-cell volume          =    6848.0180 (a.u.)^3
     number of atoms/cell      =           12
     number of atomic types    =            2
     number of electrons       =       150.00
     number of Kohn-Sham states=          105
     kinetic-energy cutoff     =      36.7493  Ry
     charge density cutoff     =     367.4932  Ry
     convergence threshold     =      1.0E-06
     mixing beta               =       0.1000
     number of iterations used =           10  plain     mixing
     Exchange-correlation      = BEEF-VDW ( 1  4 27 13 2)
     nstep                     =           50

     celldm(1)=   1.889726  celldm(2)=   0.000000  celldm(3)=   0.000000
     celldm(4)=   0.000000  celldm(5)=   0.000000  celldm(6)=   0.000000

     crystal axes: (cart. coord. in units of alat)
               a(1) = (   6.774565   0.000000   0.000000 )
               a(2) = (  -3.387283   5.866946   0.000000 )
               a(3) = (   0.000000   0.000000  25.531409 )

     reciprocal axes: (cart. coord. in units 2 pi/alat)
               b(1) = (  0.147611  0.085223  0.000000 )
               b(2) = (  0.000000  0.170446  0.000000 )
               b(3) = (  0.000000  0.000000  0.039167 )

     PseudoPot. # 1 for Hg read from file:
     /afs/slac.stanford.edu/u/if/mamunm/psp/gbrv1.5pbe/Hg.UPF
     MD5 check sum: 8f42caffe07f7fd9c0a564347f8c5498
     Pseudo is Ultrasoft + core correction, Zval = 12.0
     Generated by new atomic code, or converted to UPF format
     Using radial grid of  985 points,  6 beta functions with:
                l(1) =   0
                l(2) =   0
                l(3) =   1
                l(4) =   1
                l(5) =   2
                l(6) =   2
     Q(r) pseudized with  8 coefficients,  rinner =    2.000   2.000   2.000
                                                       2.000   2.000

     PseudoPot. # 2 for Sn read from file:
     /afs/slac.stanford.edu/u/if/mamunm/psp/gbrv1.5pbe/Sn.UPF
     MD5 check sum: 469debedee59599fedebd795477fea03
     Pseudo is Ultrasoft + core correction, Zval = 14.0
     Generated by new atomic code, or converted to UPF format
     Using radial grid of  891 points,  6 beta functions with:
                l(1) =   0
                l(2) =   0
                l(3) =   1
                l(4) =   1
                l(5) =   2
                l(6) =   2
     Q(r) pseudized with  8 coefficients,  rinner =    1.350   1.350   1.350
                                                       1.350   1.350

     vdW kernel table read from file vdW_kernel_table
     MD5 check sum: 095c7af220d748ca6e76c0b4c6cfb241

     atomic species   valence    mass     pseudopotential
        Hg1           12.00   200.59200     Hg( 1.00)
        Sn1           14.00   118.71000     Sn( 1.00)

     No symmetry found

   Cartesian axes

     site n.     atom                  positions (alat units)
         1           Hg1 tau(   1) = (   0.0000000   0.0000000  10.0000000  )
         2           Hg1 tau(   2) = (  -1.6936413   2.9334728  10.0000000  )
         3           Hg1 tau(   3) = (   1.6936413   2.9334728  10.0000000  )
         4           Sn1 tau(   4) = (   3.3872827   0.0000000  10.0000000  )
         5           Hg1 tau(   5) = (   3.3872827   1.9556486  12.7657047  )
         6           Hg1 tau(   6) = (   1.6936413   4.8891214  12.7657047  )
         7           Hg1 tau(   7) = (  -1.6936413   4.8891214  12.7657047  )
         8           Sn1 tau(   8) = (   0.0000000   1.9556486  12.7657047  )
         9           Hg1 tau(   9) = (  -0.0000000   3.9112971  15.5314094  )
        10           Hg1 tau(  10) = (   1.6936413   0.9778243  15.5314094  )
        11           Hg1 tau(  11) = (   5.0809240   0.9778243  15.5314094  )
        12           Sn1 tau(  12) = (   3.3872827   3.9112971  15.5314094  )

     number of k points=    20  Fermi-Dirac smearing, width (Ry)=  0.0110
                       cart. coord. in units 2pi/alat
        k(    1) = (   0.0000000   0.0000000   0.0000000), wk =   0.0555556
        k(    2) = (   0.0000000   0.0284077   0.0000000), wk =   0.1111111
        k(    3) = (   0.0000000   0.0568155   0.0000000), wk =   0.1111111
        k(    4) = (   0.0000000  -0.0852232   0.0000000), wk =   0.0555556
        k(    5) = (   0.0246018   0.0142039   0.0000000), wk =   0.1111111
        k(    6) = (   0.0246018   0.0426116   0.0000000), wk =   0.1111111
        k(    7) = (   0.0246018   0.0710193   0.0000000), wk =   0.1111111
        k(    8) = (   0.0246018  -0.0710193   0.0000000), wk =   0.1111111
        k(    9) = (   0.0246018  -0.0426116   0.0000000), wk =   0.1111111
        k(   10) = (   0.0246018  -0.0142039   0.0000000), wk =   0.1111111
        k(   11) = (   0.0492036   0.0284077   0.0000000), wk =   0.1111111
        k(   12) = (   0.0492036   0.0568155   0.0000000), wk =   0.1111111
        k(   13) = (   0.0492036   0.0852232   0.0000000), wk =   0.1111111
        k(   14) = (   0.0492036  -0.0568155   0.0000000), wk =   0.1111111
        k(   15) = (   0.0492036  -0.0284077   0.0000000), wk =   0.1111111
        k(   16) = (   0.0492036   0.0000000   0.0000000), wk =   0.1111111
        k(   17) = (  -0.0738055  -0.0426116   0.0000000), wk =   0.0555556
        k(   18) = (  -0.0738055  -0.0142039   0.0000000), wk =   0.1111111
        k(   19) = (  -0.0738055   0.0142039   0.0000000), wk =   0.1111111
        k(   20) = (  -0.0738055  -0.1278348   0.0000000), wk =   0.0555556

     Largest allocated arrays     est. size (Mb)     dimensions
     Largest temporary arrays     est. size (Mb)     dimensions

     Initial potential from superposition of free atoms
     Check: negative starting charge=   -0.000691

     starting charge  146.99934, renormalised to  150.00000

     negative rho (up, down):  7.050E-04 0.000E+00

     *
     * You are using vdW-DF for exchange-correlation in this calculation.
     * Please cite the following three references that made this development
     * possible:
     *
     *   M. Dion, H. Rydberg, E. Schroder, D. C. Langreth, and
     *   B. I. Lundqvist, Phys. Rev. Lett. 92, 246401 (2004).
     *
     *   T. Thonhauser, V. R. Cooper, S. Li, A. Puzder, P. Hyldgaard, and
     *   D. C. Langreth, Phys. Rev. B 76, 125112 (2007).
     *
     *   G. Roman-Perez and J. M. Soler, Phys. Rev. Lett. 103, 096102 (2009).
     *
     *
     * If you are using vdW-DF2, please also cite:
     *
     *   K. Lee, E. D. Murray, L. Kong, B. I. Lundqvist, and
     *   D. C. Langreth, Phys. Rev. B 82, 081101(R) (2010).
     *
     *
     * If you are calculating the stress with vdW-DF, please also cite:
     *
     *   R. Sabatini, E. Kucukbenli, B. Kolb, T. Thonhauser, and
     *   S. de Gironcoli, J. Phys.: Condens. Matter 24, 424209 (2012).
     *

     Carrying out vdW-DF run using the following parameters:

     Nqs =      20    Nr_points =    1024   r_max =   100.000
     q_mesh =
               0.00001000     0.04494208     0.09755937     0.15916263
               0.23128650     0.31572767     0.41458969     0.53033537
               0.66584808     0.82450364     1.01025438     1.22772762
               1.48234092     1.78043706     2.12944203     2.53805004
               3.01644009     3.57652955     4.23227104     5.00000000

     Gradients computed in reciprocal space

     Adding external electric field

     Computed dipole along edir(3) :
        Dipole               -0.0000 Ry au,         -0.0000 Debye
        Dipole field         -0.0000 Ry au

        Potential amp.        0.0000 Ry
        Total length         47.0412 bohr

     Starting wfc are  108 randomized atomic wfcs

     Self-consistent Calculation

     iteration #  1     ecut=    36.75 Ry     beta=0.10
     Davidson diagonalization with overlap
     ethr =  1.00E-02,  avg # of iterations =  8.4

     Threshold (ethr) on eigenvalues was too large:
     Diagonalizing with lowered threshold

     Davidson diagonalization with overlap
     ethr =  9.51E-04,  avg # of iterations =  1.3

[...]

     total energy              =   -1464.16291185 Ry
     Harris-Foulkes estimate   =   -1464.39154676 Ry
     estimated scf accuracy    <       1.40768392 Ry

[...]

     End of self-consistent calculation

          k = 0.0000 0.0000 0.0000 ( 25893 PWs)   bands (ev):

   -22.1180 -22.1178 -22.1158 -22.1158 -22.1155 -22.1155 -22.1148 -22.1148
   -22.1148 -22.1148 -22.0808 -22.0746 -22.0746 -22.0578 -22.0578  -8.6861
    -8.0624  -7.9486  -7.3334  -7.2076  -7.1631  -7.1631  -7.1367  -7.0895
    -7.0326  -7.0326  -6.9787  -6.9787  -6.9225  -6.9225  -6.7955  -6.7920
    -6.7920  -6.7209  -6.6129  -6.6129  -6.5971  -6.5381  -6.5381  -6.5279
    -6.4547  -6.4547  -6.3962  -6.3962  -6.3505  -6.3505  -6.3207  -6.2780
    -6.2378  -6.2378  -6.2212  -6.2212  -6.2201  -6.2201  -6.1211  -6.1211
    -6.1027  -6.0254  -5.9770  -5.9770  -5.8869  -5.8767  -5.2121  -3.9312
    -3.6719  -3.0895  -2.6643  -2.6643  -2.6081  -2.6081  -1.5256  -1.5256
    -1.4357  -1.4357  -1.4279  -0.3726   0.0074   0.0074   0.1557   0.1557
     0.1926   0.8025   1.5682   3.0203   3.0919   3.5873   4.1357   4.4085
     4.4085   4.6191   4.6191   4.8286   5.0402   5.3768   5.3768   5.5025
     6.4672   6.4672   6.5047   6.5047   6.5416   6.7622   6.8145   7.0840
     7.0840

[...]

          k =-0.0738-0.0426 0.0000 ( 25758 PWs)   bands (ev):

[...]

     the Fermi energy is     0.2016 ev

!    total energy              =   -1463.96934180 Ry
     Harris-Foulkes estimate   =   -1463.96934135 Ry
     estimated scf accuracy    <       0.00000028 Ry

     The total energy is the sum of the following terms:

     one-electron contribution =   -7887.11351981 Ry
     hartree contribution      =    4025.72333290 Ry
     xc contribution           =    -497.00011844 Ry
     ewald contribution        =    2894.45741191 Ry
     electric field correction =       0.00000000 Ry
     smearing contrib. (-TS)   =      -0.03644835 Ry

     convergence has been achieved in  14 iterations

 BEEF-vdW xc energy contributions
           1 :   -435.875019482406
           2 :    399.990945683639
           3 :   -338.352546712207
           4 :    266.749392233637
           5 :   -200.434608440319
           6 :    149.145078239390
           7 :   -115.155205296252
           8 :    94.6277805780218
           9 :   -81.1039992221340
          10 :    69.1673751368568
          11 :   -56.5519880032123
          12 :    44.0279453180900
[...]
               b(3) = (  0.000000  0.000000  0.039167 )

     PseudoPot. # 1 for Hg read from file:
     /afs/slac.stanford.edu/u/if/mamunm/psp/gbrv1.5pbe/Hg.UPF
     MD5 check sum: 8f42caffe07f7fd9c0a564347f8c5498
     Pseudo is Ultrasoft + core correction, Zval = 12.0
     Generated by new atomic code, or converted to UPF format
     Using radial grid of  985 points,  6 beta functions with:
                l(1) =   0
                l(2) =   0
                l(3) =   1
                l(4) =   1
                l(5) =   2
                l(6) =   2
     Q(r) pseudized with  8 coefficients,  rinner =    2.000   2.000   2.000
                                                       2.000   2.000

     PseudoPot. # 2 for Sn read from file:
     /afs/slac.stanford.edu/u/if/mamunm/psp/gbrv1.5pbe/Sn.UPF
     MD5 check sum: 469debedee59599fedebd795477fea03
     Pseudo is Ultrasoft + core correction, Zval = 14.0
     Generated by new atomic code, or converted to UPF format
     Using radial grid of  891 points,  6 beta functions with:
                l(1) =   0
                l(2) =   0
                l(3) =   1
                l(4) =   1
                l(5) =   2
                l(6) =   2
     Q(r) pseudized with  8 coefficients,  rinner =    1.350   1.350   1.350
                                                       1.350   1.350

     vdW kernel table read from file vdW_kernel_table
     MD5 check sum: 095c7af220d748ca6e76c0b4c6cfb241

     atomic species   valence    mass     pseudopotential
        Hg1           12.00   200.59200     Hg( 1.00)
        Sn1           14.00   118.71000     Sn( 1.00)

     No symmetry found

   Cartesian axes

     site n.     atom                  positions (alat units)
         1           Hg1 tau(   1) = (   0.0000000   0.0000000  10.0000000  )
         2           Hg1 tau(   2) = (  -1.6936413   2.9334728  10.0000000  )
         3           Hg1 tau(   3) = (   1.6936413   2.9334728  10.0000000  )
         4           Sn1 tau(   4) = (   3.3872827   0.0000000  10.0000000  )
         5           Hg1 tau(   5) = (   3.3872827   1.9556486  12.7657047  )
         6           Hg1 tau(   6) = (   1.6936413   4.8891214  12.7657047  )
         7           Hg1 tau(   7) = (  -1.6936413   4.8891214  12.7657047  )
         8           Sn1 tau(   8) = (   0.0000000   1.9556486  12.7657047  )
         9           Hg1 tau(   9) = (   0.0000425   3.9148323  15.9840160  )
        10           Hg1 tau(  10) = (   1.6967419   0.9760033  15.9840687  )
        11           Hg1 tau(  11) = (   5.0778310   0.9760267  15.9840354  )
        12           Sn1 tau(  12) = (   3.3872979   3.9112821  15.0987260  )

     number of k points=    20  Fermi-Dirac smearing, width (Ry)=  0.0110
                       cart. coord. in units 2pi/alat
        k(    1) = (   0.0000000   0.0000000   0.0000000), wk =   0.0555556
        k(    2) = (   0.0000000   0.0284077   0.0000000), wk =   0.1111111
        k(    3) = (   0.0000000   0.0568155   0.0000000), wk =   0.1111111
        k(    4) = (   0.0000000  -0.0852232   0.0000000), wk =   0.0555556
        k(    5) = (   0.0246018   0.0142039   0.0000000), wk =   0.1111111
        k(    6) = (   0.0246018   0.0426116   0.0000000), wk =   0.1111111
        k(    7) = (   0.0246018   0.0710193   0.0000000), wk =   0.1111111
        k(    8) = (   0.0246018  -0.0710193   0.0000000), wk =   0.1111111
        k(    9) = (   0.0246018  -0.0426116   0.0000000), wk =   0.1111111
        k(   10) = (   0.0246018  -0.0142039   0.0000000), wk =   0.1111111
        k(   11) = (   0.0492036   0.0284077   0.0000000), wk =   0.1111111
        k(   12) = (   0.0492036   0.0568155   0.0000000), wk =   0.1111111
        k(   13) = (   0.0492036   0.0852232   0.0000000), wk =   0.1111111
        k(   14) = (   0.0492036  -0.0568155   0.0000000), wk =   0.1111111
        k(   15) = (   0.0492036  -0.0284077   0.0000000), wk =   0.1111111
        k(   16) = (   0.0492036   0.0000000   0.0000000), wk =   0.1111111
        k(   17) = (  -0.0738055  -0.0426116   0.0000000), wk =   0.0555556
        k(   18) = (  -0.0738055  -0.0142039   0.0000000), wk =   0.1111111
        k(   19) = (  -0.0738055   0.0142039   0.0000000), wk =   0.1111111
        k(   20) = (  -0.0738055  -0.1278348   0.0000000), wk =   0.0555556

     Largest allocated arrays     est. size (Mb)     dimensions
     Largest temporary arrays     est. size (Mb)     dimensions

     Initial potential from superposition of free atoms
     Check: negative starting charge=   -0.000658

     starting charge  146.99934, renormalised to  150.00000

[...]

     *
     * You are using vdW-DF for exchange-correlation in this calculation.
     * Please cite the following three references that made this development
     * possible:
     *
     *   M. Dion, H. Rydberg, E. Schroder, D. C. Langreth, and
     *   B. I. Lundqvist, Phys. Rev. Lett. 92, 246401 (2004).
     *
     *   T. Thonhauser, V. R. Cooper, S. Li, A. Puzder, P. Hyldgaard, and
     *   D. C. Langreth, Phys. Rev. B 76, 125112 (2007).
     *
     *   G. Roman-Perez and J. M. Soler, Phys. Rev. Lett. 103, 096102 (2009).
     *
     *
     * If you are using vdW-DF2, please also cite:
     *
     *   K. Lee, E. D. Murray, L. Kong, B. I. Lundqvist, and
     *   D. C. Langreth, Phys. Rev. B 82, 081101(R) (2010).
     *
     *
     * If you are calculating the stress with vdW-DF, please also cite:
     *
     *   R. Sabatini, E. Kucukbenli, B. Kolb, T. Thonhauser, and
     *   S. de Gironcoli, J. Phys.: Condens. Matter 24, 424209 (2012).
     *

     Carrying out vdW-DF run using the following parameters:

     Nqs =      20    Nr_points =    1024   r_max =   100.000
     q_mesh =
               0.00001000     0.04494208     0.09755937     0.15916263
               0.23128650     0.31572767     0.41458969     0.53033537
               0.66584808     0.82450364     1.01025438     1.22772762
               1.48234092     1.78043706     2.12944203     2.53805004
               3.01644009     3.57652955     4.23227104     5.00000000

     Gradients computed in reciprocal space

[...]

     Starting wfc are  108 randomized atomic wfcs

     Self-consistent Calculation

[...]

     total energy              =   -1463.98096848 Ry
     Harris-Foulkes estimate   =   -1463.98096768 Ry
     estimated scf accuracy    <       0.00000206 Ry

     iteration # 14     ecut=    36.75 Ry     beta=0.10
     Davidson diagonalization with overlap
     ethr =  1.38E-09,  avg # of iterations =  2.0

[...]

     negative rho (up, down):  2.181E-04 0.000E+00

     Adding external electric field

     Computed dipole along edir(3) :
        Dipole                0.0013 Ry au,          0.0034 Debye
        Dipole field          0.0000 Ry au

        Potential amp.       -0.0002 Ry
        Total length         47.0412 bohr

     End of self-consistent calculation

[...]

          k = 0.0492 0.0000 0.0000 ( 25755 PWs)   bands (ev):

[...]

          k =-0.0738-0.1278 0.0000 ( 25758 PWs)   bands (ev):

   -22.1365 -22.1364 -22.1284 -22.1284 -22.1240 -22.0983 -22.0912 -22.0912
   -22.0755 -22.0751 -22.0341 -22.0338 -22.0196 -22.0195 -22.0161  -8.1901
    -7.8738  -7.6548  -7.2554  -7.0862  -7.0555  -7.0481  -6.9610  -6.9549
    -6.9132  -6.8913  -6.8686  -6.8607  -6.8145  -6.7755  -6.7575  -6.7278
    -6.7116  -6.6376  -6.6253  -6.5779  -6.5667  -6.5333  -6.5027  -6.4818
    -6.4787  -6.4568  -6.4508  -6.4075  -6.3909  -6.3714  -6.3609  -6.3445
    -6.3247  -6.3041  -6.3020  -6.2756  -6.2736  -6.2356  -6.2275  -6.2244
    -6.2038  -6.1878  -6.1110  -6.0639  -6.0437  -5.9318  -5.8622  -5.1368
    -4.5707  -3.9053  -3.6930  -3.5574  -3.0780  -2.5237  -2.3751  -1.3002
    -0.1996   0.1137   0.4813   0.8106   1.1078   1.3820   1.4278   1.7302
     2.1073   2.2742   2.5466   3.0910   3.1033   3.2728   3.5925   3.8763
     3.9690   4.3074   4.4127   4.7343   4.7780   4.9228   4.9731   5.0517
     5.1626   5.2313   5.5554   5.6927   5.7929   5.8914   6.0705   6.1104
     6.2906

     the Fermi energy is     0.1886 ev

!    total energy              =   -1463.98097109 Ry
     Harris-Foulkes estimate   =   -1463.98096878 Ry
     estimated scf accuracy    <       0.00000080 Ry

     The total energy is the sum of the following terms:

     one-electron contribution =   -7639.96342896 Ry
     hartree contribution      =    3902.21015887 Ry
     xc contribution           =    -496.96433519 Ry
     ewald contribution        =    2770.77143442 Ry
     electric field correction =       0.00000000 Ry
     smearing contrib. (-TS)   =      -0.03480024 Ry

     convergence has been achieved in  14 iterations

 BEEF-vdW xc energy contributions
           1 :   -435.819846055022
           2 :    399.830333573004
           3 :   -338.096231264286
           4 :    266.517954417141
           5 :   -200.353639181473
           6 :    149.238264374648
           7 :   -115.319825861605
           8 :    94.7084107214319
           9 :   -81.0084979570694
          10 :    68.9381985247023
          11 :   -56.3390306045477
          12 :    43.9808192243831
          13 :   -33.8310398918861
          14 :    27.1390998725275
          15 :   -23.5034777220953
          16 :    21.2613925944305
          17 :   -18.6819903181751
          18 :    15.0509420219473
          19 :   -10.9652682456223
          20 :    7.74430938413735
          21 :   -6.42685810494123
          22 :    7.03133695452732
          23 :   -8.53139526565559
          24 :    9.50659292472255
          25 :   -9.01066281034923
          26 :    7.10073194881795
          27 :   -4.72848761790681
          28 :    3.10618056463392
          29 :   -2.97003687038102
          30 :    4.18563799899312
          31 :   -39.8398878967550
          32 :   -29.0549741195664

     Forces acting on atoms (Ry/au):

     negative rho (up, down):  2.181E-04 0.000E+00
     atom    1 type  1   force =     0.00000050   -0.00080632   -0.00669858
     atom    2 type  1   force =    -0.00069897    0.00040331   -0.00669927
     atom    3 type  1   force =     0.00069789    0.00040391   -0.00670074
     atom    4 type  2   force =    -0.00000024    0.00000293    0.01142422
     atom    5 type  1   force =    -0.00000049   -0.01468829   -0.00001348
     atom    6 type  1   force =    -0.01271961    0.00734553   -0.00001295
     atom    7 type  1   force =     0.01272139    0.00734343   -0.00001570
     atom    8 type  2   force =    -0.00000190   -0.00000266    0.00486110
     atom    9 type  1   force =    -0.00000137    0.00021422    0.00069036
     atom   10 type  1   force =     0.00018556   -0.00010915    0.00069090
     atom   11 type  1   force =    -0.00018775   -0.00010724    0.00069209
     atom   12 type  2   force =     0.00000500    0.00000033    0.00178205

     Total force =     0.030704     Total SCF correction =     0.002881

     entering subroutine stress ...

     negative rho (up, down):  2.181E-04 0.000E+00
          total   stress  (Ry/bohr**3)                   (kbar)     P=   -0.78
  -0.00001114  -0.00000000  -0.00000000         -1.64     -0.00     -0.00
  -0.00000000  -0.00001114   0.00000000         -0.00     -1.64      0.00
  -0.00000000   0.00000000   0.00000628         -0.00      0.00      0.92

 !ASE

     Writing output data file calc.save

     General routines

     Parallel routines

   This run was terminated on:  14:12:55  26Dec2018

   JOB DONE.
Job  /afs/slac/g/suncat/bin/suncat-tsmpirun -x LD_LIBRARY_PATH -wdir /scratch/qe109833_Nn6Os pw.x -in pw.inp

TID   HOST_NAME   COMMAND_LINE            STATUS            TERMINATION_TIME
00000 suncat0178 pw.x -in pw.inp   Done                     12/26/2018 14:12:55
00001 suncat0178 pw.x -in pw.inp   Done                     12/26/2018 14:12:55
00002 suncat0178 pw.x -in pw.inp   Done                     12/26/2018 14:12:55
00003 suncat0178 pw.x -in pw.inp   Done                     12/26/2018 14:12:55
00004 suncat0178 pw.x -in pw.inp   Done                     12/26/2018 14:12:55
00005 suncat0178 pw.x -in pw.inp   Done                     12/26/2018 14:12:55
00006 suncat0178 pw.x -in pw.inp   Done                     12/26/2018 14:12:55
00007 suncat0178 pw.x -in pw.inp   Done                     12/26/2018 14:12:55
00008 suncat0177 pw.x -in pw.inp   Done                     12/26/2018 14:12:55
00009 suncat0177 pw.x -in pw.inp   Done                     12/26/2018 14:12:55
00010 suncat0177 pw.x -in pw.inp   Done                     12/26/2018 14:12:55
00011 suncat0177 pw.x -in pw.inp   Done                     12/26/2018 14:12:55
00012 suncat0177 pw.x -in pw.inp   Done                     12/26/2018 14:12:55
00013 suncat0177 pw.x -in pw.inp   Done                     12/26/2018 14:12:55
00014 suncat0177 pw.x -in pw.inp   Done                     12/26/2018 14:12:55
00015 suncat0177 pw.x -in pw.inp   Done                     12/26/2018 14:12:55
00016 suncat0129 pw.x -in pw.inp   Done                     12/26/2018 14:12:55
00017 suncat0129 pw.x -in pw.inp   Done                     12/26/2018 14:12:55
00018 suncat0129 pw.x -in pw.inp   Done                     12/26/2018 14:12:55
00019 suncat0129 pw.x -in pw.inp   Done                     12/26/2018 14:12:55
00020 suncat0129 pw.x -in pw.inp   Done                     12/26/2018 14:12:55
00021 suncat0129 pw.x -in pw.inp   Done                     12/26/2018 14:12:55
00022 suncat0129 pw.x -in pw.inp   Done                     12/26/2018 14:12:55
00023 suncat0129 pw.x -in pw.inp   Done                     12/26/2018 14:12:55
00024 suncat0254 pw.x -in pw.inp   Done                     12/26/2018 14:12:55
00025 suncat0254 pw.x -in pw.inp   Done                     12/26/2018 14:12:55
00026 suncat0254 pw.x -in pw.inp   Done                     12/26/2018 14:12:55
00027 suncat0254 pw.x -in pw.inp   Done                     12/26/2018 14:12:55
00028 suncat0254 pw.x -in pw.inp   Done                     12/26/2018 14:12:55
00029 suncat0254 pw.x -in pw.inp   Done                     12/26/2018 14:12:55
00030 suncat0254 pw.x -in pw.inp   Done                     12/26/2018 14:12:55
00031 suncat0254 pw.x -in pw.inp   Done                     12/26/2018 14:12:55
00032 suncat0253 pw.x -in pw.inp   Done                     12/26/2018 14:12:55
00033 suncat0253 pw.x -in pw.inp   Done                     12/26/2018 14:12:55
00034 suncat0253 pw.x -in pw.inp   Done                     12/26/2018 14:12:55
00035 suncat0253 pw.x -in pw.inp   Done                     12/26/2018 14:12:55
00036 suncat0253 pw.x -in pw.inp   Done                     12/26/2018 14:12:55
00037 suncat0253 pw.x -in pw.inp   Done                     12/26/2018 14:12:55
00038 suncat0253 pw.x -in pw.inp   Done                     12/26/2018 14:12:55
00039 suncat0253 pw.x -in pw.inp   Done                     12/26/2018 14:12:55
00040 suncat0244 pw.x -in pw.inp   Done                     12/26/2018 14:12:55
00041 suncat0244 pw.x -in pw.inp   Done                     12/26/2018 14:12:55
00042 suncat0244 pw.x -in pw.inp   Done                     12/26/2018 14:12:55
00043 suncat0244 pw.x -in pw.inp   Done                     12/26/2018 14:12:55
00044 suncat0244 pw.x -in pw.inp   Done                     12/26/2018 14:12:55
00045 suncat0244 pw.x -in pw.inp   Done                     12/26/2018 14:12:55
00046 suncat0244 pw.x -in pw.inp   Done                     12/26/2018 14:12:55
00047 suncat0244 pw.x -in pw.inp   Done                     12/26/2018 14:12:55
00048 suncat0243 pw.x -in pw.inp   Done                     12/26/2018 14:12:55
00049 suncat0243 pw.x -in pw.inp   Done                     12/26/2018 14:12:55
00050 suncat0243 pw.x -in pw.inp   Done                     12/26/2018 14:12:55
00051 suncat0243 pw.x -in pw.inp   Done                     12/26/2018 14:12:55
00052 suncat0243 pw.x -in pw.inp   Done                     12/26/2018 14:12:55
00053 suncat0243 pw.x -in pw.inp   Done                     12/26/2018 14:12:55
00054 suncat0243 pw.x -in pw.inp   Done                     12/26/2018 14:12:55
00055 suncat0243 pw.x -in pw.inp   Done                     12/26/2018 14:12:55
00056 suncat0242 pw.x -in pw.inp   Done                     12/26/2018 14:12:55
00057 suncat0242 pw.x -in pw.inp   Done                     12/26/2018 14:12:55
00058 suncat0242 pw.x -in pw.inp   Done                     12/26/2018 14:12:55
00059 suncat0242 pw.x -in pw.inp   Done                     12/26/2018 14:12:55
00060 suncat0242 pw.x -in pw.inp   Done                     12/26/2018 14:12:55
00061 suncat0242 pw.x -in pw.inp   Done                     12/26/2018 14:12:55
00062 suncat0242 pw.x -in pw.inp   Done                     12/26/2018 14:12:55
00063 suncat0242 pw.x -in pw.inp   Done                     12/26/2018 14:12:55