     Program PWSCF v.5.1rc2 (svn rev. 11289) starts on 31Dec2018 at 23:18: 3

     Current dimensions of program PWSCF are:
     Max number of different atomic species (ntypx) = 10
     Max number of k-points (npk) =  40000
     Max angular momentum in pseudopotentials (lmaxx) =  3
     Presently stress not available with electric field

     IMPORTANT: XC functional enforced from input :
     Exchange-correlation      = BEEF-VDW ( 1  4 27 13 2)
     Any further DFT definition will be discarded
     Please, verify this is what you really want

     Subspace diagonalization in iterative solution of the eigenvalue problem:
     a serial algorithm will be used

     bravais-lattice index     =            0
     lattice parameter (alat)  =       1.8897  a.u.
     unit-cell volume          =    4320.3576 (a.u.)^3
     number of atoms/cell      =           12
     number of atomic types    =            2
     number of electrons       =       183.00
     number of Kohn-Sham states=          121
     kinetic-energy cutoff     =      36.7493  Ry
     charge density cutoff     =     367.4932  Ry
     convergence threshold     =      1.0E-06
     mixing beta               =       0.1000
     number of iterations used =           10  plain     mixing
     Exchange-correlation      = BEEF-VDW ( 1  4 27 13 2)
     nstep                     =           50

     celldm(1)=   1.889726  celldm(2)=   0.000000  celldm(3)=   0.000000
     celldm(4)=   0.000000  celldm(5)=   0.000000  celldm(6)=   0.000000

     crystal axes: (cart. coord. in units of alat)
               a(1) = (   5.494581   0.000000   0.000000 )
               a(2) = (  -2.747291   4.758447   0.000000 )
               a(3) = (   0.000000   0.000000  24.486307 )

     reciprocal axes: (cart. coord. in units 2 pi/alat)
               b(1) = (  0.181997  0.105076  0.000000 )
               b(2) = (  0.000000  0.210153  0.000000 )
               b(3) = (  0.000000  0.000000  0.040839 )

     PseudoPot. # 1 for Rh read from file:
     /afs/slac.stanford.edu/u/if/mamunm/psp/gbrv1.5pbe/Rh.UPF
     MD5 check sum: 761627e959a2e3a1f56b0b5fe687810e
     Pseudo is Ultrasoft + core correction, Zval = 15.0
     Generated by new atomic code, or converted to UPF format
     Using radial grid of  969 points,  7 beta functions with:
                l(1) =   0
                l(2) =   0
                l(3) =   1
                l(4) =   1
                l(5) =   2
                l(6) =   2
                l(7) =   2
     Q(r) pseudized with  8 coefficients,  rinner =    1.200   1.200   1.200
                                                       1.200   1.200

     PseudoPot. # 2 for Pt read from file:
     /afs/slac.stanford.edu/u/if/mamunm/psp/gbrv1.5pbe/Pt.UPF
     MD5 check sum: f09d6de1a584b5a045c4fc126da2d0c4
     Pseudo is Ultrasoft + core correction, Zval = 16.0
     Generated by new atomic code, or converted to UPF format
     Using radial grid of  985 points,  6 beta functions with:
                l(1) =   0
                l(2) =   0
                l(3) =   1
                l(4) =   1
                l(5) =   2
                l(6) =   2
     Q(r) pseudized with  8 coefficients,  rinner =    1.300   1.300   1.300
                                                       1.300   1.300

     vdW kernel table read from file vdW_kernel_table
     MD5 check sum: 095c7af220d748ca6e76c0b4c6cfb241

     atomic species   valence    mass     pseudopotential
        Rh1           15.00   102.90550     Rh( 1.00)
        Pt1           16.00   195.08400     Pt( 1.00)

     No symmetry found

   Cartesian axes

     site n.     atom                  positions (alat units)
         1           Rh1 tau(   1) = (   0.0000000   0.0000000  10.0000000  )
         2           Rh1 tau(   2) = (  -1.3736453   2.3792234  10.0000000  )
         3           Rh1 tau(   3) = (   1.3736453   2.3792234  10.0000000  )
         4           Pt1 tau(   4) = (   2.7472905   0.0000000  10.0000000  )
         5           Rh1 tau(   5) = (   2.7472905   1.5861489  12.2431533  )
         6           Rh1 tau(   6) = (   1.3736453   3.9653723  12.2431533  )
         7           Rh1 tau(   7) = (  -1.3736453   3.9653723  12.2431533  )
         8           Pt1 tau(   8) = (   0.0000000   1.5861489  12.2431533  )
         9           Rh1 tau(   9) = (  -0.0000000   3.1722979  14.4863067  )
        10           Rh1 tau(  10) = (   1.3736453   0.7930745  14.4863067  )
        11           Rh1 tau(  11) = (   4.1209358   0.7930745  14.4863067  )
        12           Pt1 tau(  12) = (   2.7472905   3.1722979  14.4863067  )

     number of k points=    20  Fermi-Dirac smearing, width (Ry)=  0.0110
                       cart. coord. in units 2pi/alat
        k(    1) = (   0.0000000   0.0000000   0.0000000), wk =   0.0555556
        k(    2) = (   0.0000000   0.0350254   0.0000000), wk =   0.1111111
        k(    3) = (   0.0000000   0.0700509   0.0000000), wk =   0.1111111
        k(    4) = (   0.0000000  -0.1050763   0.0000000), wk =   0.0555556
        k(    5) = (   0.0303329   0.0175127   0.0000000), wk =   0.1111111
        k(    6) = (   0.0303329   0.0525382   0.0000000), wk =   0.1111111
        k(    7) = (   0.0303329   0.0875636   0.0000000), wk =   0.1111111
        k(    8) = (   0.0303329  -0.0875636   0.0000000), wk =   0.1111111
        k(    9) = (   0.0303329  -0.0525382   0.0000000), wk =   0.1111111
        k(   10) = (   0.0303329  -0.0175127   0.0000000), wk =   0.1111111
        k(   11) = (   0.0606658   0.0350254   0.0000000), wk =   0.1111111
        k(   12) = (   0.0606658   0.0700509   0.0000000), wk =   0.1111111
        k(   13) = (   0.0606658   0.1050763   0.0000000), wk =   0.1111111
        k(   14) = (   0.0606658  -0.0700509   0.0000000), wk =   0.1111111
        k(   15) = (   0.0606658  -0.0350254   0.0000000), wk =   0.1111111
        k(   16) = (   0.0606658   0.0000000   0.0000000), wk =   0.1111111
        k(   17) = (  -0.0909987  -0.0525382   0.0000000), wk =   0.0555556
        k(   18) = (  -0.0909987  -0.0175127   0.0000000), wk =   0.1111111
        k(   19) = (  -0.0909987   0.0175127   0.0000000), wk =   0.1111111
        k(   20) = (  -0.0909987  -0.1576145   0.0000000), wk =   0.0555556

     Largest allocated arrays     est. size (Mb)     dimensions
     Largest temporary arrays     est. size (Mb)     dimensions

     Initial potential from superposition of free atoms
     Check: negative starting charge=   -1.044729

     starting charge  176.99908, renormalised to  183.00000

     negative rho (up, down):  1.080E+00 0.000E+00

     *
     * You are using vdW-DF for exchange-correlation in this calculation.
     * Please cite the following three references that made this development
     * possible:
     *
     *   M. Dion, H. Rydberg, E. Schroder, D. C. Langreth, and
     *   B. I. Lundqvist, Phys. Rev. Lett. 92, 246401 (2004).
     *
     *   T. Thonhauser, V. R. Cooper, S. Li, A. Puzder, P. Hyldgaard, and
     *   D. C. Langreth, Phys. Rev. B 76, 125112 (2007).
     *
     *   G. Roman-Perez and J. M. Soler, Phys. Rev. Lett. 103, 096102 (2009).
     *
     *
     * If you are using vdW-DF2, please also cite:
     *
     *   K. Lee, E. D. Murray, L. Kong, B. I. Lundqvist, and
     *   D. C. Langreth, Phys. Rev. B 82, 081101(R) (2010).
     *
     *
     * If you are calculating the stress with vdW-DF, please also cite:
     *
     *   R. Sabatini, E. Kucukbenli, B. Kolb, T. Thonhauser, and
     *   S. de Gironcoli, J. Phys.: Condens. Matter 24, 424209 (2012).
     *

     Carrying out vdW-DF run using the following parameters:

     Nqs =      20    Nr_points =    1024   r_max =   100.000
     q_mesh =
               0.00001000     0.04494208     0.09755937     0.15916263
               0.23128650     0.31572767     0.41458969     0.53033537
               0.66584808     0.82450364     1.01025438     1.22772762
               1.48234092     1.78043706     2.12944203     2.53805004
               3.01644009     3.57652955     4.23227104     5.00000000

     Gradients computed in reciprocal space

     Adding external electric field

     Computed dipole along edir(3) :
        Dipole                0.0000 Ry au,          0.0000 Debye
        Dipole field          0.0000 Ry au

        Potential amp.       -0.0000 Ry
        Total length         45.1156 bohr

     Starting wfc are  144 randomized atomic wfcs

     Self-consistent Calculation

     iteration #  1     ecut=    36.75 Ry     beta=0.10
     Davidson diagonalization with overlap
     ethr =  1.00E-02,  avg # of iterations =  7.8

[...]

     total energy              =   -2186.58815049 Ry
     Harris-Foulkes estimate   =   -2189.47093869 Ry
     estimated scf accuracy    <      17.00506745 Ry

[...]

     End of self-consistent calculation

          k = 0.0000 0.0000 0.0000 ( 16127 PWs)   bands (ev):

   -51.5438 -51.5438 -51.5375 -51.0825 -51.0825 -51.0818 -51.0818 -50.8666
   -50.8641 -45.2167 -45.1229 -45.1228 -45.0889 -45.0381 -45.0381 -44.9334
   -44.8831 -44.8671 -44.8198 -44.8198 -44.7429 -44.7429 -44.7142 -44.7142
   -44.5522 -44.5462 -44.5037 -44.4849 -44.4849 -44.4832 -44.4832 -44.4635
   -44.4580 -44.4580 -44.4370 -44.4370  -5.6983  -4.2138  -4.2013  -4.0302
    -4.0302  -3.7344  -3.7335  -3.7335  -3.5966  -3.4316  -3.4316  -3.3621
    -3.1980  -3.1980  -2.8865  -2.0968  -2.0968  -1.7091  -1.6966  -1.6966
    -1.5014  -1.3055  -1.1589  -1.1589  -1.0995  -0.8871  -0.8871  -0.8470
    -0.8470  -0.6627  -0.6627  -0.5972  -0.2534   0.0760   0.0760   0.5395
     0.5395   0.6373   0.6373   0.7396   0.7963   0.8386   0.8386   1.2875
     1.2875   1.3142   1.6646   1.7093   1.7093   1.8430   1.8430   1.8506
     1.9105   1.9105   2.0799   2.0799   2.2104   2.4232   2.4232   2.4752
     2.4752   2.5302   2.5762   2.7395   3.5176   3.5176   3.7808   5.2797
     5.2797   5.2878   5.3967   5.3967   5.4210   6.2038   6.4700   6.8364
     7.7577   8.0584   8.3011   8.7305   9.2410   9.2410   9.2443   9.2443
     9.3632

[...]

          k =-0.0910-0.0525 0.0000 ( 16196 PWs)   bands (ev):

[...]

     the Fermi energy is     1.6385 ev

!    total energy              =   -2186.81633912 Ry
     Harris-Foulkes estimate   =   -2186.81634064 Ry
     estimated scf accuracy    <       0.00000050 Ry

     The total energy is the sum of the following terms:

     one-electron contribution =  -19111.13786253 Ry
     hartree contribution      =    9595.03251446 Ry
     xc contribution           =    -454.79232439 Ry
     ewald contribution        =    7784.21392158 Ry
     electric field correction =       0.00000000 Ry
     smearing contrib. (-TS)   =      -0.13258825 Ry

     convergence has been achieved in  17 iterations

 BEEF-vdW xc energy contributions
           1 :   -399.577723659943
           2 :    368.904672863556
           3 :   -315.157314892251
           4 :    250.589522361651
           5 :   -187.882889988873
           6 :    136.388733164607
           7 :   -100.089868863396
           8 :    77.7075850474340
           9 :   -64.5742092196494
          10 :    55.2705274997313
          11 :   -45.8878178573312
          12 :    35.1015943805418
[...]
     Generated by new atomic code, or converted to UPF format
     Using radial grid of  969 points,  7 beta functions with:
                l(1) =   0
                l(2) =   0
                l(3) =   1
                l(4) =   1
                l(5) =   2
                l(6) =   2
                l(7) =   2
     Q(r) pseudized with  8 coefficients,  rinner =    1.200   1.200   1.200
                                                       1.200   1.200

     PseudoPot. # 2 for Pt read from file:
     /afs/slac.stanford.edu/u/if/mamunm/psp/gbrv1.5pbe/Pt.UPF
     MD5 check sum: f09d6de1a584b5a045c4fc126da2d0c4
     Pseudo is Ultrasoft + core correction, Zval = 16.0
     Generated by new atomic code, or converted to UPF format
     Using radial grid of  985 points,  6 beta functions with:
                l(1) =   0
                l(2) =   0
                l(3) =   1
                l(4) =   1
                l(5) =   2
                l(6) =   2
     Q(r) pseudized with  8 coefficients,  rinner =    1.300   1.300   1.300
                                                       1.300   1.300

     vdW kernel table read from file vdW_kernel_table
     MD5 check sum: 095c7af220d748ca6e76c0b4c6cfb241

     atomic species   valence    mass     pseudopotential
        Rh1           15.00   102.90550     Rh( 1.00)
        Pt1           16.00   195.08400     Pt( 1.00)

     No symmetry found

   Cartesian axes

     site n.     atom                  positions (alat units)
         1           Rh1 tau(   1) = (   0.0000000   0.0000000  10.0000000  )
         2           Rh1 tau(   2) = (  -1.3736453   2.3792234  10.0000000  )
         3           Rh1 tau(   3) = (   1.3736453   2.3792234  10.0000000  )
         4           Pt1 tau(   4) = (   2.7472905   0.0000000  10.0000000  )
         5           Rh1 tau(   5) = (   2.7472905   1.5861489  12.2431533  )
         6           Rh1 tau(   6) = (   1.3736453   3.9653723  12.2431533  )
         7           Rh1 tau(   7) = (  -1.3736453   3.9653723  12.2431533  )
         8           Pt1 tau(   8) = (   0.0000000   1.5861489  12.2431533  )
         9           Rh1 tau(   9) = (   0.0000002   3.1875219  14.4441990  )
        10           Rh1 tau(  10) = (   1.3868431   0.7854571  14.4442048  )
        11           Rh1 tau(  11) = (   4.1077464   0.7854611  14.4441987  )
        12           Pt1 tau(  12) = (   2.7472873   3.1722932  14.4852166  )

     number of k points=    20  Fermi-Dirac smearing, width (Ry)=  0.0110
                       cart. coord. in units 2pi/alat
        k(    1) = (   0.0000000   0.0000000   0.0000000), wk =   0.0555556
        k(    2) = (   0.0000000   0.0350254   0.0000000), wk =   0.1111111
        k(    3) = (   0.0000000   0.0700509   0.0000000), wk =   0.1111111
        k(    4) = (   0.0000000  -0.1050763   0.0000000), wk =   0.0555556
        k(    5) = (   0.0303329   0.0175127   0.0000000), wk =   0.1111111
        k(    6) = (   0.0303329   0.0525382   0.0000000), wk =   0.1111111
        k(    7) = (   0.0303329   0.0875636   0.0000000), wk =   0.1111111
        k(    8) = (   0.0303329  -0.0875636   0.0000000), wk =   0.1111111
        k(    9) = (   0.0303329  -0.0525382   0.0000000), wk =   0.1111111
        k(   10) = (   0.0303329  -0.0175127   0.0000000), wk =   0.1111111
        k(   11) = (   0.0606658   0.0350254   0.0000000), wk =   0.1111111
        k(   12) = (   0.0606658   0.0700509   0.0000000), wk =   0.1111111
        k(   13) = (   0.0606658   0.1050763   0.0000000), wk =   0.1111111
        k(   14) = (   0.0606658  -0.0700509   0.0000000), wk =   0.1111111
        k(   15) = (   0.0606658  -0.0350254   0.0000000), wk =   0.1111111
        k(   16) = (   0.0606658   0.0000000   0.0000000), wk =   0.1111111
        k(   17) = (  -0.0909987  -0.0525382   0.0000000), wk =   0.0555556
        k(   18) = (  -0.0909987  -0.0175127   0.0000000), wk =   0.1111111
        k(   19) = (  -0.0909987   0.0175127   0.0000000), wk =   0.1111111
        k(   20) = (  -0.0909987  -0.1576145   0.0000000), wk =   0.0555556

     Largest allocated arrays     est. size (Mb)     dimensions
     Largest temporary arrays     est. size (Mb)     dimensions

     Initial potential from superposition of free atoms
     Check: negative starting charge=   -1.045463

     starting charge  176.99908, renormalised to  183.00000

[...]

     *
     * You are using vdW-DF for exchange-correlation in this calculation.
     * Please cite the following three references that made this development
     * possible:
     *
     *   M. Dion, H. Rydberg, E. Schroder, D. C. Langreth, and
     *   B. I. Lundqvist, Phys. Rev. Lett. 92, 246401 (2004).
     *
     *   T. Thonhauser, V. R. Cooper, S. Li, A. Puzder, P. Hyldgaard, and
     *   D. C. Langreth, Phys. Rev. B 76, 125112 (2007).
     *
     *   G. Roman-Perez and J. M. Soler, Phys. Rev. Lett. 103, 096102 (2009).
     *
     *
     * If you are using vdW-DF2, please also cite:
     *
     *   K. Lee, E. D. Murray, L. Kong, B. I. Lundqvist, and
     *   D. C. Langreth, Phys. Rev. B 82, 081101(R) (2010).
     *
     *
     * If you are calculating the stress with vdW-DF, please also cite:
     *
     *   R. Sabatini, E. Kucukbenli, B. Kolb, T. Thonhauser, and
     *   S. de Gironcoli, J. Phys.: Condens. Matter 24, 424209 (2012).
     *

     Carrying out vdW-DF run using the following parameters:

     Nqs =      20    Nr_points =    1024   r_max =   100.000
     q_mesh =
               0.00001000     0.04494208     0.09755937     0.15916263
               0.23128650     0.31572767     0.41458969     0.53033537
               0.66584808     0.82450364     1.01025438     1.22772762
               1.48234092     1.78043706     2.12944203     2.53805004
               3.01644009     3.57652955     4.23227104     5.00000000

     Gradients computed in reciprocal space

[...]

     Starting wfc are  144 randomized atomic wfcs

     Self-consistent Calculation

[...]

     total energy              =   -2186.81776058 Ry
     Harris-Foulkes estimate   =   -2186.81776106 Ry
     estimated scf accuracy    <       0.00000152 Ry

     iteration # 17     ecut=    36.75 Ry     beta=0.10
     Davidson diagonalization with overlap
     ethr =  8.32E-10,  avg # of iterations =  2.9

[...]

     negative rho (up, down):  1.044E+00 0.000E+00

     Adding external electric field

     Computed dipole along edir(3) :
        Dipole                0.0013 Ry au,          0.0034 Debye
        Dipole field          0.0000 Ry au

        Potential amp.       -0.0004 Ry
        Total length         45.1156 bohr

     End of self-consistent calculation

[...]

          k = 0.0607 0.0000 0.0000 ( 16278 PWs)   bands (ev):

[...]

          k =-0.0910-0.1576 0.0000 ( 16196 PWs)   bands (ev):

   -51.5708 -51.5651 -51.5631 -51.0746 -51.0725 -51.0719 -51.0698 -50.8586
   -50.8564 -45.1746 -45.1024 -45.0974 -45.0698 -45.0527 -45.0420 -45.0266
   -44.9831 -44.8450 -44.8240 -44.7826 -44.6977 -44.6739 -44.6716 -44.6583
   -44.6535 -44.6406 -44.6313 -44.6219 -44.5300 -44.5152 -44.5087 -44.4932
   -44.4887 -44.4627 -44.4468 -44.4384  -4.3920  -3.9782  -3.3334  -3.3095
    -3.2210  -3.1906  -2.9172  -2.9059  -2.8614  -2.8532  -2.6368  -2.6087
    -2.4358  -2.3899  -2.3204  -2.1259  -2.0665  -1.9020  -1.8520  -1.7669
    -1.5588  -1.4717  -1.2926  -1.2547  -1.1831  -1.1309  -1.1198  -0.8781
    -0.8712  -0.7671  -0.6268  -0.5885  -0.5199  -0.4417  -0.4012  -0.3987
    -0.3682  -0.3326  -0.2654  -0.2291  -0.0240   0.1934   0.2151   0.2614
     0.4556   0.4951   0.4966   0.5922   0.6757   0.7546   0.8619   0.8921
     1.1000   1.1299   1.2120   1.3382   1.4561   1.5094   1.7662   1.8429
     1.9507   1.9923   2.1170   2.2929   3.8564   3.9950   4.5802   4.6480
     5.4188   5.5087   6.3169   6.3391   7.3775   7.4790   7.7999   7.8027
     8.3848   8.3901   8.4521   8.4547   9.5971   9.6051   9.7039   9.8928
    10.1153

     the Fermi energy is     1.6434 ev

!    total energy              =   -2186.81775871 Ry
     Harris-Foulkes estimate   =   -2186.81776076 Ry
     estimated scf accuracy    <       0.00000075 Ry

     The total energy is the sum of the following terms:

     one-electron contribution =  -19196.56115052 Ry
     hartree contribution      =    9637.67141412 Ry
     xc contribution           =    -454.84291589 Ry
     ewald contribution        =    7827.04588532 Ry
     electric field correction =       0.00000001 Ry
     smearing contrib. (-TS)   =      -0.13099173 Ry

     convergence has been achieved in  17 iterations

 BEEF-vdW xc energy contributions
           1 :   -399.632401423867
           2 :    368.989610144671
           3 :   -315.282150142028
           4 :    250.734798372611
           5 :   -188.008854000707
           6 :    136.456492514941
           7 :   -100.083227539766
           8 :    77.6434034801132
           9 :   -64.4953438887655
          10 :    55.2247807119223
          11 :   -45.9039018817897
          12 :    35.1749448440050
          13 :   -23.9828837915495
          14 :    14.3692137583590
          15 :   -8.06323158176571
          16 :    5.53808754430116
          17 :   -5.86724907079753
          18 :    7.29299515011854
          19 :   -8.11549724716525
          20 :    7.41836178511176
          21 :   -5.30683307485566
          22 :    2.62457264459351
          23 :  -0.380989215816840
          24 :  -0.786601764729141
          25 :   0.865056643286209
          26 :  -0.360564350177697
          27 :  -5.444797513473532E-002
          28 :  -7.670458141700465E-002
          29 :   0.787236393826504
          30 :   -1.74036652979345
          31 :   -36.8034535441895
          32 :   -27.4681107119609

     Forces acting on atoms (Ry/au):

     negative rho (up, down):  1.044E+00 0.000E+00
     atom    1 type  1   force =    -0.00000045   -0.00581157    0.00933362
     atom    2 type  1   force =    -0.00504496    0.00290996    0.00934405
     atom    3 type  1   force =     0.00504537    0.00291070    0.00934509
     atom    4 type  2   force =    -0.00000107   -0.00000141   -0.00077985
     atom    5 type  1   force =     0.00000005    0.00236123   -0.00670724
     atom    6 type  1   force =     0.00204946   -0.00118257   -0.00670357
     atom    7 type  1   force =    -0.00205108   -0.00118386   -0.00670474
     atom    8 type  2   force =     0.00000197    0.00000546   -0.00782574
     atom    9 type  1   force =    -0.00000033   -0.00019956    0.00035191
     atom   10 type  1   force =    -0.00017765    0.00009709    0.00034984
     atom   11 type  1   force =     0.00017715    0.00009759    0.00035478
     atom   12 type  2   force =     0.00000155   -0.00000306   -0.00035815

     Total force =     0.024032     Total SCF correction =     0.005881
     SCF correction compared to forces is large: reduce conv_thr to get better values

     entering subroutine stress ...

     negative rho (up, down):  1.044E+00 0.000E+00
          total   stress  (Ry/bohr**3)                   (kbar)     P=  -31.07
  -0.00024161   0.00000000  -0.00000000        -35.54      0.00     -0.00
   0.00000000  -0.00024160   0.00000000          0.00    -35.54      0.00
  -0.00000000   0.00000000  -0.00015039         -0.00      0.00    -22.12

 !ASE

     Writing output data file calc.save

     General routines

     Parallel routines

   This run was terminated on:   0: 8:54   1Jan2019

   JOB DONE.
Job  /afs/slac/g/suncat/bin/suncat-tsmpirun -x LD_LIBRARY_PATH -wdir /scratch/qe648896_4Ow6J pw.x -in pw.inp

TID   HOST_NAME   COMMAND_LINE            STATUS            TERMINATION_TIME
00000 suncat0068 pw.x -in pw.inp   Done                     01/01/2019 00:08:54
00001 suncat0068 pw.x -in pw.inp   Done                     01/01/2019 00:08:54
00002 suncat0068 pw.x -in pw.inp   Done                     01/01/2019 00:08:54
00003 suncat0068 pw.x -in pw.inp   Done                     01/01/2019 00:08:54
00004 suncat0068 pw.x -in pw.inp   Done                     01/01/2019 00:08:54
00005 suncat0068 pw.x -in pw.inp   Done                     01/01/2019 00:08:54
00006 suncat0068 pw.x -in pw.inp   Done                     01/01/2019 00:08:54
00007 suncat0068 pw.x -in pw.inp   Done                     01/01/2019 00:08:54
00008 suncat0059 pw.x -in pw.inp   Done                     01/01/2019 00:08:54
00009 suncat0059 pw.x -in pw.inp   Done                     01/01/2019 00:08:54
00010 suncat0059 pw.x -in pw.inp   Done                     01/01/2019 00:08:54
00011 suncat0059 pw.x -in pw.inp   Done                     01/01/2019 00:08:54
00012 suncat0059 pw.x -in pw.inp   Done                     01/01/2019 00:08:54
00013 suncat0059 pw.x -in pw.inp   Done                     01/01/2019 00:08:54
00014 suncat0059 pw.x -in pw.inp   Done                     01/01/2019 00:08:54
00015 suncat0059 pw.x -in pw.inp   Done                     01/01/2019 00:08:54
00016 suncat0031 pw.x -in pw.inp   Done                     01/01/2019 00:08:54
00017 suncat0031 pw.x -in pw.inp   Done                     01/01/2019 00:08:54
00018 suncat0031 pw.x -in pw.inp   Done                     01/01/2019 00:08:54
00019 suncat0031 pw.x -in pw.inp   Done                     01/01/2019 00:08:54
00020 suncat0031 pw.x -in pw.inp   Done                     01/01/2019 00:08:54
00021 suncat0031 pw.x -in pw.inp   Done                     01/01/2019 00:08:54
00022 suncat0031 pw.x -in pw.inp   Done                     01/01/2019 00:08:54
00023 suncat0031 pw.x -in pw.inp   Done                     01/01/2019 00:08:54
00024 suncat0030 pw.x -in pw.inp   Done                     01/01/2019 00:08:54
00025 suncat0030 pw.x -in pw.inp   Done                     01/01/2019 00:08:54
00026 suncat0030 pw.x -in pw.inp   Done                     01/01/2019 00:08:54
00027 suncat0030 pw.x -in pw.inp   Done                     01/01/2019 00:08:54
00028 suncat0030 pw.x -in pw.inp   Done                     01/01/2019 00:08:54
00029 suncat0030 pw.x -in pw.inp   Done                     01/01/2019 00:08:54
00030 suncat0030 pw.x -in pw.inp   Done                     01/01/2019 00:08:54
00031 suncat0030 pw.x -in pw.inp   Done                     01/01/2019 00:08:54
00032 suncat0280 pw.x -in pw.inp   Done                     01/01/2019 00:08:54
00033 suncat0280 pw.x -in pw.inp   Done                     01/01/2019 00:08:54
00034 suncat0280 pw.x -in pw.inp   Done                     01/01/2019 00:08:54
00035 suncat0280 pw.x -in pw.inp   Done                     01/01/2019 00:08:54
00036 suncat0280 pw.x -in pw.inp   Done                     01/01/2019 00:08:54
00037 suncat0280 pw.x -in pw.inp   Done                     01/01/2019 00:08:54
00038 suncat0280 pw.x -in pw.inp   Done                     01/01/2019 00:08:54
00039 suncat0280 pw.x -in pw.inp   Done                     01/01/2019 00:08:54
00040 suncat0279 pw.x -in pw.inp   Done                     01/01/2019 00:08:54
00041 suncat0279 pw.x -in pw.inp   Done                     01/01/2019 00:08:54
00042 suncat0279 pw.x -in pw.inp   Done                     01/01/2019 00:08:54
00043 suncat0279 pw.x -in pw.inp   Done                     01/01/2019 00:08:54
00044 suncat0279 pw.x -in pw.inp   Done                     01/01/2019 00:08:54
00045 suncat0279 pw.x -in pw.inp   Done                     01/01/2019 00:08:54
00046 suncat0279 pw.x -in pw.inp   Done                     01/01/2019 00:08:54
00047 suncat0279 pw.x -in pw.inp   Done                     01/01/2019 00:08:54
00048 suncat0278 pw.x -in pw.inp   Done                     01/01/2019 00:08:54
00049 suncat0278 pw.x -in pw.inp   Done                     01/01/2019 00:08:54
00050 suncat0278 pw.x -in pw.inp   Done                     01/01/2019 00:08:54
00051 suncat0278 pw.x -in pw.inp   Done                     01/01/2019 00:08:54
00052 suncat0278 pw.x -in pw.inp   Done                     01/01/2019 00:08:54
00053 suncat0278 pw.x -in pw.inp   Done                     01/01/2019 00:08:54
00054 suncat0278 pw.x -in pw.inp   Done                     01/01/2019 00:08:54
00055 suncat0278 pw.x -in pw.inp   Done                     01/01/2019 00:08:54
00056 suncat0099 pw.x -in pw.inp   Done                     01/01/2019 00:08:54
00057 suncat0099 pw.x -in pw.inp   Done                     01/01/2019 00:08:54
00058 suncat0099 pw.x -in pw.inp   Done                     01/01/2019 00:08:54
00059 suncat0099 pw.x -in pw.inp   Done                     01/01/2019 00:08:54
00060 suncat0099 pw.x -in pw.inp   Done                     01/01/2019 00:08:54
00061 suncat0099 pw.x -in pw.inp   Done                     01/01/2019 00:08:54
00062 suncat0099 pw.x -in pw.inp   Done                     01/01/2019 00:08:54
00063 suncat0099 pw.x -in pw.inp   Done                     01/01/2019 00:08:54