     Program PWSCF v.5.1rc2 (svn rev. 11289) starts on 27Dec2018 at 17:37:23

     Current dimensions of program PWSCF are:
     Max number of different atomic species (ntypx) = 10
     Max number of k-points (npk) =  40000
     Max angular momentum in pseudopotentials (lmaxx) =  3
     Presently stress not available with electric field

     IMPORTANT: XC functional enforced from input :
     Exchange-correlation      = BEEF-VDW ( 1  4 27 13 2)
     Any further DFT definition will be discarded
     Please, verify this is what you really want

     Subspace diagonalization in iterative solution of the eigenvalue problem:
     a serial algorithm will be used

     bravais-lattice index     =            0
     lattice parameter (alat)  =       1.8897  a.u.
     unit-cell volume          =    4693.5900 (a.u.)^3
     number of atoms/cell      =           12
     number of atomic types    =            2
     number of electrons       =       177.00
     number of Kohn-Sham states=          118
     kinetic-energy cutoff     =      36.7493  Ry
     charge density cutoff     =     367.4932  Ry
     convergence threshold     =      1.0E-06
     mixing beta               =       0.1000
     number of iterations used =           10  plain     mixing
     Exchange-correlation      = BEEF-VDW ( 1  4 27 13 2)
     nstep                     =           50

     celldm(1)=   1.889726  celldm(2)=   0.000000  celldm(3)=   0.000000
     celldm(4)=   0.000000  celldm(5)=   0.000000  celldm(6)=   0.000000

     crystal axes: (cart. coord. in units of alat)
               a(1) = (   5.706841   0.000000   0.000000 )
               a(2) = (  -2.853421   4.942270   0.000000 )
               a(3) = (   0.000000   0.000000  24.659616 )

     reciprocal axes: (cart. coord. in units 2 pi/alat)
               b(1) = (  0.175228  0.101168  0.000000 )
               b(2) = (  0.000000  0.202336  0.000000 )
               b(3) = (  0.000000  0.000000  0.040552 )

     PseudoPot. # 1 for Pd read from file:
     /afs/slac.stanford.edu/u/if/mamunm/psp/gbrv1.5pbe/Pd.UPF
     MD5 check sum: 2d733d2bc2cbfd217af676df1668a4bc
     Pseudo is Ultrasoft + core correction, Zval = 16.0
     Generated by new atomic code, or converted to UPF format
     Using radial grid of  887 points,  6 beta functions with:
                l(1) =   0
                l(2) =   0
                l(3) =   1
                l(4) =   1
                l(5) =   2
                l(6) =   2
     Q(r) pseudized with  8 coefficients,  rinner =    1.130   1.130   1.130
                                                       1.130   1.130

     PseudoPot. # 2 for Sc read from file:
     /afs/slac.stanford.edu/u/if/mamunm/psp/gbrv1.5pbe/Sc.UPF
     MD5 check sum: db30a2753ba66ef00f23801d899b7e7f
     Pseudo is Ultrasoft + core correction, Zval = 11.0
     Generated by new atomic code, or converted to UPF format
     Using radial grid of  849 points,  6 beta functions with:
                l(1) =   0
                l(2) =   0
                l(3) =   1
                l(4) =   1
                l(5) =   2
                l(6) =   2
     Q(r) pseudized with  6 coefficients,  rinner =    1.200   1.200   1.200
                                                       1.200   1.200

     vdW kernel table read from file vdW_kernel_table
     MD5 check sum: 095c7af220d748ca6e76c0b4c6cfb241

     atomic species   valence    mass     pseudopotential
        Pd1           16.00   106.42000     Pd( 1.00)
        Sc1           11.00    44.95591     Sc( 1.00)

     No symmetry found

   Cartesian axes

     site n.     atom                  positions (alat units)
         1           Pd1 tau(   1) = (   0.0000000   0.0000000  10.0000000  )
         2           Pd1 tau(   2) = (  -1.4267103   2.4711348  10.0000000  )
         3           Pd1 tau(   3) = (   1.4267103   2.4711348  10.0000000  )
         4           Sc1 tau(   4) = (   2.8534207   0.0000000  10.0000000  )
         5           Pd1 tau(   5) = (   2.8534207   1.6474232  12.3298082  )
         6           Pd1 tau(   6) = (   1.4267103   4.1185580  12.3298082  )
         7           Pd1 tau(   7) = (  -1.4267103   4.1185580  12.3298082  )
         8           Sc1 tau(   8) = (   0.0000000   1.6474232  12.3298082  )
         9           Pd1 tau(   9) = (  -0.0000000   3.2948464  14.6596164  )
        10           Pd1 tau(  10) = (   1.4267103   0.8237116  14.6596164  )
        11           Pd1 tau(  11) = (   4.2801310   0.8237116  14.6596164  )
        12           Sc1 tau(  12) = (   2.8534207   3.2948464  14.6596164  )

     number of k points=    20  Fermi-Dirac smearing, width (Ry)=  0.0110
                       cart. coord. in units 2pi/alat
        k(    1) = (   0.0000000   0.0000000   0.0000000), wk =   0.0555556
        k(    2) = (   0.0000000   0.0337227   0.0000000), wk =   0.1111111
        k(    3) = (   0.0000000   0.0674454   0.0000000), wk =   0.1111111
        k(    4) = (   0.0000000  -0.1011681   0.0000000), wk =   0.0555556
        k(    5) = (   0.0292047   0.0168613   0.0000000), wk =   0.1111111
        k(    6) = (   0.0292047   0.0505840   0.0000000), wk =   0.1111111
        k(    7) = (   0.0292047   0.0843067   0.0000000), wk =   0.1111111
        k(    8) = (   0.0292047  -0.0843067   0.0000000), wk =   0.1111111
        k(    9) = (   0.0292047  -0.0505840   0.0000000), wk =   0.1111111
        k(   10) = (   0.0292047  -0.0168613   0.0000000), wk =   0.1111111
        k(   11) = (   0.0584094   0.0337227   0.0000000), wk =   0.1111111
        k(   12) = (   0.0584094   0.0674454   0.0000000), wk =   0.1111111
        k(   13) = (   0.0584094   0.1011681   0.0000000), wk =   0.1111111
        k(   14) = (   0.0584094  -0.0674454   0.0000000), wk =   0.1111111
        k(   15) = (   0.0584094  -0.0337227   0.0000000), wk =   0.1111111
        k(   16) = (   0.0584094   0.0000000   0.0000000), wk =   0.1111111
        k(   17) = (  -0.0876141  -0.0505840   0.0000000), wk =   0.0555556
        k(   18) = (  -0.0876141  -0.0168613   0.0000000), wk =   0.1111111
        k(   19) = (  -0.0876141   0.0168613   0.0000000), wk =   0.1111111
        k(   20) = (  -0.0876141  -0.1517521   0.0000000), wk =   0.0555556

     Largest allocated arrays     est. size (Mb)     dimensions
     Largest temporary arrays     est. size (Mb)     dimensions

     Initial potential from superposition of free atoms
     Check: negative starting charge=   -0.670445

     starting charge  172.49273, renormalised to  177.00000

     negative rho (up, down):  6.880E-01 0.000E+00

     *
     * You are using vdW-DF for exchange-correlation in this calculation.
     * Please cite the following three references that made this development
     * possible:
     *
     *   M. Dion, H. Rydberg, E. Schroder, D. C. Langreth, and
     *   B. I. Lundqvist, Phys. Rev. Lett. 92, 246401 (2004).
     *
     *   T. Thonhauser, V. R. Cooper, S. Li, A. Puzder, P. Hyldgaard, and
     *   D. C. Langreth, Phys. Rev. B 76, 125112 (2007).
     *
     *   G. Roman-Perez and J. M. Soler, Phys. Rev. Lett. 103, 096102 (2009).
     *
     *
     * If you are using vdW-DF2, please also cite:
     *
     *   K. Lee, E. D. Murray, L. Kong, B. I. Lundqvist, and
     *   D. C. Langreth, Phys. Rev. B 82, 081101(R) (2010).
     *
     *
     * If you are calculating the stress with vdW-DF, please also cite:
     *
     *   R. Sabatini, E. Kucukbenli, B. Kolb, T. Thonhauser, and
     *   S. de Gironcoli, J. Phys.: Condens. Matter 24, 424209 (2012).
     *

     Carrying out vdW-DF run using the following parameters:

     Nqs =      20    Nr_points =    1024   r_max =   100.000
     q_mesh =
               0.00001000     0.04494208     0.09755937     0.15916263
               0.23128650     0.31572767     0.41458969     0.53033537
               0.66584808     0.82450364     1.01025438     1.22772762
               1.48234092     1.78043706     2.12944203     2.53805004
               3.01644009     3.57652955     4.23227104     5.00000000

     Gradients computed in reciprocal space

     Adding external electric field

     Computed dipole along edir(3) :
        Dipole               -0.0000 Ry au,         -0.0000 Debye
        Dipole field         -0.0000 Ry au

        Potential amp.        0.0000 Ry
        Total length         45.4349 bohr

     Starting wfc are  147 randomized atomic wfcs

     Self-consistent Calculation

     iteration #  1     ecut=    36.75 Ry     beta=0.10
     Davidson diagonalization with overlap
     ethr =  1.00E-02,  avg # of iterations =  8.0

[...]

     total energy              =   -2081.92130267 Ry
     Harris-Foulkes estimate   =   -2086.23168481 Ry
     estimated scf accuracy    <      25.48707719 Ry

[...]

     End of self-consistent calculation

          k = 0.0000 0.0000 0.0000 ( 17717 PWs)   bands (ev):

   -49.2487 -49.2377 -48.8475 -48.7968 -48.7968 -48.7532 -48.7532 -48.7110
   -48.6912 -48.6233 -48.6090 -48.6090 -48.5775 -48.5775 -48.5524 -48.5524
   -48.5024 -48.4979 -48.4953 -48.4875 -48.3477 -48.3477 -48.3453 -48.3453
   -48.3381 -48.3340 -48.3109 -48.3109 -48.3061 -48.3061 -27.8925 -27.8871
   -27.7361 -27.7361 -27.7346 -27.7346 -27.1757 -27.1757 -27.1445  -4.5119
    -3.2566  -3.1510  -3.0434  -3.0009  -2.9857  -2.9857  -2.7584  -2.7584
    -2.6575  -2.6575  -2.6222  -2.5671  -2.4213  -2.4213  -1.7570  -1.5969
    -1.5969  -1.5349  -1.5349  -1.2153  -1.1690  -1.0258  -0.9305  -0.8726
    -0.8726  -0.7648  -0.7648  -0.6355  -0.6355  -0.4746  -0.4746  -0.3905
    -0.3905  -0.1929   0.1752   0.1752   0.2005   0.2005   0.3109   0.3109
     0.5664   0.8033   0.8033   0.8224   0.9197   1.1245   1.1680   1.7022
     2.2776   2.4433   2.7284   2.7284   3.2052   3.2052   3.2447   3.2447
     3.2554   3.2554   3.3655   3.4523   3.4523   3.5243   3.5243   3.5474
     4.0424   4.0424   5.1018   5.1038   5.1038   5.2126   5.2126   5.2373
     5.3846   5.6070   5.8156   6.7053   7.6025   7.7868

[...]

          k =-0.0876-0.0506 0.0000 ( 17612 PWs)   bands (ev):

[...]

     the Fermi energy is     1.2573 ev

!    total energy              =   -2083.10852434 Ry
     Harris-Foulkes estimate   =   -2083.10853404 Ry
     estimated scf accuracy    <       0.00000081 Ry

     The total energy is the sum of the following terms:

     one-electron contribution =  -16670.24361920 Ry
     hartree contribution      =    8368.41935360 Ry
     xc contribution           =    -334.54220598 Ry
     ewald contribution        =    6553.29840101 Ry
     electric field correction =       0.00000000 Ry
     smearing contrib. (-TS)   =      -0.04045376 Ry

     convergence has been achieved in  15 iterations

 BEEF-vdW xc energy contributions
           1 :   -290.394092213928
           2 :    264.336300222433
           3 :   -220.338243228786
           4 :    170.819498624737
           5 :   -127.301738397330
           6 :    96.5042400094418
           7 :   -79.2136256235279
           8 :    71.7462360695261
           9 :   -68.7440983175352
          10 :    65.7992883358191
          11 :   -60.8721496147628
          12 :    54.2462585906615
          13 :   -47.4878190408426
          14 :    42.1865727794652
[...]
     /afs/slac.stanford.edu/u/if/mamunm/psp/gbrv1.5pbe/Pd.UPF
     MD5 check sum: 2d733d2bc2cbfd217af676df1668a4bc
     Pseudo is Ultrasoft + core correction, Zval = 16.0
     Generated by new atomic code, or converted to UPF format
     Using radial grid of  887 points,  6 beta functions with:
                l(1) =   0
                l(2) =   0
                l(3) =   1
                l(4) =   1
                l(5) =   2
                l(6) =   2
     Q(r) pseudized with  8 coefficients,  rinner =    1.130   1.130   1.130
                                                       1.130   1.130

     PseudoPot. # 2 for Sc read from file:
     /afs/slac.stanford.edu/u/if/mamunm/psp/gbrv1.5pbe/Sc.UPF
     MD5 check sum: db30a2753ba66ef00f23801d899b7e7f
     Pseudo is Ultrasoft + core correction, Zval = 11.0
     Generated by new atomic code, or converted to UPF format
     Using radial grid of  849 points,  6 beta functions with:
                l(1) =   0
                l(2) =   0
                l(3) =   1
                l(4) =   1
                l(5) =   2
                l(6) =   2
     Q(r) pseudized with  6 coefficients,  rinner =    1.200   1.200   1.200
                                                       1.200   1.200

     vdW kernel table read from file vdW_kernel_table
     MD5 check sum: 095c7af220d748ca6e76c0b4c6cfb241

     atomic species   valence    mass     pseudopotential
        Pd1           16.00   106.42000     Pd( 1.00)
        Sc1           11.00    44.95591     Sc( 1.00)

     No symmetry found

   Cartesian axes

     site n.     atom                  positions (alat units)
         1           Pd1 tau(   1) = (   0.0000000   0.0000000  10.0000000  )
         2           Pd1 tau(   2) = (  -1.4267103   2.4711348  10.0000000  )
         3           Pd1 tau(   3) = (   1.4267103   2.4711348  10.0000000  )
         4           Sc1 tau(   4) = (   2.8534207   0.0000000  10.0000000  )
         5           Pd1 tau(   5) = (   2.8534207   1.6474232  12.3298082  )
         6           Pd1 tau(   6) = (   1.4267103   4.1185580  12.3298082  )
         7           Pd1 tau(   7) = (  -1.4267103   4.1185580  12.3298082  )
         8           Sc1 tau(   8) = (   0.0000000   1.6474232  12.3298082  )
         9           Pd1 tau(   9) = (  -0.0000019   3.2814009  14.6466401  )
        10           Pd1 tau(  10) = (   1.4150686   0.8304339  14.6466425  )
        11           Pd1 tau(  11) = (   4.2917766   0.8304348  14.6466382  )
        12           Sc1 tau(  12) = (   2.8534131   3.2948467  14.5324659  )

     number of k points=    20  Fermi-Dirac smearing, width (Ry)=  0.0110
                       cart. coord. in units 2pi/alat
        k(    1) = (   0.0000000   0.0000000   0.0000000), wk =   0.0555556
        k(    2) = (   0.0000000   0.0337227   0.0000000), wk =   0.1111111
        k(    3) = (   0.0000000   0.0674454   0.0000000), wk =   0.1111111
        k(    4) = (   0.0000000  -0.1011681   0.0000000), wk =   0.0555556
        k(    5) = (   0.0292047   0.0168613   0.0000000), wk =   0.1111111
        k(    6) = (   0.0292047   0.0505840   0.0000000), wk =   0.1111111
        k(    7) = (   0.0292047   0.0843067   0.0000000), wk =   0.1111111
        k(    8) = (   0.0292047  -0.0843067   0.0000000), wk =   0.1111111
        k(    9) = (   0.0292047  -0.0505840   0.0000000), wk =   0.1111111
        k(   10) = (   0.0292047  -0.0168613   0.0000000), wk =   0.1111111
        k(   11) = (   0.0584094   0.0337227   0.0000000), wk =   0.1111111
        k(   12) = (   0.0584094   0.0674454   0.0000000), wk =   0.1111111
        k(   13) = (   0.0584094   0.1011681   0.0000000), wk =   0.1111111
        k(   14) = (   0.0584094  -0.0674454   0.0000000), wk =   0.1111111
        k(   15) = (   0.0584094  -0.0337227   0.0000000), wk =   0.1111111
        k(   16) = (   0.0584094   0.0000000   0.0000000), wk =   0.1111111
        k(   17) = (  -0.0876141  -0.0505840   0.0000000), wk =   0.0555556
        k(   18) = (  -0.0876141  -0.0168613   0.0000000), wk =   0.1111111
        k(   19) = (  -0.0876141   0.0168613   0.0000000), wk =   0.1111111
        k(   20) = (  -0.0876141  -0.1517521   0.0000000), wk =   0.0555556

     Largest allocated arrays     est. size (Mb)     dimensions
     Largest temporary arrays     est. size (Mb)     dimensions

     Initial potential from superposition of free atoms
     Check: negative starting charge=   -0.671703

     starting charge  172.49273, renormalised to  177.00000

[...]

     *
     * You are using vdW-DF for exchange-correlation in this calculation.
     * Please cite the following three references that made this development
     * possible:
     *
     *   M. Dion, H. Rydberg, E. Schroder, D. C. Langreth, and
     *   B. I. Lundqvist, Phys. Rev. Lett. 92, 246401 (2004).
     *
     *   T. Thonhauser, V. R. Cooper, S. Li, A. Puzder, P. Hyldgaard, and
     *   D. C. Langreth, Phys. Rev. B 76, 125112 (2007).
     *
     *   G. Roman-Perez and J. M. Soler, Phys. Rev. Lett. 103, 096102 (2009).
     *
     *
     * If you are using vdW-DF2, please also cite:
     *
     *   K. Lee, E. D. Murray, L. Kong, B. I. Lundqvist, and
     *   D. C. Langreth, Phys. Rev. B 82, 081101(R) (2010).
     *
     *
     * If you are calculating the stress with vdW-DF, please also cite:
     *
     *   R. Sabatini, E. Kucukbenli, B. Kolb, T. Thonhauser, and
     *   S. de Gironcoli, J. Phys.: Condens. Matter 24, 424209 (2012).
     *

     Carrying out vdW-DF run using the following parameters:

     Nqs =      20    Nr_points =    1024   r_max =   100.000
     q_mesh =
               0.00001000     0.04494208     0.09755937     0.15916263
               0.23128650     0.31572767     0.41458969     0.53033537
               0.66584808     0.82450364     1.01025438     1.22772762
               1.48234092     1.78043706     2.12944203     2.53805004
               3.01644009     3.57652955     4.23227104     5.00000000

     Gradients computed in reciprocal space

[...]

     Starting wfc are  147 randomized atomic wfcs

     Self-consistent Calculation

[...]

     total energy              =   -2083.11245074 Ry
     Harris-Foulkes estimate   =   -2083.11245308 Ry
     estimated scf accuracy    <       0.00000475 Ry

     iteration # 16     ecut=    36.75 Ry     beta=0.10
     Davidson diagonalization with overlap
     ethr =  2.68E-09,  avg # of iterations =  3.0

[...]

     negative rho (up, down):  7.030E-01 0.000E+00

     Adding external electric field

     Computed dipole along edir(3) :
        Dipole               -0.0222 Ry au,         -0.0565 Debye
        Dipole field         -0.0001 Ry au

        Potential amp.        0.0054 Ry
        Total length         45.4349 bohr

     End of self-consistent calculation

[...]

          k = 0.0584 0.0000 0.0000 ( 17679 PWs)   bands (ev):

[...]

          k =-0.0876-0.1518 0.0000 ( 17612 PWs)   bands (ev):

   -49.2962 -49.1750 -48.9194 -48.8910 -48.8823 -48.8628 -48.8152 -48.7948
   -48.7580 -48.7285 -48.6815 -48.6052 -48.5937 -48.5773 -48.5752 -48.5600
   -48.5562 -48.5396 -48.4753 -48.4613 -48.4294 -48.4208 -48.3838 -48.3760
   -48.3668 -48.3638 -48.3575 -48.3500 -48.3445 -48.3368 -27.9374 -27.7963
   -27.7849 -27.7799 -27.6660 -27.6607 -27.1995 -27.1939 -27.1569  -3.3029
    -3.0880  -2.6619  -2.6314  -2.5497  -2.4507  -2.3742  -2.3300  -2.3208
    -2.2775  -2.1452  -2.0981  -1.9446  -1.8972  -1.8893  -1.7850  -1.7174
    -1.6865  -1.6382  -1.4911  -1.2502  -1.2149  -1.0924  -1.0370  -1.0294
    -0.9903  -0.9330  -0.8984  -0.8686  -0.8533  -0.8220  -0.7825  -0.7332
    -0.7141  -0.6936  -0.6601  -0.4885  -0.4365  -0.3367  -0.3107  -0.2650
    -0.2397  -0.1033  -0.0363   0.2490   0.3348   0.6170   0.6696   0.8052
     0.9110   1.4359   1.6211   2.2080   2.4316   2.6851   2.7722   2.8284
     2.9229   2.9916   3.0243   3.1985   3.2907   3.5013   3.5211   3.5802
     3.9372   4.3010   4.8672   5.4617   5.5255   5.6416   5.7878   6.5928
     6.6310   6.6518   6.8180   7.1817   7.2176   7.2585

     the Fermi energy is     1.2272 ev

!    total energy              =   -2083.11244311 Ry
     Harris-Foulkes estimate   =   -2083.11245147 Ry
     estimated scf accuracy    <       0.00000044 Ry

     The total energy is the sum of the following terms:

     one-electron contribution =  -16749.50269518 Ry
     hartree contribution      =    8407.80978991 Ry
     xc contribution           =    -334.60364775 Ry
     ewald contribution        =    6593.22363822 Ry
     electric field correction =       0.00000132 Ry
     smearing contrib. (-TS)   =      -0.03952964 Ry

     convergence has been achieved in  16 iterations

 BEEF-vdW xc energy contributions
           1 :   -290.500140672122
           2 :    264.465846817747
           3 :   -220.493539436116
           4 :    170.977282040315
           5 :   -127.428720440890
           6 :    96.5785548561277
           7 :   -79.2365822119782
           8 :    71.7402733684227
           9 :   -68.7412639186171
          10 :    65.8260903005787
          11 :   -60.9377278697301
          12 :    54.3401744726759
          13 :   -47.5875088806082
          14 :    42.2681264401386
          15 :   -39.1568433830571
          16 :    38.0020465903664
          17 :   -37.8323611031483
          18 :    37.5120413268106
          19 :   -36.2771648227996
          20 :    34.0337908621827
          21 :   -31.3061523009949
          22 :    28.8772628008518
          23 :   -27.3238225985067
          24 :    26.7015117075060
          25 :   -26.5539881772326
          26 :    26.2270125714869
          27 :   -25.2853715845221
          28 :    23.7619431649127
          29 :   -22.0855213334834
          30 :    20.7553062293634
          31 :   -28.9591146596833
          32 :   -21.3088809710040

     Forces acting on atoms (Ry/au):

     negative rho (up, down):  7.030E-01 0.000E+00
     atom    1 type  1   force =    -0.00000013    0.00593433    0.00128657
     atom    2 type  1   force =     0.00513909   -0.00296687    0.00128644
     atom    3 type  1   force =    -0.00513948   -0.00296699    0.00128691
     atom    4 type  2   force =    -0.00000020   -0.00000023    0.01454015
     atom    5 type  1   force =    -0.00000016   -0.00296350   -0.00556517
     atom    6 type  1   force =    -0.00256631    0.00148181   -0.00556572
     atom    7 type  1   force =     0.00256639    0.00148161   -0.00556545
     atom    8 type  2   force =     0.00000032    0.00000013   -0.00192184
     atom    9 type  1   force =     0.00000032    0.00000517    0.00002218
     atom   10 type  1   force =     0.00000399   -0.00000271    0.00002117
     atom   11 type  1   force =    -0.00000427   -0.00000290    0.00002272
     atom   12 type  2   force =     0.00000043    0.00000015    0.00015205

     Total force =     0.021095     Total SCF correction =     0.001326

     entering subroutine stress ...

     negative rho (up, down):  7.030E-01 0.000E+00
          total   stress  (Ry/bohr**3)                   (kbar)     P=   -9.22
  -0.00007962  -0.00000000   0.00000000        -11.71     -0.00      0.00
  -0.00000000  -0.00007962  -0.00000000         -0.00    -11.71     -0.00
   0.00000000  -0.00000000  -0.00002885          0.00     -0.00     -4.24

 !ASE

     Writing output data file calc.save

     General routines

     Parallel routines

   This run was terminated on:  18:43:21  27Dec2018

   JOB DONE.
Job  /afs/slac/g/suncat/bin/suncat-tsmpirun -x LD_LIBRARY_PATH -wdir /scratch/qe110476_Kip2R pw.x -in pw.inp

TID   HOST_NAME   COMMAND_LINE            STATUS            TERMINATION_TIME
00000 suncat0083 pw.x -in pw.inp   Done                     12/27/2018 18:43:21
00001 suncat0083 pw.x -in pw.inp   Done                     12/27/2018 18:43:21
00002 suncat0083 pw.x -in pw.inp   Done                     12/27/2018 18:43:21
00003 suncat0083 pw.x -in pw.inp   Done                     12/27/2018 18:43:21
00004 suncat0083 pw.x -in pw.inp   Done                     12/27/2018 18:43:21
00005 suncat0083 pw.x -in pw.inp   Done                     12/27/2018 18:43:21
00006 suncat0083 pw.x -in pw.inp   Done                     12/27/2018 18:43:21
00007 suncat0083 pw.x -in pw.inp   Done                     12/27/2018 18:43:21
00008 suncat0081 pw.x -in pw.inp   Done                     12/27/2018 18:43:21
00009 suncat0081 pw.x -in pw.inp   Done                     12/27/2018 18:43:21
00010 suncat0081 pw.x -in pw.inp   Done                     12/27/2018 18:43:21
00011 suncat0081 pw.x -in pw.inp   Done                     12/27/2018 18:43:21
00012 suncat0081 pw.x -in pw.inp   Done                     12/27/2018 18:43:21
00013 suncat0081 pw.x -in pw.inp   Done                     12/27/2018 18:43:21
00014 suncat0081 pw.x -in pw.inp   Done                     12/27/2018 18:43:21
00015 suncat0081 pw.x -in pw.inp   Done                     12/27/2018 18:43:21
00016 suncat0079 pw.x -in pw.inp   Done                     12/27/2018 18:43:21
00017 suncat0079 pw.x -in pw.inp   Done                     12/27/2018 18:43:21
00018 suncat0079 pw.x -in pw.inp   Done                     12/27/2018 18:43:21
00019 suncat0079 pw.x -in pw.inp   Done                     12/27/2018 18:43:21
00020 suncat0079 pw.x -in pw.inp   Done                     12/27/2018 18:43:21
00021 suncat0079 pw.x -in pw.inp   Done                     12/27/2018 18:43:21
00022 suncat0079 pw.x -in pw.inp   Done                     12/27/2018 18:43:21
00023 suncat0079 pw.x -in pw.inp   Done                     12/27/2018 18:43:21
00024 suncat0076 pw.x -in pw.inp   Done                     12/27/2018 18:43:21
00025 suncat0076 pw.x -in pw.inp   Done                     12/27/2018 18:43:21
00026 suncat0076 pw.x -in pw.inp   Done                     12/27/2018 18:43:21
00027 suncat0076 pw.x -in pw.inp   Done                     12/27/2018 18:43:21
00028 suncat0076 pw.x -in pw.inp   Done                     12/27/2018 18:43:21
00029 suncat0076 pw.x -in pw.inp   Done                     12/27/2018 18:43:21
00030 suncat0076 pw.x -in pw.inp   Done                     12/27/2018 18:43:21
00031 suncat0076 pw.x -in pw.inp   Done                     12/27/2018 18:43:21
00032 suncat0064 pw.x -in pw.inp   Done                     12/27/2018 18:43:21
00033 suncat0064 pw.x -in pw.inp   Done                     12/27/2018 18:43:21
00034 suncat0064 pw.x -in pw.inp   Done                     12/27/2018 18:43:21
00035 suncat0064 pw.x -in pw.inp   Done                     12/27/2018 18:43:21
00036 suncat0064 pw.x -in pw.inp   Done                     12/27/2018 18:43:21
00037 suncat0064 pw.x -in pw.inp   Done                     12/27/2018 18:43:21
00038 suncat0064 pw.x -in pw.inp   Done                     12/27/2018 18:43:21
00039 suncat0064 pw.x -in pw.inp   Done                     12/27/2018 18:43:21
00040 suncat0129 pw.x -in pw.inp   Done                     12/27/2018 18:43:21
00041 suncat0129 pw.x -in pw.inp   Done                     12/27/2018 18:43:21
00042 suncat0129 pw.x -in pw.inp   Done                     12/27/2018 18:43:21
00043 suncat0129 pw.x -in pw.inp   Done                     12/27/2018 18:43:21
00044 suncat0129 pw.x -in pw.inp   Done                     12/27/2018 18:43:21
00045 suncat0129 pw.x -in pw.inp   Done                     12/27/2018 18:43:21
00046 suncat0129 pw.x -in pw.inp   Done                     12/27/2018 18:43:21
00047 suncat0129 pw.x -in pw.inp   Done                     12/27/2018 18:43:21
00048 suncat0254 pw.x -in pw.inp   Done                     12/27/2018 18:43:21
00049 suncat0254 pw.x -in pw.inp   Done                     12/27/2018 18:43:21
00050 suncat0254 pw.x -in pw.inp   Done                     12/27/2018 18:43:21
00051 suncat0254 pw.x -in pw.inp   Done                     12/27/2018 18:43:21
00052 suncat0254 pw.x -in pw.inp   Done                     12/27/2018 18:43:21
00053 suncat0254 pw.x -in pw.inp   Done                     12/27/2018 18:43:21
00054 suncat0254 pw.x -in pw.inp   Done                     12/27/2018 18:43:21
00055 suncat0254 pw.x -in pw.inp   Done                     12/27/2018 18:43:21
00056 suncat0253 pw.x -in pw.inp   Done                     12/27/2018 18:43:21
00057 suncat0253 pw.x -in pw.inp   Done                     12/27/2018 18:43:21
00058 suncat0253 pw.x -in pw.inp   Done                     12/27/2018 18:43:21
00059 suncat0253 pw.x -in pw.inp   Done                     12/27/2018 18:43:21
00060 suncat0253 pw.x -in pw.inp   Done                     12/27/2018 18:43:21
00061 suncat0253 pw.x -in pw.inp   Done                     12/27/2018 18:43:21
00062 suncat0253 pw.x -in pw.inp   Done                     12/27/2018 18:43:21
00063 suncat0253 pw.x -in pw.inp   Done                     12/27/2018 18:43:21