     Program PWSCF v.5.1rc2 (svn rev. 11289) starts on 26Dec2018 at 23:55:32

     Current dimensions of program PWSCF are:
     Max number of different atomic species (ntypx) = 10
     Max number of k-points (npk) =  40000
     Max angular momentum in pseudopotentials (lmaxx) =  3
     Presently stress not available with electric field

     IMPORTANT: XC functional enforced from input :
     Exchange-correlation      = BEEF-VDW ( 1  4 27 13 2)
     Any further DFT definition will be discarded
     Please, verify this is what you really want

     Subspace diagonalization in iterative solution of the eigenvalue problem:
     a serial algorithm will be used

     Generating pointlists ...
     new r_m :   0.4125 (alat units)  0.7795 (a.u.) for type    1
     new r_m :   0.4125 (alat units)  0.7795 (a.u.) for type    2

     bravais-lattice index     =            0
     lattice parameter (alat)  =       1.8897  a.u.
     unit-cell volume          =    3785.4017 (a.u.)^3
     number of atoms/cell      =           12
     number of atomic types    =            2
     number of electrons       =       180.00
     number of Kohn-Sham states=          100
     kinetic-energy cutoff     =      36.7493  Ry
     charge density cutoff     =     367.4932  Ry
     convergence threshold     =      1.0E-04
     mixing beta               =       0.4000
     number of iterations used =           10  plain     mixing
     Exchange-correlation      = BEEF-VDW ( 1  4 27 13 2)
     nstep                     =           50

     celldm(1)=   1.889726  celldm(2)=   0.000000  celldm(3)=   0.000000
     celldm(4)=   0.000000  celldm(5)=   0.000000  celldm(6)=   0.000000

     crystal axes: (cart. coord. in units of alat)
               a(1) = (   5.171130   0.000000   0.000000 )
               a(2) = (  -2.585565   4.478330   0.000000 )
               a(3) = (   0.000000   0.000000  24.222210 )

     reciprocal axes: (cart. coord. in units 2 pi/alat)
               b(1) = (  0.193381  0.111649  0.000000 )
               b(2) = (  0.000000  0.223298  0.000000 )
               b(3) = (  0.000000  0.000000  0.041284 )

     PseudoPot. # 1 for Mn read from file:
     /afs/slac.stanford.edu/u/if/mamunm/psp/gbrv1.5pbe/Mn.UPF
     MD5 check sum: 82ef2b46521d7a7d9e736dc3972e4928
     Pseudo is Ultrasoft + core correction, Zval = 15.0
     Generated by new atomic code, or converted to UPF format
     Using radial grid of  859 points,  6 beta functions with:
                l(1) =   0
                l(2) =   0
                l(3) =   1
                l(4) =   1
                l(5) =   2
                l(6) =   2
     Q(r) pseudized with  8 coefficients,  rinner =    0.950   0.950   0.950
                                                       0.950   0.950

     PseudoPot. # 2 for Tc read from file:
     /afs/slac.stanford.edu/u/if/mamunm/psp/gbrv1.5pbe/Tc.UPF
     MD5 check sum: 9eb49e5b028550b2339a02317eb7b844
     Pseudo is Ultrasoft + core correction, Zval = 15.0
     Generated by new atomic code, or converted to UPF format
     Using radial grid of  965 points,  6 beta functions with:
                l(1) =   0
                l(2) =   0
                l(3) =   1
                l(4) =   1
                l(5) =   2
                l(6) =   2
     Q(r) pseudized with  8 coefficients,  rinner =    1.300   1.300   1.300
                                                       1.300   1.300

     vdW kernel table read from file vdW_kernel_table
     MD5 check sum: 095c7af220d748ca6e76c0b4c6cfb241

     atomic species   valence    mass     pseudopotential
        Mn1           15.00    54.93804     Mn( 1.00)
        Tc1           15.00    97.90721     Tc( 1.00)

     Starting magnetic structure
     atomic species   magnetization
        Mn1          0.133
        Tc1          0.133

     No symmetry found

   Cartesian axes

     site n.     atom                  positions (alat units)
         1           Mn1 tau(   1) = (   0.0000000   0.0000000  10.0000000  )
         2           Mn1 tau(   2) = (  -1.2927826   2.2391651  10.0000000  )
         3           Mn1 tau(   3) = (   1.2927826   2.2391651  10.0000000  )
         4           Tc1 tau(   4) = (   2.5855652   0.0000000  10.0000000  )
         5           Mn1 tau(   5) = (   2.5855652   1.4927767  12.1111051  )
         6           Mn1 tau(   6) = (   1.2927826   3.7319419  12.1111051  )
         7           Mn1 tau(   7) = (  -1.2927826   3.7319419  12.1111051  )
         8           Tc1 tau(   8) = (   0.0000000   1.4927767  12.1111051  )
         9           Mn1 tau(   9) = (   0.0000000   2.9855535  14.2222102  )
        10           Mn1 tau(  10) = (   1.2927826   0.7463884  14.2222102  )
        11           Mn1 tau(  11) = (   3.8783478   0.7463884  14.2222102  )
        12           Tc1 tau(  12) = (   2.5855652   2.9855535  14.2222102  )

     number of k points=    40  Fermi-Dirac smearing, width (Ry)=  0.0110
                       cart. coord. in units 2pi/alat
        k(    1) = (   0.0000000   0.0000000   0.0000000), wk =   0.0277778
        k(    2) = (   0.0000000   0.0372163   0.0000000), wk =   0.0555556
        k(    3) = (   0.0000000   0.0744325   0.0000000), wk =   0.0555556
        k(    4) = (   0.0000000  -0.1116488   0.0000000), wk =   0.0277778
        k(    5) = (   0.0322302   0.0186081   0.0000000), wk =   0.0555556
        k(    6) = (   0.0322302   0.0558244   0.0000000), wk =   0.0555556
        k(    7) = (   0.0322302   0.0930406   0.0000000), wk =   0.0555556
        k(    8) = (   0.0322302  -0.0930406   0.0000000), wk =   0.0555556
        k(    9) = (   0.0322302  -0.0558244   0.0000000), wk =   0.0555556
        k(   10) = (   0.0322302  -0.0186081   0.0000000), wk =   0.0555556
        k(   11) = (   0.0644604   0.0372163   0.0000000), wk =   0.0555556
        k(   12) = (   0.0644604   0.0744325   0.0000000), wk =   0.0555556
        k(   13) = (   0.0644604   0.1116488   0.0000000), wk =   0.0555556
        k(   14) = (   0.0644604  -0.0744325   0.0000000), wk =   0.0555556
        k(   15) = (   0.0644604  -0.0372163   0.0000000), wk =   0.0555556
        k(   16) = (   0.0644604   0.0000000   0.0000000), wk =   0.0555556
        k(   17) = (  -0.0966907  -0.0558244   0.0000000), wk =   0.0277778
        k(   18) = (  -0.0966907  -0.0186081   0.0000000), wk =   0.0555556
        k(   19) = (  -0.0966907   0.0186081   0.0000000), wk =   0.0555556
        k(   20) = (  -0.0966907  -0.1674731   0.0000000), wk =   0.0277778
        k(   21) = (   0.0000000   0.0000000   0.0000000), wk =   0.0277778
        k(   22) = (   0.0000000   0.0372163   0.0000000), wk =   0.0555556
        k(   23) = (   0.0000000   0.0744325   0.0000000), wk =   0.0555556
        k(   24) = (   0.0000000  -0.1116488   0.0000000), wk =   0.0277778
        k(   25) = (   0.0322302   0.0186081   0.0000000), wk =   0.0555556
        k(   26) = (   0.0322302   0.0558244   0.0000000), wk =   0.0555556
        k(   27) = (   0.0322302   0.0930406   0.0000000), wk =   0.0555556
        k(   28) = (   0.0322302  -0.0930406   0.0000000), wk =   0.0555556
        k(   29) = (   0.0322302  -0.0558244   0.0000000), wk =   0.0555556
        k(   30) = (   0.0322302  -0.0186081   0.0000000), wk =   0.0555556
        k(   31) = (   0.0644604   0.0372163   0.0000000), wk =   0.0555556
        k(   32) = (   0.0644604   0.0744325   0.0000000), wk =   0.0555556
        k(   33) = (   0.0644604   0.1116488   0.0000000), wk =   0.0555556
        k(   34) = (   0.0644604  -0.0744325   0.0000000), wk =   0.0555556
        k(   35) = (   0.0644604  -0.0372163   0.0000000), wk =   0.0555556
        k(   36) = (   0.0644604   0.0000000   0.0000000), wk =   0.0555556
        k(   37) = (  -0.0966907  -0.0558244   0.0000000), wk =   0.0277778
        k(   38) = (  -0.0966907  -0.0186081   0.0000000), wk =   0.0555556
        k(   39) = (  -0.0966907   0.0186081   0.0000000), wk =   0.0555556
        k(   40) = (  -0.0966907  -0.1674731   0.0000000), wk =   0.0277778

     Largest allocated arrays     est. size (Mb)     dimensions
     Largest temporary arrays     est. size (Mb)     dimensions

     Check: negative/imaginary core charge=   -0.000015    0.000000

     Initial potential from superposition of free atoms
     Check: negative starting charge=(component1):   -0.219402
     Check: negative starting charge=(component2):   -0.167778

     starting charge  172.49915, renormalised to  180.00000

     negative rho (up, down):  2.289E-01 1.751E-01

     *
     * You are using vdW-DF for exchange-correlation in this calculation.
     * Please cite the following three references that made this development
     * possible:
     *
     *   M. Dion, H. Rydberg, E. Schroder, D. C. Langreth, and
     *   B. I. Lundqvist, Phys. Rev. Lett. 92, 246401 (2004).
     *
     *   T. Thonhauser, V. R. Cooper, S. Li, A. Puzder, P. Hyldgaard, and
     *   D. C. Langreth, Phys. Rev. B 76, 125112 (2007).
     *
     *   G. Roman-Perez and J. M. Soler, Phys. Rev. Lett. 103, 096102 (2009).
     *
     *
     * If you are using vdW-DF2, please also cite:
     *
     *   K. Lee, E. D. Murray, L. Kong, B. I. Lundqvist, and
     *   D. C. Langreth, Phys. Rev. B 82, 081101(R) (2010).
     *
     *
     * If you are calculating the stress with vdW-DF, please also cite:
     *
     *   R. Sabatini, E. Kucukbenli, B. Kolb, T. Thonhauser, and
     *   S. de Gironcoli, J. Phys.: Condens. Matter 24, 424209 (2012).
     *

     Carrying out vdW-DF run using the following parameters:

     Nqs =      20    Nr_points =    1024   r_max =   100.000
     q_mesh =
               0.00001000     0.04494208     0.09755937     0.15916263
               0.23128650     0.31572767     0.41458969     0.53033537
               0.66584808     0.82450364     1.01025438     1.22772762
               1.48234092     1.78043706     2.12944203     2.53805004
               3.01644009     3.57652955     4.23227104     5.00000000

     Gradients computed in reciprocal space

     Adding external electric field

     Computed dipole along edir(3) :
        Dipole                0.0000 Ry au,          0.0000 Debye
        Dipole field          0.0000 Ry au

        Potential amp.       -0.0000 Ry
        Total length         44.6290 bohr

[...]

     Starting wfc are  156 randomized atomic wfcs

     Self-consistent Calculation

     iteration #  1     ecut=    36.75 Ry     beta=0.40
     Davidson diagonalization with overlap
     ethr =  1.00E-02,  avg # of iterations =  2.5

[...]

     Magnetic moment per site:
     atom:    1    charge:    5.7311    magn:    0.6255    constr:    0.0000
     atom:    2    charge:    5.7310    magn:    0.6254    constr:    0.0000
     atom:    3    charge:    5.7309    magn:    0.6254    constr:    0.0000
     atom:    4    charge:    2.3569    magn:    0.2128    constr:    0.0000
     atom:    5    charge:    5.7849    magn:    0.6284    constr:    0.0000
     atom:    6    charge:    5.7849    magn:    0.6283    constr:    0.0000
     atom:    7    charge:    5.7850    magn:    0.6283    constr:    0.0000
     atom:    8    charge:    2.3562    magn:    0.2113    constr:    0.0000
[...]
        k(    4) = (   0.0000000  -0.1116488   0.0000000), wk =   0.0277778
        k(    5) = (   0.0322302   0.0186081   0.0000000), wk =   0.0555556
        k(    6) = (   0.0322302   0.0558244   0.0000000), wk =   0.0555556
        k(    7) = (   0.0322302   0.0930406   0.0000000), wk =   0.0555556
        k(    8) = (   0.0322302  -0.0930406   0.0000000), wk =   0.0555556
        k(    9) = (   0.0322302  -0.0558244   0.0000000), wk =   0.0555556
        k(   10) = (   0.0322302  -0.0186081   0.0000000), wk =   0.0555556
        k(   11) = (   0.0644604   0.0372163   0.0000000), wk =   0.0555556
        k(   12) = (   0.0644604   0.0744325   0.0000000), wk =   0.0555556
        k(   13) = (   0.0644604   0.1116488   0.0000000), wk =   0.0555556
        k(   14) = (   0.0644604  -0.0744325   0.0000000), wk =   0.0555556
        k(   15) = (   0.0644604  -0.0372163   0.0000000), wk =   0.0555556
        k(   16) = (   0.0644604   0.0000000   0.0000000), wk =   0.0555556
        k(   17) = (  -0.0966907  -0.0558244   0.0000000), wk =   0.0277778
        k(   18) = (  -0.0966907  -0.0186081   0.0000000), wk =   0.0555556
        k(   19) = (  -0.0966907   0.0186081   0.0000000), wk =   0.0555556
        k(   20) = (  -0.0966907  -0.1674731   0.0000000), wk =   0.0277778
        k(   21) = (   0.0000000   0.0000000   0.0000000), wk =   0.0277778
        k(   22) = (   0.0000000   0.0372163   0.0000000), wk =   0.0555556
        k(   23) = (   0.0000000   0.0744325   0.0000000), wk =   0.0555556
        k(   24) = (   0.0000000  -0.1116488   0.0000000), wk =   0.0277778
        k(   25) = (   0.0322302   0.0186081   0.0000000), wk =   0.0555556
        k(   26) = (   0.0322302   0.0558244   0.0000000), wk =   0.0555556
        k(   27) = (   0.0322302   0.0930406   0.0000000), wk =   0.0555556
        k(   28) = (   0.0322302  -0.0930406   0.0000000), wk =   0.0555556
        k(   29) = (   0.0322302  -0.0558244   0.0000000), wk =   0.0555556
        k(   30) = (   0.0322302  -0.0186081   0.0000000), wk =   0.0555556
        k(   31) = (   0.0644604   0.0372163   0.0000000), wk =   0.0555556
        k(   32) = (   0.0644604   0.0744325   0.0000000), wk =   0.0555556
        k(   33) = (   0.0644604   0.1116488   0.0000000), wk =   0.0555556
        k(   34) = (   0.0644604  -0.0744325   0.0000000), wk =   0.0555556
        k(   35) = (   0.0644604  -0.0372163   0.0000000), wk =   0.0555556
        k(   36) = (   0.0644604   0.0000000   0.0000000), wk =   0.0555556
        k(   37) = (  -0.0966907  -0.0558244   0.0000000), wk =   0.0277778
        k(   38) = (  -0.0966907  -0.0186081   0.0000000), wk =   0.0555556
        k(   39) = (  -0.0966907   0.0186081   0.0000000), wk =   0.0555556
        k(   40) = (  -0.0966907  -0.1674731   0.0000000), wk =   0.0277778

     Largest allocated arrays     est. size (Mb)     dimensions
     Largest temporary arrays     est. size (Mb)     dimensions

     Check: negative/imaginary core charge=   -0.000015    0.000000

     Initial potential from superposition of free atoms
     Check: negative starting charge=(component1):   -0.218634
     Check: negative starting charge=(component2):   -0.167191

     starting charge  172.49915, renormalised to  180.00000

[...]

     *
     * You are using vdW-DF for exchange-correlation in this calculation.
     * Please cite the following three references that made this development
     * possible:
     *
     *   M. Dion, H. Rydberg, E. Schroder, D. C. Langreth, and
     *   B. I. Lundqvist, Phys. Rev. Lett. 92, 246401 (2004).
     *
     *   T. Thonhauser, V. R. Cooper, S. Li, A. Puzder, P. Hyldgaard, and
     *   D. C. Langreth, Phys. Rev. B 76, 125112 (2007).
     *
     *   G. Roman-Perez and J. M. Soler, Phys. Rev. Lett. 103, 096102 (2009).
     *
     *
     * If you are using vdW-DF2, please also cite:
     *
     *   K. Lee, E. D. Murray, L. Kong, B. I. Lundqvist, and
     *   D. C. Langreth, Phys. Rev. B 82, 081101(R) (2010).
     *
     *
     * If you are calculating the stress with vdW-DF, please also cite:
     *
     *   R. Sabatini, E. Kucukbenli, B. Kolb, T. Thonhauser, and
     *   S. de Gironcoli, J. Phys.: Condens. Matter 24, 424209 (2012).
     *

     Carrying out vdW-DF run using the following parameters:

     Nqs =      20    Nr_points =    1024   r_max =   100.000
     q_mesh =
               0.00001000     0.04494208     0.09755937     0.15916263
               0.23128650     0.31572767     0.41458969     0.53033537
               0.66584808     0.82450364     1.01025438     1.22772762
               1.48234092     1.78043706     2.12944203     2.53805004
               3.01644009     3.57652955     4.23227104     5.00000000

     Gradients computed in reciprocal space

[...]

     Starting wfc are  156 randomized atomic wfcs

     Self-consistent Calculation

[...]

     iteration # 48     ecut=    36.75 Ry     beta=0.40
     Davidson diagonalization with overlap
     c_bands:  1 eigenvalues not converged
     ethr =  5.72E-06,  avg # of iterations =  3.5

[...]

     total energy              =   -2434.78283482 Ry
     Harris-Foulkes estimate   =   -2434.78288450 Ry
     estimated scf accuracy    <       0.00066350 Ry

[...]

     iteration #125     ecut=    36.75 Ry     beta=0.40
     Davidson diagonalization with overlap
     ethr =  9.20E-08,  avg # of iterations =  4.8

[...]

     negative rho (up, down):  2.074E-01 1.984E-01

[...]

     Adding external electric field

     Computed dipole along edir(3) :
        Dipole               -0.0323 Ry au,         -0.0820 Debye
        Dipole field         -0.0001 Ry au

        Potential amp.        0.0096 Ry
        Total length         44.6290 bohr

     Magnetic moment per site:
     atom:    1    charge:    6.0014    magn:    1.0074    constr:    0.0000
     atom:    2    charge:    6.0020    magn:    1.0103    constr:    0.0000
     atom:    3    charge:    6.0005    magn:    1.0088    constr:    0.0000
     atom:    4    charge:    2.2714    magn:   -0.0525    constr:    0.0000
     atom:    5    charge:    5.9912    magn:   -0.6999    constr:    0.0000
     atom:    6    charge:    5.9928    magn:   -0.7234    constr:    0.0000
     atom:    7    charge:    5.9932    magn:   -0.7209    constr:    0.0000
     atom:    8    charge:    2.2759    magn:   -0.0245    constr:    0.0000
     atom:    9    charge:    5.9993    magn:    1.0042    constr:    0.0000
     atom:   10    charge:    5.9980    magn:    1.0032    constr:    0.0000
     atom:   11    charge:    5.9984    magn:    0.9984    constr:    0.0000
     atom:   12    charge:    2.2574    magn:   -0.0461    constr:    0.0000

     End of self-consistent calculation

 ------ SPIN UP ------------

[...]

 ------ SPIN DOWN ----------

[...]

          k = 0.0645 0.0000 0.0000 ( 14255 PWs)   bands (ev):

[...]

          k =-0.0967-0.1675 0.0000 ( 14198 PWs)   bands (ev):

   -78.7277 -78.7258 -78.6797 -76.1584 -76.1572 -76.1400 -76.1349 -76.1260
   -76.1239 -65.5743 -65.4216 -65.3895 -47.5511 -47.5230 -47.4891 -47.4678
   -47.4536 -47.4016 -47.3743 -47.3432 -47.2139 -45.0989 -45.0972 -45.0022
   -44.9937 -44.9927 -44.9906 -44.9719 -44.9651 -44.9393 -44.9361 -44.8367
   -44.8314 -44.8225 -44.8207 -44.8206 -44.8094 -44.7941 -44.7932 -37.6794
   -37.5885 -37.5765 -37.5144 -37.5004 -37.4848 -37.4706 -37.3839 -37.3506
    -3.8421  -3.7667  -2.6622  -2.5336  -2.4871  -2.1851  -2.0440  -1.9870
    -1.8174  -1.7586  -1.6776  -1.3637  -1.3408  -1.2020  -1.1018  -0.8721
    -0.7239  -0.6351  -0.6126  -0.5685  -0.5102  -0.0799   0.0509   0.1353
     0.3287   0.4003   0.5179   0.5195   0.7590   0.8175   0.8547   0.8593
     0.9384   1.0591   1.1904   1.2675   1.2762   1.3053   1.3772   1.4624
     1.5532   1.5745   1.6887   1.9201   2.2309   2.3043   2.4756   2.5669
     2.5892   2.6774   2.7988   2.9047

     the Fermi energy is     1.5471 ev

!    total energy              =   -2434.78283211 Ry
     Harris-Foulkes estimate   =   -2434.78288069 Ry
     estimated scf accuracy    <       0.00007349 Ry

     The total energy is the sum of the following terms:

     one-electron contribution =  -21932.91007441 Ry
     hartree contribution      =   10963.77409406 Ry
     xc contribution           =    -347.46293637 Ry
     ewald contribution        =    8881.91428238 Ry
     electric field correction =       0.00000345 Ry
     smearing contrib. (-TS)   =      -0.09820122 Ry

     total magnetization       =     8.70 Bohr mag/cell
     absolute magnetization    =    22.45 Bohr mag/cell

     convergence has been achieved in 125 iterations

 BEEF-vdW xc energy contributions
           1 :   -303.588900529028
           2 :    275.906026465316
           3 :   -228.778709300512
           4 :    174.804921529177
           5 :   -125.733839652453
           6 :    88.4418386435668
           7 :   -63.8489661555826
           8 :    48.5341963372223
           9 :   -37.7096855083694
          10 :    27.8055660889260
          11 :   -17.6565295434401
          12 :    8.10360186680197
          13 :  -0.723847761115394
          14 :   -3.42759141242203
          15 :    4.36810296800849
          16 :   -3.00633746056718
          17 :   0.561966293137232
          18 :    1.92856624748862
          19 :   -3.83949915074015
          20 :    4.91458987268066
          21 :   -5.14010616982699
          22 :    4.61746015629654
          23 :   -3.50240115868189
          24 :    1.95884668946837
          25 :  -0.130864295589674
          26 :   -1.88235401974225
          27 :    3.99122487393868
          28 :   -6.05052629369703
          29 :    7.80508803994172
          30 :   -8.93996981110689
          31 :   -28.0698726640416
          32 :   -20.1692104815022

     Forces acting on atoms (Ry/au):

     negative rho (up, down):  2.074E-01 1.984E-01
     atom    1 type  1   force =     0.00003751   -0.00488521   -0.00234402
     atom    2 type  1   force =    -0.00444542    0.00234500   -0.00246004
     atom    3 type  1   force =     0.00446550    0.00233457   -0.00223349
     atom    4 type  2   force =    -0.00001596    0.00005425    0.01787668
     atom    5 type  1   force =    -0.00010150   -0.00234326   -0.00506174
     atom    6 type  1   force =    -0.00188131    0.00116219   -0.00536739
     atom    7 type  1   force =     0.00193824    0.00131229   -0.00521822
     atom    8 type  2   force =    -0.00017068    0.00000776    0.00393091
     atom    9 type  1   force =    -0.00002422    0.00012134    0.00060819
     atom   10 type  1   force =     0.00074669    0.00011467    0.00025463
     atom   11 type  1   force =    -0.00065172    0.00022549    0.00017278
     atom   12 type  2   force =     0.00010288   -0.00044908   -0.00015828

     Total force =     0.022922     Total SCF correction =     0.057065
     SCF correction compared to forces is large: reduce conv_thr to get better values

     entering subroutine stress ...

     negative rho (up, down):  2.074E-01 1.984E-01
          total   stress  (Ry/bohr**3)                   (kbar)     P=   -2.31
  -0.00002168  -0.00000004   0.00000002         -3.19     -0.01      0.00
  -0.00000004  -0.00002162  -0.00000028         -0.01     -3.18     -0.04
   0.00000002  -0.00000028  -0.00000391          0.00     -0.04     -0.58

 !ASE

     Writing output data file calc.save

     General routines

     Parallel routines

   This run was terminated on:  16:18:24  27Dec2018

   JOB DONE.
Job  /afs/slac/g/suncat/bin/suncat-tsmpirun -x LD_LIBRARY_PATH -wdir /scratch/qe110093_8VVJr pw.x -in pw.inp

TID   HOST_NAME   COMMAND_LINE            STATUS            TERMINATION_TIME
00000 suncat0159 pw.x -in pw.inp   Done                     12/27/2018 16:18:24
00001 suncat0159 pw.x -in pw.inp   Done                     12/27/2018 16:18:24
00002 suncat0159 pw.x -in pw.inp   Done                     12/27/2018 16:18:24
00003 suncat0159 pw.x -in pw.inp   Done                     12/27/2018 16:18:24
00004 suncat0159 pw.x -in pw.inp   Done                     12/27/2018 16:18:24
00005 suncat0159 pw.x -in pw.inp   Done                     12/27/2018 16:18:24
00006 suncat0159 pw.x -in pw.inp   Done                     12/27/2018 16:18:24
00007 suncat0159 pw.x -in pw.inp   Done                     12/27/2018 16:18:24
00008 suncat0156 pw.x -in pw.inp   Done                     12/27/2018 16:18:24
00009 suncat0156 pw.x -in pw.inp   Done                     12/27/2018 16:18:24
00010 suncat0156 pw.x -in pw.inp   Done                     12/27/2018 16:18:24
00011 suncat0156 pw.x -in pw.inp   Done                     12/27/2018 16:18:24
00012 suncat0156 pw.x -in pw.inp   Done                     12/27/2018 16:18:24
00013 suncat0156 pw.x -in pw.inp   Done                     12/27/2018 16:18:24
00014 suncat0156 pw.x -in pw.inp   Done                     12/27/2018 16:18:24
00015 suncat0156 pw.x -in pw.inp   Done                     12/27/2018 16:18:24
00016 suncat0153 pw.x -in pw.inp   Done                     12/27/2018 16:18:24
00017 suncat0153 pw.x -in pw.inp   Done                     12/27/2018 16:18:24
00018 suncat0153 pw.x -in pw.inp   Done                     12/27/2018 16:18:24
00019 suncat0153 pw.x -in pw.inp   Done                     12/27/2018 16:18:24
00020 suncat0153 pw.x -in pw.inp   Done                     12/27/2018 16:18:24
00021 suncat0153 pw.x -in pw.inp   Done                     12/27/2018 16:18:24
00022 suncat0153 pw.x -in pw.inp   Done                     12/27/2018 16:18:24
00023 suncat0153 pw.x -in pw.inp   Done                     12/27/2018 16:18:24
00024 suncat0149 pw.x -in pw.inp   Done                     12/27/2018 16:18:24
00025 suncat0149 pw.x -in pw.inp   Done                     12/27/2018 16:18:24
00026 suncat0149 pw.x -in pw.inp   Done                     12/27/2018 16:18:24
00027 suncat0149 pw.x -in pw.inp   Done                     12/27/2018 16:18:24
00028 suncat0149 pw.x -in pw.inp   Done                     12/27/2018 16:18:24
00029 suncat0149 pw.x -in pw.inp   Done                     12/27/2018 16:18:24
00030 suncat0149 pw.x -in pw.inp   Done                     12/27/2018 16:18:24
00031 suncat0149 pw.x -in pw.inp   Done                     12/27/2018 16:18:24
00032 suncat0148 pw.x -in pw.inp   Done                     12/27/2018 16:18:24
00033 suncat0148 pw.x -in pw.inp   Done                     12/27/2018 16:18:24
00034 suncat0148 pw.x -in pw.inp   Done                     12/27/2018 16:18:24
00035 suncat0148 pw.x -in pw.inp   Done                     12/27/2018 16:18:24
00036 suncat0148 pw.x -in pw.inp   Done                     12/27/2018 16:18:24
00037 suncat0148 pw.x -in pw.inp   Done                     12/27/2018 16:18:24
00038 suncat0148 pw.x -in pw.inp   Done                     12/27/2018 16:18:24
00039 suncat0148 pw.x -in pw.inp   Done                     12/27/2018 16:18:24
00040 suncat0137 pw.x -in pw.inp   Done                     12/27/2018 16:18:24
00041 suncat0137 pw.x -in pw.inp   Done                     12/27/2018 16:18:24
00042 suncat0137 pw.x -in pw.inp   Done                     12/27/2018 16:18:24
00043 suncat0137 pw.x -in pw.inp   Done                     12/27/2018 16:18:24
00044 suncat0137 pw.x -in pw.inp   Done                     12/27/2018 16:18:24
00045 suncat0137 pw.x -in pw.inp   Done                     12/27/2018 16:18:24
00046 suncat0137 pw.x -in pw.inp   Done                     12/27/2018 16:18:24
00047 suncat0137 pw.x -in pw.inp   Done                     12/27/2018 16:18:24
00048 suncat0114 pw.x -in pw.inp   Done                     12/27/2018 16:18:24
00049 suncat0114 pw.x -in pw.inp   Done                     12/27/2018 16:18:24
00050 suncat0114 pw.x -in pw.inp   Done                     12/27/2018 16:18:24
00051 suncat0114 pw.x -in pw.inp   Done                     12/27/2018 16:18:24
00052 suncat0114 pw.x -in pw.inp   Done                     12/27/2018 16:18:24
00053 suncat0114 pw.x -in pw.inp   Done                     12/27/2018 16:18:24
00054 suncat0114 pw.x -in pw.inp   Done                     12/27/2018 16:18:24
00055 suncat0114 pw.x -in pw.inp   Done                     12/27/2018 16:18:24
00056 suncat0267 pw.x -in pw.inp   Done                     12/27/2018 16:18:24
00057 suncat0267 pw.x -in pw.inp   Done                     12/27/2018 16:18:24
00058 suncat0267 pw.x -in pw.inp   Done                     12/27/2018 16:18:24
00059 suncat0267 pw.x -in pw.inp   Done                     12/27/2018 16:18:24
00060 suncat0267 pw.x -in pw.inp   Done                     12/27/2018 16:18:24
00061 suncat0267 pw.x -in pw.inp   Done                     12/27/2018 16:18:24
00062 suncat0267 pw.x -in pw.inp   Done                     12/27/2018 16:18:24
00063 suncat0267 pw.x -in pw.inp   Done                     12/27/2018 16:18:24