     Program PWSCF v.5.1rc2 (svn rev. 11289) starts on 30Dec2018 at  8:46:49

     Current dimensions of program PWSCF are:
     Max number of different atomic species (ntypx) = 10
     Max number of k-points (npk) =  40000
     Max angular momentum in pseudopotentials (lmaxx) =  3
     Presently stress not available with electric field

     IMPORTANT: XC functional enforced from input :
     Exchange-correlation      = BEEF-VDW ( 1  4 27 13 2)
     Any further DFT definition will be discarded
     Please, verify this is what you really want

     Subspace diagonalization in iterative solution of the eigenvalue problem:
     a serial algorithm will be used

     bravais-lattice index     =            0
     lattice parameter (alat)  =       1.8897  a.u.
     unit-cell volume          =    6431.7375 (a.u.)^3
     number of atoms/cell      =           12
     number of atomic types    =            2
     number of electrons       =       174.00
     number of Kohn-Sham states=          117
     kinetic-energy cutoff     =      36.7493  Ry
     charge density cutoff     =     367.4932  Ry
     convergence threshold     =      1.0E-06
     mixing beta               =       0.1000
     number of iterations used =           10  plain     mixing
     Exchange-correlation      = BEEF-VDW ( 1  4 27 13 2)
     nstep                     =           50

     celldm(1)=   1.889726  celldm(2)=   0.000000  celldm(3)=   0.000000
     celldm(4)=   0.000000  celldm(5)=   0.000000  celldm(6)=   0.000000

     crystal axes: (cart. coord. in units of alat)
               a(1) = (   6.585381   0.000000   0.000000 )
               a(2) = (  -3.292690   5.703107   0.000000 )
               a(3) = (   0.000000   0.000000  25.376941 )

     reciprocal axes: (cart. coord. in units 2 pi/alat)
               b(1) = (  0.151852  0.087672  0.000000 )
               b(2) = (  0.000000  0.175343  0.000000 )
               b(3) = (  0.000000  0.000000  0.039406 )

     PseudoPot. # 1 for In read from file:
     /afs/slac.stanford.edu/u/if/mamunm/psp/gbrv1.5pbe/In.UPF
     MD5 check sum: 90777abd96fbb83f2e67db2a40c566b9
     Pseudo is Ultrasoft + core correction, Zval = 13.0
     Generated by new atomic code, or converted to UPF format
     Using radial grid of  889 points,  6 beta functions with:
                l(1) =   0
                l(2) =   0
                l(3) =   1
                l(4) =   1
                l(5) =   2
                l(6) =   2
     Q(r) pseudized with  6 coefficients,  rinner =    1.400   1.400   1.400
                                                       1.400   1.400

     PseudoPot. # 2 for Ag read from file:
     /afs/slac.stanford.edu/u/if/mamunm/psp/gbrv1.5pbe/Ag.UPF
     MD5 check sum: d66d668201baa78d5eb5b04ef7011058
     Pseudo is Ultrasoft + core correction, Zval = 19.0
     Generated by new atomic code, or converted to UPF format
     Using radial grid of  887 points,  6 beta functions with:
                l(1) =   0
                l(2) =   0
                l(3) =   1
                l(4) =   1
                l(5) =   2
                l(6) =   2
     Q(r) pseudized with  6 coefficients,  rinner =    1.300   1.300   1.300
                                                       1.300   1.300

     vdW kernel table read from file vdW_kernel_table
     MD5 check sum: 095c7af220d748ca6e76c0b4c6cfb241

     atomic species   valence    mass     pseudopotential
        In1           13.00   114.81800     In( 1.00)
        Ag1           19.00   107.86820     Ag( 1.00)

     No symmetry found

   Cartesian axes

     site n.     atom                  positions (alat units)
         1           In1 tau(   1) = (   0.0000000   0.0000000  10.0000000  )
         2           In1 tau(   2) = (  -1.6463452   2.8515536  10.0000000  )
         3           In1 tau(   3) = (   1.6463452   2.8515536  10.0000000  )
         4           Ag1 tau(   4) = (   3.2926905   0.0000000  10.0000000  )
         5           In1 tau(   5) = (   3.2926905   1.9010357  12.6884705  )
         6           In1 tau(   6) = (   1.6463452   4.7525893  12.6884705  )
         7           In1 tau(   7) = (  -1.6463452   4.7525893  12.6884705  )
         8           Ag1 tau(   8) = (   0.0000000   1.9010357  12.6884705  )
         9           In1 tau(   9) = (   0.0000000   3.8020715  15.3769410  )
        10           In1 tau(  10) = (   1.6463452   0.9505179  15.3769410  )
        11           In1 tau(  11) = (   4.9390357   0.9505179  15.3769410  )
        12           Ag1 tau(  12) = (   3.2926905   3.8020715  15.3769410  )

     number of k points=    20  Fermi-Dirac smearing, width (Ry)=  0.0110
                       cart. coord. in units 2pi/alat
        k(    1) = (   0.0000000   0.0000000   0.0000000), wk =   0.0555556
        k(    2) = (   0.0000000   0.0292238   0.0000000), wk =   0.1111111
        k(    3) = (   0.0000000   0.0584477   0.0000000), wk =   0.1111111
        k(    4) = (   0.0000000  -0.0876715   0.0000000), wk =   0.0555556
        k(    5) = (   0.0253086   0.0146119   0.0000000), wk =   0.1111111
        k(    6) = (   0.0253086   0.0438358   0.0000000), wk =   0.1111111
        k(    7) = (   0.0253086   0.0730596   0.0000000), wk =   0.1111111
        k(    8) = (   0.0253086  -0.0730596   0.0000000), wk =   0.1111111
        k(    9) = (   0.0253086  -0.0438358   0.0000000), wk =   0.1111111
        k(   10) = (   0.0253086  -0.0146119   0.0000000), wk =   0.1111111
        k(   11) = (   0.0506172   0.0292238   0.0000000), wk =   0.1111111
        k(   12) = (   0.0506172   0.0584477   0.0000000), wk =   0.1111111
        k(   13) = (   0.0506172   0.0876715   0.0000000), wk =   0.1111111
        k(   14) = (   0.0506172  -0.0584477   0.0000000), wk =   0.1111111
        k(   15) = (   0.0506172  -0.0292238   0.0000000), wk =   0.1111111
        k(   16) = (   0.0506172   0.0000000   0.0000000), wk =   0.1111111
        k(   17) = (  -0.0759258  -0.0438358   0.0000000), wk =   0.0555556
        k(   18) = (  -0.0759258  -0.0146119   0.0000000), wk =   0.1111111
        k(   19) = (  -0.0759258   0.0146119   0.0000000), wk =   0.1111111
        k(   20) = (  -0.0759258  -0.1315073   0.0000000), wk =   0.0555556

     Largest allocated arrays     est. size (Mb)     dimensions
     Largest temporary arrays     est. size (Mb)     dimensions

     Initial potential from superposition of free atoms
     Check: negative starting charge=   -0.001372

     starting charge  158.99985, renormalised to  174.00000

     negative rho (up, down):  1.501E-03 0.000E+00

     *
     * You are using vdW-DF for exchange-correlation in this calculation.
     * Please cite the following three references that made this development
     * possible:
     *
     *   M. Dion, H. Rydberg, E. Schroder, D. C. Langreth, and
     *   B. I. Lundqvist, Phys. Rev. Lett. 92, 246401 (2004).
     *
     *   T. Thonhauser, V. R. Cooper, S. Li, A. Puzder, P. Hyldgaard, and
     *   D. C. Langreth, Phys. Rev. B 76, 125112 (2007).
     *
     *   G. Roman-Perez and J. M. Soler, Phys. Rev. Lett. 103, 096102 (2009).
     *
     *
     * If you are using vdW-DF2, please also cite:
     *
     *   K. Lee, E. D. Murray, L. Kong, B. I. Lundqvist, and
     *   D. C. Langreth, Phys. Rev. B 82, 081101(R) (2010).
     *
     *
     * If you are calculating the stress with vdW-DF, please also cite:
     *
     *   R. Sabatini, E. Kucukbenli, B. Kolb, T. Thonhauser, and
     *   S. de Gironcoli, J. Phys.: Condens. Matter 24, 424209 (2012).
     *

     Carrying out vdW-DF run using the following parameters:

     Nqs =      20    Nr_points =    1024   r_max =   100.000
     q_mesh =
               0.00001000     0.04494208     0.09755937     0.15916263
               0.23128650     0.31572767     0.41458969     0.53033537
               0.66584808     0.82450364     1.01025438     1.22772762
               1.48234092     1.78043706     2.12944203     2.53805004
               3.01644009     3.57652955     4.23227104     5.00000000

     Gradients computed in reciprocal space

     Adding external electric field

     Computed dipole along edir(3) :
        Dipole                0.0000 Ry au,          0.0000 Debye
        Dipole field          0.0000 Ry au

        Potential amp.       -0.0000 Ry
        Total length         46.7566 bohr

     Starting wfc are  120 randomized atomic wfcs

     Self-consistent Calculation

     iteration #  1     ecut=    36.75 Ry     beta=0.10
     Davidson diagonalization with overlap
     ethr =  1.00E-02,  avg # of iterations =  8.2

[...]

     total energy              =   -2081.71276138 Ry
     Harris-Foulkes estimate   =   -2135.36787639 Ry
     estimated scf accuracy    <     306.50520727 Ry

[...]

     End of self-consistent calculation

          k = 0.0000 0.0000 0.0000 ( 24093 PWs)   bands (ev):

   -91.6743 -91.4742 -91.4741 -55.1752 -55.1602 -55.1602 -54.9789 -54.9789
   -54.9788 -54.9788 -54.9566 -54.9564 -14.5700 -14.5431 -14.5430 -14.5287
   -14.5256 -14.4958 -14.4712 -14.4712 -14.4490 -14.4489 -14.4379 -14.4206
   -14.4206 -14.4129 -14.4058 -14.4057 -14.3827 -14.3595 -14.3476 -14.3476
   -14.3017 -14.2932 -14.2712 -14.2711 -14.2624 -14.2624 -14.2616 -14.2445
   -14.2444 -14.2435 -14.2435 -14.2392 -14.2391 -14.2166 -14.2164 -14.1850
   -14.1850 -14.1519 -14.1519 -14.1476 -14.1117 -14.1117 -14.0992 -14.0868
   -14.0772  -8.0123  -6.7493  -5.2334  -4.6606  -4.6606  -4.2028  -4.2028
    -4.1812  -4.1812  -3.8839  -3.8435  -3.8435  -3.7812  -3.7761  -3.7761
    -3.7050  -3.7050  -3.2967  -2.5996  -2.5996  -2.5889  -2.5889  -2.3072
    -1.7522  -1.4812  -1.4812  -1.2803  -1.1011  -1.1011  -1.0057   0.0565
     0.3165   0.3165   0.6850   0.6850   1.5621   1.6614   2.2816   3.6152
     3.7540   3.7541   3.7956   3.7956   4.1046   4.5743   4.6422   5.1873
     5.2171   5.5650   6.0855   6.0856   6.6006   6.6007   6.6202   6.7001
     6.9556   7.1106   7.2343   7.2713   7.2717

[...]

          k =-0.0759-0.0438 0.0000 ( 24236 PWs)   bands (ev):

[...]

     the Fermi energy is     0.5459 ev

!    total energy              =   -2102.91847591 Ry
     Harris-Foulkes estimate   =   -2102.91846884 Ry
     estimated scf accuracy    <       0.00000067 Ry

     The total energy is the sum of the following terms:

     one-electron contribution =  -11864.57688067 Ry
     hartree contribution      =    5987.51822040 Ry
     xc contribution           =    -442.17278195 Ry
     ewald contribution        =    4216.34377010 Ry
     electric field correction =       0.00000000 Ry
     smearing contrib. (-TS)   =      -0.03080379 Ry

     convergence has been achieved in  17 iterations

 BEEF-vdW xc energy contributions
           1 :   -386.462031873558
           2 :    352.420768639290
           3 :   -295.177086247886
           4 :    231.246856332467
           5 :   -175.629688922264
           6 :    136.273050625452
           7 :   -112.599002891236
           8 :    98.1737418551245
           9 :   -85.5292534079737
          10 :    70.3023248473556
          11 :   -52.6715045183191
          12 :    35.8843614124317
          13 :   -23.3497904426112
          14 :    16.3101177842917
[...]
     MD5 check sum: 90777abd96fbb83f2e67db2a40c566b9
     Pseudo is Ultrasoft + core correction, Zval = 13.0
     Generated by new atomic code, or converted to UPF format
     Using radial grid of  889 points,  6 beta functions with:
                l(1) =   0
                l(2) =   0
                l(3) =   1
                l(4) =   1
                l(5) =   2
                l(6) =   2
     Q(r) pseudized with  6 coefficients,  rinner =    1.400   1.400   1.400
                                                       1.400   1.400

     PseudoPot. # 2 for Ag read from file:
     /afs/slac.stanford.edu/u/if/mamunm/psp/gbrv1.5pbe/Ag.UPF
     MD5 check sum: d66d668201baa78d5eb5b04ef7011058
     Pseudo is Ultrasoft + core correction, Zval = 19.0
     Generated by new atomic code, or converted to UPF format
     Using radial grid of  887 points,  6 beta functions with:
                l(1) =   0
                l(2) =   0
                l(3) =   1
                l(4) =   1
                l(5) =   2
                l(6) =   2
     Q(r) pseudized with  6 coefficients,  rinner =    1.300   1.300   1.300
                                                       1.300   1.300

     vdW kernel table read from file vdW_kernel_table
     MD5 check sum: 095c7af220d748ca6e76c0b4c6cfb241

     atomic species   valence    mass     pseudopotential
        In1           13.00   114.81800     In( 1.00)
        Ag1           19.00   107.86820     Ag( 1.00)

     No symmetry found

   Cartesian axes

     site n.     atom                  positions (alat units)
         1           In1 tau(   1) = (   0.0000000   0.0000000  10.0000000  )
         2           In1 tau(   2) = (  -1.6463452   2.8515536  10.0000000  )
         3           In1 tau(   3) = (   1.6463452   2.8515536  10.0000000  )
         4           Ag1 tau(   4) = (   3.2926905   0.0000000  10.0000000  )
         5           In1 tau(   5) = (   3.2926905   1.9010357  12.6884705  )
         6           In1 tau(   6) = (   1.6463452   4.7525893  12.6884705  )
         7           In1 tau(   7) = (  -1.6463452   4.7525893  12.6884705  )
         8           Ag1 tau(   8) = (   0.0000000   1.9010357  12.6884705  )
         9           In1 tau(   9) = (  -0.0000007   3.7790293  15.4669691  )
        10           In1 tau(  10) = (   1.6257765   0.9617206  15.4670099  )
        11           In1 tau(  11) = (   4.9596024   0.9617258  15.4670063  )
        12           Ag1 tau(  12) = (   3.2926899   3.8020407  15.2110043  )

     number of k points=    20  Fermi-Dirac smearing, width (Ry)=  0.0110
                       cart. coord. in units 2pi/alat
        k(    1) = (   0.0000000   0.0000000   0.0000000), wk =   0.0555556
        k(    2) = (   0.0000000   0.0292238   0.0000000), wk =   0.1111111
        k(    3) = (   0.0000000   0.0584477   0.0000000), wk =   0.1111111
        k(    4) = (   0.0000000  -0.0876715   0.0000000), wk =   0.0555556
        k(    5) = (   0.0253086   0.0146119   0.0000000), wk =   0.1111111
        k(    6) = (   0.0253086   0.0438358   0.0000000), wk =   0.1111111
        k(    7) = (   0.0253086   0.0730596   0.0000000), wk =   0.1111111
        k(    8) = (   0.0253086  -0.0730596   0.0000000), wk =   0.1111111
        k(    9) = (   0.0253086  -0.0438358   0.0000000), wk =   0.1111111
        k(   10) = (   0.0253086  -0.0146119   0.0000000), wk =   0.1111111
        k(   11) = (   0.0506172   0.0292238   0.0000000), wk =   0.1111111
        k(   12) = (   0.0506172   0.0584477   0.0000000), wk =   0.1111111
        k(   13) = (   0.0506172   0.0876715   0.0000000), wk =   0.1111111
        k(   14) = (   0.0506172  -0.0584477   0.0000000), wk =   0.1111111
        k(   15) = (   0.0506172  -0.0292238   0.0000000), wk =   0.1111111
        k(   16) = (   0.0506172   0.0000000   0.0000000), wk =   0.1111111
        k(   17) = (  -0.0759258  -0.0438358   0.0000000), wk =   0.0555556
        k(   18) = (  -0.0759258  -0.0146119   0.0000000), wk =   0.1111111
        k(   19) = (  -0.0759258   0.0146119   0.0000000), wk =   0.1111111
        k(   20) = (  -0.0759258  -0.1315073   0.0000000), wk =   0.0555556

     Largest allocated arrays     est. size (Mb)     dimensions
     Largest temporary arrays     est. size (Mb)     dimensions

     Initial potential from superposition of free atoms
     Check: negative starting charge=   -0.001404

     starting charge  158.99985, renormalised to  174.00000

[...]

     *
     * You are using vdW-DF for exchange-correlation in this calculation.
     * Please cite the following three references that made this development
     * possible:
     *
     *   M. Dion, H. Rydberg, E. Schroder, D. C. Langreth, and
     *   B. I. Lundqvist, Phys. Rev. Lett. 92, 246401 (2004).
     *
     *   T. Thonhauser, V. R. Cooper, S. Li, A. Puzder, P. Hyldgaard, and
     *   D. C. Langreth, Phys. Rev. B 76, 125112 (2007).
     *
     *   G. Roman-Perez and J. M. Soler, Phys. Rev. Lett. 103, 096102 (2009).
     *
     *
     * If you are using vdW-DF2, please also cite:
     *
     *   K. Lee, E. D. Murray, L. Kong, B. I. Lundqvist, and
     *   D. C. Langreth, Phys. Rev. B 82, 081101(R) (2010).
     *
     *
     * If you are calculating the stress with vdW-DF, please also cite:
     *
     *   R. Sabatini, E. Kucukbenli, B. Kolb, T. Thonhauser, and
     *   S. de Gironcoli, J. Phys.: Condens. Matter 24, 424209 (2012).
     *

     Carrying out vdW-DF run using the following parameters:

     Nqs =      20    Nr_points =    1024   r_max =   100.000
     q_mesh =
               0.00001000     0.04494208     0.09755937     0.15916263
               0.23128650     0.31572767     0.41458969     0.53033537
               0.66584808     0.82450364     1.01025438     1.22772762
               1.48234092     1.78043706     2.12944203     2.53805004
               3.01644009     3.57652955     4.23227104     5.00000000

     Gradients computed in reciprocal space

[...]

     Starting wfc are  120 randomized atomic wfcs

     Self-consistent Calculation

[...]

     total energy              =   -2102.92414619 Ry
     Harris-Foulkes estimate   =   -2102.92414501 Ry
     estimated scf accuracy    <       0.00000161 Ry

     iteration # 18     ecut=    36.75 Ry     beta=0.10
     Davidson diagonalization with overlap
     ethr =  9.26E-10,  avg # of iterations =  2.5

[...]

     negative rho (up, down):  1.491E-03 0.000E+00

     Adding external electric field

     Computed dipole along edir(3) :
        Dipole                0.0223 Ry au,          0.0566 Debye
        Dipole field          0.0000 Ry au

        Potential amp.       -0.0041 Ry
        Total length         46.7566 bohr

     End of self-consistent calculation

[...]

          k = 0.0506 0.0000 0.0000 ( 24198 PWs)   bands (ev):

[...]

          k =-0.0759-0.1315 0.0000 ( 24236 PWs)   bands (ev):

   -91.6170 -91.5490 -91.4389 -55.1164 -55.1035 -55.1034 -55.0482 -55.0481
   -55.0395 -54.9442 -54.9441 -54.9211 -14.5034 -14.4708 -14.4465 -14.4379
   -14.4295 -14.3994 -14.3967 -14.3905 -14.3782 -14.3735 -14.3619 -14.3597
   -14.3422 -14.3336 -14.3274 -14.3207 -14.3181 -14.3121 -14.3108 -14.2999
   -14.2960 -14.2917 -14.2910 -14.2834 -14.2799 -14.2785 -14.2599 -14.2579
   -14.2576 -14.2510 -14.2485 -14.2409 -14.2290 -14.2215 -14.2137 -14.2100
   -14.2083 -14.2071 -14.1957 -14.1911 -14.1755 -14.1695 -14.1329 -14.1152
   -14.0770  -6.8938  -6.6448  -5.5735  -5.5321  -4.8247  -4.5680  -4.3360
    -4.2064  -4.0606  -4.0034  -3.9473  -3.9190  -3.9021  -3.8446  -3.8409
    -3.8343  -3.7536  -3.7373  -3.5929  -3.5774  -3.0403  -2.9674  -2.8140
    -2.1845  -1.5783  -1.3838  -0.3015   0.3576   0.5589   1.2423   1.3502
     1.5262   1.5977   1.9899   2.5448   2.5978   2.6002   2.9559   3.0373
     3.4209   3.4922   3.8243   3.8971   4.1707   4.6292   4.6836   4.7515
     4.8708   4.9770   5.0958   5.2629   5.3734   5.4729   5.6505   5.9078
     6.0397   6.0663   6.3115   6.3869   6.6802

     the Fermi energy is     0.5644 ev

!    total energy              =   -2102.92415165 Ry
     Harris-Foulkes estimate   =   -2102.92414664 Ry
     estimated scf accuracy    <       0.00000062 Ry

     The total energy is the sum of the following terms:

     one-electron contribution =  -11851.23214915 Ry
     hartree contribution      =    5980.94842929 Ry
     xc contribution           =    -442.15212790 Ry
     ewald contribution        =    4209.54253496 Ry
     electric field correction =       0.00000097 Ry
     smearing contrib. (-TS)   =      -0.03083982 Ry

     convergence has been achieved in  18 iterations

 BEEF-vdW xc energy contributions
           1 :   -386.498817187276
           2 :    352.445694066231
           3 :   -295.185580104705
           4 :    231.245865579175
           5 :   -175.635573380621
           6 :    136.301916635206
           7 :   -112.655474148771
           8 :    98.2469098224916
           9 :   -85.5999741872686
          10 :    70.3564392596139
          11 :   -52.7088729318585
          12 :    35.9173374494572
          13 :   -23.3931097565369
          14 :    16.3704460252353
          15 :   -13.4486598334568
          16 :    11.8890407221114
          17 :   -9.49174916609343
          18 :    5.74314769840623
          19 :   -1.65347234055798
          20 :   -1.34259037432935
          21 :    2.50947267861153
          22 :   -2.21250947730113
          23 :    1.47652505215478
          24 :   -1.18067369374512
          25 :    1.52434464177225
          26 :   -2.08734038210741
          27 :    2.31672029555273
          28 :   -1.99649561424013
          29 :    1.34911183299118
          30 :  -0.762950810257792
          31 :   -35.7124882327466
          32 :   -25.8899041602068

     Forces acting on atoms (Ry/au):

     negative rho (up, down):  1.491E-03 0.000E+00
     atom    1 type  1   force =    -0.00000026    0.00605983   -0.00534435
     atom    2 type  1   force =     0.00524304   -0.00300491   -0.00534105
     atom    3 type  1   force =    -0.00524294   -0.00300473   -0.00534094
     atom    4 type  2   force =     0.00000003    0.00001742    0.00710257
     atom    5 type  1   force =    -0.00000016   -0.00349099    0.00267487
     atom    6 type  1   force =    -0.00302885    0.00176502    0.00264666
     atom    7 type  1   force =     0.00302887    0.00176505    0.00264713
     atom    8 type  2   force =    -0.00000000    0.00001574    0.00236125
     atom    9 type  1   force =     0.00000009   -0.00060378    0.00016922
     atom   10 type  1   force =    -0.00039683    0.00024168    0.00016466
     atom   11 type  1   force =     0.00039693    0.00024179    0.00016528
     atom   12 type  2   force =     0.00000009   -0.00000212   -0.00190530

     Total force =     0.017715     Total SCF correction =     0.004652
     SCF correction compared to forces is large: reduce conv_thr to get better values

     entering subroutine stress ...

     negative rho (up, down):  1.491E-03 0.000E+00
          total   stress  (Ry/bohr**3)                   (kbar)     P=   -3.63
  -0.00003752  -0.00000000  -0.00000000         -5.52     -0.00     -0.00
  -0.00000000  -0.00003751   0.00000000         -0.00     -5.52      0.00
  -0.00000000   0.00000000   0.00000100         -0.00      0.00      0.15

 !ASE

     Writing output data file calc.save

     General routines

     Parallel routines

   This run was terminated on:  11: 9:34  30Dec2018

   JOB DONE.
Job  /afs/slac/g/suncat/bin/suncat-tsmpirun -x LD_LIBRARY_PATH -wdir /scratch/qe648491_QapQP pw.x -in pw.inp

TID   HOST_NAME   COMMAND_LINE            STATUS            TERMINATION_TIME
00000 suncat0198 pw.x -in pw.inp   Done                     12/30/2018 11:09:34
00001 suncat0198 pw.x -in pw.inp   Done                     12/30/2018 11:09:34
00002 suncat0198 pw.x -in pw.inp   Done                     12/30/2018 11:09:34
00003 suncat0198 pw.x -in pw.inp   Done                     12/30/2018 11:09:34
00004 suncat0198 pw.x -in pw.inp   Done                     12/30/2018 11:09:34
00005 suncat0198 pw.x -in pw.inp   Done                     12/30/2018 11:09:34
00006 suncat0198 pw.x -in pw.inp   Done                     12/30/2018 11:09:34
00007 suncat0198 pw.x -in pw.inp   Done                     12/30/2018 11:09:34
00008 suncat0194 pw.x -in pw.inp   Done                     12/30/2018 11:09:34
00009 suncat0194 pw.x -in pw.inp   Done                     12/30/2018 11:09:34
00010 suncat0194 pw.x -in pw.inp   Done                     12/30/2018 11:09:34
00011 suncat0194 pw.x -in pw.inp   Done                     12/30/2018 11:09:34
00012 suncat0194 pw.x -in pw.inp   Done                     12/30/2018 11:09:34
00013 suncat0194 pw.x -in pw.inp   Done                     12/30/2018 11:09:34
00014 suncat0194 pw.x -in pw.inp   Done                     12/30/2018 11:09:34
00015 suncat0194 pw.x -in pw.inp   Done                     12/30/2018 11:09:34
00016 suncat0193 pw.x -in pw.inp   Done                     12/30/2018 11:09:34
00017 suncat0193 pw.x -in pw.inp   Done                     12/30/2018 11:09:34
00018 suncat0193 pw.x -in pw.inp   Done                     12/30/2018 11:09:34
00019 suncat0193 pw.x -in pw.inp   Done                     12/30/2018 11:09:34
00020 suncat0193 pw.x -in pw.inp   Done                     12/30/2018 11:09:34
00021 suncat0193 pw.x -in pw.inp   Done                     12/30/2018 11:09:34
00022 suncat0193 pw.x -in pw.inp   Done                     12/30/2018 11:09:34
00023 suncat0193 pw.x -in pw.inp   Done                     12/30/2018 11:09:34
00024 suncat0192 pw.x -in pw.inp   Done                     12/30/2018 11:09:34
00025 suncat0192 pw.x -in pw.inp   Done                     12/30/2018 11:09:34
00026 suncat0192 pw.x -in pw.inp   Done                     12/30/2018 11:09:34
00027 suncat0192 pw.x -in pw.inp   Done                     12/30/2018 11:09:34
00028 suncat0192 pw.x -in pw.inp   Done                     12/30/2018 11:09:34
00029 suncat0192 pw.x -in pw.inp   Done                     12/30/2018 11:09:34
00030 suncat0192 pw.x -in pw.inp   Done                     12/30/2018 11:09:34
00031 suncat0192 pw.x -in pw.inp   Done                     12/30/2018 11:09:34
00032 suncat0188 pw.x -in pw.inp   Done                     12/30/2018 11:09:34
00033 suncat0188 pw.x -in pw.inp   Done                     12/30/2018 11:09:34
00034 suncat0188 pw.x -in pw.inp   Done                     12/30/2018 11:09:34
00035 suncat0188 pw.x -in pw.inp   Done                     12/30/2018 11:09:34
00036 suncat0188 pw.x -in pw.inp   Done                     12/30/2018 11:09:34
00037 suncat0188 pw.x -in pw.inp   Done                     12/30/2018 11:09:34
00038 suncat0188 pw.x -in pw.inp   Done                     12/30/2018 11:09:34
00039 suncat0188 pw.x -in pw.inp   Done                     12/30/2018 11:09:34
00040 suncat0129 pw.x -in pw.inp   Done                     12/30/2018 11:09:34
00041 suncat0129 pw.x -in pw.inp   Done                     12/30/2018 11:09:34
00042 suncat0129 pw.x -in pw.inp   Done                     12/30/2018 11:09:34
00043 suncat0129 pw.x -in pw.inp   Done                     12/30/2018 11:09:34
00044 suncat0129 pw.x -in pw.inp   Done                     12/30/2018 11:09:34
00045 suncat0129 pw.x -in pw.inp   Done                     12/30/2018 11:09:34
00046 suncat0129 pw.x -in pw.inp   Done                     12/30/2018 11:09:34
00047 suncat0129 pw.x -in pw.inp   Done                     12/30/2018 11:09:34
00048 suncat0254 pw.x -in pw.inp   Done                     12/30/2018 11:09:34
00049 suncat0254 pw.x -in pw.inp   Done                     12/30/2018 11:09:34
00050 suncat0254 pw.x -in pw.inp   Done                     12/30/2018 11:09:34
00051 suncat0254 pw.x -in pw.inp   Done                     12/30/2018 11:09:34
00052 suncat0254 pw.x -in pw.inp   Done                     12/30/2018 11:09:34
00053 suncat0254 pw.x -in pw.inp   Done                     12/30/2018 11:09:34
00054 suncat0254 pw.x -in pw.inp   Done                     12/30/2018 11:09:34
00055 suncat0254 pw.x -in pw.inp   Done                     12/30/2018 11:09:34
00056 suncat0253 pw.x -in pw.inp   Done                     12/30/2018 11:09:34
00057 suncat0253 pw.x -in pw.inp   Done                     12/30/2018 11:09:34
00058 suncat0253 pw.x -in pw.inp   Done                     12/30/2018 11:09:34
00059 suncat0253 pw.x -in pw.inp   Done                     12/30/2018 11:09:34
00060 suncat0253 pw.x -in pw.inp   Done                     12/30/2018 11:09:34
00061 suncat0253 pw.x -in pw.inp   Done                     12/30/2018 11:09:34
00062 suncat0253 pw.x -in pw.inp   Done                     12/30/2018 11:09:34
00063 suncat0253 pw.x -in pw.inp   Done                     12/30/2018 11:09:34