     Program PWSCF v.5.1rc2 (svn rev. 11289) starts on 19Dec2018 at  4:21:41

     Current dimensions of program PWSCF are:
     Max number of different atomic species (ntypx) = 10
     Max number of k-points (npk) =  40000
     Max angular momentum in pseudopotentials (lmaxx) =  3
     Presently stress not available with electric field

     IMPORTANT: XC functional enforced from input :
     Exchange-correlation      = BEEF-VDW ( 1  4 27 13 2)
     Any further DFT definition will be discarded
     Please, verify this is what you really want

     Subspace diagonalization in iterative solution of the eigenvalue problem:
     a serial algorithm will be used

     Found symmetry operation: I + ( -0.5000 -0.5000  0.0000)
     This is a supercell, fractional translations are disabled

     bravais-lattice index     =            0
     lattice parameter (alat)  =       1.8897  a.u.
     unit-cell volume          =    4405.1298 (a.u.)^3
     number of atoms/cell      =           12
     number of atomic types    =            2
     number of electrons       =       180.00
     number of Kohn-Sham states=          120
     kinetic-energy cutoff     =      36.7493  Ry
     charge density cutoff     =     367.4932  Ry
     convergence threshold     =      1.0E-06
     mixing beta               =       0.1000
     number of iterations used =           10  plain     mixing
     Exchange-correlation      = BEEF-VDW ( 1  4 27 13 2)
     nstep                     =           50

     celldm(1)=   1.889726  celldm(2)=   0.000000  celldm(3)=   0.000000
     celldm(4)=   0.000000  celldm(5)=   0.000000  celldm(6)=   0.000000

     crystal axes: (cart. coord. in units of alat)
               a(1) = (   5.516589   0.000000   0.000000 )
               a(2) = (   2.674687   4.824811   0.000000 )
               a(3) = (   0.000000   0.000000  24.525124 )

     reciprocal axes: (cart. coord. in units 2 pi/alat)
               b(1) = (  0.181271 -0.100490  0.000000 )
               b(2) = (  0.000000  0.207262  0.000000 )
               b(3) = (  0.000000  0.000000  0.040775 )

     PseudoPot. # 1 for Ru read from file:
     /afs/slac.stanford.edu/u/if/mamunm/psp/gbrv1.5pbe/Ru.UPF
     MD5 check sum: 7158a806dd851261a58e6920c40ebe78
     Pseudo is Ultrasoft + core correction, Zval = 16.0
     Generated by new atomic code, or converted to UPF format
     Using radial grid of  967 points,  6 beta functions with:
                l(1) =   0
                l(2) =   0
                l(3) =   1
                l(4) =   1
                l(5) =   2
                l(6) =   2
     Q(r) pseudized with  8 coefficients,  rinner =    1.300   1.300   1.300
                                                       1.300   1.300

     PseudoPot. # 2 for W  read from file:
     /afs/slac.stanford.edu/u/if/mamunm/psp/gbrv1.5pbe/W.UPF
     MD5 check sum: 9c083fa34c2a2ea0f02f1f893e16e1c8
     Pseudo is Ultrasoft + core correction, Zval = 14.0
     Generated by new atomic code, or converted to UPF format
     Using radial grid of  923 points,  8 beta functions with:
                l(1) =   0
                l(2) =   0
                l(3) =   0
                l(4) =   1
                l(5) =   1
                l(6) =   2
                l(7) =   2
                l(8) =   3
     Q(r) pseudized with  6 coefficients,  rinner =    1.350   1.350   1.350
                                                       1.350   1.350   1.350
                                                       1.350

     vdW kernel table read from file vdW_kernel_table
     MD5 check sum: 095c7af220d748ca6e76c0b4c6cfb241

     atomic species   valence    mass     pseudopotential
        Ru1           16.00   101.07000     Ru( 1.00)
        W1            14.00   183.84000     W ( 1.00)

     No symmetry found

   Cartesian axes

     site n.     atom                  positions (alat units)
         1           Ru1 tau(   1) = (   0.0000000   0.0000000  10.0000000  )
         2           Ru1 tau(   2) = (   4.0956381   2.4124053  10.0000000  )
         3           W1  tau(   3) = (   2.7582944   0.0000000  10.0000000  )
         4           W1  tau(   4) = (   1.3373437   2.4124053  10.0000000  )
         5           Ru1 tau(   5) = (   5.5165887   3.2493711  12.2625622  )
         6           Ru1 tau(   6) = (   1.4209506   0.8369658  12.2625622  )
         7           W1  tau(   7) = (   2.7582944   3.2493711  12.2625622  )
         8           W1  tau(   8) = (   4.1792450   0.8369658  12.2625622  )
         9           Ru1 tau(   9) = (   2.8419013   1.6739316  14.5251245  )
        10           Ru1 tau(  10) = (   6.9375394   4.0863369  14.5251245  )
        11           W1  tau(  11) = (   5.6001957   1.6739316  14.5251245  )
        12           W1  tau(  12) = (   4.1792450   4.0863369  14.5251245  )

     number of k points=    20  Fermi-Dirac smearing, width (Ry)=  0.0110
                       cart. coord. in units 2pi/alat
        k(    1) = (   0.0000000   0.0000000   0.0000000), wk =   0.0555556
        k(    2) = (   0.0000000   0.0345437   0.0000000), wk =   0.1111111
        k(    3) = (   0.0000000   0.0690873   0.0000000), wk =   0.1111111
        k(    4) = (   0.0000000  -0.1036310   0.0000000), wk =   0.0555556
        k(    5) = (   0.0302119  -0.0167483   0.0000000), wk =   0.1111111
        k(    6) = (   0.0302119   0.0177954   0.0000000), wk =   0.1111111
        k(    7) = (   0.0302119   0.0523390   0.0000000), wk =   0.1111111
        k(    8) = (   0.0302119  -0.1203793   0.0000000), wk =   0.1111111
        k(    9) = (   0.0302119  -0.0858356   0.0000000), wk =   0.1111111
        k(   10) = (   0.0302119  -0.0512920   0.0000000), wk =   0.1111111
        k(   11) = (   0.0604238  -0.0334966   0.0000000), wk =   0.1111111
        k(   12) = (   0.0604238   0.0010471   0.0000000), wk =   0.1111111
        k(   13) = (   0.0604238   0.0355907   0.0000000), wk =   0.1111111
        k(   14) = (   0.0604238  -0.1371276   0.0000000), wk =   0.1111111
        k(   15) = (   0.0604238  -0.1025840   0.0000000), wk =   0.1111111
        k(   16) = (   0.0604238  -0.0680403   0.0000000), wk =   0.1111111
        k(   17) = (  -0.0906357   0.0502449   0.0000000), wk =   0.0555556
        k(   18) = (  -0.0906357   0.0847886   0.0000000), wk =   0.1111111
        k(   19) = (  -0.0906357   0.1193323   0.0000000), wk =   0.1111111
        k(   20) = (  -0.0906357  -0.0533861   0.0000000), wk =   0.0555556

     Largest allocated arrays     est. size (Mb)     dimensions
     Largest temporary arrays     est. size (Mb)     dimensions

     Initial potential from superposition of free atoms
     Check: negative starting charge=   -0.818434

     starting charge  173.39787, renormalised to  180.00000

     negative rho (up, down):  8.496E-01 0.000E+00

     *
     * You are using vdW-DF for exchange-correlation in this calculation.
     * Please cite the following three references that made this development
     * possible:
     *
     *   M. Dion, H. Rydberg, E. Schroder, D. C. Langreth, and
     *   B. I. Lundqvist, Phys. Rev. Lett. 92, 246401 (2004).
     *
     *   T. Thonhauser, V. R. Cooper, S. Li, A. Puzder, P. Hyldgaard, and
     *   D. C. Langreth, Phys. Rev. B 76, 125112 (2007).
     *
     *   G. Roman-Perez and J. M. Soler, Phys. Rev. Lett. 103, 096102 (2009).
     *
     *
     * If you are using vdW-DF2, please also cite:
     *
     *   K. Lee, E. D. Murray, L. Kong, B. I. Lundqvist, and
     *   D. C. Langreth, Phys. Rev. B 82, 081101(R) (2010).
     *
     *
     * If you are calculating the stress with vdW-DF, please also cite:
     *
     *   R. Sabatini, E. Kucukbenli, B. Kolb, T. Thonhauser, and
     *   S. de Gironcoli, J. Phys.: Condens. Matter 24, 424209 (2012).
     *

     Carrying out vdW-DF run using the following parameters:

     Nqs =      20    Nr_points =    1024   r_max =   100.000
     q_mesh =
               0.00001000     0.04494208     0.09755937     0.15916263
               0.23128650     0.31572767     0.41458969     0.53033537
               0.66584808     0.82450364     1.01025438     1.22772762
               1.48234092     1.78043706     2.12944203     2.53805004
               3.01644009     3.57652955     4.23227104     5.00000000

     Gradients computed in reciprocal space

     Adding external electric field

     Computed dipole along edir(3) :
        Dipole                0.0000 Ry au,          0.0000 Debye
        Dipole field          0.0000 Ry au

        Potential amp.       -0.0000 Ry
        Total length         45.1871 bohr

     Starting wfc are  156 randomized atomic wfcs

     Self-consistent Calculation

     iteration #  1     ecut=    36.75 Ry     beta=0.10
     Davidson diagonalization with overlap
     ethr =  1.00E-02,  avg # of iterations =  5.4

[...]

     total energy              =   -2133.98237627 Ry
     Harris-Foulkes estimate   =   -2134.55372500 Ry
     estimated scf accuracy    <       3.99186345 Ry

[...]

     End of self-consistent calculation

          k = 0.0000 0.0000 0.0000 ( 16495 PWs)   bands (ev):

   -72.0326 -72.0185 -71.9977 -71.9860 -71.9751 -71.9549 -70.4427 -70.4109
   -70.0971 -70.0961 -70.0645 -70.0641 -40.5685 -40.4842 -40.4647 -40.4363
   -40.4092 -40.2100 -40.2038 -40.1892 -40.1156 -40.1052 -40.0722 -40.0622
   -40.0462 -40.0459 -40.0336 -40.0052 -39.8345 -39.8343 -36.4271 -36.3253
   -36.2891 -36.2751 -36.2634 -36.2035 -36.1325 -36.0953 -36.0650 -36.0453
   -36.0226 -36.0162 -35.9752 -35.8303 -35.7743 -35.7618 -35.6261 -35.6221
    -5.2113  -3.5556  -3.2307  -2.9217  -2.8571  -2.8150  -2.7074  -2.4343
    -2.3571  -2.1219  -2.1190  -2.0764  -1.9644  -1.7857  -1.7801  -0.6340
    -0.5923  -0.5667   0.1025   0.1284   0.2732   0.4477   0.4684   0.5511
     0.8462   0.9575   1.0701   1.1553   1.2150   1.2314   1.4800   1.7094
     1.7827   1.8201   1.9120   1.9484   2.3295   2.6009   2.6126   2.6809
     2.8391   3.1678   3.1806   3.5800   3.6013   3.6509   4.0421   4.2358
     4.4279   4.5133   4.6522   4.6572   4.6878   4.7353   4.8532   4.9829
     5.2416   5.3291   5.3987   5.7046   5.7257   6.2379   6.4349   6.5181
     6.5666   6.6614   6.6670   6.7624   6.9053   6.9329   7.1172   7.2052

[...]

          k =-0.0906 0.0502 0.0000 ( 16558 PWs)   bands (ev):

[...]

     the Fermi energy is     2.4611 ev

!    total energy              =   -2133.13498679 Ry
     Harris-Foulkes estimate   =   -2133.13499002 Ry
     estimated scf accuracy    <       0.00000044 Ry

     The total energy is the sum of the following terms:

     one-electron contribution =  -18115.89449276 Ry
     hartree contribution      =    9049.52519686 Ry
     xc contribution           =    -416.12474587 Ry
     ewald contribution        =    7349.43909143 Ry
     electric field correction =       0.00000000 Ry
     smearing contrib. (-TS)   =      -0.08003646 Ry

     convergence has been achieved in  16 iterations

 BEEF-vdW xc energy contributions
           1 :   -364.224723306125
           2 :    336.147693383315
           3 :   -286.938157318978
           4 :    227.848935622084
           5 :   -170.576394162637
           6 :    123.772467240748
[...]
00030 suncat2049 pw.x -in pw.inp   Done                     12/19/2018 04:26:06
00031 suncat2049 pw.x -in pw.inp   Done                     12/19/2018 04:26:06

[...]

   This run was terminated on:   4:30:28  19Dec2018

[...]

   This run was terminated on:   4:35: 2  19Dec2018

[...]

     Program PWSCF v.5.1rc2 (svn rev. 11289) starts on 19Dec2018 at  4:35:10

     Current dimensions of program PWSCF are:
     Max number of different atomic species (ntypx) = 10
     Max number of k-points (npk) =  40000
     Max angular momentum in pseudopotentials (lmaxx) =  3
     Presently stress not available with electric field

     IMPORTANT: XC functional enforced from input :
     Exchange-correlation      = BEEF-VDW ( 1  4 27 13 2)
     Any further DFT definition will be discarded
     Please, verify this is what you really want

     Subspace diagonalization in iterative solution of the eigenvalue problem:
     a serial algorithm will be used

     Found symmetry operation: I + ( -0.5000 -0.5000  0.0000)
     This is a supercell, fractional translations are disabled

     bravais-lattice index     =            0
     lattice parameter (alat)  =       1.8897  a.u.
     unit-cell volume          =    4405.1298 (a.u.)^3
     number of atoms/cell      =           12
     number of atomic types    =            2
     number of electrons       =       180.00
     number of Kohn-Sham states=          120
     kinetic-energy cutoff     =      36.7493  Ry
     charge density cutoff     =     367.4932  Ry
     convergence threshold     =      1.0E-06
     mixing beta               =       0.1000
     number of iterations used =           10  plain     mixing
     Exchange-correlation      = BEEF-VDW ( 1  4 27 13 2)
     nstep                     =           50

     celldm(1)=   1.889726  celldm(2)=   0.000000  celldm(3)=   0.000000
     celldm(4)=   0.000000  celldm(5)=   0.000000  celldm(6)=   0.000000

     crystal axes: (cart. coord. in units of alat)
               a(1) = (   5.516589   0.000000   0.000000 )
               a(2) = (   2.674687   4.824811   0.000000 )
               a(3) = (   0.000000   0.000000  24.525124 )

     reciprocal axes: (cart. coord. in units 2 pi/alat)
               b(1) = (  0.181271 -0.100490  0.000000 )
               b(2) = (  0.000000  0.207262  0.000000 )
               b(3) = (  0.000000  0.000000  0.040775 )

     PseudoPot. # 1 for Ru read from file:
     /afs/slac.stanford.edu/u/if/mamunm/psp/gbrv1.5pbe/Ru.UPF
     MD5 check sum: 7158a806dd851261a58e6920c40ebe78
     Pseudo is Ultrasoft + core correction, Zval = 16.0
     Generated by new atomic code, or converted to UPF format
     Using radial grid of  967 points,  6 beta functions with:
                l(1) =   0
                l(2) =   0
                l(3) =   1
                l(4) =   1
                l(5) =   2
                l(6) =   2
     Q(r) pseudized with  8 coefficients,  rinner =    1.300   1.300   1.300
                                                       1.300   1.300

     PseudoPot. # 2 for W  read from file:
     /afs/slac.stanford.edu/u/if/mamunm/psp/gbrv1.5pbe/W.UPF
     MD5 check sum: 9c083fa34c2a2ea0f02f1f893e16e1c8
     Pseudo is Ultrasoft + core correction, Zval = 14.0
     Generated by new atomic code, or converted to UPF format
     Using radial grid of  923 points,  8 beta functions with:
                l(1) =   0
                l(2) =   0
                l(3) =   0
                l(4) =   1
                l(5) =   1
                l(6) =   2
                l(7) =   2
                l(8) =   3
     Q(r) pseudized with  6 coefficients,  rinner =    1.350   1.350   1.350
                                                       1.350   1.350   1.350
                                                       1.350

     vdW kernel table read from file vdW_kernel_table
     MD5 check sum: 095c7af220d748ca6e76c0b4c6cfb241

     atomic species   valence    mass     pseudopotential
        Ru1           16.00   101.07000     Ru( 1.00)
        W1            14.00   183.84000     W ( 1.00)

     No symmetry found

   Cartesian axes

     site n.     atom                  positions (alat units)
         1           Ru1 tau(   1) = (   0.0000000   0.0000000  10.0000000  )
         2           Ru1 tau(   2) = (   4.0956381   2.4124053  10.0000000  )
         3           W1  tau(   3) = (   2.7582944   0.0000000  10.0000000  )
         4           W1  tau(   4) = (   1.3373437   2.4124053  10.0000000  )
         5           Ru1 tau(   5) = (   5.5165887   3.2493711  12.2625622  )
         6           Ru1 tau(   6) = (   1.4209506   0.8369658  12.2625622  )
         7           W1  tau(   7) = (   2.7582944   3.2493711  12.2625622  )
         8           W1  tau(   8) = (   4.1792450   0.8369658  12.2625622  )
         9           Ru1 tau(   9) = (   2.8267228   1.6649918  14.4629572  )
        10           Ru1 tau(  10) = (   6.9223615   4.0773954  14.4629568  )
        11           W1  tau(  11) = (   5.5863465   1.6657743  14.3899551  )
        12           W1  tau(  12) = (   4.1653948   4.0781791  14.3899543  )

     number of k points=    20  Fermi-Dirac smearing, width (Ry)=  0.0110
                       cart. coord. in units 2pi/alat
        k(    1) = (   0.0000000   0.0000000   0.0000000), wk =   0.0555556
        k(    2) = (   0.0000000   0.0345437   0.0000000), wk =   0.1111111
        k(    3) = (   0.0000000   0.0690873   0.0000000), wk =   0.1111111
        k(    4) = (   0.0000000  -0.1036310   0.0000000), wk =   0.0555556
        k(    5) = (   0.0302119  -0.0167483   0.0000000), wk =   0.1111111
        k(    6) = (   0.0302119   0.0177954   0.0000000), wk =   0.1111111
        k(    7) = (   0.0302119   0.0523390   0.0000000), wk =   0.1111111
        k(    8) = (   0.0302119  -0.1203793   0.0000000), wk =   0.1111111
        k(    9) = (   0.0302119  -0.0858356   0.0000000), wk =   0.1111111
        k(   10) = (   0.0302119  -0.0512920   0.0000000), wk =   0.1111111
        k(   11) = (   0.0604238  -0.0334966   0.0000000), wk =   0.1111111
        k(   12) = (   0.0604238   0.0010471   0.0000000), wk =   0.1111111
        k(   13) = (   0.0604238   0.0355907   0.0000000), wk =   0.1111111
        k(   14) = (   0.0604238  -0.1371276   0.0000000), wk =   0.1111111
        k(   15) = (   0.0604238  -0.1025840   0.0000000), wk =   0.1111111
        k(   16) = (   0.0604238  -0.0680403   0.0000000), wk =   0.1111111
        k(   17) = (  -0.0906357   0.0502449   0.0000000), wk =   0.0555556
        k(   18) = (  -0.0906357   0.0847886   0.0000000), wk =   0.1111111
        k(   19) = (  -0.0906357   0.1193323   0.0000000), wk =   0.1111111
        k(   20) = (  -0.0906357  -0.0533861   0.0000000), wk =   0.0555556

     Largest allocated arrays     est. size (Mb)     dimensions
     Largest temporary arrays     est. size (Mb)     dimensions

     Initial potential from superposition of free atoms
     Check: negative starting charge=   -0.815651

     starting charge  173.39787, renormalised to  180.00000

[...]

     *
     * You are using vdW-DF for exchange-correlation in this calculation.
     * Please cite the following three references that made this development
     * possible:
     *
     *   M. Dion, H. Rydberg, E. Schroder, D. C. Langreth, and
     *   B. I. Lundqvist, Phys. Rev. Lett. 92, 246401 (2004).
     *
     *   T. Thonhauser, V. R. Cooper, S. Li, A. Puzder, P. Hyldgaard, and
     *   D. C. Langreth, Phys. Rev. B 76, 125112 (2007).
     *
     *   G. Roman-Perez and J. M. Soler, Phys. Rev. Lett. 103, 096102 (2009).
     *
     *
     * If you are using vdW-DF2, please also cite:
     *
     *   K. Lee, E. D. Murray, L. Kong, B. I. Lundqvist, and
     *   D. C. Langreth, Phys. Rev. B 82, 081101(R) (2010).
     *
     *
     * If you are calculating the stress with vdW-DF, please also cite:
     *
     *   R. Sabatini, E. Kucukbenli, B. Kolb, T. Thonhauser, and
     *   S. de Gironcoli, J. Phys.: Condens. Matter 24, 424209 (2012).
     *

     Carrying out vdW-DF run using the following parameters:

     Nqs =      20    Nr_points =    1024   r_max =   100.000
     q_mesh =
               0.00001000     0.04494208     0.09755937     0.15916263
               0.23128650     0.31572767     0.41458969     0.53033537
               0.66584808     0.82450364     1.01025438     1.22772762
               1.48234092     1.78043706     2.12944203     2.53805004
               3.01644009     3.57652955     4.23227104     5.00000000

     Gradients computed in reciprocal space

[...]

     Starting wfc are  156 randomized atomic wfcs

     Self-consistent Calculation

[...]

     total energy              =   -2133.14905819 Ry
     Harris-Foulkes estimate   =   -2133.14905916 Ry
     estimated scf accuracy    <       0.00000116 Ry

     iteration # 16     ecut=    36.75 Ry     beta=0.10
     Davidson diagonalization with overlap
     ethr =  6.47E-10,  avg # of iterations =  2.2

[...]

     negative rho (up, down):  8.492E-01 0.000E+00

     Adding external electric field

     Computed dipole along edir(3) :
        Dipole                0.0304 Ry au,          0.0773 Debye
        Dipole field          0.0001 Ry au

        Potential amp.       -0.0078 Ry
        Total length         45.1871 bohr

     End of self-consistent calculation

[...]

          k = 0.0604-0.0680 0.0000 ( 16593 PWs)   bands (ev):

[...]

          k =-0.0906-0.0534 0.0000 ( 16584 PWs)   bands (ev):

   -72.0443 -72.0016 -71.9550 -71.9106 -71.8735 -71.8296 -70.4710 -70.4380
   -70.0791 -70.0669 -70.0456 -70.0334 -40.6064 -40.5320 -40.4828 -40.4580
   -40.4177 -40.2329 -40.1819 -40.1727 -40.0732 -40.0593 -40.0441 -40.0322
   -40.0168 -40.0119 -40.0065 -39.9774 -39.8171 -39.8138 -36.4226 -36.3811
   -36.3197 -36.2999 -36.2022 -36.1676 -36.1130 -36.1051 -36.0558 -36.0334
   -35.9950 -35.9890 -35.9269 -35.7307 -35.7084 -35.6474 -35.6430 -35.5231
    -3.6992  -3.2970  -2.2045  -2.1487  -1.9950  -1.8904  -1.7742  -1.7067
    -1.6541  -1.5351  -1.3590  -0.9908  -0.9399  -0.9091  -0.7182  -0.6735
    -0.5129  -0.4725  -0.2735  -0.2227  -0.1542   0.3491   0.3946   0.5838
     0.6432   0.7304   0.7707   0.9027   0.9357   0.9362   1.0969   1.1173
     1.2234   1.2907   1.2941   1.4112   1.4639   1.5535   1.5651   1.5786
     1.6402   1.9876   2.1814   2.1973   2.2490   2.5506   2.7799   3.0007
     3.2190   3.2696   3.5462   3.5795   3.9239   4.1242   4.1999   4.3035
     4.4412   4.6169   4.9045   5.0173   5.1820   5.5377   5.8314   6.1329
     6.1578   6.1871   6.9323   7.0273   7.5039   8.0214   8.4144   8.5570

     the Fermi energy is     2.4745 ev

!    total energy              =   -2133.14905581 Ry
     Harris-Foulkes estimate   =   -2133.14905860 Ry
     estimated scf accuracy    <       0.00000039 Ry

     The total energy is the sum of the following terms:

     one-electron contribution =  -18365.54626041 Ry
     hartree contribution      =    9174.47389611 Ry
     xc contribution           =    -416.39011239 Ry
     ewald contribution        =    7474.38919666 Ry
     electric field correction =       0.00000264 Ry
     smearing contrib. (-TS)   =      -0.07577841 Ry

     convergence has been achieved in  16 iterations

 BEEF-vdW xc energy contributions
           1 :   -364.492581217716
           2 :    336.501231550038
           3 :   -287.407152142946
           4 :    228.381010048620
           5 :   -171.055997709492
           6 :    124.078076702443
           7 :   -91.1814408471749
           8 :    71.2511018544218
           9 :   -60.0159814453306
          10 :    52.4441118700159
          11 :   -44.7970935352766
          12 :    35.6337426764366
          13 :   -25.6229521704478
          14 :    16.5346652351340
          15 :   -10.0227785152033
          16 :    6.75633653722394
          17 :   -6.19152418932072
          18 :    6.95335222599959
          19 :   -7.54802420968269
          20 :    7.03070031747967
          21 :   -5.32297537733001
          22 :    3.07632614072338
          23 :   -1.20957586252371
          24 :   0.388044386728325
          25 :  -0.704922601606768
          26 :    1.69402459152013
          27 :   -2.62519466412078
          28 :    2.89952531368385
          29 :   -2.33281376059847
          30 :    1.19702751326304
          31 :   -34.7722329550887
          32 :   -26.2268649813908

     Forces acting on atoms (Ry/au):

     negative rho (up, down):  8.492E-01 0.000E+00
     atom    1 type  1   force =     0.00192034    0.00113120    0.00793662
     atom    2 type  1   force =     0.00192013    0.00113098    0.00793657
     atom    3 type  2   force =     0.00219807    0.00129467    0.03491465
     atom    4 type  2   force =     0.00219839    0.00129504    0.03491499
     atom    5 type  1   force =     0.00157583    0.00092814   -0.02543312
     atom    6 type  1   force =     0.00157590    0.00092842   -0.02543285
     atom    7 type  2   force =    -0.00368374   -0.00216980   -0.01783185
     atom    8 type  2   force =    -0.00368357   -0.00216987   -0.01783134
     atom    9 type  1   force =    -0.00111847   -0.00065964    0.00018280
     atom   10 type  1   force =    -0.00111911   -0.00065837    0.00018278
     atom   11 type  2   force =    -0.00089225   -0.00052560    0.00023047
     atom   12 type  2   force =    -0.00089153   -0.00052516    0.00023027

     Total force =     0.067569     Total SCF correction =     0.002639

     entering subroutine stress ...

     negative rho (up, down):  8.492E-01 0.000E+00
          total   stress  (Ry/bohr**3)                   (kbar)     P=  -27.79
  -0.00022338  -0.00000491  -0.00001166        -32.86     -0.72     -1.72
  -0.00000491  -0.00021794  -0.00000687         -0.72    -32.06     -1.01
  -0.00001166  -0.00000687  -0.00012535         -1.72     -1.01    -18.44

 !ASE

     Writing output data file calc.save

     General routines

     Parallel routines

   This run was terminated on:   4:39:31  19Dec2018

   JOB DONE.
Job  /afs/slac/g/suncat/bin/suncat-tsmpirun -x LD_LIBRARY_PATH -wdir /scratch/qe530541_89dck pw.x -in pw.inp

TID   HOST_NAME   COMMAND_LINE            STATUS            TERMINATION_TIME
00000 suncat2050 pw.x -in pw.inp   Done                     12/19/2018 04:39:31
00001 suncat2050 pw.x -in pw.inp   Done                     12/19/2018 04:39:31
00002 suncat2050 pw.x -in pw.inp   Done                     12/19/2018 04:39:31
00003 suncat2050 pw.x -in pw.inp   Done                     12/19/2018 04:39:31
00004 suncat2050 pw.x -in pw.inp   Done                     12/19/2018 04:39:31
00005 suncat2050 pw.x -in pw.inp   Done                     12/19/2018 04:39:31
00006 suncat2050 pw.x -in pw.inp   Done                     12/19/2018 04:39:31
00007 suncat2050 pw.x -in pw.inp   Done                     12/19/2018 04:39:31
00008 suncat2050 pw.x -in pw.inp   Done                     12/19/2018 04:39:31
00009 suncat2050 pw.x -in pw.inp   Done                     12/19/2018 04:39:31
00010 suncat2050 pw.x -in pw.inp   Done                     12/19/2018 04:39:31
00011 suncat2050 pw.x -in pw.inp   Done                     12/19/2018 04:39:31
00012 suncat2050 pw.x -in pw.inp   Done                     12/19/2018 04:39:31
00013 suncat2050 pw.x -in pw.inp   Done                     12/19/2018 04:39:31
00014 suncat2050 pw.x -in pw.inp   Done                     12/19/2018 04:39:31
00015 suncat2050 pw.x -in pw.inp   Done                     12/19/2018 04:39:31
00016 suncat2049 pw.x -in pw.inp   Done                     12/19/2018 04:39:31
00017 suncat2049 pw.x -in pw.inp   Done                     12/19/2018 04:39:31
00018 suncat2049 pw.x -in pw.inp   Done                     12/19/2018 04:39:31
00019 suncat2049 pw.x -in pw.inp   Done                     12/19/2018 04:39:31
00020 suncat2049 pw.x -in pw.inp   Done                     12/19/2018 04:39:31
00021 suncat2049 pw.x -in pw.inp   Done                     12/19/2018 04:39:31
00022 suncat2049 pw.x -in pw.inp   Done                     12/19/2018 04:39:31
00023 suncat2049 pw.x -in pw.inp   Done                     12/19/2018 04:39:31
00024 suncat2049 pw.x -in pw.inp   Done                     12/19/2018 04:39:31
00025 suncat2049 pw.x -in pw.inp   Done                     12/19/2018 04:39:31
00026 suncat2049 pw.x -in pw.inp   Done                     12/19/2018 04:39:31
00027 suncat2049 pw.x -in pw.inp   Done                     12/19/2018 04:39:31
00028 suncat2049 pw.x -in pw.inp   Done                     12/19/2018 04:39:31
00029 suncat2049 pw.x -in pw.inp   Done                     12/19/2018 04:39:31
00030 suncat2049 pw.x -in pw.inp   Done                     12/19/2018 04:39:31
00031 suncat2049 pw.x -in pw.inp   Done                     12/19/2018 04:39:31