     Program PWSCF v.5.1rc2 (svn rev. 11289) starts on 27Dec2018 at 21:29:24

     Current dimensions of program PWSCF are:
     Max number of different atomic species (ntypx) = 10
     Max number of k-points (npk) =  40000
     Max angular momentum in pseudopotentials (lmaxx) =  3
     Presently stress not available with electric field

     IMPORTANT: XC functional enforced from input :
     Exchange-correlation      = BEEF-VDW ( 1  4 27 13 2)
     Any further DFT definition will be discarded
     Please, verify this is what you really want

     Subspace diagonalization in iterative solution of the eigenvalue problem:
     a serial algorithm will be used

     bravais-lattice index     =            0
     lattice parameter (alat)  =       1.8897  a.u.
     unit-cell volume          =    4238.0469 (a.u.)^3
     number of atoms/cell      =           12
     number of atomic types    =            2
     number of electrons       =       195.00
     number of Kohn-Sham states=          127
     kinetic-energy cutoff     =      36.7493  Ry
     charge density cutoff     =     367.4932  Ry
     convergence threshold     =      1.0E-06
     mixing beta               =       0.1000
     number of iterations used =           10  plain     mixing
     Exchange-correlation      = BEEF-VDW ( 1  4 27 13 2)
     nstep                     =           50

     celldm(1)=   1.889726  celldm(2)=   0.000000  celldm(3)=   0.000000
     celldm(4)=   0.000000  celldm(5)=   0.000000  celldm(6)=   0.000000

     crystal axes: (cart. coord. in units of alat)
               a(1) = (   5.446368   0.000000   0.000000 )
               a(2) = (  -2.723184   4.716693   0.000000 )
               a(3) = (   0.000000   0.000000  24.446941 )

     reciprocal axes: (cart. coord. in units 2 pi/alat)
               b(1) = (  0.183609  0.106006  0.000000 )
               b(2) = (  0.000000  0.212013  0.000000 )
               b(3) = (  0.000000  0.000000  0.040905 )

     PseudoPot. # 1 for Rh read from file:
     /afs/slac.stanford.edu/u/if/mamunm/psp/gbrv1.5pbe/Rh.UPF
     MD5 check sum: 761627e959a2e3a1f56b0b5fe687810e
     Pseudo is Ultrasoft + core correction, Zval = 15.0
     Generated by new atomic code, or converted to UPF format
     Using radial grid of  969 points,  7 beta functions with:
                l(1) =   0
                l(2) =   0
                l(3) =   1
                l(4) =   1
                l(5) =   2
                l(6) =   2
                l(7) =   2
     Q(r) pseudized with  8 coefficients,  rinner =    1.200   1.200   1.200
                                                       1.200   1.200

     PseudoPot. # 2 for Zn read from file:
     /afs/slac.stanford.edu/u/if/mamunm/psp/gbrv1.5pbe/Zn.UPF
     MD5 check sum: df62231357ef9e81f77b2b3087fa5675
     Pseudo is Ultrasoft, Zval = 20.0
     Generated by new atomic code, or converted to UPF format
     Using radial grid of  943 points,  6 beta functions with:
                l(1) =   0
                l(2) =   0
                l(3) =   1
                l(4) =   1
                l(5) =   2
                l(6) =   2
     Q(r) pseudized with  8 coefficients,  rinner =    1.100   1.100   1.100
                                                       1.100   1.100

     vdW kernel table read from file vdW_kernel_table
     MD5 check sum: 095c7af220d748ca6e76c0b4c6cfb241

     atomic species   valence    mass     pseudopotential
        Rh1           15.00   102.90550     Rh( 1.00)
        Zn1           20.00    65.38000     Zn( 1.00)

     No symmetry found

   Cartesian axes

     site n.     atom                  positions (alat units)
         1           Rh1 tau(   1) = (   0.0000000   0.0000000  10.0000000  )
         2           Rh1 tau(   2) = (  -1.3615921   2.3583466  10.0000000  )
         3           Rh1 tau(   3) = (   1.3615921   2.3583466  10.0000000  )
         4           Zn1 tau(   4) = (   2.7231841   0.0000000  10.0000000  )
         5           Rh1 tau(   5) = (   2.7231841   1.5722311  12.2234705  )
         6           Rh1 tau(   6) = (   1.3615921   3.9305777  12.2234705  )
         7           Rh1 tau(   7) = (  -1.3615921   3.9305777  12.2234705  )
         8           Zn1 tau(   8) = (   0.0000000   1.5722311  12.2234705  )
         9           Rh1 tau(   9) = (  -0.0000000   3.1444622  14.4469411  )
        10           Rh1 tau(  10) = (   1.3615921   0.7861155  14.4469411  )
        11           Rh1 tau(  11) = (   4.0847762   0.7861155  14.4469411  )
        12           Zn1 tau(  12) = (   2.7231841   3.1444622  14.4469411  )

     number of k points=    20  Fermi-Dirac smearing, width (Ry)=  0.0110
                       cart. coord. in units 2pi/alat
        k(    1) = (   0.0000000   0.0000000   0.0000000), wk =   0.0555556
        k(    2) = (   0.0000000   0.0353355   0.0000000), wk =   0.1111111
        k(    3) = (   0.0000000   0.0706710   0.0000000), wk =   0.1111111
        k(    4) = (   0.0000000  -0.1060065   0.0000000), wk =   0.0555556
        k(    5) = (   0.0306014   0.0176677   0.0000000), wk =   0.1111111
        k(    6) = (   0.0306014   0.0530032   0.0000000), wk =   0.1111111
        k(    7) = (   0.0306014   0.0883387   0.0000000), wk =   0.1111111
        k(    8) = (   0.0306014  -0.0883387   0.0000000), wk =   0.1111111
        k(    9) = (   0.0306014  -0.0530032   0.0000000), wk =   0.1111111
        k(   10) = (   0.0306014  -0.0176677   0.0000000), wk =   0.1111111
        k(   11) = (   0.0612029   0.0353355   0.0000000), wk =   0.1111111
        k(   12) = (   0.0612029   0.0706710   0.0000000), wk =   0.1111111
        k(   13) = (   0.0612029   0.1060065   0.0000000), wk =   0.1111111
        k(   14) = (   0.0612029  -0.0706710   0.0000000), wk =   0.1111111
        k(   15) = (   0.0612029  -0.0353355   0.0000000), wk =   0.1111111
        k(   16) = (   0.0612029   0.0000000   0.0000000), wk =   0.1111111
        k(   17) = (  -0.0918043  -0.0530032   0.0000000), wk =   0.0555556
        k(   18) = (  -0.0918043  -0.0176677   0.0000000), wk =   0.1111111
        k(   19) = (  -0.0918043   0.0176677   0.0000000), wk =   0.1111111
        k(   20) = (  -0.0918043  -0.1590097   0.0000000), wk =   0.0555556

     Largest allocated arrays     est. size (Mb)     dimensions
     Largest temporary arrays     est. size (Mb)     dimensions

     Initial potential from superposition of free atoms
     Check: negative starting charge=   -0.490814

     starting charge  190.49869, renormalised to  195.00000

     negative rho (up, down):  5.024E-01 0.000E+00

     *
     * You are using vdW-DF for exchange-correlation in this calculation.
     * Please cite the following three references that made this development
     * possible:
     *
     *   M. Dion, H. Rydberg, E. Schroder, D. C. Langreth, and
     *   B. I. Lundqvist, Phys. Rev. Lett. 92, 246401 (2004).
     *
     *   T. Thonhauser, V. R. Cooper, S. Li, A. Puzder, P. Hyldgaard, and
     *   D. C. Langreth, Phys. Rev. B 76, 125112 (2007).
     *
     *   G. Roman-Perez and J. M. Soler, Phys. Rev. Lett. 103, 096102 (2009).
     *
     *
     * If you are using vdW-DF2, please also cite:
     *
     *   K. Lee, E. D. Murray, L. Kong, B. I. Lundqvist, and
     *   D. C. Langreth, Phys. Rev. B 82, 081101(R) (2010).
     *
     *
     * If you are calculating the stress with vdW-DF, please also cite:
     *
     *   R. Sabatini, E. Kucukbenli, B. Kolb, T. Thonhauser, and
     *   S. de Gironcoli, J. Phys.: Condens. Matter 24, 424209 (2012).
     *

     Carrying out vdW-DF run using the following parameters:

     Nqs =      20    Nr_points =    1024   r_max =   100.000
     q_mesh =
               0.00001000     0.04494208     0.09755937     0.15916263
               0.23128650     0.31572767     0.41458969     0.53033537
               0.66584808     0.82450364     1.01025438     1.22772762
               1.48234092     1.78043706     2.12944203     2.53805004
               3.01644009     3.57652955     4.23227104     5.00000000

     Gradients computed in reciprocal space

     Adding external electric field

     Computed dipole along edir(3) :
        Dipole                0.0000 Ry au,          0.0000 Debye
        Dipole field          0.0000 Ry au

        Potential amp.       -0.0000 Ry
        Total length         45.0431 bohr

     Starting wfc are  147 randomized atomic wfcs

     Self-consistent Calculation

     iteration #  1     ecut=    36.75 Ry     beta=0.10
     Davidson diagonalization with overlap
     ethr =  1.00E-02,  avg # of iterations =  7.2

[...]

     total energy              =   -2924.21039877 Ry
     Harris-Foulkes estimate   =   -2942.49962451 Ry
     estimated scf accuracy    <      99.80624585 Ry

[...]

     End of self-consistent calculation

          k = 0.0000 0.0000 0.0000 ( 15869 PWs)   bands (ev):

  -124.4784-124.4783-124.4754 -78.6684 -78.6681 -78.6635 -78.6635 -78.6554
   -78.6554 -78.6554 -78.6554 -78.6532 -45.3349 -45.2089 -45.2089 -45.1289
   -45.1032 -45.1032 -45.0417 -45.0072 -44.9813 -44.8359 -44.8359 -44.8339
   -44.8339 -44.7971 -44.7971 -44.6654 -44.6311 -44.6311 -44.6165 -44.6101
   -44.6101 -44.5986 -44.5915 -44.5688 -44.5688 -44.5600 -44.5600  -6.1334
    -5.7547  -5.7547  -5.6811  -5.6796  -5.6796  -5.6112  -5.6112  -5.6044
    -5.5984  -5.5984  -5.5883  -5.4380  -5.4380  -5.3938  -5.3938  -4.5388
    -4.3610  -3.8879  -3.1923  -3.0167  -2.5816  -2.4979  -2.4979  -2.3350
    -2.3350  -2.0587  -2.0193  -2.0193  -1.9131  -1.9131  -1.1999  -1.1999
    -1.1133  -1.1133  -0.8140  -0.7370  -0.6416  -0.2216  -0.2216  -0.2072
     0.0924   0.0925   0.4143   0.4143   0.6667   0.7412   0.7412   0.8535
     0.8657   0.8657   1.0175   1.0175   1.2051   1.2051   1.3637   1.3637
     1.8063   1.8570   1.8818   1.8819   2.2157   2.3983   2.3983   2.5105
     2.5564   3.1906   4.0368   4.0973   4.2030   4.2030   4.3506   4.3506
     5.4692   5.7309   6.2594   6.5812   6.6726   7.3602   7.6849   8.2775
     8.4859   8.4859   8.5545   8.5545   9.4822   9.4822   9.6136

[...]

          k =-0.0918-0.0530 0.0000 ( 15984 PWs)   bands (ev):

[...]

     the Fermi energy is     1.2935 ev

!    total energy              =   -2938.22249226 Ry
     Harris-Foulkes estimate   =   -2938.22248861 Ry
     estimated scf accuracy    <       0.00000091 Ry

     The total energy is the sum of the following terms:

     one-electron contribution =  -23184.96449421 Ry
     hartree contribution      =   11621.24173904 Ry
     xc contribution           =    -409.62640689 Ry
     ewald contribution        =    9035.21636425 Ry
     electric field correction =       0.00000000 Ry
     smearing contrib. (-TS)   =      -0.08969445 Ry

     convergence has been achieved in  16 iterations

 BEEF-vdW xc energy contributions
           1 :   -359.119347889274
           2 :    328.396142353121
           3 :   -275.828767889514
           4 :    215.282748182129
           5 :   -160.093123268352
           6 :    118.580456878052
           7 :   -92.3516228993510
           8 :    77.6309879965519
           9 :   -68.4476883287676
          10 :    59.8486420438819
          11 :   -49.6738302879236
[...]
     Generated by new atomic code, or converted to UPF format
     Using radial grid of  969 points,  7 beta functions with:
                l(1) =   0
                l(2) =   0
                l(3) =   1
                l(4) =   1
                l(5) =   2
                l(6) =   2
                l(7) =   2
     Q(r) pseudized with  8 coefficients,  rinner =    1.200   1.200   1.200
                                                       1.200   1.200

     PseudoPot. # 2 for Zn read from file:
     /afs/slac.stanford.edu/u/if/mamunm/psp/gbrv1.5pbe/Zn.UPF
     MD5 check sum: df62231357ef9e81f77b2b3087fa5675
     Pseudo is Ultrasoft, Zval = 20.0
     Generated by new atomic code, or converted to UPF format
     Using radial grid of  943 points,  6 beta functions with:
                l(1) =   0
                l(2) =   0
                l(3) =   1
                l(4) =   1
                l(5) =   2
                l(6) =   2
     Q(r) pseudized with  8 coefficients,  rinner =    1.100   1.100   1.100
                                                       1.100   1.100

     vdW kernel table read from file vdW_kernel_table
     MD5 check sum: 095c7af220d748ca6e76c0b4c6cfb241

     atomic species   valence    mass     pseudopotential
        Rh1           15.00   102.90550     Rh( 1.00)
        Zn1           20.00    65.38000     Zn( 1.00)

     No symmetry found

   Cartesian axes

     site n.     atom                  positions (alat units)
         1           Rh1 tau(   1) = (   0.0000000   0.0000000  10.0000000  )
         2           Rh1 tau(   2) = (  -1.3615921   2.3583466  10.0000000  )
         3           Rh1 tau(   3) = (   1.3615921   2.3583466  10.0000000  )
         4           Zn1 tau(   4) = (   2.7231841   0.0000000  10.0000000  )
         5           Rh1 tau(   5) = (   2.7231841   1.5722311  12.2234705  )
         6           Rh1 tau(   6) = (   1.3615921   3.9305777  12.2234705  )
         7           Rh1 tau(   7) = (  -1.3615921   3.9305777  12.2234705  )
         8           Zn1 tau(   8) = (   0.0000000   1.5722311  12.2234705  )
         9           Rh1 tau(   9) = (  -0.0000392   3.1382324  14.3902021  )
        10           Rh1 tau(  10) = (   1.3561722   0.7892019  14.3902264  )
        11           Rh1 tau(  11) = (   4.0901649   0.7892290  14.3902217  )
        12           Zn1 tau(  12) = (   2.7231073   3.1445199  14.4973559  )

     number of k points=    20  Fermi-Dirac smearing, width (Ry)=  0.0110
                       cart. coord. in units 2pi/alat
        k(    1) = (   0.0000000   0.0000000   0.0000000), wk =   0.0555556
        k(    2) = (   0.0000000   0.0353355   0.0000000), wk =   0.1111111
        k(    3) = (   0.0000000   0.0706710   0.0000000), wk =   0.1111111
        k(    4) = (   0.0000000  -0.1060065   0.0000000), wk =   0.0555556
        k(    5) = (   0.0306014   0.0176677   0.0000000), wk =   0.1111111
        k(    6) = (   0.0306014   0.0530032   0.0000000), wk =   0.1111111
        k(    7) = (   0.0306014   0.0883387   0.0000000), wk =   0.1111111
        k(    8) = (   0.0306014  -0.0883387   0.0000000), wk =   0.1111111
        k(    9) = (   0.0306014  -0.0530032   0.0000000), wk =   0.1111111
        k(   10) = (   0.0306014  -0.0176677   0.0000000), wk =   0.1111111
        k(   11) = (   0.0612029   0.0353355   0.0000000), wk =   0.1111111
        k(   12) = (   0.0612029   0.0706710   0.0000000), wk =   0.1111111
        k(   13) = (   0.0612029   0.1060065   0.0000000), wk =   0.1111111
        k(   14) = (   0.0612029  -0.0706710   0.0000000), wk =   0.1111111
        k(   15) = (   0.0612029  -0.0353355   0.0000000), wk =   0.1111111
        k(   16) = (   0.0612029   0.0000000   0.0000000), wk =   0.1111111
        k(   17) = (  -0.0918043  -0.0530032   0.0000000), wk =   0.0555556
        k(   18) = (  -0.0918043  -0.0176677   0.0000000), wk =   0.1111111
        k(   19) = (  -0.0918043   0.0176677   0.0000000), wk =   0.1111111
        k(   20) = (  -0.0918043  -0.1590097   0.0000000), wk =   0.0555556

     Largest allocated arrays     est. size (Mb)     dimensions
     Largest temporary arrays     est. size (Mb)     dimensions

     Initial potential from superposition of free atoms
     Check: negative starting charge=   -0.489456

     starting charge  190.49869, renormalised to  195.00000

[...]

     *
     * You are using vdW-DF for exchange-correlation in this calculation.
     * Please cite the following three references that made this development
     * possible:
     *
     *   M. Dion, H. Rydberg, E. Schroder, D. C. Langreth, and
     *   B. I. Lundqvist, Phys. Rev. Lett. 92, 246401 (2004).
     *
     *   T. Thonhauser, V. R. Cooper, S. Li, A. Puzder, P. Hyldgaard, and
     *   D. C. Langreth, Phys. Rev. B 76, 125112 (2007).
     *
     *   G. Roman-Perez and J. M. Soler, Phys. Rev. Lett. 103, 096102 (2009).
     *
     *
     * If you are using vdW-DF2, please also cite:
     *
     *   K. Lee, E. D. Murray, L. Kong, B. I. Lundqvist, and
     *   D. C. Langreth, Phys. Rev. B 82, 081101(R) (2010).
     *
     *
     * If you are calculating the stress with vdW-DF, please also cite:
     *
     *   R. Sabatini, E. Kucukbenli, B. Kolb, T. Thonhauser, and
     *   S. de Gironcoli, J. Phys.: Condens. Matter 24, 424209 (2012).
     *

     Carrying out vdW-DF run using the following parameters:

     Nqs =      20    Nr_points =    1024   r_max =   100.000
     q_mesh =
               0.00001000     0.04494208     0.09755937     0.15916263
               0.23128650     0.31572767     0.41458969     0.53033537
               0.66584808     0.82450364     1.01025438     1.22772762
               1.48234092     1.78043706     2.12944203     2.53805004
               3.01644009     3.57652955     4.23227104     5.00000000

     Gradients computed in reciprocal space

[...]

     Starting wfc are  147 randomized atomic wfcs

     Self-consistent Calculation

[...]

     total energy              =   -2938.22480298 Ry
     Harris-Foulkes estimate   =   -2938.22480241 Ry
     estimated scf accuracy    <       0.00000181 Ry

     iteration # 18     ecut=    36.75 Ry     beta=0.10
     Davidson diagonalization with overlap
     ethr =  9.30E-10,  avg # of iterations =  1.9

[...]

     negative rho (up, down):  5.069E-01 0.000E+00

     Adding external electric field

     Computed dipole along edir(3) :
        Dipole                0.0021 Ry au,          0.0053 Debye
        Dipole field          0.0000 Ry au

        Potential amp.       -0.0006 Ry
        Total length         45.0431 bohr

     End of self-consistent calculation

[...]

          k = 0.0612 0.0000 0.0000 ( 15938 PWs)   bands (ev):

[...]

          k =-0.0918-0.1590 0.0000 ( 15984 PWs)   bands (ev):

  -124.4802-124.4790-124.4706 -78.6711 -78.6669 -78.6669 -78.6605 -78.6577
   -78.6568 -78.6568 -78.6479 -78.6478 -45.2849 -45.2030 -45.1688 -45.1536
   -45.1199 -45.0715 -45.0580 -44.9913 -44.9485 -44.9093 -44.8599 -44.8105
   -44.7756 -44.7537 -44.7473 -44.7257 -44.7201 -44.7041 -44.6812 -44.6605
   -44.6491 -44.6486 -44.6111 -44.6021 -44.5958 -44.5918 -44.5589  -5.6588
    -5.6172  -5.5696  -5.5688  -5.5587  -5.5510  -5.5349  -5.5117  -5.4951
    -5.4666  -5.4471  -5.4392  -5.4295  -5.4260  -5.3568  -4.5296  -4.3065
    -3.4852  -3.2997  -2.9810  -2.9478  -2.8006  -2.3008  -2.2575  -2.1643
    -2.1168  -1.9100  -1.8931  -1.8627  -1.7430  -1.7429  -1.6077  -1.3714
    -1.2322  -1.0795  -0.9382  -0.8221  -0.7698  -0.6470  -0.6115  -0.5432
    -0.5225  -0.4145  -0.3992  -0.2930  -0.2668  -0.1986  -0.0855   0.1762
     0.3037   0.3428   0.3550   0.4439   0.5005   0.6908   0.7820   0.8018
     0.8582   0.9204   1.1231   1.2252   1.4735   1.8244   2.2580   2.3747
     2.8747   3.1312   3.9553   4.2224   4.7161   5.1185   5.4546   6.0453
     6.3389   7.0613   7.0836   7.6881   7.6958   8.0014   8.0037   8.4648
     8.8831   9.0038   9.0268   9.0596   9.3970   9.5659   9.7604

     the Fermi energy is     1.2989 ev

!    total energy              =   -2938.22480546 Ry
     Harris-Foulkes estimate   =   -2938.22480314 Ry
     estimated scf accuracy    <       0.00000075 Ry

     The total energy is the sum of the following terms:

     one-electron contribution =  -23259.67285899 Ry
     hartree contribution      =   11658.54791659 Ry
     xc contribution           =    -409.67033072 Ry
     ewald contribution        =    9072.65856787 Ry
     electric field correction =       0.00000001 Ry
     smearing contrib. (-TS)   =      -0.08810023 Ry

     convergence has been achieved in  18 iterations

 BEEF-vdW xc energy contributions
           1 :   -359.168176496765
           2 :    328.474649418225
           3 :   -275.943585934372
           4 :    215.410011771375
           5 :   -160.190899575810
           6 :    118.612764500563
           7 :   -92.3096432752043
           8 :    77.5395692303629
           9 :   -68.3537581942820
          10 :    59.7978474490953
          11 :   -49.6879176585962
          12 :    38.5230979115457
          13 :   -28.1329045741252
          14 :    20.1322754791091
          15 :   -15.0376517823341
          16 :    12.2744218464017
          17 :   -10.7503083912318
          18 :    9.47814314517541
          19 :   -7.91166176120214
          20 :    5.95652745478753
          21 :   -3.80905670339234
          22 :    1.78704074913054
          23 :  -0.216119455394619
          24 :  -0.665722107065903
          25 :   0.819435033433706
          26 :  -0.482777534387253
          27 :   0.114797168192297
          28 :  -0.176362378977274
          29 :   0.854531236694527
          30 :   -1.91977056762312
          31 :   -32.9408212322861
          32 :   -24.0847495392293

     Forces acting on atoms (Ry/au):

     negative rho (up, down):  5.069E-01 0.000E+00
     atom    1 type  1   force =    -0.00000386    0.00381395    0.01101313
     atom    2 type  1   force =     0.00329563   -0.00190542    0.01100244
     atom    3 type  1   force =    -0.00330635   -0.00190692    0.01101146
     atom    4 type  2   force =     0.00000227   -0.00002862   -0.00872823
     atom    5 type  1   force =    -0.00000544    0.00613262   -0.00636877
     atom    6 type  1   force =     0.00530628   -0.00306612   -0.00637353
     atom    7 type  1   force =    -0.00531873   -0.00306693   -0.00637306
     atom    8 type  2   force =     0.00004854    0.00000710   -0.01080919
     atom    9 type  1   force =    -0.00000410   -0.00117794    0.00139723
     atom   10 type  1   force =    -0.00101464    0.00059575    0.00139256
     atom   11 type  1   force =     0.00100405    0.00059437    0.00139682
     atom   12 type  2   force =    -0.00000366    0.00000815    0.00143913

     Total force =     0.029102     Total SCF correction =     0.003817
     SCF correction compared to forces is large: reduce conv_thr to get better values

     entering subroutine stress ...

     negative rho (up, down):  5.069E-01 0.000E+00
          total   stress  (Ry/bohr**3)                   (kbar)     P=  -32.49
  -0.00025347   0.00000000   0.00000001        -37.29      0.00      0.00
   0.00000000  -0.00025345  -0.00000000          0.00    -37.28     -0.00
   0.00000001  -0.00000000  -0.00015560          0.00     -0.00    -22.89

 !ASE

     Writing output data file calc.save

     General routines

     Parallel routines

   This run was terminated on:  22: 6:51  27Dec2018

   JOB DONE.
Job  /afs/slac/g/suncat/bin/suncat-tsmpirun -x LD_LIBRARY_PATH -wdir /scratch/qe110741_xdhXQ pw.x -in pw.inp

TID   HOST_NAME   COMMAND_LINE            STATUS            TERMINATION_TIME
00000 suncat0060 pw.x -in pw.inp   Done                     12/27/2018 22:06:51
00001 suncat0060 pw.x -in pw.inp   Done                     12/27/2018 22:06:51
00002 suncat0060 pw.x -in pw.inp   Done                     12/27/2018 22:06:51
00003 suncat0060 pw.x -in pw.inp   Done                     12/27/2018 22:06:51
00004 suncat0060 pw.x -in pw.inp   Done                     12/27/2018 22:06:51
00005 suncat0060 pw.x -in pw.inp   Done                     12/27/2018 22:06:51
00006 suncat0060 pw.x -in pw.inp   Done                     12/27/2018 22:06:51
00007 suncat0060 pw.x -in pw.inp   Done                     12/27/2018 22:06:51
00008 suncat0059 pw.x -in pw.inp   Done                     12/27/2018 22:06:51
00009 suncat0059 pw.x -in pw.inp   Done                     12/27/2018 22:06:51
00010 suncat0059 pw.x -in pw.inp   Done                     12/27/2018 22:06:51
00011 suncat0059 pw.x -in pw.inp   Done                     12/27/2018 22:06:51
00012 suncat0059 pw.x -in pw.inp   Done                     12/27/2018 22:06:51
00013 suncat0059 pw.x -in pw.inp   Done                     12/27/2018 22:06:51
00014 suncat0059 pw.x -in pw.inp   Done                     12/27/2018 22:06:51
00015 suncat0059 pw.x -in pw.inp   Done                     12/27/2018 22:06:51
00016 suncat0180 pw.x -in pw.inp   Done                     12/27/2018 22:06:51
00017 suncat0180 pw.x -in pw.inp   Done                     12/27/2018 22:06:51
00018 suncat0180 pw.x -in pw.inp   Done                     12/27/2018 22:06:51
00019 suncat0180 pw.x -in pw.inp   Done                     12/27/2018 22:06:51
00020 suncat0180 pw.x -in pw.inp   Done                     12/27/2018 22:06:51
00021 suncat0180 pw.x -in pw.inp   Done                     12/27/2018 22:06:51
00022 suncat0180 pw.x -in pw.inp   Done                     12/27/2018 22:06:51
00023 suncat0180 pw.x -in pw.inp   Done                     12/27/2018 22:06:51
00024 suncat0167 pw.x -in pw.inp   Done                     12/27/2018 22:06:51
00025 suncat0167 pw.x -in pw.inp   Done                     12/27/2018 22:06:51
00026 suncat0167 pw.x -in pw.inp   Done                     12/27/2018 22:06:51
00027 suncat0167 pw.x -in pw.inp   Done                     12/27/2018 22:06:51
00028 suncat0167 pw.x -in pw.inp   Done                     12/27/2018 22:06:51
00029 suncat0167 pw.x -in pw.inp   Done                     12/27/2018 22:06:51
00030 suncat0167 pw.x -in pw.inp   Done                     12/27/2018 22:06:51
00031 suncat0167 pw.x -in pw.inp   Done                     12/27/2018 22:06:51
00032 suncat0166 pw.x -in pw.inp   Done                     12/27/2018 22:06:51
00033 suncat0166 pw.x -in pw.inp   Done                     12/27/2018 22:06:51
00034 suncat0166 pw.x -in pw.inp   Done                     12/27/2018 22:06:51
00035 suncat0166 pw.x -in pw.inp   Done                     12/27/2018 22:06:51
00036 suncat0166 pw.x -in pw.inp   Done                     12/27/2018 22:06:51
00037 suncat0166 pw.x -in pw.inp   Done                     12/27/2018 22:06:51
00038 suncat0166 pw.x -in pw.inp   Done                     12/27/2018 22:06:51
00039 suncat0166 pw.x -in pw.inp   Done                     12/27/2018 22:06:51
00040 suncat0149 pw.x -in pw.inp   Done                     12/27/2018 22:06:51
00041 suncat0149 pw.x -in pw.inp   Done                     12/27/2018 22:06:51
00042 suncat0149 pw.x -in pw.inp   Done                     12/27/2018 22:06:51
00043 suncat0149 pw.x -in pw.inp   Done                     12/27/2018 22:06:51
00044 suncat0149 pw.x -in pw.inp   Done                     12/27/2018 22:06:51
00045 suncat0149 pw.x -in pw.inp   Done                     12/27/2018 22:06:51
00046 suncat0149 pw.x -in pw.inp   Done                     12/27/2018 22:06:51
00047 suncat0149 pw.x -in pw.inp   Done                     12/27/2018 22:06:51
00048 suncat0148 pw.x -in pw.inp   Done                     12/27/2018 22:06:51
00049 suncat0148 pw.x -in pw.inp   Done                     12/27/2018 22:06:51
00050 suncat0148 pw.x -in pw.inp   Done                     12/27/2018 22:06:51
00051 suncat0148 pw.x -in pw.inp   Done                     12/27/2018 22:06:51
00052 suncat0148 pw.x -in pw.inp   Done                     12/27/2018 22:06:51
00053 suncat0148 pw.x -in pw.inp   Done                     12/27/2018 22:06:51
00054 suncat0148 pw.x -in pw.inp   Done                     12/27/2018 22:06:51
00055 suncat0148 pw.x -in pw.inp   Done                     12/27/2018 22:06:51
00056 suncat0142 pw.x -in pw.inp   Done                     12/27/2018 22:06:51
00057 suncat0142 pw.x -in pw.inp   Done                     12/27/2018 22:06:51
00058 suncat0142 pw.x -in pw.inp   Done                     12/27/2018 22:06:51
00059 suncat0142 pw.x -in pw.inp   Done                     12/27/2018 22:06:51
00060 suncat0142 pw.x -in pw.inp   Done                     12/27/2018 22:06:51
00061 suncat0142 pw.x -in pw.inp   Done                     12/27/2018 22:06:51
00062 suncat0142 pw.x -in pw.inp   Done                     12/27/2018 22:06:51
00063 suncat0142 pw.x -in pw.inp   Done                     12/27/2018 22:06:51