     Program PWSCF v.5.1rc2 (svn rev. 11289) starts on  1Jan2019 at 23:45:17

     Current dimensions of program PWSCF are:
     Max number of different atomic species (ntypx) = 10
     Max number of k-points (npk) =  40000
     Max angular momentum in pseudopotentials (lmaxx) =  3
     Presently stress not available with electric field

     IMPORTANT: XC functional enforced from input :
     Exchange-correlation      = BEEF-VDW ( 1  4 27 13 2)
     Any further DFT definition will be discarded
     Please, verify this is what you really want

     Subspace diagonalization in iterative solution of the eigenvalue problem:
     a serial algorithm will be used

     bravais-lattice index     =            0
     lattice parameter (alat)  =       1.8897  a.u.
     unit-cell volume          =    4954.0667 (a.u.)^3
     number of atoms/cell      =           12
     number of atomic types    =            2
     number of electrons       =       147.00
     number of Kohn-Sham states=          103
     kinetic-energy cutoff     =      36.7493  Ry
     charge density cutoff     =     367.4932  Ry
     convergence threshold     =      1.0E-06
     mixing beta               =       0.1000
     number of iterations used =           10  plain     mixing
     Exchange-correlation      = BEEF-VDW ( 1  4 27 13 2)
     nstep                     =           50

     celldm(1)=   1.889726  celldm(2)=   0.000000  celldm(3)=   0.000000
     celldm(4)=   0.000000  celldm(5)=   0.000000  celldm(6)=   0.000000

     crystal axes: (cart. coord. in units of alat)
               a(1) = (   5.849280   0.000000   0.000000 )
               a(2) = (  -2.924640   5.065625   0.000000 )
               a(3) = (   0.000000   0.000000  24.775917 )

     reciprocal axes: (cart. coord. in units 2 pi/alat)
               b(1) = (  0.170961  0.098704  0.000000 )
               b(2) = (  0.000000  0.197409  0.000000 )
               b(3) = (  0.000000  0.000000  0.040362 )

     PseudoPot. # 1 for Ti read from file:
     /afs/slac.stanford.edu/u/if/mamunm/psp/gbrv1.5pbe/Ti.UPF
     MD5 check sum: 88a00a6731bd790ddea75d31a80cb452
     Pseudo is Ultrasoft + core correction, Zval = 12.0
     Generated by new atomic code, or converted to UPF format
     Using radial grid of  851 points,  6 beta functions with:
                l(1) =   0
                l(2) =   0
                l(3) =   1
                l(4) =   1
                l(5) =   2
                l(6) =   2
     Q(r) pseudized with  6 coefficients,  rinner =    1.000   1.000   1.000
                                                       1.000   1.000

     PseudoPot. # 2 for Ta read from file:
     /afs/slac.stanford.edu/u/if/mamunm/psp/gbrv1.5pbe/Ta.UPF
     MD5 check sum: f8bbe9446314a3b8ea5d9f3e3836c939
     Pseudo is Ultrasoft + core correction, Zval = 13.0
     Generated by new atomic code, or converted to UPF format
     Using radial grid of  921 points,  7 beta functions with:
                l(1) =   0
                l(2) =   0
                l(3) =   1
                l(4) =   1
                l(5) =   2
                l(6) =   2
                l(7) =   3
     Q(r) pseudized with  6 coefficients,  rinner =    1.300   1.300   1.300
                                                       1.300   1.300   1.300
                                                       1.300

     vdW kernel table read from file vdW_kernel_table
     MD5 check sum: 095c7af220d748ca6e76c0b4c6cfb241

     atomic species   valence    mass     pseudopotential
        Ti1           12.00    47.86700     Ti( 1.00)
        Ta1           13.00   180.94788     Ta( 1.00)

     No symmetry found

   Cartesian axes

     site n.     atom                  positions (alat units)
         1           Ti1 tau(   1) = (   0.0000000   0.0000000  10.0000000  )
         2           Ti1 tau(   2) = (  -1.4623201   2.5328127  10.0000000  )
         3           Ti1 tau(   3) = (   1.4623201   2.5328127  10.0000000  )
         4           Ta1 tau(   4) = (   2.9246402   0.0000000  10.0000000  )
         5           Ti1 tau(   5) = (   2.9246402   1.6885418  12.3879587  )
         6           Ti1 tau(   6) = (   1.4623201   4.2213545  12.3879587  )
         7           Ti1 tau(   7) = (  -1.4623201   4.2213545  12.3879587  )
         8           Ta1 tau(   8) = (   0.0000000   1.6885418  12.3879587  )
         9           Ti1 tau(   9) = (  -0.0000000   3.3770836  14.7759174  )
        10           Ti1 tau(  10) = (   1.4623201   0.8442709  14.7759174  )
        11           Ti1 tau(  11) = (   4.3869603   0.8442709  14.7759174  )
        12           Ta1 tau(  12) = (   2.9246402   3.3770836  14.7759174  )

     number of k points=    20  Fermi-Dirac smearing, width (Ry)=  0.0110
                       cart. coord. in units 2pi/alat
        k(    1) = (   0.0000000   0.0000000   0.0000000), wk =   0.0555556
        k(    2) = (   0.0000000   0.0329015   0.0000000), wk =   0.1111111
        k(    3) = (   0.0000000   0.0658030   0.0000000), wk =   0.1111111
        k(    4) = (   0.0000000  -0.0987045   0.0000000), wk =   0.0555556
        k(    5) = (   0.0284935   0.0164507   0.0000000), wk =   0.1111111
        k(    6) = (   0.0284935   0.0493522   0.0000000), wk =   0.1111111
        k(    7) = (   0.0284935   0.0822537   0.0000000), wk =   0.1111111
        k(    8) = (   0.0284935  -0.0822537   0.0000000), wk =   0.1111111
        k(    9) = (   0.0284935  -0.0493522   0.0000000), wk =   0.1111111
        k(   10) = (   0.0284935  -0.0164507   0.0000000), wk =   0.1111111
        k(   11) = (   0.0569871   0.0329015   0.0000000), wk =   0.1111111
        k(   12) = (   0.0569871   0.0658030   0.0000000), wk =   0.1111111
        k(   13) = (   0.0569871   0.0987045   0.0000000), wk =   0.1111111
        k(   14) = (   0.0569871  -0.0658030   0.0000000), wk =   0.1111111
        k(   15) = (   0.0569871  -0.0329015   0.0000000), wk =   0.1111111
        k(   16) = (   0.0569871   0.0000000   0.0000000), wk =   0.1111111
        k(   17) = (  -0.0854806  -0.0493522   0.0000000), wk =   0.0555556
        k(   18) = (  -0.0854806  -0.0164507   0.0000000), wk =   0.1111111
        k(   19) = (  -0.0854806   0.0164507   0.0000000), wk =   0.1111111
        k(   20) = (  -0.0854806  -0.1480567   0.0000000), wk =   0.0555556

     Largest allocated arrays     est. size (Mb)     dimensions
     Largest temporary arrays     est. size (Mb)     dimensions

     Check: negative/imaginary core charge=   -0.000004    0.000000

     Initial potential from superposition of free atoms
     Check: negative starting charge=   -0.290284

     starting charge  137.99627, renormalised to  147.00000

     negative rho (up, down):  3.092E-01 0.000E+00

     *
     * You are using vdW-DF for exchange-correlation in this calculation.
     * Please cite the following three references that made this development
     * possible:
     *
     *   M. Dion, H. Rydberg, E. Schroder, D. C. Langreth, and
     *   B. I. Lundqvist, Phys. Rev. Lett. 92, 246401 (2004).
     *
     *   T. Thonhauser, V. R. Cooper, S. Li, A. Puzder, P. Hyldgaard, and
     *   D. C. Langreth, Phys. Rev. B 76, 125112 (2007).
     *
     *   G. Roman-Perez and J. M. Soler, Phys. Rev. Lett. 103, 096102 (2009).
     *
     *
     * If you are using vdW-DF2, please also cite:
     *
     *   K. Lee, E. D. Murray, L. Kong, B. I. Lundqvist, and
     *   D. C. Langreth, Phys. Rev. B 82, 081101(R) (2010).
     *
     *
     * If you are calculating the stress with vdW-DF, please also cite:
     *
     *   R. Sabatini, E. Kucukbenli, B. Kolb, T. Thonhauser, and
     *   S. de Gironcoli, J. Phys.: Condens. Matter 24, 424209 (2012).
     *

     Carrying out vdW-DF run using the following parameters:

     Nqs =      20    Nr_points =    1024   r_max =   100.000
     q_mesh =
               0.00001000     0.04494208     0.09755937     0.15916263
               0.23128650     0.31572767     0.41458969     0.53033537
               0.66584808     0.82450364     1.01025438     1.22772762
               1.48234092     1.78043706     2.12944203     2.53805004
               3.01644009     3.57652955     4.23227104     5.00000000

     Gradients computed in reciprocal space

     Adding external electric field

     Computed dipole along edir(3) :
        Dipole               -0.0000 Ry au,         -0.0000 Debye
        Dipole field         -0.0000 Ry au

        Potential amp.        0.0000 Ry
        Total length         45.6492 bohr

     Starting wfc are  129 randomized atomic wfcs

     Self-consistent Calculation

     iteration #  1     ecut=    36.75 Ry     beta=0.10
     Davidson diagonalization with overlap
     ethr =  1.00E-02,  avg # of iterations =  3.2

[...]

     total energy              =   -1509.07714322 Ry
     Harris-Foulkes estimate   =   -1510.49219200 Ry
     estimated scf accuracy    <       8.37526634 Ry

[...]

     End of self-consistent calculation

          k = 0.0000 0.0000 0.0000 ( 18739 PWs)   bands (ev):

   -67.2038 -67.2037 -67.0983 -56.0809 -56.0770 -56.0227 -56.0227 -56.0218
   -56.0217 -55.9102 -55.8582 -55.8582 -33.6145 -33.5878 -33.5877 -33.5801
   -33.5749 -33.5749 -33.5004 -33.5004 -33.4908 -32.5290 -32.5098 -32.3899
   -32.3415 -32.3415 -32.3393 -32.2882 -32.2882 -32.2881 -32.2881 -32.2878
   -32.2878 -32.2761 -32.1371 -32.1272 -32.1272 -32.1223 -32.0688 -32.0687
   -32.0595 -32.0595 -32.0492 -32.0369 -32.0369 -31.9648 -31.9027 -31.9027
    -5.0440  -3.6740  -2.4775  -1.8476  -1.8476  -1.6663  -1.6492  -1.6492
    -1.3828  -1.1904  -1.1904  -0.9633  -0.9086  -0.9086  -0.8097  -0.2127
    -0.2127   0.0860   0.7214   0.8695   1.0049   1.0049   1.1339   1.3112
     1.3762   1.4517   1.4871   1.4871   1.6822   1.6822   1.8694   1.8694
     1.8963   1.8963   1.9395   1.9395   1.9406   1.9416   2.0555   2.0555
     2.6061   2.7008   2.7008   2.7818   2.9132   2.9133   3.3047   3.3047
     3.5294   3.5294   3.7114   3.7114   3.8768   3.9255   4.3589

[...]

          k =-0.0855-0.0494 0.0000 ( 18616 PWs)   bands (ev):

[...]

     the Fermi energy is     0.9775 ev

!    total energy              =   -1508.43259944 Ry
     Harris-Foulkes estimate   =   -1508.43259653 Ry
     estimated scf accuracy    <       0.00000022 Ry

     The total energy is the sum of the following terms:

     one-electron contribution =  -10851.75963727 Ry
     hartree contribution      =    5409.42502603 Ry
     xc contribution           =    -299.05582942 Ry
     ewald contribution        =    4233.09181299 Ry
     electric field correction =       0.00000001 Ry
     smearing contrib. (-TS)   =      -0.13397177 Ry

     convergence has been achieved in  23 iterations

 BEEF-vdW xc energy contributions
           1 :   -259.683483801255
           2 :    235.441924333129
           3 :   -194.723718700453
           4 :    149.153630131409
           5 :   -108.956352490644
           6 :    79.2287997834322
           7 :   -59.4264919721468
           8 :    45.6324222158542
           9 :   -33.7711400039805
          10 :    21.8172649921742
          11 :   -10.1072689560084
          12 :   0.138789116446162
          13 :    6.98077908336342
[...]
     /afs/slac.stanford.edu/u/if/mamunm/psp/gbrv1.5pbe/Ti.UPF
     MD5 check sum: 88a00a6731bd790ddea75d31a80cb452
     Pseudo is Ultrasoft + core correction, Zval = 12.0
     Generated by new atomic code, or converted to UPF format
     Using radial grid of  851 points,  6 beta functions with:
                l(1) =   0
                l(2) =   0
                l(3) =   1
                l(4) =   1
                l(5) =   2
                l(6) =   2
     Q(r) pseudized with  6 coefficients,  rinner =    1.000   1.000   1.000
                                                       1.000   1.000

     PseudoPot. # 2 for Ta read from file:
     /afs/slac.stanford.edu/u/if/mamunm/psp/gbrv1.5pbe/Ta.UPF
     MD5 check sum: f8bbe9446314a3b8ea5d9f3e3836c939
     Pseudo is Ultrasoft + core correction, Zval = 13.0
     Generated by new atomic code, or converted to UPF format
     Using radial grid of  921 points,  7 beta functions with:
                l(1) =   0
                l(2) =   0
                l(3) =   1
                l(4) =   1
                l(5) =   2
                l(6) =   2
                l(7) =   3
     Q(r) pseudized with  6 coefficients,  rinner =    1.300   1.300   1.300
                                                       1.300   1.300   1.300
                                                       1.300

     vdW kernel table read from file vdW_kernel_table
     MD5 check sum: 095c7af220d748ca6e76c0b4c6cfb241

     atomic species   valence    mass     pseudopotential
        Ti1           12.00    47.86700     Ti( 1.00)
        Ta1           13.00   180.94788     Ta( 1.00)

     No symmetry found

   Cartesian axes

     site n.     atom                  positions (alat units)
         1           Ti1 tau(   1) = (   0.0000000   0.0000000  10.0000000  )
         2           Ti1 tau(   2) = (  -1.4623201   2.5328127  10.0000000  )
         3           Ti1 tau(   3) = (   1.4623201   2.5328127  10.0000000  )
         4           Ta1 tau(   4) = (   2.9246402   0.0000000  10.0000000  )
         5           Ti1 tau(   5) = (   2.9246402   1.6885418  12.3879587  )
         6           Ti1 tau(   6) = (   1.4623201   4.2213545  12.3879587  )
         7           Ti1 tau(   7) = (  -1.4623201   4.2213545  12.3879587  )
         8           Ta1 tau(   8) = (   0.0000000   1.6885418  12.3879587  )
         9           Ti1 tau(   9) = (  -0.0000142   3.3931227  14.6945545  )
        10           Ti1 tau(  10) = (   1.4762012   0.8362517  14.6945440  )
        11           Ti1 tau(  11) = (   4.3730606   0.8362570  14.6945694  )
        12           Ta1 tau(  12) = (   2.9246207   3.3770802  14.5904015  )

     number of k points=    20  Fermi-Dirac smearing, width (Ry)=  0.0110
                       cart. coord. in units 2pi/alat
        k(    1) = (   0.0000000   0.0000000   0.0000000), wk =   0.0555556
        k(    2) = (   0.0000000   0.0329015   0.0000000), wk =   0.1111111
        k(    3) = (   0.0000000   0.0658030   0.0000000), wk =   0.1111111
        k(    4) = (   0.0000000  -0.0987045   0.0000000), wk =   0.0555556
        k(    5) = (   0.0284935   0.0164507   0.0000000), wk =   0.1111111
        k(    6) = (   0.0284935   0.0493522   0.0000000), wk =   0.1111111
        k(    7) = (   0.0284935   0.0822537   0.0000000), wk =   0.1111111
        k(    8) = (   0.0284935  -0.0822537   0.0000000), wk =   0.1111111
        k(    9) = (   0.0284935  -0.0493522   0.0000000), wk =   0.1111111
        k(   10) = (   0.0284935  -0.0164507   0.0000000), wk =   0.1111111
        k(   11) = (   0.0569871   0.0329015   0.0000000), wk =   0.1111111
        k(   12) = (   0.0569871   0.0658030   0.0000000), wk =   0.1111111
        k(   13) = (   0.0569871   0.0987045   0.0000000), wk =   0.1111111
        k(   14) = (   0.0569871  -0.0658030   0.0000000), wk =   0.1111111
        k(   15) = (   0.0569871  -0.0329015   0.0000000), wk =   0.1111111
        k(   16) = (   0.0569871   0.0000000   0.0000000), wk =   0.1111111
        k(   17) = (  -0.0854806  -0.0493522   0.0000000), wk =   0.0555556
        k(   18) = (  -0.0854806  -0.0164507   0.0000000), wk =   0.1111111
        k(   19) = (  -0.0854806   0.0164507   0.0000000), wk =   0.1111111
        k(   20) = (  -0.0854806  -0.1480567   0.0000000), wk =   0.0555556

     Largest allocated arrays     est. size (Mb)     dimensions
     Largest temporary arrays     est. size (Mb)     dimensions

     Check: negative/imaginary core charge=   -0.000004    0.000000

     Initial potential from superposition of free atoms
     Check: negative starting charge=   -0.290681

     starting charge  137.99627, renormalised to  147.00000

[...]

     *
     * You are using vdW-DF for exchange-correlation in this calculation.
     * Please cite the following three references that made this development
     * possible:
     *
     *   M. Dion, H. Rydberg, E. Schroder, D. C. Langreth, and
     *   B. I. Lundqvist, Phys. Rev. Lett. 92, 246401 (2004).
     *
     *   T. Thonhauser, V. R. Cooper, S. Li, A. Puzder, P. Hyldgaard, and
     *   D. C. Langreth, Phys. Rev. B 76, 125112 (2007).
     *
     *   G. Roman-Perez and J. M. Soler, Phys. Rev. Lett. 103, 096102 (2009).
     *
     *
     * If you are using vdW-DF2, please also cite:
     *
     *   K. Lee, E. D. Murray, L. Kong, B. I. Lundqvist, and
     *   D. C. Langreth, Phys. Rev. B 82, 081101(R) (2010).
     *
     *
     * If you are calculating the stress with vdW-DF, please also cite:
     *
     *   R. Sabatini, E. Kucukbenli, B. Kolb, T. Thonhauser, and
     *   S. de Gironcoli, J. Phys.: Condens. Matter 24, 424209 (2012).
     *

     Carrying out vdW-DF run using the following parameters:

     Nqs =      20    Nr_points =    1024   r_max =   100.000
     q_mesh =
               0.00001000     0.04494208     0.09755937     0.15916263
               0.23128650     0.31572767     0.41458969     0.53033537
               0.66584808     0.82450364     1.01025438     1.22772762
               1.48234092     1.78043706     2.12944203     2.53805004
               3.01644009     3.57652955     4.23227104     5.00000000

     Gradients computed in reciprocal space

[...]

     Starting wfc are  129 randomized atomic wfcs

     Self-consistent Calculation

[...]

     total energy              =   -1508.44648518 Ry
     Harris-Foulkes estimate   =   -1508.44648441 Ry
     estimated scf accuracy    <       0.00000143 Ry

     iteration # 20     ecut=    36.75 Ry     beta=0.10
     Davidson diagonalization with overlap
     ethr =  9.74E-10,  avg # of iterations =  1.7

[...]

     negative rho (up, down):  2.968E-01 0.000E+00

     Adding external electric field

     Computed dipole along edir(3) :
        Dipole                0.0242 Ry au,          0.0614 Debye
        Dipole field          0.0001 Ry au

        Potential amp.       -0.0056 Ry
        Total length         45.6492 bohr

     End of self-consistent calculation

[...]

          k = 0.0570 0.0000 0.0000 ( 18649 PWs)   bands (ev):

[...]

          k =-0.0855-0.1481 0.0000 ( 18616 PWs)   bands (ev):

   -67.1795 -67.0809 -67.0682 -56.0500 -56.0371 -56.0293 -56.0177 -56.0106
   -55.9992 -55.8254 -55.8081 -55.7905 -33.5729 -33.5377 -33.5181 -33.4937
   -33.4854 -33.4780 -33.4564 -33.4406 -33.4284 -32.4312 -32.4068 -32.3919
   -32.3492 -32.3284 -32.3104 -32.2755 -32.2741 -32.2693 -32.2451 -32.2408
   -32.2328 -32.2160 -32.2052 -32.1946 -32.1740 -32.1301 -32.0816 -32.0704
   -32.0166 -32.0091 -31.9918 -31.9708 -31.9653 -31.9629 -31.9616 -31.8580
    -3.6212  -3.3329  -2.3842  -1.9589  -1.4782  -1.2367  -1.1594  -1.1094
    -0.9516  -0.8408  -0.4377  -0.3048  -0.2283  -0.1961  -0.0990   0.0468
     0.1662   0.2311   0.2759   0.3735   0.4376   0.4568   0.5937   0.6564
     0.6899   0.7849   0.8208   0.9551   0.9673   1.0236   1.1307   1.2154
     1.4421   1.5732   1.6137   1.6557   1.7474   1.8280   2.1331   2.1647
     2.4127   2.5371   2.6520   2.6641   2.7838   2.8293   2.9180   2.9564
     2.9632   3.1082   3.1250   3.2738   3.3164   3.3566   3.3973

     the Fermi energy is     0.9885 ev

!    total energy              =   -1508.44648628 Ry
     Harris-Foulkes estimate   =   -1508.44648527 Ry
     estimated scf accuracy    <       0.00000090 Ry

     The total energy is the sum of the following terms:

     one-electron contribution =  -11018.26742385 Ry
     hartree contribution      =    5492.87949442 Ry
     xc contribution           =    -299.24140942 Ry
     ewald contribution        =    4316.31277261 Ry
     electric field correction =       0.00000148 Ry
     smearing contrib. (-TS)   =      -0.12992151 Ry

     convergence has been achieved in  20 iterations

 BEEF-vdW xc energy contributions
           1 :   -260.027361522880
           2 :    235.842848145090
           3 :   -195.180097410400
           4 :    149.594337206800
           5 :   -109.289839653407
           6 :    79.4128157041385
           7 :   -59.5048402594969
           8 :    45.7092047091444
           9 :   -33.9402788470578
          10 :    22.0970044796467
          11 :   -10.4290496930146
          12 :   0.399854712807553
          13 :    6.84011341091417
          14 :   -11.3274762226971
          15 :    14.1021590919164
          16 :   -16.3345592857873
          17 :    18.5082609825643
          18 :   -20.2408586749503
          19 :    20.7688170230568
          20 :   -19.6447800271889
          21 :    17.1017088417200
          22 :   -13.8743386175300
          23 :    10.6933685953119
          24 :   -7.87504854874243
          25 :    5.28024648466032
          26 :   -2.60435833205906
          27 :  -0.276345988337482
          28 :    3.16604862740365
          29 :   -5.68856614578675
          30 :    7.55480062536100
          31 :   -25.6132656951783
          32 :   -18.5537923844645

     Forces acting on atoms (Ry/au):

     negative rho (up, down):  2.968E-01 0.000E+00
     atom    1 type  1   force =     0.00000074   -0.00077043    0.00793119
     atom    2 type  1   force =    -0.00067123    0.00039032    0.00792191
     atom    3 type  1   force =     0.00066639    0.00038733    0.00793417
     atom    4 type  2   force =     0.00000472    0.00000320    0.02845169
     atom    5 type  1   force =     0.00000510   -0.00760370   -0.01606455
     atom    6 type  1   force =    -0.00659935    0.00380541   -0.01605437
     atom    7 type  1   force =     0.00659353    0.00379629   -0.01606164
     atom    8 type  2   force =     0.00001039   -0.00001890   -0.00407752
     atom    9 type  1   force =    -0.00000356    0.00016613   -0.00008785
     atom   10 type  1   force =     0.00014039   -0.00008039   -0.00009396
     atom   11 type  1   force =    -0.00014381   -0.00007841   -0.00009618
     atom   12 type  2   force =    -0.00000332    0.00000315    0.00029710

     Total force =     0.044320     Total SCF correction =     0.002501

     entering subroutine stress ...

     negative rho (up, down):  2.968E-01 0.000E+00
          total   stress  (Ry/bohr**3)                   (kbar)     P=  -11.52
  -0.00008747   0.00000001   0.00000001        -12.87      0.00      0.00
   0.00000001  -0.00008747  -0.00000000          0.00    -12.87     -0.00
   0.00000001  -0.00000000  -0.00006004          0.00     -0.00     -8.83

 !ASE

     Writing output data file calc.save

     General routines

     Parallel routines

   This run was terminated on:   1:51:11   2Jan2019

   JOB DONE.
Job  /afs/slac/g/suncat/bin/suncat-tsmpirun -x LD_LIBRARY_PATH -wdir /scratch/qe649229_iqVDs pw.x -in pw.inp

TID   HOST_NAME   COMMAND_LINE            STATUS            TERMINATION_TIME
00000 suncat0178 pw.x -in pw.inp   Done                     01/02/2019 01:51:11
00001 suncat0178 pw.x -in pw.inp   Done                     01/02/2019 01:51:11
00002 suncat0178 pw.x -in pw.inp   Done                     01/02/2019 01:51:11
00003 suncat0178 pw.x -in pw.inp   Done                     01/02/2019 01:51:11
00004 suncat0178 pw.x -in pw.inp   Done                     01/02/2019 01:51:11
00005 suncat0178 pw.x -in pw.inp   Done                     01/02/2019 01:51:11
00006 suncat0178 pw.x -in pw.inp   Done                     01/02/2019 01:51:11
00007 suncat0178 pw.x -in pw.inp   Done                     01/02/2019 01:51:11
00008 suncat0177 pw.x -in pw.inp   Done                     01/02/2019 01:51:11
00009 suncat0177 pw.x -in pw.inp   Done                     01/02/2019 01:51:11
00010 suncat0177 pw.x -in pw.inp   Done                     01/02/2019 01:51:11
00011 suncat0177 pw.x -in pw.inp   Done                     01/02/2019 01:51:11
00012 suncat0177 pw.x -in pw.inp   Done                     01/02/2019 01:51:11
00013 suncat0177 pw.x -in pw.inp   Done                     01/02/2019 01:51:11
00014 suncat0177 pw.x -in pw.inp   Done                     01/02/2019 01:51:11
00015 suncat0177 pw.x -in pw.inp   Done                     01/02/2019 01:51:11
00016 suncat0113 pw.x -in pw.inp   Done                     01/02/2019 01:51:11
00017 suncat0113 pw.x -in pw.inp   Done                     01/02/2019 01:51:11
00018 suncat0113 pw.x -in pw.inp   Done                     01/02/2019 01:51:11
00019 suncat0113 pw.x -in pw.inp   Done                     01/02/2019 01:51:11
00020 suncat0113 pw.x -in pw.inp   Done                     01/02/2019 01:51:11
00021 suncat0113 pw.x -in pw.inp   Done                     01/02/2019 01:51:11
00022 suncat0113 pw.x -in pw.inp   Done                     01/02/2019 01:51:11
00023 suncat0113 pw.x -in pw.inp   Done                     01/02/2019 01:51:11
00024 suncat0267 pw.x -in pw.inp   Done                     01/02/2019 01:51:11
00025 suncat0267 pw.x -in pw.inp   Done                     01/02/2019 01:51:11
00026 suncat0267 pw.x -in pw.inp   Done                     01/02/2019 01:51:11
00027 suncat0267 pw.x -in pw.inp   Done                     01/02/2019 01:51:11
00028 suncat0267 pw.x -in pw.inp   Done                     01/02/2019 01:51:11
00029 suncat0267 pw.x -in pw.inp   Done                     01/02/2019 01:51:11
00030 suncat0267 pw.x -in pw.inp   Done                     01/02/2019 01:51:11
00031 suncat0267 pw.x -in pw.inp   Done                     01/02/2019 01:51:11
00032 suncat0254 pw.x -in pw.inp   Done                     01/02/2019 01:51:11
00033 suncat0254 pw.x -in pw.inp   Done                     01/02/2019 01:51:11
00034 suncat0254 pw.x -in pw.inp   Done                     01/02/2019 01:51:11
00035 suncat0254 pw.x -in pw.inp   Done                     01/02/2019 01:51:11
00036 suncat0254 pw.x -in pw.inp   Done                     01/02/2019 01:51:11
00037 suncat0254 pw.x -in pw.inp   Done                     01/02/2019 01:51:11
00038 suncat0254 pw.x -in pw.inp   Done                     01/02/2019 01:51:11
00039 suncat0254 pw.x -in pw.inp   Done                     01/02/2019 01:51:11
00040 suncat0253 pw.x -in pw.inp   Done                     01/02/2019 01:51:11
00041 suncat0253 pw.x -in pw.inp   Done                     01/02/2019 01:51:11
00042 suncat0253 pw.x -in pw.inp   Done                     01/02/2019 01:51:11
00043 suncat0253 pw.x -in pw.inp   Done                     01/02/2019 01:51:11
00044 suncat0253 pw.x -in pw.inp   Done                     01/02/2019 01:51:11
00045 suncat0253 pw.x -in pw.inp   Done                     01/02/2019 01:51:11
00046 suncat0253 pw.x -in pw.inp   Done                     01/02/2019 01:51:11
00047 suncat0253 pw.x -in pw.inp   Done                     01/02/2019 01:51:11
00048 suncat0228 pw.x -in pw.inp   Done                     01/02/2019 01:51:11
00049 suncat0228 pw.x -in pw.inp   Done                     01/02/2019 01:51:11
00050 suncat0228 pw.x -in pw.inp   Done                     01/02/2019 01:51:11
00051 suncat0228 pw.x -in pw.inp   Done                     01/02/2019 01:51:11
00052 suncat0228 pw.x -in pw.inp   Done                     01/02/2019 01:51:11
00053 suncat0228 pw.x -in pw.inp   Done                     01/02/2019 01:51:11
00054 suncat0228 pw.x -in pw.inp   Done                     01/02/2019 01:51:11
00055 suncat0228 pw.x -in pw.inp   Done                     01/02/2019 01:51:11
00056 suncat0227 pw.x -in pw.inp   Done                     01/02/2019 01:51:11
00057 suncat0227 pw.x -in pw.inp   Done                     01/02/2019 01:51:11
00058 suncat0227 pw.x -in pw.inp   Done                     01/02/2019 01:51:11
00059 suncat0227 pw.x -in pw.inp   Done                     01/02/2019 01:51:11
00060 suncat0227 pw.x -in pw.inp   Done                     01/02/2019 01:51:11
00061 suncat0227 pw.x -in pw.inp   Done                     01/02/2019 01:51:11
00062 suncat0227 pw.x -in pw.inp   Done                     01/02/2019 01:51:11
00063 suncat0227 pw.x -in pw.inp   Done                     01/02/2019 01:51:11