     Program PWSCF v.5.1rc2 (svn rev. 11289) starts on 19Dec2018 at  6:42:22

     Current dimensions of program PWSCF are:
     Max number of different atomic species (ntypx) = 10
     Max number of k-points (npk) =  40000
     Max angular momentum in pseudopotentials (lmaxx) =  3
     Presently stress not available with electric field

     IMPORTANT: XC functional enforced from input :
     Exchange-correlation      = BEEF-VDW ( 1  4 27 13 2)
     Any further DFT definition will be discarded
     Please, verify this is what you really want

     Subspace diagonalization in iterative solution of the eigenvalue problem:
     a serial algorithm will be used

     Found symmetry operation: I + (  0.5000  0.5000  0.0000)
     This is a supercell, fractional translations are disabled

     bravais-lattice index     =            0
     lattice parameter (alat)  =       1.8897  a.u.
     unit-cell volume          =    6752.4735 (a.u.)^3
     number of atoms/cell      =           12
     number of atomic types    =            2
     number of electrons       =       150.00
     number of Kohn-Sham states=          105
     kinetic-energy cutoff     =      36.7493  Ry
     charge density cutoff     =     367.4932  Ry
     convergence threshold     =      1.0E-06
     mixing beta               =       0.1000
     number of iterations used =           10  plain     mixing
     Exchange-correlation      = BEEF-VDW ( 1  4 27 13 2)
     nstep                     =           50

     celldm(1)=   1.889726  celldm(2)=   0.000000  celldm(3)=   0.000000
     celldm(4)=   0.000000  celldm(5)=   0.000000  celldm(6)=   0.000000

     crystal axes: (cart. coord. in units of alat)
               a(1) = (   6.616284   0.000000   0.000000 )
               a(2) = (   2.919984   5.937079   0.000000 )
               a(3) = (   0.000000   0.000000  25.472953 )

     reciprocal axes: (cart. coord. in units 2 pi/alat)
               b(1) = (  0.151142 -0.074335  0.000000 )
               b(2) = (  0.000000  0.168433  0.000000 )
               b(3) = (  0.000000  0.000000  0.039257 )

     PseudoPot. # 1 for Sn read from file:
     /afs/slac.stanford.edu/u/if/mamunm/psp/gbrv1.5pbe/Sn.UPF
     MD5 check sum: 469debedee59599fedebd795477fea03
     Pseudo is Ultrasoft + core correction, Zval = 14.0
     Generated by new atomic code, or converted to UPF format
     Using radial grid of  891 points,  6 beta functions with:
                l(1) =   0
                l(2) =   0
                l(3) =   1
                l(4) =   1
                l(5) =   2
                l(6) =   2
     Q(r) pseudized with  8 coefficients,  rinner =    1.350   1.350   1.350
                                                       1.350   1.350

     PseudoPot. # 2 for Y  read from file:
     /afs/slac.stanford.edu/u/if/mamunm/psp/gbrv1.5pbe/Y.UPF
     MD5 check sum: d034151ed7554c50b6e82763ed42c788
     Pseudo is Ultrasoft + core correction, Zval = 11.0
     Generated by new atomic code, or converted to UPF format
     Using radial grid of  885 points,  6 beta functions with:
                l(1) =   0
                l(2) =   0
                l(3) =   1
                l(4) =   1
                l(5) =   2
                l(6) =   2
     Q(r) pseudized with  8 coefficients,  rinner =    1.200   1.200   1.200
                                                       1.200   1.200

     vdW kernel table read from file vdW_kernel_table
     MD5 check sum: 095c7af220d748ca6e76c0b4c6cfb241

     atomic species   valence    mass     pseudopotential
        Sn1           14.00   118.71000     Sn( 1.00)
        Y1            11.00    88.90584     Y ( 1.00)

     No symmetry found

   Cartesian axes

     site n.     atom                  positions (alat units)
         1           Sn1 tau(   1) = (   0.0000000   0.0000000  10.0000000  )
         2           Sn1 tau(   2) = (   4.7681342   2.9685396  10.0000000  )
         3           Y1  tau(   3) = (   3.3081421   0.0000000  10.0000000  )
         4           Y1  tau(   4) = (   1.4599920   2.9685396  10.0000000  )
         5           Sn1 tau(   5) = (   6.6162842   4.1191588  12.7364764  )
         6           Sn1 tau(   6) = (   1.8481501   1.1506192  12.7364764  )
         7           Y1  tau(   7) = (   3.3081421   4.1191588  12.7364764  )
         8           Y1  tau(   8) = (   5.1562922   1.1506192  12.7364764  )
         9           Sn1 tau(   9) = (   3.6963001   2.3012384  15.4729527  )
        10           Sn1 tau(  10) = (   8.4644343   5.2697780  15.4729527  )
        11           Y1  tau(  11) = (   7.0044423   2.3012384  15.4729527  )
        12           Y1  tau(  12) = (   5.1562922   5.2697780  15.4729527  )

     number of k points=    20  Fermi-Dirac smearing, width (Ry)=  0.0110
                       cart. coord. in units 2pi/alat
        k(    1) = (   0.0000000   0.0000000   0.0000000), wk =   0.0555556
        k(    2) = (   0.0000000   0.0280722   0.0000000), wk =   0.1111111
        k(    3) = (   0.0000000   0.0561443   0.0000000), wk =   0.1111111
        k(    4) = (   0.0000000  -0.0842165   0.0000000), wk =   0.0555556
        k(    5) = (   0.0251904  -0.0123892   0.0000000), wk =   0.1111111
        k(    6) = (   0.0251904   0.0156830   0.0000000), wk =   0.1111111
        k(    7) = (   0.0251904   0.0437552   0.0000000), wk =   0.1111111
        k(    8) = (   0.0251904  -0.0966057   0.0000000), wk =   0.1111111
        k(    9) = (   0.0251904  -0.0685335   0.0000000), wk =   0.1111111
        k(   10) = (   0.0251904  -0.0404613   0.0000000), wk =   0.1111111
        k(   11) = (   0.0503807  -0.0247783   0.0000000), wk =   0.1111111
        k(   12) = (   0.0503807   0.0032938   0.0000000), wk =   0.1111111
        k(   13) = (   0.0503807   0.0313660   0.0000000), wk =   0.1111111
        k(   14) = (   0.0503807  -0.1089948   0.0000000), wk =   0.1111111
        k(   15) = (   0.0503807  -0.0809227   0.0000000), wk =   0.1111111
        k(   16) = (   0.0503807  -0.0528505   0.0000000), wk =   0.1111111
        k(   17) = (  -0.0755711   0.0371675   0.0000000), wk =   0.0555556
        k(   18) = (  -0.0755711   0.0652397   0.0000000), wk =   0.1111111
        k(   19) = (  -0.0755711   0.0933118   0.0000000), wk =   0.1111111
        k(   20) = (  -0.0755711  -0.0470490   0.0000000), wk =   0.0555556

     Largest allocated arrays     est. size (Mb)     dimensions
     Largest temporary arrays     est. size (Mb)     dimensions

     Initial potential from superposition of free atoms
     Check: negative starting charge=   -0.001026

     starting charge  143.97291, renormalised to  150.00000

     negative rho (up, down):  1.069E-03 0.000E+00

     *
     * You are using vdW-DF for exchange-correlation in this calculation.
     * Please cite the following three references that made this development
     * possible:
     *
     *   M. Dion, H. Rydberg, E. Schroder, D. C. Langreth, and
     *   B. I. Lundqvist, Phys. Rev. Lett. 92, 246401 (2004).
     *
     *   T. Thonhauser, V. R. Cooper, S. Li, A. Puzder, P. Hyldgaard, and
     *   D. C. Langreth, Phys. Rev. B 76, 125112 (2007).
     *
     *   G. Roman-Perez and J. M. Soler, Phys. Rev. Lett. 103, 096102 (2009).
     *
     *
     * If you are using vdW-DF2, please also cite:
     *
     *   K. Lee, E. D. Murray, L. Kong, B. I. Lundqvist, and
     *   D. C. Langreth, Phys. Rev. B 82, 081101(R) (2010).
     *
     *
     * If you are calculating the stress with vdW-DF, please also cite:
     *
     *   R. Sabatini, E. Kucukbenli, B. Kolb, T. Thonhauser, and
     *   S. de Gironcoli, J. Phys.: Condens. Matter 24, 424209 (2012).
     *

     Carrying out vdW-DF run using the following parameters:

     Nqs =      20    Nr_points =    1024   r_max =   100.000
     q_mesh =
               0.00001000     0.04494208     0.09755937     0.15916263
               0.23128650     0.31572767     0.41458969     0.53033537
               0.66584808     0.82450364     1.01025438     1.22772762
               1.48234092     1.78043706     2.12944203     2.53805004
               3.01644009     3.57652955     4.23227104     5.00000000

     Gradients computed in reciprocal space

     Adding external electric field

     Computed dipole along edir(3) :
        Dipole                0.0000 Ry au,          0.0000 Debye
        Dipole field          0.0000 Ry au

        Potential amp.       -0.0000 Ry
        Total length         46.9335 bohr

     Starting wfc are  132 randomized atomic wfcs

     Self-consistent Calculation

     iteration #  1     ecut=    36.75 Ry     beta=0.10
     Davidson diagonalization with overlap
     ethr =  1.00E-02,  avg # of iterations =  3.6

[...]

     total energy              =   -1527.46183891 Ry
     Harris-Foulkes estimate   =   -1527.88353407 Ry
     estimated scf accuracy    <       2.69613556 Ry

[...]

     End of self-consistent calculation

          k = 0.0000 0.0000 0.0000 ( 25345 PWs)   bands (ev):

   -42.3757 -42.3755 -42.3479 -42.3478 -41.8497 -41.8208 -22.4428 -22.4340
   -22.4038 -22.3961 -22.3937 -22.3902 -22.3000 -22.2857 -22.2592 -22.2448
   -22.0370 -22.0348 -21.9874 -21.8626 -21.8190 -21.7986 -21.7575 -21.6133
   -20.4510 -20.4428 -20.4113 -20.3807 -20.3783 -20.3689 -20.3678 -20.3521
   -20.3346 -20.3018 -20.1798 -20.1776 -20.1664 -20.1570 -20.1338 -20.1315
   -20.1099 -20.1067 -20.1065 -20.1028 -20.0763 -20.0751 -20.0737 -20.0706
   -20.0696 -20.0686 -20.0535 -20.0524 -20.0249 -20.0248  -7.7168  -6.6406
    -5.9913  -5.6488  -4.8757  -4.5964  -1.9648  -1.4981  -1.2505  -1.1377
    -0.9480  -0.8325  -0.7398  -0.3188   0.1073   0.1927   0.3503   0.6398
     1.0011   1.0506   1.0967   1.1004   1.3265   1.5236   1.5785   1.8028
     2.4619   2.4988   2.6356   2.6510   2.7094   2.7918   2.9362   3.2987
     3.3789   3.4950   3.6935   3.8363   3.9496   4.0009   4.0150   4.0931
     4.1873   4.2122   4.2153   4.2872   4.3403   4.6575   4.8202   4.8870
     4.9086

[...]

          k =-0.0756 0.0372 0.0000 ( 25404 PWs)   bands (ev):

[...]

     the Fermi energy is     1.2704 ev

!    total energy              =   -1526.83517049 Ry
     Harris-Foulkes estimate   =   -1526.83517416 Ry
     estimated scf accuracy    <       0.00000019 Ry

     The total energy is the sum of the following terms:

     one-electron contribution =   -8136.22849126 Ry
     hartree contribution      =    4098.40674032 Ry
     xc contribution           =    -436.90277301 Ry
     ewald contribution        =    2947.94982136 Ry
     electric field correction =       0.00000000 Ry
     smearing contrib. (-TS)   =      -0.06046790 Ry

     convergence has been achieved in  16 iterations

 BEEF-vdW xc energy contributions
           1 :   -382.987134399682
           2 :    348.379684560058
           3 :   -289.126709892422
           4 :    220.619198491663
           5 :   -157.448975696914
           6 :    108.677092986240
           7 :   -76.4138573588899
           8 :    57.5180179416873
           9 :   -46.8721322839290
          10 :    40.3425370637577
          11 :   -36.1220945379489
          12 :    34.2307890688621
          13 :   -35.0058920837463
[...]

[...]

   This run was terminated on:  10: 4: 6  19Dec2018

[...]

     Program PWSCF v.5.1rc2 (svn rev. 11289) starts on 19Dec2018 at 10: 4:12

[...]

   This run was terminated on:  11:18: 4  19Dec2018

[...]

     Program PWSCF v.5.1rc2 (svn rev. 11289) starts on 19Dec2018 at 11:37: 1

[...]

     Total force =     0.029658     Total SCF correction =     0.002665

[...]

     Program PWSCF v.5.1rc2 (svn rev. 11289) starts on 19Dec2018 at 11:54:52

     Current dimensions of program PWSCF are:
     Max number of different atomic species (ntypx) = 10
     Max number of k-points (npk) =  40000
     Max angular momentum in pseudopotentials (lmaxx) =  3
     Presently stress not available with electric field

     IMPORTANT: XC functional enforced from input :
     Exchange-correlation      = BEEF-VDW ( 1  4 27 13 2)
     Any further DFT definition will be discarded
     Please, verify this is what you really want

     Subspace diagonalization in iterative solution of the eigenvalue problem:
     a serial algorithm will be used

     bravais-lattice index     =            0
     lattice parameter (alat)  =       1.8897  a.u.
     unit-cell volume          =    6752.4735 (a.u.)^3
     number of atoms/cell      =           12
     number of atomic types    =            2
     number of electrons       =       150.00
     number of Kohn-Sham states=          105
     kinetic-energy cutoff     =      36.7493  Ry
     charge density cutoff     =     367.4932  Ry
     convergence threshold     =      1.0E-06
     mixing beta               =       0.1000
     number of iterations used =           10  plain     mixing
     Exchange-correlation      = BEEF-VDW ( 1  4 27 13 2)
     nstep                     =           50

     celldm(1)=   1.889726  celldm(2)=   0.000000  celldm(3)=   0.000000
     celldm(4)=   0.000000  celldm(5)=   0.000000  celldm(6)=   0.000000

     crystal axes: (cart. coord. in units of alat)
               a(1) = (   6.616284   0.000000   0.000000 )
               a(2) = (   2.919984   5.937079   0.000000 )
               a(3) = (   0.000000   0.000000  25.472953 )

     reciprocal axes: (cart. coord. in units 2 pi/alat)
               b(1) = (  0.151142 -0.074335  0.000000 )
               b(2) = (  0.000000  0.168433  0.000000 )
               b(3) = (  0.000000  0.000000  0.039257 )

     PseudoPot. # 1 for Sn read from file:
     /afs/slac.stanford.edu/u/if/mamunm/psp/gbrv1.5pbe/Sn.UPF
     MD5 check sum: 469debedee59599fedebd795477fea03
     Pseudo is Ultrasoft + core correction, Zval = 14.0
     Generated by new atomic code, or converted to UPF format
     Using radial grid of  891 points,  6 beta functions with:
                l(1) =   0
                l(2) =   0
                l(3) =   1
                l(4) =   1
                l(5) =   2
                l(6) =   2
     Q(r) pseudized with  8 coefficients,  rinner =    1.350   1.350   1.350
                                                       1.350   1.350

     PseudoPot. # 2 for Y  read from file:
     /afs/slac.stanford.edu/u/if/mamunm/psp/gbrv1.5pbe/Y.UPF
     MD5 check sum: d034151ed7554c50b6e82763ed42c788
     Pseudo is Ultrasoft + core correction, Zval = 11.0
     Generated by new atomic code, or converted to UPF format
     Using radial grid of  885 points,  6 beta functions with:
                l(1) =   0
                l(2) =   0
                l(3) =   1
                l(4) =   1
                l(5) =   2
                l(6) =   2
     Q(r) pseudized with  8 coefficients,  rinner =    1.200   1.200   1.200
                                                       1.200   1.200

     vdW kernel table read from file vdW_kernel_table
     MD5 check sum: 095c7af220d748ca6e76c0b4c6cfb241

     atomic species   valence    mass     pseudopotential
        Sn1           14.00   118.71000     Sn( 1.00)
        Y1            11.00    88.90584     Y ( 1.00)

     No symmetry found

   Cartesian axes

     site n.     atom                  positions (alat units)
         1           Sn1 tau(   1) = (   0.0000000   0.0000000  10.0000000  )
         2           Sn1 tau(   2) = (   4.7681342   2.9685396  10.0000000  )
         3           Y1  tau(   3) = (   3.3081421   0.0000000  10.0000000  )
         4           Y1  tau(   4) = (   1.4599920   2.9685396  10.0000000  )
         5           Sn1 tau(   5) = (   6.6162842   4.1191588  12.7364764  )
         6           Sn1 tau(   6) = (   1.8481501   1.1506192  12.7364764  )
         7           Y1  tau(   7) = (   3.3081421   4.1191588  12.7364764  )
         8           Y1  tau(   8) = (   5.1562922   1.1506192  12.7364764  )
         9           Sn1 tau(   9) = (   3.8889529   2.4217870  15.7006992  )
        10           Sn1 tau(  10) = (   8.6576357   5.3894809  15.7006612  )
        11           Y1  tau(  11) = (   7.2047619   2.4259763  15.4059756  )
        12           Y1  tau(  12) = (   5.3571601   5.3948550  15.4058865  )

     number of k points=    20  Fermi-Dirac smearing, width (Ry)=  0.0110
                       cart. coord. in units 2pi/alat
        k(    1) = (   0.0000000   0.0000000   0.0000000), wk =   0.0555556
        k(    2) = (   0.0000000   0.0280722   0.0000000), wk =   0.1111111
        k(    3) = (   0.0000000   0.0561443   0.0000000), wk =   0.1111111
        k(    4) = (   0.0000000  -0.0842165   0.0000000), wk =   0.0555556
        k(    5) = (   0.0251904  -0.0123892   0.0000000), wk =   0.1111111
        k(    6) = (   0.0251904   0.0156830   0.0000000), wk =   0.1111111
        k(    7) = (   0.0251904   0.0437552   0.0000000), wk =   0.1111111
        k(    8) = (   0.0251904  -0.0966057   0.0000000), wk =   0.1111111
        k(    9) = (   0.0251904  -0.0685335   0.0000000), wk =   0.1111111
        k(   10) = (   0.0251904  -0.0404613   0.0000000), wk =   0.1111111
        k(   11) = (   0.0503807  -0.0247783   0.0000000), wk =   0.1111111
        k(   12) = (   0.0503807   0.0032938   0.0000000), wk =   0.1111111
        k(   13) = (   0.0503807   0.0313660   0.0000000), wk =   0.1111111
        k(   14) = (   0.0503807  -0.1089948   0.0000000), wk =   0.1111111
        k(   15) = (   0.0503807  -0.0809227   0.0000000), wk =   0.1111111
        k(   16) = (   0.0503807  -0.0528505   0.0000000), wk =   0.1111111
        k(   17) = (  -0.0755711   0.0371675   0.0000000), wk =   0.0555556
        k(   18) = (  -0.0755711   0.0652397   0.0000000), wk =   0.1111111
        k(   19) = (  -0.0755711   0.0933118   0.0000000), wk =   0.1111111
        k(   20) = (  -0.0755711  -0.0470490   0.0000000), wk =   0.0555556

     Largest allocated arrays     est. size (Mb)     dimensions
     Largest temporary arrays     est. size (Mb)     dimensions

     Initial potential from superposition of free atoms
     Check: negative starting charge=   -0.001048

     starting charge  143.97291, renormalised to  150.00000

[...]

     *
     * You are using vdW-DF for exchange-correlation in this calculation.
     * Please cite the following three references that made this development
     * possible:
     *
     *   M. Dion, H. Rydberg, E. Schroder, D. C. Langreth, and
     *   B. I. Lundqvist, Phys. Rev. Lett. 92, 246401 (2004).
     *
     *   T. Thonhauser, V. R. Cooper, S. Li, A. Puzder, P. Hyldgaard, and
     *   D. C. Langreth, Phys. Rev. B 76, 125112 (2007).
     *
     *   G. Roman-Perez and J. M. Soler, Phys. Rev. Lett. 103, 096102 (2009).
     *
     *
     * If you are using vdW-DF2, please also cite:
     *
     *   K. Lee, E. D. Murray, L. Kong, B. I. Lundqvist, and
     *   D. C. Langreth, Phys. Rev. B 82, 081101(R) (2010).
     *
     *
     * If you are calculating the stress with vdW-DF, please also cite:
     *
     *   R. Sabatini, E. Kucukbenli, B. Kolb, T. Thonhauser, and
     *   S. de Gironcoli, J. Phys.: Condens. Matter 24, 424209 (2012).
     *

     Carrying out vdW-DF run using the following parameters:

     Nqs =      20    Nr_points =    1024   r_max =   100.000
     q_mesh =
               0.00001000     0.04494208     0.09755937     0.15916263
               0.23128650     0.31572767     0.41458969     0.53033537
               0.66584808     0.82450364     1.01025438     1.22772762
               1.48234092     1.78043706     2.12944203     2.53805004
               3.01644009     3.57652955     4.23227104     5.00000000

     Gradients computed in reciprocal space

[...]

     Starting wfc are  132 randomized atomic wfcs

     Self-consistent Calculation

[...]

     iteration #  6     ecut=    36.75 Ry     beta=0.10
     Davidson diagonalization with overlap
     c_bands:  1 eigenvalues not converged
     ethr =  6.19E-05,  avg # of iterations =  5.7

[...]

     total energy              =   -1526.84159867 Ry
     Harris-Foulkes estimate   =   -1526.84159899 Ry
     estimated scf accuracy    <       0.00000115 Ry

     iteration # 17     ecut=    36.75 Ry     beta=0.10
     Davidson diagonalization with overlap
     ethr =  7.63E-10,  avg # of iterations =  2.0

[...]

     negative rho (up, down):  2.552E-04 0.000E+00

     Adding external electric field

     Computed dipole along edir(3) :
        Dipole               -0.1149 Ry au,         -0.2921 Debye
        Dipole field         -0.0002 Ry au

        Potential amp.        0.0201 Ry
        Total length         46.9335 bohr

     End of self-consistent calculation

[...]

          k = 0.0504-0.0529 0.0000 ( 25385 PWs)   bands (ev):

[...]

          k =-0.0756-0.0470 0.0000 ( 25444 PWs)   bands (ev):

   -42.4905 -42.4628 -42.3922 -42.3643 -42.0351 -42.0063 -22.5547 -22.5149
   -22.5128 -22.4461 -22.4449 -22.4236 -22.4054 -22.3835 -22.3090 -22.2690
   -22.1713 -22.1541 -22.0856 -22.0490 -22.0107 -21.9667 -21.9285 -21.7986
   -20.4986 -20.4725 -20.4534 -20.4197 -20.4172 -20.4066 -20.4029 -20.3988
   -20.3818 -20.3566 -20.2896 -20.2723 -20.2464 -20.2353 -20.2187 -20.2146
   -20.1982 -20.1860 -20.1815 -20.1801 -20.1793 -20.1669 -20.1614 -20.1318
   -20.1273 -20.1104 -20.1097 -20.1082 -20.0905 -20.0591  -7.0394  -6.4550
    -6.0634  -5.5973  -4.7402  -4.0478  -2.9907  -2.9273  -2.4850  -1.8298
    -1.7137  -1.6982  -1.4309  -0.8833  -0.5670  -0.3010  -0.1795   0.0326
     0.8337   1.1628   1.3891   1.4867   1.5116   1.6550   2.1104   2.2195
     2.3610   2.4677   2.5086   2.6778   2.8552   2.9487   3.2358   3.2563
     3.5136   3.5484   3.8705   3.9250   4.1433   4.2213   4.4899   4.5086
     4.5655   4.9304   4.9401   5.0477   5.2226   5.2598   5.3123   5.4389
     5.6025

     the Fermi energy is     1.1579 ev

!    total energy              =   -1526.84159567 Ry
     Harris-Foulkes estimate   =   -1526.84159999 Ry
     estimated scf accuracy    <       0.00000039 Ry

     The total energy is the sum of the following terms:

     one-electron contribution =   -8022.29468946 Ry
     hartree contribution      =    4040.97709673 Ry
     xc contribution           =    -436.83814123 Ry
     ewald contribution        =    2891.37331100 Ry
     electric field correction =       0.00002458 Ry
     smearing contrib. (-TS)   =      -0.05919729 Ry

     convergence has been achieved in  17 iterations

 BEEF-vdW xc energy contributions
           1 :   -382.921325853788
           2 :    348.279142853494
           3 :   -288.986135092661
           4 :    220.467865448713
           5 :   -157.330325723421
           6 :    108.616881198359
           7 :   -76.3988247901696
           8 :    57.5047484383484
           9 :   -46.8229378201291
          10 :    40.2585627287164
          11 :   -36.0427702442565
          12 :    34.1997178432588
          13 :   -35.0346598031817
          14 :    37.8814522024600
          15 :   -40.9145259823805
          16 :    41.9660847864546
          17 :   -39.6645126840872
          18 :    34.1350071240028
          19 :   -26.8959140188784
          20 :    20.0816464139401
          21 :   -15.4637321042527
          22 :    13.7723856016961
          23 :   -14.5955762778950
          24 :    16.7960015007829
          25 :   -19.1490847846353
          26 :    20.8549207557500
          27 :   -21.7101944992792
          28 :    21.9336232126941
          29 :   -21.8241430071600
          30 :    21.4932392429816
          31 :   -34.6390850187679
          32 :   -24.6479292805503

     Forces acting on atoms (Ry/au):

     negative rho (up, down):  2.552E-04 0.000E+00
     atom    1 type  1   force =     0.00515871    0.00320694   -0.01089979
     atom    2 type  1   force =     0.00515525    0.00321372   -0.01090094
     atom    3 type  2   force =    -0.00541644   -0.00337269    0.00759033
     atom    4 type  2   force =    -0.00541752   -0.00337260    0.00759262
     atom    5 type  1   force =     0.00262556    0.00162661   -0.00815204
     atom    6 type  1   force =     0.00261796    0.00163838   -0.00815028
     atom    7 type  2   force =    -0.00241397   -0.00150294    0.01092821
     atom    8 type  2   force =    -0.00242348   -0.00150762    0.01094817
     atom    9 type  1   force =     0.00018560    0.00012203   -0.00023721
     atom   10 type  1   force =     0.00018816    0.00011074   -0.00023673
     atom   11 type  2   force =    -0.00013356   -0.00008351    0.00075535
     atom   12 type  2   force =    -0.00012627   -0.00007906    0.00076231

     Total force =     0.030282     Total SCF correction =     0.003136
     SCF correction compared to forces is large: reduce conv_thr to get better values

     entering subroutine stress ...

     negative rho (up, down):  2.552E-04 0.000E+00
          total   stress  (Ry/bohr**3)                   (kbar)     P=   -9.14
  -0.00011160  -0.00003885  -0.00000015        -16.42     -5.71     -0.02
  -0.00003885  -0.00007339  -0.00000010         -5.71    -10.80     -0.01
  -0.00000015  -0.00000010  -0.00000146         -0.02     -0.01     -0.21

 !ASE

     Writing output data file calc.save

     General routines

     Parallel routines

   This run was terminated on:  12:13:29  19Dec2018

   JOB DONE.
Job  /afs/slac/g/suncat/bin/suncat-tsmpirun -x LD_LIBRARY_PATH -wdir /scratch/qe530619_0xy6M pw.x -in pw.inp

TID   HOST_NAME   COMMAND_LINE            STATUS            TERMINATION_TIME
00000 suncat2028 pw.x -in pw.inp   Done                     12/19/2018 12:13:29
00001 suncat2028 pw.x -in pw.inp   Done                     12/19/2018 12:13:29
00002 suncat2028 pw.x -in pw.inp   Done                     12/19/2018 12:13:29
00003 suncat2028 pw.x -in pw.inp   Done                     12/19/2018 12:13:29
00004 suncat2028 pw.x -in pw.inp   Done                     12/19/2018 12:13:29
00005 suncat2028 pw.x -in pw.inp   Done                     12/19/2018 12:13:29
00006 suncat2028 pw.x -in pw.inp   Done                     12/19/2018 12:13:29
00007 suncat2028 pw.x -in pw.inp   Done                     12/19/2018 12:13:29
00008 suncat2028 pw.x -in pw.inp   Done                     12/19/2018 12:13:29
00009 suncat2028 pw.x -in pw.inp   Done                     12/19/2018 12:13:29
00010 suncat2028 pw.x -in pw.inp   Done                     12/19/2018 12:13:29
00011 suncat2028 pw.x -in pw.inp   Done                     12/19/2018 12:13:29
00012 suncat2028 pw.x -in pw.inp   Done                     12/19/2018 12:13:29
00013 suncat2028 pw.x -in pw.inp   Done                     12/19/2018 12:13:29
00014 suncat2028 pw.x -in pw.inp   Done                     12/19/2018 12:13:29
00015 suncat2028 pw.x -in pw.inp   Done                     12/19/2018 12:13:29
00016 suncat2027 pw.x -in pw.inp   Done                     12/19/2018 12:13:29
00017 suncat2027 pw.x -in pw.inp   Done                     12/19/2018 12:13:29
00018 suncat2027 pw.x -in pw.inp   Done                     12/19/2018 12:13:29
00019 suncat2027 pw.x -in pw.inp   Done                     12/19/2018 12:13:29
00020 suncat2027 pw.x -in pw.inp   Done                     12/19/2018 12:13:29
00021 suncat2027 pw.x -in pw.inp   Done                     12/19/2018 12:13:29
00022 suncat2027 pw.x -in pw.inp   Done                     12/19/2018 12:13:29
00023 suncat2027 pw.x -in pw.inp   Done                     12/19/2018 12:13:29
00024 suncat2027 pw.x -in pw.inp   Done                     12/19/2018 12:13:29
00025 suncat2027 pw.x -in pw.inp   Done                     12/19/2018 12:13:29
00026 suncat2027 pw.x -in pw.inp   Done                     12/19/2018 12:13:29
00027 suncat2027 pw.x -in pw.inp   Done                     12/19/2018 12:13:29
00028 suncat2027 pw.x -in pw.inp   Done                     12/19/2018 12:13:29
00029 suncat2027 pw.x -in pw.inp   Done                     12/19/2018 12:13:29
00030 suncat2027 pw.x -in pw.inp   Done                     12/19/2018 12:13:29
00031 suncat2027 pw.x -in pw.inp   Done                     12/19/2018 12:13:29