     Program PWSCF v.5.1rc2 (svn rev. 11289) starts on 19Dec2018 at 21: 9: 8

     Current dimensions of program PWSCF are:
     Max number of different atomic species (ntypx) = 10
     Max number of k-points (npk) =  40000
     Max angular momentum in pseudopotentials (lmaxx) =  3
     Presently stress not available with electric field

     IMPORTANT: XC functional enforced from input :
     Exchange-correlation      = BEEF-VDW ( 1  4 27 13 2)
     Any further DFT definition will be discarded
     Please, verify this is what you really want

     Subspace diagonalization in iterative solution of the eigenvalue problem:
     a serial algorithm will be used

     bravais-lattice index     =            0
     lattice parameter (alat)  =       1.8897  a.u.
     unit-cell volume          =    5194.5527 (a.u.)^3
     number of atoms/cell      =           12
     number of atomic types    =            2
     number of electrons       =       156.00
     number of Kohn-Sham states=          108
     kinetic-energy cutoff     =      36.7493  Ry
     charge density cutoff     =     367.4932  Ry
     convergence threshold     =      1.0E-06
     mixing beta               =       0.1000
     number of iterations used =           10  plain     mixing
     Exchange-correlation      = BEEF-VDW ( 1  4 27 13 2)
     nstep                     =           50

     celldm(1)=   1.889726  celldm(2)=   0.000000  celldm(3)=   0.000000
     celldm(4)=   0.000000  celldm(5)=   0.000000  celldm(6)=   0.000000

     crystal axes: (cart. coord. in units of alat)
               a(1) = (   5.977003   0.000000   0.000000 )
               a(2) = (  -2.988502   5.176237   0.000000 )
               a(3) = (   0.000000   0.000000  24.880203 )

     reciprocal axes: (cart. coord. in units 2 pi/alat)
               b(1) = (  0.167308  0.096595  0.000000 )
               b(2) = (  0.000000  0.193191  0.000000 )
               b(3) = (  0.000000  0.000000  0.040193 )

     PseudoPot. # 1 for Cd read from file:
     /afs/slac.stanford.edu/u/if/mamunm/psp/gbrv1.5pbe/Cd.UPF
     MD5 check sum: 17164a7926edb8e0dc231208abae86a6
     Pseudo is Ultrasoft + core correction, Zval = 12.0
     Generated by new atomic code, or converted to UPF format
     Using radial grid of  889 points,  6 beta functions with:
                l(1) =   0
                l(2) =   0
                l(3) =   1
                l(4) =   1
                l(5) =   2
                l(6) =   2
     Q(r) pseudized with  6 coefficients,  rinner =    1.000   1.000   1.000
                                                       1.000   1.000

     PseudoPot. # 2 for Os read from file:
     /afs/slac.stanford.edu/u/if/mamunm/psp/gbrv1.5pbe/Os.UPF
     MD5 check sum: a3fb40a04f0c37c25c34bbc47164c9a8
     Pseudo is Ultrasoft + core correction, Zval = 16.0
     Generated by new atomic code, or converted to UPF format
     Using radial grid of  983 points,  8 beta functions with:
                l(1) =   0
                l(2) =   0
                l(3) =   1
                l(4) =   1
                l(5) =   2
                l(6) =   2
                l(7) =   3
                l(8) =   3
     Q(r) pseudized with  8 coefficients,  rinner =    1.150   1.150   1.150
                                                       1.150   1.150   1.150
                                                       1.150

     vdW kernel table read from file vdW_kernel_table
     MD5 check sum: 095c7af220d748ca6e76c0b4c6cfb241

     atomic species   valence    mass     pseudopotential
        Cd1           12.00   112.41400     Cd( 1.00)
        Os1           16.00   190.23000     Os( 1.00)

     No symmetry found

   Cartesian axes

     site n.     atom                  positions (alat units)
         1           Cd1 tau(   1) = (   0.0000000   0.0000000  10.0000000  )
         2           Cd1 tau(   2) = (  -1.4942508   2.5881184  10.0000000  )
         3           Cd1 tau(   3) = (   1.4942508   2.5881184  10.0000000  )
         4           Os1 tau(   4) = (   2.9885017   0.0000000  10.0000000  )
         5           Cd1 tau(   5) = (   2.9885017   1.7254123  12.4401014  )
         6           Cd1 tau(   6) = (   1.4942508   4.3135306  12.4401014  )
         7           Cd1 tau(   7) = (  -1.4942508   4.3135306  12.4401014  )
         8           Os1 tau(   8) = (   0.0000000   1.7254123  12.4401014  )
         9           Cd1 tau(   9) = (  -0.0000000   3.4508245  14.8802028  )
        10           Cd1 tau(  10) = (   1.4942508   0.8627061  14.8802028  )
        11           Cd1 tau(  11) = (   4.4827525   0.8627061  14.8802028  )
        12           Os1 tau(  12) = (   2.9885017   3.4508245  14.8802028  )

     number of k points=    20  Fermi-Dirac smearing, width (Ry)=  0.0110
                       cart. coord. in units 2pi/alat
        k(    1) = (   0.0000000   0.0000000   0.0000000), wk =   0.0555556
        k(    2) = (   0.0000000   0.0321984   0.0000000), wk =   0.1111111
        k(    3) = (   0.0000000   0.0643968   0.0000000), wk =   0.1111111
        k(    4) = (   0.0000000  -0.0965953   0.0000000), wk =   0.0555556
        k(    5) = (   0.0278847   0.0160992   0.0000000), wk =   0.1111111
        k(    6) = (   0.0278847   0.0482976   0.0000000), wk =   0.1111111
        k(    7) = (   0.0278847   0.0804961   0.0000000), wk =   0.1111111
        k(    8) = (   0.0278847  -0.0804961   0.0000000), wk =   0.1111111
        k(    9) = (   0.0278847  -0.0482976   0.0000000), wk =   0.1111111
        k(   10) = (   0.0278847  -0.0160992   0.0000000), wk =   0.1111111
        k(   11) = (   0.0557693   0.0321984   0.0000000), wk =   0.1111111
        k(   12) = (   0.0557693   0.0643968   0.0000000), wk =   0.1111111
        k(   13) = (   0.0557693   0.0965953   0.0000000), wk =   0.1111111
        k(   14) = (   0.0557693  -0.0643968   0.0000000), wk =   0.1111111
        k(   15) = (   0.0557693  -0.0321984   0.0000000), wk =   0.1111111
        k(   16) = (   0.0557693   0.0000000   0.0000000), wk =   0.1111111
        k(   17) = (  -0.0836540  -0.0482976   0.0000000), wk =   0.0555556
        k(   18) = (  -0.0836540  -0.0160992   0.0000000), wk =   0.1111111
        k(   19) = (  -0.0836540   0.0160992   0.0000000), wk =   0.1111111
        k(   20) = (  -0.0836540  -0.1448929   0.0000000), wk =   0.0555556

     Largest allocated arrays     est. size (Mb)     dimensions
     Largest temporary arrays     est. size (Mb)     dimensions

     Initial potential from superposition of free atoms
     Check: negative starting charge=   -0.573140

     starting charge  149.99952, renormalised to  156.00000

     negative rho (up, down):  5.961E-01 0.000E+00

     *
     * You are using vdW-DF for exchange-correlation in this calculation.
     * Please cite the following three references that made this development
     * possible:
     *
     *   M. Dion, H. Rydberg, E. Schroder, D. C. Langreth, and
     *   B. I. Lundqvist, Phys. Rev. Lett. 92, 246401 (2004).
     *
     *   T. Thonhauser, V. R. Cooper, S. Li, A. Puzder, P. Hyldgaard, and
     *   D. C. Langreth, Phys. Rev. B 76, 125112 (2007).
     *
     *   G. Roman-Perez and J. M. Soler, Phys. Rev. Lett. 103, 096102 (2009).
     *
     *
     * If you are using vdW-DF2, please also cite:
     *
     *   K. Lee, E. D. Murray, L. Kong, B. I. Lundqvist, and
     *   D. C. Langreth, Phys. Rev. B 82, 081101(R) (2010).
     *
     *
     * If you are calculating the stress with vdW-DF, please also cite:
     *
     *   R. Sabatini, E. Kucukbenli, B. Kolb, T. Thonhauser, and
     *   S. de Gironcoli, J. Phys.: Condens. Matter 24, 424209 (2012).
     *

     Carrying out vdW-DF run using the following parameters:

     Nqs =      20    Nr_points =    1024   r_max =   100.000
     q_mesh =
               0.00001000     0.04494208     0.09755937     0.15916263
               0.23128650     0.31572767     0.41458969     0.53033537
               0.66584808     0.82450364     1.01025438     1.22772762
               1.48234092     1.78043706     2.12944203     2.53805004
               3.01644009     3.57652955     4.23227104     5.00000000

     Gradients computed in reciprocal space

     Adding external electric field

     Computed dipole along edir(3) :
        Dipole               -0.0000 Ry au,         -0.0000 Debye
        Dipole field         -0.0000 Ry au

        Potential amp.        0.0000 Ry
        Total length         45.8414 bohr

     Starting wfc are  120 randomized atomic wfcs

     Self-consistent Calculation

     iteration #  1     ecut=    36.75 Ry     beta=0.10
     Davidson diagonalization with overlap
     ethr =  1.00E-02,  avg # of iterations =  7.9

     Threshold (ethr) on eigenvalues was too large:
     Diagonalizing with lowered threshold

     Davidson diagonalization with overlap
     ethr =  8.27E-04,  avg # of iterations =  1.8

[...]

     total energy              =   -1643.88152473 Ry
     Harris-Foulkes estimate   =   -1644.07736058 Ry
     estimated scf accuracy    <       1.26362269 Ry

[...]

     End of self-consistent calculation

          k = 0.0000 0.0000 0.0000 ( 19507 PWs)   bands (ev):

   -84.5273 -84.4641 -84.4641 -43.8674 -43.8674 -43.8594 -43.7812 -43.7812
   -43.7812 -43.7812 -43.7632 -43.7630  -9.0121  -8.8020  -8.7665  -8.7664
    -8.6639  -8.6523  -8.6131  -8.5112  -8.5112  -8.3832  -8.3831  -8.3629
    -8.3629  -8.2574  -8.1662  -8.1662  -8.1218  -8.0545  -7.9569  -7.9370
    -7.9370  -7.8897  -7.8466  -7.8465  -7.7847  -7.7846  -7.6175  -7.6175
    -7.5548  -7.5548  -7.5185  -7.5185  -7.5178  -7.4990  -7.4990  -7.4708
    -7.4708  -7.3995  -7.3013  -7.3013  -7.2140  -7.2138  -7.1863  -7.1863
    -6.9869  -6.9828  -5.5216  -3.0132  -1.7586  -1.7586  -1.4618  -1.3291
    -1.3291  -1.0145  -0.8926  -0.8926  -0.2607  -0.2607  -0.1359   0.3416
     0.3416   0.5042   0.5499   0.5931   0.5931   0.9010   0.9010   1.3713
     1.5788   1.5788   1.6851   1.7296   1.7296   2.9636   3.8771   3.8771
     4.0810   4.1788   4.1789   4.3314   4.7095   4.8301   4.9324   4.9324
     5.3271   6.2661   6.4701   7.4611   7.4611   7.4746   7.6081   7.9891
     7.9891   8.1339   8.4634   9.2606

[...]

          k =-0.0837-0.0483 0.0000 ( 19556 PWs)   bands (ev):

[...]

     the Fermi energy is     0.8572 ev

!    total energy              =   -1643.66134565 Ry
     Harris-Foulkes estimate   =   -1643.66134823 Ry
     estimated scf accuracy    <       0.00000037 Ry

     The total energy is the sum of the following terms:

     one-electron contribution =  -11413.38387012 Ry
     hartree contribution      =    5772.79726334 Ry
     xc contribution           =    -483.42303102 Ry
     ewald contribution        =    4480.40215178 Ry
     electric field correction =       0.00000000 Ry
     smearing contrib. (-TS)   =      -0.05385963 Ry

     convergence has been achieved in  15 iterations

 BEEF-vdW xc energy contributions
           1 :   -423.541300349734
           2 :    388.698528797317
           3 :   -329.204378224641
           4 :    260.985230588531
           5 :   -199.347777381713
           6 :    153.761923669871
           7 :   -125.870843711890
[...]
     Using radial grid of  889 points,  6 beta functions with:
                l(1) =   0
                l(2) =   0
                l(3) =   1
                l(4) =   1
                l(5) =   2
                l(6) =   2
     Q(r) pseudized with  6 coefficients,  rinner =    1.000   1.000   1.000
                                                       1.000   1.000

     PseudoPot. # 2 for Os read from file:
     /afs/slac.stanford.edu/u/if/mamunm/psp/gbrv1.5pbe/Os.UPF
     MD5 check sum: a3fb40a04f0c37c25c34bbc47164c9a8
     Pseudo is Ultrasoft + core correction, Zval = 16.0
     Generated by new atomic code, or converted to UPF format
     Using radial grid of  983 points,  8 beta functions with:
                l(1) =   0
                l(2) =   0
                l(3) =   1
                l(4) =   1
                l(5) =   2
                l(6) =   2
                l(7) =   3
                l(8) =   3
     Q(r) pseudized with  8 coefficients,  rinner =    1.150   1.150   1.150
                                                       1.150   1.150   1.150
                                                       1.150

     vdW kernel table read from file vdW_kernel_table
     MD5 check sum: 095c7af220d748ca6e76c0b4c6cfb241

     atomic species   valence    mass     pseudopotential
        Cd1           12.00   112.41400     Cd( 1.00)
        Os1           16.00   190.23000     Os( 1.00)

     No symmetry found

   Cartesian axes

     site n.     atom                  positions (alat units)
         1           Cd1 tau(   1) = (   0.0000000   0.0000000  10.0000000  )
         2           Cd1 tau(   2) = (  -1.4942508   2.5881184  10.0000000  )
         3           Cd1 tau(   3) = (   1.4942508   2.5881184  10.0000000  )
         4           Os1 tau(   4) = (   2.9885017   0.0000000  10.0000000  )
         5           Cd1 tau(   5) = (   2.9885017   1.7254123  12.4401014  )
         6           Cd1 tau(   6) = (   1.4942508   4.3135306  12.4401014  )
         7           Cd1 tau(   7) = (  -1.4942508   4.3135306  12.4401014  )
         8           Os1 tau(   8) = (   0.0000000   1.7254123  12.4401014  )
         9           Cd1 tau(   9) = (   0.0000097   3.4350170  15.0624801  )
        10           Cd1 tau(  10) = (   1.4805293   0.8706596  15.0624891  )
        11           Cd1 tau(  11) = (   4.4964857   0.8706716  15.0624643  )
        12           Os1 tau(  12) = (   2.9885079   3.4508396  14.6556478  )

     number of k points=    20  Fermi-Dirac smearing, width (Ry)=  0.0110
                       cart. coord. in units 2pi/alat
        k(    1) = (   0.0000000   0.0000000   0.0000000), wk =   0.0555556
        k(    2) = (   0.0000000   0.0321984   0.0000000), wk =   0.1111111
        k(    3) = (   0.0000000   0.0643968   0.0000000), wk =   0.1111111
        k(    4) = (   0.0000000  -0.0965953   0.0000000), wk =   0.0555556
        k(    5) = (   0.0278847   0.0160992   0.0000000), wk =   0.1111111
        k(    6) = (   0.0278847   0.0482976   0.0000000), wk =   0.1111111
        k(    7) = (   0.0278847   0.0804961   0.0000000), wk =   0.1111111
        k(    8) = (   0.0278847  -0.0804961   0.0000000), wk =   0.1111111
        k(    9) = (   0.0278847  -0.0482976   0.0000000), wk =   0.1111111
        k(   10) = (   0.0278847  -0.0160992   0.0000000), wk =   0.1111111
        k(   11) = (   0.0557693   0.0321984   0.0000000), wk =   0.1111111
        k(   12) = (   0.0557693   0.0643968   0.0000000), wk =   0.1111111
        k(   13) = (   0.0557693   0.0965953   0.0000000), wk =   0.1111111
        k(   14) = (   0.0557693  -0.0643968   0.0000000), wk =   0.1111111
        k(   15) = (   0.0557693  -0.0321984   0.0000000), wk =   0.1111111
        k(   16) = (   0.0557693   0.0000000   0.0000000), wk =   0.1111111
        k(   17) = (  -0.0836540  -0.0482976   0.0000000), wk =   0.0555556
        k(   18) = (  -0.0836540  -0.0160992   0.0000000), wk =   0.1111111
        k(   19) = (  -0.0836540   0.0160992   0.0000000), wk =   0.1111111
        k(   20) = (  -0.0836540  -0.1448929   0.0000000), wk =   0.0555556

     Largest allocated arrays     est. size (Mb)     dimensions
     Largest temporary arrays     est. size (Mb)     dimensions

     Initial potential from superposition of free atoms
     Check: negative starting charge=   -0.572327

     starting charge  149.99952, renormalised to  156.00000

[...]

     *
     * You are using vdW-DF for exchange-correlation in this calculation.
     * Please cite the following three references that made this development
     * possible:
     *
     *   M. Dion, H. Rydberg, E. Schroder, D. C. Langreth, and
     *   B. I. Lundqvist, Phys. Rev. Lett. 92, 246401 (2004).
     *
     *   T. Thonhauser, V. R. Cooper, S. Li, A. Puzder, P. Hyldgaard, and
     *   D. C. Langreth, Phys. Rev. B 76, 125112 (2007).
     *
     *   G. Roman-Perez and J. M. Soler, Phys. Rev. Lett. 103, 096102 (2009).
     *
     *
     * If you are using vdW-DF2, please also cite:
     *
     *   K. Lee, E. D. Murray, L. Kong, B. I. Lundqvist, and
     *   D. C. Langreth, Phys. Rev. B 82, 081101(R) (2010).
     *
     *
     * If you are calculating the stress with vdW-DF, please also cite:
     *
     *   R. Sabatini, E. Kucukbenli, B. Kolb, T. Thonhauser, and
     *   S. de Gironcoli, J. Phys.: Condens. Matter 24, 424209 (2012).
     *

     Carrying out vdW-DF run using the following parameters:

     Nqs =      20    Nr_points =    1024   r_max =   100.000
     q_mesh =
               0.00001000     0.04494208     0.09755937     0.15916263
               0.23128650     0.31572767     0.41458969     0.53033537
               0.66584808     0.82450364     1.01025438     1.22772762
               1.48234092     1.78043706     2.12944203     2.53805004
               3.01644009     3.57652955     4.23227104     5.00000000

     Gradients computed in reciprocal space

[...]

     Starting wfc are  120 randomized atomic wfcs

     Self-consistent Calculation

[...]

     Threshold (ethr) on eigenvalues was too large:
     Diagonalizing with lowered threshold

     Davidson diagonalization with overlap
     ethr =  8.67E-04,  avg # of iterations =  1.4

[...]

     total energy              =   -1643.69607154 Ry
     Harris-Foulkes estimate   =   -1643.69607175 Ry
     estimated scf accuracy    <       0.00000174 Ry

     iteration # 15     ecut=    36.75 Ry     beta=0.10
     Davidson diagonalization with overlap
     ethr =  1.11E-09,  avg # of iterations =  4.1

[...]

     negative rho (up, down):  5.511E-01 0.000E+00

     Adding external electric field

     Computed dipole along edir(3) :
        Dipole                0.0421 Ry au,          0.1071 Debye
        Dipole field          0.0001 Ry au

        Potential amp.       -0.0093 Ry
        Total length         45.8414 bohr

     End of self-consistent calculation

[...]

          k = 0.0558 0.0000 0.0000 ( 19521 PWs)   bands (ev):

[...]

          k =-0.0837-0.1449 0.0000 ( 19556 PWs)   bands (ev):

   -84.5077 -84.4697 -84.3994 -43.8267 -43.8266 -43.8087 -43.8083 -43.8041
   -43.7922 -43.7162 -43.7160 -43.6988  -8.5698  -8.4505  -8.4135  -8.3310
    -8.2978  -8.2529  -8.2007  -8.1623  -8.1563  -8.1165  -8.0890  -8.0788
    -8.0323  -7.9827  -7.9387  -7.9298  -7.8804  -7.8256  -7.7927  -7.7909
    -7.7757  -7.7560  -7.7321  -7.7090  -7.7034  -7.6830  -7.6721  -7.6414
    -7.6119  -7.6086  -7.5941  -7.5851  -7.5671  -7.5497  -7.5466  -7.5288
    -7.5165  -7.4595  -7.4178  -7.3832  -7.3619  -7.3376  -7.2218  -7.1219
    -7.0559  -5.5988  -5.4416  -4.1003  -3.6619  -2.9405  -1.9981  -1.8079
    -1.6675  -1.2568  -1.1498  -0.5650  -0.5630  -0.2534  -0.2354  -0.1760
    -0.1305   0.0705   0.2830   0.3663   0.5722   0.9581   1.0487   1.3216
     1.6847   1.8750   2.7755   2.8823   3.1109   3.2352   5.1101   5.1478
     5.2713   5.3585   5.3964   5.7466   5.8086   5.8676   6.1259   6.2118
     6.5935   6.6411   6.8032   6.9048   6.9611   7.5183   7.5675   7.5718
     7.6592   7.7029   8.0888   8.1729

     the Fermi energy is     0.9219 ev

!    total energy              =   -1643.69606701 Ry
     Harris-Foulkes estimate   =   -1643.69607171 Ry
     estimated scf accuracy    <       0.00000063 Ry

     The total energy is the sum of the following terms:

     one-electron contribution =  -11312.92086344 Ry
     hartree contribution      =    5723.01253564 Ry
     xc contribution           =    -483.36835713 Ry
     ewald contribution        =    4429.63044068 Ry
     electric field correction =       0.00000430 Ry
     smearing contrib. (-TS)   =      -0.04982706 Ry

     convergence has been achieved in  15 iterations

 BEEF-vdW xc energy contributions
           1 :   -423.616090981720
           2 :    388.732296082965
           3 :   -329.192335198877
           4 :    260.966587629366
           5 :   -199.375459463687
           6 :    153.858879940043
           7 :   -126.009333582611
           8 :    111.179119038722
           9 :   -102.297646635180
          10 :    93.7079732374959
          11 :   -83.2303473346361
          12 :    71.8905845198196
          13 :   -62.0672252619380
          14 :    55.4598272163128
          15 :   -52.0483424461565
          16 :    50.3774675796522
          17 :   -48.6719000942456
          18 :    45.9202521333507
          19 :   -42.2822535089013
          20 :    38.7097374844921
          21 :   -36.1649778516538
          22 :    34.9807995111008
          23 :   -34.7202207217043
          24 :    34.5310934213878
          25 :   -33.7044015793039
          26 :    32.0695768578411
          27 :   -30.0142331564190
          28 :    28.1684472696178
          29 :   -26.9918010567081
          30 :    26.5247182858254
          31 :   -38.5683510656543
          32 :   -28.4509818780326

     Forces acting on atoms (Ry/au):

     negative rho (up, down):  5.511E-01 0.000E+00
     atom    1 type  1   force =     0.00000119    0.00828057   -0.02619398
     atom    2 type  1   force =     0.00717445   -0.00414343   -0.02620158
     atom    3 type  1   force =    -0.00717034   -0.00414052   -0.02619514
     atom    4 type  2   force =    -0.00000111    0.00000174    0.06902395
     atom    5 type  1   force =     0.00000382   -0.01553256   -0.00044778
     atom    6 type  1   force =    -0.01345558    0.00777063   -0.00044711
     atom    7 type  1   force =     0.01344766    0.00776053   -0.00045514
     atom    8 type  2   force =    -0.00000170   -0.00000024    0.00815003
     atom    9 type  1   force =     0.00000187    0.00020171    0.00141136
     atom   10 type  1   force =     0.00017685   -0.00010199    0.00140570
     atom   11 type  1   force =    -0.00017306   -0.00009945    0.00140639
     atom   12 type  2   force =    -0.00000404    0.00000301   -0.00145670

     Total force =     0.088475     Total SCF correction =     0.003220

     entering subroutine stress ...

     negative rho (up, down):  5.511E-01 0.000E+00
          total   stress  (Ry/bohr**3)                   (kbar)     P=  -12.58
  -0.00012112   0.00000000  -0.00000000        -17.82      0.00     -0.00
   0.00000000  -0.00012112  -0.00000000          0.00    -17.82     -0.00
  -0.00000000  -0.00000000  -0.00001428         -0.00     -0.00     -2.10

 !ASE

     Writing output data file calc.save

     General routines

     Parallel routines

   This run was terminated on:  22:12:37  19Dec2018

   JOB DONE.
Job  /afs/slac/g/suncat/bin/suncat-tsmpirun -x LD_LIBRARY_PATH -wdir /scratch/qe773445_YOWSK pw.x -in pw.inp

TID   HOST_NAME   COMMAND_LINE            STATUS            TERMINATION_TIME
00000 suncat0277 pw.x -in pw.inp   Done                     12/19/2018 22:12:37
00001 suncat0277 pw.x -in pw.inp   Done                     12/19/2018 22:12:37
00002 suncat0277 pw.x -in pw.inp   Done                     12/19/2018 22:12:37
00003 suncat0277 pw.x -in pw.inp   Done                     12/19/2018 22:12:37
00004 suncat0277 pw.x -in pw.inp   Done                     12/19/2018 22:12:37
00005 suncat0277 pw.x -in pw.inp   Done                     12/19/2018 22:12:37
00006 suncat0277 pw.x -in pw.inp   Done                     12/19/2018 22:12:37
00007 suncat0277 pw.x -in pw.inp   Done                     12/19/2018 22:12:37
00008 suncat0276 pw.x -in pw.inp   Done                     12/19/2018 22:12:37
00009 suncat0276 pw.x -in pw.inp   Done                     12/19/2018 22:12:37
00010 suncat0276 pw.x -in pw.inp   Done                     12/19/2018 22:12:37
00011 suncat0276 pw.x -in pw.inp   Done                     12/19/2018 22:12:37
00012 suncat0276 pw.x -in pw.inp   Done                     12/19/2018 22:12:37
00013 suncat0276 pw.x -in pw.inp   Done                     12/19/2018 22:12:37
00014 suncat0276 pw.x -in pw.inp   Done                     12/19/2018 22:12:37
00015 suncat0276 pw.x -in pw.inp   Done                     12/19/2018 22:12:37
00016 suncat0274 pw.x -in pw.inp   Done                     12/19/2018 22:12:37
00017 suncat0274 pw.x -in pw.inp   Done                     12/19/2018 22:12:37
00018 suncat0274 pw.x -in pw.inp   Done                     12/19/2018 22:12:37
00019 suncat0274 pw.x -in pw.inp   Done                     12/19/2018 22:12:37
00020 suncat0274 pw.x -in pw.inp   Done                     12/19/2018 22:12:37
00021 suncat0274 pw.x -in pw.inp   Done                     12/19/2018 22:12:37
00022 suncat0274 pw.x -in pw.inp   Done                     12/19/2018 22:12:37
00023 suncat0274 pw.x -in pw.inp   Done                     12/19/2018 22:12:37
00024 suncat0273 pw.x -in pw.inp   Done                     12/19/2018 22:12:37
00025 suncat0273 pw.x -in pw.inp   Done                     12/19/2018 22:12:37
00026 suncat0273 pw.x -in pw.inp   Done                     12/19/2018 22:12:37
00027 suncat0273 pw.x -in pw.inp   Done                     12/19/2018 22:12:37
00028 suncat0273 pw.x -in pw.inp   Done                     12/19/2018 22:12:37
00029 suncat0273 pw.x -in pw.inp   Done                     12/19/2018 22:12:37
00030 suncat0273 pw.x -in pw.inp   Done                     12/19/2018 22:12:37
00031 suncat0273 pw.x -in pw.inp   Done                     12/19/2018 22:12:37
00032 suncat0272 pw.x -in pw.inp   Done                     12/19/2018 22:12:37
00033 suncat0272 pw.x -in pw.inp   Done                     12/19/2018 22:12:37
00034 suncat0272 pw.x -in pw.inp   Done                     12/19/2018 22:12:37
00035 suncat0272 pw.x -in pw.inp   Done                     12/19/2018 22:12:37
00036 suncat0272 pw.x -in pw.inp   Done                     12/19/2018 22:12:37
00037 suncat0272 pw.x -in pw.inp   Done                     12/19/2018 22:12:37
00038 suncat0272 pw.x -in pw.inp   Done                     12/19/2018 22:12:37
00039 suncat0272 pw.x -in pw.inp   Done                     12/19/2018 22:12:37
00040 suncat0271 pw.x -in pw.inp   Done                     12/19/2018 22:12:37
00041 suncat0271 pw.x -in pw.inp   Done                     12/19/2018 22:12:37
00042 suncat0271 pw.x -in pw.inp   Done                     12/19/2018 22:12:37
00043 suncat0271 pw.x -in pw.inp   Done                     12/19/2018 22:12:37
00044 suncat0271 pw.x -in pw.inp   Done                     12/19/2018 22:12:37
00045 suncat0271 pw.x -in pw.inp   Done                     12/19/2018 22:12:37
00046 suncat0271 pw.x -in pw.inp   Done                     12/19/2018 22:12:37
00047 suncat0271 pw.x -in pw.inp   Done                     12/19/2018 22:12:37
00048 suncat0270 pw.x -in pw.inp   Done                     12/19/2018 22:12:37
00049 suncat0270 pw.x -in pw.inp   Done                     12/19/2018 22:12:37
00050 suncat0270 pw.x -in pw.inp   Done                     12/19/2018 22:12:37
00051 suncat0270 pw.x -in pw.inp   Done                     12/19/2018 22:12:37
00052 suncat0270 pw.x -in pw.inp   Done                     12/19/2018 22:12:37
00053 suncat0270 pw.x -in pw.inp   Done                     12/19/2018 22:12:37
00054 suncat0270 pw.x -in pw.inp   Done                     12/19/2018 22:12:37
00055 suncat0270 pw.x -in pw.inp   Done                     12/19/2018 22:12:37
00056 suncat0268 pw.x -in pw.inp   Done                     12/19/2018 22:12:37
00057 suncat0268 pw.x -in pw.inp   Done                     12/19/2018 22:12:37
00058 suncat0268 pw.x -in pw.inp   Done                     12/19/2018 22:12:37
00059 suncat0268 pw.x -in pw.inp   Done                     12/19/2018 22:12:37
00060 suncat0268 pw.x -in pw.inp   Done                     12/19/2018 22:12:37
00061 suncat0268 pw.x -in pw.inp   Done                     12/19/2018 22:12:37
00062 suncat0268 pw.x -in pw.inp   Done                     12/19/2018 22:12:37
00063 suncat0268 pw.x -in pw.inp   Done                     12/19/2018 22:12:37