     Program PWSCF v.5.1rc2 (svn rev. 11289) starts on  1Jan2019 at  5:46:42

     Current dimensions of program PWSCF are:
     Max number of different atomic species (ntypx) = 10
     Max number of k-points (npk) =  40000
     Max angular momentum in pseudopotentials (lmaxx) =  3
     Presently stress not available with electric field

     IMPORTANT: XC functional enforced from input :
     Exchange-correlation      = BEEF-VDW ( 1  4 27 13 2)
     Any further DFT definition will be discarded
     Please, verify this is what you really want

     Subspace diagonalization in iterative solution of the eigenvalue problem:
     a serial algorithm will be used

     bravais-lattice index     =            0
     lattice parameter (alat)  =       1.8897  a.u.
     unit-cell volume          =    5704.0669 (a.u.)^3
     number of atoms/cell      =           12
     number of atomic types    =            2
     number of electrons       =       108.00
     number of Kohn-Sham states=           84
     kinetic-energy cutoff     =      36.7493  Ry
     charge density cutoff     =     367.4932  Ry
     convergence threshold     =      1.0E-06
     mixing beta               =       0.1000
     number of iterations used =           10  plain     mixing
     Exchange-correlation      = BEEF-VDW ( 1  4 27 13 2)
     nstep                     =           50

     celldm(1)=   1.889726  celldm(2)=   0.000000  celldm(3)=   0.000000
     celldm(4)=   0.000000  celldm(5)=   0.000000  celldm(6)=   0.000000

     crystal axes: (cart. coord. in units of alat)
               a(1) = (   6.236753   0.000000   0.000000 )
               a(2) = (  -3.118377   5.401187   0.000000 )
               a(3) = (   0.000000   0.000000  25.092288 )

     reciprocal axes: (cart. coord. in units 2 pi/alat)
               b(1) = (  0.160340  0.092572  0.000000 )
               b(2) = (  0.000000  0.185144  0.000000 )
               b(3) = (  0.000000  0.000000  0.039853 )

     PseudoPot. # 1 for Sc read from file:
     /afs/slac.stanford.edu/u/if/mamunm/psp/gbrv1.5pbe/Sc.UPF
     MD5 check sum: db30a2753ba66ef00f23801d899b7e7f
     Pseudo is Ultrasoft + core correction, Zval = 11.0
     Generated by new atomic code, or converted to UPF format
     Using radial grid of  849 points,  6 beta functions with:
                l(1) =   0
                l(2) =   0
                l(3) =   1
                l(4) =   1
                l(5) =   2
                l(6) =   2
     Q(r) pseudized with  6 coefficients,  rinner =    1.200   1.200   1.200
                                                       1.200   1.200

     PseudoPot. # 2 for Al read from file:
     /afs/slac.stanford.edu/u/if/mamunm/psp/gbrv1.5pbe/Al.UPF
     MD5 check sum: 0a6289f5291fc8f409219462bc851e1f
     Pseudo is Ultrasoft + core correction, Zval =  3.0
     Generated by new atomic code, or converted to UPF format
     Using radial grid of  893 points,  3 beta functions with:
                l(1) =   0
                l(2) =   1
                l(3) =   2
     Q(r) pseudized with  8 coefficients,  rinner =    0.900   0.900   0.900
                                                       0.900   0.900

     vdW kernel table read from file vdW_kernel_table
     MD5 check sum: 095c7af220d748ca6e76c0b4c6cfb241

     atomic species   valence    mass     pseudopotential
        Sc1           11.00    44.95591     Sc( 1.00)
        Al1            3.00    26.98154     Al( 1.00)

     No symmetry found

   Cartesian axes

     site n.     atom                  positions (alat units)
         1           Sc1 tau(   1) = (   0.0000000   0.0000000  10.0000000  )
         2           Sc1 tau(   2) = (  -1.5591883   2.7005934  10.0000000  )
         3           Sc1 tau(   3) = (   1.5591883   2.7005934  10.0000000  )
         4           Al1 tau(   4) = (   3.1183766   0.0000000  10.0000000  )
         5           Sc1 tau(   5) = (   3.1183766   1.8003956  12.5461438  )
         6           Sc1 tau(   6) = (   1.5591883   4.5009889  12.5461438  )
         7           Sc1 tau(   7) = (  -1.5591883   4.5009889  12.5461438  )
         8           Al1 tau(   8) = (   0.0000000   1.8003956  12.5461438  )
         9           Sc1 tau(   9) = (  -0.0000000   3.6007911  15.0922877  )
        10           Sc1 tau(  10) = (   1.5591883   0.9001978  15.0922877  )
        11           Sc1 tau(  11) = (   4.6775649   0.9001978  15.0922877  )
        12           Al1 tau(  12) = (   3.1183766   3.6007911  15.0922877  )

     number of k points=    20  Fermi-Dirac smearing, width (Ry)=  0.0110
                       cart. coord. in units 2pi/alat
        k(    1) = (   0.0000000   0.0000000   0.0000000), wk =   0.0555556
        k(    2) = (   0.0000000   0.0308574   0.0000000), wk =   0.1111111
        k(    3) = (   0.0000000   0.0617148   0.0000000), wk =   0.1111111
        k(    4) = (   0.0000000  -0.0925722   0.0000000), wk =   0.0555556
        k(    5) = (   0.0267233   0.0154287   0.0000000), wk =   0.1111111
        k(    6) = (   0.0267233   0.0462861   0.0000000), wk =   0.1111111
        k(    7) = (   0.0267233   0.0771435   0.0000000), wk =   0.1111111
        k(    8) = (   0.0267233  -0.0771435   0.0000000), wk =   0.1111111
        k(    9) = (   0.0267233  -0.0462861   0.0000000), wk =   0.1111111
        k(   10) = (   0.0267233  -0.0154287   0.0000000), wk =   0.1111111
        k(   11) = (   0.0534466   0.0308574   0.0000000), wk =   0.1111111
        k(   12) = (   0.0534466   0.0617148   0.0000000), wk =   0.1111111
        k(   13) = (   0.0534466   0.0925722   0.0000000), wk =   0.1111111
        k(   14) = (   0.0534466  -0.0617148   0.0000000), wk =   0.1111111
        k(   15) = (   0.0534466  -0.0308574   0.0000000), wk =   0.1111111
        k(   16) = (   0.0534466   0.0000000   0.0000000), wk =   0.1111111
        k(   17) = (  -0.0801699  -0.0462861   0.0000000), wk =   0.0555556
        k(   18) = (  -0.0801699  -0.0154287   0.0000000), wk =   0.1111111
        k(   19) = (  -0.0801699   0.0154287   0.0000000), wk =   0.1111111
        k(   20) = (  -0.0801699  -0.1388584   0.0000000), wk =   0.0555556

     Largest allocated arrays     est. size (Mb)     dimensions
     Largest temporary arrays     est. size (Mb)     dimensions

     Initial potential from superposition of free atoms
     Check: negative starting charge=   -0.000264

     starting charge  107.97098, renormalised to  108.00000

     negative rho (up, down):  2.645E-04 0.000E+00

     *
     * You are using vdW-DF for exchange-correlation in this calculation.
     * Please cite the following three references that made this development
     * possible:
     *
     *   M. Dion, H. Rydberg, E. Schroder, D. C. Langreth, and
     *   B. I. Lundqvist, Phys. Rev. Lett. 92, 246401 (2004).
     *
     *   T. Thonhauser, V. R. Cooper, S. Li, A. Puzder, P. Hyldgaard, and
     *   D. C. Langreth, Phys. Rev. B 76, 125112 (2007).
     *
     *   G. Roman-Perez and J. M. Soler, Phys. Rev. Lett. 103, 096102 (2009).
     *
     *
     * If you are using vdW-DF2, please also cite:
     *
     *   K. Lee, E. D. Murray, L. Kong, B. I. Lundqvist, and
     *   D. C. Langreth, Phys. Rev. B 82, 081101(R) (2010).
     *
     *
     * If you are calculating the stress with vdW-DF, please also cite:
     *
     *   R. Sabatini, E. Kucukbenli, B. Kolb, T. Thonhauser, and
     *   S. de Gironcoli, J. Phys.: Condens. Matter 24, 424209 (2012).
     *

     Carrying out vdW-DF run using the following parameters:

     Nqs =      20    Nr_points =    1024   r_max =   100.000
     q_mesh =
               0.00001000     0.04494208     0.09755937     0.15916263
               0.23128650     0.31572767     0.41458969     0.53033537
               0.66584808     0.82450364     1.01025438     1.22772762
               1.48234092     1.78043706     2.12944203     2.53805004
               3.01644009     3.57652955     4.23227104     5.00000000

     Gradients computed in reciprocal space

     Adding external electric field

     Computed dipole along edir(3) :
        Dipole                0.0000 Ry au,          0.0000 Debye
        Dipole field          0.0000 Ry au

        Potential amp.       -0.0000 Ry
        Total length         46.2321 bohr

     Starting wfc are  129 randomized atomic wfcs

     Self-consistent Calculation

     iteration #  1     ecut=    36.75 Ry     beta=0.10
     Davidson diagonalization with overlap
     ethr =  1.00E-02,  avg # of iterations =  2.0

[...]

     total energy              =    -873.58325697 Ry
     Harris-Foulkes estimate   =    -874.41101962 Ry
     estimated scf accuracy    <       4.68395821 Ry

[...]

     End of self-consistent calculation

          k = 0.0000 0.0000 0.0000 ( 21487 PWs)   bands (ev):

   -49.7951 -49.7938 -49.7448 -49.7447 -49.7444 -49.7443 -49.3800 -49.3306
   -49.3305 -28.5581 -28.5330 -28.5020 -28.4747 -28.4587 -28.4586 -28.4334
   -28.4334 -28.4269 -28.4269 -28.4208 -28.4208 -28.2332 -28.2282 -28.1954
   -28.1358 -28.1357 -28.1319 -28.1319 -28.0200 -28.0199 -27.9556 -27.9196
   -27.9195 -27.8267 -27.7873 -27.7873  -6.1722  -5.1192  -4.3875  -2.0499
    -2.0473  -1.9257  -1.2409  -1.2409  -1.1650  -1.1650  -0.7965  -0.6616
    -0.6616  -0.4250  -0.1332  -0.1332  -0.1065  -0.1065  -0.0939   0.2712
     0.4543   0.4543   0.4783   0.5717   0.5717   0.8457   1.0282   1.0282
     1.1960   1.3568   1.4152   1.4152   1.8074   1.8473   2.4251   2.4252
     2.4524   2.4524   2.5122   2.5123   2.5747   2.6877   2.7897   2.7897
     2.9420   2.9420   3.1441   3.1441

[...]

          k =-0.0802-0.0463 0.0000 ( 21460 PWs)   bands (ev):

[...]

     the Fermi energy is     0.1754 ev

!    total energy              =    -874.00351327 Ry
     Harris-Foulkes estimate   =    -874.00351525 Ry
     estimated scf accuracy    <       0.00000040 Ry

     The total energy is the sum of the following terms:

     one-electron contribution =   -5189.92804876 Ry
     hartree contribution      =    2582.53515192 Ry
     xc contribution           =    -138.11918856 Ry
     ewald contribution        =    1871.60764605 Ry
     electric field correction =       0.00000004 Ry
     smearing contrib. (-TS)   =      -0.09907395 Ry

     convergence has been achieved in  17 iterations

 BEEF-vdW xc energy contributions
           1 :   -116.712175872040
           2 :    102.504560736486
           3 :   -80.3982979884968
           4 :    58.9700094072963
           5 :   -44.1677373160980
           6 :    36.9144070770215
           7 :   -34.2523948623991
           8 :    32.4450644642860
           9 :   -29.5267359350874
          10 :    25.8158960932980
          11 :   -22.6788128772219
          12 :    20.9390044300471
          13 :   -20.2140719497339
          14 :    19.4627020656919
          15 :   -18.0165133994771
          16 :    16.1076281185964
          17 :   -14.5085680903612
          18 :    13.7423758299568
          19 :   -13.6340366188913
          20 :    13.5486630400125
          21 :   -13.0002718104498
          22 :    12.0411964825450
          23 :   -11.1308100653377
          24 :    10.6761454222984
          25 :   -10.6870658680817
[...]
               a(2) = (  -3.118377   5.401187   0.000000 )
               a(3) = (   0.000000   0.000000  25.092288 )

     reciprocal axes: (cart. coord. in units 2 pi/alat)
               b(1) = (  0.160340  0.092572  0.000000 )
               b(2) = (  0.000000  0.185144  0.000000 )
               b(3) = (  0.000000  0.000000  0.039853 )

     PseudoPot. # 1 for Sc read from file:
     /afs/slac.stanford.edu/u/if/mamunm/psp/gbrv1.5pbe/Sc.UPF
     MD5 check sum: db30a2753ba66ef00f23801d899b7e7f
     Pseudo is Ultrasoft + core correction, Zval = 11.0
     Generated by new atomic code, or converted to UPF format
     Using radial grid of  849 points,  6 beta functions with:
                l(1) =   0
                l(2) =   0
                l(3) =   1
                l(4) =   1
                l(5) =   2
                l(6) =   2
     Q(r) pseudized with  6 coefficients,  rinner =    1.200   1.200   1.200
                                                       1.200   1.200

     PseudoPot. # 2 for Al read from file:
     /afs/slac.stanford.edu/u/if/mamunm/psp/gbrv1.5pbe/Al.UPF
     MD5 check sum: 0a6289f5291fc8f409219462bc851e1f
     Pseudo is Ultrasoft + core correction, Zval =  3.0
     Generated by new atomic code, or converted to UPF format
     Using radial grid of  893 points,  3 beta functions with:
                l(1) =   0
                l(2) =   1
                l(3) =   2
     Q(r) pseudized with  8 coefficients,  rinner =    0.900   0.900   0.900
                                                       0.900   0.900

     vdW kernel table read from file vdW_kernel_table
     MD5 check sum: 095c7af220d748ca6e76c0b4c6cfb241

     atomic species   valence    mass     pseudopotential
        Sc1           11.00    44.95591     Sc( 1.00)
        Al1            3.00    26.98154     Al( 1.00)

     No symmetry found

   Cartesian axes

     site n.     atom                  positions (alat units)
         1           Sc1 tau(   1) = (   0.0000000   0.0000000  10.0000000  )
         2           Sc1 tau(   2) = (  -1.5591883   2.7005934  10.0000000  )
         3           Sc1 tau(   3) = (   1.5591883   2.7005934  10.0000000  )
         4           Al1 tau(   4) = (   3.1183766   0.0000000  10.0000000  )
         5           Sc1 tau(   5) = (   3.1183766   1.8003956  12.5461438  )
         6           Sc1 tau(   6) = (   1.5591883   4.5009889  12.5461438  )
         7           Sc1 tau(   7) = (  -1.5591883   4.5009889  12.5461438  )
         8           Al1 tau(   8) = (   0.0000000   1.8003956  12.5461438  )
         9           Sc1 tau(   9) = (  -0.0000002   3.5648125  15.1227854  )
        10           Sc1 tau(  10) = (   1.5280320   0.9181705  15.1228095  )
        11           Sc1 tau(  11) = (   4.7087252   0.9181741  15.1228076  )
        12           Al1 tau(  12) = (   3.1183780   3.6007855  14.9809643  )

     number of k points=    20  Fermi-Dirac smearing, width (Ry)=  0.0110
                       cart. coord. in units 2pi/alat
        k(    1) = (   0.0000000   0.0000000   0.0000000), wk =   0.0555556
        k(    2) = (   0.0000000   0.0308574   0.0000000), wk =   0.1111111
        k(    3) = (   0.0000000   0.0617148   0.0000000), wk =   0.1111111
        k(    4) = (   0.0000000  -0.0925722   0.0000000), wk =   0.0555556
        k(    5) = (   0.0267233   0.0154287   0.0000000), wk =   0.1111111
        k(    6) = (   0.0267233   0.0462861   0.0000000), wk =   0.1111111
        k(    7) = (   0.0267233   0.0771435   0.0000000), wk =   0.1111111
        k(    8) = (   0.0267233  -0.0771435   0.0000000), wk =   0.1111111
        k(    9) = (   0.0267233  -0.0462861   0.0000000), wk =   0.1111111
        k(   10) = (   0.0267233  -0.0154287   0.0000000), wk =   0.1111111
        k(   11) = (   0.0534466   0.0308574   0.0000000), wk =   0.1111111
        k(   12) = (   0.0534466   0.0617148   0.0000000), wk =   0.1111111
        k(   13) = (   0.0534466   0.0925722   0.0000000), wk =   0.1111111
        k(   14) = (   0.0534466  -0.0617148   0.0000000), wk =   0.1111111
        k(   15) = (   0.0534466  -0.0308574   0.0000000), wk =   0.1111111
        k(   16) = (   0.0534466   0.0000000   0.0000000), wk =   0.1111111
        k(   17) = (  -0.0801699  -0.0462861   0.0000000), wk =   0.0555556
        k(   18) = (  -0.0801699  -0.0154287   0.0000000), wk =   0.1111111
        k(   19) = (  -0.0801699   0.0154287   0.0000000), wk =   0.1111111
        k(   20) = (  -0.0801699  -0.1388584   0.0000000), wk =   0.0555556

     Largest allocated arrays     est. size (Mb)     dimensions
     Largest temporary arrays     est. size (Mb)     dimensions

     Initial potential from superposition of free atoms
     Check: negative starting charge=   -0.000265

     starting charge  107.97098, renormalised to  108.00000

[...]

     *
     * You are using vdW-DF for exchange-correlation in this calculation.
     * Please cite the following three references that made this development
     * possible:
     *
     *   M. Dion, H. Rydberg, E. Schroder, D. C. Langreth, and
     *   B. I. Lundqvist, Phys. Rev. Lett. 92, 246401 (2004).
     *
     *   T. Thonhauser, V. R. Cooper, S. Li, A. Puzder, P. Hyldgaard, and
     *   D. C. Langreth, Phys. Rev. B 76, 125112 (2007).
     *
     *   G. Roman-Perez and J. M. Soler, Phys. Rev. Lett. 103, 096102 (2009).
     *
     *
     * If you are using vdW-DF2, please also cite:
     *
     *   K. Lee, E. D. Murray, L. Kong, B. I. Lundqvist, and
     *   D. C. Langreth, Phys. Rev. B 82, 081101(R) (2010).
     *
     *
     * If you are calculating the stress with vdW-DF, please also cite:
     *
     *   R. Sabatini, E. Kucukbenli, B. Kolb, T. Thonhauser, and
     *   S. de Gironcoli, J. Phys.: Condens. Matter 24, 424209 (2012).
     *

     Carrying out vdW-DF run using the following parameters:

     Nqs =      20    Nr_points =    1024   r_max =   100.000
     q_mesh =
               0.00001000     0.04494208     0.09755937     0.15916263
               0.23128650     0.31572767     0.41458969     0.53033537
               0.66584808     0.82450364     1.01025438     1.22772762
               1.48234092     1.78043706     2.12944203     2.53805004
               3.01644009     3.57652955     4.23227104     5.00000000

     Gradients computed in reciprocal space

[...]

     Starting wfc are  129 randomized atomic wfcs

     Self-consistent Calculation

[...]

     total energy              =    -874.00761272 Ry
     Harris-Foulkes estimate   =    -874.00761320 Ry
     estimated scf accuracy    <       0.00000154 Ry

     iteration # 18     ecut=    36.75 Ry     beta=0.10
     Davidson diagonalization with overlap
     ethr =  1.43E-09,  avg # of iterations =  2.3

[...]

     negative rho (up, down):  1.835E-04 0.000E+00

     Adding external electric field

     Computed dipole along edir(3) :
        Dipole                0.0254 Ry au,          0.0645 Debye
        Dipole field          0.0001 Ry au

        Potential amp.       -0.0052 Ry
        Total length         46.2321 bohr

     End of self-consistent calculation

[...]

          k = 0.0534 0.0000 0.0000 ( 21463 PWs)   bands (ev):

[...]

          k =-0.0802-0.1389 0.0000 ( 21460 PWs)   bands (ev):

   -49.7770 -49.7569 -49.7517 -49.7413 -49.7351 -49.7184 -49.3380 -49.3215
   -49.3049 -28.4777 -28.4669 -28.4602 -28.4492 -28.4324 -28.4299 -28.4244
   -28.4110 -28.3523 -28.3446 -28.3180 -28.3145 -28.3000 -28.2836 -28.2755
   -28.2692 -28.1371 -28.1224 -28.0759 -27.9362 -27.9253 -27.9168 -27.9092
   -27.9002 -27.8969 -27.8900 -27.7717  -5.1749  -4.9320  -4.3875  -3.1079
    -2.3586  -2.1446  -2.1110  -1.2017  -1.1747  -1.1181  -0.7387  -0.5757
    -0.5317  -0.5289  -0.1143  -0.0620   0.1069   0.2274   0.3600   0.4767
     0.5518   0.6504   0.6832   0.7349   0.8221   0.8250   0.8593   1.1851
     1.1920   1.3148   1.4432   1.5735   1.6896   1.7979   2.0105   2.2167
     2.2799   2.3527   2.4492   2.4930   2.5706   2.5864   2.6113   2.6156
     2.6677   2.7103   2.7786   2.9229

     the Fermi energy is     0.2026 ev

!    total energy              =    -874.00761120 Ry
     Harris-Foulkes estimate   =    -874.00761293 Ry
     estimated scf accuracy    <       0.00000019 Ry

     The total energy is the sum of the following terms:

     one-electron contribution =   -5176.59074847 Ry
     hartree contribution      =    2575.93753935 Ry
     xc contribution           =    -138.12033024 Ry
     ewald contribution        =    1864.86362330 Ry
     electric field correction =       0.00000142 Ry
     smearing contrib. (-TS)   =      -0.09769656 Ry

     convergence has been achieved in  18 iterations

 BEEF-vdW xc energy contributions
           1 :   -116.738926102760
           2 :    102.531340817417
           3 :   -80.4274432157190
           4 :    59.0043373843982
           5 :   -44.2060690914736
           6 :    36.9506816372287
           7 :   -34.2804281853960
           8 :    32.4632855853866
           9 :   -29.5378155638460
          10 :    25.8228436064216
          11 :   -22.6823695735611
          12 :    20.9379558199797
          13 :   -20.2066085260271
          14 :    19.4475425566134
          15 :   -17.9940981415158
          16 :    16.0810353976912
          17 :   -14.4826263259070
          18 :    13.7207105075111
          19 :   -13.6164087381151
          20 :    13.5311422490433
          21 :   -12.9787141050550
          22 :    12.0154326284127
          23 :   -11.1052852513421
          24 :    10.6553282319326
          25 :   -10.6694644538184
          26 :    10.8008585234836
          27 :   -10.7005769815876
          28 :    10.3136302543036
          29 :   -9.86971341106246
          30 :    9.62381741019777
          31 :   -14.0838250618564
          32 :   -10.1200576523177

     Forces acting on atoms (Ry/au):

     negative rho (up, down):  1.835E-04 0.000E+00
     atom    1 type  1   force =     0.00000265    0.01122823   -0.00569000
     atom    2 type  1   force =     0.00972267   -0.00561339   -0.00568484
     atom    3 type  1   force =    -0.00972188   -0.00561678   -0.00569046
     atom    4 type  2   force =     0.00000056   -0.00000025    0.01475714
     atom    5 type  1   force =     0.00000026   -0.00093280    0.00136597
     atom    6 type  1   force =    -0.00080659    0.00046662    0.00136437
     atom    7 type  1   force =     0.00080687    0.00046627    0.00136509
     atom    8 type  2   force =     0.00000022   -0.00000037    0.00082144
     atom    9 type  1   force =    -0.00000287    0.00174705   -0.00039556
     atom   10 type  1   force =     0.00151533   -0.00087394   -0.00040221
     atom   11 type  1   force =    -0.00151640   -0.00087081   -0.00039705
     atom   12 type  2   force =    -0.00000081    0.00000017   -0.00141389

     Total force =     0.026712     Total SCF correction =     0.000640

     entering subroutine stress ...

     negative rho (up, down):  1.835E-04 0.000E+00
          total   stress  (Ry/bohr**3)                   (kbar)     P=   -3.94
  -0.00003932   0.00000000   0.00000000         -5.78      0.00      0.00
   0.00000000  -0.00003932   0.00000000          0.00     -5.78      0.00
   0.00000000   0.00000000  -0.00000177          0.00      0.00     -0.26

 !ASE

     Writing output data file calc.save

     General routines

     Parallel routines

   This run was terminated on:   6:30:15   1Jan2019

   JOB DONE.
Job  /afs/slac/g/suncat/bin/suncat-tsmpirun -x LD_LIBRARY_PATH -wdir /scratch/qe648950_Lk3Jd pw.x -in pw.inp

TID   HOST_NAME   COMMAND_LINE            STATUS            TERMINATION_TIME
00000 suncat0243 pw.x -in pw.inp   Done                     01/01/2019 06:30:15
00001 suncat0243 pw.x -in pw.inp   Done                     01/01/2019 06:30:15
00002 suncat0243 pw.x -in pw.inp   Done                     01/01/2019 06:30:15
00003 suncat0243 pw.x -in pw.inp   Done                     01/01/2019 06:30:15
00004 suncat0243 pw.x -in pw.inp   Done                     01/01/2019 06:30:15
00005 suncat0243 pw.x -in pw.inp   Done                     01/01/2019 06:30:15
00006 suncat0243 pw.x -in pw.inp   Done                     01/01/2019 06:30:15
00007 suncat0243 pw.x -in pw.inp   Done                     01/01/2019 06:30:15
00008 suncat0242 pw.x -in pw.inp   Done                     01/01/2019 06:30:15
00009 suncat0242 pw.x -in pw.inp   Done                     01/01/2019 06:30:15
00010 suncat0242 pw.x -in pw.inp   Done                     01/01/2019 06:30:15
00011 suncat0242 pw.x -in pw.inp   Done                     01/01/2019 06:30:15
00012 suncat0242 pw.x -in pw.inp   Done                     01/01/2019 06:30:15
00013 suncat0242 pw.x -in pw.inp   Done                     01/01/2019 06:30:15
00014 suncat0242 pw.x -in pw.inp   Done                     01/01/2019 06:30:15
00015 suncat0242 pw.x -in pw.inp   Done                     01/01/2019 06:30:15
00016 suncat0241 pw.x -in pw.inp   Done                     01/01/2019 06:30:15
00017 suncat0241 pw.x -in pw.inp   Done                     01/01/2019 06:30:15
00018 suncat0241 pw.x -in pw.inp   Done                     01/01/2019 06:30:15
00019 suncat0241 pw.x -in pw.inp   Done                     01/01/2019 06:30:15
00020 suncat0241 pw.x -in pw.inp   Done                     01/01/2019 06:30:15
00021 suncat0241 pw.x -in pw.inp   Done                     01/01/2019 06:30:15
00022 suncat0241 pw.x -in pw.inp   Done                     01/01/2019 06:30:15
00023 suncat0241 pw.x -in pw.inp   Done                     01/01/2019 06:30:15
00024 suncat0240 pw.x -in pw.inp   Done                     01/01/2019 06:30:15
00025 suncat0240 pw.x -in pw.inp   Done                     01/01/2019 06:30:15
00026 suncat0240 pw.x -in pw.inp   Done                     01/01/2019 06:30:15
00027 suncat0240 pw.x -in pw.inp   Done                     01/01/2019 06:30:15
00028 suncat0240 pw.x -in pw.inp   Done                     01/01/2019 06:30:15
00029 suncat0240 pw.x -in pw.inp   Done                     01/01/2019 06:30:15
00030 suncat0240 pw.x -in pw.inp   Done                     01/01/2019 06:30:15
00031 suncat0240 pw.x -in pw.inp   Done                     01/01/2019 06:30:15
00032 suncat0209 pw.x -in pw.inp   Done                     01/01/2019 06:30:15
00033 suncat0209 pw.x -in pw.inp   Done                     01/01/2019 06:30:15
00034 suncat0209 pw.x -in pw.inp   Done                     01/01/2019 06:30:15
00035 suncat0209 pw.x -in pw.inp   Done                     01/01/2019 06:30:15
00036 suncat0209 pw.x -in pw.inp   Done                     01/01/2019 06:30:15
00037 suncat0209 pw.x -in pw.inp   Done                     01/01/2019 06:30:15
00038 suncat0209 pw.x -in pw.inp   Done                     01/01/2019 06:30:15
00039 suncat0209 pw.x -in pw.inp   Done                     01/01/2019 06:30:15
00040 suncat0205 pw.x -in pw.inp   Done                     01/01/2019 06:30:15
00041 suncat0205 pw.x -in pw.inp   Done                     01/01/2019 06:30:15
00042 suncat0205 pw.x -in pw.inp   Done                     01/01/2019 06:30:15
00043 suncat0205 pw.x -in pw.inp   Done                     01/01/2019 06:30:15
00044 suncat0205 pw.x -in pw.inp   Done                     01/01/2019 06:30:15
00045 suncat0205 pw.x -in pw.inp   Done                     01/01/2019 06:30:15
00046 suncat0205 pw.x -in pw.inp   Done                     01/01/2019 06:30:15
00047 suncat0205 pw.x -in pw.inp   Done                     01/01/2019 06:30:15
00048 suncat0204 pw.x -in pw.inp   Done                     01/01/2019 06:30:15
00049 suncat0204 pw.x -in pw.inp   Done                     01/01/2019 06:30:15
00050 suncat0204 pw.x -in pw.inp   Done                     01/01/2019 06:30:15
00051 suncat0204 pw.x -in pw.inp   Done                     01/01/2019 06:30:15
00052 suncat0204 pw.x -in pw.inp   Done                     01/01/2019 06:30:15
00053 suncat0204 pw.x -in pw.inp   Done                     01/01/2019 06:30:15
00054 suncat0204 pw.x -in pw.inp   Done                     01/01/2019 06:30:15
00055 suncat0204 pw.x -in pw.inp   Done                     01/01/2019 06:30:15
00056 suncat0203 pw.x -in pw.inp   Done                     01/01/2019 06:30:15
00057 suncat0203 pw.x -in pw.inp   Done                     01/01/2019 06:30:15
00058 suncat0203 pw.x -in pw.inp   Done                     01/01/2019 06:30:15
00059 suncat0203 pw.x -in pw.inp   Done                     01/01/2019 06:30:15
00060 suncat0203 pw.x -in pw.inp   Done                     01/01/2019 06:30:15
00061 suncat0203 pw.x -in pw.inp   Done                     01/01/2019 06:30:15
00062 suncat0203 pw.x -in pw.inp   Done                     01/01/2019 06:30:15
00063 suncat0203 pw.x -in pw.inp   Done                     01/01/2019 06:30:15