     Program PWSCF v.5.1rc2 (svn rev. 11289) starts on 30Dec2018 at 13: 7:23

     Current dimensions of program PWSCF are:
     Max number of different atomic species (ntypx) = 10
     Max number of k-points (npk) =  40000
     Max angular momentum in pseudopotentials (lmaxx) =  3
     Presently stress not available with electric field

     IMPORTANT: XC functional enforced from input :
     Exchange-correlation      = BEEF-VDW ( 1  4 27 13 2)
     Any further DFT definition will be discarded
     Please, verify this is what you really want

     Subspace diagonalization in iterative solution of the eigenvalue problem:
     a serial algorithm will be used

     Generating pointlists ...
     new r_m :   0.4125 (alat units)  0.7795 (a.u.) for type    1
     new r_m :   0.4125 (alat units)  0.7795 (a.u.) for type    2

     bravais-lattice index     =            0
     lattice parameter (alat)  =       1.8897  a.u.
     unit-cell volume          =    3918.6355 (a.u.)^3
     number of atoms/cell      =           12
     number of atomic types    =            2
     number of electrons       =       144.00
     number of Kohn-Sham states=          102
     kinetic-energy cutoff     =      36.7493  Ry
     charge density cutoff     =     367.4932  Ry
     convergence threshold     =      1.0E-06
     mixing beta               =       0.1000
     number of iterations used =           10  plain     mixing
     Exchange-correlation      = BEEF-VDW ( 1  4 27 13 2)
     nstep                     =           50

     celldm(1)=   1.889726  celldm(2)=   0.000000  celldm(3)=   0.000000
     celldm(4)=   0.000000  celldm(5)=   0.000000  celldm(6)=   0.000000

     crystal axes: (cart. coord. in units of alat)
               a(1) = (   5.254013   0.000000   0.000000 )
               a(2) = (  -2.627006   4.550108   0.000000 )
               a(3) = (   0.000000   0.000000  24.289883 )

     reciprocal axes: (cart. coord. in units 2 pi/alat)
               b(1) = (  0.190331  0.109887  0.000000 )
               b(2) = (  0.000000  0.219775  0.000000 )
               b(3) = (  0.000000  0.000000  0.041169 )

     PseudoPot. # 1 for Mn read from file:
     /afs/slac.stanford.edu/u/if/mamunm/psp/gbrv1.5pbe/Mn.UPF
     MD5 check sum: 82ef2b46521d7a7d9e736dc3972e4928
     Pseudo is Ultrasoft + core correction, Zval = 15.0
     Generated by new atomic code, or converted to UPF format
     Using radial grid of  859 points,  6 beta functions with:
                l(1) =   0
                l(2) =   0
                l(3) =   1
                l(4) =   1
                l(5) =   2
                l(6) =   2
     Q(r) pseudized with  8 coefficients,  rinner =    0.950   0.950   0.950
                                                       0.950   0.950

     PseudoPot. # 2 for Al read from file:
     /afs/slac.stanford.edu/u/if/mamunm/psp/gbrv1.5pbe/Al.UPF
     MD5 check sum: 0a6289f5291fc8f409219462bc851e1f
     Pseudo is Ultrasoft + core correction, Zval =  3.0
     Generated by new atomic code, or converted to UPF format
     Using radial grid of  893 points,  3 beta functions with:
                l(1) =   0
                l(2) =   1
                l(3) =   2
     Q(r) pseudized with  8 coefficients,  rinner =    0.900   0.900   0.900
                                                       0.900   0.900

     vdW kernel table read from file vdW_kernel_table
     MD5 check sum: 095c7af220d748ca6e76c0b4c6cfb241

     atomic species   valence    mass     pseudopotential
        Mn1           15.00    54.93804     Mn( 1.00)
        Al1            3.00    26.98154     Al( 1.00)

     Starting magnetic structure
     atomic species   magnetization
        Mn1          0.133
        Al1          0.667

     No symmetry found

   Cartesian axes

     site n.     atom                  positions (alat units)
         1           Mn1 tau(   1) = (   0.0000000   0.0000000  10.0000000  )
         2           Mn1 tau(   2) = (  -1.3135031   2.2750542  10.0000000  )
         3           Mn1 tau(   3) = (   1.3135031   2.2750542  10.0000000  )
         4           Al1 tau(   4) = (   2.6270063   0.0000000  10.0000000  )
         5           Mn1 tau(   5) = (   2.6270063   1.5167028  12.1449416  )
         6           Mn1 tau(   6) = (   1.3135031   3.7917569  12.1449416  )
         7           Mn1 tau(   7) = (  -1.3135031   3.7917569  12.1449416  )
         8           Al1 tau(   8) = (   0.0000000   1.5167028  12.1449416  )
         9           Mn1 tau(   9) = (  -0.0000000   3.0334055  14.2898833  )
        10           Mn1 tau(  10) = (   1.3135031   0.7583514  14.2898833  )
        11           Mn1 tau(  11) = (   3.9405094   0.7583514  14.2898833  )
        12           Al1 tau(  12) = (   2.6270063   3.0334055  14.2898833  )

     number of k points=    40  Fermi-Dirac smearing, width (Ry)=  0.0110
                       cart. coord. in units 2pi/alat
        k(    1) = (   0.0000000   0.0000000   0.0000000), wk =   0.0277778
        k(    2) = (   0.0000000   0.0366292   0.0000000), wk =   0.0555556
        k(    3) = (   0.0000000   0.0732583   0.0000000), wk =   0.0555556
        k(    4) = (   0.0000000  -0.1098875   0.0000000), wk =   0.0277778
        k(    5) = (   0.0317218   0.0183146   0.0000000), wk =   0.0555556
        k(    6) = (   0.0317218   0.0549437   0.0000000), wk =   0.0555556
        k(    7) = (   0.0317218   0.0915729   0.0000000), wk =   0.0555556
        k(    8) = (   0.0317218  -0.0915729   0.0000000), wk =   0.0555556
        k(    9) = (   0.0317218  -0.0549437   0.0000000), wk =   0.0555556
        k(   10) = (   0.0317218  -0.0183146   0.0000000), wk =   0.0555556
        k(   11) = (   0.0634436   0.0366292   0.0000000), wk =   0.0555556
        k(   12) = (   0.0634436   0.0732583   0.0000000), wk =   0.0555556
        k(   13) = (   0.0634436   0.1098875   0.0000000), wk =   0.0555556
        k(   14) = (   0.0634436  -0.0732583   0.0000000), wk =   0.0555556
        k(   15) = (   0.0634436  -0.0366292   0.0000000), wk =   0.0555556
        k(   16) = (   0.0634436   0.0000000   0.0000000), wk =   0.0555556
        k(   17) = (  -0.0951654  -0.0549437   0.0000000), wk =   0.0277778
        k(   18) = (  -0.0951654  -0.0183146   0.0000000), wk =   0.0555556
        k(   19) = (  -0.0951654   0.0183146   0.0000000), wk =   0.0555556
        k(   20) = (  -0.0951654  -0.1648312   0.0000000), wk =   0.0277778
        k(   21) = (   0.0000000   0.0000000   0.0000000), wk =   0.0277778
        k(   22) = (   0.0000000   0.0366292   0.0000000), wk =   0.0555556
        k(   23) = (   0.0000000   0.0732583   0.0000000), wk =   0.0555556
        k(   24) = (   0.0000000  -0.1098875   0.0000000), wk =   0.0277778
        k(   25) = (   0.0317218   0.0183146   0.0000000), wk =   0.0555556
        k(   26) = (   0.0317218   0.0549437   0.0000000), wk =   0.0555556
        k(   27) = (   0.0317218   0.0915729   0.0000000), wk =   0.0555556
        k(   28) = (   0.0317218  -0.0915729   0.0000000), wk =   0.0555556
        k(   29) = (   0.0317218  -0.0549437   0.0000000), wk =   0.0555556
        k(   30) = (   0.0317218  -0.0183146   0.0000000), wk =   0.0555556
        k(   31) = (   0.0634436   0.0366292   0.0000000), wk =   0.0555556
        k(   32) = (   0.0634436   0.0732583   0.0000000), wk =   0.0555556
        k(   33) = (   0.0634436   0.1098875   0.0000000), wk =   0.0555556
        k(   34) = (   0.0634436  -0.0732583   0.0000000), wk =   0.0555556
        k(   35) = (   0.0634436  -0.0366292   0.0000000), wk =   0.0555556
        k(   36) = (   0.0634436   0.0000000   0.0000000), wk =   0.0555556
        k(   37) = (  -0.0951654  -0.0549437   0.0000000), wk =   0.0277778
        k(   38) = (  -0.0951654  -0.0183146   0.0000000), wk =   0.0555556
        k(   39) = (  -0.0951654   0.0183146   0.0000000), wk =   0.0555556
        k(   40) = (  -0.0951654  -0.1648312   0.0000000), wk =   0.0277778

     Largest allocated arrays     est. size (Mb)     dimensions
     Largest temporary arrays     est. size (Mb)     dimensions

     Check: negative/imaginary core charge=   -0.000008    0.000000

     Initial potential from superposition of free atoms
     Check: negative starting charge=(component1):   -0.001429
     Check: negative starting charge=(component2):   -0.001157

     starting charge  139.49184, renormalised to  144.00000

     negative rho (up, down):  1.475E-03 1.194E-03

     *
     * You are using vdW-DF for exchange-correlation in this calculation.
     * Please cite the following three references that made this development
     * possible:
     *
     *   M. Dion, H. Rydberg, E. Schroder, D. C. Langreth, and
     *   B. I. Lundqvist, Phys. Rev. Lett. 92, 246401 (2004).
     *
     *   T. Thonhauser, V. R. Cooper, S. Li, A. Puzder, P. Hyldgaard, and
     *   D. C. Langreth, Phys. Rev. B 76, 125112 (2007).
     *
     *   G. Roman-Perez and J. M. Soler, Phys. Rev. Lett. 103, 096102 (2009).
     *
     *
     * If you are using vdW-DF2, please also cite:
     *
     *   K. Lee, E. D. Murray, L. Kong, B. I. Lundqvist, and
     *   D. C. Langreth, Phys. Rev. B 82, 081101(R) (2010).
     *
     *
     * If you are calculating the stress with vdW-DF, please also cite:
     *
     *   R. Sabatini, E. Kucukbenli, B. Kolb, T. Thonhauser, and
     *   S. de Gironcoli, J. Phys.: Condens. Matter 24, 424209 (2012).
     *

     Carrying out vdW-DF run using the following parameters:

     Nqs =      20    Nr_points =    1024   r_max =   100.000
     q_mesh =
               0.00001000     0.04494208     0.09755937     0.15916263
               0.23128650     0.31572767     0.41458969     0.53033537
               0.66584808     0.82450364     1.01025438     1.22772762
               1.48234092     1.78043706     2.12944203     2.53805004
               3.01644009     3.57652955     4.23227104     5.00000000

     Gradients computed in reciprocal space

     Adding external electric field

     Computed dipole along edir(3) :
        Dipole                0.0000 Ry au,          0.0000 Debye
        Dipole field          0.0000 Ry au

        Potential amp.       -0.0000 Ry
        Total length         44.7537 bohr

[...]

     Starting wfc are  129 randomized atomic wfcs

     Self-consistent Calculation

     iteration #  1     ecut=    36.75 Ry     beta=0.10
     Davidson diagonalization with overlap
     ethr =  1.00E-02,  avg # of iterations =  6.1

[...]

     Magnetic moment per site:
     atom:    1    charge:    6.0812    magn:    0.7867    constr:    0.0000
     atom:    2    charge:    6.0812    magn:    0.7867    constr:    0.0000
     atom:    3    charge:    6.0812    magn:    0.7867    constr:    0.0000
     atom:    4    charge:    0.0932    magn:    0.0501    constr:    0.0000
     atom:    5    charge:    6.1033    magn:    0.7958    constr:    0.0000
     atom:    6    charge:    6.1033    magn:    0.7958    constr:    0.0000
     atom:    7    charge:    6.1033    magn:    0.7958    constr:    0.0000
     atom:    8    charge:    0.0964    magn:    0.0507    constr:    0.0000
     atom:    9    charge:    6.0727    magn:    0.7856    constr:    0.0000
[...]
        k(    2) = (   0.0000000   0.0366292   0.0000000), wk =   0.0555556
        k(    3) = (   0.0000000   0.0732583   0.0000000), wk =   0.0555556
        k(    4) = (   0.0000000  -0.1098875   0.0000000), wk =   0.0277778
        k(    5) = (   0.0317218   0.0183146   0.0000000), wk =   0.0555556
        k(    6) = (   0.0317218   0.0549437   0.0000000), wk =   0.0555556
        k(    7) = (   0.0317218   0.0915729   0.0000000), wk =   0.0555556
        k(    8) = (   0.0317218  -0.0915729   0.0000000), wk =   0.0555556
        k(    9) = (   0.0317218  -0.0549437   0.0000000), wk =   0.0555556
        k(   10) = (   0.0317218  -0.0183146   0.0000000), wk =   0.0555556
        k(   11) = (   0.0634436   0.0366292   0.0000000), wk =   0.0555556
        k(   12) = (   0.0634436   0.0732583   0.0000000), wk =   0.0555556
        k(   13) = (   0.0634436   0.1098875   0.0000000), wk =   0.0555556
        k(   14) = (   0.0634436  -0.0732583   0.0000000), wk =   0.0555556
        k(   15) = (   0.0634436  -0.0366292   0.0000000), wk =   0.0555556
        k(   16) = (   0.0634436   0.0000000   0.0000000), wk =   0.0555556
        k(   17) = (  -0.0951654  -0.0549437   0.0000000), wk =   0.0277778
        k(   18) = (  -0.0951654  -0.0183146   0.0000000), wk =   0.0555556
        k(   19) = (  -0.0951654   0.0183146   0.0000000), wk =   0.0555556
        k(   20) = (  -0.0951654  -0.1648312   0.0000000), wk =   0.0277778
        k(   21) = (   0.0000000   0.0000000   0.0000000), wk =   0.0277778
        k(   22) = (   0.0000000   0.0366292   0.0000000), wk =   0.0555556
        k(   23) = (   0.0000000   0.0732583   0.0000000), wk =   0.0555556
        k(   24) = (   0.0000000  -0.1098875   0.0000000), wk =   0.0277778
        k(   25) = (   0.0317218   0.0183146   0.0000000), wk =   0.0555556
        k(   26) = (   0.0317218   0.0549437   0.0000000), wk =   0.0555556
        k(   27) = (   0.0317218   0.0915729   0.0000000), wk =   0.0555556
        k(   28) = (   0.0317218  -0.0915729   0.0000000), wk =   0.0555556
        k(   29) = (   0.0317218  -0.0549437   0.0000000), wk =   0.0555556
        k(   30) = (   0.0317218  -0.0183146   0.0000000), wk =   0.0555556
        k(   31) = (   0.0634436   0.0366292   0.0000000), wk =   0.0555556
        k(   32) = (   0.0634436   0.0732583   0.0000000), wk =   0.0555556
        k(   33) = (   0.0634436   0.1098875   0.0000000), wk =   0.0555556
        k(   34) = (   0.0634436  -0.0732583   0.0000000), wk =   0.0555556
        k(   35) = (   0.0634436  -0.0366292   0.0000000), wk =   0.0555556
        k(   36) = (   0.0634436   0.0000000   0.0000000), wk =   0.0555556
        k(   37) = (  -0.0951654  -0.0549437   0.0000000), wk =   0.0277778
        k(   38) = (  -0.0951654  -0.0183146   0.0000000), wk =   0.0555556
        k(   39) = (  -0.0951654   0.0183146   0.0000000), wk =   0.0555556
        k(   40) = (  -0.0951654  -0.1648312   0.0000000), wk =   0.0277778

     Largest allocated arrays     est. size (Mb)     dimensions
     Largest temporary arrays     est. size (Mb)     dimensions

     Check: negative/imaginary core charge=   -0.000008    0.000000

     Initial potential from superposition of free atoms
     Check: negative starting charge=(component1):   -0.001421
     Check: negative starting charge=(component2):   -0.001152

     starting charge  139.49184, renormalised to  144.00000

[...]

     *
     * You are using vdW-DF for exchange-correlation in this calculation.
     * Please cite the following three references that made this development
     * possible:
     *
     *   M. Dion, H. Rydberg, E. Schroder, D. C. Langreth, and
     *   B. I. Lundqvist, Phys. Rev. Lett. 92, 246401 (2004).
     *
     *   T. Thonhauser, V. R. Cooper, S. Li, A. Puzder, P. Hyldgaard, and
     *   D. C. Langreth, Phys. Rev. B 76, 125112 (2007).
     *
     *   G. Roman-Perez and J. M. Soler, Phys. Rev. Lett. 103, 096102 (2009).
     *
     *
     * If you are using vdW-DF2, please also cite:
     *
     *   K. Lee, E. D. Murray, L. Kong, B. I. Lundqvist, and
     *   D. C. Langreth, Phys. Rev. B 82, 081101(R) (2010).
     *
     *
     * If you are calculating the stress with vdW-DF, please also cite:
     *
     *   R. Sabatini, E. Kucukbenli, B. Kolb, T. Thonhauser, and
     *   S. de Gironcoli, J. Phys.: Condens. Matter 24, 424209 (2012).
     *

     Carrying out vdW-DF run using the following parameters:

     Nqs =      20    Nr_points =    1024   r_max =   100.000
     q_mesh =
               0.00001000     0.04494208     0.09755937     0.15916263
               0.23128650     0.31572767     0.41458969     0.53033537
               0.66584808     0.82450364     1.01025438     1.22772762
               1.48234092     1.78043706     2.12944203     2.53805004
               3.01644009     3.57652955     4.23227104     5.00000000

     Gradients computed in reciprocal space

[...]

     Starting wfc are  129 randomized atomic wfcs

     Self-consistent Calculation

[...]

     total energy              =   -1929.62990970 Ry
     Harris-Foulkes estimate   =   -1929.62990937 Ry
     estimated scf accuracy    <       0.00000133 Ry

[...]

     iteration # 38     ecut=    36.75 Ry     beta=0.10
     Davidson diagonalization with overlap
     ethr =  9.24E-10,  avg # of iterations =  1.6

[...]

     negative rho (up, down):  1.906E-03 1.633E-03

[...]

     Adding external electric field

     Computed dipole along edir(3) :
        Dipole               -0.0002 Ry au,         -0.0004 Debye
        Dipole field         -0.0000 Ry au

        Potential amp.        0.0000 Ry
        Total length         44.7537 bohr

     Magnetic moment per site:
     atom:    1    charge:    6.0110    magn:    1.2811    constr:    0.0000
     atom:    2    charge:    6.0109    magn:    1.2811    constr:    0.0000
     atom:    3    charge:    6.0109    magn:    1.2811    constr:    0.0000
     atom:    4    charge:    0.0843    magn:   -0.0095    constr:    0.0000
     atom:    5    charge:    5.9978    magn:    0.9818    constr:    0.0000
     atom:    6    charge:    5.9978    magn:    0.9819    constr:    0.0000
     atom:    7    charge:    5.9978    magn:    0.9818    constr:    0.0000
     atom:    8    charge:    0.0840    magn:   -0.0113    constr:    0.0000
     atom:    9    charge:    6.0026    magn:    1.2810    constr:    0.0000
     atom:   10    charge:    6.0025    magn:    1.2810    constr:    0.0000
     atom:   11    charge:    6.0026    magn:    1.2810    constr:    0.0000
     atom:   12    charge:    0.0838    magn:   -0.0096    constr:    0.0000

     End of self-consistent calculation

 ------ SPIN UP ------------

[...]

 ------ SPIN DOWN ----------

[...]

          k = 0.0634 0.0000 0.0000 ( 14757 PWs)   bands (ev):

[...]

          k =-0.0952-0.1648 0.0000 ( 14754 PWs)   bands (ev):

   -76.8031 -76.7896 -76.7761 -76.4994 -76.4946 -76.4860 -76.4810 -76.4727
   -76.4680 -45.7183 -45.6226 -45.6191 -45.6018 -45.5926 -45.5739 -45.5561
   -45.5490 -45.4610 -45.4340 -45.4155 -45.3324 -45.3266 -45.3264 -45.3126
   -45.3078 -45.3075 -45.3010 -45.2978 -45.2164 -45.2145 -45.2070 -45.1950
   -45.1904 -45.1882 -45.1870 -45.1847  -6.3129  -5.8890  -4.8040  -3.9919
    -2.8907  -2.7786  -2.5533  -1.5518  -1.5247  -1.3960  -0.9917  -0.7986
    -0.7574  -0.6598  -0.2305  -0.2027  -0.0275   0.0213   0.0734   0.3027
     0.3415   0.4650   0.6162   0.6258   0.6294   0.8380   0.9051   1.0684
     1.1440   1.2308   1.2762   1.4956   1.6058   1.8482   1.9089   2.1368
     2.1882   2.2454   2.2473   2.2914   2.3077   2.4748   2.5179   2.5183
     2.6095   2.7429   2.8539   2.8655   2.9418   3.2135   3.2788   3.5037
     3.6109   3.9757   4.3907   4.4150   4.5413   4.7852   5.1762   5.9029
     5.9072   6.3811   6.4069   6.7991   6.9043   6.9786

     the Fermi energy is     0.6050 ev

!    total energy              =   -1929.62991180 Ry
     Harris-Foulkes estimate   =   -1929.62990994 Ry
     estimated scf accuracy    <       0.00000091 Ry

     The total energy is the sum of the following terms:

     one-electron contribution =  -13973.89223071 Ry
     hartree contribution      =    6984.91705286 Ry
     xc contribution           =    -262.20454809 Ry
     ewald contribution        =    5321.63418539 Ry
     electric field correction =       0.00000000 Ry
     smearing contrib. (-TS)   =      -0.08437126 Ry

     total magnetization       =    26.83 Bohr mag/cell
     absolute magnetization    =    28.22 Bohr mag/cell

     convergence has been achieved in  38 iterations

 BEEF-vdW xc energy contributions
           1 :   -228.196477479892
           2 :    205.656484140159
           3 :   -168.353937094738
           4 :    127.675799967194
           5 :   -93.2563424709300
           6 :    69.5610136481409
           7 :   -55.7211766350306
           8 :    47.7951728134714
           9 :   -41.6538573314324
          10 :    34.9311883723342
          11 :   -27.4009216213581
          12 :    20.1072597472407
          13 :   -14.1621611772285
          14 :    10.0154283077378
          15 :   -7.42167245772262
          16 :    5.79282667667064
          17 :   -4.54817858832021
          18 :    3.29820445313257
          19 :   -1.90179987557266
          20 :   0.456029342703090
          21 :   0.771821521449937
          22 :   -1.48793816416983
          23 :    1.56231186888439
          24 :   -1.16787455691821
          25 :   0.741508952396487
          26 :  -0.740613886202766
          27 :    1.33612724259288
          28 :   -2.27455890380364
          29 :    3.03366165296748
          30 :   -3.17836678241335
          31 :   -21.3233859134458
          32 :   -15.1522448856315

     Forces acting on atoms (Ry/au):

     negative rho (up, down):  1.906E-03 1.633E-03
     atom    1 type  1   force =    -0.00001212    0.00012149   -0.00220781
     atom    2 type  1   force =     0.00010657   -0.00006754   -0.00220357
     atom    3 type  1   force =    -0.00010020   -0.00004904   -0.00222788
     atom    4 type  2   force =    -0.00000282    0.00000072   -0.00797661
     atom    5 type  1   force =     0.00000548    0.00119798    0.00378290
     atom    6 type  1   force =     0.00103434   -0.00059189    0.00378495
     atom    7 type  1   force =    -0.00103789   -0.00059937    0.00379019
     atom    8 type  2   force =    -0.00000084    0.00000094    0.00222857
     atom    9 type  1   force =     0.00001076   -0.00060273    0.00039976
     atom   10 type  1   force =    -0.00053647    0.00029937    0.00041069
     atom   11 type  1   force =     0.00053289    0.00028637    0.00040625
     atom   12 type  2   force =     0.00000030    0.00000371   -0.00018744

     Total force =     0.011500     Total SCF correction =     0.002517
     SCF correction compared to forces is large: reduce conv_thr to get better values

     entering subroutine stress ...

     negative rho (up, down):  1.906E-03 1.633E-03
          total   stress  (Ry/bohr**3)                   (kbar)     P=    5.48
   0.00005371  -0.00000001  -0.00000000          7.90     -0.00     -0.00
  -0.00000001   0.00005369   0.00000000         -0.00      7.90      0.00
  -0.00000000   0.00000000   0.00000434         -0.00      0.00      0.64

 !ASE

     Writing output data file calc.save

     General routines

     Parallel routines

   This run was terminated on:  15:54:15  30Dec2018

   JOB DONE.
Job  /afs/slac/g/suncat/bin/suncat-tsmpirun -x LD_LIBRARY_PATH -wdir /scratch/qe648565_63Mpr pw.x -in pw.inp

TID   HOST_NAME   COMMAND_LINE            STATUS            TERMINATION_TIME
00000 suncat0077 pw.x -in pw.inp   Done                     12/30/2018 15:54:15
00001 suncat0077 pw.x -in pw.inp   Done                     12/30/2018 15:54:15
00002 suncat0077 pw.x -in pw.inp   Done                     12/30/2018 15:54:15
00003 suncat0077 pw.x -in pw.inp   Done                     12/30/2018 15:54:15
00004 suncat0077 pw.x -in pw.inp   Done                     12/30/2018 15:54:15
00005 suncat0077 pw.x -in pw.inp   Done                     12/30/2018 15:54:15
00006 suncat0077 pw.x -in pw.inp   Done                     12/30/2018 15:54:15
00007 suncat0077 pw.x -in pw.inp   Done                     12/30/2018 15:54:15
00008 suncat0069 pw.x -in pw.inp   Done                     12/30/2018 15:54:15
00009 suncat0069 pw.x -in pw.inp   Done                     12/30/2018 15:54:15
00010 suncat0069 pw.x -in pw.inp   Done                     12/30/2018 15:54:15
00011 suncat0069 pw.x -in pw.inp   Done                     12/30/2018 15:54:15
00012 suncat0069 pw.x -in pw.inp   Done                     12/30/2018 15:54:15
00013 suncat0069 pw.x -in pw.inp   Done                     12/30/2018 15:54:15
00014 suncat0069 pw.x -in pw.inp   Done                     12/30/2018 15:54:15
00015 suncat0069 pw.x -in pw.inp   Done                     12/30/2018 15:54:15
00016 suncat0066 pw.x -in pw.inp   Done                     12/30/2018 15:54:15
00017 suncat0066 pw.x -in pw.inp   Done                     12/30/2018 15:54:15
00018 suncat0066 pw.x -in pw.inp   Done                     12/30/2018 15:54:15
00019 suncat0066 pw.x -in pw.inp   Done                     12/30/2018 15:54:15
00020 suncat0066 pw.x -in pw.inp   Done                     12/30/2018 15:54:15
00021 suncat0066 pw.x -in pw.inp   Done                     12/30/2018 15:54:15
00022 suncat0066 pw.x -in pw.inp   Done                     12/30/2018 15:54:15
00023 suncat0066 pw.x -in pw.inp   Done                     12/30/2018 15:54:15
00024 suncat0053 pw.x -in pw.inp   Done                     12/30/2018 15:54:15
00025 suncat0053 pw.x -in pw.inp   Done                     12/30/2018 15:54:15
00026 suncat0053 pw.x -in pw.inp   Done                     12/30/2018 15:54:15
00027 suncat0053 pw.x -in pw.inp   Done                     12/30/2018 15:54:15
00028 suncat0053 pw.x -in pw.inp   Done                     12/30/2018 15:54:15
00029 suncat0053 pw.x -in pw.inp   Done                     12/30/2018 15:54:15
00030 suncat0053 pw.x -in pw.inp   Done                     12/30/2018 15:54:15
00031 suncat0053 pw.x -in pw.inp   Done                     12/30/2018 15:54:15
00032 suncat0163 pw.x -in pw.inp   Done                     12/30/2018 15:54:15
00033 suncat0163 pw.x -in pw.inp   Done                     12/30/2018 15:54:15
00034 suncat0163 pw.x -in pw.inp   Done                     12/30/2018 15:54:15
00035 suncat0163 pw.x -in pw.inp   Done                     12/30/2018 15:54:15
00036 suncat0163 pw.x -in pw.inp   Done                     12/30/2018 15:54:15
00037 suncat0163 pw.x -in pw.inp   Done                     12/30/2018 15:54:15
00038 suncat0163 pw.x -in pw.inp   Done                     12/30/2018 15:54:15
00039 suncat0163 pw.x -in pw.inp   Done                     12/30/2018 15:54:15
00040 suncat0162 pw.x -in pw.inp   Done                     12/30/2018 15:54:15
00041 suncat0162 pw.x -in pw.inp   Done                     12/30/2018 15:54:15
00042 suncat0162 pw.x -in pw.inp   Done                     12/30/2018 15:54:15
00043 suncat0162 pw.x -in pw.inp   Done                     12/30/2018 15:54:15
00044 suncat0162 pw.x -in pw.inp   Done                     12/30/2018 15:54:15
00045 suncat0162 pw.x -in pw.inp   Done                     12/30/2018 15:54:15
00046 suncat0162 pw.x -in pw.inp   Done                     12/30/2018 15:54:15
00047 suncat0162 pw.x -in pw.inp   Done                     12/30/2018 15:54:15
00048 suncat0147 pw.x -in pw.inp   Done                     12/30/2018 15:54:15
00049 suncat0147 pw.x -in pw.inp   Done                     12/30/2018 15:54:15
00050 suncat0147 pw.x -in pw.inp   Done                     12/30/2018 15:54:15
00051 suncat0147 pw.x -in pw.inp   Done                     12/30/2018 15:54:15
00052 suncat0147 pw.x -in pw.inp   Done                     12/30/2018 15:54:15
00053 suncat0147 pw.x -in pw.inp   Done                     12/30/2018 15:54:15
00054 suncat0147 pw.x -in pw.inp   Done                     12/30/2018 15:54:15
00055 suncat0147 pw.x -in pw.inp   Done                     12/30/2018 15:54:15
00056 suncat0138 pw.x -in pw.inp   Done                     12/30/2018 15:54:15
00057 suncat0138 pw.x -in pw.inp   Done                     12/30/2018 15:54:15
00058 suncat0138 pw.x -in pw.inp   Done                     12/30/2018 15:54:15
00059 suncat0138 pw.x -in pw.inp   Done                     12/30/2018 15:54:15
00060 suncat0138 pw.x -in pw.inp   Done                     12/30/2018 15:54:15
00061 suncat0138 pw.x -in pw.inp   Done                     12/30/2018 15:54:15
00062 suncat0138 pw.x -in pw.inp   Done                     12/30/2018 15:54:15
00063 suncat0138 pw.x -in pw.inp   Done                     12/30/2018 15:54:15