     Program PWSCF v.5.1rc2 (svn rev. 11289) starts on  2Jan2019 at 17: 2:53

     Current dimensions of program PWSCF are:
     Max number of different atomic species (ntypx) = 10
     Max number of k-points (npk) =  40000
     Max angular momentum in pseudopotentials (lmaxx) =  3
     Presently stress not available with electric field

     IMPORTANT: XC functional enforced from input :
     Exchange-correlation      = BEEF-VDW ( 1  4 27 13 2)
     Any further DFT definition will be discarded
     Please, verify this is what you really want

     Subspace diagonalization in iterative solution of the eigenvalue problem:
     a serial algorithm will be used

     bravais-lattice index     =            0
     lattice parameter (alat)  =       1.8897  a.u.
     unit-cell volume          =    4337.8636 (a.u.)^3
     number of atoms/cell      =           12
     number of atomic types    =            2
     number of electrons       =       228.00
     number of Kohn-Sham states=          144
     kinetic-energy cutoff     =      36.7493  Ry
     charge density cutoff     =     367.4932  Ry
     convergence threshold     =      1.0E-06
     mixing beta               =       0.1000
     number of iterations used =           10  plain     mixing
     Exchange-correlation      = BEEF-VDW ( 1  4 27 13 2)
     nstep                     =           50

     celldm(1)=   1.889726  celldm(2)=   0.000000  celldm(3)=   0.000000
     celldm(4)=   0.000000  celldm(5)=   0.000000  celldm(6)=   0.000000

     crystal axes: (cart. coord. in units of alat)
               a(1) = (   5.504767   0.000000   0.000000 )
               a(2) = (  -2.752384   4.767268   0.000000 )
               a(3) = (   0.000000   0.000000  24.494623 )

     reciprocal axes: (cart. coord. in units 2 pi/alat)
               b(1) = (  0.181661  0.104882  0.000000 )
               b(2) = (  0.000000  0.209764  0.000000 )
               b(3) = (  0.000000  0.000000  0.040825 )

     PseudoPot. # 1 for Zn read from file:
     /afs/slac.stanford.edu/u/if/mamunm/psp/gbrv1.5pbe/Zn.UPF
     MD5 check sum: df62231357ef9e81f77b2b3087fa5675
     Pseudo is Ultrasoft, Zval = 20.0
     Generated by new atomic code, or converted to UPF format
     Using radial grid of  943 points,  6 beta functions with:
                l(1) =   0
                l(2) =   0
                l(3) =   1
                l(4) =   1
                l(5) =   2
                l(6) =   2
     Q(r) pseudized with  8 coefficients,  rinner =    1.100   1.100   1.100
                                                       1.100   1.100

     PseudoPot. # 2 for Pt read from file:
     /afs/slac.stanford.edu/u/if/mamunm/psp/gbrv1.5pbe/Pt.UPF
     MD5 check sum: f09d6de1a584b5a045c4fc126da2d0c4
     Pseudo is Ultrasoft + core correction, Zval = 16.0
     Generated by new atomic code, or converted to UPF format
     Using radial grid of  985 points,  6 beta functions with:
                l(1) =   0
                l(2) =   0
                l(3) =   1
                l(4) =   1
                l(5) =   2
                l(6) =   2
     Q(r) pseudized with  8 coefficients,  rinner =    1.300   1.300   1.300
                                                       1.300   1.300

     vdW kernel table read from file vdW_kernel_table
     MD5 check sum: 095c7af220d748ca6e76c0b4c6cfb241

     atomic species   valence    mass     pseudopotential
        Zn1           20.00    65.38000     Zn( 1.00)
        Pt1           16.00   195.08400     Pt( 1.00)

     No symmetry found

   Cartesian axes

     site n.     atom                  positions (alat units)
         1           Zn1 tau(   1) = (   0.0000000   0.0000000  10.0000000  )
         2           Zn1 tau(   2) = (  -1.3761918   2.3836341  10.0000000  )
         3           Zn1 tau(   3) = (   1.3761918   2.3836341  10.0000000  )
         4           Pt1 tau(   4) = (   2.7523835   0.0000000  10.0000000  )
         5           Zn1 tau(   5) = (   2.7523835   1.5890894  12.2473117  )
         6           Zn1 tau(   6) = (   1.3761918   3.9727234  12.2473117  )
         7           Zn1 tau(   7) = (  -1.3761918   3.9727234  12.2473117  )
         8           Pt1 tau(   8) = (   0.0000000   1.5890894  12.2473117  )
         9           Zn1 tau(   9) = (  -0.0000000   3.1781788  14.4946235  )
        10           Zn1 tau(  10) = (   1.3761918   0.7945447  14.4946235  )
        11           Zn1 tau(  11) = (   4.1285753   0.7945447  14.4946235  )
        12           Pt1 tau(  12) = (   2.7523835   3.1781788  14.4946235  )

     number of k points=    20  Fermi-Dirac smearing, width (Ry)=  0.0110
                       cart. coord. in units 2pi/alat
        k(    1) = (   0.0000000   0.0000000   0.0000000), wk =   0.0555556
        k(    2) = (   0.0000000   0.0349606   0.0000000), wk =   0.1111111
        k(    3) = (   0.0000000   0.0699212   0.0000000), wk =   0.1111111
        k(    4) = (   0.0000000  -0.1048819   0.0000000), wk =   0.0555556
        k(    5) = (   0.0302768   0.0174803   0.0000000), wk =   0.1111111
        k(    6) = (   0.0302768   0.0524409   0.0000000), wk =   0.1111111
        k(    7) = (   0.0302768   0.0874016   0.0000000), wk =   0.1111111
        k(    8) = (   0.0302768  -0.0874016   0.0000000), wk =   0.1111111
        k(    9) = (   0.0302768  -0.0524409   0.0000000), wk =   0.1111111
        k(   10) = (   0.0302768  -0.0174803   0.0000000), wk =   0.1111111
        k(   11) = (   0.0605536   0.0349606   0.0000000), wk =   0.1111111
        k(   12) = (   0.0605536   0.0699212   0.0000000), wk =   0.1111111
        k(   13) = (   0.0605536   0.1048819   0.0000000), wk =   0.1111111
        k(   14) = (   0.0605536  -0.0699212   0.0000000), wk =   0.1111111
        k(   15) = (   0.0605536  -0.0349606   0.0000000), wk =   0.1111111
        k(   16) = (   0.0605536   0.0000000   0.0000000), wk =   0.1111111
        k(   17) = (  -0.0908304  -0.0524409   0.0000000), wk =   0.0555556
        k(   18) = (  -0.0908304  -0.0174803   0.0000000), wk =   0.1111111
        k(   19) = (  -0.0908304   0.0174803   0.0000000), wk =   0.1111111
        k(   20) = (  -0.0908304  -0.1573228   0.0000000), wk =   0.0555556

     Largest allocated arrays     est. size (Mb)     dimensions
     Largest temporary arrays     est. size (Mb)     dimensions

     Initial potential from superposition of free atoms
     Check: negative starting charge=   -0.549968

     starting charge  226.49870, renormalised to  228.00000

     negative rho (up, down):  5.536E-01 0.000E+00

     *
     * You are using vdW-DF for exchange-correlation in this calculation.
     * Please cite the following three references that made this development
     * possible:
     *
     *   M. Dion, H. Rydberg, E. Schroder, D. C. Langreth, and
     *   B. I. Lundqvist, Phys. Rev. Lett. 92, 246401 (2004).
     *
     *   T. Thonhauser, V. R. Cooper, S. Li, A. Puzder, P. Hyldgaard, and
     *   D. C. Langreth, Phys. Rev. B 76, 125112 (2007).
     *
     *   G. Roman-Perez and J. M. Soler, Phys. Rev. Lett. 103, 096102 (2009).
     *
     *
     * If you are using vdW-DF2, please also cite:
     *
     *   K. Lee, E. D. Murray, L. Kong, B. I. Lundqvist, and
     *   D. C. Langreth, Phys. Rev. B 82, 081101(R) (2010).
     *
     *
     * If you are calculating the stress with vdW-DF, please also cite:
     *
     *   R. Sabatini, E. Kucukbenli, B. Kolb, T. Thonhauser, and
     *   S. de Gironcoli, J. Phys.: Condens. Matter 24, 424209 (2012).
     *

     Carrying out vdW-DF run using the following parameters:

     Nqs =      20    Nr_points =    1024   r_max =   100.000
     q_mesh =
               0.00001000     0.04494208     0.09755937     0.15916263
               0.23128650     0.31572767     0.41458969     0.53033537
               0.66584808     0.82450364     1.01025438     1.22772762
               1.48234092     1.78043706     2.12944203     2.53805004
               3.01644009     3.57652955     4.23227104     5.00000000

     Gradients computed in reciprocal space

     Adding external electric field

     Computed dipole along edir(3) :
        Dipole               -0.0000 Ry au,         -0.0000 Debye
        Dipole field         -0.0000 Ry au

        Potential amp.        0.0000 Ry
        Total length         45.1309 bohr

     Starting wfc are  153 randomized atomic wfcs

     Self-consistent Calculation

     iteration #  1     ecut=    36.75 Ry     beta=0.10
     Davidson diagonalization with overlap
     ethr =  1.00E-02,  avg # of iterations =  7.5

[...]

     total energy              =   -4802.44274391 Ry
     Harris-Foulkes estimate   =   -4802.87205364 Ry
     estimated scf accuracy    <       2.61096329 Ry

[...]

     End of self-consistent calculation

          k = 0.0000 0.0000 0.0000 ( 16235 PWs)   bands (ev):

  -125.8480-125.8468-125.8468-125.5325-125.5324-125.5313-125.5313-125.5313
  -125.5313 -80.0708 -80.0607 -80.0607 -80.0218 -80.0218 -80.0160 -80.0057
   -79.9997 -79.9997 -79.7499 -79.7498 -79.7419 -79.7419 -79.7417 -79.7417
   -79.7206 -79.7205 -79.7133 -79.7133 -79.7131 -79.7131 -79.6775 -79.6775
   -79.6774 -79.6774 -79.6723 -79.6722 -52.0377 -52.0377 -51.9730 -51.6379
   -51.6379 -51.6378 -51.6378 -51.4817 -51.4815  -8.7909  -7.4923  -7.4095
    -7.3924  -7.3924  -7.3464  -7.3422  -7.2116  -7.2116  -7.1327  -7.1327
    -7.1318  -6.9977  -6.9175  -6.9175  -6.7885  -6.7737  -6.7737  -6.7381
    -6.6833  -6.6833  -6.6514  -6.6206  -6.6206  -6.6097  -6.6097  -6.6094
    -6.3560  -6.3560  -6.3496  -6.3496  -6.2919  -6.2919  -6.2868  -6.2868
    -6.2609  -6.2460  -6.2373  -6.2373  -6.1970  -6.1970  -6.1151  -6.1148
    -6.0809  -6.0809  -5.9058  -5.9040  -4.0808  -3.2801  -3.2801  -2.6805
    -2.6805  -2.6427  -2.6427  -2.5442  -2.1984  -1.8708  -1.8708  -1.6155
    -1.6155  -1.2727  -1.2727  -0.9749  -0.8271  -0.0589  -0.0589   0.1037
     0.3141   0.7610   0.7610   0.7734   0.9068   0.9068   2.4582   3.1844
     3.1844   3.9304   3.9304   4.1274   4.1918   4.6682   4.6682   4.7288
     4.9167   5.2504   6.2119   6.3665   7.7070   7.7070   7.7122   7.9112
     8.0828   8.0828   8.3532   8.4124   9.9523  10.0229  10.0229  10.1748

[...]

          k =-0.0908-0.0524 0.0000 ( 16300 PWs)   bands (ev):

[...]

     the Fermi energy is     0.8335 ev

!    total energy              =   -4802.26336997 Ry
     Harris-Foulkes estimate   =   -4802.26337305 Ry
     estimated scf accuracy    <       0.00000052 Ry

     The total energy is the sum of the following terms:

     one-electron contribution =  -32487.21043221 Ry
     hartree contribution      =   16238.49676125 Ry
     xc contribution           =    -566.86019057 Ry
     ewald contribution        =   12013.33546929 Ry
     electric field correction =       0.00000000 Ry
     smearing contrib. (-TS)   =      -0.02497773 Ry

     convergence has been achieved in  14 iterations

 BEEF-vdW xc energy contributions
           1 :   -504.126485482434
           2 :    460.884593897132
           3 :   -387.039657131889
           4 :    302.009323222110
           5 :   -223.784270621327
           6 :    162.644136336499
           7 :   -119.561047639979
[...]
                l(1) =   0
                l(2) =   0
                l(3) =   1
                l(4) =   1
                l(5) =   2
                l(6) =   2
     Q(r) pseudized with  8 coefficients,  rinner =    1.100   1.100   1.100
                                                       1.100   1.100

     PseudoPot. # 2 for Pt read from file:
     /afs/slac.stanford.edu/u/if/mamunm/psp/gbrv1.5pbe/Pt.UPF
     MD5 check sum: f09d6de1a584b5a045c4fc126da2d0c4
     Pseudo is Ultrasoft + core correction, Zval = 16.0
     Generated by new atomic code, or converted to UPF format
     Using radial grid of  985 points,  6 beta functions with:
                l(1) =   0
                l(2) =   0
                l(3) =   1
                l(4) =   1
                l(5) =   2
                l(6) =   2
     Q(r) pseudized with  8 coefficients,  rinner =    1.300   1.300   1.300
                                                       1.300   1.300

     vdW kernel table read from file vdW_kernel_table
     MD5 check sum: 095c7af220d748ca6e76c0b4c6cfb241

     atomic species   valence    mass     pseudopotential
        Zn1           20.00    65.38000     Zn( 1.00)
        Pt1           16.00   195.08400     Pt( 1.00)

     No symmetry found

   Cartesian axes

     site n.     atom                  positions (alat units)
         1           Zn1 tau(   1) = (   0.0000000   0.0000000  10.0000000  )
         2           Zn1 tau(   2) = (  -1.3761918   2.3836341  10.0000000  )
         3           Zn1 tau(   3) = (   1.3761918   2.3836341  10.0000000  )
         4           Pt1 tau(   4) = (   2.7523835   0.0000000  10.0000000  )
         5           Zn1 tau(   5) = (   2.7523835   1.5890894  12.2473117  )
         6           Zn1 tau(   6) = (   1.3761918   3.9727234  12.2473117  )
         7           Zn1 tau(   7) = (  -1.3761918   3.9727234  12.2473117  )
         8           Pt1 tau(   8) = (   0.0000000   1.5890894  12.2473117  )
         9           Zn1 tau(   9) = (   0.0000029   3.1713392  14.6411275  )
        10           Zn1 tau(  10) = (   1.3702697   0.7979627  14.6411274  )
        11           Zn1 tau(  11) = (   4.1344974   0.7979658  14.6411280  )
        12           Pt1 tau(  12) = (   2.7523823   3.1781740  14.3878673  )

     number of k points=    20  Fermi-Dirac smearing, width (Ry)=  0.0110
                       cart. coord. in units 2pi/alat
        k(    1) = (   0.0000000   0.0000000   0.0000000), wk =   0.0555556
        k(    2) = (   0.0000000   0.0349606   0.0000000), wk =   0.1111111
        k(    3) = (   0.0000000   0.0699212   0.0000000), wk =   0.1111111
        k(    4) = (   0.0000000  -0.1048819   0.0000000), wk =   0.0555556
        k(    5) = (   0.0302768   0.0174803   0.0000000), wk =   0.1111111
        k(    6) = (   0.0302768   0.0524409   0.0000000), wk =   0.1111111
        k(    7) = (   0.0302768   0.0874016   0.0000000), wk =   0.1111111
        k(    8) = (   0.0302768  -0.0874016   0.0000000), wk =   0.1111111
        k(    9) = (   0.0302768  -0.0524409   0.0000000), wk =   0.1111111
        k(   10) = (   0.0302768  -0.0174803   0.0000000), wk =   0.1111111
        k(   11) = (   0.0605536   0.0349606   0.0000000), wk =   0.1111111
        k(   12) = (   0.0605536   0.0699212   0.0000000), wk =   0.1111111
        k(   13) = (   0.0605536   0.1048819   0.0000000), wk =   0.1111111
        k(   14) = (   0.0605536  -0.0699212   0.0000000), wk =   0.1111111
        k(   15) = (   0.0605536  -0.0349606   0.0000000), wk =   0.1111111
        k(   16) = (   0.0605536   0.0000000   0.0000000), wk =   0.1111111
        k(   17) = (  -0.0908304  -0.0524409   0.0000000), wk =   0.0555556
        k(   18) = (  -0.0908304  -0.0174803   0.0000000), wk =   0.1111111
        k(   19) = (  -0.0908304   0.0174803   0.0000000), wk =   0.1111111
        k(   20) = (  -0.0908304  -0.1573228   0.0000000), wk =   0.0555556

     Largest allocated arrays     est. size (Mb)     dimensions
     Largest temporary arrays     est. size (Mb)     dimensions

     Initial potential from superposition of free atoms
     Check: negative starting charge=   -0.552252

     starting charge  226.49870, renormalised to  228.00000

[...]

     *
     * You are using vdW-DF for exchange-correlation in this calculation.
     * Please cite the following three references that made this development
     * possible:
     *
     *   M. Dion, H. Rydberg, E. Schroder, D. C. Langreth, and
     *   B. I. Lundqvist, Phys. Rev. Lett. 92, 246401 (2004).
     *
     *   T. Thonhauser, V. R. Cooper, S. Li, A. Puzder, P. Hyldgaard, and
     *   D. C. Langreth, Phys. Rev. B 76, 125112 (2007).
     *
     *   G. Roman-Perez and J. M. Soler, Phys. Rev. Lett. 103, 096102 (2009).
     *
     *
     * If you are using vdW-DF2, please also cite:
     *
     *   K. Lee, E. D. Murray, L. Kong, B. I. Lundqvist, and
     *   D. C. Langreth, Phys. Rev. B 82, 081101(R) (2010).
     *
     *
     * If you are calculating the stress with vdW-DF, please also cite:
     *
     *   R. Sabatini, E. Kucukbenli, B. Kolb, T. Thonhauser, and
     *   S. de Gironcoli, J. Phys.: Condens. Matter 24, 424209 (2012).
     *

     Carrying out vdW-DF run using the following parameters:

     Nqs =      20    Nr_points =    1024   r_max =   100.000
     q_mesh =
               0.00001000     0.04494208     0.09755937     0.15916263
               0.23128650     0.31572767     0.41458969     0.53033537
               0.66584808     0.82450364     1.01025438     1.22772762
               1.48234092     1.78043706     2.12944203     2.53805004
               3.01644009     3.57652955     4.23227104     5.00000000

     Gradients computed in reciprocal space

[...]

     Starting wfc are  153 randomized atomic wfcs

     Self-consistent Calculation

[...]

     total energy              =   -4802.27073561 Ry
     Harris-Foulkes estimate   =   -4802.27073517 Ry
     estimated scf accuracy    <       0.00000257 Ry

     iteration # 15     ecut=    36.75 Ry     beta=0.10
     Davidson diagonalization with overlap
     ethr =  1.13E-09,  avg # of iterations =  2.0

[...]

     negative rho (up, down):  5.291E-01 0.000E+00

     Adding external electric field

     Computed dipole along edir(3) :
        Dipole                0.0441 Ry au,          0.1120 Debye
        Dipole field          0.0001 Ry au

        Potential amp.       -0.0115 Ry
        Total length         45.1309 bohr

     End of self-consistent calculation

[...]

          k = 0.0606 0.0000 0.0000 ( 16344 PWs)   bands (ev):

[...]

          k =-0.0908-0.1573 0.0000 ( 16300 PWs)   bands (ev):

  -125.7589-125.7585-125.7581-125.4802-125.4798-125.4794-125.4432-125.4428
  -125.4424 -79.9815 -79.9780 -79.9747 -79.9318 -79.9299 -79.9282 -79.9137
   -79.9121 -79.9102 -79.6958 -79.6931 -79.6907 -79.6657 -79.6633 -79.6607
   -79.6535 -79.6510 -79.6491 -79.6340 -79.6313 -79.6282 -79.6258 -79.6240
   -79.6222 -79.5893 -79.5875 -79.5856 -51.8873 -51.8871 -51.7946 -51.7058
   -51.7056 -51.6087 -51.6085 -51.5925 -51.4578  -7.3871  -7.2207  -7.1110
    -7.0561  -7.0364  -7.0206  -6.9437  -6.9317  -6.9015  -6.8852  -6.8481
    -6.8316  -6.8150  -6.7915  -6.7274  -6.6913  -6.6889  -6.6029  -6.5781
    -6.5469  -6.5432  -6.5075  -6.5039  -6.4913  -6.4480  -6.4414  -6.4293
    -6.4040  -6.3910  -6.3726  -6.3598  -6.3562  -6.3504  -6.3286  -6.3131
    -6.3119  -6.2915  -6.2408  -6.1885  -6.1735  -6.1531  -6.1375  -6.1327
    -6.1278  -6.0420  -6.0266  -6.0075  -5.1608  -4.4545  -4.1097  -3.1176
    -3.0226  -2.8555  -2.7019  -2.5809  -2.5231  -2.2676  -2.1002  -2.0469
    -2.0048  -1.8923  -1.5454  -1.5247  -1.2539  -1.1639  -0.3173  -0.1930
     0.2013   0.4490   0.7324   2.3280   2.4426   2.4638   2.8712   4.8514
     5.0629   5.2523   5.3337   5.5062   5.6430   5.8457   5.8937   6.3797
     6.4914   6.7116   6.8364   6.8542   6.8706   7.1283   7.7442   7.7956
     7.8623   7.9166   7.9805   8.1245   8.2856   8.7169   8.8828   9.3072

     the Fermi energy is     0.8831 ev

!    total energy              =   -4802.27073893 Ry
     Harris-Foulkes estimate   =   -4802.27073630 Ry
     estimated scf accuracy    <       0.00000045 Ry

     The total energy is the sum of the following terms:

     one-electron contribution =  -32091.61909355 Ry
     hartree contribution      =   16041.23581071 Ry
     xc contribution           =    -566.79848473 Ry
     ewald contribution        =   11814.93666418 Ry
     electric field correction =       0.00000563 Ry
     smearing contrib. (-TS)   =      -0.02564118 Ry

     convergence has been achieved in  15 iterations

 BEEF-vdW xc energy contributions
           1 :   -504.061216502333
           2 :    460.779333149918
           3 :   -386.883848651798
           4 :    301.830932371881
           5 :   -223.629216769656
           6 :    162.540516714727
           7 :   -119.498198946542
           8 :    89.1429007579066
           9 :   -64.9503833099629
          10 :    43.2187950749581
          11 :   -23.9932880918084
          12 :    9.23015907867887
          13 :  -0.163796059490323
          14 :   -4.09425459779550
          15 :    5.97570913353093
          16 :   -7.72092507763796
          17 :    10.0098983176787
          18 :   -11.9649776087599
          19 :    12.3402938554117
          20 :   -10.8342183012558
          21 :    8.48161429547599
          22 :   -6.89922669744692
          23 :    7.06001264462043
          24 :   -8.58999236547152
          25 :    10.1071905248314
          26 :   -10.2937856100547
          27 :    8.85372684370861
          28 :   -6.65434355863181
          29 :    5.00657318096205
          30 :   -4.68356436800241
          31 :   -39.6269073985763
          32 :   -27.7713573453237

     Forces acting on atoms (Ry/au):

     negative rho (up, down):  5.291E-01 0.000E+00
     atom    1 type  1   force =    -0.00000034    0.00115698   -0.01505317
     atom    2 type  1   force =     0.00100186   -0.00057862   -0.01505295
     atom    3 type  1   force =    -0.00100179   -0.00057831   -0.01505305
     atom    4 type  2   force =     0.00000003    0.00000008    0.02408510
     atom    5 type  1   force =    -0.00000013   -0.00667727    0.00215800
     atom    6 type  1   force =    -0.00578270    0.00333857    0.00215806
     atom    7 type  1   force =     0.00578288    0.00333865    0.00215875
     atom    8 type  2   force =     0.00000007   -0.00000009    0.00885343
     atom    9 type  1   force =    -0.00000042    0.00023990    0.00130218
     atom   10 type  1   force =     0.00020713   -0.00012058    0.00130214
     atom   11 type  1   force =    -0.00020707   -0.00012016    0.00130219
     atom   12 type  2   force =     0.00000047    0.00000086    0.00183932

     Total force =     0.038712     Total SCF correction =     0.006815
     SCF correction compared to forces is large: reduce conv_thr to get better values

     entering subroutine stress ...

     negative rho (up, down):  5.291E-01 0.000E+00
          total   stress  (Ry/bohr**3)                   (kbar)     P=  -19.28
  -0.00018427   0.00000000   0.00000000        -27.11      0.00      0.00
   0.00000000  -0.00018427   0.00000000          0.00    -27.11      0.00
   0.00000000   0.00000000  -0.00002458          0.00      0.00     -3.62

 !ASE

     Writing output data file calc.save

     General routines

     Parallel routines

   This run was terminated on:  18:43:13   2Jan2019

   JOB DONE.
Job  /afs/slac/g/suncat/bin/suncat-tsmpirun -x LD_LIBRARY_PATH -wdir /scratch/qe649501_m6qYv pw.x -in pw.inp

TID   HOST_NAME   COMMAND_LINE            STATUS            TERMINATION_TIME
00000 suncat0078 pw.x -in pw.inp   Done                     01/02/2019 18:43:13
00001 suncat0078 pw.x -in pw.inp   Done                     01/02/2019 18:43:13
00002 suncat0078 pw.x -in pw.inp   Done                     01/02/2019 18:43:13
00003 suncat0078 pw.x -in pw.inp   Done                     01/02/2019 18:43:13
00004 suncat0078 pw.x -in pw.inp   Done                     01/02/2019 18:43:13
00005 suncat0078 pw.x -in pw.inp   Done                     01/02/2019 18:43:13
00006 suncat0078 pw.x -in pw.inp   Done                     01/02/2019 18:43:13
00007 suncat0078 pw.x -in pw.inp   Done                     01/02/2019 18:43:13
00008 suncat0077 pw.x -in pw.inp   Done                     01/02/2019 18:43:13
00009 suncat0077 pw.x -in pw.inp   Done                     01/02/2019 18:43:13
00010 suncat0077 pw.x -in pw.inp   Done                     01/02/2019 18:43:13
00011 suncat0077 pw.x -in pw.inp   Done                     01/02/2019 18:43:13
00012 suncat0077 pw.x -in pw.inp   Done                     01/02/2019 18:43:13
00013 suncat0077 pw.x -in pw.inp   Done                     01/02/2019 18:43:13
00014 suncat0077 pw.x -in pw.inp   Done                     01/02/2019 18:43:13
00015 suncat0077 pw.x -in pw.inp   Done                     01/02/2019 18:43:13
00016 suncat0076 pw.x -in pw.inp   Done                     01/02/2019 18:43:13
00017 suncat0076 pw.x -in pw.inp   Done                     01/02/2019 18:43:13
00018 suncat0076 pw.x -in pw.inp   Done                     01/02/2019 18:43:13
00019 suncat0076 pw.x -in pw.inp   Done                     01/02/2019 18:43:13
00020 suncat0076 pw.x -in pw.inp   Done                     01/02/2019 18:43:13
00021 suncat0076 pw.x -in pw.inp   Done                     01/02/2019 18:43:13
00022 suncat0076 pw.x -in pw.inp   Done                     01/02/2019 18:43:13
00023 suncat0076 pw.x -in pw.inp   Done                     01/02/2019 18:43:13
00024 suncat0074 pw.x -in pw.inp   Done                     01/02/2019 18:43:13
00025 suncat0074 pw.x -in pw.inp   Done                     01/02/2019 18:43:13
00026 suncat0074 pw.x -in pw.inp   Done                     01/02/2019 18:43:13
00027 suncat0074 pw.x -in pw.inp   Done                     01/02/2019 18:43:13
00028 suncat0074 pw.x -in pw.inp   Done                     01/02/2019 18:43:13
00029 suncat0074 pw.x -in pw.inp   Done                     01/02/2019 18:43:13
00030 suncat0074 pw.x -in pw.inp   Done                     01/02/2019 18:43:13
00031 suncat0074 pw.x -in pw.inp   Done                     01/02/2019 18:43:13
00032 suncat0073 pw.x -in pw.inp   Done                     01/02/2019 18:43:13
00033 suncat0073 pw.x -in pw.inp   Done                     01/02/2019 18:43:13
00034 suncat0073 pw.x -in pw.inp   Done                     01/02/2019 18:43:13
00035 suncat0073 pw.x -in pw.inp   Done                     01/02/2019 18:43:13
00036 suncat0073 pw.x -in pw.inp   Done                     01/02/2019 18:43:13
00037 suncat0073 pw.x -in pw.inp   Done                     01/02/2019 18:43:13
00038 suncat0073 pw.x -in pw.inp   Done                     01/02/2019 18:43:13
00039 suncat0073 pw.x -in pw.inp   Done                     01/02/2019 18:43:13
00040 suncat0069 pw.x -in pw.inp   Done                     01/02/2019 18:43:13
00041 suncat0069 pw.x -in pw.inp   Done                     01/02/2019 18:43:13
00042 suncat0069 pw.x -in pw.inp   Done                     01/02/2019 18:43:13
00043 suncat0069 pw.x -in pw.inp   Done                     01/02/2019 18:43:13
00044 suncat0069 pw.x -in pw.inp   Done                     01/02/2019 18:43:13
00045 suncat0069 pw.x -in pw.inp   Done                     01/02/2019 18:43:13
00046 suncat0069 pw.x -in pw.inp   Done                     01/02/2019 18:43:13
00047 suncat0069 pw.x -in pw.inp   Done                     01/02/2019 18:43:13
00048 suncat0217 pw.x -in pw.inp   Done                     01/02/2019 18:43:13
00049 suncat0217 pw.x -in pw.inp   Done                     01/02/2019 18:43:13
00050 suncat0217 pw.x -in pw.inp   Done                     01/02/2019 18:43:13
00051 suncat0217 pw.x -in pw.inp   Done                     01/02/2019 18:43:13
00052 suncat0217 pw.x -in pw.inp   Done                     01/02/2019 18:43:13
00053 suncat0217 pw.x -in pw.inp   Done                     01/02/2019 18:43:13
00054 suncat0217 pw.x -in pw.inp   Done                     01/02/2019 18:43:13
00055 suncat0217 pw.x -in pw.inp   Done                     01/02/2019 18:43:13
00056 suncat0216 pw.x -in pw.inp   Done                     01/02/2019 18:43:13
00057 suncat0216 pw.x -in pw.inp   Done                     01/02/2019 18:43:13
00058 suncat0216 pw.x -in pw.inp   Done                     01/02/2019 18:43:13
00059 suncat0216 pw.x -in pw.inp   Done                     01/02/2019 18:43:13
00060 suncat0216 pw.x -in pw.inp   Done                     01/02/2019 18:43:13
00061 suncat0216 pw.x -in pw.inp   Done                     01/02/2019 18:43:13
00062 suncat0216 pw.x -in pw.inp   Done                     01/02/2019 18:43:13
00063 suncat0216 pw.x -in pw.inp   Done                     01/02/2019 18:43:13