     Program PWSCF v.5.1rc2 (svn rev. 11289) starts on 31Dec2018 at 12: 3:33

     Current dimensions of program PWSCF are:
     Max number of different atomic species (ntypx) = 10
     Max number of k-points (npk) =  40000
     Max angular momentum in pseudopotentials (lmaxx) =  3
     Presently stress not available with electric field

     IMPORTANT: XC functional enforced from input :
     Exchange-correlation      = BEEF-VDW ( 1  4 27 13 2)
     Any further DFT definition will be discarded
     Please, verify this is what you really want

     Subspace diagonalization in iterative solution of the eigenvalue problem:
     a serial algorithm will be used

     Generating pointlists ...
     new r_m :   0.4125 (alat units)  0.7795 (a.u.) for type    1
     new r_m :   0.4125 (alat units)  0.7795 (a.u.) for type    2

     bravais-lattice index     =            0
     lattice parameter (alat)  =       1.8897  a.u.
     unit-cell volume          =    4414.2369 (a.u.)^3
     number of atoms/cell      =           12
     number of atomic types    =            2
     number of electrons       =       192.00
     number of Kohn-Sham states=          126
     kinetic-energy cutoff     =      36.7493  Ry
     charge density cutoff     =     367.4932  Ry
     convergence threshold     =      1.0E-06
     mixing beta               =       0.1000
     number of iterations used =           10  plain     mixing
     Exchange-correlation      = BEEF-VDW ( 1  4 27 13 2)
     nstep                     =           50

     celldm(1)=   1.889726  celldm(2)=   0.000000  celldm(3)=   0.000000
     celldm(4)=   0.000000  celldm(5)=   0.000000  celldm(6)=   0.000000

     crystal axes: (cart. coord. in units of alat)
               a(1) = (   5.548932   0.000000   0.000000 )
               a(2) = (  -2.774466   4.805516   0.000000 )
               a(3) = (   0.000000   0.000000  24.530684 )

     reciprocal axes: (cart. coord. in units 2 pi/alat)
               b(1) = (  0.180215  0.104047  0.000000 )
               b(2) = (  0.000000  0.208094  0.000000 )
               b(3) = (  0.000000  0.000000  0.040765 )

     PseudoPot. # 1 for Pd read from file:
     /afs/slac.stanford.edu/u/if/mamunm/psp/gbrv1.5pbe/Pd.UPF
     MD5 check sum: 2d733d2bc2cbfd217af676df1668a4bc
     Pseudo is Ultrasoft + core correction, Zval = 16.0
     Generated by new atomic code, or converted to UPF format
     Using radial grid of  887 points,  6 beta functions with:
                l(1) =   0
                l(2) =   0
                l(3) =   1
                l(4) =   1
                l(5) =   2
                l(6) =   2
     Q(r) pseudized with  8 coefficients,  rinner =    1.130   1.130   1.130
                                                       1.130   1.130

     PseudoPot. # 2 for Fe read from file:
     /afs/slac.stanford.edu/u/if/mamunm/psp/gbrv1.5pbe/Fe.UPF
     MD5 check sum: a130daea23fe5165f5d574ae7f82ed95
     Pseudo is Ultrasoft + core correction, Zval = 16.0
     Generated by new atomic code, or converted to UPF format
     Using radial grid of  861 points,  6 beta functions with:
                l(1) =   0
                l(2) =   0
                l(3) =   1
                l(4) =   1
                l(5) =   2
                l(6) =   2
     Q(r) pseudized with  8 coefficients,  rinner =    1.000   1.000   1.000
                                                       1.000   1.000

     vdW kernel table read from file vdW_kernel_table
     MD5 check sum: 095c7af220d748ca6e76c0b4c6cfb241

     atomic species   valence    mass     pseudopotential
        Pd1           16.00   106.42000     Pd( 1.00)
        Fe1           16.00    55.84500     Fe( 1.00)

     Starting magnetic structure
     atomic species   magnetization
        Pd1          0.125
        Fe1          0.125

     No symmetry found

   Cartesian axes

     site n.     atom                  positions (alat units)
         1           Pd1 tau(   1) = (   0.0000000   0.0000000  10.0000000  )
         2           Pd1 tau(   2) = (  -1.3872329   2.4027579  10.0000000  )
         3           Pd1 tau(   3) = (   1.3872329   2.4027579  10.0000000  )
         4           Fe1 tau(   4) = (   2.7744658   0.0000000  10.0000000  )
         5           Pd1 tau(   5) = (   2.7744658   1.6018386  12.2653419  )
         6           Pd1 tau(   6) = (   1.3872329   4.0045965  12.2653419  )
         7           Pd1 tau(   7) = (  -1.3872329   4.0045965  12.2653419  )
         8           Fe1 tau(   8) = (   0.0000000   1.6018386  12.2653419  )
         9           Pd1 tau(   9) = (  -0.0000000   3.2036772  14.5306837  )
        10           Pd1 tau(  10) = (   1.3872329   0.8009193  14.5306837  )
        11           Pd1 tau(  11) = (   4.1616987   0.8009193  14.5306837  )
        12           Fe1 tau(  12) = (   2.7744658   3.2036772  14.5306837  )

     number of k points=    40  Fermi-Dirac smearing, width (Ry)=  0.0110
                       cart. coord. in units 2pi/alat
        k(    1) = (   0.0000000   0.0000000   0.0000000), wk =   0.0277778
        k(    2) = (   0.0000000   0.0346824   0.0000000), wk =   0.0555556
        k(    3) = (   0.0000000   0.0693647   0.0000000), wk =   0.0555556
        k(    4) = (   0.0000000  -0.1040471   0.0000000), wk =   0.0277778
        k(    5) = (   0.0300358   0.0173412   0.0000000), wk =   0.0555556
        k(    6) = (   0.0300358   0.0520236   0.0000000), wk =   0.0555556
        k(    7) = (   0.0300358   0.0867059   0.0000000), wk =   0.0555556
        k(    8) = (   0.0300358  -0.0867059   0.0000000), wk =   0.0555556
        k(    9) = (   0.0300358  -0.0520236   0.0000000), wk =   0.0555556
        k(   10) = (   0.0300358  -0.0173412   0.0000000), wk =   0.0555556
        k(   11) = (   0.0600716   0.0346824   0.0000000), wk =   0.0555556
        k(   12) = (   0.0600716   0.0693647   0.0000000), wk =   0.0555556
        k(   13) = (   0.0600716   0.1040471   0.0000000), wk =   0.0555556
        k(   14) = (   0.0600716  -0.0693647   0.0000000), wk =   0.0555556
        k(   15) = (   0.0600716  -0.0346824   0.0000000), wk =   0.0555556
        k(   16) = (   0.0600716   0.0000000   0.0000000), wk =   0.0555556
        k(   17) = (  -0.0901074  -0.0520236   0.0000000), wk =   0.0277778
        k(   18) = (  -0.0901074  -0.0173412   0.0000000), wk =   0.0555556
        k(   19) = (  -0.0901074   0.0173412   0.0000000), wk =   0.0555556
        k(   20) = (  -0.0901074  -0.1560707   0.0000000), wk =   0.0277778
        k(   21) = (   0.0000000   0.0000000   0.0000000), wk =   0.0277778
        k(   22) = (   0.0000000   0.0346824   0.0000000), wk =   0.0555556
        k(   23) = (   0.0000000   0.0693647   0.0000000), wk =   0.0555556
        k(   24) = (   0.0000000  -0.1040471   0.0000000), wk =   0.0277778
        k(   25) = (   0.0300358   0.0173412   0.0000000), wk =   0.0555556
        k(   26) = (   0.0300358   0.0520236   0.0000000), wk =   0.0555556
        k(   27) = (   0.0300358   0.0867059   0.0000000), wk =   0.0555556
        k(   28) = (   0.0300358  -0.0867059   0.0000000), wk =   0.0555556
        k(   29) = (   0.0300358  -0.0520236   0.0000000), wk =   0.0555556
        k(   30) = (   0.0300358  -0.0173412   0.0000000), wk =   0.0555556
        k(   31) = (   0.0600716   0.0346824   0.0000000), wk =   0.0555556
        k(   32) = (   0.0600716   0.0693647   0.0000000), wk =   0.0555556
        k(   33) = (   0.0600716   0.1040471   0.0000000), wk =   0.0555556
        k(   34) = (   0.0600716  -0.0693647   0.0000000), wk =   0.0555556
        k(   35) = (   0.0600716  -0.0346824   0.0000000), wk =   0.0555556
        k(   36) = (   0.0600716   0.0000000   0.0000000), wk =   0.0555556
        k(   37) = (  -0.0901074  -0.0520236   0.0000000), wk =   0.0277778
        k(   38) = (  -0.0901074  -0.0173412   0.0000000), wk =   0.0555556
        k(   39) = (  -0.0901074   0.0173412   0.0000000), wk =   0.0555556
        k(   40) = (  -0.0901074  -0.1560707   0.0000000), wk =   0.0277778

     Largest allocated arrays     est. size (Mb)     dimensions
     Largest temporary arrays     est. size (Mb)     dimensions

     Check: negative/imaginary core charge=   -0.000002    0.000000

     Initial potential from superposition of free atoms
     Check: negative starting charge=(component1):   -0.385800
     Check: negative starting charge=(component2):   -0.300067

     starting charge  184.49992, renormalised to  192.00000

     negative rho (up, down):  4.015E-01 3.123E-01

     *
     * You are using vdW-DF for exchange-correlation in this calculation.
     * Please cite the following three references that made this development
     * possible:
     *
     *   M. Dion, H. Rydberg, E. Schroder, D. C. Langreth, and
     *   B. I. Lundqvist, Phys. Rev. Lett. 92, 246401 (2004).
     *
     *   T. Thonhauser, V. R. Cooper, S. Li, A. Puzder, P. Hyldgaard, and
     *   D. C. Langreth, Phys. Rev. B 76, 125112 (2007).
     *
     *   G. Roman-Perez and J. M. Soler, Phys. Rev. Lett. 103, 096102 (2009).
     *
     *
     * If you are using vdW-DF2, please also cite:
     *
     *   K. Lee, E. D. Murray, L. Kong, B. I. Lundqvist, and
     *   D. C. Langreth, Phys. Rev. B 82, 081101(R) (2010).
     *
     *
     * If you are calculating the stress with vdW-DF, please also cite:
     *
     *   R. Sabatini, E. Kucukbenli, B. Kolb, T. Thonhauser, and
     *   S. de Gironcoli, J. Phys.: Condens. Matter 24, 424209 (2012).
     *

     Carrying out vdW-DF run using the following parameters:

     Nqs =      20    Nr_points =    1024   r_max =   100.000
     q_mesh =
               0.00001000     0.04494208     0.09755937     0.15916263
               0.23128650     0.31572767     0.41458969     0.53033537
               0.66584808     0.82450364     1.01025438     1.22772762
               1.48234092     1.78043706     2.12944203     2.53805004
               3.01644009     3.57652955     4.23227104     5.00000000

     Gradients computed in reciprocal space

     Adding external electric field

     Computed dipole along edir(3) :
        Dipole               -0.0000 Ry au,         -0.0000 Debye
        Dipole field         -0.0000 Ry au

        Potential amp.        0.0000 Ry
        Total length         45.1974 bohr

[...]

     Starting wfc are  147 randomized atomic wfcs

     Self-consistent Calculation

     iteration #  1     ecut=    36.75 Ry     beta=0.10
     Davidson diagonalization with overlap
     ethr =  1.00E-02,  avg # of iterations =  7.3

[...]

     Magnetic moment per site:
     atom:    1    charge:    3.3374    magn:    0.4046    constr:    0.0000
     atom:    2    charge:    3.3374    magn:    0.4046    constr:    0.0000
     atom:    3    charge:    3.3374    magn:    0.4046    constr:    0.0000
     atom:    4    charge:    7.3547    magn:    0.8317    constr:    0.0000
     atom:    5    charge:    3.3356    magn:    0.4037    constr:    0.0000
     atom:    6    charge:    3.3356    magn:    0.4037    constr:    0.0000
     atom:    7    charge:    3.3356    magn:    0.4037    constr:    0.0000
     atom:    8    charge:    7.3494    magn:    0.8335    constr:    0.0000
[...]
        k(    6) = (   0.0300358   0.0520236   0.0000000), wk =   0.0555556
        k(    7) = (   0.0300358   0.0867059   0.0000000), wk =   0.0555556
        k(    8) = (   0.0300358  -0.0867059   0.0000000), wk =   0.0555556
        k(    9) = (   0.0300358  -0.0520236   0.0000000), wk =   0.0555556
        k(   10) = (   0.0300358  -0.0173412   0.0000000), wk =   0.0555556
        k(   11) = (   0.0600716   0.0346824   0.0000000), wk =   0.0555556
        k(   12) = (   0.0600716   0.0693647   0.0000000), wk =   0.0555556
        k(   13) = (   0.0600716   0.1040471   0.0000000), wk =   0.0555556
        k(   14) = (   0.0600716  -0.0693647   0.0000000), wk =   0.0555556
        k(   15) = (   0.0600716  -0.0346824   0.0000000), wk =   0.0555556
        k(   16) = (   0.0600716   0.0000000   0.0000000), wk =   0.0555556
        k(   17) = (  -0.0901074  -0.0520236   0.0000000), wk =   0.0277778
        k(   18) = (  -0.0901074  -0.0173412   0.0000000), wk =   0.0555556
        k(   19) = (  -0.0901074   0.0173412   0.0000000), wk =   0.0555556
        k(   20) = (  -0.0901074  -0.1560707   0.0000000), wk =   0.0277778
        k(   21) = (   0.0000000   0.0000000   0.0000000), wk =   0.0277778
        k(   22) = (   0.0000000   0.0346824   0.0000000), wk =   0.0555556
        k(   23) = (   0.0000000   0.0693647   0.0000000), wk =   0.0555556
        k(   24) = (   0.0000000  -0.1040471   0.0000000), wk =   0.0277778
        k(   25) = (   0.0300358   0.0173412   0.0000000), wk =   0.0555556
        k(   26) = (   0.0300358   0.0520236   0.0000000), wk =   0.0555556
        k(   27) = (   0.0300358   0.0867059   0.0000000), wk =   0.0555556
        k(   28) = (   0.0300358  -0.0867059   0.0000000), wk =   0.0555556
        k(   29) = (   0.0300358  -0.0520236   0.0000000), wk =   0.0555556
        k(   30) = (   0.0300358  -0.0173412   0.0000000), wk =   0.0555556
        k(   31) = (   0.0600716   0.0346824   0.0000000), wk =   0.0555556
        k(   32) = (   0.0600716   0.0693647   0.0000000), wk =   0.0555556
        k(   33) = (   0.0600716   0.1040471   0.0000000), wk =   0.0555556
        k(   34) = (   0.0600716  -0.0693647   0.0000000), wk =   0.0555556
        k(   35) = (   0.0600716  -0.0346824   0.0000000), wk =   0.0555556
        k(   36) = (   0.0600716   0.0000000   0.0000000), wk =   0.0555556
        k(   37) = (  -0.0901074  -0.0520236   0.0000000), wk =   0.0277778
        k(   38) = (  -0.0901074  -0.0173412   0.0000000), wk =   0.0555556
        k(   39) = (  -0.0901074   0.0173412   0.0000000), wk =   0.0555556
        k(   40) = (  -0.0901074  -0.1560707   0.0000000), wk =   0.0277778

     Largest allocated arrays     est. size (Mb)     dimensions
     Largest temporary arrays     est. size (Mb)     dimensions

     Check: negative/imaginary core charge=   -0.000002    0.000000

     Initial potential from superposition of free atoms
     Check: negative starting charge=(component1):   -0.384485
     Check: negative starting charge=(component2):   -0.299044

     starting charge  184.49992, renormalised to  192.00000

[...]

     *
     * You are using vdW-DF for exchange-correlation in this calculation.
     * Please cite the following three references that made this development
     * possible:
     *
     *   M. Dion, H. Rydberg, E. Schroder, D. C. Langreth, and
     *   B. I. Lundqvist, Phys. Rev. Lett. 92, 246401 (2004).
     *
     *   T. Thonhauser, V. R. Cooper, S. Li, A. Puzder, P. Hyldgaard, and
     *   D. C. Langreth, Phys. Rev. B 76, 125112 (2007).
     *
     *   G. Roman-Perez and J. M. Soler, Phys. Rev. Lett. 103, 096102 (2009).
     *
     *
     * If you are using vdW-DF2, please also cite:
     *
     *   K. Lee, E. D. Murray, L. Kong, B. I. Lundqvist, and
     *   D. C. Langreth, Phys. Rev. B 82, 081101(R) (2010).
     *
     *
     * If you are calculating the stress with vdW-DF, please also cite:
     *
     *   R. Sabatini, E. Kucukbenli, B. Kolb, T. Thonhauser, and
     *   S. de Gironcoli, J. Phys.: Condens. Matter 24, 424209 (2012).
     *

     Carrying out vdW-DF run using the following parameters:

     Nqs =      20    Nr_points =    1024   r_max =   100.000
     q_mesh =
               0.00001000     0.04494208     0.09755937     0.15916263
               0.23128650     0.31572767     0.41458969     0.53033537
               0.66584808     0.82450364     1.01025438     1.22772762
               1.48234092     1.78043706     2.12944203     2.53805004
               3.01644009     3.57652955     4.23227104     5.00000000

     Gradients computed in reciprocal space

[...]

     Starting wfc are  147 randomized atomic wfcs

     Self-consistent Calculation

[...]

     iteration # 14     ecut=    36.75 Ry     beta=0.10
     Davidson diagonalization with overlap
     c_bands:  1 eigenvalues not converged
     ethr =  1.05E-05,  avg # of iterations =  4.3

[...]

     total energy              =   -2552.11762013 Ry
     Harris-Foulkes estimate   =   -2552.11761762 Ry
     estimated scf accuracy    <       0.00000266 Ry

[...]

     iteration # 25     ecut=    36.75 Ry     beta=0.10
     Davidson diagonalization with overlap
     ethr =  1.38E-09,  avg # of iterations =  1.8

[...]

     negative rho (up, down):  3.586E-01 3.546E-01

[...]

     Adding external electric field

     Computed dipole along edir(3) :
        Dipole               -0.0111 Ry au,         -0.0282 Debye
        Dipole field         -0.0000 Ry au

        Potential amp.        0.0029 Ry
        Total length         45.1974 bohr

     Magnetic moment per site:
     atom:    1    charge:    3.2995    magn:    0.0511    constr:    0.0000
     atom:    2    charge:    3.2995    magn:    0.0511    constr:    0.0000
     atom:    3    charge:    3.2995    magn:    0.0511    constr:    0.0000
     atom:    4    charge:    7.0889    magn:    1.5654    constr:    0.0000
     atom:    5    charge:    3.3009    magn:    0.0691    constr:    0.0000
     atom:    6    charge:    3.3009    magn:    0.0691    constr:    0.0000
     atom:    7    charge:    3.3009    magn:    0.0691    constr:    0.0000
     atom:    8    charge:    7.0816    magn:    1.5942    constr:    0.0000
     atom:    9    charge:    3.3050    magn:    0.0506    constr:    0.0000
     atom:   10    charge:    3.3050    magn:    0.0506    constr:    0.0000
     atom:   11    charge:    3.3050    magn:    0.0506    constr:    0.0000
     atom:   12    charge:    7.0907    magn:    1.5679    constr:    0.0000

     End of self-consistent calculation

 ------ SPIN UP ------------

[...]

 ------ SPIN DOWN ----------

[...]

          k = 0.0601 0.0000 0.0000 ( 16568 PWs)   bands (ev):

[...]

          k =-0.0901-0.1561 0.0000 ( 16596 PWs)   bands (ev):

   -84.7940 -84.7402 -84.7402 -50.9053 -50.9034 -50.8765 -50.8754 -50.8497
   -50.8182 -50.8165 -50.8150 -50.8134 -49.0297 -48.9615 -48.9493 -48.9391
   -48.9201 -48.9179 -48.9042 -48.8989 -48.8171 -48.7298 -48.7092 -48.6621
   -48.6567 -48.6479 -48.6446 -48.6444 -48.6199 -48.6191 -48.5953 -48.5309
   -48.5123 -48.4971 -48.4909 -48.4818 -48.4738 -48.4621 -48.4573  -3.9894
    -3.9043  -3.1551  -3.0388  -3.0214  -2.8855  -2.8296  -2.7360  -2.6707
    -2.5004  -2.4424  -2.4196  -2.2983  -2.1957  -2.1284  -2.1183  -2.0335
    -2.0039  -1.8274  -1.7218  -1.4399  -1.3865  -1.2906  -1.2671  -1.2335
    -1.1541  -1.1084  -1.0905  -1.0341  -0.9893  -0.9593  -0.9352  -0.8953
    -0.8822  -0.7511  -0.7380  -0.5475  -0.5340  -0.4767  -0.3846  -0.3334
    -0.2003  -0.1002  -0.0827   0.2291   0.2545   0.3574   0.3758   0.7173
     0.7221   0.7523   1.0272   1.1563   1.1700   1.2518   1.2730   1.3416
     1.3673   1.5322   1.6698   1.6870   1.7193   1.7742   1.9599   3.0921
     3.1440   3.3065   3.4939   4.2292   4.3220   5.1835   5.2490   6.2331
     6.2562   6.8470   6.8509   7.3964   7.4092   7.5226   7.5243   8.5675
     8.6212   8.6276   8.6508   9.1594   9.1773   9.6409

     the Fermi energy is     1.0082 ev

!    total energy              =   -2552.11763293 Ry
     Harris-Foulkes estimate   =   -2552.11762076 Ry
     estimated scf accuracy    <       0.00000097 Ry

     The total energy is the sum of the following terms:

     one-electron contribution =  -21184.72819288 Ry
     hartree contribution      =   10626.90029772 Ry
     xc contribution           =    -383.58447361 Ry
     ewald contribution        =    8389.36741646 Ry
     electric field correction =       0.00000035 Ry
     smearing contrib. (-TS)   =      -0.07268097 Ry

     total magnetization       =    12.39 Bohr mag/cell
     absolute magnetization    =    13.28 Bohr mag/cell

     convergence has been achieved in  25 iterations

 BEEF-vdW xc energy contributions
           1 :   -334.507911635685
           2 :    304.930293428519
           3 :   -254.813449041088
           4 :    198.055372746423
           5 :   -147.672117040015
           6 :    111.375717662863
           7 :   -90.1954853000905
           8 :    80.0615922425750
           9 :   -74.9876550894074
          10 :    70.0846348275818
          11 :   -63.1802768542744
          12 :    54.7348889144059
          13 :   -46.6035793848519
          14 :    40.5413395013632
          15 :   -37.2200474410702
          16 :    36.0561968086918
          17 :   -35.7195698331687
          18 :    34.9164997489993
          19 :   -33.0232524905332
          20 :    30.2699453847135
          21 :   -27.4456747922718
          22 :    25.3369267785300
          23 :   -24.2515258270638
          24 :    23.8888808445025
          25 :   -23.6014719898639
          26 :    22.8385627919690
          27 :   -21.4776084340263
          28 :    19.8374155128723
          29 :   -18.4043269025518
          30 :    17.4818635165597
          31 :   -31.7154641677379
          32 :   -23.1868367754178

     Forces acting on atoms (Ry/au):

     negative rho (up, down):  3.586E-01 3.546E-01
     atom    1 type  1   force =     0.00000004    0.01314402   -0.00325125
     atom    2 type  1   force =     0.01138305   -0.00657203   -0.00325106
     atom    3 type  1   force =    -0.01138288   -0.00657203   -0.00325118
     atom    4 type  2   force =    -0.00000002   -0.00000012    0.01883526
     atom    5 type  1   force =    -0.00000004   -0.00496833   -0.00289842
     atom    6 type  1   force =    -0.00430271    0.00248417   -0.00289831
     atom    7 type  1   force =     0.00430277    0.00248422   -0.00289827
     atom    8 type  2   force =    -0.00000009    0.00000001    0.00036816
     atom    9 type  1   force =     0.00000009    0.00004605   -0.00061255
     atom   10 type  1   force =     0.00003989   -0.00002304   -0.00061249
     atom   11 type  1   force =    -0.00003982   -0.00002296   -0.00061227
     atom   12 type  2   force =    -0.00000029    0.00000004    0.00108239

     Total force =     0.031725     Total SCF correction =     0.001672

     entering subroutine stress ...

     negative rho (up, down):  3.586E-01 3.546E-01
          total   stress  (Ry/bohr**3)                   (kbar)     P=  -10.36
  -0.00009363   0.00000000   0.00000000        -13.77      0.00      0.00
   0.00000000  -0.00009363   0.00000000          0.00    -13.77      0.00
   0.00000000   0.00000000  -0.00002398          0.00      0.00     -3.53

 !ASE

     Writing output data file calc.save

     General routines

     Parallel routines

   This run was terminated on:  15:56:33  31Dec2018

   JOB DONE.
Job  /afs/slac/g/suncat/bin/suncat-tsmpirun -x LD_LIBRARY_PATH -wdir /scratch/qe648761_IvyLK pw.x -in pw.inp

TID   HOST_NAME   COMMAND_LINE            STATUS            TERMINATION_TIME
00000 suncat0271 pw.x -in pw.inp   Done                     12/31/2018 15:56:33
00001 suncat0271 pw.x -in pw.inp   Done                     12/31/2018 15:56:33
00002 suncat0271 pw.x -in pw.inp   Done                     12/31/2018 15:56:33
00003 suncat0271 pw.x -in pw.inp   Done                     12/31/2018 15:56:33
00004 suncat0271 pw.x -in pw.inp   Done                     12/31/2018 15:56:33
00005 suncat0271 pw.x -in pw.inp   Done                     12/31/2018 15:56:33
00006 suncat0271 pw.x -in pw.inp   Done                     12/31/2018 15:56:33
00007 suncat0271 pw.x -in pw.inp   Done                     12/31/2018 15:56:33
00008 suncat0266 pw.x -in pw.inp   Done                     12/31/2018 15:56:33
00009 suncat0266 pw.x -in pw.inp   Done                     12/31/2018 15:56:33
00010 suncat0266 pw.x -in pw.inp   Done                     12/31/2018 15:56:33
00011 suncat0266 pw.x -in pw.inp   Done                     12/31/2018 15:56:33
00012 suncat0266 pw.x -in pw.inp   Done                     12/31/2018 15:56:33
00013 suncat0266 pw.x -in pw.inp   Done                     12/31/2018 15:56:33
00014 suncat0266 pw.x -in pw.inp   Done                     12/31/2018 15:56:33
00015 suncat0266 pw.x -in pw.inp   Done                     12/31/2018 15:56:33
00016 suncat0264 pw.x -in pw.inp   Done                     12/31/2018 15:56:33
00017 suncat0264 pw.x -in pw.inp   Done                     12/31/2018 15:56:33
00018 suncat0264 pw.x -in pw.inp   Done                     12/31/2018 15:56:33
00019 suncat0264 pw.x -in pw.inp   Done                     12/31/2018 15:56:33
00020 suncat0264 pw.x -in pw.inp   Done                     12/31/2018 15:56:33
00021 suncat0264 pw.x -in pw.inp   Done                     12/31/2018 15:56:33
00022 suncat0264 pw.x -in pw.inp   Done                     12/31/2018 15:56:33
00023 suncat0264 pw.x -in pw.inp   Done                     12/31/2018 15:56:33
00024 suncat0260 pw.x -in pw.inp   Done                     12/31/2018 15:56:33
00025 suncat0260 pw.x -in pw.inp   Done                     12/31/2018 15:56:33
00026 suncat0260 pw.x -in pw.inp   Done                     12/31/2018 15:56:33
00027 suncat0260 pw.x -in pw.inp   Done                     12/31/2018 15:56:33
00028 suncat0260 pw.x -in pw.inp   Done                     12/31/2018 15:56:33
00029 suncat0260 pw.x -in pw.inp   Done                     12/31/2018 15:56:33
00030 suncat0260 pw.x -in pw.inp   Done                     12/31/2018 15:56:33
00031 suncat0260 pw.x -in pw.inp   Done                     12/31/2018 15:56:33
00032 suncat0241 pw.x -in pw.inp   Done                     12/31/2018 15:56:33
00033 suncat0241 pw.x -in pw.inp   Done                     12/31/2018 15:56:33
00034 suncat0241 pw.x -in pw.inp   Done                     12/31/2018 15:56:33
00035 suncat0241 pw.x -in pw.inp   Done                     12/31/2018 15:56:33
00036 suncat0241 pw.x -in pw.inp   Done                     12/31/2018 15:56:33
00037 suncat0241 pw.x -in pw.inp   Done                     12/31/2018 15:56:33
00038 suncat0241 pw.x -in pw.inp   Done                     12/31/2018 15:56:33
00039 suncat0241 pw.x -in pw.inp   Done                     12/31/2018 15:56:33
00040 suncat0240 pw.x -in pw.inp   Done                     12/31/2018 15:56:33
00041 suncat0240 pw.x -in pw.inp   Done                     12/31/2018 15:56:33
00042 suncat0240 pw.x -in pw.inp   Done                     12/31/2018 15:56:33
00043 suncat0240 pw.x -in pw.inp   Done                     12/31/2018 15:56:33
00044 suncat0240 pw.x -in pw.inp   Done                     12/31/2018 15:56:33
00045 suncat0240 pw.x -in pw.inp   Done                     12/31/2018 15:56:33
00046 suncat0240 pw.x -in pw.inp   Done                     12/31/2018 15:56:33
00047 suncat0240 pw.x -in pw.inp   Done                     12/31/2018 15:56:33
00048 suncat0239 pw.x -in pw.inp   Done                     12/31/2018 15:56:33
00049 suncat0239 pw.x -in pw.inp   Done                     12/31/2018 15:56:33
00050 suncat0239 pw.x -in pw.inp   Done                     12/31/2018 15:56:33
00051 suncat0239 pw.x -in pw.inp   Done                     12/31/2018 15:56:33
00052 suncat0239 pw.x -in pw.inp   Done                     12/31/2018 15:56:33
00053 suncat0239 pw.x -in pw.inp   Done                     12/31/2018 15:56:33
00054 suncat0239 pw.x -in pw.inp   Done                     12/31/2018 15:56:33
00055 suncat0239 pw.x -in pw.inp   Done                     12/31/2018 15:56:33
00056 suncat0098 pw.x -in pw.inp   Done                     12/31/2018 15:56:33
00057 suncat0098 pw.x -in pw.inp   Done                     12/31/2018 15:56:33
00058 suncat0098 pw.x -in pw.inp   Done                     12/31/2018 15:56:33
00059 suncat0098 pw.x -in pw.inp   Done                     12/31/2018 15:56:33
00060 suncat0098 pw.x -in pw.inp   Done                     12/31/2018 15:56:33
00061 suncat0098 pw.x -in pw.inp   Done                     12/31/2018 15:56:33
00062 suncat0098 pw.x -in pw.inp   Done                     12/31/2018 15:56:33
00063 suncat0098 pw.x -in pw.inp   Done                     12/31/2018 15:56:33