     Program PWSCF v.5.1rc2 (svn rev. 11289) starts on 31Dec2018 at 11: 3:59

     Current dimensions of program PWSCF are:
     Max number of different atomic species (ntypx) = 10
     Max number of k-points (npk) =  40000
     Max angular momentum in pseudopotentials (lmaxx) =  3
     Presently stress not available with electric field

     IMPORTANT: XC functional enforced from input :
     Exchange-correlation      = BEEF-VDW ( 1  4 27 13 2)
     Any further DFT definition will be discarded
     Please, verify this is what you really want

     Subspace diagonalization in iterative solution of the eigenvalue problem:
     a serial algorithm will be used

     bravais-lattice index     =            0
     lattice parameter (alat)  =       1.8897  a.u.
     unit-cell volume          =    4434.6207 (a.u.)^3
     number of atoms/cell      =           12
     number of atomic types    =            2
     number of electrons       =       153.00
     number of Kohn-Sham states=          106
     kinetic-energy cutoff     =      36.7493  Ry
     charge density cutoff     =     367.4932  Ry
     convergence threshold     =      1.0E-06
     mixing beta               =       0.1000
     number of iterations used =           10  plain     mixing
     Exchange-correlation      = BEEF-VDW ( 1  4 27 13 2)
     nstep                     =           50

     celldm(1)=   1.889726  celldm(2)=   0.000000  celldm(3)=   0.000000
     celldm(4)=   0.000000  celldm(5)=   0.000000  celldm(6)=   0.000000

     crystal axes: (cart. coord. in units of alat)
               a(1) = (   5.560645   0.000000   0.000000 )
               a(2) = (  -2.780322   4.815660   0.000000 )
               a(3) = (   0.000000   0.000000  24.540247 )

     reciprocal axes: (cart. coord. in units 2 pi/alat)
               b(1) = (  0.179835  0.103828  0.000000 )
               b(2) = (  0.000000  0.207656  0.000000 )
               b(3) = (  0.000000  0.000000  0.040749 )

     PseudoPot. # 1 for Pd read from file:
     /afs/slac.stanford.edu/u/if/mamunm/psp/gbrv1.5pbe/Pd.UPF
     MD5 check sum: 2d733d2bc2cbfd217af676df1668a4bc
     Pseudo is Ultrasoft + core correction, Zval = 16.0
     Generated by new atomic code, or converted to UPF format
     Using radial grid of  887 points,  6 beta functions with:
                l(1) =   0
                l(2) =   0
                l(3) =   1
                l(4) =   1
                l(5) =   2
                l(6) =   2
     Q(r) pseudized with  8 coefficients,  rinner =    1.130   1.130   1.130
                                                       1.130   1.130

     PseudoPot. # 2 for Al read from file:
     /afs/slac.stanford.edu/u/if/mamunm/psp/gbrv1.5pbe/Al.UPF
     MD5 check sum: 0a6289f5291fc8f409219462bc851e1f
     Pseudo is Ultrasoft + core correction, Zval =  3.0
     Generated by new atomic code, or converted to UPF format
     Using radial grid of  893 points,  3 beta functions with:
                l(1) =   0
                l(2) =   1
                l(3) =   2
     Q(r) pseudized with  8 coefficients,  rinner =    0.900   0.900   0.900
                                                       0.900   0.900

     vdW kernel table read from file vdW_kernel_table
     MD5 check sum: 095c7af220d748ca6e76c0b4c6cfb241

     atomic species   valence    mass     pseudopotential
        Pd1           16.00   106.42000     Pd( 1.00)
        Al1            3.00    26.98154     Al( 1.00)

     No symmetry found

   Cartesian axes

     site n.     atom                  positions (alat units)
         1           Pd1 tau(   1) = (   0.0000000   0.0000000  10.0000000  )
         2           Pd1 tau(   2) = (  -1.3901612   2.4078298  10.0000000  )
         3           Pd1 tau(   3) = (   1.3901612   2.4078298  10.0000000  )
         4           Al1 tau(   4) = (   2.7803224   0.0000000  10.0000000  )
         5           Pd1 tau(   5) = (   2.7803224   1.6052199  12.2701237  )
         6           Pd1 tau(   6) = (   1.3901612   4.0130497  12.2701237  )
         7           Pd1 tau(   7) = (  -1.3901612   4.0130497  12.2701237  )
         8           Al1 tau(   8) = (   0.0000000   1.6052199  12.2701237  )
         9           Pd1 tau(   9) = (  -0.0000000   3.2104398  14.5402475  )
        10           Pd1 tau(  10) = (   1.3901612   0.8026099  14.5402475  )
        11           Pd1 tau(  11) = (   4.1704836   0.8026099  14.5402475  )
        12           Al1 tau(  12) = (   2.7803224   3.2104398  14.5402475  )

     number of k points=    20  Fermi-Dirac smearing, width (Ry)=  0.0110
                       cart. coord. in units 2pi/alat
        k(    1) = (   0.0000000   0.0000000   0.0000000), wk =   0.0555556
        k(    2) = (   0.0000000   0.0346093   0.0000000), wk =   0.1111111
        k(    3) = (   0.0000000   0.0692186   0.0000000), wk =   0.1111111
        k(    4) = (   0.0000000  -0.1038279   0.0000000), wk =   0.0555556
        k(    5) = (   0.0299725   0.0173047   0.0000000), wk =   0.1111111
        k(    6) = (   0.0299725   0.0519140   0.0000000), wk =   0.1111111
        k(    7) = (   0.0299725   0.0865233   0.0000000), wk =   0.1111111
        k(    8) = (   0.0299725  -0.0865233   0.0000000), wk =   0.1111111
        k(    9) = (   0.0299725  -0.0519140   0.0000000), wk =   0.1111111
        k(   10) = (   0.0299725  -0.0173047   0.0000000), wk =   0.1111111
        k(   11) = (   0.0599451   0.0346093   0.0000000), wk =   0.1111111
        k(   12) = (   0.0599451   0.0692186   0.0000000), wk =   0.1111111
        k(   13) = (   0.0599451   0.1038279   0.0000000), wk =   0.1111111
        k(   14) = (   0.0599451  -0.0692186   0.0000000), wk =   0.1111111
        k(   15) = (   0.0599451  -0.0346093   0.0000000), wk =   0.1111111
        k(   16) = (   0.0599451   0.0000000   0.0000000), wk =   0.1111111
        k(   17) = (  -0.0899176  -0.0519140   0.0000000), wk =   0.0555556
        k(   18) = (  -0.0899176  -0.0173047   0.0000000), wk =   0.1111111
        k(   19) = (  -0.0899176   0.0173047   0.0000000), wk =   0.1111111
        k(   20) = (  -0.0899176  -0.1557419   0.0000000), wk =   0.0555556

     Largest allocated arrays     est. size (Mb)     dimensions
     Largest temporary arrays     est. size (Mb)     dimensions

     Initial potential from superposition of free atoms
     Check: negative starting charge=   -0.689248

     starting charge  148.49254, renormalised to  153.00000

     negative rho (up, down):  7.102E-01 0.000E+00

     *
     * You are using vdW-DF for exchange-correlation in this calculation.
     * Please cite the following three references that made this development
     * possible:
     *
     *   M. Dion, H. Rydberg, E. Schroder, D. C. Langreth, and
     *   B. I. Lundqvist, Phys. Rev. Lett. 92, 246401 (2004).
     *
     *   T. Thonhauser, V. R. Cooper, S. Li, A. Puzder, P. Hyldgaard, and
     *   D. C. Langreth, Phys. Rev. B 76, 125112 (2007).
     *
     *   G. Roman-Perez and J. M. Soler, Phys. Rev. Lett. 103, 096102 (2009).
     *
     *
     * If you are using vdW-DF2, please also cite:
     *
     *   K. Lee, E. D. Murray, L. Kong, B. I. Lundqvist, and
     *   D. C. Langreth, Phys. Rev. B 82, 081101(R) (2010).
     *
     *
     * If you are calculating the stress with vdW-DF, please also cite:
     *
     *   R. Sabatini, E. Kucukbenli, B. Kolb, T. Thonhauser, and
     *   S. de Gironcoli, J. Phys.: Condens. Matter 24, 424209 (2012).
     *

     Carrying out vdW-DF run using the following parameters:

     Nqs =      20    Nr_points =    1024   r_max =   100.000
     q_mesh =
               0.00001000     0.04494208     0.09755937     0.15916263
               0.23128650     0.31572767     0.41458969     0.53033537
               0.66584808     0.82450364     1.01025438     1.22772762
               1.48234092     1.78043706     2.12944203     2.53805004
               3.01644009     3.57652955     4.23227104     5.00000000

     Gradients computed in reciprocal space

     Adding external electric field

     Computed dipole along edir(3) :
        Dipole               -0.0000 Ry au,         -0.0000 Debye
        Dipole field         -0.0000 Ry au

        Potential amp.        0.0000 Ry
        Total length         45.2150 bohr

     Starting wfc are  120 randomized atomic wfcs

     Self-consistent Calculation

     iteration #  1     ecut=    36.75 Ry     beta=0.10
     Davidson diagonalization with overlap
     ethr =  1.00E-02,  avg # of iterations =  6.7

[...]

     total energy              =   -1819.06504322 Ry
     Harris-Foulkes estimate   =   -1822.79874532 Ry
     estimated scf accuracy    <      22.32296030 Ry

[...]

     End of self-consistent calculation

          k = 0.0000 0.0000 0.0000 ( 16703 PWs)   bands (ev):

   -49.4047 -49.3523 -49.3523 -49.3227 -49.3076 -49.3076 -49.2310 -49.1616
   -49.1553 -49.1553 -49.1549 -49.1359 -49.1359 -49.1022 -49.1022 -49.0225
   -49.0183 -48.9320 -48.9262 -48.9262 -48.9250 -48.9250 -48.9079 -48.8998
   -48.8998 -48.8884 -48.8884  -7.0205  -5.5712  -5.4395  -4.1534  -3.7887
    -3.7292  -3.4235  -3.4235  -3.3308  -3.2561  -3.2561  -3.2099  -3.2099
    -2.9008  -2.9008  -2.7660  -2.2355  -2.2355  -2.1199  -2.1199  -1.8604
    -1.7584  -1.7260  -1.4527  -1.3497  -1.3497  -1.2891  -1.2891  -1.0154
    -1.0154  -0.8015  -0.8015  -0.7230  -0.7230  -0.6365  -0.3144  -0.3144
    -0.2164  -0.2164  -0.1978  -0.1293  -0.1293   0.2371   0.4103   0.4103
     0.5538   0.6049   0.7007   0.7007   0.7952   0.8456   1.7854   2.1999
     2.1999   2.3686   2.4212   2.4212   2.7208   4.1896   4.5234   4.8058
     5.2873   5.3511   5.7878   6.2153   6.2153   6.3953   6.7690   6.7690
     7.1216   7.4302   7.4302   8.3364   8.6343   8.9179   9.0300   9.0300
     9.2901   9.3066

[...]

          k =-0.0899-0.0519 0.0000 ( 16668 PWs)   bands (ev):

[...]

     the Fermi energy is     0.7018 ev

!    total energy              =   -1819.07680518 Ry
     Harris-Foulkes estimate   =   -1819.07681219 Ry
     estimated scf accuracy    <       0.00000034 Ry

     The total energy is the sum of the following terms:

     one-electron contribution =  -13414.80967523 Ry
     hartree contribution      =    6744.15949398 Ry
     xc contribution           =    -306.20488251 Ry
     ewald contribution        =    5157.82372981 Ry
     electric field correction =       0.00000000 Ry
     smearing contrib. (-TS)   =      -0.04547122 Ry

     convergence has been achieved in  15 iterations

 BEEF-vdW xc energy contributions
           1 :   -266.032754057966
           2 :    242.732963987697
           3 :   -203.128290222865
           4 :    158.020910427710
           5 :   -117.661463154708
           6 :    88.3655322213789
           7 :   -71.3422521107997
           8 :    63.7161623506912
           9 :   -60.8051853735124
          10 :    58.4206751593524
          11 :   -54.2943245856999
          12 :    48.3289866940308
          13 :   -41.9025526880837
          14 :    36.7293060974629
          15 :   -33.8382105765539
          16 :    33.0864204494576
          17 :   -33.3618619015035
          18 :    33.2924778680752
          19 :   -32.0257237717354
[...]
               b(3) = (  0.000000  0.000000  0.040749 )

     PseudoPot. # 1 for Pd read from file:
     /afs/slac.stanford.edu/u/if/mamunm/psp/gbrv1.5pbe/Pd.UPF
     MD5 check sum: 2d733d2bc2cbfd217af676df1668a4bc
     Pseudo is Ultrasoft + core correction, Zval = 16.0
     Generated by new atomic code, or converted to UPF format
     Using radial grid of  887 points,  6 beta functions with:
                l(1) =   0
                l(2) =   0
                l(3) =   1
                l(4) =   1
                l(5) =   2
                l(6) =   2
     Q(r) pseudized with  8 coefficients,  rinner =    1.130   1.130   1.130
                                                       1.130   1.130

     PseudoPot. # 2 for Al read from file:
     /afs/slac.stanford.edu/u/if/mamunm/psp/gbrv1.5pbe/Al.UPF
     MD5 check sum: 0a6289f5291fc8f409219462bc851e1f
     Pseudo is Ultrasoft + core correction, Zval =  3.0
     Generated by new atomic code, or converted to UPF format
     Using radial grid of  893 points,  3 beta functions with:
                l(1) =   0
                l(2) =   1
                l(3) =   2
     Q(r) pseudized with  8 coefficients,  rinner =    0.900   0.900   0.900
                                                       0.900   0.900

     vdW kernel table read from file vdW_kernel_table
     MD5 check sum: 095c7af220d748ca6e76c0b4c6cfb241

     atomic species   valence    mass     pseudopotential
        Pd1           16.00   106.42000     Pd( 1.00)
        Al1            3.00    26.98154     Al( 1.00)

     No symmetry found

   Cartesian axes

     site n.     atom                  positions (alat units)
         1           Pd1 tau(   1) = (   0.0000000   0.0000000  10.0000000  )
         2           Pd1 tau(   2) = (  -1.3901612   2.4078298  10.0000000  )
         3           Pd1 tau(   3) = (   1.3901612   2.4078298  10.0000000  )
         4           Al1 tau(   4) = (   2.7803224   0.0000000  10.0000000  )
         5           Pd1 tau(   5) = (   2.7803224   1.6052199  12.2701237  )
         6           Pd1 tau(   6) = (   1.3901612   4.0130497  12.2701237  )
         7           Pd1 tau(   7) = (  -1.3901612   4.0130497  12.2701237  )
         8           Al1 tau(   8) = (   0.0000000   1.6052199  12.2701237  )
         9           Pd1 tau(   9) = (   0.0000012   3.1936458  14.5352599  )
        10           Pd1 tau(  10) = (   1.3756171   0.8110088  14.5352592  )
        11           Pd1 tau(  11) = (   4.1850268   0.8110078  14.5352599  )
        12           Al1 tau(  12) = (   2.7803228   3.2104408  14.3489668  )

     number of k points=    20  Fermi-Dirac smearing, width (Ry)=  0.0110
                       cart. coord. in units 2pi/alat
        k(    1) = (   0.0000000   0.0000000   0.0000000), wk =   0.0555556
        k(    2) = (   0.0000000   0.0346093   0.0000000), wk =   0.1111111
        k(    3) = (   0.0000000   0.0692186   0.0000000), wk =   0.1111111
        k(    4) = (   0.0000000  -0.1038279   0.0000000), wk =   0.0555556
        k(    5) = (   0.0299725   0.0173047   0.0000000), wk =   0.1111111
        k(    6) = (   0.0299725   0.0519140   0.0000000), wk =   0.1111111
        k(    7) = (   0.0299725   0.0865233   0.0000000), wk =   0.1111111
        k(    8) = (   0.0299725  -0.0865233   0.0000000), wk =   0.1111111
        k(    9) = (   0.0299725  -0.0519140   0.0000000), wk =   0.1111111
        k(   10) = (   0.0299725  -0.0173047   0.0000000), wk =   0.1111111
        k(   11) = (   0.0599451   0.0346093   0.0000000), wk =   0.1111111
        k(   12) = (   0.0599451   0.0692186   0.0000000), wk =   0.1111111
        k(   13) = (   0.0599451   0.1038279   0.0000000), wk =   0.1111111
        k(   14) = (   0.0599451  -0.0692186   0.0000000), wk =   0.1111111
        k(   15) = (   0.0599451  -0.0346093   0.0000000), wk =   0.1111111
        k(   16) = (   0.0599451   0.0000000   0.0000000), wk =   0.1111111
        k(   17) = (  -0.0899176  -0.0519140   0.0000000), wk =   0.0555556
        k(   18) = (  -0.0899176  -0.0173047   0.0000000), wk =   0.1111111
        k(   19) = (  -0.0899176   0.0173047   0.0000000), wk =   0.1111111
        k(   20) = (  -0.0899176  -0.1557419   0.0000000), wk =   0.0555556

     Largest allocated arrays     est. size (Mb)     dimensions
     Largest temporary arrays     est. size (Mb)     dimensions

     Initial potential from superposition of free atoms
     Check: negative starting charge=   -0.687381

     starting charge  148.49254, renormalised to  153.00000

[...]

     *
     * You are using vdW-DF for exchange-correlation in this calculation.
     * Please cite the following three references that made this development
     * possible:
     *
     *   M. Dion, H. Rydberg, E. Schroder, D. C. Langreth, and
     *   B. I. Lundqvist, Phys. Rev. Lett. 92, 246401 (2004).
     *
     *   T. Thonhauser, V. R. Cooper, S. Li, A. Puzder, P. Hyldgaard, and
     *   D. C. Langreth, Phys. Rev. B 76, 125112 (2007).
     *
     *   G. Roman-Perez and J. M. Soler, Phys. Rev. Lett. 103, 096102 (2009).
     *
     *
     * If you are using vdW-DF2, please also cite:
     *
     *   K. Lee, E. D. Murray, L. Kong, B. I. Lundqvist, and
     *   D. C. Langreth, Phys. Rev. B 82, 081101(R) (2010).
     *
     *
     * If you are calculating the stress with vdW-DF, please also cite:
     *
     *   R. Sabatini, E. Kucukbenli, B. Kolb, T. Thonhauser, and
     *   S. de Gironcoli, J. Phys.: Condens. Matter 24, 424209 (2012).
     *

     Carrying out vdW-DF run using the following parameters:

     Nqs =      20    Nr_points =    1024   r_max =   100.000
     q_mesh =
               0.00001000     0.04494208     0.09755937     0.15916263
               0.23128650     0.31572767     0.41458969     0.53033537
               0.66584808     0.82450364     1.01025438     1.22772762
               1.48234092     1.78043706     2.12944203     2.53805004
               3.01644009     3.57652955     4.23227104     5.00000000

     Gradients computed in reciprocal space

[...]

     Starting wfc are  120 randomized atomic wfcs

     Self-consistent Calculation

[...]

     total energy              =   -1819.08356180 Ry
     Harris-Foulkes estimate   =   -1819.08356356 Ry
     estimated scf accuracy    <       0.00000149 Ry

     iteration # 15     ecut=    36.75 Ry     beta=0.10
     Davidson diagonalization with overlap
     ethr =  9.73E-10,  avg # of iterations =  2.0

[...]

     negative rho (up, down):  7.190E-01 0.000E+00

     Adding external electric field

     Computed dipole along edir(3) :
        Dipole               -0.0054 Ry au,         -0.0138 Debye
        Dipole field         -0.0000 Ry au

        Potential amp.        0.0014 Ry
        Total length         45.2150 bohr

     End of self-consistent calculation

[...]

          k = 0.0599 0.0000 0.0000 ( 16630 PWs)   bands (ev):

[...]

          k =-0.0899-0.1557 0.0000 ( 16668 PWs)   bands (ev):

   -49.4487 -49.4078 -49.3884 -49.3831 -49.3462 -49.3249 -49.3223 -49.2876
   -49.2084 -49.1453 -49.1268 -49.0894 -49.0724 -49.0712 -49.0689 -49.0611
   -49.0465 -49.0264 -49.0116 -48.9451 -48.9322 -48.9242 -48.9188 -48.9093
   -48.9053 -48.8960 -48.8903  -5.7986  -5.5727  -4.7483  -4.0817  -3.7618
    -3.6741  -3.3946  -3.3595  -3.1470  -2.9261  -2.8784  -2.8675  -2.8335
    -2.7955  -2.7114  -2.5764  -2.4453  -2.4181  -2.2404  -2.1270  -2.0901
    -1.8631  -1.7786  -1.7190  -1.7164  -1.5612  -1.5381  -1.4744  -1.4169
    -1.3992  -1.3441  -1.3152  -1.2833  -1.1553  -1.0128  -1.0095  -0.9538
    -0.8918  -0.8397  -0.6521  -0.6360  -0.5799  -0.5378  -0.4685  -0.2135
    -0.1667  -0.0202   0.2985   0.4733   0.5960   1.4397   1.4612   2.2023
     2.3424   2.7030   3.3118   3.8604   4.3079   4.3250   5.9355   6.0440
     6.3651   6.6654   6.6876   6.7686   6.9571   7.0204   7.1756   7.4586
     7.5921   7.7385   7.8548   7.9263   8.0727   8.2310   8.5402   8.6067
     8.7786   8.7890

     the Fermi energy is     0.6878 ev

!    total energy              =   -1819.08355480 Ry
     Harris-Foulkes estimate   =   -1819.08356208 Ry
     estimated scf accuracy    <       0.00000054 Ry

     The total energy is the sum of the following terms:

     one-electron contribution =  -13443.28361501 Ry
     hartree contribution      =    6758.28641120 Ry
     xc contribution           =    -306.27716020 Ry
     ewald contribution        =    5172.23501721 Ry
     electric field correction =       0.00000008 Ry
     smearing contrib. (-TS)   =      -0.04420809 Ry

     convergence has been achieved in  15 iterations

 BEEF-vdW xc energy contributions
           1 :   -266.143795716910
           2 :    242.866159056564
           3 :   -203.292470460183
           4 :    158.203366634562
           5 :   -117.831764610230
           6 :    88.4918149966134
           7 :   -71.4100583970274
           8 :    63.7374251322463
           9 :   -60.8123947104663
          10 :    58.4506641791449
          11 :   -54.3703269504177
          12 :    48.4488789398104
          13 :   -42.0385953563147
          14 :    36.8412796679859
          15 :   -33.8956832158347
          16 :    33.0886152803142
          17 :   -33.3416048700450
          18 :    33.2980843407788
          19 :   -32.0897251771547
          20 :    29.7352163393459
          21 :   -26.9774768952910
          22 :    24.7223184947476
          23 :   -23.4727618801038
          24 :    23.0994373037222
          25 :   -23.0279468805030
          26 :    22.6524029056296
          27 :   -21.6862212754724
          28 :    20.2571797971055
          29 :   -18.7507311723510
          30 :    17.5459552657439
          31 :   -26.4347620903083
          32 :   -19.5587969856842

     Forces acting on atoms (Ry/au):

     negative rho (up, down):  7.190E-01 0.000E+00
     atom    1 type  1   force =    -0.00000008    0.01061443   -0.00101388
     atom    2 type  1   force =     0.00919249   -0.00530742   -0.00101396
     atom    3 type  1   force =    -0.00919271   -0.00530738   -0.00101354
     atom    4 type  2   force =    -0.00000011    0.00000004    0.02235318
     atom    5 type  1   force =     0.00000019   -0.00462077   -0.00581285
     atom    6 type  1   force =    -0.00400177    0.00231054   -0.00581274
     atom    7 type  1   force =     0.00400197    0.00231036   -0.00581272
     atom    8 type  2   force =    -0.00000012    0.00000002   -0.00098954
     atom    9 type  1   force =    -0.00000030    0.00027291   -0.00051131
     atom   10 type  1   force =     0.00023627   -0.00013662   -0.00051083
     atom   11 type  1   force =    -0.00023580   -0.00013615   -0.00051115
     atom   12 type  2   force =    -0.00000002    0.00000003    0.00064933

     Total force =     0.031758     Total SCF correction =     0.003441
     SCF correction compared to forces is large: reduce conv_thr to get better values

     entering subroutine stress ...

     negative rho (up, down):  7.190E-01 0.000E+00
          total   stress  (Ry/bohr**3)                   (kbar)     P=   -9.96
  -0.00008524   0.00000000  -0.00000000        -12.54      0.00     -0.00
   0.00000000  -0.00008524  -0.00000000          0.00    -12.54     -0.00
  -0.00000000  -0.00000000  -0.00003260         -0.00     -0.00     -4.80

 !ASE

     Writing output data file calc.save

     General routines

     Parallel routines

   This run was terminated on:  12: 3:14  31Dec2018

   JOB DONE.
Job  /afs/slac/g/suncat/bin/suncat-tsmpirun -x LD_LIBRARY_PATH -wdir /scratch/qe648748_gwl3J pw.x -in pw.inp

TID   HOST_NAME   COMMAND_LINE            STATUS            TERMINATION_TIME
00000 suncat0271 pw.x -in pw.inp   Done                     12/31/2018 12:03:14
00001 suncat0271 pw.x -in pw.inp   Done                     12/31/2018 12:03:14
00002 suncat0271 pw.x -in pw.inp   Done                     12/31/2018 12:03:14
00003 suncat0271 pw.x -in pw.inp   Done                     12/31/2018 12:03:14
00004 suncat0271 pw.x -in pw.inp   Done                     12/31/2018 12:03:14
00005 suncat0271 pw.x -in pw.inp   Done                     12/31/2018 12:03:14
00006 suncat0271 pw.x -in pw.inp   Done                     12/31/2018 12:03:14
00007 suncat0271 pw.x -in pw.inp   Done                     12/31/2018 12:03:14
00008 suncat0266 pw.x -in pw.inp   Done                     12/31/2018 12:03:14
00009 suncat0266 pw.x -in pw.inp   Done                     12/31/2018 12:03:14
00010 suncat0266 pw.x -in pw.inp   Done                     12/31/2018 12:03:14
00011 suncat0266 pw.x -in pw.inp   Done                     12/31/2018 12:03:14
00012 suncat0266 pw.x -in pw.inp   Done                     12/31/2018 12:03:14
00013 suncat0266 pw.x -in pw.inp   Done                     12/31/2018 12:03:14
00014 suncat0266 pw.x -in pw.inp   Done                     12/31/2018 12:03:14
00015 suncat0266 pw.x -in pw.inp   Done                     12/31/2018 12:03:14
00016 suncat0264 pw.x -in pw.inp   Done                     12/31/2018 12:03:14
00017 suncat0264 pw.x -in pw.inp   Done                     12/31/2018 12:03:14
00018 suncat0264 pw.x -in pw.inp   Done                     12/31/2018 12:03:14
00019 suncat0264 pw.x -in pw.inp   Done                     12/31/2018 12:03:14
00020 suncat0264 pw.x -in pw.inp   Done                     12/31/2018 12:03:14
00021 suncat0264 pw.x -in pw.inp   Done                     12/31/2018 12:03:14
00022 suncat0264 pw.x -in pw.inp   Done                     12/31/2018 12:03:14
00023 suncat0264 pw.x -in pw.inp   Done                     12/31/2018 12:03:14
00024 suncat0260 pw.x -in pw.inp   Done                     12/31/2018 12:03:14
00025 suncat0260 pw.x -in pw.inp   Done                     12/31/2018 12:03:14
00026 suncat0260 pw.x -in pw.inp   Done                     12/31/2018 12:03:14
00027 suncat0260 pw.x -in pw.inp   Done                     12/31/2018 12:03:14
00028 suncat0260 pw.x -in pw.inp   Done                     12/31/2018 12:03:14
00029 suncat0260 pw.x -in pw.inp   Done                     12/31/2018 12:03:14
00030 suncat0260 pw.x -in pw.inp   Done                     12/31/2018 12:03:14
00031 suncat0260 pw.x -in pw.inp   Done                     12/31/2018 12:03:14
00032 suncat0241 pw.x -in pw.inp   Done                     12/31/2018 12:03:14
00033 suncat0241 pw.x -in pw.inp   Done                     12/31/2018 12:03:14
00034 suncat0241 pw.x -in pw.inp   Done                     12/31/2018 12:03:14
00035 suncat0241 pw.x -in pw.inp   Done                     12/31/2018 12:03:14
00036 suncat0241 pw.x -in pw.inp   Done                     12/31/2018 12:03:14
00037 suncat0241 pw.x -in pw.inp   Done                     12/31/2018 12:03:14
00038 suncat0241 pw.x -in pw.inp   Done                     12/31/2018 12:03:14
00039 suncat0241 pw.x -in pw.inp   Done                     12/31/2018 12:03:14
00040 suncat0240 pw.x -in pw.inp   Done                     12/31/2018 12:03:14
00041 suncat0240 pw.x -in pw.inp   Done                     12/31/2018 12:03:14
00042 suncat0240 pw.x -in pw.inp   Done                     12/31/2018 12:03:14
00043 suncat0240 pw.x -in pw.inp   Done                     12/31/2018 12:03:14
00044 suncat0240 pw.x -in pw.inp   Done                     12/31/2018 12:03:14
00045 suncat0240 pw.x -in pw.inp   Done                     12/31/2018 12:03:14
00046 suncat0240 pw.x -in pw.inp   Done                     12/31/2018 12:03:14
00047 suncat0240 pw.x -in pw.inp   Done                     12/31/2018 12:03:14
00048 suncat0239 pw.x -in pw.inp   Done                     12/31/2018 12:03:14
00049 suncat0239 pw.x -in pw.inp   Done                     12/31/2018 12:03:14
00050 suncat0239 pw.x -in pw.inp   Done                     12/31/2018 12:03:14
00051 suncat0239 pw.x -in pw.inp   Done                     12/31/2018 12:03:14
00052 suncat0239 pw.x -in pw.inp   Done                     12/31/2018 12:03:14
00053 suncat0239 pw.x -in pw.inp   Done                     12/31/2018 12:03:14
00054 suncat0239 pw.x -in pw.inp   Done                     12/31/2018 12:03:14
00055 suncat0239 pw.x -in pw.inp   Done                     12/31/2018 12:03:14
00056 suncat0098 pw.x -in pw.inp   Done                     12/31/2018 12:03:14
00057 suncat0098 pw.x -in pw.inp   Done                     12/31/2018 12:03:14
00058 suncat0098 pw.x -in pw.inp   Done                     12/31/2018 12:03:14
00059 suncat0098 pw.x -in pw.inp   Done                     12/31/2018 12:03:14
00060 suncat0098 pw.x -in pw.inp   Done                     12/31/2018 12:03:14
00061 suncat0098 pw.x -in pw.inp   Done                     12/31/2018 12:03:14
00062 suncat0098 pw.x -in pw.inp   Done                     12/31/2018 12:03:14
00063 suncat0098 pw.x -in pw.inp   Done                     12/31/2018 12:03:14