     Program PWSCF v.5.1rc2 (svn rev. 11289) starts on 31Dec2018 at  6:32:11

     Current dimensions of program PWSCF are:
     Max number of different atomic species (ntypx) = 10
     Max number of k-points (npk) =  40000
     Max angular momentum in pseudopotentials (lmaxx) =  3
     Presently stress not available with electric field

     IMPORTANT: XC functional enforced from input :
     Exchange-correlation      = BEEF-VDW ( 1  4 27 13 2)
     Any further DFT definition will be discarded
     Please, verify this is what you really want

     Subspace diagonalization in iterative solution of the eigenvalue problem:
     a serial algorithm will be used

     bravais-lattice index     =            0
     lattice parameter (alat)  =       1.8897  a.u.
     unit-cell volume          =    4307.4276 (a.u.)^3
     number of atoms/cell      =           12
     number of atomic types    =            2
     number of electrons       =       201.00
     number of Kohn-Sham states=          130
     kinetic-energy cutoff     =      36.7493  Ry
     charge density cutoff     =     367.4932  Ry
     convergence threshold     =      1.0E-06
     mixing beta               =       0.1000
     number of iterations used =           10  plain     mixing
     Exchange-correlation      = BEEF-VDW ( 1  4 27 13 2)
     nstep                     =           50

     celldm(1)=   1.889726  celldm(2)=   0.000000  celldm(3)=   0.000000
     celldm(4)=   0.000000  celldm(5)=   0.000000  celldm(6)=   0.000000

     crystal axes: (cart. coord. in units of alat)
               a(1) = (   5.487043   0.000000   0.000000 )
               a(2) = (  -2.743521   4.751918   0.000000 )
               a(3) = (   0.000000   0.000000  24.480151 )

     reciprocal axes: (cart. coord. in units 2 pi/alat)
               b(1) = (  0.182248  0.105221  0.000000 )
               b(2) = (  0.000000  0.210441  0.000000 )
               b(3) = (  0.000000  0.000000  0.040849 )

     PseudoPot. # 1 for Os read from file:
     /afs/slac.stanford.edu/u/if/mamunm/psp/gbrv1.5pbe/Os.UPF
     MD5 check sum: a3fb40a04f0c37c25c34bbc47164c9a8
     Pseudo is Ultrasoft + core correction, Zval = 16.0
     Generated by new atomic code, or converted to UPF format
     Using radial grid of  983 points,  8 beta functions with:
                l(1) =   0
                l(2) =   0
                l(3) =   1
                l(4) =   1
                l(5) =   2
                l(6) =   2
                l(7) =   3
                l(8) =   3
     Q(r) pseudized with  8 coefficients,  rinner =    1.150   1.150   1.150
                                                       1.150   1.150   1.150
                                                       1.150

     PseudoPot. # 2 for Ga read from file:
     /afs/slac.stanford.edu/u/if/mamunm/psp/gbrv1.5pbe/Ga.UPF
     MD5 check sum: ccd671392a58a050fbb373893b4fcd66
     Pseudo is Ultrasoft + core correction, Zval = 19.0
     Generated by new atomic code, or converted to UPF format
     Using radial grid of  871 points,  6 beta functions with:
                l(1) =   0
                l(2) =   0
                l(3) =   1
                l(4) =   1
                l(5) =   2
                l(6) =   2
     Q(r) pseudized with  8 coefficients,  rinner =    1.250   1.250   1.250
                                                       1.250   1.250

     vdW kernel table read from file vdW_kernel_table
     MD5 check sum: 095c7af220d748ca6e76c0b4c6cfb241

     atomic species   valence    mass     pseudopotential
        Os1           16.00   190.23000     Os( 1.00)
        Ga1           19.00    69.72300     Ga( 1.00)

     No symmetry found

   Cartesian axes

     site n.     atom                  positions (alat units)
         1           Os1 tau(   1) = (   0.0000000   0.0000000  10.0000000  )
         2           Os1 tau(   2) = (  -1.3717606   2.3759591  10.0000000  )
         3           Os1 tau(   3) = (   1.3717606   2.3759591  10.0000000  )
         4           Ga1 tau(   4) = (   2.7435213   0.0000000  10.0000000  )
         5           Os1 tau(   5) = (   2.7435213   1.5839727  12.2400757  )
         6           Os1 tau(   6) = (   1.3717606   3.9599318  12.2400757  )
         7           Os1 tau(   7) = (  -1.3717606   3.9599318  12.2400757  )
         8           Ga1 tau(   8) = (   0.0000000   1.5839727  12.2400757  )
         9           Os1 tau(   9) = (  -0.0000000   3.1679455  14.4801514  )
        10           Os1 tau(  10) = (   1.3717606   0.7919864  14.4801514  )
        11           Os1 tau(  11) = (   4.1152819   0.7919864  14.4801514  )
        12           Ga1 tau(  12) = (   2.7435213   3.1679455  14.4801514  )

     number of k points=    20  Fermi-Dirac smearing, width (Ry)=  0.0110
                       cart. coord. in units 2pi/alat
        k(    1) = (   0.0000000   0.0000000   0.0000000), wk =   0.0555556
        k(    2) = (   0.0000000   0.0350736   0.0000000), wk =   0.1111111
        k(    3) = (   0.0000000   0.0701471   0.0000000), wk =   0.1111111
        k(    4) = (   0.0000000  -0.1052207   0.0000000), wk =   0.0555556
        k(    5) = (   0.0303746   0.0175368   0.0000000), wk =   0.1111111
        k(    6) = (   0.0303746   0.0526103   0.0000000), wk =   0.1111111
        k(    7) = (   0.0303746   0.0876839   0.0000000), wk =   0.1111111
        k(    8) = (   0.0303746  -0.0876839   0.0000000), wk =   0.1111111
        k(    9) = (   0.0303746  -0.0526103   0.0000000), wk =   0.1111111
        k(   10) = (   0.0303746  -0.0175368   0.0000000), wk =   0.1111111
        k(   11) = (   0.0607492   0.0350736   0.0000000), wk =   0.1111111
        k(   12) = (   0.0607492   0.0701471   0.0000000), wk =   0.1111111
        k(   13) = (   0.0607492   0.1052207   0.0000000), wk =   0.1111111
        k(   14) = (   0.0607492  -0.0701471   0.0000000), wk =   0.1111111
        k(   15) = (   0.0607492  -0.0350736   0.0000000), wk =   0.1111111
        k(   16) = (   0.0607492   0.0000000   0.0000000), wk =   0.1111111
        k(   17) = (  -0.0911238  -0.0526103   0.0000000), wk =   0.0555556
        k(   18) = (  -0.0911238  -0.0175368   0.0000000), wk =   0.1111111
        k(   19) = (  -0.0911238   0.0175368   0.0000000), wk =   0.1111111
        k(   20) = (  -0.0911238  -0.1578310   0.0000000), wk =   0.0555556

     Largest allocated arrays     est. size (Mb)     dimensions
     Largest temporary arrays     est. size (Mb)     dimensions

     Initial potential from superposition of free atoms
     Check: negative starting charge=   -1.123267

     starting charge  193.49967, renormalised to  201.00000

     negative rho (up, down):  1.167E+00 0.000E+00

     *
     * You are using vdW-DF for exchange-correlation in this calculation.
     * Please cite the following three references that made this development
     * possible:
     *
     *   M. Dion, H. Rydberg, E. Schroder, D. C. Langreth, and
     *   B. I. Lundqvist, Phys. Rev. Lett. 92, 246401 (2004).
     *
     *   T. Thonhauser, V. R. Cooper, S. Li, A. Puzder, P. Hyldgaard, and
     *   D. C. Langreth, Phys. Rev. B 76, 125112 (2007).
     *
     *   G. Roman-Perez and J. M. Soler, Phys. Rev. Lett. 103, 096102 (2009).
     *
     *
     * If you are using vdW-DF2, please also cite:
     *
     *   K. Lee, E. D. Murray, L. Kong, B. I. Lundqvist, and
     *   D. C. Langreth, Phys. Rev. B 82, 081101(R) (2010).
     *
     *
     * If you are calculating the stress with vdW-DF, please also cite:
     *
     *   R. Sabatini, E. Kucukbenli, B. Kolb, T. Thonhauser, and
     *   S. de Gironcoli, J. Phys.: Condens. Matter 24, 424209 (2012).
     *

     Carrying out vdW-DF run using the following parameters:

     Nqs =      20    Nr_points =    1024   r_max =   100.000
     q_mesh =
               0.00001000     0.04494208     0.09755937     0.15916263
               0.23128650     0.31572767     0.41458969     0.53033537
               0.66584808     0.82450364     1.01025438     1.22772762
               1.48234092     1.78043706     2.12944203     2.53805004
               3.01644009     3.57652955     4.23227104     5.00000000

     Gradients computed in reciprocal space

     Adding external electric field

     Computed dipole along edir(3) :
        Dipole                0.0000 Ry au,          0.0000 Debye
        Dipole field          0.0000 Ry au

        Potential amp.       -0.0000 Ry
        Total length         45.1043 bohr

     Starting wfc are  153 randomized atomic wfcs

     Self-consistent Calculation

     iteration #  1     ecut=    36.75 Ry     beta=0.10
     Davidson diagonalization with overlap
     ethr =  1.00E-02,  avg # of iterations =  7.5

[...]

     total energy              =   -3048.08011727 Ry
     Harris-Foulkes estimate   =   -3051.15209698 Ry
     estimated scf accuracy    <      17.28711933 Ry

[...]

     End of self-consistent calculation

          k = 0.0000 0.0000 0.0000 ( 16091 PWs)   bands (ev):

   -92.3996 -92.3996 -92.3921 -92.0359 -92.0358 -91.9906 -91.9906 -91.9903
   -91.9903 -84.2461 -84.2046 -84.2046 -84.0518 -84.0499 -84.0118 -84.0118
   -84.0113 -84.0113 -43.9231 -43.7368 -43.7308 -43.7308 -43.7272 -43.6306
   -43.6306 -43.6095 -43.4638 -43.4638 -43.3947 -43.3527 -43.3527 -43.2959
   -43.2292 -43.2292 -43.2278 -43.2278 -43.1706 -43.1551 -43.1551 -43.1402
   -43.1185 -43.0824 -43.0824 -43.0762 -43.0762 -12.8312 -12.8312 -12.8213
   -12.7954 -12.7954 -12.4255 -12.4114 -12.3988 -12.3988 -12.3892 -12.3892
   -12.3800 -12.3800 -12.3710 -12.3710  -8.0182  -6.1030  -5.8192  -4.3336
    -3.7323  -3.6772  -2.9348  -2.9348  -2.5050  -2.3993  -2.3993  -2.2146
    -2.2146  -1.9915  -1.9915  -1.9159  -0.9858  -0.9858  -0.4638  -0.3780
    -0.3780  -0.2366   0.2642   0.2642   0.3384   0.6874   0.8280   0.8280
     1.4632   1.5424   1.6732   1.6733   1.8902   1.8902   2.1002   2.1002
     2.2041   2.2464   2.2464   2.7204   2.7204   2.8646   2.8646   3.1442
     3.2017   3.2017   3.6666   3.8449   3.8978   3.8978   4.1097   4.6082
     4.6082   4.9088   5.1809   5.2964   5.5086   5.5086   5.5912   5.7564
     6.5096   6.8276   7.1368   7.5462   8.1510   9.0758   9.1195   9.1195
     9.1426   9.1426

[...]

          k =-0.0911-0.0526 0.0000 ( 16164 PWs)   bands (ev):

[...]

     the Fermi energy is     2.3990 ev

!    total energy              =   -3047.52427361 Ry
     Harris-Foulkes estimate   =   -3047.52426640 Ry
     estimated scf accuracy    <       0.00000080 Ry

     The total energy is the sum of the following terms:

     one-electron contribution =  -23921.79586798 Ry
     hartree contribution      =   11951.43676621 Ry
     xc contribution           =    -497.63696309 Ry
     ewald contribution        =    9420.55966169 Ry
     electric field correction =       0.00000000 Ry
     smearing contrib. (-TS)   =      -0.08787044 Ry

     convergence has been achieved in  16 iterations

 BEEF-vdW xc energy contributions
           1 :   -438.773386993045
           2 :    404.209639717047
           3 :   -344.204022275962
           4 :    273.270778635554
           5 :   -205.972845231263
           6 :    152.362347524941
           7 :   -115.913571709612
[...]
                l(1) =   0
                l(2) =   0
                l(3) =   1
                l(4) =   1
                l(5) =   2
                l(6) =   2
                l(7) =   3
                l(8) =   3
     Q(r) pseudized with  8 coefficients,  rinner =    1.150   1.150   1.150
                                                       1.150   1.150   1.150
                                                       1.150

     PseudoPot. # 2 for Ga read from file:
     /afs/slac.stanford.edu/u/if/mamunm/psp/gbrv1.5pbe/Ga.UPF
     MD5 check sum: ccd671392a58a050fbb373893b4fcd66
     Pseudo is Ultrasoft + core correction, Zval = 19.0
     Generated by new atomic code, or converted to UPF format
     Using radial grid of  871 points,  6 beta functions with:
                l(1) =   0
                l(2) =   0
                l(3) =   1
                l(4) =   1
                l(5) =   2
                l(6) =   2
     Q(r) pseudized with  8 coefficients,  rinner =    1.250   1.250   1.250
                                                       1.250   1.250

     vdW kernel table read from file vdW_kernel_table
     MD5 check sum: 095c7af220d748ca6e76c0b4c6cfb241

     atomic species   valence    mass     pseudopotential
        Os1           16.00   190.23000     Os( 1.00)
        Ga1           19.00    69.72300     Ga( 1.00)

     No symmetry found

   Cartesian axes

     site n.     atom                  positions (alat units)
         1           Os1 tau(   1) = (   0.0000000   0.0000000  10.0000000  )
         2           Os1 tau(   2) = (  -1.3717606   2.3759591  10.0000000  )
         3           Os1 tau(   3) = (   1.3717606   2.3759591  10.0000000  )
         4           Ga1 tau(   4) = (   2.7435213   0.0000000  10.0000000  )
         5           Os1 tau(   5) = (   2.7435213   1.5839727  12.2400757  )
         6           Os1 tau(   6) = (   1.3717606   3.9599318  12.2400757  )
         7           Os1 tau(   7) = (  -1.3717606   3.9599318  12.2400757  )
         8           Ga1 tau(   8) = (   0.0000000   1.5839727  12.2400757  )
         9           Os1 tau(   9) = (   0.0000112   3.1899492  14.3825363  )
        10           Os1 tau(  10) = (   1.3908717   0.7809971  14.3825117  )
        11           Os1 tau(  11) = (   4.0962123   0.7810083  14.3825282  )
        12           Ga1 tau(  12) = (   2.7435044   3.1680217  14.6031661  )

     number of k points=    20  Fermi-Dirac smearing, width (Ry)=  0.0110
                       cart. coord. in units 2pi/alat
        k(    1) = (   0.0000000   0.0000000   0.0000000), wk =   0.0555556
        k(    2) = (   0.0000000   0.0350736   0.0000000), wk =   0.1111111
        k(    3) = (   0.0000000   0.0701471   0.0000000), wk =   0.1111111
        k(    4) = (   0.0000000  -0.1052207   0.0000000), wk =   0.0555556
        k(    5) = (   0.0303746   0.0175368   0.0000000), wk =   0.1111111
        k(    6) = (   0.0303746   0.0526103   0.0000000), wk =   0.1111111
        k(    7) = (   0.0303746   0.0876839   0.0000000), wk =   0.1111111
        k(    8) = (   0.0303746  -0.0876839   0.0000000), wk =   0.1111111
        k(    9) = (   0.0303746  -0.0526103   0.0000000), wk =   0.1111111
        k(   10) = (   0.0303746  -0.0175368   0.0000000), wk =   0.1111111
        k(   11) = (   0.0607492   0.0350736   0.0000000), wk =   0.1111111
        k(   12) = (   0.0607492   0.0701471   0.0000000), wk =   0.1111111
        k(   13) = (   0.0607492   0.1052207   0.0000000), wk =   0.1111111
        k(   14) = (   0.0607492  -0.0701471   0.0000000), wk =   0.1111111
        k(   15) = (   0.0607492  -0.0350736   0.0000000), wk =   0.1111111
        k(   16) = (   0.0607492   0.0000000   0.0000000), wk =   0.1111111
        k(   17) = (  -0.0911238  -0.0526103   0.0000000), wk =   0.0555556
        k(   18) = (  -0.0911238  -0.0175368   0.0000000), wk =   0.1111111
        k(   19) = (  -0.0911238   0.0175368   0.0000000), wk =   0.1111111
        k(   20) = (  -0.0911238  -0.1578310   0.0000000), wk =   0.0555556

     Largest allocated arrays     est. size (Mb)     dimensions
     Largest temporary arrays     est. size (Mb)     dimensions

     Initial potential from superposition of free atoms
     Check: negative starting charge=   -1.122665

     starting charge  193.49967, renormalised to  201.00000

[...]

     *
     * You are using vdW-DF for exchange-correlation in this calculation.
     * Please cite the following three references that made this development
     * possible:
     *
     *   M. Dion, H. Rydberg, E. Schroder, D. C. Langreth, and
     *   B. I. Lundqvist, Phys. Rev. Lett. 92, 246401 (2004).
     *
     *   T. Thonhauser, V. R. Cooper, S. Li, A. Puzder, P. Hyldgaard, and
     *   D. C. Langreth, Phys. Rev. B 76, 125112 (2007).
     *
     *   G. Roman-Perez and J. M. Soler, Phys. Rev. Lett. 103, 096102 (2009).
     *
     *
     * If you are using vdW-DF2, please also cite:
     *
     *   K. Lee, E. D. Murray, L. Kong, B. I. Lundqvist, and
     *   D. C. Langreth, Phys. Rev. B 82, 081101(R) (2010).
     *
     *
     * If you are calculating the stress with vdW-DF, please also cite:
     *
     *   R. Sabatini, E. Kucukbenli, B. Kolb, T. Thonhauser, and
     *   S. de Gironcoli, J. Phys.: Condens. Matter 24, 424209 (2012).
     *

     Carrying out vdW-DF run using the following parameters:

     Nqs =      20    Nr_points =    1024   r_max =   100.000
     q_mesh =
               0.00001000     0.04494208     0.09755937     0.15916263
               0.23128650     0.31572767     0.41458969     0.53033537
               0.66584808     0.82450364     1.01025438     1.22772762
               1.48234092     1.78043706     2.12944203     2.53805004
               3.01644009     3.57652955     4.23227104     5.00000000

     Gradients computed in reciprocal space

[...]

     Starting wfc are  153 randomized atomic wfcs

     Self-consistent Calculation

[...]

     total energy              =   -3047.53399420 Ry
     Harris-Foulkes estimate   =   -3047.53399280 Ry
     estimated scf accuracy    <       0.00000123 Ry

     iteration # 17     ecut=    36.75 Ry     beta=0.10
     Davidson diagonalization with overlap
     ethr =  6.10E-10,  avg # of iterations =  2.0

[...]

     negative rho (up, down):  1.108E+00 0.000E+00

     Adding external electric field

     Computed dipole along edir(3) :
        Dipole                0.0387 Ry au,          0.0983 Debye
        Dipole field          0.0001 Ry au

        Potential amp.       -0.0102 Ry
        Total length         45.1043 bohr

     End of self-consistent calculation

[...]

          k = 0.0607 0.0000 0.0000 ( 16230 PWs)   bands (ev):

[...]

          k =-0.0911-0.1578 0.0000 ( 16164 PWs)   bands (ev):

   -92.3578 -92.3578 -92.3448 -92.0209 -92.0003 -91.9600 -91.9599 -91.9540
   -91.9540 -84.2322 -84.2182 -84.2041 -84.0227 -84.0087 -83.9960 -83.9727
   -83.9594 -83.9463 -43.8384 -43.7537 -43.6799 -43.6555 -43.5925 -43.5622
   -43.5394 -43.5332 -43.4783 -43.4579 -43.3396 -43.3031 -43.2942 -43.2782
   -43.2719 -43.2681 -43.2476 -43.2244 -43.2142 -43.1969 -43.1756 -43.1500
   -43.1288 -43.1146 -43.0929 -43.0675 -43.0356 -12.7895 -12.7732 -12.7650
   -12.7514 -12.7510 -12.3779 -12.3714 -12.3517 -12.3456 -12.3426 -12.3382
   -12.3315 -12.3305 -12.3205 -12.3182  -6.4389  -5.9339  -4.8119  -4.2915
    -3.7218  -3.5937  -3.1290  -2.9838  -2.1872  -2.0919  -1.9953  -1.8518
    -1.7719  -1.7637  -1.7080  -1.4134  -1.1209  -1.0655  -0.8714  -0.7597
    -0.6702  -0.3541  -0.2088  -0.1484  -0.1361   0.0485   0.1581   0.2444
     0.4616   0.4892   0.5844   0.7027   0.8474   1.5311   1.5431   1.6180
     1.7821   1.8246   1.9574   2.0506   2.2368   2.2627   2.3768   2.5044
     2.6138   2.7741   3.1980   3.4233   3.5367   3.5889   4.0157   4.7464
     4.8527   5.5875   5.6606   6.1366   6.1687   6.6048   7.0853   7.7962
     7.8412   8.0832   8.4662   8.5168   8.6246   8.7400   8.8031   9.0878
     9.4231   9.5949

     the Fermi energy is     2.4391 ev

!    total energy              =   -3047.53400007 Ry
     Harris-Foulkes estimate   =   -3047.53399419 Ry
     estimated scf accuracy    <       0.00000080 Ry

     The total energy is the sum of the following terms:

     one-electron contribution =  -24033.80250543 Ry
     hartree contribution      =   12007.58934029 Ry
     xc contribution           =    -497.76773510 Ry
     ewald contribution        =    9476.53496154 Ry
     electric field correction =       0.00000436 Ry
     smearing contrib. (-TS)   =      -0.08806573 Ry

     convergence has been achieved in  17 iterations

 BEEF-vdW xc energy contributions
           1 :   -438.907853185643
           2 :    404.394850904571
           3 :   -344.457856805552
           4 :    273.563802370941
           5 :   -206.239578927324
           6 :    152.531380958306
           7 :   -115.941908509662
           8 :    94.1945160098273
           9 :   -81.9138448472148
          10 :    73.6252928050960
          11 :   -65.7202493484235
          12 :    56.8828764896511
          13 :   -47.3942210878919
          14 :    38.1357032474673
          15 :   -29.9320981122310
          16 :    23.3580207311812
          17 :   -18.7575084220925
          18 :    16.1953812166948
          19 :   -15.3110809414753
          20 :    15.2675809535588
          21 :   -14.9892656313028
          22 :    13.6481131489246
          23 :   -11.1165418967383
          24 :    8.05326071171044
          25 :   -5.51070594054715
          26 :    4.28151921994538
          27 :   -4.40620336803204
          28 :    5.16696869953569
          29 :   -5.56894552149743
          30 :    4.97808942304067
          31 :   -38.7157791443582
          32 :   -28.7528938501410

     Forces acting on atoms (Ry/au):

     negative rho (up, down):  1.108E+00 0.000E+00
     atom    1 type  1   force =     0.00000006   -0.01034982    0.01708821
     atom    2 type  1   force =    -0.00895993    0.00516475    0.01709010
     atom    3 type  1   force =     0.00896210    0.00516523    0.01709248
     atom    4 type  2   force =     0.00000393   -0.00001562   -0.01905646
     atom    5 type  1   force =     0.00000042    0.01401900   -0.00696097
     atom    6 type  1   force =     0.01216740   -0.00701027   -0.00698150
     atom    7 type  1   force =    -0.01216562   -0.00700898   -0.00697914
     atom    8 type  2   force =    -0.00001049    0.00005980   -0.01628733
     atom    9 type  1   force =    -0.00000354   -0.00047198    0.00102315
     atom   10 type  1   force =    -0.00039783    0.00022779    0.00103607
     atom   11 type  1   force =     0.00039747    0.00023201    0.00102869
     atom   12 type  2   force =     0.00000603   -0.00001190    0.00190670

     Total force =     0.050695     Total SCF correction =     0.005471
     SCF correction compared to forces is large: reduce conv_thr to get better values

     entering subroutine stress ...

     negative rho (up, down):  1.108E+00 0.000E+00
          total   stress  (Ry/bohr**3)                   (kbar)     P=  -31.69
  -0.00029791  -0.00000000  -0.00000000        -43.82     -0.00     -0.00
  -0.00000000  -0.00029792  -0.00000000         -0.00    -43.82     -0.00
  -0.00000000  -0.00000000  -0.00005048         -0.00     -0.00     -7.43

 !ASE

     Writing output data file calc.save

     General routines

     Parallel routines

   This run was terminated on:   8:30:47  31Dec2018

   JOB DONE.
Job  /afs/slac/g/suncat/bin/suncat-tsmpirun -x LD_LIBRARY_PATH -wdir /scratch/qe648692_JzSml pw.x -in pw.inp

TID   HOST_NAME   COMMAND_LINE            STATUS            TERMINATION_TIME
00000 suncat0251 pw.x -in pw.inp   Done                     12/31/2018 08:30:47
00001 suncat0251 pw.x -in pw.inp   Done                     12/31/2018 08:30:47
00002 suncat0251 pw.x -in pw.inp   Done                     12/31/2018 08:30:47
00003 suncat0251 pw.x -in pw.inp   Done                     12/31/2018 08:30:47
00004 suncat0251 pw.x -in pw.inp   Done                     12/31/2018 08:30:47
00005 suncat0251 pw.x -in pw.inp   Done                     12/31/2018 08:30:47
00006 suncat0251 pw.x -in pw.inp   Done                     12/31/2018 08:30:47
00007 suncat0251 pw.x -in pw.inp   Done                     12/31/2018 08:30:47
00008 suncat0244 pw.x -in pw.inp   Done                     12/31/2018 08:30:47
00009 suncat0244 pw.x -in pw.inp   Done                     12/31/2018 08:30:47
00010 suncat0244 pw.x -in pw.inp   Done                     12/31/2018 08:30:47
00011 suncat0244 pw.x -in pw.inp   Done                     12/31/2018 08:30:47
00012 suncat0244 pw.x -in pw.inp   Done                     12/31/2018 08:30:47
00013 suncat0244 pw.x -in pw.inp   Done                     12/31/2018 08:30:47
00014 suncat0244 pw.x -in pw.inp   Done                     12/31/2018 08:30:47
00015 suncat0244 pw.x -in pw.inp   Done                     12/31/2018 08:30:47
00016 suncat0243 pw.x -in pw.inp   Done                     12/31/2018 08:30:47
00017 suncat0243 pw.x -in pw.inp   Done                     12/31/2018 08:30:47
00018 suncat0243 pw.x -in pw.inp   Done                     12/31/2018 08:30:47
00019 suncat0243 pw.x -in pw.inp   Done                     12/31/2018 08:30:47
00020 suncat0243 pw.x -in pw.inp   Done                     12/31/2018 08:30:47
00021 suncat0243 pw.x -in pw.inp   Done                     12/31/2018 08:30:47
00022 suncat0243 pw.x -in pw.inp   Done                     12/31/2018 08:30:47
00023 suncat0243 pw.x -in pw.inp   Done                     12/31/2018 08:30:47
00024 suncat0242 pw.x -in pw.inp   Done                     12/31/2018 08:30:47
00025 suncat0242 pw.x -in pw.inp   Done                     12/31/2018 08:30:47
00026 suncat0242 pw.x -in pw.inp   Done                     12/31/2018 08:30:47
00027 suncat0242 pw.x -in pw.inp   Done                     12/31/2018 08:30:47
00028 suncat0242 pw.x -in pw.inp   Done                     12/31/2018 08:30:47
00029 suncat0242 pw.x -in pw.inp   Done                     12/31/2018 08:30:47
00030 suncat0242 pw.x -in pw.inp   Done                     12/31/2018 08:30:47
00031 suncat0242 pw.x -in pw.inp   Done                     12/31/2018 08:30:47
00032 suncat0209 pw.x -in pw.inp   Done                     12/31/2018 08:30:47
00033 suncat0209 pw.x -in pw.inp   Done                     12/31/2018 08:30:47
00034 suncat0209 pw.x -in pw.inp   Done                     12/31/2018 08:30:47
00035 suncat0209 pw.x -in pw.inp   Done                     12/31/2018 08:30:47
00036 suncat0209 pw.x -in pw.inp   Done                     12/31/2018 08:30:47
00037 suncat0209 pw.x -in pw.inp   Done                     12/31/2018 08:30:47
00038 suncat0209 pw.x -in pw.inp   Done                     12/31/2018 08:30:47
00039 suncat0209 pw.x -in pw.inp   Done                     12/31/2018 08:30:47
00040 suncat0205 pw.x -in pw.inp   Done                     12/31/2018 08:30:47
00041 suncat0205 pw.x -in pw.inp   Done                     12/31/2018 08:30:47
00042 suncat0205 pw.x -in pw.inp   Done                     12/31/2018 08:30:47
00043 suncat0205 pw.x -in pw.inp   Done                     12/31/2018 08:30:47
00044 suncat0205 pw.x -in pw.inp   Done                     12/31/2018 08:30:47
00045 suncat0205 pw.x -in pw.inp   Done                     12/31/2018 08:30:47
00046 suncat0205 pw.x -in pw.inp   Done                     12/31/2018 08:30:47
00047 suncat0205 pw.x -in pw.inp   Done                     12/31/2018 08:30:47
00048 suncat0204 pw.x -in pw.inp   Done                     12/31/2018 08:30:47
00049 suncat0204 pw.x -in pw.inp   Done                     12/31/2018 08:30:47
00050 suncat0204 pw.x -in pw.inp   Done                     12/31/2018 08:30:47
00051 suncat0204 pw.x -in pw.inp   Done                     12/31/2018 08:30:47
00052 suncat0204 pw.x -in pw.inp   Done                     12/31/2018 08:30:47
00053 suncat0204 pw.x -in pw.inp   Done                     12/31/2018 08:30:47
00054 suncat0204 pw.x -in pw.inp   Done                     12/31/2018 08:30:47
00055 suncat0204 pw.x -in pw.inp   Done                     12/31/2018 08:30:47
00056 suncat0203 pw.x -in pw.inp   Done                     12/31/2018 08:30:47
00057 suncat0203 pw.x -in pw.inp   Done                     12/31/2018 08:30:47
00058 suncat0203 pw.x -in pw.inp   Done                     12/31/2018 08:30:47
00059 suncat0203 pw.x -in pw.inp   Done                     12/31/2018 08:30:47
00060 suncat0203 pw.x -in pw.inp   Done                     12/31/2018 08:30:47
00061 suncat0203 pw.x -in pw.inp   Done                     12/31/2018 08:30:47
00062 suncat0203 pw.x -in pw.inp   Done                     12/31/2018 08:30:47
00063 suncat0203 pw.x -in pw.inp   Done                     12/31/2018 08:30:47