     Program PWSCF v.5.1rc2 (svn rev. 11289) starts on 25Dec2018 at 15:52:44

     Current dimensions of program PWSCF are:
     Max number of different atomic species (ntypx) = 10
     Max number of k-points (npk) =  40000
     Max angular momentum in pseudopotentials (lmaxx) =  3
     Presently stress not available with electric field

     IMPORTANT: XC functional enforced from input :
     Exchange-correlation      = BEEF-VDW ( 1  4 27 13 2)
     Any further DFT definition will be discarded
     Please, verify this is what you really want

     Subspace diagonalization in iterative solution of the eigenvalue problem:
     a serial algorithm will be used

     bravais-lattice index     =            0
     lattice parameter (alat)  =       1.8897  a.u.
     unit-cell volume          =    3926.2281 (a.u.)^3
     number of atoms/cell      =           12
     number of atomic types    =            2
     number of electrons       =       216.00
     number of Kohn-Sham states=          138
     kinetic-energy cutoff     =      36.7493  Ry
     charge density cutoff     =     367.4932  Ry
     convergence threshold     =      1.0E-06
     mixing beta               =       0.1000
     number of iterations used =           10  plain     mixing
     Exchange-correlation      = BEEF-VDW ( 1  4 27 13 2)
     nstep                     =           50

     celldm(1)=   1.889726  celldm(2)=   0.000000  celldm(3)=   0.000000
     celldm(4)=   0.000000  celldm(5)=   0.000000  celldm(6)=   0.000000

     crystal axes: (cart. coord. in units of alat)
               a(1) = (   5.258687   0.000000   0.000000 )
               a(2) = (  -2.629343   4.554156   0.000000 )
               a(3) = (   0.000000   0.000000  24.293700 )

     reciprocal axes: (cart. coord. in units 2 pi/alat)
               b(1) = (  0.190162  0.109790  0.000000 )
               b(2) = (  0.000000  0.219580  0.000000 )
               b(3) = (  0.000000  0.000000  0.041163 )

     PseudoPot. # 1 for Cu read from file:
     /afs/slac.stanford.edu/u/if/mamunm/psp/gbrv1.5pbe/Cu.UPF
     MD5 check sum: 6e991ff952a84172a2a52a1c1e996048
     Pseudo is Ultrasoft + core correction, Zval = 19.0
     Generated by new atomic code, or converted to UPF format
     Using radial grid of  867 points,  6 beta functions with:
                l(1) =   0
                l(2) =   0
                l(3) =   1
                l(4) =   1
                l(5) =   2
                l(6) =   2
     Q(r) pseudized with  8 coefficients,  rinner =    1.150   1.150   1.150
                                                       1.150   1.150

     PseudoPot. # 2 for Ir read from file:
     /afs/slac.stanford.edu/u/if/mamunm/psp/gbrv1.5pbe/Ir.UPF
     MD5 check sum: 8836f839c3459d2b385c504ce6d91f2c
     Pseudo is Ultrasoft + core correction, Zval = 15.0
     Generated by new atomic code, or converted to UPF format
     Using radial grid of  983 points,  7 beta functions with:
                l(1) =   0
                l(2) =   0
                l(3) =   1
                l(4) =   1
                l(5) =   1
                l(6) =   2
                l(7) =   2
     Q(r) pseudized with  8 coefficients,  rinner =    1.400   1.400   1.400
                                                       1.400   1.400

     vdW kernel table read from file vdW_kernel_table
     MD5 check sum: 095c7af220d748ca6e76c0b4c6cfb241

     atomic species   valence    mass     pseudopotential
        Cu1           19.00    63.54600     Cu( 1.00)
        Ir1           15.00   192.21700     Ir( 1.00)

     No symmetry found

   Cartesian axes

     site n.     atom                  positions (alat units)
         1           Cu1 tau(   1) = (   0.0000000   0.0000000  10.0000000  )
         2           Cu1 tau(   2) = (  -1.3146717   2.2770782  10.0000000  )
         3           Cu1 tau(   3) = (   1.3146717   2.2770782  10.0000000  )
         4           Ir1 tau(   4) = (   2.6293434   0.0000000  10.0000000  )
         5           Cu1 tau(   5) = (   2.6293434   1.5180521  12.1468499  )
         6           Cu1 tau(   6) = (   1.3146717   3.7951304  12.1468499  )
         7           Cu1 tau(   7) = (  -1.3146717   3.7951304  12.1468499  )
         8           Ir1 tau(   8) = (   0.0000000   1.5180521  12.1468499  )
         9           Cu1 tau(   9) = (  -0.0000000   3.0361043  14.2936999  )
        10           Cu1 tau(  10) = (   1.3146717   0.7590261  14.2936999  )
        11           Cu1 tau(  11) = (   3.9440152   0.7590261  14.2936999  )
        12           Ir1 tau(  12) = (   2.6293434   3.0361043  14.2936999  )

     number of k points=    20  Fermi-Dirac smearing, width (Ry)=  0.0110
                       cart. coord. in units 2pi/alat
        k(    1) = (   0.0000000   0.0000000   0.0000000), wk =   0.0555556
        k(    2) = (   0.0000000   0.0365966   0.0000000), wk =   0.1111111
        k(    3) = (   0.0000000   0.0731932   0.0000000), wk =   0.1111111
        k(    4) = (   0.0000000  -0.1097898   0.0000000), wk =   0.0555556
        k(    5) = (   0.0316936   0.0182983   0.0000000), wk =   0.1111111
        k(    6) = (   0.0316936   0.0548949   0.0000000), wk =   0.1111111
        k(    7) = (   0.0316936   0.0914915   0.0000000), wk =   0.1111111
        k(    8) = (   0.0316936  -0.0914915   0.0000000), wk =   0.1111111
        k(    9) = (   0.0316936  -0.0548949   0.0000000), wk =   0.1111111
        k(   10) = (   0.0316936  -0.0182983   0.0000000), wk =   0.1111111
        k(   11) = (   0.0633872   0.0365966   0.0000000), wk =   0.1111111
        k(   12) = (   0.0633872   0.0731932   0.0000000), wk =   0.1111111
        k(   13) = (   0.0633872   0.1097898   0.0000000), wk =   0.1111111
        k(   14) = (   0.0633872  -0.0731932   0.0000000), wk =   0.1111111
        k(   15) = (   0.0633872  -0.0365966   0.0000000), wk =   0.1111111
        k(   16) = (   0.0633872   0.0000000   0.0000000), wk =   0.1111111
        k(   17) = (  -0.0950808  -0.0548949   0.0000000), wk =   0.0555556
        k(   18) = (  -0.0950808  -0.0182983   0.0000000), wk =   0.1111111
        k(   19) = (  -0.0950808   0.0182983   0.0000000), wk =   0.1111111
        k(   20) = (  -0.0950808  -0.1646847   0.0000000), wk =   0.0555556

     Largest allocated arrays     est. size (Mb)     dimensions
     Largest temporary arrays     est. size (Mb)     dimensions

     Initial potential from superposition of free atoms
     Check: negative starting charge=   -1.087342

     starting charge  205.49989, renormalised to  216.00000

     negative rho (up, down):  1.143E+00 0.000E+00

     *
     * You are using vdW-DF for exchange-correlation in this calculation.
     * Please cite the following three references that made this development
     * possible:
     *
     *   M. Dion, H. Rydberg, E. Schroder, D. C. Langreth, and
     *   B. I. Lundqvist, Phys. Rev. Lett. 92, 246401 (2004).
     *
     *   T. Thonhauser, V. R. Cooper, S. Li, A. Puzder, P. Hyldgaard, and
     *   D. C. Langreth, Phys. Rev. B 76, 125112 (2007).
     *
     *   G. Roman-Perez and J. M. Soler, Phys. Rev. Lett. 103, 096102 (2009).
     *
     *
     * If you are using vdW-DF2, please also cite:
     *
     *   K. Lee, E. D. Murray, L. Kong, B. I. Lundqvist, and
     *   D. C. Langreth, Phys. Rev. B 82, 081101(R) (2010).
     *
     *
     * If you are calculating the stress with vdW-DF, please also cite:
     *
     *   R. Sabatini, E. Kucukbenli, B. Kolb, T. Thonhauser, and
     *   S. de Gironcoli, J. Phys.: Condens. Matter 24, 424209 (2012).
     *

     Carrying out vdW-DF run using the following parameters:

     Nqs =      20    Nr_points =    1024   r_max =   100.000
     q_mesh =
               0.00001000     0.04494208     0.09755937     0.15916263
               0.23128650     0.31572767     0.41458969     0.53033537
               0.66584808     0.82450364     1.01025438     1.22772762
               1.48234092     1.78043706     2.12944203     2.53805004
               3.01644009     3.57652955     4.23227104     5.00000000

     Gradients computed in reciprocal space

     Adding external electric field

     Computed dipole along edir(3) :
        Dipole                0.0000 Ry au,          0.0000 Debye
        Dipole field          0.0000 Ry au

        Potential amp.       -0.0000 Ry
        Total length         44.7607 bohr

     Starting wfc are  153 randomized atomic wfcs

     Self-consistent Calculation

     iteration #  1     ecut=    36.75 Ry     beta=0.10
     Davidson diagonalization with overlap
     ethr =  1.00E-02,  avg # of iterations =  7.5

[...]

     total energy              =   -4189.76417768 Ry
     Harris-Foulkes estimate   =   -4202.40537510 Ry
     estimated scf accuracy    <      72.18465494 Ry

[...]

     End of self-consistent calculation

          k = 0.0000 0.0000 0.0000 ( 14837 PWs)   bands (ev):

  -111.6398-111.6352-111.6352-111.4724-111.4723-111.4678-111.4678-111.4678
  -111.4678 -69.0742 -69.0742 -69.0624 -69.0524 -69.0464 -69.0464 -68.9992
   -68.9616 -68.9616 -68.9315 -68.9315 -68.9293 -68.9293 -68.9098 -68.9095
   -68.9079 -68.9078 -68.8625 -68.8625 -68.8624 -68.8624 -68.7983 -68.7963
   -68.7897 -68.7897 -68.7888 -68.7888 -47.7950 -47.7238 -47.7238 -47.4948
   -47.4948 -47.4947 -47.4947 -47.4044 -47.4037  -7.4393  -5.5892  -4.4303
    -4.1082  -4.1082  -3.9789  -3.9789  -3.5981  -3.4378  -3.4378  -3.3579
    -3.3320  -3.3320  -3.2343  -2.9957  -2.5400  -2.5400  -2.3235  -2.0966
    -2.0966  -2.0363  -1.9859  -1.9063  -1.9063  -1.9031  -1.7936  -1.7762
    -1.7762  -1.6764  -1.6764  -1.6693  -1.6693  -1.5247  -1.5247  -1.2249
    -1.1679  -1.1120  -1.1119  -1.0967  -1.0967  -1.0560  -1.0560  -0.8588
    -0.7854  -0.7565  -0.7565  -0.7162  -0.6027  -0.5827  -0.2492  -0.0124
    -0.0124   0.0942   0.0942   0.2166   0.2166   0.3827   0.3827   0.5540
     0.5540   0.6962   0.8922   0.8922   1.1100   1.5264   1.8248   1.8248
     3.0240   3.1598   3.1598   3.2753   3.2753   3.3232   4.9625   5.2746
     5.6128   5.9395   6.5600   6.7332   6.7332   6.7872   6.9732   6.9732
     7.3158   7.6263   7.9945   7.9945   8.8746   9.2960  10.2359  10.3362
    10.4221  10.4221

[...]

          k =-0.0951-0.0549 0.0000 ( 14758 PWs)   bands (ev):

[...]

     the Fermi energy is     0.7123 ev

!    total energy              =   -4194.24893714 Ry
     Harris-Foulkes estimate   =   -4194.24893297 Ry
     estimated scf accuracy    <       0.00000052 Ry

     The total energy is the sum of the following terms:

     one-electron contribution =  -31773.22576816 Ry
     hartree contribution      =   15906.92789911 Ry
     xc contribution           =    -515.95246041 Ry
     ewald contribution        =   12188.06291165 Ry
     electric field correction =       0.00000001 Ry
     smearing contrib. (-TS)   =      -0.06151932 Ry

     convergence has been achieved in  20 iterations

 BEEF-vdW xc energy contributions
           1 :   -457.307626198223
           2 :    417.892127991106
           3 :   -350.171111393072
           4 :    271.406424208822
           5 :   -198.005823455991
           6 :    139.974246505597
           7 :   -99.1447177615819
[...]
                l(1) =   0
                l(2) =   0
                l(3) =   1
                l(4) =   1
                l(5) =   2
                l(6) =   2
     Q(r) pseudized with  8 coefficients,  rinner =    1.150   1.150   1.150
                                                       1.150   1.150

     PseudoPot. # 2 for Ir read from file:
     /afs/slac.stanford.edu/u/if/mamunm/psp/gbrv1.5pbe/Ir.UPF
     MD5 check sum: 8836f839c3459d2b385c504ce6d91f2c
     Pseudo is Ultrasoft + core correction, Zval = 15.0
     Generated by new atomic code, or converted to UPF format
     Using radial grid of  983 points,  7 beta functions with:
                l(1) =   0
                l(2) =   0
                l(3) =   1
                l(4) =   1
                l(5) =   1
                l(6) =   2
                l(7) =   2
     Q(r) pseudized with  8 coefficients,  rinner =    1.400   1.400   1.400
                                                       1.400   1.400

     vdW kernel table read from file vdW_kernel_table
     MD5 check sum: 095c7af220d748ca6e76c0b4c6cfb241

     atomic species   valence    mass     pseudopotential
        Cu1           19.00    63.54600     Cu( 1.00)
        Ir1           15.00   192.21700     Ir( 1.00)

     No symmetry found

   Cartesian axes

     site n.     atom                  positions (alat units)
         1           Cu1 tau(   1) = (   0.0000000   0.0000000  10.0000000  )
         2           Cu1 tau(   2) = (  -1.3146717   2.2770782  10.0000000  )
         3           Cu1 tau(   3) = (   1.3146717   2.2770782  10.0000000  )
         4           Ir1 tau(   4) = (   2.6293434   0.0000000  10.0000000  )
         5           Cu1 tau(   5) = (   2.6293434   1.5180521  12.1468499  )
         6           Cu1 tau(   6) = (   1.3146717   3.7951304  12.1468499  )
         7           Cu1 tau(   7) = (  -1.3146717   3.7951304  12.1468499  )
         8           Ir1 tau(   8) = (   0.0000000   1.5180521  12.1468499  )
         9           Cu1 tau(   9) = (  -0.0000039   3.0521180  14.3134083  )
        10           Cu1 tau(  10) = (   1.3285384   0.7510212  14.3134079  )
        11           Cu1 tau(  11) = (   3.9301509   0.7510168  14.3134168  )
        12           Ir1 tau(  12) = (   2.6293448   3.0361045  14.2051032  )

     number of k points=    20  Fermi-Dirac smearing, width (Ry)=  0.0110
                       cart. coord. in units 2pi/alat
        k(    1) = (   0.0000000   0.0000000   0.0000000), wk =   0.0555556
        k(    2) = (   0.0000000   0.0365966   0.0000000), wk =   0.1111111
        k(    3) = (   0.0000000   0.0731932   0.0000000), wk =   0.1111111
        k(    4) = (   0.0000000  -0.1097898   0.0000000), wk =   0.0555556
        k(    5) = (   0.0316936   0.0182983   0.0000000), wk =   0.1111111
        k(    6) = (   0.0316936   0.0548949   0.0000000), wk =   0.1111111
        k(    7) = (   0.0316936   0.0914915   0.0000000), wk =   0.1111111
        k(    8) = (   0.0316936  -0.0914915   0.0000000), wk =   0.1111111
        k(    9) = (   0.0316936  -0.0548949   0.0000000), wk =   0.1111111
        k(   10) = (   0.0316936  -0.0182983   0.0000000), wk =   0.1111111
        k(   11) = (   0.0633872   0.0365966   0.0000000), wk =   0.1111111
        k(   12) = (   0.0633872   0.0731932   0.0000000), wk =   0.1111111
        k(   13) = (   0.0633872   0.1097898   0.0000000), wk =   0.1111111
        k(   14) = (   0.0633872  -0.0731932   0.0000000), wk =   0.1111111
        k(   15) = (   0.0633872  -0.0365966   0.0000000), wk =   0.1111111
        k(   16) = (   0.0633872   0.0000000   0.0000000), wk =   0.1111111
        k(   17) = (  -0.0950808  -0.0548949   0.0000000), wk =   0.0555556
        k(   18) = (  -0.0950808  -0.0182983   0.0000000), wk =   0.1111111
        k(   19) = (  -0.0950808   0.0182983   0.0000000), wk =   0.1111111
        k(   20) = (  -0.0950808  -0.1646847   0.0000000), wk =   0.0555556

     Largest allocated arrays     est. size (Mb)     dimensions
     Largest temporary arrays     est. size (Mb)     dimensions

     Initial potential from superposition of free atoms
     Check: negative starting charge=   -1.086774

     starting charge  205.49989, renormalised to  216.00000

[...]

     *
     * You are using vdW-DF for exchange-correlation in this calculation.
     * Please cite the following three references that made this development
     * possible:
     *
     *   M. Dion, H. Rydberg, E. Schroder, D. C. Langreth, and
     *   B. I. Lundqvist, Phys. Rev. Lett. 92, 246401 (2004).
     *
     *   T. Thonhauser, V. R. Cooper, S. Li, A. Puzder, P. Hyldgaard, and
     *   D. C. Langreth, Phys. Rev. B 76, 125112 (2007).
     *
     *   G. Roman-Perez and J. M. Soler, Phys. Rev. Lett. 103, 096102 (2009).
     *
     *
     * If you are using vdW-DF2, please also cite:
     *
     *   K. Lee, E. D. Murray, L. Kong, B. I. Lundqvist, and
     *   D. C. Langreth, Phys. Rev. B 82, 081101(R) (2010).
     *
     *
     * If you are calculating the stress with vdW-DF, please also cite:
     *
     *   R. Sabatini, E. Kucukbenli, B. Kolb, T. Thonhauser, and
     *   S. de Gironcoli, J. Phys.: Condens. Matter 24, 424209 (2012).
     *

     Carrying out vdW-DF run using the following parameters:

     Nqs =      20    Nr_points =    1024   r_max =   100.000
     q_mesh =
               0.00001000     0.04494208     0.09755937     0.15916263
               0.23128650     0.31572767     0.41458969     0.53033537
               0.66584808     0.82450364     1.01025438     1.22772762
               1.48234092     1.78043706     2.12944203     2.53805004
               3.01644009     3.57652955     4.23227104     5.00000000

     Gradients computed in reciprocal space

[...]

     Starting wfc are  153 randomized atomic wfcs

     Self-consistent Calculation

[...]

     total energy              =   -4194.25164105 Ry
     Harris-Foulkes estimate   =   -4194.25163692 Ry
     estimated scf accuracy    <       0.00000187 Ry

     iteration # 18     ecut=    36.75 Ry     beta=0.10
     Davidson diagonalization with overlap
     ethr =  8.64E-10,  avg # of iterations =  2.3

[...]

     negative rho (up, down):  9.863E-01 0.000E+00

     Adding external electric field

     Computed dipole along edir(3) :
        Dipole                0.0026 Ry au,          0.0066 Debye
        Dipole field          0.0000 Ry au

        Potential amp.       -0.0007 Ry
        Total length         44.7607 bohr

     End of self-consistent calculation

[...]

          k = 0.0634 0.0000 0.0000 ( 14777 PWs)   bands (ev):

[...]

          k =-0.0951-0.1647 0.0000 ( 14758 PWs)   bands (ev):

  -111.6533-111.6518-111.6503-111.4616-111.4601-111.4586-111.4441-111.4424
  -111.4410 -69.0882 -69.0797 -69.0782 -69.0776 -69.0761 -69.0690 -68.9918
   -68.9806 -68.9674 -68.9209 -68.9132 -68.9081 -68.9063 -68.8988 -68.8931
   -68.8829 -68.8702 -68.8671 -68.8552 -68.8530 -68.8380 -68.7848 -68.7823
   -68.7792 -68.7643 -68.7618 -68.7590 -47.7851 -47.7226 -47.7218 -47.5445
   -47.5437 -47.4864 -47.4856 -47.4682 -47.3961  -5.7177  -5.5150  -4.2940
    -3.8911  -3.7094  -3.4988  -3.4185  -3.2706  -3.1797  -3.0110  -2.9896
    -2.7484  -2.7356  -2.7075  -2.6492  -2.5006  -2.4472  -2.3621  -2.3428
    -2.3041  -2.3030  -2.1957  -2.0263  -1.9687  -1.8516  -1.8417  -1.8335
    -1.8108  -1.8066  -1.7492  -1.7160  -1.7087  -1.6551  -1.6495  -1.6280
    -1.6199  -1.5806  -1.5513  -1.4932  -1.4658  -1.4160  -1.3406  -1.3357
    -1.2520  -1.1861  -1.1750  -0.9986  -0.9754  -0.9020  -0.8289  -0.8095
    -0.6813  -0.4414  -0.3581  -0.3505  -0.2575  -0.2420  -0.2017   0.0382
     0.1034   0.1185   0.2211   0.3381   0.8486   1.1878   1.7317   2.0551
     2.7566   2.9652   3.4356   4.4363   4.5674   5.2854   5.2964   6.5783
     6.6044   7.1409   7.1730   7.3492   7.3613   7.7939   8.3476   8.3804
     8.3983   8.4142   8.5641   8.7545   8.8828   8.9258   9.0787   9.7518
     9.9241   9.9405

     the Fermi energy is     0.7171 ev

!    total energy              =   -4194.25165136 Ry
     Harris-Foulkes estimate   =   -4194.25164120 Ry
     estimated scf accuracy    <       0.00000073 Ry

     The total energy is the sum of the following terms:

     one-electron contribution =  -31785.05953567 Ry
     hartree contribution      =   15912.88440490 Ry
     xc contribution           =    -515.97066823 Ry
     ewald contribution        =   12193.95499047 Ry
     electric field correction =       0.00000002 Ry
     smearing contrib. (-TS)   =      -0.06084286 Ry

     convergence has been achieved in  18 iterations

 BEEF-vdW xc energy contributions
           1 :   -457.327769805870
           2 :    417.923826625964
           3 :   -350.216611699060
           4 :    271.455723171807
           5 :   -198.041878751448
           6 :    139.983045071799
           7 :   -99.1240255938656
           8 :    71.2812275179128
           9 :   -50.4513635041759
          10 :    32.5028628472830
          11 :   -16.5537545953972
          12 :    3.90753828408759
          13 :    4.11989083268361
          14 :   -7.77659788481816
          15 :    8.89943477884850
          16 :   -9.67074428765613
          17 :    11.2161614471074
          18 :   -13.1013866353636
          19 :    14.0056025454618
          20 :   -12.9801808611045
          21 :    10.3272765188131
          22 :   -7.47864035626009
          23 :    6.01017111919566
          24 :   -6.54069968777787
          25 :    8.30813932864783
          26 :   -9.70905341347623
          27 :    9.40502550530982
          28 :   -7.22490002604627
          29 :    4.25568100572082
          30 :   -2.08799886736199
          31 :   -37.1683004330465
          32 :   -26.1514854873589

     Forces acting on atoms (Ry/au):

     negative rho (up, down):  9.863E-01 0.000E+00
     atom    1 type  1   force =    -0.00000130   -0.00470317   -0.00464192
     atom    2 type  1   force =    -0.00406993    0.00235220   -0.00464270
     atom    3 type  1   force =     0.00407213    0.00235084   -0.00464280
     atom    4 type  2   force =    -0.00000037   -0.00000023    0.02583653
     atom    5 type  1   force =    -0.00000045   -0.00652699   -0.00789333
     atom    6 type  1   force =    -0.00565433    0.00326299   -0.00789534
     atom    7 type  1   force =     0.00565417    0.00326335   -0.00789679
     atom    8 type  2   force =    -0.00000073   -0.00000020    0.00686198
     atom    9 type  1   force =     0.00000012    0.00004855    0.00108738
     atom   10 type  1   force =     0.00004238   -0.00002349    0.00108461
     atom   11 type  1   force =    -0.00004069   -0.00002366    0.00108185
     atom   12 type  2   force =    -0.00000099   -0.00000021    0.00166052

     Total force =     0.034157     Total SCF correction =     0.003662
     SCF correction compared to forces is large: reduce conv_thr to get better values

     entering subroutine stress ...

     negative rho (up, down):  9.863E-01 0.000E+00
          total   stress  (Ry/bohr**3)                   (kbar)     P=  -20.32
  -0.00016642  -0.00000000   0.00000000        -24.48     -0.00      0.00
  -0.00000000  -0.00016642   0.00000000         -0.00    -24.48      0.00
   0.00000000   0.00000000  -0.00008165          0.00      0.00    -12.01

 !ASE

     Writing output data file calc.save

     General routines

     Parallel routines

   This run was terminated on:  17: 3: 9  25Dec2018

   JOB DONE.
Job  /afs/slac/g/suncat/bin/suncat-tsmpirun -x LD_LIBRARY_PATH -wdir /scratch/qe109571_DFApV pw.x -in pw.inp

TID   HOST_NAME   COMMAND_LINE            STATUS            TERMINATION_TIME
00000 suncat0183 pw.x -in pw.inp   Done                     12/25/2018 17:03:09
00001 suncat0183 pw.x -in pw.inp   Done                     12/25/2018 17:03:09
00002 suncat0183 pw.x -in pw.inp   Done                     12/25/2018 17:03:09
00003 suncat0183 pw.x -in pw.inp   Done                     12/25/2018 17:03:09
00004 suncat0183 pw.x -in pw.inp   Done                     12/25/2018 17:03:09
00005 suncat0183 pw.x -in pw.inp   Done                     12/25/2018 17:03:09
00006 suncat0183 pw.x -in pw.inp   Done                     12/25/2018 17:03:09
00007 suncat0183 pw.x -in pw.inp   Done                     12/25/2018 17:03:09
00008 suncat0182 pw.x -in pw.inp   Done                     12/25/2018 17:03:09
00009 suncat0182 pw.x -in pw.inp   Done                     12/25/2018 17:03:09
00010 suncat0182 pw.x -in pw.inp   Done                     12/25/2018 17:03:09
00011 suncat0182 pw.x -in pw.inp   Done                     12/25/2018 17:03:09
00012 suncat0182 pw.x -in pw.inp   Done                     12/25/2018 17:03:09
00013 suncat0182 pw.x -in pw.inp   Done                     12/25/2018 17:03:09
00014 suncat0182 pw.x -in pw.inp   Done                     12/25/2018 17:03:09
00015 suncat0182 pw.x -in pw.inp   Done                     12/25/2018 17:03:09
00016 suncat0181 pw.x -in pw.inp   Done                     12/25/2018 17:03:09
00017 suncat0181 pw.x -in pw.inp   Done                     12/25/2018 17:03:09
00018 suncat0181 pw.x -in pw.inp   Done                     12/25/2018 17:03:09
00019 suncat0181 pw.x -in pw.inp   Done                     12/25/2018 17:03:09
00020 suncat0181 pw.x -in pw.inp   Done                     12/25/2018 17:03:09
00021 suncat0181 pw.x -in pw.inp   Done                     12/25/2018 17:03:09
00022 suncat0181 pw.x -in pw.inp   Done                     12/25/2018 17:03:09
00023 suncat0181 pw.x -in pw.inp   Done                     12/25/2018 17:03:09
00024 suncat0252 pw.x -in pw.inp   Done                     12/25/2018 17:03:09
00025 suncat0252 pw.x -in pw.inp   Done                     12/25/2018 17:03:09
00026 suncat0252 pw.x -in pw.inp   Done                     12/25/2018 17:03:09
00027 suncat0252 pw.x -in pw.inp   Done                     12/25/2018 17:03:09
00028 suncat0252 pw.x -in pw.inp   Done                     12/25/2018 17:03:09
00029 suncat0252 pw.x -in pw.inp   Done                     12/25/2018 17:03:09
00030 suncat0252 pw.x -in pw.inp   Done                     12/25/2018 17:03:09
00031 suncat0252 pw.x -in pw.inp   Done                     12/25/2018 17:03:09
00032 suncat0226 pw.x -in pw.inp   Done                     12/25/2018 17:03:09
00033 suncat0226 pw.x -in pw.inp   Done                     12/25/2018 17:03:09
00034 suncat0226 pw.x -in pw.inp   Done                     12/25/2018 17:03:09
00035 suncat0226 pw.x -in pw.inp   Done                     12/25/2018 17:03:09
00036 suncat0226 pw.x -in pw.inp   Done                     12/25/2018 17:03:09
00037 suncat0226 pw.x -in pw.inp   Done                     12/25/2018 17:03:09
00038 suncat0226 pw.x -in pw.inp   Done                     12/25/2018 17:03:09
00039 suncat0226 pw.x -in pw.inp   Done                     12/25/2018 17:03:09
00040 suncat0225 pw.x -in pw.inp   Done                     12/25/2018 17:03:09
00041 suncat0225 pw.x -in pw.inp   Done                     12/25/2018 17:03:09
00042 suncat0225 pw.x -in pw.inp   Done                     12/25/2018 17:03:09
00043 suncat0225 pw.x -in pw.inp   Done                     12/25/2018 17:03:09
00044 suncat0225 pw.x -in pw.inp   Done                     12/25/2018 17:03:09
00045 suncat0225 pw.x -in pw.inp   Done                     12/25/2018 17:03:09
00046 suncat0225 pw.x -in pw.inp   Done                     12/25/2018 17:03:09
00047 suncat0225 pw.x -in pw.inp   Done                     12/25/2018 17:03:09
00048 suncat0224 pw.x -in pw.inp   Done                     12/25/2018 17:03:09
00049 suncat0224 pw.x -in pw.inp   Done                     12/25/2018 17:03:09
00050 suncat0224 pw.x -in pw.inp   Done                     12/25/2018 17:03:09
00051 suncat0224 pw.x -in pw.inp   Done                     12/25/2018 17:03:09
00052 suncat0224 pw.x -in pw.inp   Done                     12/25/2018 17:03:09
00053 suncat0224 pw.x -in pw.inp   Done                     12/25/2018 17:03:09
00054 suncat0224 pw.x -in pw.inp   Done                     12/25/2018 17:03:09
00055 suncat0224 pw.x -in pw.inp   Done                     12/25/2018 17:03:09
00056 suncat0223 pw.x -in pw.inp   Done                     12/25/2018 17:03:09
00057 suncat0223 pw.x -in pw.inp   Done                     12/25/2018 17:03:09
00058 suncat0223 pw.x -in pw.inp   Done                     12/25/2018 17:03:09
00059 suncat0223 pw.x -in pw.inp   Done                     12/25/2018 17:03:09
00060 suncat0223 pw.x -in pw.inp   Done                     12/25/2018 17:03:09
00061 suncat0223 pw.x -in pw.inp   Done                     12/25/2018 17:03:09
00062 suncat0223 pw.x -in pw.inp   Done                     12/25/2018 17:03:09
00063 suncat0223 pw.x -in pw.inp   Done                     12/25/2018 17:03:09