     Program PWSCF v.5.1rc2 (svn rev. 11289) starts on  2Jan2019 at 18:39:25

     Current dimensions of program PWSCF are:
     Max number of different atomic species (ntypx) = 10
     Max number of k-points (npk) =  40000
     Max angular momentum in pseudopotentials (lmaxx) =  3
     Presently stress not available with electric field

     IMPORTANT: XC functional enforced from input :
     Exchange-correlation      = BEEF-VDW ( 1  4 27 13 2)
     Any further DFT definition will be discarded
     Please, verify this is what you really want

     Subspace diagonalization in iterative solution of the eigenvalue problem:
     a serial algorithm will be used

     bravais-lattice index     =            0
     lattice parameter (alat)  =       1.8897  a.u.
     unit-cell volume          =    5551.3739 (a.u.)^3
     number of atoms/cell      =           12
     number of atomic types    =            2
     number of electrons       =       219.00
     number of Kohn-Sham states=          139
     kinetic-energy cutoff     =      36.7493  Ry
     charge density cutoff     =     367.4932  Ry
     convergence threshold     =      1.0E-06
     mixing beta               =       0.1000
     number of iterations used =           10  plain     mixing
     Exchange-correlation      = BEEF-VDW ( 1  4 27 13 2)
     nstep                     =           50

     celldm(1)=   1.889726  celldm(2)=   0.000000  celldm(3)=   0.000000
     celldm(4)=   0.000000  celldm(5)=   0.000000  celldm(6)=   0.000000

     crystal axes: (cart. coord. in units of alat)
               a(1) = (   6.160371   0.000000   0.000000 )
               a(2) = (  -3.080186   5.335038   0.000000 )
               a(3) = (   0.000000   0.000000  25.029922 )

     reciprocal axes: (cart. coord. in units 2 pi/alat)
               b(1) = (  0.162328  0.093720  0.000000 )
               b(2) = (  0.000000  0.187440  0.000000 )
               b(3) = (  0.000000  0.000000  0.039952 )

     PseudoPot. # 1 for Zn read from file:
     /afs/slac.stanford.edu/u/if/mamunm/psp/gbrv1.5pbe/Zn.UPF
     MD5 check sum: df62231357ef9e81f77b2b3087fa5675
     Pseudo is Ultrasoft, Zval = 20.0
     Generated by new atomic code, or converted to UPF format
     Using radial grid of  943 points,  6 beta functions with:
                l(1) =   0
                l(2) =   0
                l(3) =   1
                l(4) =   1
                l(5) =   2
                l(6) =   2
     Q(r) pseudized with  8 coefficients,  rinner =    1.100   1.100   1.100
                                                       1.100   1.100

     PseudoPot. # 2 for Tl read from file:
     /afs/slac.stanford.edu/u/if/mamunm/psp/gbrv1.5pbe/Tl.UPF
     MD5 check sum: b76cf1f7e72655a2b2c53cf6385d7059
     Pseudo is Ultrasoft + core correction, Zval = 13.0
     Generated by new atomic code, or converted to UPF format
     Using radial grid of  899 points,  6 beta functions with:
                l(1) =   0
                l(2) =   0
                l(3) =   1
                l(4) =   1
                l(5) =   2
                l(6) =   2
     Q(r) pseudized with  6 coefficients,  rinner =    1.100   1.100   1.100
                                                       1.100   1.100

     vdW kernel table read from file vdW_kernel_table
     MD5 check sum: 095c7af220d748ca6e76c0b4c6cfb241

     atomic species   valence    mass     pseudopotential
        Zn1           20.00    65.38000     Zn( 1.00)
        Tl1           13.00   204.38000     Tl( 1.00)

     No symmetry found

   Cartesian axes

     site n.     atom                  positions (alat units)
         1           Zn1 tau(   1) = (   0.0000000   0.0000000  10.0000000  )
         2           Zn1 tau(   2) = (  -1.5400928   2.6675189  10.0000000  )
         3           Zn1 tau(   3) = (   1.5400928   2.6675189  10.0000000  )
         4           Tl1 tau(   4) = (   3.0801856   0.0000000  10.0000000  )
         5           Zn1 tau(   5) = (   3.0801856   1.7783460  12.5149610  )
         6           Zn1 tau(   6) = (   1.5400928   4.4458649  12.5149610  )
         7           Zn1 tau(   7) = (  -1.5400928   4.4458649  12.5149610  )
         8           Tl1 tau(   8) = (   0.0000000   1.7783460  12.5149610  )
         9           Zn1 tau(   9) = (  -0.0000000   3.5566919  15.0299219  )
        10           Zn1 tau(  10) = (   1.5400928   0.8891730  15.0299219  )
        11           Zn1 tau(  11) = (   4.6202783   0.8891730  15.0299219  )
        12           Tl1 tau(  12) = (   3.0801856   3.5566919  15.0299219  )

     number of k points=    20  Fermi-Dirac smearing, width (Ry)=  0.0110
                       cart. coord. in units 2pi/alat
        k(    1) = (   0.0000000   0.0000000   0.0000000), wk =   0.0555556
        k(    2) = (   0.0000000   0.0312400   0.0000000), wk =   0.1111111
        k(    3) = (   0.0000000   0.0624800   0.0000000), wk =   0.1111111
        k(    4) = (   0.0000000  -0.0937200   0.0000000), wk =   0.0555556
        k(    5) = (   0.0270546   0.0156200   0.0000000), wk =   0.1111111
        k(    6) = (   0.0270546   0.0468600   0.0000000), wk =   0.1111111
        k(    7) = (   0.0270546   0.0781000   0.0000000), wk =   0.1111111
        k(    8) = (   0.0270546  -0.0781000   0.0000000), wk =   0.1111111
        k(    9) = (   0.0270546  -0.0468600   0.0000000), wk =   0.1111111
        k(   10) = (   0.0270546  -0.0156200   0.0000000), wk =   0.1111111
        k(   11) = (   0.0541093   0.0312400   0.0000000), wk =   0.1111111
        k(   12) = (   0.0541093   0.0624800   0.0000000), wk =   0.1111111
        k(   13) = (   0.0541093   0.0937200   0.0000000), wk =   0.1111111
        k(   14) = (   0.0541093  -0.0624800   0.0000000), wk =   0.1111111
        k(   15) = (   0.0541093  -0.0312400   0.0000000), wk =   0.1111111
        k(   16) = (   0.0541093   0.0000000   0.0000000), wk =   0.1111111
        k(   17) = (  -0.0811639  -0.0468600   0.0000000), wk =   0.0555556
        k(   18) = (  -0.0811639  -0.0156200   0.0000000), wk =   0.1111111
        k(   19) = (  -0.0811639   0.0156200   0.0000000), wk =   0.1111111
        k(   20) = (  -0.0811639  -0.1405801   0.0000000), wk =   0.0555556

     Largest allocated arrays     est. size (Mb)     dimensions
     Largest temporary arrays     est. size (Mb)     dimensions

     Check: negative/imaginary core charge=   -0.000001    0.000000

     Initial potential from superposition of free atoms
     Check: negative starting charge=   -0.155941

     starting charge  218.98413, renormalised to  219.00000

     negative rho (up, down):  1.560E-01 0.000E+00

     *
     * You are using vdW-DF for exchange-correlation in this calculation.
     * Please cite the following three references that made this development
     * possible:
     *
     *   M. Dion, H. Rydberg, E. Schroder, D. C. Langreth, and
     *   B. I. Lundqvist, Phys. Rev. Lett. 92, 246401 (2004).
     *
     *   T. Thonhauser, V. R. Cooper, S. Li, A. Puzder, P. Hyldgaard, and
     *   D. C. Langreth, Phys. Rev. B 76, 125112 (2007).
     *
     *   G. Roman-Perez and J. M. Soler, Phys. Rev. Lett. 103, 096102 (2009).
     *
     *
     * If you are using vdW-DF2, please also cite:
     *
     *   K. Lee, E. D. Murray, L. Kong, B. I. Lundqvist, and
     *   D. C. Langreth, Phys. Rev. B 82, 081101(R) (2010).
     *
     *
     * If you are calculating the stress with vdW-DF, please also cite:
     *
     *   R. Sabatini, E. Kucukbenli, B. Kolb, T. Thonhauser, and
     *   S. de Gironcoli, J. Phys.: Condens. Matter 24, 424209 (2012).
     *

     Carrying out vdW-DF run using the following parameters:

     Nqs =      20    Nr_points =    1024   r_max =   100.000
     q_mesh =
               0.00001000     0.04494208     0.09755937     0.15916263
               0.23128650     0.31572767     0.41458969     0.53033537
               0.66584808     0.82450364     1.01025438     1.22772762
               1.48234092     1.78043706     2.12944203     2.53805004
               3.01644009     3.57652955     4.23227104     5.00000000

     Gradients computed in reciprocal space

     Adding external electric field

     Computed dipole along edir(3) :
        Dipole                0.0000 Ry au,          0.0000 Debye
        Dipole field          0.0000 Ry au

        Potential amp.       -0.0000 Ry
        Total length         46.1172 bohr

     Starting wfc are  144 randomized atomic wfcs

     Self-consistent Calculation

     iteration #  1     ecut=    36.75 Ry     beta=0.10
     Davidson diagonalization with overlap
     ethr =  1.00E-02,  avg # of iterations =  8.3

     Threshold (ethr) on eigenvalues was too large:
     Diagonalizing with lowered threshold

     Davidson diagonalization with overlap
     ethr =  4.06E-05,  avg # of iterations =  7.6

[...]

     total energy              =   -4605.19245744 Ry
     Harris-Foulkes estimate   =   -4605.20434378 Ry
     estimated scf accuracy    <       0.09319423 Ry

[...]

     End of self-consistent calculation

          k = 0.0000 0.0000 0.0000 ( 20863 PWs)   bands (ev):

  -126.1891-126.1890-126.1890-126.0745-126.0745-126.0744-126.0744-126.0744
  -126.0744 -80.3788 -80.3788 -80.3775 -80.3759 -80.3752 -80.3752 -80.3589
   -80.3565 -80.3565 -80.2661 -80.2660 -80.2657 -80.2657 -80.2655 -80.2655
   -80.2606 -80.2606 -80.2605 -80.2605 -80.2593 -80.2592 -80.2463 -80.2462
   -80.2436 -80.2436 -80.2436 -80.2436 -11.6602 -11.6551 -11.6551 -11.6317
   -11.6317 -11.4951 -11.4951 -11.4918 -11.4918 -11.4900 -11.4864 -11.4435
   -11.4435 -11.4358 -11.4358  -8.8394  -7.7457  -7.7097  -7.3816  -7.3140
    -7.2847  -7.2847  -7.2590  -7.2260  -7.2060  -7.2060  -7.1972  -7.1972
    -7.1386  -7.1385  -7.1118  -7.1021  -7.1021  -7.1015  -7.0252  -7.0252
    -7.0047  -7.0047  -6.9943  -6.9703  -6.9439  -6.9439  -6.9160  -6.9160
    -6.8979  -6.8827  -6.8827  -6.8506  -6.8506  -6.8391  -6.8391  -6.8270
    -6.8175  -6.8175  -6.8136  -6.8136  -6.7927  -6.7469  -6.7469  -6.6967
    -6.6950  -6.6920  -5.0144  -3.0613  -3.0426  -2.3466  -2.3466  -2.1797
    -2.1797  -1.7351  -1.2210  -1.0756  -1.0756  -0.7683  -0.5455  -0.5455
     0.7143   1.0031   1.0955   1.0955   1.4178   1.4178   2.1114   3.4804
     3.8659   4.4926   4.6293   4.6944   4.8376   4.8376   4.8577   4.9469
     4.9469   6.4132   6.7885   7.0440   7.1998   7.2061   7.2061   7.4257
     7.4257   7.8157   7.8861

[...]

          k =-0.0812-0.0469 0.0000 ( 20816 PWs)   bands (ev):

[...]

     the Fermi energy is     0.2331 ev

!    total energy              =   -4605.18890483 Ry
     Harris-Foulkes estimate   =   -4605.18891765 Ry
     estimated scf accuracy    <       0.00000028 Ry

     The total energy is the sum of the following terms:

     one-electron contribution =  -24252.40290236 Ry
     hartree contribution      =   12129.93964708 Ry
     xc contribution           =    -582.38977875 Ry
     ewald contribution        =    8099.68987778 Ry
     electric field correction =       0.00000000 Ry
     smearing contrib. (-TS)   =      -0.02574859 Ry

     convergence has been achieved in  12 iterations

 BEEF-vdW xc energy contributions
           1 :   -517.315630990626
[...]
                                                       1.100   1.100

     PseudoPot. # 2 for Tl read from file:
     /afs/slac.stanford.edu/u/if/mamunm/psp/gbrv1.5pbe/Tl.UPF
     MD5 check sum: b76cf1f7e72655a2b2c53cf6385d7059
     Pseudo is Ultrasoft + core correction, Zval = 13.0
     Generated by new atomic code, or converted to UPF format
     Using radial grid of  899 points,  6 beta functions with:
                l(1) =   0
                l(2) =   0
                l(3) =   1
                l(4) =   1
                l(5) =   2
                l(6) =   2
     Q(r) pseudized with  6 coefficients,  rinner =    1.100   1.100   1.100
                                                       1.100   1.100

     vdW kernel table read from file vdW_kernel_table
     MD5 check sum: 095c7af220d748ca6e76c0b4c6cfb241

     atomic species   valence    mass     pseudopotential
        Zn1           20.00    65.38000     Zn( 1.00)
        Tl1           13.00   204.38000     Tl( 1.00)

     No symmetry found

   Cartesian axes

     site n.     atom                  positions (alat units)
         1           Zn1 tau(   1) = (   0.0000000   0.0000000  10.0000000  )
         2           Zn1 tau(   2) = (  -1.5400928   2.6675189  10.0000000  )
         3           Zn1 tau(   3) = (   1.5400928   2.6675189  10.0000000  )
         4           Tl1 tau(   4) = (   3.0801856   0.0000000  10.0000000  )
         5           Zn1 tau(   5) = (   3.0801856   1.7783460  12.5149610  )
         6           Zn1 tau(   6) = (   1.5400928   4.4458649  12.5149610  )
         7           Zn1 tau(   7) = (  -1.5400928   4.4458649  12.5149610  )
         8           Tl1 tau(   8) = (   0.0000000   1.7783460  12.5149610  )
         9           Zn1 tau(   9) = (   0.0000572   3.7327421  14.9346190  )
        10           Zn1 tau(  10) = (   1.6925769   0.8012196  14.9345943  )
        11           Zn1 tau(  11) = (   4.4677672   0.8011294  14.9345817  )
        12           Tl1 tau(  12) = (   3.0801235   3.5566606  15.5179208  )

     number of k points=    20  Fermi-Dirac smearing, width (Ry)=  0.0110
                       cart. coord. in units 2pi/alat
        k(    1) = (   0.0000000   0.0000000   0.0000000), wk =   0.0555556
        k(    2) = (   0.0000000   0.0312400   0.0000000), wk =   0.1111111
        k(    3) = (   0.0000000   0.0624800   0.0000000), wk =   0.1111111
        k(    4) = (   0.0000000  -0.0937200   0.0000000), wk =   0.0555556
        k(    5) = (   0.0270546   0.0156200   0.0000000), wk =   0.1111111
        k(    6) = (   0.0270546   0.0468600   0.0000000), wk =   0.1111111
        k(    7) = (   0.0270546   0.0781000   0.0000000), wk =   0.1111111
        k(    8) = (   0.0270546  -0.0781000   0.0000000), wk =   0.1111111
        k(    9) = (   0.0270546  -0.0468600   0.0000000), wk =   0.1111111
        k(   10) = (   0.0270546  -0.0156200   0.0000000), wk =   0.1111111
        k(   11) = (   0.0541093   0.0312400   0.0000000), wk =   0.1111111
        k(   12) = (   0.0541093   0.0624800   0.0000000), wk =   0.1111111
        k(   13) = (   0.0541093   0.0937200   0.0000000), wk =   0.1111111
        k(   14) = (   0.0541093  -0.0624800   0.0000000), wk =   0.1111111
        k(   15) = (   0.0541093  -0.0312400   0.0000000), wk =   0.1111111
        k(   16) = (   0.0541093   0.0000000   0.0000000), wk =   0.1111111
        k(   17) = (  -0.0811639  -0.0468600   0.0000000), wk =   0.0555556
        k(   18) = (  -0.0811639  -0.0156200   0.0000000), wk =   0.1111111
        k(   19) = (  -0.0811639   0.0156200   0.0000000), wk =   0.1111111
        k(   20) = (  -0.0811639  -0.1405801   0.0000000), wk =   0.0555556

     Largest allocated arrays     est. size (Mb)     dimensions
     Largest temporary arrays     est. size (Mb)     dimensions

     Check: negative/imaginary core charge=   -0.000001    0.000000

     Initial potential from superposition of free atoms
     Check: negative starting charge=   -0.156010

     starting charge  218.98413, renormalised to  219.00000

[...]

     *
     * You are using vdW-DF for exchange-correlation in this calculation.
     * Please cite the following three references that made this development
     * possible:
     *
     *   M. Dion, H. Rydberg, E. Schroder, D. C. Langreth, and
     *   B. I. Lundqvist, Phys. Rev. Lett. 92, 246401 (2004).
     *
     *   T. Thonhauser, V. R. Cooper, S. Li, A. Puzder, P. Hyldgaard, and
     *   D. C. Langreth, Phys. Rev. B 76, 125112 (2007).
     *
     *   G. Roman-Perez and J. M. Soler, Phys. Rev. Lett. 103, 096102 (2009).
     *
     *
     * If you are using vdW-DF2, please also cite:
     *
     *   K. Lee, E. D. Murray, L. Kong, B. I. Lundqvist, and
     *   D. C. Langreth, Phys. Rev. B 82, 081101(R) (2010).
     *
     *
     * If you are calculating the stress with vdW-DF, please also cite:
     *
     *   R. Sabatini, E. Kucukbenli, B. Kolb, T. Thonhauser, and
     *   S. de Gironcoli, J. Phys.: Condens. Matter 24, 424209 (2012).
     *

     Carrying out vdW-DF run using the following parameters:

     Nqs =      20    Nr_points =    1024   r_max =   100.000
     q_mesh =
               0.00001000     0.04494208     0.09755937     0.15916263
               0.23128650     0.31572767     0.41458969     0.53033537
               0.66584808     0.82450364     1.01025438     1.22772762
               1.48234092     1.78043706     2.12944203     2.53805004
               3.01644009     3.57652955     4.23227104     5.00000000

     Gradients computed in reciprocal space

[...]

     Starting wfc are  144 randomized atomic wfcs

     Self-consistent Calculation

[...]

     Threshold (ethr) on eigenvalues was too large:
     Diagonalizing with lowered threshold

     Davidson diagonalization with overlap
     ethr =  3.94E-05,  avg # of iterations =  7.7

[...]

     total energy              =   -4605.22130601 Ry
     Harris-Foulkes estimate   =   -4605.22129309 Ry
     estimated scf accuracy    <       0.00000154 Ry

     iteration # 12     ecut=    36.75 Ry     beta=0.10
     Davidson diagonalization with overlap
     ethr =  7.05E-10,  avg # of iterations =  2.2

[...]

     negative rho (up, down):  1.628E-01 0.000E+00

     Adding external electric field

     Computed dipole along edir(3) :
        Dipole                0.0602 Ry au,          0.1530 Debye
        Dipole field          0.0001 Ry au

        Potential amp.       -0.0126 Ry
        Total length         46.1172 bohr

     End of self-consistent calculation

[...]

          k = 0.0541 0.0000 0.0000 ( 20881 PWs)   bands (ev):

[...]

          k =-0.0812-0.1406 0.0000 ( 20816 PWs)   bands (ev):

  -126.1214-126.1214-126.1213-126.0738-126.0733-126.0733-126.0038-126.0038
  -126.0037 -80.3113 -80.3109 -80.3107 -80.3037 -80.3036 -80.3033 -80.2917
   -80.2910 -80.2901 -80.2587 -80.2582 -80.2581 -80.2568 -80.2566 -80.2540
   -80.2538 -80.2476 -80.2471 -80.1956 -80.1954 -80.1953 -80.1903 -80.1898
   -80.1897 -80.1739 -80.1732 -80.1722 -11.5719 -11.5527 -11.5433 -11.5280
   -11.5229 -11.4340 -11.4323 -11.4191 -11.4150 -11.4146 -11.4096 -11.4062
   -11.4015 -11.3918 -11.3788  -7.7918  -7.4815  -7.3054  -7.2674  -7.2641
    -7.2243  -7.1985  -7.1943  -7.1822  -7.1686  -7.1301  -7.1205  -7.1183
    -7.0999  -7.0778  -7.0735  -7.0408  -7.0325  -7.0242  -7.0130  -6.9837
    -6.9475  -6.9438  -6.9288  -6.9242  -6.9177  -6.9167  -6.9070  -6.8842
    -6.8799  -6.8791  -6.8752  -6.8706  -6.8616  -6.8570  -6.8392  -6.8387
    -6.8208  -6.8105  -6.7911  -6.7791  -6.7648  -6.7523  -6.7238  -6.7012
    -6.6773  -6.6366  -5.9634  -5.2529  -4.3143  -3.5982  -3.5804  -2.6441
    -2.1225  -2.1051  -1.0035  -0.1197   0.4850   0.6972   1.5822   1.7723
     1.9776   2.1733   2.4018   3.1371   3.1754   3.1942   3.4138   3.4644
     4.1161   4.3289   4.5693   4.6791   4.7033   4.7926   5.1236   5.1830
     5.2984   5.5398   5.5702   5.6796   5.7689   5.8848   5.9304   6.1043
     6.1469   6.1552   6.2246

     the Fermi energy is     0.2800 ev

!    total energy              =   -4605.22130861 Ry
     Harris-Foulkes estimate   =   -4605.22130590 Ry
     estimated scf accuracy    <       0.00000040 Ry

     The total energy is the sum of the following terms:

     one-electron contribution =  -24228.56447773 Ry
     hartree contribution      =   12118.41654375 Ry
     xc contribution           =    -582.37744752 Ry
     ewald contribution        =    8087.33011257 Ry
     electric field correction =       0.00000821 Ry
     smearing contrib. (-TS)   =      -0.02604789 Ry

     convergence has been achieved in  12 iterations

 BEEF-vdW xc energy contributions
           1 :   -517.937055204179
           2 :    472.827987013586
           3 :   -396.321994070930
           4 :    309.306730186315
           5 :   -230.762962869646
           6 :    170.931760030786
           7 :   -129.799873578191
           8 :    100.715138178924
           9 :   -76.2531337022142
          10 :    52.6735875944462
          11 :   -30.7965643503492
          12 :    13.6647842431576
          13 :   -3.28526977330262
          14 :   -1.14767196473429
          15 :    2.61122762070943
          16 :   -4.11832024470368
          17 :    6.88984137628029
          18 :   -10.1072303030052
          19 :    12.1513773215627
          20 :   -12.1704293624010
          21 :    10.7535370891903
          22 :   -9.34516243932057
          23 :    9.03540234232685
          24 :   -9.76476778668530
          25 :    10.5303562269571
          26 :   -10.3287370278669
          27 :    9.00373097784086
          28 :   -7.32053561800433
          29 :    6.26509435920741
          30 :   -6.20190143990794
          31 :   -40.4671893014049
          32 :   -28.1519780874331

     Forces acting on atoms (Ry/au):

     negative rho (up, down):  1.628E-01 0.000E+00
     atom    1 type  1   force =     0.00000156   -0.00758207   -0.00055089
     atom    2 type  1   force =    -0.00656499    0.00379217   -0.00054951
     atom    3 type  1   force =     0.00656543    0.00379117   -0.00055071
     atom    4 type  2   force =    -0.00000033   -0.00000109   -0.01629718
     atom    5 type  1   force =     0.00000085    0.00948387    0.00396325
     atom    6 type  1   force =     0.00821366   -0.00474113    0.00396248
     atom    7 type  1   force =    -0.00821315   -0.00474213    0.00396458
     atom    8 type  2   force =    -0.00000147   -0.00000023    0.00791119
     atom    9 type  1   force =    -0.00001060   -0.00141961   -0.00014272
     atom   10 type  1   force =    -0.00123365    0.00070011   -0.00014291
     atom   11 type  1   force =     0.00123222    0.00071127   -0.00014273
     atom   12 type  2   force =     0.00001047    0.00000766   -0.00142485

     Total force =     0.028751     Total SCF correction =     0.003264
     SCF correction compared to forces is large: reduce conv_thr to get better values

     entering subroutine stress ...

     negative rho (up, down):  1.628E-01 0.000E+00
          total   stress  (Ry/bohr**3)                   (kbar)     P=   -8.18
  -0.00006995   0.00000000   0.00000000        -10.29      0.00      0.00
   0.00000000  -0.00006995   0.00000000          0.00    -10.29      0.00
   0.00000000   0.00000000  -0.00002684          0.00      0.00     -3.95

 !ASE

     Writing output data file calc.save

     General routines

     Parallel routines

   This run was terminated on:  20:58:10   2Jan2019

   JOB DONE.
Job  /afs/slac/g/suncat/bin/suncat-tsmpirun -x LD_LIBRARY_PATH -wdir /scratch/qe649518_zEf4n pw.x -in pw.inp

TID   HOST_NAME   COMMAND_LINE            STATUS            TERMINATION_TIME
00000 suncat0085 pw.x -in pw.inp   Done                     01/02/2019 20:58:10
00001 suncat0085 pw.x -in pw.inp   Done                     01/02/2019 20:58:10
00002 suncat0085 pw.x -in pw.inp   Done                     01/02/2019 20:58:10
00003 suncat0085 pw.x -in pw.inp   Done                     01/02/2019 20:58:10
00004 suncat0085 pw.x -in pw.inp   Done                     01/02/2019 20:58:10
00005 suncat0085 pw.x -in pw.inp   Done                     01/02/2019 20:58:10
00006 suncat0085 pw.x -in pw.inp   Done                     01/02/2019 20:58:10
00007 suncat0085 pw.x -in pw.inp   Done                     01/02/2019 20:58:10
00008 suncat0058 pw.x -in pw.inp   Done                     01/02/2019 20:58:10
00009 suncat0058 pw.x -in pw.inp   Done                     01/02/2019 20:58:10
00010 suncat0058 pw.x -in pw.inp   Done                     01/02/2019 20:58:10
00011 suncat0058 pw.x -in pw.inp   Done                     01/02/2019 20:58:10
00012 suncat0058 pw.x -in pw.inp   Done                     01/02/2019 20:58:10
00013 suncat0058 pw.x -in pw.inp   Done                     01/02/2019 20:58:10
00014 suncat0058 pw.x -in pw.inp   Done                     01/02/2019 20:58:10
00015 suncat0058 pw.x -in pw.inp   Done                     01/02/2019 20:58:10
00016 suncat0056 pw.x -in pw.inp   Done                     01/02/2019 20:58:10
00017 suncat0056 pw.x -in pw.inp   Done                     01/02/2019 20:58:10
00018 suncat0056 pw.x -in pw.inp   Done                     01/02/2019 20:58:10
00019 suncat0056 pw.x -in pw.inp   Done                     01/02/2019 20:58:10
00020 suncat0056 pw.x -in pw.inp   Done                     01/02/2019 20:58:10
00021 suncat0056 pw.x -in pw.inp   Done                     01/02/2019 20:58:10
00022 suncat0056 pw.x -in pw.inp   Done                     01/02/2019 20:58:10
00023 suncat0056 pw.x -in pw.inp   Done                     01/02/2019 20:58:10
00024 suncat0046 pw.x -in pw.inp   Done                     01/02/2019 20:58:10
00025 suncat0046 pw.x -in pw.inp   Done                     01/02/2019 20:58:10
00026 suncat0046 pw.x -in pw.inp   Done                     01/02/2019 20:58:10
00027 suncat0046 pw.x -in pw.inp   Done                     01/02/2019 20:58:10
00028 suncat0046 pw.x -in pw.inp   Done                     01/02/2019 20:58:10
00029 suncat0046 pw.x -in pw.inp   Done                     01/02/2019 20:58:10
00030 suncat0046 pw.x -in pw.inp   Done                     01/02/2019 20:58:10
00031 suncat0046 pw.x -in pw.inp   Done                     01/02/2019 20:58:10
00032 suncat0044 pw.x -in pw.inp   Done                     01/02/2019 20:58:10
00033 suncat0044 pw.x -in pw.inp   Done                     01/02/2019 20:58:10
00034 suncat0044 pw.x -in pw.inp   Done                     01/02/2019 20:58:10
00035 suncat0044 pw.x -in pw.inp   Done                     01/02/2019 20:58:10
00036 suncat0044 pw.x -in pw.inp   Done                     01/02/2019 20:58:10
00037 suncat0044 pw.x -in pw.inp   Done                     01/02/2019 20:58:10
00038 suncat0044 pw.x -in pw.inp   Done                     01/02/2019 20:58:10
00039 suncat0044 pw.x -in pw.inp   Done                     01/02/2019 20:58:10
00040 suncat0031 pw.x -in pw.inp   Done                     01/02/2019 20:58:10
00041 suncat0031 pw.x -in pw.inp   Done                     01/02/2019 20:58:10
00042 suncat0031 pw.x -in pw.inp   Done                     01/02/2019 20:58:10
00043 suncat0031 pw.x -in pw.inp   Done                     01/02/2019 20:58:10
00044 suncat0031 pw.x -in pw.inp   Done                     01/02/2019 20:58:10
00045 suncat0031 pw.x -in pw.inp   Done                     01/02/2019 20:58:10
00046 suncat0031 pw.x -in pw.inp   Done                     01/02/2019 20:58:10
00047 suncat0031 pw.x -in pw.inp   Done                     01/02/2019 20:58:10
00048 suncat0030 pw.x -in pw.inp   Done                     01/02/2019 20:58:10
00049 suncat0030 pw.x -in pw.inp   Done                     01/02/2019 20:58:10
00050 suncat0030 pw.x -in pw.inp   Done                     01/02/2019 20:58:10
00051 suncat0030 pw.x -in pw.inp   Done                     01/02/2019 20:58:10
00052 suncat0030 pw.x -in pw.inp   Done                     01/02/2019 20:58:10
00053 suncat0030 pw.x -in pw.inp   Done                     01/02/2019 20:58:10
00054 suncat0030 pw.x -in pw.inp   Done                     01/02/2019 20:58:10
00055 suncat0030 pw.x -in pw.inp   Done                     01/02/2019 20:58:10
00056 suncat0028 pw.x -in pw.inp   Done                     01/02/2019 20:58:10
00057 suncat0028 pw.x -in pw.inp   Done                     01/02/2019 20:58:10
00058 suncat0028 pw.x -in pw.inp   Done                     01/02/2019 20:58:10
00059 suncat0028 pw.x -in pw.inp   Done                     01/02/2019 20:58:10
00060 suncat0028 pw.x -in pw.inp   Done                     01/02/2019 20:58:10
00061 suncat0028 pw.x -in pw.inp   Done                     01/02/2019 20:58:10
00062 suncat0028 pw.x -in pw.inp   Done                     01/02/2019 20:58:10
00063 suncat0028 pw.x -in pw.inp   Done                     01/02/2019 20:58:10