     Program PWSCF v.5.1rc2 (svn rev. 11289) starts on 25Dec2018 at 12:31:17

     Current dimensions of program PWSCF are:
     Max number of different atomic species (ntypx) = 10
     Max number of k-points (npk) =  40000
     Max angular momentum in pseudopotentials (lmaxx) =  3
     Presently stress not available with electric field

     IMPORTANT: XC functional enforced from input :
     Exchange-correlation      = BEEF-VDW ( 1  4 27 13 2)
     Any further DFT definition will be discarded
     Please, verify this is what you really want

     Subspace diagonalization in iterative solution of the eigenvalue problem:
     a serial algorithm will be used

     bravais-lattice index     =            0
     lattice parameter (alat)  =       1.8897  a.u.
     unit-cell volume          =    3916.0185 (a.u.)^3
     number of atoms/cell      =           12
     number of atomic types    =            2
     number of electrons       =       174.00
     number of Kohn-Sham states=          117
     kinetic-energy cutoff     =      36.7493  Ry
     charge density cutoff     =     367.4932  Ry
     convergence threshold     =      1.0E-06
     mixing beta               =       0.1000
     number of iterations used =           10  plain     mixing
     Exchange-correlation      = BEEF-VDW ( 1  4 27 13 2)
     nstep                     =           50

     celldm(1)=   1.889726  celldm(2)=   0.000000  celldm(3)=   0.000000
     celldm(4)=   0.000000  celldm(5)=   0.000000  celldm(6)=   0.000000

     crystal axes: (cart. coord. in units of alat)
               a(1) = (   5.252400   0.000000   0.000000 )
               a(2) = (  -2.626200   4.548712   0.000000 )
               a(3) = (   0.000000   0.000000  24.288567 )

     reciprocal axes: (cart. coord. in units 2 pi/alat)
               b(1) = (  0.190389  0.109921  0.000000 )
               b(2) = (  0.000000  0.219842  0.000000 )
               b(3) = (  0.000000  0.000000  0.041172 )

     PseudoPot. # 1 for Cr read from file:
     /afs/slac.stanford.edu/u/if/mamunm/psp/gbrv1.5pbe/Cr.UPF
     MD5 check sum: 0d52af634a40206e4dee301ad30da4bf
     Pseudo is Ultrasoft + core correction, Zval = 14.0
     Generated by new atomic code, or converted to UPF format
     Using radial grid of  857 points,  6 beta functions with:
                l(1) =   0
                l(2) =   0
                l(3) =   1
                l(4) =   1
                l(5) =   2
                l(6) =   2
     Q(r) pseudized with  8 coefficients,  rinner =    0.950   0.950   0.950
                                                       0.950   0.950

     PseudoPot. # 2 for Pt read from file:
     /afs/slac.stanford.edu/u/if/mamunm/psp/gbrv1.5pbe/Pt.UPF
     MD5 check sum: f09d6de1a584b5a045c4fc126da2d0c4
     Pseudo is Ultrasoft + core correction, Zval = 16.0
     Generated by new atomic code, or converted to UPF format
     Using radial grid of  985 points,  6 beta functions with:
                l(1) =   0
                l(2) =   0
                l(3) =   1
                l(4) =   1
                l(5) =   2
                l(6) =   2
     Q(r) pseudized with  8 coefficients,  rinner =    1.300   1.300   1.300
                                                       1.300   1.300

     vdW kernel table read from file vdW_kernel_table
     MD5 check sum: 095c7af220d748ca6e76c0b4c6cfb241

     atomic species   valence    mass     pseudopotential
        Cr1           14.00    51.99610     Cr( 1.00)
        Pt1           16.00   195.08400     Pt( 1.00)

     No symmetry found

   Cartesian axes

     site n.     atom                  positions (alat units)
         1           Cr1 tau(   1) = (   0.0000000   0.0000000  10.0000000  )
         2           Cr1 tau(   2) = (  -1.3131000   2.2743560  10.0000000  )
         3           Cr1 tau(   3) = (   1.3131000   2.2743560  10.0000000  )
         4           Pt1 tau(   4) = (   2.6262001   0.0000000  10.0000000  )
         5           Cr1 tau(   5) = (   2.6262001   1.5162373  12.1442834  )
         6           Cr1 tau(   6) = (   1.3131000   3.7905933  12.1442834  )
         7           Cr1 tau(   7) = (  -1.3131000   3.7905933  12.1442834  )
         8           Pt1 tau(   8) = (   0.0000000   1.5162373  12.1442834  )
         9           Cr1 tau(   9) = (  -0.0000000   3.0324747  14.2885668  )
        10           Cr1 tau(  10) = (   1.3131000   0.7581187  14.2885668  )
        11           Cr1 tau(  11) = (   3.9393001   0.7581187  14.2885668  )
        12           Pt1 tau(  12) = (   2.6262001   3.0324747  14.2885668  )

     number of k points=    20  Fermi-Dirac smearing, width (Ry)=  0.0110
                       cart. coord. in units 2pi/alat
        k(    1) = (   0.0000000   0.0000000   0.0000000), wk =   0.0555556
        k(    2) = (   0.0000000   0.0366404   0.0000000), wk =   0.1111111
        k(    3) = (   0.0000000   0.0732808   0.0000000), wk =   0.1111111
        k(    4) = (   0.0000000  -0.1099212   0.0000000), wk =   0.0555556
        k(    5) = (   0.0317315   0.0183202   0.0000000), wk =   0.1111111
        k(    6) = (   0.0317315   0.0549606   0.0000000), wk =   0.1111111
        k(    7) = (   0.0317315   0.0916010   0.0000000), wk =   0.1111111
        k(    8) = (   0.0317315  -0.0916010   0.0000000), wk =   0.1111111
        k(    9) = (   0.0317315  -0.0549606   0.0000000), wk =   0.1111111
        k(   10) = (   0.0317315  -0.0183202   0.0000000), wk =   0.1111111
        k(   11) = (   0.0634630   0.0366404   0.0000000), wk =   0.1111111
        k(   12) = (   0.0634630   0.0732808   0.0000000), wk =   0.1111111
        k(   13) = (   0.0634630   0.1099212   0.0000000), wk =   0.1111111
        k(   14) = (   0.0634630  -0.0732808   0.0000000), wk =   0.1111111
        k(   15) = (   0.0634630  -0.0366404   0.0000000), wk =   0.1111111
        k(   16) = (   0.0634630   0.0000000   0.0000000), wk =   0.1111111
        k(   17) = (  -0.0951946  -0.0549606   0.0000000), wk =   0.0555556
        k(   18) = (  -0.0951946  -0.0183202   0.0000000), wk =   0.1111111
        k(   19) = (  -0.0951946   0.0183202   0.0000000), wk =   0.1111111
        k(   20) = (  -0.0951946  -0.1648818   0.0000000), wk =   0.0555556

     Largest allocated arrays     est. size (Mb)     dimensions
     Largest temporary arrays     est. size (Mb)     dimensions

     Check: negative/imaginary core charge=   -0.000003    0.000000

     Initial potential from superposition of free atoms
     Check: negative starting charge=   -0.559396

     starting charge  163.49983, renormalised to  174.00000

     negative rho (up, down):  5.953E-01 0.000E+00

     *
     * You are using vdW-DF for exchange-correlation in this calculation.
     * Please cite the following three references that made this development
     * possible:
     *
     *   M. Dion, H. Rydberg, E. Schroder, D. C. Langreth, and
     *   B. I. Lundqvist, Phys. Rev. Lett. 92, 246401 (2004).
     *
     *   T. Thonhauser, V. R. Cooper, S. Li, A. Puzder, P. Hyldgaard, and
     *   D. C. Langreth, Phys. Rev. B 76, 125112 (2007).
     *
     *   G. Roman-Perez and J. M. Soler, Phys. Rev. Lett. 103, 096102 (2009).
     *
     *
     * If you are using vdW-DF2, please also cite:
     *
     *   K. Lee, E. D. Murray, L. Kong, B. I. Lundqvist, and
     *   D. C. Langreth, Phys. Rev. B 82, 081101(R) (2010).
     *
     *
     * If you are calculating the stress with vdW-DF, please also cite:
     *
     *   R. Sabatini, E. Kucukbenli, B. Kolb, T. Thonhauser, and
     *   S. de Gironcoli, J. Phys.: Condens. Matter 24, 424209 (2012).
     *

     Carrying out vdW-DF run using the following parameters:

     Nqs =      20    Nr_points =    1024   r_max =   100.000
     q_mesh =
               0.00001000     0.04494208     0.09755937     0.15916263
               0.23128650     0.31572767     0.41458969     0.53033537
               0.66584808     0.82450364     1.01025438     1.22772762
               1.48234092     1.78043706     2.12944203     2.53805004
               3.01644009     3.57652955     4.23227104     5.00000000

     Gradients computed in reciprocal space

     Adding external electric field

     Computed dipole along edir(3) :
        Dipole                0.0000 Ry au,          0.0000 Debye
        Dipole field          0.0000 Ry au

        Potential amp.       -0.0000 Ry
        Total length         44.7513 bohr

     Starting wfc are  126 randomized atomic wfcs

     Self-consistent Calculation

     iteration #  1     ecut=    36.75 Ry     beta=0.10
     Davidson diagonalization with overlap
     ethr =  1.00E-02,  avg # of iterations =  7.2

[...]

     total energy              =   -2224.48228709 Ry
     Harris-Foulkes estimate   =   -2231.01188480 Ry
     estimated scf accuracy    <      38.87361520 Ry

[...]

     End of self-consistent calculation

          k = 0.0000 0.0000 0.0000 ( 14789 PWs)   bands (ev):

   -70.2845 -70.2137 -70.2135 -70.1946 -70.1844 -70.1320 -70.1319 -70.1294
   -70.1292 -52.1993 -52.1894 -52.1894 -51.7437 -51.7437 -51.7429 -51.7429
   -51.6586 -51.6559 -41.8238 -41.7264 -41.7091 -41.7090 -41.6434 -41.6433
   -41.6357 -41.6237 -41.5605 -41.5585 -41.5585 -41.5322 -41.5321 -41.5212
   -41.5212 -41.4604 -41.4134 -41.4133 -41.3690 -41.3517 -41.3267 -41.3055
   -41.3054 -41.1680 -41.1679 -41.1648 -41.1647  -6.2761  -4.5548  -4.0464
    -4.0463  -3.9466  -3.7384  -3.7384  -3.1695  -3.1695  -3.1304  -3.1304
    -3.1287  -2.9446  -2.3185  -2.3185  -2.0322  -1.8578  -1.8217  -1.8217
    -1.4045  -0.3017  -0.2862   0.0895   0.4403   0.4404   0.5961   0.5961
     0.6902   0.7861   0.7862   0.7905   0.7905   0.9971   1.0014   1.0015
     1.1962   1.5541   1.5541   1.6129   1.6700   1.6700   1.9271   1.9272
     1.9415   2.1791   2.4637   2.6065   2.6065   2.8742   2.8743   3.0281
     3.0282   3.1399   3.1399   3.1686   3.1707   3.1707   3.2442   3.3044
     3.3045   3.5291   3.5292   3.5983   3.5984   3.6138   3.7953   3.8413
     5.2882   5.2884   5.3123   5.3373   5.3374

[...]

          k =-0.0952-0.0550 0.0000 ( 14730 PWs)   bands (ev):

[...]

     the Fermi energy is     1.5555 ev

!    total energy              =   -2223.34218559 Ry
     Harris-Foulkes estimate   =   -2223.34218841 Ry
     estimated scf accuracy    <       0.00000092 Ry

     The total energy is the sum of the following terms:

     one-electron contribution =  -19556.60845111 Ry
     hartree contribution      =    9779.71727813 Ry
     xc contribution           =    -385.04037869 Ry
     ewald contribution        =    7938.70615071 Ry
     electric field correction =       0.00000000 Ry
     smearing contrib. (-TS)   =      -0.11678463 Ry

     convergence has been achieved in  27 iterations

 BEEF-vdW xc energy contributions
           1 :   -337.777486380574
           2 :    308.965905011492
           3 :   -259.506089175837
           4 :    202.113834068007
           5 :   -148.986273935452
           6 :    107.759800338063
           7 :   -80.1331752441920
           8 :    63.1981246221911
           9 :   -52.2544011084153
          10 :    43.4511651534088
          11 :   -35.1037658483588
          12 :    27.4622978790023
[...]
     MD5 check sum: 0d52af634a40206e4dee301ad30da4bf
     Pseudo is Ultrasoft + core correction, Zval = 14.0
     Generated by new atomic code, or converted to UPF format
     Using radial grid of  857 points,  6 beta functions with:
                l(1) =   0
                l(2) =   0
                l(3) =   1
                l(4) =   1
                l(5) =   2
                l(6) =   2
     Q(r) pseudized with  8 coefficients,  rinner =    0.950   0.950   0.950
                                                       0.950   0.950

     PseudoPot. # 2 for Pt read from file:
     /afs/slac.stanford.edu/u/if/mamunm/psp/gbrv1.5pbe/Pt.UPF
     MD5 check sum: f09d6de1a584b5a045c4fc126da2d0c4
     Pseudo is Ultrasoft + core correction, Zval = 16.0
     Generated by new atomic code, or converted to UPF format
     Using radial grid of  985 points,  6 beta functions with:
                l(1) =   0
                l(2) =   0
                l(3) =   1
                l(4) =   1
                l(5) =   2
                l(6) =   2
     Q(r) pseudized with  8 coefficients,  rinner =    1.300   1.300   1.300
                                                       1.300   1.300

     vdW kernel table read from file vdW_kernel_table
     MD5 check sum: 095c7af220d748ca6e76c0b4c6cfb241

     atomic species   valence    mass     pseudopotential
        Cr1           14.00    51.99610     Cr( 1.00)
        Pt1           16.00   195.08400     Pt( 1.00)

     No symmetry found

   Cartesian axes

     site n.     atom                  positions (alat units)
         1           Cr1 tau(   1) = (   0.0000000   0.0000000  10.0000000  )
         2           Cr1 tau(   2) = (  -1.3131000   2.2743560  10.0000000  )
         3           Cr1 tau(   3) = (   1.3131000   2.2743560  10.0000000  )
         4           Pt1 tau(   4) = (   2.6262001   0.0000000  10.0000000  )
         5           Cr1 tau(   5) = (   2.6262001   1.5162373  12.1442834  )
         6           Cr1 tau(   6) = (   1.3131000   3.7905933  12.1442834  )
         7           Cr1 tau(   7) = (  -1.3131000   3.7905933  12.1442834  )
         8           Pt1 tau(   8) = (   0.0000000   1.5162373  12.1442834  )
         9           Cr1 tau(   9) = (   0.0000047   3.0962248  14.1492715  )
        10           Cr1 tau(  10) = (   1.3682927   0.7262510  14.1492971  )
        11           Cr1 tau(  11) = (   3.8841114   0.7262550  14.1492567  )
        12           Pt1 tau(  12) = (   2.6262051   3.0324676  14.3318851  )

     number of k points=    20  Fermi-Dirac smearing, width (Ry)=  0.0110
                       cart. coord. in units 2pi/alat
        k(    1) = (   0.0000000   0.0000000   0.0000000), wk =   0.0555556
        k(    2) = (   0.0000000   0.0366404   0.0000000), wk =   0.1111111
        k(    3) = (   0.0000000   0.0732808   0.0000000), wk =   0.1111111
        k(    4) = (   0.0000000  -0.1099212   0.0000000), wk =   0.0555556
        k(    5) = (   0.0317315   0.0183202   0.0000000), wk =   0.1111111
        k(    6) = (   0.0317315   0.0549606   0.0000000), wk =   0.1111111
        k(    7) = (   0.0317315   0.0916010   0.0000000), wk =   0.1111111
        k(    8) = (   0.0317315  -0.0916010   0.0000000), wk =   0.1111111
        k(    9) = (   0.0317315  -0.0549606   0.0000000), wk =   0.1111111
        k(   10) = (   0.0317315  -0.0183202   0.0000000), wk =   0.1111111
        k(   11) = (   0.0634630   0.0366404   0.0000000), wk =   0.1111111
        k(   12) = (   0.0634630   0.0732808   0.0000000), wk =   0.1111111
        k(   13) = (   0.0634630   0.1099212   0.0000000), wk =   0.1111111
        k(   14) = (   0.0634630  -0.0732808   0.0000000), wk =   0.1111111
        k(   15) = (   0.0634630  -0.0366404   0.0000000), wk =   0.1111111
        k(   16) = (   0.0634630   0.0000000   0.0000000), wk =   0.1111111
        k(   17) = (  -0.0951946  -0.0549606   0.0000000), wk =   0.0555556
        k(   18) = (  -0.0951946  -0.0183202   0.0000000), wk =   0.1111111
        k(   19) = (  -0.0951946   0.0183202   0.0000000), wk =   0.1111111
        k(   20) = (  -0.0951946  -0.1648818   0.0000000), wk =   0.0555556

     Largest allocated arrays     est. size (Mb)     dimensions
     Largest temporary arrays     est. size (Mb)     dimensions

     Check: negative/imaginary core charge=   -0.000003    0.000000

     Initial potential from superposition of free atoms
     Check: negative starting charge=   -0.562671

     starting charge  163.49983, renormalised to  174.00000

[...]

     *
     * You are using vdW-DF for exchange-correlation in this calculation.
     * Please cite the following three references that made this development
     * possible:
     *
     *   M. Dion, H. Rydberg, E. Schroder, D. C. Langreth, and
     *   B. I. Lundqvist, Phys. Rev. Lett. 92, 246401 (2004).
     *
     *   T. Thonhauser, V. R. Cooper, S. Li, A. Puzder, P. Hyldgaard, and
     *   D. C. Langreth, Phys. Rev. B 76, 125112 (2007).
     *
     *   G. Roman-Perez and J. M. Soler, Phys. Rev. Lett. 103, 096102 (2009).
     *
     *
     * If you are using vdW-DF2, please also cite:
     *
     *   K. Lee, E. D. Murray, L. Kong, B. I. Lundqvist, and
     *   D. C. Langreth, Phys. Rev. B 82, 081101(R) (2010).
     *
     *
     * If you are calculating the stress with vdW-DF, please also cite:
     *
     *   R. Sabatini, E. Kucukbenli, B. Kolb, T. Thonhauser, and
     *   S. de Gironcoli, J. Phys.: Condens. Matter 24, 424209 (2012).
     *

     Carrying out vdW-DF run using the following parameters:

     Nqs =      20    Nr_points =    1024   r_max =   100.000
     q_mesh =
               0.00001000     0.04494208     0.09755937     0.15916263
               0.23128650     0.31572767     0.41458969     0.53033537
               0.66584808     0.82450364     1.01025438     1.22772762
               1.48234092     1.78043706     2.12944203     2.53805004
               3.01644009     3.57652955     4.23227104     5.00000000

     Gradients computed in reciprocal space

[...]

     Starting wfc are  126 randomized atomic wfcs

     Self-consistent Calculation

[...]

     total energy              =   -2223.35679843 Ry
     Harris-Foulkes estimate   =   -2223.35679891 Ry
     estimated scf accuracy    <       0.00000237 Ry

     iteration # 27     ecut=    36.75 Ry     beta=0.10
     Davidson diagonalization with overlap
     ethr =  1.36E-09,  avg # of iterations =  1.6

[...]

     negative rho (up, down):  5.308E-01 0.000E+00

     Adding external electric field

     Computed dipole along edir(3) :
        Dipole               -0.0120 Ry au,         -0.0305 Debye
        Dipole field         -0.0000 Ry au

        Potential amp.        0.0034 Ry
        Total length         44.7513 bohr

     End of self-consistent calculation

[...]

          k = 0.0635 0.0000 0.0000 ( 14749 PWs)   bands (ev):

[...]

          k =-0.0952-0.1649 0.0000 ( 14730 PWs)   bands (ev):

   -70.2928 -70.2704 -70.2419 -70.2213 -70.2044 -70.1841 -70.1545 -70.1253
   -70.1092 -52.3123 -52.3058 -52.3034 -51.7828 -51.7803 -51.6983 -51.6748
   -51.6724 -51.5652 -41.8062 -41.7553 -41.7454 -41.6910 -41.6903 -41.6730
   -41.6346 -41.6317 -41.6073 -41.5939 -41.5913 -41.5380 -41.5315 -41.5059
   -41.4845 -41.4784 -41.4622 -41.4511 -41.4149 -41.3970 -41.3600 -41.3343
   -41.3036 -41.3016 -41.2830 -41.2328 -41.1712  -4.9288  -4.2930  -3.7590
    -3.6388  -3.5926  -3.1961  -3.1211  -3.0049  -2.8754  -2.8235  -2.4464
    -2.4102  -2.3032  -2.2341  -2.1393  -2.0173  -1.9404  -1.6451  -1.5786
    -1.3483  -1.2555  -0.8957  -0.5649  -0.3914  -0.3387   0.0530   0.1458
     0.2198   0.3072   0.3454   0.4833   0.5024   0.5959   0.5963   0.7052
     0.8104   0.8590   0.8822   0.9659   1.0458   1.2990   1.3864   1.4598
     1.6596   1.6901   1.8324   1.9161   2.0019   2.0553   2.0674   2.0688
     2.2990   2.3963   2.4149   2.5260   2.5573   2.5863   2.8227   2.8368
     3.0060   3.2041   3.2416   3.3512   3.6331   4.0903   4.1487   4.9409
     5.1152   5.5422   5.6010   6.0336   6.1494

     the Fermi energy is     1.5174 ev

!    total energy              =   -2223.35679591 Ry
     Harris-Foulkes estimate   =   -2223.35679859 Ry
     estimated scf accuracy    <       0.00000068 Ry

     The total energy is the sum of the following terms:

     one-electron contribution =  -19799.09387663 Ry
     hartree contribution      =    9900.79029520 Ry
     xc contribution           =    -385.22877870 Ry
     ewald contribution        =    8060.28923000 Ry
     electric field correction =       0.00000046 Ry
     smearing contrib. (-TS)   =      -0.11366623 Ry

     convergence has been achieved in  27 iterations

 BEEF-vdW xc energy contributions
           1 :   -337.969776452137
           2 :    309.217439020332
           3 :   -259.819981980024
           4 :    202.422682158266
           5 :   -149.193034176910
           6 :    107.805745100159
           7 :   -80.0424258914001
           8 :    63.0664891068695
           9 :   -52.1904934194376
          10 :    43.5097941260595
          11 :   -35.2541470389130
          12 :    27.6105755687101
          13 :   -21.5958966390365
          14 :    17.8718249364533
          15 :   -16.1941946402617
          16 :    15.6468370169554
          17 :   -15.3109112508848
          18 :    14.8110108508604
          19 :   -14.3684054388841
          20 :    14.3917144012992
          21 :   -14.9737206933174
          22 :    15.6925675364500
          23 :   -15.8609956920099
          24 :    15.0192830396337
          25 :   -13.3010780229697
          26 :    11.4027020471679
          27 :   -10.1745741486546
          28 :    10.1038009741456
          29 :   -11.0212271854315
          30 :    12.2099239480291
          31 :   -30.6973081990251
          32 :   -22.3597982746231

     Forces acting on atoms (Ry/au):

     negative rho (up, down):  5.308E-01 0.000E+00
     atom    1 type  1   force =    -0.00000067   -0.00930524    0.02201106
     atom    2 type  1   force =    -0.00805927    0.00465235    0.02199492
     atom    3 type  1   force =     0.00806040    0.00465387    0.02200361
     atom    4 type  2   force =    -0.00000022    0.00000371   -0.01429472
     atom    5 type  1   force =    -0.00000147    0.00029667   -0.00634412
     atom    6 type  1   force =     0.00025834   -0.00015036   -0.00634753
     atom    7 type  1   force =    -0.00025794   -0.00014847   -0.00634678
     atom    8 type  2   force =     0.00000376   -0.00000244   -0.02904778
     atom    9 type  1   force =    -0.00000066    0.00180606   -0.00059597
     atom   10 type  1   force =     0.00156450   -0.00090433   -0.00061658
     atom   11 type  1   force =    -0.00156524   -0.00090416   -0.00060190
     atom   12 type  2   force =    -0.00000154    0.00000233   -0.00181421

     Total force =     0.053811     Total SCF correction =     0.002626

     entering subroutine stress ...

     negative rho (up, down):  5.308E-01 0.000E+00
          total   stress  (Ry/bohr**3)                   (kbar)     P=  -17.63
  -0.00014394   0.00000000  -0.00000000        -21.17      0.00     -0.00
   0.00000000  -0.00014394   0.00000002          0.00    -21.17      0.00
  -0.00000000   0.00000002  -0.00007164         -0.00      0.00    -10.54

 !ASE

     Writing output data file calc.save

     General routines

     Parallel routines

   This run was terminated on:  14:14:30  25Dec2018

   JOB DONE.
Job  /afs/slac/g/suncat/bin/suncat-tsmpirun -x LD_LIBRARY_PATH -wdir /scratch/qe109525_a0O8k pw.x -in pw.inp

TID   HOST_NAME   COMMAND_LINE            STATUS            TERMINATION_TIME
00000 suncat0024 pw.x -in pw.inp   Done                     12/25/2018 14:14:30
00001 suncat0024 pw.x -in pw.inp   Done                     12/25/2018 14:14:30
00002 suncat0024 pw.x -in pw.inp   Done                     12/25/2018 14:14:30
00003 suncat0024 pw.x -in pw.inp   Done                     12/25/2018 14:14:30
00004 suncat0024 pw.x -in pw.inp   Done                     12/25/2018 14:14:30
00005 suncat0024 pw.x -in pw.inp   Done                     12/25/2018 14:14:30
00006 suncat0024 pw.x -in pw.inp   Done                     12/25/2018 14:14:30
00007 suncat0024 pw.x -in pw.inp   Done                     12/25/2018 14:14:30
00008 suncat0023 pw.x -in pw.inp   Done                     12/25/2018 14:14:30
00009 suncat0023 pw.x -in pw.inp   Done                     12/25/2018 14:14:30
00010 suncat0023 pw.x -in pw.inp   Done                     12/25/2018 14:14:30
00011 suncat0023 pw.x -in pw.inp   Done                     12/25/2018 14:14:30
00012 suncat0023 pw.x -in pw.inp   Done                     12/25/2018 14:14:30
00013 suncat0023 pw.x -in pw.inp   Done                     12/25/2018 14:14:30
00014 suncat0023 pw.x -in pw.inp   Done                     12/25/2018 14:14:30
00015 suncat0023 pw.x -in pw.inp   Done                     12/25/2018 14:14:30
00016 suncat0022 pw.x -in pw.inp   Done                     12/25/2018 14:14:30
00017 suncat0022 pw.x -in pw.inp   Done                     12/25/2018 14:14:30
00018 suncat0022 pw.x -in pw.inp   Done                     12/25/2018 14:14:30
00019 suncat0022 pw.x -in pw.inp   Done                     12/25/2018 14:14:30
00020 suncat0022 pw.x -in pw.inp   Done                     12/25/2018 14:14:30
00021 suncat0022 pw.x -in pw.inp   Done                     12/25/2018 14:14:30
00022 suncat0022 pw.x -in pw.inp   Done                     12/25/2018 14:14:30
00023 suncat0022 pw.x -in pw.inp   Done                     12/25/2018 14:14:30
00024 suncat0018 pw.x -in pw.inp   Done                     12/25/2018 14:14:30
00025 suncat0018 pw.x -in pw.inp   Done                     12/25/2018 14:14:30
00026 suncat0018 pw.x -in pw.inp   Done                     12/25/2018 14:14:30
00027 suncat0018 pw.x -in pw.inp   Done                     12/25/2018 14:14:30
00028 suncat0018 pw.x -in pw.inp   Done                     12/25/2018 14:14:30
00029 suncat0018 pw.x -in pw.inp   Done                     12/25/2018 14:14:30
00030 suncat0018 pw.x -in pw.inp   Done                     12/25/2018 14:14:30
00031 suncat0018 pw.x -in pw.inp   Done                     12/25/2018 14:14:30
00032 suncat0017 pw.x -in pw.inp   Done                     12/25/2018 14:14:30
00033 suncat0017 pw.x -in pw.inp   Done                     12/25/2018 14:14:30
00034 suncat0017 pw.x -in pw.inp   Done                     12/25/2018 14:14:30
00035 suncat0017 pw.x -in pw.inp   Done                     12/25/2018 14:14:30
00036 suncat0017 pw.x -in pw.inp   Done                     12/25/2018 14:14:30
00037 suncat0017 pw.x -in pw.inp   Done                     12/25/2018 14:14:30
00038 suncat0017 pw.x -in pw.inp   Done                     12/25/2018 14:14:30
00039 suncat0017 pw.x -in pw.inp   Done                     12/25/2018 14:14:30
00040 suncat0016 pw.x -in pw.inp   Done                     12/25/2018 14:14:30
00041 suncat0016 pw.x -in pw.inp   Done                     12/25/2018 14:14:30
00042 suncat0016 pw.x -in pw.inp   Done                     12/25/2018 14:14:30
00043 suncat0016 pw.x -in pw.inp   Done                     12/25/2018 14:14:30
00044 suncat0016 pw.x -in pw.inp   Done                     12/25/2018 14:14:30
00045 suncat0016 pw.x -in pw.inp   Done                     12/25/2018 14:14:30
00046 suncat0016 pw.x -in pw.inp   Done                     12/25/2018 14:14:30
00047 suncat0016 pw.x -in pw.inp   Done                     12/25/2018 14:14:30
00048 suncat0014 pw.x -in pw.inp   Done                     12/25/2018 14:14:30
00049 suncat0014 pw.x -in pw.inp   Done                     12/25/2018 14:14:30
00050 suncat0014 pw.x -in pw.inp   Done                     12/25/2018 14:14:30
00051 suncat0014 pw.x -in pw.inp   Done                     12/25/2018 14:14:30
00052 suncat0014 pw.x -in pw.inp   Done                     12/25/2018 14:14:30
00053 suncat0014 pw.x -in pw.inp   Done                     12/25/2018 14:14:30
00054 suncat0014 pw.x -in pw.inp   Done                     12/25/2018 14:14:30
00055 suncat0014 pw.x -in pw.inp   Done                     12/25/2018 14:14:30
00056 suncat0198 pw.x -in pw.inp   Done                     12/25/2018 14:14:30
00057 suncat0198 pw.x -in pw.inp   Done                     12/25/2018 14:14:30
00058 suncat0198 pw.x -in pw.inp   Done                     12/25/2018 14:14:30
00059 suncat0198 pw.x -in pw.inp   Done                     12/25/2018 14:14:30
00060 suncat0198 pw.x -in pw.inp   Done                     12/25/2018 14:14:30
00061 suncat0198 pw.x -in pw.inp   Done                     12/25/2018 14:14:30
00062 suncat0198 pw.x -in pw.inp   Done                     12/25/2018 14:14:30
00063 suncat0198 pw.x -in pw.inp   Done                     12/25/2018 14:14:30