     Program PWSCF v.5.1rc2 (svn rev. 11289) starts on 31Dec2018 at  7:38: 9

     Current dimensions of program PWSCF are:
     Max number of different atomic species (ntypx) = 10
     Max number of k-points (npk) =  40000
     Max angular momentum in pseudopotentials (lmaxx) =  3
     Presently stress not available with electric field

     IMPORTANT: XC functional enforced from input :
     Exchange-correlation      = BEEF-VDW ( 1  4 27 13 2)
     Any further DFT definition will be discarded
     Please, verify this is what you really want

     Subspace diagonalization in iterative solution of the eigenvalue problem:
     a serial algorithm will be used

     bravais-lattice index     =            0
     lattice parameter (alat)  =       1.8897  a.u.
     unit-cell volume          =    4334.3905 (a.u.)^3
     number of atoms/cell      =           12
     number of atomic types    =            2
     number of electrons       =       186.00
     number of Kohn-Sham states=          123
     kinetic-energy cutoff     =      36.7493  Ry
     charge density cutoff     =     367.4932  Ry
     convergence threshold     =      1.0E-06
     mixing beta               =       0.1000
     number of iterations used =           10  plain     mixing
     Exchange-correlation      = BEEF-VDW ( 1  4 27 13 2)
     nstep                     =           50

     celldm(1)=   1.889726  celldm(2)=   0.000000  celldm(3)=   0.000000
     celldm(4)=   0.000000  celldm(5)=   0.000000  celldm(6)=   0.000000

     crystal axes: (cart. coord. in units of alat)
               a(1) = (   5.502748   0.000000   0.000000 )
               a(2) = (  -2.751374   4.765520   0.000000 )
               a(3) = (   0.000000   0.000000  24.492975 )

     reciprocal axes: (cart. coord. in units 2 pi/alat)
               b(1) = (  0.181727  0.104920  0.000000 )
               b(2) = (  0.000000  0.209841  0.000000 )
               b(3) = (  0.000000  0.000000  0.040828 )

     PseudoPot. # 1 for Os read from file:
     /afs/slac.stanford.edu/u/if/mamunm/psp/gbrv1.5pbe/Os.UPF
     MD5 check sum: a3fb40a04f0c37c25c34bbc47164c9a8
     Pseudo is Ultrasoft + core correction, Zval = 16.0
     Generated by new atomic code, or converted to UPF format
     Using radial grid of  983 points,  8 beta functions with:
                l(1) =   0
                l(2) =   0
                l(3) =   1
                l(4) =   1
                l(5) =   2
                l(6) =   2
                l(7) =   3
                l(8) =   3
     Q(r) pseudized with  8 coefficients,  rinner =    1.150   1.150   1.150
                                                       1.150   1.150   1.150
                                                       1.150

     PseudoPot. # 2 for Mo read from file:
     /afs/slac.stanford.edu/u/if/mamunm/psp/gbrv1.5pbe/Mo.UPF
     MD5 check sum: 30c4dcd161f5d35cd49bb5239c51a633
     Pseudo is Ultrasoft + core correction, Zval = 14.0
     Generated by new atomic code, or converted to UPF format
     Using radial grid of  889 points,  6 beta functions with:
                l(1) =   0
                l(2) =   0
                l(3) =   1
                l(4) =   1
                l(5) =   2
                l(6) =   2
     Q(r) pseudized with  6 coefficients,  rinner =    1.000   1.000   1.000
                                                       1.000   1.000

     vdW kernel table read from file vdW_kernel_table
     MD5 check sum: 095c7af220d748ca6e76c0b4c6cfb241

     atomic species   valence    mass     pseudopotential
        Os1           16.00   190.23000     Os( 1.00)
        Mo1           14.00    95.95000     Mo( 1.00)

     No symmetry found

   Cartesian axes

     site n.     atom                  positions (alat units)
         1           Os1 tau(   1) = (   0.0000000   0.0000000  10.0000000  )
         2           Os1 tau(   2) = (  -1.3756870   2.3827598  10.0000000  )
         3           Os1 tau(   3) = (   1.3756870   2.3827598  10.0000000  )
         4           Mo1 tau(   4) = (   2.7513741   0.0000000  10.0000000  )
         5           Os1 tau(   5) = (   2.7513741   1.5885066  12.2464875  )
         6           Os1 tau(   6) = (   1.3756870   3.9712664  12.2464875  )
         7           Os1 tau(   7) = (  -1.3756870   3.9712664  12.2464875  )
         8           Mo1 tau(   8) = (   0.0000000   1.5885066  12.2464875  )
         9           Os1 tau(   9) = (  -0.0000000   3.1770131  14.4929750  )
        10           Os1 tau(  10) = (   1.3756870   0.7942533  14.4929750  )
        11           Os1 tau(  11) = (   4.1270611   0.7942533  14.4929750  )
        12           Mo1 tau(  12) = (   2.7513741   3.1770131  14.4929750  )

     number of k points=    20  Fermi-Dirac smearing, width (Ry)=  0.0110
                       cart. coord. in units 2pi/alat
        k(    1) = (   0.0000000   0.0000000   0.0000000), wk =   0.0555556
        k(    2) = (   0.0000000   0.0349735   0.0000000), wk =   0.1111111
        k(    3) = (   0.0000000   0.0699469   0.0000000), wk =   0.1111111
        k(    4) = (   0.0000000  -0.1049204   0.0000000), wk =   0.0555556
        k(    5) = (   0.0302879   0.0174867   0.0000000), wk =   0.1111111
        k(    6) = (   0.0302879   0.0524602   0.0000000), wk =   0.1111111
        k(    7) = (   0.0302879   0.0874336   0.0000000), wk =   0.1111111
        k(    8) = (   0.0302879  -0.0874336   0.0000000), wk =   0.1111111
        k(    9) = (   0.0302879  -0.0524602   0.0000000), wk =   0.1111111
        k(   10) = (   0.0302879  -0.0174867   0.0000000), wk =   0.1111111
        k(   11) = (   0.0605758   0.0349735   0.0000000), wk =   0.1111111
        k(   12) = (   0.0605758   0.0699469   0.0000000), wk =   0.1111111
        k(   13) = (   0.0605758   0.1049204   0.0000000), wk =   0.1111111
        k(   14) = (   0.0605758  -0.0699469   0.0000000), wk =   0.1111111
        k(   15) = (   0.0605758  -0.0349735   0.0000000), wk =   0.1111111
        k(   16) = (   0.0605758   0.0000000   0.0000000), wk =   0.1111111
        k(   17) = (  -0.0908637  -0.0524602   0.0000000), wk =   0.0555556
        k(   18) = (  -0.0908637  -0.0174867   0.0000000), wk =   0.1111111
        k(   19) = (  -0.0908637   0.0174867   0.0000000), wk =   0.1111111
        k(   20) = (  -0.0908637  -0.1573805   0.0000000), wk =   0.0555556

     Largest allocated arrays     est. size (Mb)     dimensions
     Largest temporary arrays     est. size (Mb)     dimensions

     Initial potential from superposition of free atoms
     Check: negative starting charge=   -1.120623

     starting charge  181.49648, renormalised to  186.00000

     negative rho (up, down):  1.148E+00 0.000E+00

     *
     * You are using vdW-DF for exchange-correlation in this calculation.
     * Please cite the following three references that made this development
     * possible:
     *
     *   M. Dion, H. Rydberg, E. Schroder, D. C. Langreth, and
     *   B. I. Lundqvist, Phys. Rev. Lett. 92, 246401 (2004).
     *
     *   T. Thonhauser, V. R. Cooper, S. Li, A. Puzder, P. Hyldgaard, and
     *   D. C. Langreth, Phys. Rev. B 76, 125112 (2007).
     *
     *   G. Roman-Perez and J. M. Soler, Phys. Rev. Lett. 103, 096102 (2009).
     *
     *
     * If you are using vdW-DF2, please also cite:
     *
     *   K. Lee, E. D. Murray, L. Kong, B. I. Lundqvist, and
     *   D. C. Langreth, Phys. Rev. B 82, 081101(R) (2010).
     *
     *
     * If you are calculating the stress with vdW-DF, please also cite:
     *
     *   R. Sabatini, E. Kucukbenli, B. Kolb, T. Thonhauser, and
     *   S. de Gironcoli, J. Phys.: Condens. Matter 24, 424209 (2012).
     *

     Carrying out vdW-DF run using the following parameters:

     Nqs =      20    Nr_points =    1024   r_max =   100.000
     q_mesh =
               0.00001000     0.04494208     0.09755937     0.15916263
               0.23128650     0.31572767     0.41458969     0.53033537
               0.66584808     0.82450364     1.01025438     1.22772762
               1.48234092     1.78043706     2.12944203     2.53805004
               3.01644009     3.57652955     4.23227104     5.00000000

     Gradients computed in reciprocal space

     Adding external electric field

     Computed dipole along edir(3) :
        Dipole               -0.0000 Ry au,         -0.0000 Debye
        Dipole field         -0.0000 Ry au

        Potential amp.        0.0000 Ry
        Total length         45.1279 bohr

     Starting wfc are  156 randomized atomic wfcs

     Self-consistent Calculation

     iteration #  1     ecut=    36.75 Ry     beta=0.10
     Davidson diagonalization with overlap
     ethr =  1.00E-02,  avg # of iterations =  4.0

     Threshold (ethr) on eigenvalues was too large:
     Diagonalizing with lowered threshold

     Davidson diagonalization with overlap
     ethr =  8.93E-04,  avg # of iterations =  2.5

[...]

     total energy              =   -2218.14500866 Ry
     Harris-Foulkes estimate   =   -2218.39485000 Ry
     estimated scf accuracy    <       1.71611474 Ry

[...]

     End of self-consistent calculation

          k = 0.0000 0.0000 0.0000 ( 16211 PWs)   bands (ev):

   -84.0760 -84.0368 -84.0368 -83.6341 -83.6333 -83.5958 -83.5958 -83.5956
   -83.5956 -58.8110 -58.6373 -58.6368 -43.7037 -43.4981 -43.4981 -43.4818
   -43.3795 -43.3795 -43.2458 -43.2120 -43.1579 -43.0693 -43.0693 -43.0021
   -43.0021 -42.9439 -42.9439 -42.9269 -42.8643 -42.8643 -42.8432 -42.8141
   -42.8141 -42.6807 -42.6695 -42.6231 -42.6231 -42.6206 -42.6206 -32.8478
   -32.8478 -32.7821 -32.7598 -32.7403 -32.5836 -32.5836 -32.5786 -32.5786
    -5.9951  -4.1612  -3.8689  -3.5247  -3.5247  -3.3511  -3.2101  -3.2101
    -2.8605  -2.6251  -2.6251  -2.5465  -2.3530  -2.3530  -2.1805  -1.0291
    -0.8345  -0.8345  -0.1752  -0.1752  -0.0741   0.1846   0.2046   0.4820
     0.4820   0.6451   0.8843   0.8843   1.0736   1.0736   1.1613   1.1613
     1.2436   1.2436   1.7404   2.0014   2.5892   2.6546   2.6546   2.8958
     2.8967   2.8967   3.1193   3.1193   3.2746   3.9994   3.9994   4.1002
     4.1002   4.3650   4.4177   4.6403   4.6403   4.7643   5.0013   5.0013
     5.0681   5.0681   5.1407   5.6368   5.7109   5.7216   5.7216   6.1483
     6.1483   6.2652   6.2652   6.8351   6.8351   6.8427   7.1525   7.3575
     7.5212   7.5212   7.6099

[...]

          k =-0.0909-0.0525 0.0000 ( 16280 PWs)   bands (ev):

[...]

     the Fermi energy is     2.7405 ev

!    total energy              =   -2217.86748144 Ry
     Harris-Foulkes estimate   =   -2217.86747355 Ry
     estimated scf accuracy    <       0.00000065 Ry

     The total energy is the sum of the following terms:

     one-electron contribution =  -19603.31558176 Ry
     hartree contribution      =    9786.19401319 Ry
     xc contribution           =    -408.02069832 Ry
     ewald contribution        =    8007.35642142 Ry
     electric field correction =       0.00000001 Ry
     smearing contrib. (-TS)   =      -0.08163598 Ry

     convergence has been achieved in  14 iterations

 BEEF-vdW xc energy contributions
           1 :   -356.494129209672
           2 :    329.712228982979
           3 :   -282.615176369183
[...]
                l(3) =   1
                l(4) =   1
                l(5) =   2
                l(6) =   2
                l(7) =   3
                l(8) =   3
     Q(r) pseudized with  8 coefficients,  rinner =    1.150   1.150   1.150
                                                       1.150   1.150   1.150
                                                       1.150

     PseudoPot. # 2 for Mo read from file:
     /afs/slac.stanford.edu/u/if/mamunm/psp/gbrv1.5pbe/Mo.UPF
     MD5 check sum: 30c4dcd161f5d35cd49bb5239c51a633
     Pseudo is Ultrasoft + core correction, Zval = 14.0
     Generated by new atomic code, or converted to UPF format
     Using radial grid of  889 points,  6 beta functions with:
                l(1) =   0
                l(2) =   0
                l(3) =   1
                l(4) =   1
                l(5) =   2
                l(6) =   2
     Q(r) pseudized with  6 coefficients,  rinner =    1.000   1.000   1.000
                                                       1.000   1.000

     vdW kernel table read from file vdW_kernel_table
     MD5 check sum: 095c7af220d748ca6e76c0b4c6cfb241

     atomic species   valence    mass     pseudopotential
        Os1           16.00   190.23000     Os( 1.00)
        Mo1           14.00    95.95000     Mo( 1.00)

     No symmetry found

   Cartesian axes

     site n.     atom                  positions (alat units)
         1           Os1 tau(   1) = (   0.0000000   0.0000000  10.0000000  )
         2           Os1 tau(   2) = (  -1.3756870   2.3827598  10.0000000  )
         3           Os1 tau(   3) = (   1.3756870   2.3827598  10.0000000  )
         4           Mo1 tau(   4) = (   2.7513741   0.0000000  10.0000000  )
         5           Os1 tau(   5) = (   2.7513741   1.5885066  12.2464875  )
         6           Os1 tau(   6) = (   1.3756870   3.9712664  12.2464875  )
         7           Os1 tau(   7) = (  -1.3756870   3.9712664  12.2464875  )
         8           Mo1 tau(   8) = (   0.0000000   1.5885066  12.2464875  )
         9           Os1 tau(   9) = (  -0.0000086   3.1748601  14.3897309  )
        10           Os1 tau(  10) = (   1.3738211   0.7953256  14.3897249  )
        11           Os1 tau(  11) = (   4.1289263   0.7953327  14.3897303  )
        12           Mo1 tau(  12) = (   2.7513830   3.1770224  14.3862575  )

     number of k points=    20  Fermi-Dirac smearing, width (Ry)=  0.0110
                       cart. coord. in units 2pi/alat
        k(    1) = (   0.0000000   0.0000000   0.0000000), wk =   0.0555556
        k(    2) = (   0.0000000   0.0349735   0.0000000), wk =   0.1111111
        k(    3) = (   0.0000000   0.0699469   0.0000000), wk =   0.1111111
        k(    4) = (   0.0000000  -0.1049204   0.0000000), wk =   0.0555556
        k(    5) = (   0.0302879   0.0174867   0.0000000), wk =   0.1111111
        k(    6) = (   0.0302879   0.0524602   0.0000000), wk =   0.1111111
        k(    7) = (   0.0302879   0.0874336   0.0000000), wk =   0.1111111
        k(    8) = (   0.0302879  -0.0874336   0.0000000), wk =   0.1111111
        k(    9) = (   0.0302879  -0.0524602   0.0000000), wk =   0.1111111
        k(   10) = (   0.0302879  -0.0174867   0.0000000), wk =   0.1111111
        k(   11) = (   0.0605758   0.0349735   0.0000000), wk =   0.1111111
        k(   12) = (   0.0605758   0.0699469   0.0000000), wk =   0.1111111
        k(   13) = (   0.0605758   0.1049204   0.0000000), wk =   0.1111111
        k(   14) = (   0.0605758  -0.0699469   0.0000000), wk =   0.1111111
        k(   15) = (   0.0605758  -0.0349735   0.0000000), wk =   0.1111111
        k(   16) = (   0.0605758   0.0000000   0.0000000), wk =   0.1111111
        k(   17) = (  -0.0908637  -0.0524602   0.0000000), wk =   0.0555556
        k(   18) = (  -0.0908637  -0.0174867   0.0000000), wk =   0.1111111
        k(   19) = (  -0.0908637   0.0174867   0.0000000), wk =   0.1111111
        k(   20) = (  -0.0908637  -0.1573805   0.0000000), wk =   0.0555556

     Largest allocated arrays     est. size (Mb)     dimensions
     Largest temporary arrays     est. size (Mb)     dimensions

     Initial potential from superposition of free atoms
     Check: negative starting charge=   -1.118319

     starting charge  181.49648, renormalised to  186.00000

[...]

     *
     * You are using vdW-DF for exchange-correlation in this calculation.
     * Please cite the following three references that made this development
     * possible:
     *
     *   M. Dion, H. Rydberg, E. Schroder, D. C. Langreth, and
     *   B. I. Lundqvist, Phys. Rev. Lett. 92, 246401 (2004).
     *
     *   T. Thonhauser, V. R. Cooper, S. Li, A. Puzder, P. Hyldgaard, and
     *   D. C. Langreth, Phys. Rev. B 76, 125112 (2007).
     *
     *   G. Roman-Perez and J. M. Soler, Phys. Rev. Lett. 103, 096102 (2009).
     *
     *
     * If you are using vdW-DF2, please also cite:
     *
     *   K. Lee, E. D. Murray, L. Kong, B. I. Lundqvist, and
     *   D. C. Langreth, Phys. Rev. B 82, 081101(R) (2010).
     *
     *
     * If you are calculating the stress with vdW-DF, please also cite:
     *
     *   R. Sabatini, E. Kucukbenli, B. Kolb, T. Thonhauser, and
     *   S. de Gironcoli, J. Phys.: Condens. Matter 24, 424209 (2012).
     *

     Carrying out vdW-DF run using the following parameters:

     Nqs =      20    Nr_points =    1024   r_max =   100.000
     q_mesh =
               0.00001000     0.04494208     0.09755937     0.15916263
               0.23128650     0.31572767     0.41458969     0.53033537
               0.66584808     0.82450364     1.01025438     1.22772762
               1.48234092     1.78043706     2.12944203     2.53805004
               3.01644009     3.57652955     4.23227104     5.00000000

     Gradients computed in reciprocal space

[...]

     Starting wfc are  156 randomized atomic wfcs

     Self-consistent Calculation

[...]

     Threshold (ethr) on eigenvalues was too large:
     Diagonalizing with lowered threshold

     Davidson diagonalization with overlap
     ethr =  8.93E-04,  avg # of iterations =  2.8

[...]

     total energy              =   -2217.88164144 Ry
     Harris-Foulkes estimate   =   -2217.88164046 Ry
     estimated scf accuracy    <       0.00000338 Ry

     iteration # 17     ecut=    36.75 Ry     beta=0.10
     Davidson diagonalization with overlap
     ethr =  6.76E-10,  avg # of iterations =  1.0

[...]

     negative rho (up, down):  1.132E+00 0.000E+00

     Adding external electric field

     Computed dipole along edir(3) :
        Dipole                0.0319 Ry au,          0.0810 Debye
        Dipole field          0.0001 Ry au

        Potential amp.       -0.0083 Ry
        Total length         45.1279 bohr

     End of self-consistent calculation

[...]

          k = 0.0606 0.0000 0.0000 ( 16326 PWs)   bands (ev):

[...]

          k =-0.0909-0.1574 0.0000 ( 16280 PWs)   bands (ev):

   -84.0666 -84.0534 -84.0402 -83.6078 -83.5952 -83.5825 -83.5641 -83.5514
   -83.5387 -58.7719 -58.6173 -58.5546 -43.6114 -43.4839 -43.4597 -43.4161
   -43.3788 -43.3589 -43.3377 -43.3183 -43.1070 -43.0906 -43.0400 -42.9039
   -42.8737 -42.8598 -42.8478 -42.8388 -42.8322 -42.8226 -42.8123 -42.8028
   -42.7836 -42.7799 -42.7603 -42.7582 -42.7479 -42.6348 -42.5847 -32.8536
   -32.8339 -32.7497 -32.7367 -32.6733 -32.5865 -32.5684 -32.5490 -32.5301
    -4.4041  -4.0405  -2.7658  -2.7482  -2.5313  -2.4905  -2.3835  -2.3628
    -2.2629  -1.9187  -1.8198  -1.6842  -1.5562  -1.2702  -1.2302  -1.1469
    -1.0407  -0.8943  -0.7706  -0.5142  -0.4107  -0.2095   0.2028   0.2789
     0.3377   0.4208   0.4945   0.5646   0.6133   0.6438   0.7228   0.8231
     0.8847   0.9509   1.0988   1.1835   1.1962   1.3410   1.3600   1.5926
     1.8574   2.0618   2.0833   2.5002   2.5258   2.6448   2.6630   2.8960
     3.0800   3.1732   3.4348   3.4518   3.4655   3.5631   3.6258   3.8887
     4.1057   4.2312   4.5393   4.7401   5.1143   5.4009   5.4236   5.8890
     5.9256   6.0713   7.1996   7.6819   7.8591   7.9536   8.0664   8.1350
     8.7862   8.8069   9.1439

     the Fermi energy is     2.7676 ev

!    total energy              =   -2217.88164887 Ry
     Harris-Foulkes estimate   =   -2217.88164198 Ry
     estimated scf accuracy    <       0.00000028 Ry

     The total energy is the sum of the following terms:

     one-electron contribution =  -19896.85526438 Ry
     hartree contribution      =    9933.07168619 Ry
     xc contribution           =    -408.30661504 Ry
     ewald contribution        =    8154.28952119 Ry
     electric field correction =       0.00000294 Ry
     smearing contrib. (-TS)   =      -0.08097977 Ry

     convergence has been achieved in  17 iterations

 BEEF-vdW xc energy contributions
           1 :   -356.783016917797
           2 :    330.099826109325
           3 :   -283.142074608563
           4 :    226.410113799832
           5 :   -171.130429598663
           6 :    126.078995327700
           7 :   -95.6077913705785
           8 :    79.3059196199304
           9 :   -73.1807568589979
          10 :    71.7291117753256
          11 :   -70.0693068371997
          12 :    65.3878345551194
          13 :   -57.3407940905794
          14 :    47.4762293899163
          15 :   -38.0976283909088
          16 :    31.1005039643184
          17 :   -27.2318674393017
          18 :    25.9699395267870
          19 :   -25.9563736717663
          20 :    25.7007432266522
          21 :   -24.2199010855655
          22 :    21.3514104994389
          23 :   -17.6667641762218
          24 :    14.0836482730301
          25 :   -11.3919932436760
          26 :    9.91021046633676
          27 :   -9.40591153410429
          28 :    9.27775356476894
          29 :   -8.88271136167884
          30 :    7.83904058811873
          31 :   -34.7574758168976
          32 :   -26.5757960094961

     Forces acting on atoms (Ry/au):

     negative rho (up, down):  1.132E+00 0.000E+00
     atom    1 type  1   force =    -0.00000217    0.00067117    0.02365679
     atom    2 type  1   force =     0.00058275   -0.00033651    0.02365665
     atom    3 type  1   force =    -0.00058229   -0.00033360    0.02365635
     atom    4 type  2   force =     0.00000067    0.00000014    0.01774818
     atom    5 type  1   force =     0.00000169    0.00438062   -0.02403093
     atom    6 type  1   force =     0.00379395   -0.00218912   -0.02403228
     atom    7 type  1   force =    -0.00379482   -0.00219132   -0.02403098
     atom    8 type  2   force =    -0.00000053   -0.00000029   -0.02084555
     atom    9 type  1   force =     0.00000483    0.00035533    0.00075947
     atom   10 type  1   force =     0.00031002   -0.00017403    0.00076188
     atom   11 type  1   force =    -0.00030947   -0.00017890    0.00075883
     atom   12 type  2   force =    -0.00000464   -0.00000349    0.00194160

     Total force =     0.065006     Total SCF correction =     0.003803

     entering subroutine stress ...

     negative rho (up, down):  1.132E+00 0.000E+00
          total   stress  (Ry/bohr**3)                   (kbar)     P=  -26.66
  -0.00022475   0.00000000   0.00000000        -33.06      0.00      0.00
   0.00000000  -0.00022475  -0.00000000          0.00    -33.06     -0.00
   0.00000000  -0.00000000  -0.00009413          0.00     -0.00    -13.85

 !ASE

     Writing output data file calc.save

     General routines

     Parallel routines

   This run was terminated on:   8:28:10  31Dec2018

   JOB DONE.
Job  /afs/slac/g/suncat/bin/suncat-tsmpirun -x LD_LIBRARY_PATH -wdir /scratch/qe648703_fMrvf pw.x -in pw.inp

TID   HOST_NAME   COMMAND_LINE            STATUS            TERMINATION_TIME
00000 suncat0074 pw.x -in pw.inp   Done                     12/31/2018 08:28:10
00001 suncat0074 pw.x -in pw.inp   Done                     12/31/2018 08:28:10
00002 suncat0074 pw.x -in pw.inp   Done                     12/31/2018 08:28:10
00003 suncat0074 pw.x -in pw.inp   Done                     12/31/2018 08:28:10
00004 suncat0074 pw.x -in pw.inp   Done                     12/31/2018 08:28:10
00005 suncat0074 pw.x -in pw.inp   Done                     12/31/2018 08:28:10
00006 suncat0074 pw.x -in pw.inp   Done                     12/31/2018 08:28:10
00007 suncat0074 pw.x -in pw.inp   Done                     12/31/2018 08:28:10
00008 suncat0073 pw.x -in pw.inp   Done                     12/31/2018 08:28:10
00009 suncat0073 pw.x -in pw.inp   Done                     12/31/2018 08:28:10
00010 suncat0073 pw.x -in pw.inp   Done                     12/31/2018 08:28:10
00011 suncat0073 pw.x -in pw.inp   Done                     12/31/2018 08:28:10
00012 suncat0073 pw.x -in pw.inp   Done                     12/31/2018 08:28:10
00013 suncat0073 pw.x -in pw.inp   Done                     12/31/2018 08:28:10
00014 suncat0073 pw.x -in pw.inp   Done                     12/31/2018 08:28:10
00015 suncat0073 pw.x -in pw.inp   Done                     12/31/2018 08:28:10
00016 suncat0065 pw.x -in pw.inp   Done                     12/31/2018 08:28:10
00017 suncat0065 pw.x -in pw.inp   Done                     12/31/2018 08:28:10
00018 suncat0065 pw.x -in pw.inp   Done                     12/31/2018 08:28:10
00019 suncat0065 pw.x -in pw.inp   Done                     12/31/2018 08:28:10
00020 suncat0065 pw.x -in pw.inp   Done                     12/31/2018 08:28:10
00021 suncat0065 pw.x -in pw.inp   Done                     12/31/2018 08:28:10
00022 suncat0065 pw.x -in pw.inp   Done                     12/31/2018 08:28:10
00023 suncat0065 pw.x -in pw.inp   Done                     12/31/2018 08:28:10
00024 suncat0064 pw.x -in pw.inp   Done                     12/31/2018 08:28:10
00025 suncat0064 pw.x -in pw.inp   Done                     12/31/2018 08:28:10
00026 suncat0064 pw.x -in pw.inp   Done                     12/31/2018 08:28:10
00027 suncat0064 pw.x -in pw.inp   Done                     12/31/2018 08:28:10
00028 suncat0064 pw.x -in pw.inp   Done                     12/31/2018 08:28:10
00029 suncat0064 pw.x -in pw.inp   Done                     12/31/2018 08:28:10
00030 suncat0064 pw.x -in pw.inp   Done                     12/31/2018 08:28:10
00031 suncat0064 pw.x -in pw.inp   Done                     12/31/2018 08:28:10
00032 suncat0139 pw.x -in pw.inp   Done                     12/31/2018 08:28:10
00033 suncat0139 pw.x -in pw.inp   Done                     12/31/2018 08:28:10
00034 suncat0139 pw.x -in pw.inp   Done                     12/31/2018 08:28:10
00035 suncat0139 pw.x -in pw.inp   Done                     12/31/2018 08:28:10
00036 suncat0139 pw.x -in pw.inp   Done                     12/31/2018 08:28:10
00037 suncat0139 pw.x -in pw.inp   Done                     12/31/2018 08:28:10
00038 suncat0139 pw.x -in pw.inp   Done                     12/31/2018 08:28:10
00039 suncat0139 pw.x -in pw.inp   Done                     12/31/2018 08:28:10
00040 suncat0124 pw.x -in pw.inp   Done                     12/31/2018 08:28:10
00041 suncat0124 pw.x -in pw.inp   Done                     12/31/2018 08:28:10
00042 suncat0124 pw.x -in pw.inp   Done                     12/31/2018 08:28:10
00043 suncat0124 pw.x -in pw.inp   Done                     12/31/2018 08:28:10
00044 suncat0124 pw.x -in pw.inp   Done                     12/31/2018 08:28:10
00045 suncat0124 pw.x -in pw.inp   Done                     12/31/2018 08:28:10
00046 suncat0124 pw.x -in pw.inp   Done                     12/31/2018 08:28:10
00047 suncat0124 pw.x -in pw.inp   Done                     12/31/2018 08:28:10
00048 suncat0123 pw.x -in pw.inp   Done                     12/31/2018 08:28:10
00049 suncat0123 pw.x -in pw.inp   Done                     12/31/2018 08:28:10
00050 suncat0123 pw.x -in pw.inp   Done                     12/31/2018 08:28:10
00051 suncat0123 pw.x -in pw.inp   Done                     12/31/2018 08:28:10
00052 suncat0123 pw.x -in pw.inp   Done                     12/31/2018 08:28:10
00053 suncat0123 pw.x -in pw.inp   Done                     12/31/2018 08:28:10
00054 suncat0123 pw.x -in pw.inp   Done                     12/31/2018 08:28:10
00055 suncat0123 pw.x -in pw.inp   Done                     12/31/2018 08:28:10
00056 suncat0122 pw.x -in pw.inp   Done                     12/31/2018 08:28:10
00057 suncat0122 pw.x -in pw.inp   Done                     12/31/2018 08:28:10
00058 suncat0122 pw.x -in pw.inp   Done                     12/31/2018 08:28:10
00059 suncat0122 pw.x -in pw.inp   Done                     12/31/2018 08:28:10
00060 suncat0122 pw.x -in pw.inp   Done                     12/31/2018 08:28:10
00061 suncat0122 pw.x -in pw.inp   Done                     12/31/2018 08:28:10
00062 suncat0122 pw.x -in pw.inp   Done                     12/31/2018 08:28:10
00063 suncat0122 pw.x -in pw.inp   Done                     12/31/2018 08:28:10