     Program PWSCF v.5.1rc2 (svn rev. 11289) starts on 30Dec2018 at 16:33:35

     Current dimensions of program PWSCF are:
     Max number of different atomic species (ntypx) = 10
     Max number of k-points (npk) =  40000
     Max angular momentum in pseudopotentials (lmaxx) =  3
     Presently stress not available with electric field

     IMPORTANT: XC functional enforced from input :
     Exchange-correlation      = BEEF-VDW ( 1  4 27 13 2)
     Any further DFT definition will be discarded
     Please, verify this is what you really want

     Subspace diagonalization in iterative solution of the eigenvalue problem:
     a serial algorithm will be used

     bravais-lattice index     =            0
     lattice parameter (alat)  =       1.8897  a.u.
     unit-cell volume          =    4626.2805 (a.u.)^3
     number of atoms/cell      =           12
     number of atomic types    =            2
     number of electrons       =       159.00
     number of Kohn-Sham states=          109
     kinetic-energy cutoff     =      36.7493  Ry
     charge density cutoff     =     367.4932  Ry
     convergence threshold     =      1.0E-06
     mixing beta               =       0.1000
     number of iterations used =           10  plain     mixing
     Exchange-correlation      = BEEF-VDW ( 1  4 27 13 2)
     nstep                     =           50

     celldm(1)=   1.889726  celldm(2)=   0.000000  celldm(3)=   0.000000
     celldm(4)=   0.000000  celldm(5)=   0.000000  celldm(6)=   0.000000

     crystal axes: (cart. coord. in units of alat)
               a(1) = (   5.669298   0.000000   0.000000 )
               a(2) = (  -2.834649   4.909756   0.000000 )
               a(3) = (   0.000000   0.000000  24.628963 )

     reciprocal axes: (cart. coord. in units 2 pi/alat)
               b(1) = (  0.176389  0.101838  0.000000 )
               b(2) = (  0.000000  0.203676  0.000000 )
               b(3) = (  0.000000  0.000000  0.040603 )

     PseudoPot. # 1 for Mo read from file:
     /afs/slac.stanford.edu/u/if/mamunm/psp/gbrv1.5pbe/Mo.UPF
     MD5 check sum: 30c4dcd161f5d35cd49bb5239c51a633
     Pseudo is Ultrasoft + core correction, Zval = 14.0
     Generated by new atomic code, or converted to UPF format
     Using radial grid of  889 points,  6 beta functions with:
                l(1) =   0
                l(2) =   0
                l(3) =   1
                l(4) =   1
                l(5) =   2
                l(6) =   2
     Q(r) pseudized with  6 coefficients,  rinner =    1.000   1.000   1.000
                                                       1.000   1.000

     PseudoPot. # 2 for Au read from file:
     /afs/slac.stanford.edu/u/if/mamunm/psp/gbrv1.5pbe/Au.UPF
     MD5 check sum: 9d7f43293ad2c663164586bc4b293ffc
     Pseudo is Ultrasoft + core correction, Zval = 11.0
     Generated by new atomic code, or converted to UPF format
     Using radial grid of  985 points,  7 beta functions with:
                l(1) =   0
                l(2) =   0
                l(3) =   1
                l(4) =   1
                l(5) =   2
                l(6) =   2
                l(7) =   3
     Q(r) pseudized with  6 coefficients,  rinner =    1.900   1.900   1.900
                                                       1.900   1.900   1.900
                                                       1.900

     vdW kernel table read from file vdW_kernel_table
     MD5 check sum: 095c7af220d748ca6e76c0b4c6cfb241

     atomic species   valence    mass     pseudopotential
        Mo1           14.00    95.95000     Mo( 1.00)
        Au1           11.00   196.96657     Au( 1.00)

     No symmetry found

   Cartesian axes

     site n.     atom                  positions (alat units)
         1           Mo1 tau(   1) = (   0.0000000   0.0000000  10.0000000  )
         2           Mo1 tau(   2) = (  -1.4173246   2.4548781  10.0000000  )
         3           Mo1 tau(   3) = (   1.4173246   2.4548781  10.0000000  )
         4           Au1 tau(   4) = (   2.8346491   0.0000000  10.0000000  )
         5           Mo1 tau(   5) = (   2.8346491   1.6365854  12.3144813  )
         6           Mo1 tau(   6) = (   1.4173246   4.0914636  12.3144813  )
         7           Mo1 tau(   7) = (  -1.4173246   4.0914636  12.3144813  )
         8           Au1 tau(   8) = (   0.0000000   1.6365854  12.3144813  )
         9           Mo1 tau(   9) = (  -0.0000000   3.2731709  14.6289626  )
        10           Mo1 tau(  10) = (   1.4173246   0.8182927  14.6289626  )
        11           Mo1 tau(  11) = (   4.2519737   0.8182927  14.6289626  )
        12           Au1 tau(  12) = (   2.8346491   3.2731709  14.6289626  )

     number of k points=    20  Fermi-Dirac smearing, width (Ry)=  0.0110
                       cart. coord. in units 2pi/alat
        k(    1) = (   0.0000000   0.0000000   0.0000000), wk =   0.0555556
        k(    2) = (   0.0000000   0.0339460   0.0000000), wk =   0.1111111
        k(    3) = (   0.0000000   0.0678920   0.0000000), wk =   0.1111111
        k(    4) = (   0.0000000  -0.1018380   0.0000000), wk =   0.0555556
        k(    5) = (   0.0293981   0.0169730   0.0000000), wk =   0.1111111
        k(    6) = (   0.0293981   0.0509190   0.0000000), wk =   0.1111111
        k(    7) = (   0.0293981   0.0848650   0.0000000), wk =   0.1111111
        k(    8) = (   0.0293981  -0.0848650   0.0000000), wk =   0.1111111
        k(    9) = (   0.0293981  -0.0509190   0.0000000), wk =   0.1111111
        k(   10) = (   0.0293981  -0.0169730   0.0000000), wk =   0.1111111
        k(   11) = (   0.0587962   0.0339460   0.0000000), wk =   0.1111111
        k(   12) = (   0.0587962   0.0678920   0.0000000), wk =   0.1111111
        k(   13) = (   0.0587962   0.1018380   0.0000000), wk =   0.1111111
        k(   14) = (   0.0587962  -0.0678920   0.0000000), wk =   0.1111111
        k(   15) = (   0.0587962  -0.0339460   0.0000000), wk =   0.1111111
        k(   16) = (   0.0587962   0.0000000   0.0000000), wk =   0.1111111
        k(   17) = (  -0.0881943  -0.0509190   0.0000000), wk =   0.0555556
        k(   18) = (  -0.0881943  -0.0169730   0.0000000), wk =   0.1111111
        k(   19) = (  -0.0881943   0.0169730   0.0000000), wk =   0.1111111
        k(   20) = (  -0.0881943  -0.1527571   0.0000000), wk =   0.0555556

     Largest allocated arrays     est. size (Mb)     dimensions
     Largest temporary arrays     est. size (Mb)     dimensions

     Check: negative/imaginary core charge=   -0.000001    0.000000

     Initial potential from superposition of free atoms
     Check: negative starting charge=   -0.004582

     starting charge  158.99006, renormalised to  159.00000

     negative rho (up, down):  4.582E-03 0.000E+00

     *
     * You are using vdW-DF for exchange-correlation in this calculation.
     * Please cite the following three references that made this development
     * possible:
     *
     *   M. Dion, H. Rydberg, E. Schroder, D. C. Langreth, and
     *   B. I. Lundqvist, Phys. Rev. Lett. 92, 246401 (2004).
     *
     *   T. Thonhauser, V. R. Cooper, S. Li, A. Puzder, P. Hyldgaard, and
     *   D. C. Langreth, Phys. Rev. B 76, 125112 (2007).
     *
     *   G. Roman-Perez and J. M. Soler, Phys. Rev. Lett. 103, 096102 (2009).
     *
     *
     * If you are using vdW-DF2, please also cite:
     *
     *   K. Lee, E. D. Murray, L. Kong, B. I. Lundqvist, and
     *   D. C. Langreth, Phys. Rev. B 82, 081101(R) (2010).
     *
     *
     * If you are calculating the stress with vdW-DF, please also cite:
     *
     *   R. Sabatini, E. Kucukbenli, B. Kolb, T. Thonhauser, and
     *   S. de Gironcoli, J. Phys.: Condens. Matter 24, 424209 (2012).
     *

     Carrying out vdW-DF run using the following parameters:

     Nqs =      20    Nr_points =    1024   r_max =   100.000
     q_mesh =
               0.00001000     0.04494208     0.09755937     0.15916263
               0.23128650     0.31572767     0.41458969     0.53033537
               0.66584808     0.82450364     1.01025438     1.22772762
               1.48234092     1.78043706     2.12944203     2.53805004
               3.01644009     3.57652955     4.23227104     5.00000000

     Gradients computed in reciprocal space

     Adding external electric field

     Computed dipole along edir(3) :
        Dipole               -0.0000 Ry au,         -0.0000 Debye
        Dipole field         -0.0000 Ry au

        Potential amp.        0.0000 Ry
        Total length         45.3784 bohr

     Starting wfc are  144 randomized atomic wfcs

     Self-consistent Calculation

     iteration #  1     ecut=    36.75 Ry     beta=0.10
     Davidson diagonalization with overlap
     ethr =  1.00E-02,  avg # of iterations =  2.0

[...]

     total energy              =   -1609.05620317 Ry
     Harris-Foulkes estimate   =   -1610.35886326 Ry
     estimated scf accuracy    <       7.32287080 Ry

[...]

     End of self-consistent calculation

          k = 0.0000 0.0000 0.0000 ( 17471 PWs)   bands (ev):

   -59.3044 -59.1956 -59.1821 -59.1821 -59.1725 -59.0912 -59.0911 -59.0847
   -59.0846 -33.7994 -33.6189 -33.5757 -33.5604 -33.5604 -33.5233 -33.4986
   -33.4986 -33.3613 -33.3612 -33.2815 -33.1915 -33.1915 -33.1793 -33.1793
   -33.0996 -32.9706 -32.9705 -32.9637 -32.9533 -32.8875 -32.8714 -32.8714
   -32.7367 -32.7366 -32.7305 -32.7304  -5.4893  -4.3151  -4.3151  -4.2562
    -4.2241  -4.0455  -4.0455  -3.7731  -3.7294  -3.7294  -3.6538  -3.6538
    -3.5934  -2.9191  -2.9191  -2.8034  -2.8034  -2.6666  -2.4262  -1.8708
    -0.9425  -0.6032  -0.4993  -0.1484  -0.1484   0.0208   0.0208   0.3518
     0.3519   0.7132   0.7132   0.7979   0.9591   0.9592   1.0474   1.0474
     1.2784   1.4271   1.6547   1.6547   2.0763   2.3458   2.3458   2.5194
     2.5908   3.0095   3.5890   3.5890   3.6121   3.6121   3.6519   3.6519
     3.8620   3.8620   4.1825   4.1825   4.2096   4.2194   4.2195   4.3366
     4.3366   4.7800   4.7800   4.7839   5.6084   5.6515   5.8235   5.9448
     5.9584   6.0264   6.0264   6.0397   6.1947

[...]

          k =-0.0882-0.0509 0.0000 ( 17388 PWs)   bands (ev):

[...]

     the Fermi energy is     1.9248 ev

!    total energy              =   -1609.47658032 Ry
     Harris-Foulkes estimate   =   -1609.47657957 Ry
     estimated scf accuracy    <       0.00000068 Ry

     The total energy is the sum of the following terms:

     one-electron contribution =  -13294.67401481 Ry
     hartree contribution      =    6665.10226942 Ry
     xc contribution           =    -371.72284460 Ry
     ewald contribution        =    5391.90756066 Ry
     electric field correction =       0.00000000 Ry
     smearing contrib. (-TS)   =      -0.08955099 Ry

     convergence has been achieved in  16 iterations

 BEEF-vdW xc energy contributions
           1 :   -325.898369227892
           2 :    300.683488565473
           3 :   -256.446743851858
           4 :    203.206594028236
           5 :   -151.443540164453
           6 :    109.036615244974
           7 :   -79.5847294361672
           8 :    62.4202739968050
           9 :   -54.0013773825002
          10 :    49.8878679325550
          11 :   -46.4892889317522
[...]
     MD5 check sum: 30c4dcd161f5d35cd49bb5239c51a633
     Pseudo is Ultrasoft + core correction, Zval = 14.0
     Generated by new atomic code, or converted to UPF format
     Using radial grid of  889 points,  6 beta functions with:
                l(1) =   0
                l(2) =   0
                l(3) =   1
                l(4) =   1
                l(5) =   2
                l(6) =   2
     Q(r) pseudized with  6 coefficients,  rinner =    1.000   1.000   1.000
                                                       1.000   1.000

     PseudoPot. # 2 for Au read from file:
     /afs/slac.stanford.edu/u/if/mamunm/psp/gbrv1.5pbe/Au.UPF
     MD5 check sum: 9d7f43293ad2c663164586bc4b293ffc
     Pseudo is Ultrasoft + core correction, Zval = 11.0
     Generated by new atomic code, or converted to UPF format
     Using radial grid of  985 points,  7 beta functions with:
                l(1) =   0
                l(2) =   0
                l(3) =   1
                l(4) =   1
                l(5) =   2
                l(6) =   2
                l(7) =   3
     Q(r) pseudized with  6 coefficients,  rinner =    1.900   1.900   1.900
                                                       1.900   1.900   1.900
                                                       1.900

     vdW kernel table read from file vdW_kernel_table
     MD5 check sum: 095c7af220d748ca6e76c0b4c6cfb241

     atomic species   valence    mass     pseudopotential
        Mo1           14.00    95.95000     Mo( 1.00)
        Au1           11.00   196.96657     Au( 1.00)

     No symmetry found

   Cartesian axes

     site n.     atom                  positions (alat units)
         1           Mo1 tau(   1) = (   0.0000000   0.0000000  10.0000000  )
         2           Mo1 tau(   2) = (  -1.4173246   2.4548781  10.0000000  )
         3           Mo1 tau(   3) = (   1.4173246   2.4548781  10.0000000  )
         4           Au1 tau(   4) = (   2.8346491   0.0000000  10.0000000  )
         5           Mo1 tau(   5) = (   2.8346491   1.6365854  12.3144813  )
         6           Mo1 tau(   6) = (   1.4173246   4.0914636  12.3144813  )
         7           Mo1 tau(   7) = (  -1.4173246   4.0914636  12.3144813  )
         8           Au1 tau(   8) = (   0.0000000   1.6365854  12.3144813  )
         9           Mo1 tau(   9) = (   0.0000067   3.4002357  14.5114550  )
        10           Mo1 tau(  10) = (   1.5273726   0.7547594  14.5114492  )
        11           Mo1 tau(  11) = (   4.1419367   0.7547592  14.5114549  )
        12           Au1 tau(  12) = (   2.8346654   3.2731676  14.7726454  )

     number of k points=    20  Fermi-Dirac smearing, width (Ry)=  0.0110
                       cart. coord. in units 2pi/alat
        k(    1) = (   0.0000000   0.0000000   0.0000000), wk =   0.0555556
        k(    2) = (   0.0000000   0.0339460   0.0000000), wk =   0.1111111
        k(    3) = (   0.0000000   0.0678920   0.0000000), wk =   0.1111111
        k(    4) = (   0.0000000  -0.1018380   0.0000000), wk =   0.0555556
        k(    5) = (   0.0293981   0.0169730   0.0000000), wk =   0.1111111
        k(    6) = (   0.0293981   0.0509190   0.0000000), wk =   0.1111111
        k(    7) = (   0.0293981   0.0848650   0.0000000), wk =   0.1111111
        k(    8) = (   0.0293981  -0.0848650   0.0000000), wk =   0.1111111
        k(    9) = (   0.0293981  -0.0509190   0.0000000), wk =   0.1111111
        k(   10) = (   0.0293981  -0.0169730   0.0000000), wk =   0.1111111
        k(   11) = (   0.0587962   0.0339460   0.0000000), wk =   0.1111111
        k(   12) = (   0.0587962   0.0678920   0.0000000), wk =   0.1111111
        k(   13) = (   0.0587962   0.1018380   0.0000000), wk =   0.1111111
        k(   14) = (   0.0587962  -0.0678920   0.0000000), wk =   0.1111111
        k(   15) = (   0.0587962  -0.0339460   0.0000000), wk =   0.1111111
        k(   16) = (   0.0587962   0.0000000   0.0000000), wk =   0.1111111
        k(   17) = (  -0.0881943  -0.0509190   0.0000000), wk =   0.0555556
        k(   18) = (  -0.0881943  -0.0169730   0.0000000), wk =   0.1111111
        k(   19) = (  -0.0881943   0.0169730   0.0000000), wk =   0.1111111
        k(   20) = (  -0.0881943  -0.1527571   0.0000000), wk =   0.0555556

     Largest allocated arrays     est. size (Mb)     dimensions
     Largest temporary arrays     est. size (Mb)     dimensions

     Check: negative/imaginary core charge=   -0.000001    0.000000

     Initial potential from superposition of free atoms
     Check: negative starting charge=   -0.004440

     starting charge  158.99006, renormalised to  159.00000

[...]

     *
     * You are using vdW-DF for exchange-correlation in this calculation.
     * Please cite the following three references that made this development
     * possible:
     *
     *   M. Dion, H. Rydberg, E. Schroder, D. C. Langreth, and
     *   B. I. Lundqvist, Phys. Rev. Lett. 92, 246401 (2004).
     *
     *   T. Thonhauser, V. R. Cooper, S. Li, A. Puzder, P. Hyldgaard, and
     *   D. C. Langreth, Phys. Rev. B 76, 125112 (2007).
     *
     *   G. Roman-Perez and J. M. Soler, Phys. Rev. Lett. 103, 096102 (2009).
     *
     *
     * If you are using vdW-DF2, please also cite:
     *
     *   K. Lee, E. D. Murray, L. Kong, B. I. Lundqvist, and
     *   D. C. Langreth, Phys. Rev. B 82, 081101(R) (2010).
     *
     *
     * If you are calculating the stress with vdW-DF, please also cite:
     *
     *   R. Sabatini, E. Kucukbenli, B. Kolb, T. Thonhauser, and
     *   S. de Gironcoli, J. Phys.: Condens. Matter 24, 424209 (2012).
     *

     Carrying out vdW-DF run using the following parameters:

     Nqs =      20    Nr_points =    1024   r_max =   100.000
     q_mesh =
               0.00001000     0.04494208     0.09755937     0.15916263
               0.23128650     0.31572767     0.41458969     0.53033537
               0.66584808     0.82450364     1.01025438     1.22772762
               1.48234092     1.78043706     2.12944203     2.53805004
               3.01644009     3.57652955     4.23227104     5.00000000

     Gradients computed in reciprocal space

[...]

     Starting wfc are  144 randomized atomic wfcs

     Self-consistent Calculation

[...]

     total energy              =   -1609.50549437 Ry
     Harris-Foulkes estimate   =   -1609.50549363 Ry
     estimated scf accuracy    <       0.00000192 Ry

     iteration # 17     ecut=    36.75 Ry     beta=0.10
     Davidson diagonalization with overlap
     ethr =  1.21E-09,  avg # of iterations =  2.0

[...]

     negative rho (up, down):  4.378E-03 0.000E+00

     Adding external electric field

     Computed dipole along edir(3) :
        Dipole               -0.0356 Ry au,         -0.0906 Debye
        Dipole field         -0.0001 Ry au

        Potential amp.        0.0088 Ry
        Total length         45.3784 bohr

     End of self-consistent calculation

[...]

          k = 0.0588 0.0000 0.0000 ( 17441 PWs)   bands (ev):

[...]

          k =-0.0882-0.1528 0.0000 ( 17388 PWs)   bands (ev):

   -59.3078 -59.2760 -59.2219 -59.2192 -59.2015 -59.1669 -59.1294 -59.0369
   -59.0179 -33.7827 -33.6946 -33.6206 -33.5653 -33.5317 -33.4633 -33.4481
   -33.4465 -33.3846 -33.3541 -33.3165 -33.2660 -33.2646 -33.2486 -33.2012
   -33.1745 -33.1633 -33.0691 -33.0617 -32.9781 -32.9151 -32.8927 -32.8772
   -32.8658 -32.8407 -32.8314 -32.6673  -4.4097  -3.9094  -3.8539  -3.8238
    -3.7221  -3.6171  -3.4602  -3.3532  -3.3032  -3.2694  -3.0157  -2.9330
    -2.8594  -2.8251  -2.6458  -2.6058  -2.5387  -2.2287  -2.1344  -1.7502
    -1.4559  -1.4230  -0.7528  -0.6584  -0.5801  -0.2969  -0.1489  -0.1467
    -0.0690   0.0244   0.3158   0.4293   0.4387   0.5353   0.6951   0.8826
     0.9335   0.9552   1.1317   1.2494   1.3934   1.4372   1.5034   1.7352
     1.8165   1.9510   2.0345   2.0865   2.4411   2.6090   2.7113   3.0500
     3.1131   3.2016   3.2494   3.4599   3.5129   3.5289   3.6436   3.8100
     4.0702   4.5041   4.7653   4.8358   4.9915   5.3748   5.5008   6.0632
     6.4956   7.0503   7.1190   7.2530   7.4819

     the Fermi energy is     1.8514 ev

!    total energy              =   -1609.50549529 Ry
     Harris-Foulkes estimate   =   -1609.50549441 Ry
     estimated scf accuracy    <       0.00000075 Ry

     The total energy is the sum of the following terms:

     one-electron contribution =  -13418.90016245 Ry
     hartree contribution      =    6727.12316320 Ry
     xc contribution           =    -371.96771237 Ry
     ewald contribution        =    5454.32611057 Ry
     electric field correction =       0.00000345 Ry
     smearing contrib. (-TS)   =      -0.08689769 Ry

     convergence has been achieved in  17 iterations

 BEEF-vdW xc energy contributions
           1 :   -326.322740244666
           2 :    301.145586679174
           3 :   -256.958258528221
           4 :    203.736581050616
           5 :   -151.922479092691
           6 :    109.383033337576
           7 :   -79.7416211552505
           8 :    62.3840859981231
           9 :   -53.8312428576873
          10 :    49.6908582207585
          11 :   -46.3835814007639
          12 :    42.0671919987686
          13 :   -36.6375368596400
          14 :    31.0442955313849
          15 :   -26.3856951888217
          16 :    23.2074237815897
          17 :   -21.2692638901024
          18 :    19.7752675836404
          19 :   -17.8690233978172
          20 :    15.0930016626167
          21 :   -11.5880628024370
          22 :    7.96414383735555
          23 :   -4.95608008133098
          24 :    3.05802394069951
          25 :   -2.31527326541868
          26 :    2.34379583467307
          27 :   -2.53647820045558
          28 :    2.33197907164208
          29 :   -1.42305049364592
          30 :  -0.173325473974216
          31 :   -31.1650995623573
          32 :   -23.4401648524389

     Forces acting on atoms (Ry/au):

     negative rho (up, down):  4.378E-03 0.000E+00
     atom    1 type  1   force =     0.00000022   -0.01608544    0.02541651
     atom    2 type  1   force =    -0.01393077    0.00804295    0.02541792
     atom    3 type  1   force =     0.01393003    0.00804285    0.02541255
     atom    4 type  2   force =     0.00000110   -0.00000050   -0.02331122
     atom    5 type  1   force =     0.00000093    0.00818732   -0.01295752
     atom    6 type  1   force =     0.00709090   -0.00409286   -0.01295693
     atom    7 type  1   force =    -0.00709050   -0.00409394   -0.01295685
     atom    8 type  2   force =    -0.00000620   -0.00000160   -0.01504738
     atom    9 type  1   force =     0.00000201   -0.00027224    0.00035696
     atom   10 type  1   force =    -0.00023550    0.00013686    0.00035768
     atom   11 type  1   force =     0.00023861    0.00013591    0.00035872
     atom   12 type  2   force =    -0.00000083    0.00000070   -0.00009043

     Total force =     0.064725     Total SCF correction =     0.002273

     entering subroutine stress ...

     negative rho (up, down):  4.378E-03 0.000E+00
          total   stress  (Ry/bohr**3)                   (kbar)     P=  -13.61
  -0.00011562  -0.00000000  -0.00000000        -17.01     -0.00     -0.00
  -0.00000000  -0.00011562  -0.00000000         -0.00    -17.01     -0.00
  -0.00000000  -0.00000000  -0.00004639         -0.00     -0.00     -6.82

 !ASE

     Writing output data file calc.save

     General routines

     Parallel routines

   This run was terminated on:  18:10:46  30Dec2018

   JOB DONE.
Job  /afs/slac/g/suncat/bin/suncat-tsmpirun -x LD_LIBRARY_PATH -wdir /scratch/qe648590_NA6pi pw.x -in pw.inp

TID   HOST_NAME   COMMAND_LINE            STATUS            TERMINATION_TIME
00000 suncat0058 pw.x -in pw.inp   Done                     12/30/2018 18:10:46
00001 suncat0058 pw.x -in pw.inp   Done                     12/30/2018 18:10:46
00002 suncat0058 pw.x -in pw.inp   Done                     12/30/2018 18:10:46
00003 suncat0058 pw.x -in pw.inp   Done                     12/30/2018 18:10:46
00004 suncat0058 pw.x -in pw.inp   Done                     12/30/2018 18:10:46
00005 suncat0058 pw.x -in pw.inp   Done                     12/30/2018 18:10:46
00006 suncat0058 pw.x -in pw.inp   Done                     12/30/2018 18:10:46
00007 suncat0058 pw.x -in pw.inp   Done                     12/30/2018 18:10:46
00008 suncat0054 pw.x -in pw.inp   Done                     12/30/2018 18:10:46
00009 suncat0054 pw.x -in pw.inp   Done                     12/30/2018 18:10:46
00010 suncat0054 pw.x -in pw.inp   Done                     12/30/2018 18:10:46
00011 suncat0054 pw.x -in pw.inp   Done                     12/30/2018 18:10:46
00012 suncat0054 pw.x -in pw.inp   Done                     12/30/2018 18:10:46
00013 suncat0054 pw.x -in pw.inp   Done                     12/30/2018 18:10:46
00014 suncat0054 pw.x -in pw.inp   Done                     12/30/2018 18:10:46
00015 suncat0054 pw.x -in pw.inp   Done                     12/30/2018 18:10:46
00016 suncat0180 pw.x -in pw.inp   Done                     12/30/2018 18:10:46
00017 suncat0180 pw.x -in pw.inp   Done                     12/30/2018 18:10:46
00018 suncat0180 pw.x -in pw.inp   Done                     12/30/2018 18:10:46
00019 suncat0180 pw.x -in pw.inp   Done                     12/30/2018 18:10:46
00020 suncat0180 pw.x -in pw.inp   Done                     12/30/2018 18:10:46
00021 suncat0180 pw.x -in pw.inp   Done                     12/30/2018 18:10:46
00022 suncat0180 pw.x -in pw.inp   Done                     12/30/2018 18:10:46
00023 suncat0180 pw.x -in pw.inp   Done                     12/30/2018 18:10:46
00024 suncat0167 pw.x -in pw.inp   Done                     12/30/2018 18:10:46
00025 suncat0167 pw.x -in pw.inp   Done                     12/30/2018 18:10:46
00026 suncat0167 pw.x -in pw.inp   Done                     12/30/2018 18:10:46
00027 suncat0167 pw.x -in pw.inp   Done                     12/30/2018 18:10:46
00028 suncat0167 pw.x -in pw.inp   Done                     12/30/2018 18:10:46
00029 suncat0167 pw.x -in pw.inp   Done                     12/30/2018 18:10:46
00030 suncat0167 pw.x -in pw.inp   Done                     12/30/2018 18:10:46
00031 suncat0167 pw.x -in pw.inp   Done                     12/30/2018 18:10:46
00032 suncat0166 pw.x -in pw.inp   Done                     12/30/2018 18:10:46
00033 suncat0166 pw.x -in pw.inp   Done                     12/30/2018 18:10:46
00034 suncat0166 pw.x -in pw.inp   Done                     12/30/2018 18:10:46
00035 suncat0166 pw.x -in pw.inp   Done                     12/30/2018 18:10:46
00036 suncat0166 pw.x -in pw.inp   Done                     12/30/2018 18:10:46
00037 suncat0166 pw.x -in pw.inp   Done                     12/30/2018 18:10:46
00038 suncat0166 pw.x -in pw.inp   Done                     12/30/2018 18:10:46
00039 suncat0166 pw.x -in pw.inp   Done                     12/30/2018 18:10:46
00040 suncat0149 pw.x -in pw.inp   Done                     12/30/2018 18:10:46
00041 suncat0149 pw.x -in pw.inp   Done                     12/30/2018 18:10:46
00042 suncat0149 pw.x -in pw.inp   Done                     12/30/2018 18:10:46
00043 suncat0149 pw.x -in pw.inp   Done                     12/30/2018 18:10:46
00044 suncat0149 pw.x -in pw.inp   Done                     12/30/2018 18:10:46
00045 suncat0149 pw.x -in pw.inp   Done                     12/30/2018 18:10:46
00046 suncat0149 pw.x -in pw.inp   Done                     12/30/2018 18:10:46
00047 suncat0149 pw.x -in pw.inp   Done                     12/30/2018 18:10:46
00048 suncat0148 pw.x -in pw.inp   Done                     12/30/2018 18:10:46
00049 suncat0148 pw.x -in pw.inp   Done                     12/30/2018 18:10:46
00050 suncat0148 pw.x -in pw.inp   Done                     12/30/2018 18:10:46
00051 suncat0148 pw.x -in pw.inp   Done                     12/30/2018 18:10:46
00052 suncat0148 pw.x -in pw.inp   Done                     12/30/2018 18:10:46
00053 suncat0148 pw.x -in pw.inp   Done                     12/30/2018 18:10:46
00054 suncat0148 pw.x -in pw.inp   Done                     12/30/2018 18:10:46
00055 suncat0148 pw.x -in pw.inp   Done                     12/30/2018 18:10:46
00056 suncat0142 pw.x -in pw.inp   Done                     12/30/2018 18:10:46
00057 suncat0142 pw.x -in pw.inp   Done                     12/30/2018 18:10:46
00058 suncat0142 pw.x -in pw.inp   Done                     12/30/2018 18:10:46
00059 suncat0142 pw.x -in pw.inp   Done                     12/30/2018 18:10:46
00060 suncat0142 pw.x -in pw.inp   Done                     12/30/2018 18:10:46
00061 suncat0142 pw.x -in pw.inp   Done                     12/30/2018 18:10:46
00062 suncat0142 pw.x -in pw.inp   Done                     12/30/2018 18:10:46
00063 suncat0142 pw.x -in pw.inp   Done                     12/30/2018 18:10:46