     Program PWSCF v.5.1rc2 (svn rev. 11289) starts on 26Dec2018 at 15:10:17

     Current dimensions of program PWSCF are:
     Max number of different atomic species (ntypx) = 10
     Max number of k-points (npk) =  40000
     Max angular momentum in pseudopotentials (lmaxx) =  3
     Presently stress not available with electric field

     IMPORTANT: XC functional enforced from input :
     Exchange-correlation      = BEEF-VDW ( 1  4 27 13 2)
     Any further DFT definition will be discarded
     Please, verify this is what you really want

     Subspace diagonalization in iterative solution of the eigenvalue problem:
     a serial algorithm will be used

     bravais-lattice index     =            0
     lattice parameter (alat)  =       1.8897  a.u.
     unit-cell volume          =    4345.6466 (a.u.)^3
     number of atoms/cell      =           12
     number of atomic types    =            2
     number of electrons       =       177.00
     number of Kohn-Sham states=          118
     kinetic-energy cutoff     =      36.7493  Ry
     charge density cutoff     =     367.4932  Ry
     convergence threshold     =      1.0E-06
     mixing beta               =       0.1000
     number of iterations used =           10  plain     mixing
     Exchange-correlation      = BEEF-VDW ( 1  4 27 13 2)
     nstep                     =           50

     celldm(1)=   1.889726  celldm(2)=   0.000000  celldm(3)=   0.000000
     celldm(4)=   0.000000  celldm(5)=   0.000000  celldm(6)=   0.000000

     crystal axes: (cart. coord. in units of alat)
               a(1) = (   5.509288   0.000000   0.000000 )
               a(2) = (  -2.754644   4.771183   0.000000 )
               a(3) = (   0.000000   0.000000  24.498315 )

     reciprocal axes: (cart. coord. in units 2 pi/alat)
               b(1) = (  0.181512  0.104796  0.000000 )
               b(2) = (  0.000000  0.209592  0.000000 )
               b(3) = (  0.000000  0.000000  0.040819 )

     PseudoPot. # 1 for Ir read from file:
     /afs/slac.stanford.edu/u/if/mamunm/psp/gbrv1.5pbe/Ir.UPF
     MD5 check sum: 8836f839c3459d2b385c504ce6d91f2c
     Pseudo is Ultrasoft + core correction, Zval = 15.0
     Generated by new atomic code, or converted to UPF format
     Using radial grid of  983 points,  7 beta functions with:
                l(1) =   0
                l(2) =   0
                l(3) =   1
                l(4) =   1
                l(5) =   1
                l(6) =   2
                l(7) =   2
     Q(r) pseudized with  8 coefficients,  rinner =    1.400   1.400   1.400
                                                       1.400   1.400

     PseudoPot. # 2 for Mo read from file:
     /afs/slac.stanford.edu/u/if/mamunm/psp/gbrv1.5pbe/Mo.UPF
     MD5 check sum: 30c4dcd161f5d35cd49bb5239c51a633
     Pseudo is Ultrasoft + core correction, Zval = 14.0
     Generated by new atomic code, or converted to UPF format
     Using radial grid of  889 points,  6 beta functions with:
                l(1) =   0
                l(2) =   0
                l(3) =   1
                l(4) =   1
                l(5) =   2
                l(6) =   2
     Q(r) pseudized with  6 coefficients,  rinner =    1.000   1.000   1.000
                                                       1.000   1.000

     vdW kernel table read from file vdW_kernel_table
     MD5 check sum: 095c7af220d748ca6e76c0b4c6cfb241

     atomic species   valence    mass     pseudopotential
        Ir1           15.00   192.21700     Ir( 1.00)
        Mo1           14.00    95.95000     Mo( 1.00)

     No symmetry found

   Cartesian axes

     site n.     atom                  positions (alat units)
         1           Ir1 tau(   1) = (   0.0000000   0.0000000  10.0000000  )
         2           Ir1 tau(   2) = (  -1.3773220   2.3855917  10.0000000  )
         3           Ir1 tau(   3) = (   1.3773220   2.3855917  10.0000000  )
         4           Mo1 tau(   4) = (   2.7546440   0.0000000  10.0000000  )
         5           Ir1 tau(   5) = (   2.7546440   1.5903945  12.2491574  )
         6           Ir1 tau(   6) = (   1.3773220   3.9759862  12.2491574  )
         7           Ir1 tau(   7) = (  -1.3773220   3.9759862  12.2491574  )
         8           Mo1 tau(   8) = (   0.0000000   1.5903945  12.2491574  )
         9           Ir1 tau(   9) = (  -0.0000000   3.1807890  14.4983149  )
        10           Ir1 tau(  10) = (   1.3773220   0.7951972  14.4983149  )
        11           Ir1 tau(  11) = (   4.1319661   0.7951972  14.4983149  )
        12           Mo1 tau(  12) = (   2.7546440   3.1807890  14.4983149  )

     number of k points=    20  Fermi-Dirac smearing, width (Ry)=  0.0110
                       cart. coord. in units 2pi/alat
        k(    1) = (   0.0000000   0.0000000   0.0000000), wk =   0.0555556
        k(    2) = (   0.0000000   0.0349319   0.0000000), wk =   0.1111111
        k(    3) = (   0.0000000   0.0698639   0.0000000), wk =   0.1111111
        k(    4) = (   0.0000000  -0.1047958   0.0000000), wk =   0.0555556
        k(    5) = (   0.0302519   0.0174660   0.0000000), wk =   0.1111111
        k(    6) = (   0.0302519   0.0523979   0.0000000), wk =   0.1111111
        k(    7) = (   0.0302519   0.0873298   0.0000000), wk =   0.1111111
        k(    8) = (   0.0302519  -0.0873298   0.0000000), wk =   0.1111111
        k(    9) = (   0.0302519  -0.0523979   0.0000000), wk =   0.1111111
        k(   10) = (   0.0302519  -0.0174660   0.0000000), wk =   0.1111111
        k(   11) = (   0.0605039   0.0349319   0.0000000), wk =   0.1111111
        k(   12) = (   0.0605039   0.0698639   0.0000000), wk =   0.1111111
        k(   13) = (   0.0605039   0.1047958   0.0000000), wk =   0.1111111
        k(   14) = (   0.0605039  -0.0698639   0.0000000), wk =   0.1111111
        k(   15) = (   0.0605039  -0.0349319   0.0000000), wk =   0.1111111
        k(   16) = (   0.0605039  -0.0000000   0.0000000), wk =   0.1111111
        k(   17) = (  -0.0907558  -0.0523979   0.0000000), wk =   0.0555556
        k(   18) = (  -0.0907558  -0.0174660   0.0000000), wk =   0.1111111
        k(   19) = (  -0.0907558   0.0174660   0.0000000), wk =   0.1111111
        k(   20) = (  -0.0907558  -0.1571937   0.0000000), wk =   0.0555556

     Largest allocated arrays     est. size (Mb)     dimensions
     Largest temporary arrays     est. size (Mb)     dimensions

     Initial potential from superposition of free atoms
     Check: negative starting charge=   -3.264943

     starting charge  172.49653, renormalised to  177.00000

     negative rho (up, down):  3.350E+00 0.000E+00

     *
     * You are using vdW-DF for exchange-correlation in this calculation.
     * Please cite the following three references that made this development
     * possible:
     *
     *   M. Dion, H. Rydberg, E. Schroder, D. C. Langreth, and
     *   B. I. Lundqvist, Phys. Rev. Lett. 92, 246401 (2004).
     *
     *   T. Thonhauser, V. R. Cooper, S. Li, A. Puzder, P. Hyldgaard, and
     *   D. C. Langreth, Phys. Rev. B 76, 125112 (2007).
     *
     *   G. Roman-Perez and J. M. Soler, Phys. Rev. Lett. 103, 096102 (2009).
     *
     *
     * If you are using vdW-DF2, please also cite:
     *
     *   K. Lee, E. D. Murray, L. Kong, B. I. Lundqvist, and
     *   D. C. Langreth, Phys. Rev. B 82, 081101(R) (2010).
     *
     *
     * If you are calculating the stress with vdW-DF, please also cite:
     *
     *   R. Sabatini, E. Kucukbenli, B. Kolb, T. Thonhauser, and
     *   S. de Gironcoli, J. Phys.: Condens. Matter 24, 424209 (2012).
     *

     Carrying out vdW-DF run using the following parameters:

     Nqs =      20    Nr_points =    1024   r_max =   100.000
     q_mesh =
               0.00001000     0.04494208     0.09755937     0.15916263
               0.23128650     0.31572767     0.41458969     0.53033537
               0.66584808     0.82450364     1.01025438     1.22772762
               1.48234092     1.78043706     2.12944203     2.53805004
               3.01644009     3.57652955     4.23227104     5.00000000

     Gradients computed in reciprocal space

     Adding external electric field

     Computed dipole along edir(3) :
        Dipole                0.0000 Ry au,          0.0000 Debye
        Dipole field          0.0000 Ry au

        Potential amp.       -0.0000 Ry
        Total length         45.1377 bohr

     Starting wfc are  147 randomized atomic wfcs

     Self-consistent Calculation

     iteration #  1     ecut=    36.75 Ry     beta=0.10
     Davidson diagonalization with overlap
     ethr =  1.00E-02,  avg # of iterations =  7.8

[...]

     total energy              =   -2069.79833408 Ry
     Harris-Foulkes estimate   =   -2072.63449164 Ry
     estimated scf accuracy    <      17.17694791 Ry

[...]

     End of self-consistent calculation

          k = 0.0000 0.0000 0.0000 ( 16259 PWs)   bands (ev):

   -59.5480 -59.2667 -59.2661 -47.5473 -47.3834 -47.3834 -47.3477 -47.2825
   -47.2825 -47.1404 -47.0822 -47.0822 -46.9786 -46.9676 -46.8746 -46.8746
   -46.8450 -46.8450 -46.6922 -46.6556 -46.6497 -46.6494 -46.6441 -46.6441
   -46.6193 -46.6193 -46.5332 -46.5332 -46.5325 -46.5325 -33.5595 -33.5595
   -33.5084 -33.3336 -33.3198 -33.2231 -33.2231 -33.2194 -33.2194  -6.3934
    -4.5780  -4.4047  -4.1237  -4.1237  -3.9219  -3.8030  -3.8030  -3.5635
    -3.3082  -3.3082  -3.1989  -2.9983  -2.9983  -2.8479  -1.6902  -1.5312
    -1.5312  -1.1390  -1.1390  -0.9320  -0.7023  -0.5676  -0.5124  -0.5124
    -0.4570  -0.1488  -0.1488   0.2042   0.2042   0.2134   0.2134   0.2335
     0.2335   1.1799   1.3524   1.5456   1.6900   1.6900   1.7661   1.7661
     1.8258   1.8258   2.3024   2.8605   2.8641   2.8641   2.9935   3.0814
     3.0814   3.3920   3.8028   3.8028   3.9216   3.9245   3.9495   3.9800
     4.0522   4.0522   4.0943   4.0943   4.4197   4.4197   4.8716   4.8716
     5.0269   5.0269   6.1161   6.1161   6.2035   6.4391   6.4391   6.7128
     6.8611   7.0895   7.4912   8.3975   9.2854   9.3198

[...]

          k =-0.0908-0.0524 0.0000 ( 16340 PWs)   bands (ev):

[...]

     the Fermi energy is     2.4090 ev

!    total energy              =   -2069.89338085 Ry
     Harris-Foulkes estimate   =   -2069.89336936 Ry
     estimated scf accuracy    <       0.00000052 Ry

     The total energy is the sum of the following terms:

     one-electron contribution =  -17583.66076677 Ry
     hartree contribution      =    8811.78375073 Ry
     xc contribution           =    -527.63174251 Ry
     ewald contribution        =    7229.68139927 Ry
     electric field correction =       0.00000000 Ry
     smearing contrib. (-TS)   =      -0.06602158 Ry

     convergence has been achieved in  17 iterations

 BEEF-vdW xc energy contributions
           1 :   -465.836741531434
           2 :    432.627697105135
           3 :   -373.503851077469
           4 :    300.526455562765
           5 :   -226.822847072144
           6 :    163.060529216401
           7 :   -115.165721008612
           8 :    83.7753496811769
           9 :   -65.3468439630824
          10 :    54.3081671247245
          11 :   -45.3822630854445
          12 :    35.2706057378788
          13 :   -23.2516406028482
[...]
     /afs/slac.stanford.edu/u/if/mamunm/psp/gbrv1.5pbe/Ir.UPF
     MD5 check sum: 8836f839c3459d2b385c504ce6d91f2c
     Pseudo is Ultrasoft + core correction, Zval = 15.0
     Generated by new atomic code, or converted to UPF format
     Using radial grid of  983 points,  7 beta functions with:
                l(1) =   0
                l(2) =   0
                l(3) =   1
                l(4) =   1
                l(5) =   1
                l(6) =   2
                l(7) =   2
     Q(r) pseudized with  8 coefficients,  rinner =    1.400   1.400   1.400
                                                       1.400   1.400

     PseudoPot. # 2 for Mo read from file:
     /afs/slac.stanford.edu/u/if/mamunm/psp/gbrv1.5pbe/Mo.UPF
     MD5 check sum: 30c4dcd161f5d35cd49bb5239c51a633
     Pseudo is Ultrasoft + core correction, Zval = 14.0
     Generated by new atomic code, or converted to UPF format
     Using radial grid of  889 points,  6 beta functions with:
                l(1) =   0
                l(2) =   0
                l(3) =   1
                l(4) =   1
                l(5) =   2
                l(6) =   2
     Q(r) pseudized with  6 coefficients,  rinner =    1.000   1.000   1.000
                                                       1.000   1.000

     vdW kernel table read from file vdW_kernel_table
     MD5 check sum: 095c7af220d748ca6e76c0b4c6cfb241

     atomic species   valence    mass     pseudopotential
        Ir1           15.00   192.21700     Ir( 1.00)
        Mo1           14.00    95.95000     Mo( 1.00)

     No symmetry found

   Cartesian axes

     site n.     atom                  positions (alat units)
         1           Ir1 tau(   1) = (   0.0000000   0.0000000  10.0000000  )
         2           Ir1 tau(   2) = (  -1.3773220   2.3855917  10.0000000  )
         3           Ir1 tau(   3) = (   1.3773220   2.3855917  10.0000000  )
         4           Mo1 tau(   4) = (   2.7546440   0.0000000  10.0000000  )
         5           Ir1 tau(   5) = (   2.7546440   1.5903945  12.2491574  )
         6           Ir1 tau(   6) = (   1.3773220   3.9759862  12.2491574  )
         7           Ir1 tau(   7) = (  -1.3773220   3.9759862  12.2491574  )
         8           Mo1 tau(   8) = (   0.0000000   1.5903945  12.2491574  )
         9           Ir1 tau(   9) = (  -0.0000004   3.1418266  14.4146306  )
        10           Ir1 tau(  10) = (   1.3435805   0.8146786  14.4146309  )
        11           Ir1 tau(  11) = (   4.1657083   0.8146782  14.4146305  )
        12           Mo1 tau(  12) = (   2.7546439   3.1807890  14.4303865  )

     number of k points=    20  Fermi-Dirac smearing, width (Ry)=  0.0110
                       cart. coord. in units 2pi/alat
        k(    1) = (   0.0000000   0.0000000   0.0000000), wk =   0.0555556
        k(    2) = (   0.0000000   0.0349319   0.0000000), wk =   0.1111111
        k(    3) = (   0.0000000   0.0698639   0.0000000), wk =   0.1111111
        k(    4) = (   0.0000000  -0.1047958   0.0000000), wk =   0.0555556
        k(    5) = (   0.0302519   0.0174660   0.0000000), wk =   0.1111111
        k(    6) = (   0.0302519   0.0523979   0.0000000), wk =   0.1111111
        k(    7) = (   0.0302519   0.0873298   0.0000000), wk =   0.1111111
        k(    8) = (   0.0302519  -0.0873298   0.0000000), wk =   0.1111111
        k(    9) = (   0.0302519  -0.0523979   0.0000000), wk =   0.1111111
        k(   10) = (   0.0302519  -0.0174660   0.0000000), wk =   0.1111111
        k(   11) = (   0.0605039   0.0349319   0.0000000), wk =   0.1111111
        k(   12) = (   0.0605039   0.0698639   0.0000000), wk =   0.1111111
        k(   13) = (   0.0605039   0.1047958   0.0000000), wk =   0.1111111
        k(   14) = (   0.0605039  -0.0698639   0.0000000), wk =   0.1111111
        k(   15) = (   0.0605039  -0.0349319   0.0000000), wk =   0.1111111
        k(   16) = (   0.0605039  -0.0000000   0.0000000), wk =   0.1111111
        k(   17) = (  -0.0907558  -0.0523979   0.0000000), wk =   0.0555556
        k(   18) = (  -0.0907558  -0.0174660   0.0000000), wk =   0.1111111
        k(   19) = (  -0.0907558   0.0174660   0.0000000), wk =   0.1111111
        k(   20) = (  -0.0907558  -0.1571937   0.0000000), wk =   0.0555556

     Largest allocated arrays     est. size (Mb)     dimensions
     Largest temporary arrays     est. size (Mb)     dimensions

     Initial potential from superposition of free atoms
     Check: negative starting charge=   -3.261394

     starting charge  172.49653, renormalised to  177.00000

[...]

     *
     * You are using vdW-DF for exchange-correlation in this calculation.
     * Please cite the following three references that made this development
     * possible:
     *
     *   M. Dion, H. Rydberg, E. Schroder, D. C. Langreth, and
     *   B. I. Lundqvist, Phys. Rev. Lett. 92, 246401 (2004).
     *
     *   T. Thonhauser, V. R. Cooper, S. Li, A. Puzder, P. Hyldgaard, and
     *   D. C. Langreth, Phys. Rev. B 76, 125112 (2007).
     *
     *   G. Roman-Perez and J. M. Soler, Phys. Rev. Lett. 103, 096102 (2009).
     *
     *
     * If you are using vdW-DF2, please also cite:
     *
     *   K. Lee, E. D. Murray, L. Kong, B. I. Lundqvist, and
     *   D. C. Langreth, Phys. Rev. B 82, 081101(R) (2010).
     *
     *
     * If you are calculating the stress with vdW-DF, please also cite:
     *
     *   R. Sabatini, E. Kucukbenli, B. Kolb, T. Thonhauser, and
     *   S. de Gironcoli, J. Phys.: Condens. Matter 24, 424209 (2012).
     *

     Carrying out vdW-DF run using the following parameters:

     Nqs =      20    Nr_points =    1024   r_max =   100.000
     q_mesh =
               0.00001000     0.04494208     0.09755937     0.15916263
               0.23128650     0.31572767     0.41458969     0.53033537
               0.66584808     0.82450364     1.01025438     1.22772762
               1.48234092     1.78043706     2.12944203     2.53805004
               3.01644009     3.57652955     4.23227104     5.00000000

     Gradients computed in reciprocal space

[...]

     Starting wfc are  147 randomized atomic wfcs

     Self-consistent Calculation

[...]

     total energy              =   -2069.90493398 Ry
     Harris-Foulkes estimate   =   -2069.90492416 Ry
     estimated scf accuracy    <       0.00000228 Ry

     iteration # 17     ecut=    36.75 Ry     beta=0.10
     Davidson diagonalization with overlap
     ethr =  1.29E-09,  avg # of iterations =  2.1

[...]

     negative rho (up, down):  2.899E+00 0.000E+00

     Adding external electric field

     Computed dipole along edir(3) :
        Dipole                0.0162 Ry au,          0.0412 Debye
        Dipole field          0.0000 Ry au

        Potential amp.       -0.0042 Ry
        Total length         45.1377 bohr

     End of self-consistent calculation

[...]

          k = 0.0605-0.0000 0.0000 ( 16358 PWs)   bands (ev):

[...]

          k =-0.0908-0.1572 0.0000 ( 16340 PWs)   bands (ev):

   -59.5267 -59.2497 -59.2250 -47.4832 -47.3728 -47.3561 -47.3273 -47.3194
   -47.3123 -47.3010 -47.2839 -47.1271 -46.9755 -46.8613 -46.8472 -46.8376
   -46.7687 -46.7570 -46.7450 -46.7293 -46.7218 -46.7143 -46.7082 -46.6871
   -46.6622 -46.6225 -46.6070 -46.5900 -46.5799 -46.5012 -33.5686 -33.5549
   -33.5037 -33.3201 -33.2880 -33.2313 -33.2185 -33.2001 -33.1870  -4.8431
    -4.5263  -3.3600  -3.3328  -3.1530  -3.1197  -3.0529  -3.0139  -2.8932
    -2.6184  -2.5873  -2.4011  -2.3297  -2.0072  -1.9859  -1.8579  -1.8413
    -1.7306  -1.5837  -1.3216  -1.2021  -0.9898  -0.7297  -0.6003  -0.5425
    -0.5038  -0.4322  -0.3006  -0.2207  -0.2112  -0.1161  -0.0910  -0.0830
     0.0082   0.1031   0.2647   0.3185   0.3462   0.6538   0.7478   0.8555
     0.9292   1.0267   1.2183   1.4968   1.5721   1.6603   1.7127   2.1026
     2.1462   2.2644   2.2868   2.5791   2.6803   2.7828   2.9025   3.0029
     3.3511   3.4141   3.4811   3.6677   4.1027   4.1559   4.7731   4.9810
     5.2687   5.6424   6.4589   6.8199   7.1927   7.3025   7.5380   8.2683
     8.4556   8.4701   8.5961   9.0393   9.0698   9.0896

     the Fermi energy is     2.4336 ev

!    total energy              =   -2069.90495689 Ry
     Harris-Foulkes estimate   =   -2069.90493422 Ry
     estimated scf accuracy    <       0.00000063 Ry

     The total energy is the sum of the following terms:

     one-electron contribution =  -17787.30343015 Ry
     hartree contribution      =    8913.53678370 Ry
     xc contribution           =    -527.82790103 Ry
     ewald contribution        =    7331.75248585 Ry
     electric field correction =       0.00000076 Ry
     smearing contrib. (-TS)   =      -0.06289602 Ry

     convergence has been achieved in  17 iterations

 BEEF-vdW xc energy contributions
           1 :   -466.038591527240
           2 :    432.910395993795
           3 :   -373.899987426144
           4 :    300.996755464499
           5 :   -227.269215791665
           6 :    163.370327260180
           7 :   -115.266404557206
           8 :    83.6730003527084
           9 :   -65.1287493975076
          10 :    54.1068757684847
          11 :   -45.3176887528842
          12 :    35.3969424512193
          13 :   -23.5334957240999
          14 :    11.0282967201002
          15 :  -0.166674769086228
          16 :   -7.05230094574836
          17 :    9.82344826851562
          18 :   -8.80030597707338
          19 :    5.71877138951686
          20 :   -2.63382485071099
          21 :    1.12434207930619
          22 :   -1.78251429329009
          23 :    4.14629989500190
          24 :   -7.04985885553765
          25 :    9.20489603291969
          26 :   -9.75905169314717
          27 :    8.60863252138574
          28 :   -6.36849659847826
          29 :    4.04714051180684
          30 :   -2.59298906136598
          31 :   -41.3259410754291
          32 :   -31.1177135402471

     Forces acting on atoms (Ry/au):

     negative rho (up, down):  2.899E+00 0.000E+00
     atom    1 type  1   force =    -0.00000000    0.02121448    0.02293610
     atom    2 type  1   force =     0.01837219   -0.01060718    0.02293612
     atom    3 type  1   force =    -0.01837191   -0.01060720    0.02293628
     atom    4 type  2   force =    -0.00000001    0.00000003    0.01118582
     atom    5 type  1   force =     0.00000002    0.00133674   -0.01683016
     atom    6 type  1   force =     0.00115758   -0.00066837   -0.01683047
     atom    7 type  1   force =    -0.00115766   -0.00066866   -0.01683043
     atom    8 type  2   force =     0.00000007    0.00000000   -0.02822252
     atom    9 type  1   force =     0.00000020   -0.00042331   -0.00057774
     atom   10 type  1   force =    -0.00036685    0.00021178   -0.00057795
     atom   11 type  1   force =     0.00036636    0.00021157   -0.00057791
     atom   12 type  2   force =     0.00000001    0.00000012    0.00045286

     Total force =     0.068607     Total SCF correction =     0.003425

     entering subroutine stress ...

     negative rho (up, down):  2.899E+00 0.000E+00
          total   stress  (Ry/bohr**3)                   (kbar)     P=  -28.91
  -0.00023755   0.00000000  -0.00000000        -34.94      0.00     -0.00
   0.00000000  -0.00023755   0.00000000          0.00    -34.94      0.00
  -0.00000000   0.00000000  -0.00011451         -0.00      0.00    -16.85

 !ASE

     Writing output data file calc.save

     General routines

     Parallel routines

   This run was terminated on:  16:19:33  26Dec2018

   JOB DONE.
Job  /afs/slac/g/suncat/bin/suncat-tsmpirun -x LD_LIBRARY_PATH -wdir /scratch/qe109944_Cm1RU pw.x -in pw.inp

TID   HOST_NAME   COMMAND_LINE            STATUS            TERMINATION_TIME
00000 suncat0006 pw.x -in pw.inp   Done                     12/26/2018 16:19:33
00001 suncat0006 pw.x -in pw.inp   Done                     12/26/2018 16:19:33
00002 suncat0006 pw.x -in pw.inp   Done                     12/26/2018 16:19:33
00003 suncat0006 pw.x -in pw.inp   Done                     12/26/2018 16:19:33
00004 suncat0006 pw.x -in pw.inp   Done                     12/26/2018 16:19:33
00005 suncat0006 pw.x -in pw.inp   Done                     12/26/2018 16:19:33
00006 suncat0006 pw.x -in pw.inp   Done                     12/26/2018 16:19:33
00007 suncat0006 pw.x -in pw.inp   Done                     12/26/2018 16:19:33
00008 suncat0005 pw.x -in pw.inp   Done                     12/26/2018 16:19:33
00009 suncat0005 pw.x -in pw.inp   Done                     12/26/2018 16:19:33
00010 suncat0005 pw.x -in pw.inp   Done                     12/26/2018 16:19:33
00011 suncat0005 pw.x -in pw.inp   Done                     12/26/2018 16:19:33
00012 suncat0005 pw.x -in pw.inp   Done                     12/26/2018 16:19:33
00013 suncat0005 pw.x -in pw.inp   Done                     12/26/2018 16:19:33
00014 suncat0005 pw.x -in pw.inp   Done                     12/26/2018 16:19:33
00015 suncat0005 pw.x -in pw.inp   Done                     12/26/2018 16:19:33
00016 suncat0180 pw.x -in pw.inp   Done                     12/26/2018 16:19:33
00017 suncat0180 pw.x -in pw.inp   Done                     12/26/2018 16:19:33
00018 suncat0180 pw.x -in pw.inp   Done                     12/26/2018 16:19:33
00019 suncat0180 pw.x -in pw.inp   Done                     12/26/2018 16:19:33
00020 suncat0180 pw.x -in pw.inp   Done                     12/26/2018 16:19:33
00021 suncat0180 pw.x -in pw.inp   Done                     12/26/2018 16:19:33
00022 suncat0180 pw.x -in pw.inp   Done                     12/26/2018 16:19:33
00023 suncat0180 pw.x -in pw.inp   Done                     12/26/2018 16:19:33
00024 suncat0167 pw.x -in pw.inp   Done                     12/26/2018 16:19:33
00025 suncat0167 pw.x -in pw.inp   Done                     12/26/2018 16:19:33
00026 suncat0167 pw.x -in pw.inp   Done                     12/26/2018 16:19:33
00027 suncat0167 pw.x -in pw.inp   Done                     12/26/2018 16:19:33
00028 suncat0167 pw.x -in pw.inp   Done                     12/26/2018 16:19:33
00029 suncat0167 pw.x -in pw.inp   Done                     12/26/2018 16:19:33
00030 suncat0167 pw.x -in pw.inp   Done                     12/26/2018 16:19:33
00031 suncat0167 pw.x -in pw.inp   Done                     12/26/2018 16:19:33
00032 suncat0166 pw.x -in pw.inp   Done                     12/26/2018 16:19:33
00033 suncat0166 pw.x -in pw.inp   Done                     12/26/2018 16:19:33
00034 suncat0166 pw.x -in pw.inp   Done                     12/26/2018 16:19:33
00035 suncat0166 pw.x -in pw.inp   Done                     12/26/2018 16:19:33
00036 suncat0166 pw.x -in pw.inp   Done                     12/26/2018 16:19:33
00037 suncat0166 pw.x -in pw.inp   Done                     12/26/2018 16:19:33
00038 suncat0166 pw.x -in pw.inp   Done                     12/26/2018 16:19:33
00039 suncat0166 pw.x -in pw.inp   Done                     12/26/2018 16:19:33
00040 suncat0165 pw.x -in pw.inp   Done                     12/26/2018 16:19:33
00041 suncat0165 pw.x -in pw.inp   Done                     12/26/2018 16:19:33
00042 suncat0165 pw.x -in pw.inp   Done                     12/26/2018 16:19:33
00043 suncat0165 pw.x -in pw.inp   Done                     12/26/2018 16:19:33
00044 suncat0165 pw.x -in pw.inp   Done                     12/26/2018 16:19:33
00045 suncat0165 pw.x -in pw.inp   Done                     12/26/2018 16:19:33
00046 suncat0165 pw.x -in pw.inp   Done                     12/26/2018 16:19:33
00047 suncat0165 pw.x -in pw.inp   Done                     12/26/2018 16:19:33
00048 suncat0164 pw.x -in pw.inp   Done                     12/26/2018 16:19:33
00049 suncat0164 pw.x -in pw.inp   Done                     12/26/2018 16:19:33
00050 suncat0164 pw.x -in pw.inp   Done                     12/26/2018 16:19:33
00051 suncat0164 pw.x -in pw.inp   Done                     12/26/2018 16:19:33
00052 suncat0164 pw.x -in pw.inp   Done                     12/26/2018 16:19:33
00053 suncat0164 pw.x -in pw.inp   Done                     12/26/2018 16:19:33
00054 suncat0164 pw.x -in pw.inp   Done                     12/26/2018 16:19:33
00055 suncat0164 pw.x -in pw.inp   Done                     12/26/2018 16:19:33
00056 suncat0143 pw.x -in pw.inp   Done                     12/26/2018 16:19:33
00057 suncat0143 pw.x -in pw.inp   Done                     12/26/2018 16:19:33
00058 suncat0143 pw.x -in pw.inp   Done                     12/26/2018 16:19:33
00059 suncat0143 pw.x -in pw.inp   Done                     12/26/2018 16:19:33
00060 suncat0143 pw.x -in pw.inp   Done                     12/26/2018 16:19:33
00061 suncat0143 pw.x -in pw.inp   Done                     12/26/2018 16:19:33
00062 suncat0143 pw.x -in pw.inp   Done                     12/26/2018 16:19:33
00063 suncat0143 pw.x -in pw.inp   Done                     12/26/2018 16:19:33