     Program PWSCF v.5.1rc2 (svn rev. 11289) starts on 28Dec2018 at  2:25: 2

     Current dimensions of program PWSCF are:
     Max number of different atomic species (ntypx) = 10
     Max number of k-points (npk) =  40000
     Max angular momentum in pseudopotentials (lmaxx) =  3
     Presently stress not available with electric field

     IMPORTANT: XC functional enforced from input :
     Exchange-correlation      = BEEF-VDW ( 1  4 27 13 2)
     Any further DFT definition will be discarded
     Please, verify this is what you really want

     Subspace diagonalization in iterative solution of the eigenvalue problem:
     a serial algorithm will be used

     bravais-lattice index     =            0
     lattice parameter (alat)  =       1.8897  a.u.
     unit-cell volume          =    5202.2587 (a.u.)^3
     number of atoms/cell      =           12
     number of atomic types    =            2
     number of electrons       =       144.00
     number of Kohn-Sham states=          102
     kinetic-energy cutoff     =      36.7493  Ry
     charge density cutoff     =     367.4932  Ry
     convergence threshold     =      1.0E-06
     mixing beta               =       0.1000
     number of iterations used =           10  plain     mixing
     Exchange-correlation      = BEEF-VDW ( 1  4 27 13 2)
     nstep                     =           50

     celldm(1)=   1.889726  celldm(2)=   0.000000  celldm(3)=   0.000000
     celldm(4)=   0.000000  celldm(5)=   0.000000  celldm(6)=   0.000000

     crystal axes: (cart. coord. in units of alat)
               a(1) = (   5.981039   0.000000   0.000000 )
               a(2) = (  -2.990520   5.179732   0.000000 )
               a(3) = (   0.000000   0.000000  24.883498 )

     reciprocal axes: (cart. coord. in units 2 pi/alat)
               b(1) = (  0.167195  0.096530  0.000000 )
               b(2) = (  0.000000  0.193060  0.000000 )
               b(3) = (  0.000000  0.000000  0.040187 )

     PseudoPot. # 1 for Ti read from file:
     /afs/slac.stanford.edu/u/if/mamunm/psp/gbrv1.5pbe/Ti.UPF
     MD5 check sum: 88a00a6731bd790ddea75d31a80cb452
     Pseudo is Ultrasoft + core correction, Zval = 12.0
     Generated by new atomic code, or converted to UPF format
     Using radial grid of  851 points,  6 beta functions with:
                l(1) =   0
                l(2) =   0
                l(3) =   1
                l(4) =   1
                l(5) =   2
                l(6) =   2
     Q(r) pseudized with  6 coefficients,  rinner =    1.000   1.000   1.000
                                                       1.000   1.000

     PseudoPot. # 2 for Zr read from file:
     /afs/slac.stanford.edu/u/if/mamunm/psp/gbrv1.5pbe/Zr.UPF
     MD5 check sum: 5db81b1e868ab7776c4564c113de050b
     Pseudo is Ultrasoft + core correction, Zval = 12.0
     Generated by new atomic code, or converted to UPF format
     Using radial grid of  887 points,  6 beta functions with:
                l(1) =   0
                l(2) =   0
                l(3) =   1
                l(4) =   1
                l(5) =   2
                l(6) =   2
     Q(r) pseudized with  6 coefficients,  rinner =    1.200   1.200   1.200
                                                       1.200   1.200

     vdW kernel table read from file vdW_kernel_table
     MD5 check sum: 095c7af220d748ca6e76c0b4c6cfb241

     atomic species   valence    mass     pseudopotential
        Ti1           12.00    47.86700     Ti( 1.00)
        Zr1           12.00    91.22400     Zr( 1.00)

     No symmetry found

   Cartesian axes

     site n.     atom                  positions (alat units)
         1           Ti1 tau(   1) = (   0.0000000   0.0000000  10.0000000  )
         2           Ti1 tau(   2) = (  -1.4952598   2.5898659  10.0000000  )
         3           Ti1 tau(   3) = (   1.4952598   2.5898659  10.0000000  )
         4           Zr1 tau(   4) = (   2.9905196   0.0000000  10.0000000  )
         5           Ti1 tau(   5) = (   2.9905196   1.7265773  12.4417490  )
         6           Ti1 tau(   6) = (   1.4952598   4.3164432  12.4417490  )
         7           Ti1 tau(   7) = (  -1.4952598   4.3164432  12.4417490  )
         8           Zr1 tau(   8) = (   0.0000000   1.7265773  12.4417490  )
         9           Ti1 tau(   9) = (  -0.0000000   3.4531545  14.8834980  )
        10           Ti1 tau(  10) = (   1.4952598   0.8632886  14.8834980  )
        11           Ti1 tau(  11) = (   4.4857793   0.8632886  14.8834980  )
        12           Zr1 tau(  12) = (   2.9905196   3.4531545  14.8834980  )

     number of k points=    20  Fermi-Dirac smearing, width (Ry)=  0.0110
                       cart. coord. in units 2pi/alat
        k(    1) = (   0.0000000   0.0000000   0.0000000), wk =   0.0555556
        k(    2) = (   0.0000000   0.0321767   0.0000000), wk =   0.1111111
        k(    3) = (   0.0000000   0.0643534   0.0000000), wk =   0.1111111
        k(    4) = (   0.0000000  -0.0965301   0.0000000), wk =   0.0555556
        k(    5) = (   0.0278658   0.0160883   0.0000000), wk =   0.1111111
        k(    6) = (   0.0278658   0.0482650   0.0000000), wk =   0.1111111
        k(    7) = (   0.0278658   0.0804417   0.0000000), wk =   0.1111111
        k(    8) = (   0.0278658  -0.0804417   0.0000000), wk =   0.1111111
        k(    9) = (   0.0278658  -0.0482650   0.0000000), wk =   0.1111111
        k(   10) = (   0.0278658  -0.0160883   0.0000000), wk =   0.1111111
        k(   11) = (   0.0557317   0.0321767   0.0000000), wk =   0.1111111
        k(   12) = (   0.0557317   0.0643534   0.0000000), wk =   0.1111111
        k(   13) = (   0.0557317   0.0965301   0.0000000), wk =   0.1111111
        k(   14) = (   0.0557317  -0.0643534   0.0000000), wk =   0.1111111
        k(   15) = (   0.0557317  -0.0321767   0.0000000), wk =   0.1111111
        k(   16) = (   0.0557317   0.0000000   0.0000000), wk =   0.1111111
        k(   17) = (  -0.0835975  -0.0482650   0.0000000), wk =   0.0555556
        k(   18) = (  -0.0835975  -0.0160883   0.0000000), wk =   0.1111111
        k(   19) = (  -0.0835975   0.0160883   0.0000000), wk =   0.1111111
        k(   20) = (  -0.0835975  -0.1447951   0.0000000), wk =   0.0555556

     Largest allocated arrays     est. size (Mb)     dimensions
     Largest temporary arrays     est. size (Mb)     dimensions

     Check: negative/imaginary core charge=   -0.000005    0.000000

     Initial potential from superposition of free atoms
     Check: negative starting charge=   -0.192849

     starting charge  134.99316, renormalised to  144.00000

     negative rho (up, down):  2.057E-01 0.000E+00

     *
     * You are using vdW-DF for exchange-correlation in this calculation.
     * Please cite the following three references that made this development
     * possible:
     *
     *   M. Dion, H. Rydberg, E. Schroder, D. C. Langreth, and
     *   B. I. Lundqvist, Phys. Rev. Lett. 92, 246401 (2004).
     *
     *   T. Thonhauser, V. R. Cooper, S. Li, A. Puzder, P. Hyldgaard, and
     *   D. C. Langreth, Phys. Rev. B 76, 125112 (2007).
     *
     *   G. Roman-Perez and J. M. Soler, Phys. Rev. Lett. 103, 096102 (2009).
     *
     *
     * If you are using vdW-DF2, please also cite:
     *
     *   K. Lee, E. D. Murray, L. Kong, B. I. Lundqvist, and
     *   D. C. Langreth, Phys. Rev. B 82, 081101(R) (2010).
     *
     *
     * If you are calculating the stress with vdW-DF, please also cite:
     *
     *   R. Sabatini, E. Kucukbenli, B. Kolb, T. Thonhauser, and
     *   S. de Gironcoli, J. Phys.: Condens. Matter 24, 424209 (2012).
     *

     Carrying out vdW-DF run using the following parameters:

     Nqs =      20    Nr_points =    1024   r_max =   100.000
     q_mesh =
               0.00001000     0.04494208     0.09755937     0.15916263
               0.23128650     0.31572767     0.41458969     0.53033537
               0.66584808     0.82450364     1.01025438     1.22772762
               1.48234092     1.78043706     2.12944203     2.53805004
               3.01644009     3.57652955     4.23227104     5.00000000

     Gradients computed in reciprocal space

     Adding external electric field

     Computed dipole along edir(3) :
        Dipole                0.0000 Ry au,          0.0000 Debye
        Dipole field          0.0000 Ry au

        Potential amp.       -0.0000 Ry
        Total length         45.8474 bohr

     Starting wfc are  129 randomized atomic wfcs

     Self-consistent Calculation

     iteration #  1     ecut=    36.75 Ry     beta=0.10
     Davidson diagonalization with overlap
     ethr =  1.00E-02,  avg # of iterations =  3.2

[...]

     total energy              =   -1378.48393287 Ry
     Harris-Foulkes estimate   =   -1379.58348944 Ry
     estimated scf accuracy    <       6.54973950 Ry

[...]

     End of self-consistent calculation

          k = 0.0000 0.0000 0.0000 ( 19507 PWs)   bands (ev):

   -56.2275 -56.2251 -56.1833 -56.1832 -56.1828 -56.1827 -56.0535 -56.0129
   -56.0129 -48.0127 -48.0124 -47.6822 -32.6078 -32.5931 -32.5540 -32.5239
   -32.5238 -32.4988 -32.4988 -32.4978 -32.4977 -32.4882 -32.4477 -32.4476
   -32.4094 -32.3289 -32.3196 -32.3096 -32.3096 -32.2514 -32.2513 -32.2442
   -32.2441 -32.2256 -32.2081 -32.2081 -32.1538 -32.0786 -32.0786 -26.0449
   -26.0303 -25.9888 -25.9888 -25.9851 -25.9851 -25.7052 -25.6812 -25.6812
    -4.3871  -3.1528  -2.0537  -1.6055  -1.6055  -1.4965  -1.4965  -1.0899
    -1.0426  -1.0426  -0.9982  -0.6934  -0.6934  -0.6287  -0.5980  -0.0767
    -0.0766   0.1415   0.7898   0.8527   1.0592   1.0592   1.1261   1.3226
     1.3898   1.4628   1.4628   1.4939   1.6517   1.6517   1.7710   1.8303
     1.8303   1.8388   1.8388   1.8945   1.9651   1.9651   2.0176   2.0176
     2.5017   2.5284   2.6738   2.6739   2.7678   2.7678   3.1054   3.1055
     3.2558   3.2559   3.5507   3.6852   3.6852   3.9444

[...]

          k =-0.0836-0.0483 0.0000 ( 19564 PWs)   bands (ev):

[...]

     the Fermi energy is     0.8864 ev

!    total energy              =   -1378.05656962 Ry
     Harris-Foulkes estimate   =   -1378.05656863 Ry
     estimated scf accuracy    <       0.00000078 Ry

     The total energy is the sum of the following terms:

     one-electron contribution =   -9918.29508808 Ry
     hartree contribution      =    4945.21797951 Ry
     xc contribution           =    -223.55505787 Ry
     ewald contribution        =    3818.71693621 Ry
     electric field correction =       0.00000000 Ry
     smearing contrib. (-TS)   =      -0.14133939 Ry

     convergence has been achieved in  22 iterations

 BEEF-vdW xc energy contributions
           1 :   -191.927535494265
           2 :    172.040609506080
           3 :   -139.245046778252
           4 :    103.765479789040
           5 :   -74.1432437023970
           6 :    53.9336733541729
           7 :   -41.5952137739221
           8 :    32.9693396735676
           9 :   -24.4034287441688
          10 :    14.6094776879731
          11 :   -4.56768170368389
          12 :   -3.91599908059817
          13 :    9.73490708274520
          14 :   -13.1161574556758
          15 :    15.1727284620473
          16 :   -16.9325809595308
[...]
     Generated by new atomic code, or converted to UPF format
     Using radial grid of  851 points,  6 beta functions with:
                l(1) =   0
                l(2) =   0
                l(3) =   1
                l(4) =   1
                l(5) =   2
                l(6) =   2
     Q(r) pseudized with  6 coefficients,  rinner =    1.000   1.000   1.000
                                                       1.000   1.000

     PseudoPot. # 2 for Zr read from file:
     /afs/slac.stanford.edu/u/if/mamunm/psp/gbrv1.5pbe/Zr.UPF
     MD5 check sum: 5db81b1e868ab7776c4564c113de050b
     Pseudo is Ultrasoft + core correction, Zval = 12.0
     Generated by new atomic code, or converted to UPF format
     Using radial grid of  887 points,  6 beta functions with:
                l(1) =   0
                l(2) =   0
                l(3) =   1
                l(4) =   1
                l(5) =   2
                l(6) =   2
     Q(r) pseudized with  6 coefficients,  rinner =    1.200   1.200   1.200
                                                       1.200   1.200

     vdW kernel table read from file vdW_kernel_table
     MD5 check sum: 095c7af220d748ca6e76c0b4c6cfb241

     atomic species   valence    mass     pseudopotential
        Ti1           12.00    47.86700     Ti( 1.00)
        Zr1           12.00    91.22400     Zr( 1.00)

     No symmetry found

   Cartesian axes

     site n.     atom                  positions (alat units)
         1           Ti1 tau(   1) = (   0.0000000   0.0000000  10.0000000  )
         2           Ti1 tau(   2) = (  -1.4952598   2.5898659  10.0000000  )
         3           Ti1 tau(   3) = (   1.4952598   2.5898659  10.0000000  )
         4           Zr1 tau(   4) = (   2.9905196   0.0000000  10.0000000  )
         5           Ti1 tau(   5) = (   2.9905196   1.7265773  12.4417490  )
         6           Ti1 tau(   6) = (   1.4952598   4.3164432  12.4417490  )
         7           Ti1 tau(   7) = (  -1.4952598   4.3164432  12.4417490  )
         8           Zr1 tau(   8) = (   0.0000000   1.7265773  12.4417490  )
         9           Ti1 tau(   9) = (  -0.0000206   3.5500382  14.7181753  )
        10           Ti1 tau(  10) = (   1.5791602   0.8148395  14.7181678  )
        11           Ti1 tau(  11) = (   4.4018431   0.8148428  14.7182202  )
        12           Zr1 tau(  12) = (   2.9904885   3.4531655  14.8362323  )

     number of k points=    20  Fermi-Dirac smearing, width (Ry)=  0.0110
                       cart. coord. in units 2pi/alat
        k(    1) = (   0.0000000   0.0000000   0.0000000), wk =   0.0555556
        k(    2) = (   0.0000000   0.0321767   0.0000000), wk =   0.1111111
        k(    3) = (   0.0000000   0.0643534   0.0000000), wk =   0.1111111
        k(    4) = (   0.0000000  -0.0965301   0.0000000), wk =   0.0555556
        k(    5) = (   0.0278658   0.0160883   0.0000000), wk =   0.1111111
        k(    6) = (   0.0278658   0.0482650   0.0000000), wk =   0.1111111
        k(    7) = (   0.0278658   0.0804417   0.0000000), wk =   0.1111111
        k(    8) = (   0.0278658  -0.0804417   0.0000000), wk =   0.1111111
        k(    9) = (   0.0278658  -0.0482650   0.0000000), wk =   0.1111111
        k(   10) = (   0.0278658  -0.0160883   0.0000000), wk =   0.1111111
        k(   11) = (   0.0557317   0.0321767   0.0000000), wk =   0.1111111
        k(   12) = (   0.0557317   0.0643534   0.0000000), wk =   0.1111111
        k(   13) = (   0.0557317   0.0965301   0.0000000), wk =   0.1111111
        k(   14) = (   0.0557317  -0.0643534   0.0000000), wk =   0.1111111
        k(   15) = (   0.0557317  -0.0321767   0.0000000), wk =   0.1111111
        k(   16) = (   0.0557317   0.0000000   0.0000000), wk =   0.1111111
        k(   17) = (  -0.0835975  -0.0482650   0.0000000), wk =   0.0555556
        k(   18) = (  -0.0835975  -0.0160883   0.0000000), wk =   0.1111111
        k(   19) = (  -0.0835975   0.0160883   0.0000000), wk =   0.1111111
        k(   20) = (  -0.0835975  -0.1447951   0.0000000), wk =   0.0555556

     Largest allocated arrays     est. size (Mb)     dimensions
     Largest temporary arrays     est. size (Mb)     dimensions

     Check: negative/imaginary core charge=   -0.000005    0.000000

     Initial potential from superposition of free atoms
     Check: negative starting charge=   -0.194480

     starting charge  134.99316, renormalised to  144.00000

[...]

     *
     * You are using vdW-DF for exchange-correlation in this calculation.
     * Please cite the following three references that made this development
     * possible:
     *
     *   M. Dion, H. Rydberg, E. Schroder, D. C. Langreth, and
     *   B. I. Lundqvist, Phys. Rev. Lett. 92, 246401 (2004).
     *
     *   T. Thonhauser, V. R. Cooper, S. Li, A. Puzder, P. Hyldgaard, and
     *   D. C. Langreth, Phys. Rev. B 76, 125112 (2007).
     *
     *   G. Roman-Perez and J. M. Soler, Phys. Rev. Lett. 103, 096102 (2009).
     *
     *
     * If you are using vdW-DF2, please also cite:
     *
     *   K. Lee, E. D. Murray, L. Kong, B. I. Lundqvist, and
     *   D. C. Langreth, Phys. Rev. B 82, 081101(R) (2010).
     *
     *
     * If you are calculating the stress with vdW-DF, please also cite:
     *
     *   R. Sabatini, E. Kucukbenli, B. Kolb, T. Thonhauser, and
     *   S. de Gironcoli, J. Phys.: Condens. Matter 24, 424209 (2012).
     *

     Carrying out vdW-DF run using the following parameters:

     Nqs =      20    Nr_points =    1024   r_max =   100.000
     q_mesh =
               0.00001000     0.04494208     0.09755937     0.15916263
               0.23128650     0.31572767     0.41458969     0.53033537
               0.66584808     0.82450364     1.01025438     1.22772762
               1.48234092     1.78043706     2.12944203     2.53805004
               3.01644009     3.57652955     4.23227104     5.00000000

     Gradients computed in reciprocal space

[...]

     Starting wfc are  129 randomized atomic wfcs

     Self-consistent Calculation

[...]

     iteration # 10     ecut=    36.75 Ry     beta=0.10
     Davidson diagonalization with overlap
     c_bands:  1 eigenvalues not converged
     c_bands:  1 eigenvalues not converged
     ethr =  1.06E-05,  avg # of iterations =  6.7

[...]

     total energy              =   -1378.07292751 Ry
     Harris-Foulkes estimate   =   -1378.07292678 Ry
     estimated scf accuracy    <       0.00000160 Ry

     iteration # 22     ecut=    36.75 Ry     beta=0.10
     Davidson diagonalization with overlap
     ethr =  1.11E-09,  avg # of iterations =  2.0

[...]

     negative rho (up, down):  1.920E-01 0.000E+00

     Adding external electric field

     Computed dipole along edir(3) :
        Dipole                0.0242 Ry au,          0.0615 Debye
        Dipole field          0.0001 Ry au

        Potential amp.       -0.0054 Ry
        Total length         45.8474 bohr

     End of self-consistent calculation

[...]

          k = 0.0557 0.0000 0.0000 ( 19575 PWs)   bands (ev):

[...]

          k =-0.0836-0.1448 0.0000 ( 19564 PWs)   bands (ev):

   -56.1928 -56.1783 -56.1641 -56.1093 -56.0723 -56.0626 -55.9524 -55.9397
   -55.9267 -48.0461 -47.9943 -47.6406 -32.5218 -32.5036 -32.4930 -32.4612
   -32.4528 -32.4351 -32.4220 -32.4073 -32.3983 -32.3968 -32.3843 -32.3716
   -32.3698 -32.3662 -32.2689 -32.2590 -32.2471 -32.2216 -32.1594 -32.1510
   -32.1472 -32.1312 -32.1182 -32.1025 -32.0910 -32.0840 -32.0082 -26.0816
   -26.0413 -26.0259 -26.0218 -25.9907 -25.9760 -25.6881 -25.6637 -25.6489
    -2.9001  -2.8621  -1.8730  -1.6968  -1.1721  -1.0100  -0.9399  -0.8114
    -0.7082  -0.6103  -0.2585  -0.1203  -0.0370   0.0053   0.0784   0.1060
     0.3208   0.3271   0.4248   0.4354   0.4813   0.5399   0.6524   0.7267
     0.7435   0.7916   0.8590   0.8976   0.9995   1.0728   1.1857   1.3242
     1.3714   1.5198   1.5895   1.7504   1.7783   1.8187   2.0548   2.1200
     2.3238   2.4984   2.5380   2.5385   2.6886   2.7385   2.7427   2.7916
     2.8085   2.9689   3.0054   3.1462   3.2314   3.3945

     the Fermi energy is     0.8952 ev

!    total energy              =   -1378.07292948 Ry
     Harris-Foulkes estimate   =   -1378.07292744 Ry
     estimated scf accuracy    <       0.00000056 Ry

     The total energy is the sum of the following terms:

     one-electron contribution =  -10109.68474421 Ry
     hartree contribution      =    5041.19365655 Ry
     xc contribution           =    -223.75572597 Ry
     ewald contribution        =    3914.30613884 Ry
     electric field correction =       0.00000142 Ry
     smearing contrib. (-TS)   =      -0.13225609 Ry

     convergence has been achieved in  22 iterations

 BEEF-vdW xc energy contributions
           1 :   -192.236345425790
           2 :    172.412172345540
           3 :   -139.668302305542
           4 :    104.149272717354
           5 :   -74.3848384345273
           6 :    54.0031373527672
           7 :   -41.5657629074935
           8 :    32.9689521812428
           9 :   -24.5251517246095
          10 :    14.8470683186510
          11 :   -4.82278200928064
          12 :   -3.76069959541806
          13 :    9.72959980924898
          14 :   -13.2078007005502
          15 :    15.2465387070364
          16 :   -16.9004042193216
          17 :    18.4958078018090
          18 :   -19.5750308151868
          19 :    19.4365763230477
          20 :   -17.7839813783511
          21 :    14.9789820455754
          22 :   -11.7679279786646
          23 :    8.76038829725255
          24 :   -6.09227288770992
          25 :    3.49695129771291
          26 :  -0.667703539449263
          27 :   -2.41325489129326
          28 :    5.42304077072598
          29 :   -7.92402486758377
          30 :    9.65492728311881
          31 :   -20.8203098289322
          32 :   -15.0234667065077

     Forces acting on atoms (Ry/au):

     negative rho (up, down):  1.920E-01 0.000E+00
     atom    1 type  1   force =    -0.00000234   -0.00729928    0.01322764
     atom    2 type  1   force =    -0.00632399    0.00364954    0.01322409
     atom    3 type  1   force =     0.00631862    0.00364927    0.01322889
     atom    4 type  2   force =    -0.00000222   -0.00000250    0.00251337
     atom    5 type  1   force =     0.00000620    0.00244891   -0.01152916
     atom    6 type  1   force =     0.00211748   -0.00121792   -0.01152629
     atom    7 type  1   force =    -0.00212453   -0.00122921   -0.01153382
     atom    8 type  2   force =     0.00001935   -0.00000322   -0.00910944
     atom    9 type  1   force =    -0.00000330    0.00107232    0.00086097
     atom   10 type  1   force =     0.00092515   -0.00053539    0.00086137
     atom   11 type  1   force =    -0.00092878   -0.00053354    0.00085818
     atom   12 type  2   force =    -0.00000162    0.00000102   -0.00107579

     Total force =     0.034606     Total SCF correction =     0.002014

     entering subroutine stress ...

     negative rho (up, down):  1.920E-01 0.000E+00
          total   stress  (Ry/bohr**3)                   (kbar)     P=   -6.44
  -0.00004715   0.00000000   0.00000001         -6.94      0.00      0.00
   0.00000000  -0.00004714  -0.00000000          0.00     -6.93     -0.00
   0.00000001  -0.00000000  -0.00003704          0.00     -0.00     -5.45

 !ASE

     Writing output data file calc.save

     General routines

     Parallel routines

   This run was terminated on:   3:41:52  28Dec2018

   JOB DONE.
Job  /afs/slac/g/suncat/bin/suncat-tsmpirun -x LD_LIBRARY_PATH -wdir /scratch/qe111160_wjSCe pw.x -in pw.inp

TID   HOST_NAME   COMMAND_LINE            STATUS            TERMINATION_TIME
00000 suncat0075 pw.x -in pw.inp   Done                     12/28/2018 03:41:52
00001 suncat0075 pw.x -in pw.inp   Done                     12/28/2018 03:41:52
00002 suncat0075 pw.x -in pw.inp   Done                     12/28/2018 03:41:52
00003 suncat0075 pw.x -in pw.inp   Done                     12/28/2018 03:41:52
00004 suncat0075 pw.x -in pw.inp   Done                     12/28/2018 03:41:52
00005 suncat0075 pw.x -in pw.inp   Done                     12/28/2018 03:41:52
00006 suncat0075 pw.x -in pw.inp   Done                     12/28/2018 03:41:52
00007 suncat0075 pw.x -in pw.inp   Done                     12/28/2018 03:41:52
00008 suncat0074 pw.x -in pw.inp   Done                     12/28/2018 03:41:52
00009 suncat0074 pw.x -in pw.inp   Done                     12/28/2018 03:41:52
00010 suncat0074 pw.x -in pw.inp   Done                     12/28/2018 03:41:52
00011 suncat0074 pw.x -in pw.inp   Done                     12/28/2018 03:41:52
00012 suncat0074 pw.x -in pw.inp   Done                     12/28/2018 03:41:52
00013 suncat0074 pw.x -in pw.inp   Done                     12/28/2018 03:41:52
00014 suncat0074 pw.x -in pw.inp   Done                     12/28/2018 03:41:52
00015 suncat0074 pw.x -in pw.inp   Done                     12/28/2018 03:41:52
00016 suncat0065 pw.x -in pw.inp   Done                     12/28/2018 03:41:52
00017 suncat0065 pw.x -in pw.inp   Done                     12/28/2018 03:41:52
00018 suncat0065 pw.x -in pw.inp   Done                     12/28/2018 03:41:52
00019 suncat0065 pw.x -in pw.inp   Done                     12/28/2018 03:41:52
00020 suncat0065 pw.x -in pw.inp   Done                     12/28/2018 03:41:52
00021 suncat0065 pw.x -in pw.inp   Done                     12/28/2018 03:41:52
00022 suncat0065 pw.x -in pw.inp   Done                     12/28/2018 03:41:52
00023 suncat0065 pw.x -in pw.inp   Done                     12/28/2018 03:41:52
00024 suncat0195 pw.x -in pw.inp   Done                     12/28/2018 03:41:52
00025 suncat0195 pw.x -in pw.inp   Done                     12/28/2018 03:41:52
00026 suncat0195 pw.x -in pw.inp   Done                     12/28/2018 03:41:52
00027 suncat0195 pw.x -in pw.inp   Done                     12/28/2018 03:41:52
00028 suncat0195 pw.x -in pw.inp   Done                     12/28/2018 03:41:52
00029 suncat0195 pw.x -in pw.inp   Done                     12/28/2018 03:41:52
00030 suncat0195 pw.x -in pw.inp   Done                     12/28/2018 03:41:52
00031 suncat0195 pw.x -in pw.inp   Done                     12/28/2018 03:41:52
00032 suncat0003 pw.x -in pw.inp   Done                     12/28/2018 03:41:52
00033 suncat0003 pw.x -in pw.inp   Done                     12/28/2018 03:41:52
00034 suncat0003 pw.x -in pw.inp   Done                     12/28/2018 03:41:52
00035 suncat0003 pw.x -in pw.inp   Done                     12/28/2018 03:41:52
00036 suncat0003 pw.x -in pw.inp   Done                     12/28/2018 03:41:52
00037 suncat0003 pw.x -in pw.inp   Done                     12/28/2018 03:41:52
00038 suncat0003 pw.x -in pw.inp   Done                     12/28/2018 03:41:52
00039 suncat0003 pw.x -in pw.inp   Done                     12/28/2018 03:41:52
00040 suncat0002 pw.x -in pw.inp   Done                     12/28/2018 03:41:52
00041 suncat0002 pw.x -in pw.inp   Done                     12/28/2018 03:41:52
00042 suncat0002 pw.x -in pw.inp   Done                     12/28/2018 03:41:52
00043 suncat0002 pw.x -in pw.inp   Done                     12/28/2018 03:41:52
00044 suncat0002 pw.x -in pw.inp   Done                     12/28/2018 03:41:52
00045 suncat0002 pw.x -in pw.inp   Done                     12/28/2018 03:41:52
00046 suncat0002 pw.x -in pw.inp   Done                     12/28/2018 03:41:52
00047 suncat0002 pw.x -in pw.inp   Done                     12/28/2018 03:41:52
00048 suncat0283 pw.x -in pw.inp   Done                     12/28/2018 03:41:52
00049 suncat0283 pw.x -in pw.inp   Done                     12/28/2018 03:41:52
00050 suncat0283 pw.x -in pw.inp   Done                     12/28/2018 03:41:52
00051 suncat0283 pw.x -in pw.inp   Done                     12/28/2018 03:41:52
00052 suncat0283 pw.x -in pw.inp   Done                     12/28/2018 03:41:52
00053 suncat0283 pw.x -in pw.inp   Done                     12/28/2018 03:41:52
00054 suncat0283 pw.x -in pw.inp   Done                     12/28/2018 03:41:52
00055 suncat0283 pw.x -in pw.inp   Done                     12/28/2018 03:41:52
00056 suncat0282 pw.x -in pw.inp   Done                     12/28/2018 03:41:52
00057 suncat0282 pw.x -in pw.inp   Done                     12/28/2018 03:41:52
00058 suncat0282 pw.x -in pw.inp   Done                     12/28/2018 03:41:52
00059 suncat0282 pw.x -in pw.inp   Done                     12/28/2018 03:41:52
00060 suncat0282 pw.x -in pw.inp   Done                     12/28/2018 03:41:52
00061 suncat0282 pw.x -in pw.inp   Done                     12/28/2018 03:41:52
00062 suncat0282 pw.x -in pw.inp   Done                     12/28/2018 03:41:52
00063 suncat0282 pw.x -in pw.inp   Done                     12/28/2018 03:41:52