     Program PWSCF v.5.1rc2 (svn rev. 11289) starts on 26Dec2018 at 16:20: 1

     Current dimensions of program PWSCF are:
     Max number of different atomic species (ntypx) = 10
     Max number of k-points (npk) =  40000
     Max angular momentum in pseudopotentials (lmaxx) =  3
     Presently stress not available with electric field

     IMPORTANT: XC functional enforced from input :
     Exchange-correlation      = BEEF-VDW ( 1  4 27 13 2)
     Any further DFT definition will be discarded
     Please, verify this is what you really want

     Subspace diagonalization in iterative solution of the eigenvalue problem:
     a serial algorithm will be used

     bravais-lattice index     =            0
     lattice parameter (alat)  =       1.8897  a.u.
     unit-cell volume          =    4489.7229 (a.u.)^3
     number of atoms/cell      =           12
     number of atomic types    =            2
     number of electrons       =       168.00
     number of Kohn-Sham states=          114
     kinetic-energy cutoff     =      36.7493  Ry
     charge density cutoff     =     367.4932  Ry
     convergence threshold     =      1.0E-06
     mixing beta               =       0.1000
     number of iterations used =           10  plain     mixing
     Exchange-correlation      = BEEF-VDW ( 1  4 27 13 2)
     nstep                     =           50

     celldm(1)=   1.889726  celldm(2)=   0.000000  celldm(3)=   0.000000
     celldm(4)=   0.000000  celldm(5)=   0.000000  celldm(6)=   0.000000

     crystal axes: (cart. coord. in units of alat)
               a(1) = (   5.592154   0.000000   0.000000 )
               a(2) = (  -2.796077   4.842948   0.000000 )
               a(3) = (   0.000000   0.000000  24.565975 )

     reciprocal axes: (cart. coord. in units 2 pi/alat)
               b(1) = (  0.178822  0.103243  0.000000 )
               b(2) = (  0.000000  0.206486  0.000000 )
               b(3) = (  0.000000  0.000000  0.040707 )

     PseudoPot. # 1 for Ir read from file:
     /afs/slac.stanford.edu/u/if/mamunm/psp/gbrv1.5pbe/Ir.UPF
     MD5 check sum: 8836f839c3459d2b385c504ce6d91f2c
     Pseudo is Ultrasoft + core correction, Zval = 15.0
     Generated by new atomic code, or converted to UPF format
     Using radial grid of  983 points,  7 beta functions with:
                l(1) =   0
                l(2) =   0
                l(3) =   1
                l(4) =   1
                l(5) =   1
                l(6) =   2
                l(7) =   2
     Q(r) pseudized with  8 coefficients,  rinner =    1.400   1.400   1.400
                                                       1.400   1.400

     PseudoPot. # 2 for Sc read from file:
     /afs/slac.stanford.edu/u/if/mamunm/psp/gbrv1.5pbe/Sc.UPF
     MD5 check sum: db30a2753ba66ef00f23801d899b7e7f
     Pseudo is Ultrasoft + core correction, Zval = 11.0
     Generated by new atomic code, or converted to UPF format
     Using radial grid of  849 points,  6 beta functions with:
                l(1) =   0
                l(2) =   0
                l(3) =   1
                l(4) =   1
                l(5) =   2
                l(6) =   2
     Q(r) pseudized with  6 coefficients,  rinner =    1.200   1.200   1.200
                                                       1.200   1.200

     vdW kernel table read from file vdW_kernel_table
     MD5 check sum: 095c7af220d748ca6e76c0b4c6cfb241

     atomic species   valence    mass     pseudopotential
        Ir1           15.00   192.21700     Ir( 1.00)
        Sc1           11.00    44.95591     Sc( 1.00)

     No symmetry found

   Cartesian axes

     site n.     atom                  positions (alat units)
         1           Ir1 tau(   1) = (   0.0000000   0.0000000  10.0000000  )
         2           Ir1 tau(   2) = (   4.1941157   2.4214739  10.0000000  )
         3           Ir1 tau(   3) = (   1.3980386   2.4214739  10.0000000  )
         4           Sc1 tau(   4) = (   2.7960772   0.0000000  10.0000000  )
         5           Ir1 tau(   5) = (   2.7960772   1.6143159  12.2829874  )
         6           Ir1 tau(   6) = (   1.3980386   4.0357898  12.2829874  )
         7           Ir1 tau(   7) = (  -1.3980386   4.0357898  12.2829874  )
         8           Sc1 tau(   8) = (   0.0000000   1.6143159  12.2829874  )
         9           Ir1 tau(   9) = (  -0.0000000   3.2286318  14.5659749  )
        10           Ir1 tau(  10) = (   1.3980386   0.8071580  14.5659749  )
        11           Ir1 tau(  11) = (   4.1941157   0.8071580  14.5659749  )
        12           Sc1 tau(  12) = (   2.7960772   3.2286318  14.5659749  )

     number of k points=    20  Fermi-Dirac smearing, width (Ry)=  0.0110
                       cart. coord. in units 2pi/alat
        k(    1) = (   0.0000000   0.0000000   0.0000000), wk =   0.0555556
        k(    2) = (   0.0000000   0.0344143   0.0000000), wk =   0.1111111
        k(    3) = (   0.0000000   0.0688286   0.0000000), wk =   0.1111111
        k(    4) = (   0.0000000  -0.1032429   0.0000000), wk =   0.0555556
        k(    5) = (   0.0298037   0.0172072   0.0000000), wk =   0.1111111
        k(    6) = (   0.0298037   0.0516215   0.0000000), wk =   0.1111111
        k(    7) = (   0.0298037   0.0860358   0.0000000), wk =   0.1111111
        k(    8) = (   0.0298037  -0.0860358   0.0000000), wk =   0.1111111
        k(    9) = (   0.0298037  -0.0516215   0.0000000), wk =   0.1111111
        k(   10) = (   0.0298037  -0.0172072   0.0000000), wk =   0.1111111
        k(   11) = (   0.0596073   0.0344143   0.0000000), wk =   0.1111111
        k(   12) = (   0.0596073   0.0688286   0.0000000), wk =   0.1111111
        k(   13) = (   0.0596073   0.1032429   0.0000000), wk =   0.1111111
        k(   14) = (   0.0596073  -0.0688286   0.0000000), wk =   0.1111111
        k(   15) = (   0.0596073  -0.0344143   0.0000000), wk =   0.1111111
        k(   16) = (   0.0596073  -0.0000000   0.0000000), wk =   0.1111111
        k(   17) = (  -0.0894110  -0.0516215   0.0000000), wk =   0.0555556
        k(   18) = (  -0.0894110  -0.0172072   0.0000000), wk =   0.1111111
        k(   19) = (  -0.0894110   0.0172072   0.0000000), wk =   0.1111111
        k(   20) = (  -0.0894110  -0.1548644   0.0000000), wk =   0.0555556

     Largest allocated arrays     est. size (Mb)     dimensions
     Largest temporary arrays     est. size (Mb)     dimensions

     Initial potential from superposition of free atoms
     Check: negative starting charge=   -3.282813

     starting charge  163.49251, renormalised to  168.00000

     negative rho (up, down):  3.373E+00 0.000E+00

     *
     * You are using vdW-DF for exchange-correlation in this calculation.
     * Please cite the following three references that made this development
     * possible:
     *
     *   M. Dion, H. Rydberg, E. Schroder, D. C. Langreth, and
     *   B. I. Lundqvist, Phys. Rev. Lett. 92, 246401 (2004).
     *
     *   T. Thonhauser, V. R. Cooper, S. Li, A. Puzder, P. Hyldgaard, and
     *   D. C. Langreth, Phys. Rev. B 76, 125112 (2007).
     *
     *   G. Roman-Perez and J. M. Soler, Phys. Rev. Lett. 103, 096102 (2009).
     *
     *
     * If you are using vdW-DF2, please also cite:
     *
     *   K. Lee, E. D. Murray, L. Kong, B. I. Lundqvist, and
     *   D. C. Langreth, Phys. Rev. B 82, 081101(R) (2010).
     *
     *
     * If you are calculating the stress with vdW-DF, please also cite:
     *
     *   R. Sabatini, E. Kucukbenli, B. Kolb, T. Thonhauser, and
     *   S. de Gironcoli, J. Phys.: Condens. Matter 24, 424209 (2012).
     *

     Carrying out vdW-DF run using the following parameters:

     Nqs =      20    Nr_points =    1024   r_max =   100.000
     q_mesh =
               0.00001000     0.04494208     0.09755937     0.15916263
               0.23128650     0.31572767     0.41458969     0.53033537
               0.66584808     0.82450364     1.01025438     1.22772762
               1.48234092     1.78043706     2.12944203     2.53805004
               3.01644009     3.57652955     4.23227104     5.00000000

     Gradients computed in reciprocal space

     Adding external electric field

     Computed dipole along edir(3) :
        Dipole                0.0000 Ry au,          0.0000 Debye
        Dipole field          0.0000 Ry au

        Potential amp.       -0.0000 Ry
        Total length         45.2624 bohr

     Starting wfc are  147 randomized atomic wfcs

     Self-consistent Calculation

     iteration #  1     ecut=    36.75 Ry     beta=0.10
     Davidson diagonalization with overlap
     ethr =  1.00E-02,  avg # of iterations =  6.0

[...]

     total energy              =   -1935.00780163 Ry
     Harris-Foulkes estimate   =   -1937.29166635 Ry
     estimated scf accuracy    <      14.34961791 Ry

[...]

     End of self-consistent calculation

          k = 0.0000 0.0000 0.0000 ( 16811 PWs)   bands (ev):

   -47.4670 -47.4322 -47.2793 -47.1509 -47.1509 -47.0900 -47.0886 -47.0886
   -46.9330 -46.9228 -46.8827 -46.8428 -46.8428 -46.7968 -46.7100 -46.7100
   -46.6872 -46.6872 -46.5806 -46.5806 -46.5725 -46.5627 -46.5627 -46.5552
   -46.4912 -46.4861 -46.4721 -46.4721 -46.4685 -46.4685 -26.1464 -26.1321
   -25.9855 -25.9855 -25.9817 -25.9817 -25.4220 -25.4220 -25.3876  -5.9033
    -4.2847  -3.8586  -3.3941  -3.3466  -3.3466  -3.0435  -3.0435  -2.9090
    -2.6750  -2.6517  -2.6517  -2.4062  -2.4062  -2.3919  -1.5504  -1.0303
    -1.0303  -0.8956  -0.8956  -0.4686  -0.4087  -0.3126  -0.1303   0.2592
     0.2592   0.2934   0.2934   0.3464   0.3464   0.7414   0.7414   0.9274
     0.9275   1.2908   1.3356   1.7951   1.7951   1.8062   1.8062   2.0135
     2.0135   2.4277   2.7185   2.7185   2.7759   2.7781   3.2936   3.3558
     3.7483   3.8050   3.9055   3.9055   4.0088   4.8054   4.8054   5.0051
     5.0051   5.0899   5.3651   5.3651   5.4200   5.4200   5.5890   5.5890
     6.0600   6.0600   6.1423   6.2365   6.3181   6.3181   6.5073   6.7692
     7.0669   7.0669

[...]

          k =-0.0894-0.0516 0.0000 ( 16912 PWs)   bands (ev):

[...]

     the Fermi energy is     2.0465 ev

!    total energy              =   -1934.73932984 Ry
     Harris-Foulkes estimate   =   -1934.73932537 Ry
     estimated scf accuracy    <       0.00000081 Ry

     The total energy is the sum of the following terms:

     one-electron contribution =  -15381.92046966 Ry
     hartree contribution      =    7712.07718081 Ry
     xc contribution           =    -509.76342112 Ry
     ewald contribution        =    6244.94088640 Ry
     electric field correction =       0.00000002 Ry
     smearing contrib. (-TS)   =      -0.07350629 Ry

     convergence has been achieved in  17 iterations

 BEEF-vdW xc energy contributions
           1 :   -449.786811353189
           2 :    416.618511831439
           3 :   -358.101314945675
           4 :    286.817438222844
           5 :   -215.824045164347
           6 :    155.033463252745
           7 :   -109.365886009994
           8 :    78.8159672890674
           9 :   -59.9274974406418
          10 :    47.8621277992602
          11 :   -38.2718587497910
          12 :    28.4472793539028
          13 :   -17.6185446950863
          14 :    6.58977112724449
[...]
     PseudoPot. # 1 for Ir read from file:
     /afs/slac.stanford.edu/u/if/mamunm/psp/gbrv1.5pbe/Ir.UPF
     MD5 check sum: 8836f839c3459d2b385c504ce6d91f2c
     Pseudo is Ultrasoft + core correction, Zval = 15.0
     Generated by new atomic code, or converted to UPF format
     Using radial grid of  983 points,  7 beta functions with:
                l(1) =   0
                l(2) =   0
                l(3) =   1
                l(4) =   1
                l(5) =   1
                l(6) =   2
                l(7) =   2
     Q(r) pseudized with  8 coefficients,  rinner =    1.400   1.400   1.400
                                                       1.400   1.400

     PseudoPot. # 2 for Sc read from file:
     /afs/slac.stanford.edu/u/if/mamunm/psp/gbrv1.5pbe/Sc.UPF
     MD5 check sum: db30a2753ba66ef00f23801d899b7e7f
     Pseudo is Ultrasoft + core correction, Zval = 11.0
     Generated by new atomic code, or converted to UPF format
     Using radial grid of  849 points,  6 beta functions with:
                l(1) =   0
                l(2) =   0
                l(3) =   1
                l(4) =   1
                l(5) =   2
                l(6) =   2
     Q(r) pseudized with  6 coefficients,  rinner =    1.200   1.200   1.200
                                                       1.200   1.200

     vdW kernel table read from file vdW_kernel_table
     MD5 check sum: 095c7af220d748ca6e76c0b4c6cfb241

     atomic species   valence    mass     pseudopotential
        Ir1           15.00   192.21700     Ir( 1.00)
        Sc1           11.00    44.95591     Sc( 1.00)

     No symmetry found

   Cartesian axes

     site n.     atom                  positions (alat units)
         1           Ir1 tau(   1) = (   0.0000000   0.0000000  10.0000000  )
         2           Ir1 tau(   2) = (   4.1941157   2.4214739  10.0000000  )
         3           Ir1 tau(   3) = (   1.3980386   2.4214739  10.0000000  )
         4           Sc1 tau(   4) = (   2.7960772   0.0000000  10.0000000  )
         5           Ir1 tau(   5) = (   2.7960772   1.6143159  12.2829874  )
         6           Ir1 tau(   6) = (   1.3980386   4.0357898  12.2829874  )
         7           Ir1 tau(   7) = (  -1.3980386   4.0357898  12.2829874  )
         8           Sc1 tau(   8) = (   0.0000000   1.6143159  12.2829874  )
         9           Ir1 tau(   9) = (  -0.0000011   3.2160574  14.4714024  )
        10           Ir1 tau(  10) = (   1.3871506   0.8134449  14.4714010  )
        11           Ir1 tau(  11) = (   4.2050021   0.8134454  14.4714014  )
        12           Sc1 tau(  12) = (   2.7960766   3.2286344  14.6026278  )

     number of k points=    20  Fermi-Dirac smearing, width (Ry)=  0.0110
                       cart. coord. in units 2pi/alat
        k(    1) = (   0.0000000   0.0000000   0.0000000), wk =   0.0555556
        k(    2) = (   0.0000000   0.0344143   0.0000000), wk =   0.1111111
        k(    3) = (   0.0000000   0.0688286   0.0000000), wk =   0.1111111
        k(    4) = (   0.0000000  -0.1032429   0.0000000), wk =   0.0555556
        k(    5) = (   0.0298037   0.0172072   0.0000000), wk =   0.1111111
        k(    6) = (   0.0298037   0.0516215   0.0000000), wk =   0.1111111
        k(    7) = (   0.0298037   0.0860358   0.0000000), wk =   0.1111111
        k(    8) = (   0.0298037  -0.0860358   0.0000000), wk =   0.1111111
        k(    9) = (   0.0298037  -0.0516215   0.0000000), wk =   0.1111111
        k(   10) = (   0.0298037  -0.0172072   0.0000000), wk =   0.1111111
        k(   11) = (   0.0596073   0.0344143   0.0000000), wk =   0.1111111
        k(   12) = (   0.0596073   0.0688286   0.0000000), wk =   0.1111111
        k(   13) = (   0.0596073   0.1032429   0.0000000), wk =   0.1111111
        k(   14) = (   0.0596073  -0.0688286   0.0000000), wk =   0.1111111
        k(   15) = (   0.0596073  -0.0344143   0.0000000), wk =   0.1111111
        k(   16) = (   0.0596073  -0.0000000   0.0000000), wk =   0.1111111
        k(   17) = (  -0.0894110  -0.0516215   0.0000000), wk =   0.0555556
        k(   18) = (  -0.0894110  -0.0172072   0.0000000), wk =   0.1111111
        k(   19) = (  -0.0894110   0.0172072   0.0000000), wk =   0.1111111
        k(   20) = (  -0.0894110  -0.1548644   0.0000000), wk =   0.0555556

     Largest allocated arrays     est. size (Mb)     dimensions
     Largest temporary arrays     est. size (Mb)     dimensions

     Initial potential from superposition of free atoms
     Check: negative starting charge=   -3.280515

     starting charge  163.49251, renormalised to  168.00000

[...]

     *
     * You are using vdW-DF for exchange-correlation in this calculation.
     * Please cite the following three references that made this development
     * possible:
     *
     *   M. Dion, H. Rydberg, E. Schroder, D. C. Langreth, and
     *   B. I. Lundqvist, Phys. Rev. Lett. 92, 246401 (2004).
     *
     *   T. Thonhauser, V. R. Cooper, S. Li, A. Puzder, P. Hyldgaard, and
     *   D. C. Langreth, Phys. Rev. B 76, 125112 (2007).
     *
     *   G. Roman-Perez and J. M. Soler, Phys. Rev. Lett. 103, 096102 (2009).
     *
     *
     * If you are using vdW-DF2, please also cite:
     *
     *   K. Lee, E. D. Murray, L. Kong, B. I. Lundqvist, and
     *   D. C. Langreth, Phys. Rev. B 82, 081101(R) (2010).
     *
     *
     * If you are calculating the stress with vdW-DF, please also cite:
     *
     *   R. Sabatini, E. Kucukbenli, B. Kolb, T. Thonhauser, and
     *   S. de Gironcoli, J. Phys.: Condens. Matter 24, 424209 (2012).
     *

     Carrying out vdW-DF run using the following parameters:

     Nqs =      20    Nr_points =    1024   r_max =   100.000
     q_mesh =
               0.00001000     0.04494208     0.09755937     0.15916263
               0.23128650     0.31572767     0.41458969     0.53033537
               0.66584808     0.82450364     1.01025438     1.22772762
               1.48234092     1.78043706     2.12944203     2.53805004
               3.01644009     3.57652955     4.23227104     5.00000000

     Gradients computed in reciprocal space

[...]

     Starting wfc are  147 randomized atomic wfcs

     Self-consistent Calculation

[...]

     total energy              =   -1934.75576290 Ry
     Harris-Foulkes estimate   =   -1934.75575041 Ry
     estimated scf accuracy    <       0.00000186 Ry

     iteration # 17     ecut=    36.75 Ry     beta=0.10
     Davidson diagonalization with overlap
     ethr =  1.10E-09,  avg # of iterations =  3.0

[...]

     negative rho (up, down):  2.935E+00 0.000E+00

     Adding external electric field

     Computed dipole along edir(3) :
        Dipole                0.0396 Ry au,          0.1006 Debye
        Dipole field          0.0001 Ry au

        Potential amp.       -0.0100 Ry
        Total length         45.2624 bohr

     End of self-consistent calculation

[...]

          k = 0.0596-0.0000 0.0000 ( 16880 PWs)   bands (ev):

[...]

          k =-0.0894-0.1549 0.0000 ( 16912 PWs)   bands (ev):

   -47.4801 -47.4192 -47.2080 -47.1378 -47.1061 -47.1051 -47.0224 -47.0086
   -46.9890 -46.9485 -46.8283 -46.8027 -46.7381 -46.6819 -46.6483 -46.6178
   -46.6154 -46.5936 -46.5778 -46.5535 -46.5521 -46.5509 -46.5334 -46.5183
   -46.5136 -46.4886 -46.4834 -46.4691 -46.4368 -46.4083 -26.1662 -26.0888
   -26.0099 -25.9966 -25.9561 -25.9422 -25.2944 -25.2791 -25.2402  -4.4514
    -4.0186  -2.9867  -2.6601  -2.6529  -2.5806  -2.5176  -2.2219  -2.1796
    -2.1342  -1.9687  -1.9085  -1.6223  -1.5320  -1.4501  -1.3875  -1.3398
    -1.0823  -0.9563  -0.9446  -0.4905  -0.4495  -0.3969  -0.3287  -0.2885
    -0.2465  -0.1818  -0.0628  -0.0320  -0.0118   0.0122   0.0844   0.1759
     0.3748   0.6533   0.6822   0.8346   0.9232   0.9768   1.0269   1.1166
     1.3573   1.6231   1.6461   1.7921   1.8753   2.1003   2.2756   2.3731
     2.6418   2.7820   3.3974   3.5435   3.7763   4.3688   4.4619   4.5495
     4.5684   4.7636   5.0769   5.1017   5.2356   5.2853   5.4877   5.5360
     5.6350   6.2421   6.5335   6.9008   7.2553   7.4535   7.6524   7.6843
     7.7227   7.9383

     the Fermi energy is     2.1044 ev

!    total energy              =   -1934.75576188 Ry
     Harris-Foulkes estimate   =   -1934.75576233 Ry
     estimated scf accuracy    <       0.00000087 Ry

     The total energy is the sum of the following terms:

     one-electron contribution =  -15533.10674085 Ry
     hartree contribution      =    7787.87135973 Ry
     xc contribution           =    -509.89646491 Ry
     ewald contribution        =    6320.44775751 Ry
     electric field correction =       0.00000438 Ry
     smearing contrib. (-TS)   =      -0.07167773 Ry

     convergence has been achieved in  17 iterations

 BEEF-vdW xc energy contributions
           1 :   -450.174456665563
           2 :    417.067371568422
           3 :   -358.631842895181
           4 :    287.391914389031
           5 :   -216.362402449082
           6 :    155.455571614012
           7 :   -109.636629762392
           8 :    78.9634772032977
           9 :   -60.0250120048678
          10 :    47.9902510919600
          11 :   -38.4851593483257
          12 :    28.7581313558950
          13 :   -17.9990040661932
          14 :    6.98624237718212
          15 :    2.64663465242336
          16 :   -9.26748534004162
          17 :    11.9893289607023
          18 :   -11.0792787727159
          19 :    7.88426498067247
          20 :   -4.30472994436559
          21 :    2.03635410628868
          22 :   -1.91314976309775
          23 :    3.64995865077503
          24 :   -6.10051095288702
          25 :    7.88509318265517
          26 :   -8.06128132743800
          27 :    6.51188224605721
          28 :   -3.90237418217185
          29 :    1.28599877969776
          30 :   0.408303173843933
          31 :   -39.6375008993543
          32 :   -29.5277923861260

     Forces acting on atoms (Ry/au):

     negative rho (up, down):  2.935E+00 0.000E+00
     atom    1 type  1   force =     0.00000000    0.00416739    0.02274390
     atom    2 type  1   force =     0.00360926   -0.00208370    0.02274316
     atom    3 type  1   force =    -0.00360875   -0.00208360    0.02274373
     atom    4 type  2   force =     0.00000048    0.00000005   -0.00809236
     atom    5 type  1   force =     0.00000011    0.00907043   -0.01267703
     atom    6 type  1   force =     0.00785474   -0.00453544   -0.01267750
     atom    7 type  1   force =    -0.00785489   -0.00453523   -0.01267771
     atom    8 type  2   force =    -0.00000007    0.00000038   -0.02319543
     atom    9 type  1   force =    -0.00000007    0.00023248    0.00003178
     atom   10 type  1   force =     0.00020093   -0.00011601    0.00003191
     atom   11 type  1   force =    -0.00020117   -0.00011631    0.00003177
     atom   12 type  2   force =    -0.00000056   -0.00000044    0.00099379

     Total force =     0.054199     Total SCF correction =     0.005361

     entering subroutine stress ...

     negative rho (up, down):  2.935E+00 0.000E+00
          total   stress  (Ry/bohr**3)                   (kbar)     P=  -21.01
  -0.00016991   0.00000000   0.00000000        -25.00      0.00      0.00
   0.00000000  -0.00016991  -0.00000000          0.00    -25.00     -0.00
   0.00000000  -0.00000000  -0.00008862          0.00     -0.00    -13.04

 !ASE

     Writing output data file calc.save

     General routines

     Parallel routines

   This run was terminated on:  17:24:13  26Dec2018

   JOB DONE.
Job  /afs/slac/g/suncat/bin/suncat-tsmpirun -x LD_LIBRARY_PATH -wdir /scratch/qe109962_QM6OM pw.x -in pw.inp

TID   HOST_NAME   COMMAND_LINE            STATUS            TERMINATION_TIME
00000 suncat0006 pw.x -in pw.inp   Done                     12/26/2018 17:24:13
00001 suncat0006 pw.x -in pw.inp   Done                     12/26/2018 17:24:13
00002 suncat0006 pw.x -in pw.inp   Done                     12/26/2018 17:24:13
00003 suncat0006 pw.x -in pw.inp   Done                     12/26/2018 17:24:13
00004 suncat0006 pw.x -in pw.inp   Done                     12/26/2018 17:24:13
00005 suncat0006 pw.x -in pw.inp   Done                     12/26/2018 17:24:13
00006 suncat0006 pw.x -in pw.inp   Done                     12/26/2018 17:24:13
00007 suncat0006 pw.x -in pw.inp   Done                     12/26/2018 17:24:13
00008 suncat0005 pw.x -in pw.inp   Done                     12/26/2018 17:24:13
00009 suncat0005 pw.x -in pw.inp   Done                     12/26/2018 17:24:13
00010 suncat0005 pw.x -in pw.inp   Done                     12/26/2018 17:24:13
00011 suncat0005 pw.x -in pw.inp   Done                     12/26/2018 17:24:13
00012 suncat0005 pw.x -in pw.inp   Done                     12/26/2018 17:24:13
00013 suncat0005 pw.x -in pw.inp   Done                     12/26/2018 17:24:13
00014 suncat0005 pw.x -in pw.inp   Done                     12/26/2018 17:24:13
00015 suncat0005 pw.x -in pw.inp   Done                     12/26/2018 17:24:13
00016 suncat0180 pw.x -in pw.inp   Done                     12/26/2018 17:24:13
00017 suncat0180 pw.x -in pw.inp   Done                     12/26/2018 17:24:13
00018 suncat0180 pw.x -in pw.inp   Done                     12/26/2018 17:24:13
00019 suncat0180 pw.x -in pw.inp   Done                     12/26/2018 17:24:13
00020 suncat0180 pw.x -in pw.inp   Done                     12/26/2018 17:24:13
00021 suncat0180 pw.x -in pw.inp   Done                     12/26/2018 17:24:13
00022 suncat0180 pw.x -in pw.inp   Done                     12/26/2018 17:24:13
00023 suncat0180 pw.x -in pw.inp   Done                     12/26/2018 17:24:13
00024 suncat0167 pw.x -in pw.inp   Done                     12/26/2018 17:24:13
00025 suncat0167 pw.x -in pw.inp   Done                     12/26/2018 17:24:13
00026 suncat0167 pw.x -in pw.inp   Done                     12/26/2018 17:24:13
00027 suncat0167 pw.x -in pw.inp   Done                     12/26/2018 17:24:13
00028 suncat0167 pw.x -in pw.inp   Done                     12/26/2018 17:24:13
00029 suncat0167 pw.x -in pw.inp   Done                     12/26/2018 17:24:13
00030 suncat0167 pw.x -in pw.inp   Done                     12/26/2018 17:24:13
00031 suncat0167 pw.x -in pw.inp   Done                     12/26/2018 17:24:13
00032 suncat0166 pw.x -in pw.inp   Done                     12/26/2018 17:24:13
00033 suncat0166 pw.x -in pw.inp   Done                     12/26/2018 17:24:13
00034 suncat0166 pw.x -in pw.inp   Done                     12/26/2018 17:24:13
00035 suncat0166 pw.x -in pw.inp   Done                     12/26/2018 17:24:13
00036 suncat0166 pw.x -in pw.inp   Done                     12/26/2018 17:24:13
00037 suncat0166 pw.x -in pw.inp   Done                     12/26/2018 17:24:13
00038 suncat0166 pw.x -in pw.inp   Done                     12/26/2018 17:24:13
00039 suncat0166 pw.x -in pw.inp   Done                     12/26/2018 17:24:13
00040 suncat0165 pw.x -in pw.inp   Done                     12/26/2018 17:24:13
00041 suncat0165 pw.x -in pw.inp   Done                     12/26/2018 17:24:13
00042 suncat0165 pw.x -in pw.inp   Done                     12/26/2018 17:24:13
00043 suncat0165 pw.x -in pw.inp   Done                     12/26/2018 17:24:13
00044 suncat0165 pw.x -in pw.inp   Done                     12/26/2018 17:24:13
00045 suncat0165 pw.x -in pw.inp   Done                     12/26/2018 17:24:13
00046 suncat0165 pw.x -in pw.inp   Done                     12/26/2018 17:24:13
00047 suncat0165 pw.x -in pw.inp   Done                     12/26/2018 17:24:13
00048 suncat0164 pw.x -in pw.inp   Done                     12/26/2018 17:24:13
00049 suncat0164 pw.x -in pw.inp   Done                     12/26/2018 17:24:13
00050 suncat0164 pw.x -in pw.inp   Done                     12/26/2018 17:24:13
00051 suncat0164 pw.x -in pw.inp   Done                     12/26/2018 17:24:13
00052 suncat0164 pw.x -in pw.inp   Done                     12/26/2018 17:24:13
00053 suncat0164 pw.x -in pw.inp   Done                     12/26/2018 17:24:13
00054 suncat0164 pw.x -in pw.inp   Done                     12/26/2018 17:24:13
00055 suncat0164 pw.x -in pw.inp   Done                     12/26/2018 17:24:13
00056 suncat0143 pw.x -in pw.inp   Done                     12/26/2018 17:24:13
00057 suncat0143 pw.x -in pw.inp   Done                     12/26/2018 17:24:13
00058 suncat0143 pw.x -in pw.inp   Done                     12/26/2018 17:24:13
00059 suncat0143 pw.x -in pw.inp   Done                     12/26/2018 17:24:13
00060 suncat0143 pw.x -in pw.inp   Done                     12/26/2018 17:24:13
00061 suncat0143 pw.x -in pw.inp   Done                     12/26/2018 17:24:13
00062 suncat0143 pw.x -in pw.inp   Done                     12/26/2018 17:24:13
00063 suncat0143 pw.x -in pw.inp   Done                     12/26/2018 17:24:13