     Program PWSCF v.5.1rc2 (svn rev. 11289) starts on 26Dec2018 at 17:39:43

     Current dimensions of program PWSCF are:
     Max number of different atomic species (ntypx) = 10
     Max number of k-points (npk) =  40000
     Max angular momentum in pseudopotentials (lmaxx) =  3
     Presently stress not available with electric field

     IMPORTANT: XC functional enforced from input :
     Exchange-correlation      = BEEF-VDW ( 1  4 27 13 2)
     Any further DFT definition will be discarded
     Please, verify this is what you really want

     Subspace diagonalization in iterative solution of the eigenvalue problem:
     a serial algorithm will be used

     bravais-lattice index     =            0
     lattice parameter (alat)  =       1.8897  a.u.
     unit-cell volume          =    6999.6787 (a.u.)^3
     number of atoms/cell      =           12
     number of atomic types    =            2
     number of electrons       =       147.00
     number of Kohn-Sham states=          103
     kinetic-energy cutoff     =      36.7493  Ry
     charge density cutoff     =     367.4932  Ry
     convergence threshold     =      1.0E-06
     mixing beta               =       0.1000
     number of iterations used =           10  plain     mixing
     Exchange-correlation      = BEEF-VDW ( 1  4 27 13 2)
     nstep                     =           50

     celldm(1)=   1.889726  celldm(2)=   0.000000  celldm(3)=   0.000000
     celldm(4)=   0.000000  celldm(5)=   0.000000  celldm(6)=   0.000000

     crystal axes: (cart. coord. in units of alat)
               a(1) = (   6.841818   0.000000   0.000000 )
               a(2) = (  -3.420909   5.925188   0.000000 )
               a(3) = (   0.000000   0.000000  25.586321 )

     reciprocal axes: (cart. coord. in units 2 pi/alat)
               b(1) = (  0.146160  0.084386  0.000000 )
               b(2) = (  0.000000  0.168771  0.000000 )
               b(3) = (  0.000000  0.000000  0.039083 )

     PseudoPot. # 1 for La read from file:
     /afs/slac.stanford.edu/u/if/mamunm/psp/gbrv1.5pbe/La.UPF
     MD5 check sum: 5937b0c7494ba0601a847275249473aa
     Pseudo is Ultrasoft + core correction, Zval = 11.0
     Generated by new atomic code, or converted to UPF format
     Using radial grid of  995 points,  8 beta functions with:
                l(1) =   0
                l(2) =   0
                l(3) =   1
                l(4) =   1
                l(5) =   2
                l(6) =   2
                l(7) =   3
                l(8) =   3
     Q(r) pseudized with  8 coefficients,  rinner =    1.700   1.700   1.700
                                                       1.700   1.700   1.700
                                                       1.700

     PseudoPot. # 2 for Ru read from file:
     /afs/slac.stanford.edu/u/if/mamunm/psp/gbrv1.5pbe/Ru.UPF
     MD5 check sum: 7158a806dd851261a58e6920c40ebe78
     Pseudo is Ultrasoft + core correction, Zval = 16.0
     Generated by new atomic code, or converted to UPF format
     Using radial grid of  967 points,  6 beta functions with:
                l(1) =   0
                l(2) =   0
                l(3) =   1
                l(4) =   1
                l(5) =   2
                l(6) =   2
     Q(r) pseudized with  8 coefficients,  rinner =    1.300   1.300   1.300
                                                       1.300   1.300

     vdW kernel table read from file vdW_kernel_table
     MD5 check sum: 095c7af220d748ca6e76c0b4c6cfb241

     atomic species   valence    mass     pseudopotential
        La1           11.00   138.90547     La( 1.00)
        Ru1           16.00   101.07000     Ru( 1.00)

     No symmetry found

   Cartesian axes

     site n.     atom                  positions (alat units)
         1           La1 tau(   1) = (   0.0000000   0.0000000  10.0000000  )
         2           La1 tau(   2) = (  -1.7104545   2.9625941  10.0000000  )
         3           La1 tau(   3) = (   1.7104545   2.9625941  10.0000000  )
         4           Ru1 tau(   4) = (   3.4209090   0.0000000  10.0000000  )
         5           La1 tau(   5) = (   3.4209090   1.9750627  12.7931605  )
         6           La1 tau(   6) = (   1.7104545   4.9376568  12.7931605  )
         7           La1 tau(   7) = (  -1.7104545   4.9376568  12.7931605  )
         8           Ru1 tau(   8) = (   0.0000000   1.9750627  12.7931605  )
         9           La1 tau(   9) = (  -0.0000000   3.9501254  15.5863210  )
        10           La1 tau(  10) = (   1.7104545   0.9875314  15.5863210  )
        11           La1 tau(  11) = (   5.1313635   0.9875314  15.5863210  )
        12           Ru1 tau(  12) = (   3.4209090   3.9501254  15.5863210  )

     number of k points=    20  Fermi-Dirac smearing, width (Ry)=  0.0110
                       cart. coord. in units 2pi/alat
        k(    1) = (   0.0000000   0.0000000   0.0000000), wk =   0.0555556
        k(    2) = (   0.0000000   0.0281285   0.0000000), wk =   0.1111111
        k(    3) = (   0.0000000   0.0562570   0.0000000), wk =   0.1111111
        k(    4) = (   0.0000000  -0.0843855   0.0000000), wk =   0.0555556
        k(    5) = (   0.0243600   0.0140643   0.0000000), wk =   0.1111111
        k(    6) = (   0.0243600   0.0421928   0.0000000), wk =   0.1111111
        k(    7) = (   0.0243600   0.0703213   0.0000000), wk =   0.1111111
        k(    8) = (   0.0243600  -0.0703213   0.0000000), wk =   0.1111111
        k(    9) = (   0.0243600  -0.0421928   0.0000000), wk =   0.1111111
        k(   10) = (   0.0243600  -0.0140643   0.0000000), wk =   0.1111111
        k(   11) = (   0.0487200   0.0281285   0.0000000), wk =   0.1111111
        k(   12) = (   0.0487200   0.0562570   0.0000000), wk =   0.1111111
        k(   13) = (   0.0487200   0.0843855   0.0000000), wk =   0.1111111
        k(   14) = (   0.0487200  -0.0562570   0.0000000), wk =   0.1111111
        k(   15) = (   0.0487200  -0.0281285   0.0000000), wk =   0.1111111
        k(   16) = (   0.0487200   0.0000000   0.0000000), wk =   0.1111111
        k(   17) = (  -0.0730800  -0.0421928   0.0000000), wk =   0.0555556
        k(   18) = (  -0.0730800  -0.0140643   0.0000000), wk =   0.1111111
        k(   19) = (  -0.0730800   0.0140643   0.0000000), wk =   0.1111111
        k(   20) = (  -0.0730800  -0.1265783   0.0000000), wk =   0.0555556

     Largest allocated arrays     est. size (Mb)     dimensions
     Largest temporary arrays     est. size (Mb)     dimensions

     Initial potential from superposition of free atoms
     Check: negative starting charge=   -0.840043

     starting charge  143.71134, renormalised to  147.00000

     negative rho (up, down):  8.593E-01 0.000E+00

     *
     * You are using vdW-DF for exchange-correlation in this calculation.
     * Please cite the following three references that made this development
     * possible:
     *
     *   M. Dion, H. Rydberg, E. Schroder, D. C. Langreth, and
     *   B. I. Lundqvist, Phys. Rev. Lett. 92, 246401 (2004).
     *
     *   T. Thonhauser, V. R. Cooper, S. Li, A. Puzder, P. Hyldgaard, and
     *   D. C. Langreth, Phys. Rev. B 76, 125112 (2007).
     *
     *   G. Roman-Perez and J. M. Soler, Phys. Rev. Lett. 103, 096102 (2009).
     *
     *
     * If you are using vdW-DF2, please also cite:
     *
     *   K. Lee, E. D. Murray, L. Kong, B. I. Lundqvist, and
     *   D. C. Langreth, Phys. Rev. B 82, 081101(R) (2010).
     *
     *
     * If you are calculating the stress with vdW-DF, please also cite:
     *
     *   R. Sabatini, E. Kucukbenli, B. Kolb, T. Thonhauser, and
     *   S. de Gironcoli, J. Phys.: Condens. Matter 24, 424209 (2012).
     *

     Carrying out vdW-DF run using the following parameters:

     Nqs =      20    Nr_points =    1024   r_max =   100.000
     q_mesh =
               0.00001000     0.04494208     0.09755937     0.15916263
               0.23128650     0.31572767     0.41458969     0.53033537
               0.66584808     0.82450364     1.01025438     1.22772762
               1.48234092     1.78043706     2.12944203     2.53805004
               3.01644009     3.57652955     4.23227104     5.00000000

     Gradients computed in reciprocal space

     Adding external electric field

     Computed dipole along edir(3) :
        Dipole               -0.0000 Ry au,         -0.0000 Debye
        Dipole field         -0.0000 Ry au

        Potential amp.        0.0000 Ry
        Total length         47.1424 bohr

     Starting wfc are  219 randomized atomic wfcs

     Self-consistent Calculation

     iteration #  1     ecut=    36.75 Ry     beta=0.10
     Davidson diagonalization with overlap
     ethr =  1.00E-02,  avg # of iterations =  2.0

[...]

     total energy              =   -1520.97964858 Ry
     Harris-Foulkes estimate   =   -1522.31186840 Ry
     estimated scf accuracy    <       7.53700969 Ry

[...]

     iteration # 12     ecut=    36.75 Ry     beta=0.10
     Davidson diagonalization with overlap
     c_bands:  1 eigenvalues not converged
     ethr =  4.05E-06,  avg # of iterations =  8.1

[...]

     End of self-consistent calculation

          k = 0.0000 0.0000 0.0000 ( 26325 PWs)   bands (ev):

   -69.6935 -69.4542 -69.4542 -39.6573 -39.6573 -39.6420 -39.4632 -39.4632
   -39.4632 -39.4632 -39.3656 -39.3656 -31.0239 -30.9904 -30.7447 -30.7447
   -30.7366 -30.7366 -30.5796 -30.3479 -30.3479 -15.7912 -15.6098 -15.3292
   -15.1072 -15.1072 -14.9713 -14.9484 -14.9484 -14.9070 -14.9070 -14.7011
   -14.4201 -14.4200 -14.1629 -14.1629 -14.0197 -13.9194 -13.7995 -13.7549
   -13.7549 -13.6926 -13.6926 -13.6531 -13.6531 -13.4700 -13.3421 -13.3421
    -1.0588  -0.5546  -0.2977  -0.2929   0.0472   0.0472   0.2864   0.4172
     0.4172   0.4326   0.4736   0.4736   0.4816   0.5420   0.5420   1.2518
     1.2519   1.2903   1.4419   1.4419   1.6823   1.8334   2.1516   2.5934
     2.5934   2.6120   2.7124   2.7165   2.7165   2.8833   2.8833   3.3331
     3.3331   3.3807   3.3807   3.5481   3.5481   3.5501   3.5736   3.6459
     3.6720   3.7303   3.7531   3.7532   3.7805   3.8732   3.8733   3.8952
     3.9534   3.9542   3.9543   3.9776   3.9780   4.0079   4.0307

[...]

          k =-0.0731-0.0422 0.0000 ( 26310 PWs)   bands (ev):

[...]

     the Fermi energy is     2.2972 ev

!    total energy              =   -1521.33734424 Ry
     Harris-Foulkes estimate   =   -1521.33735449 Ry
     estimated scf accuracy    <       0.00000069 Ry

     The total energy is the sum of the following terms:

     one-electron contribution =   -7367.72072988 Ry
     hartree contribution      =    3696.07803485 Ry
     xc contribution           =    -537.74624639 Ry
     ewald contribution        =    2688.15848054 Ry
     electric field correction =       0.00000000 Ry
     smearing contrib. (-TS)   =      -0.10688336 Ry

     convergence has been achieved in  22 iterations

 BEEF-vdW xc energy contributions
           1 :   -475.104189163224
           2 :    436.998374418164
           3 :   -369.648954432422
           4 :    287.609836995487
           5 :   -206.435966074764
           6 :    138.414339586247
           7 :   -90.0732656520032
           8 :    61.8473205581610
[...]
     Using radial grid of  995 points,  8 beta functions with:
                l(1) =   0
                l(2) =   0
                l(3) =   1
                l(4) =   1
                l(5) =   2
                l(6) =   2
                l(7) =   3
                l(8) =   3
     Q(r) pseudized with  8 coefficients,  rinner =    1.700   1.700   1.700
                                                       1.700   1.700   1.700
                                                       1.700

     PseudoPot. # 2 for Ru read from file:
     /afs/slac.stanford.edu/u/if/mamunm/psp/gbrv1.5pbe/Ru.UPF
     MD5 check sum: 7158a806dd851261a58e6920c40ebe78
     Pseudo is Ultrasoft + core correction, Zval = 16.0
     Generated by new atomic code, or converted to UPF format
     Using radial grid of  967 points,  6 beta functions with:
                l(1) =   0
                l(2) =   0
                l(3) =   1
                l(4) =   1
                l(5) =   2
                l(6) =   2
     Q(r) pseudized with  8 coefficients,  rinner =    1.300   1.300   1.300
                                                       1.300   1.300

     vdW kernel table read from file vdW_kernel_table
     MD5 check sum: 095c7af220d748ca6e76c0b4c6cfb241

     atomic species   valence    mass     pseudopotential
        La1           11.00   138.90547     La( 1.00)
        Ru1           16.00   101.07000     Ru( 1.00)

     No symmetry found

   Cartesian axes

     site n.     atom                  positions (alat units)
         1           La1 tau(   1) = (   0.0000000   0.0000000  10.0000000  )
         2           La1 tau(   2) = (  -1.7104545   2.9625941  10.0000000  )
         3           La1 tau(   3) = (   1.7104545   2.9625941  10.0000000  )
         4           Ru1 tau(   4) = (   3.4209090   0.0000000  10.0000000  )
         5           La1 tau(   5) = (   3.4209090   1.9750627  12.7931605  )
         6           La1 tau(   6) = (   1.7104545   4.9376568  12.7931605  )
         7           La1 tau(   7) = (  -1.7104545   4.9376568  12.7931605  )
         8           Ru1 tau(   8) = (   0.0000000   1.9750627  12.7931605  )
         9           La1 tau(   9) = (  -0.0000078   3.8152787  15.6319398  )
        10           La1 tau(  10) = (   1.5937080   1.0549058  15.6319528  )
        11           La1 tau(  11) = (   5.2480855   1.0548797  15.6319630  )
        12           Ru1 tau(  12) = (   3.4209285   3.9502330  14.8248237  )

     number of k points=    20  Fermi-Dirac smearing, width (Ry)=  0.0110
                       cart. coord. in units 2pi/alat
        k(    1) = (   0.0000000   0.0000000   0.0000000), wk =   0.0555556
        k(    2) = (   0.0000000   0.0281285   0.0000000), wk =   0.1111111
        k(    3) = (   0.0000000   0.0562570   0.0000000), wk =   0.1111111
        k(    4) = (   0.0000000  -0.0843855   0.0000000), wk =   0.0555556
        k(    5) = (   0.0243600   0.0140643   0.0000000), wk =   0.1111111
        k(    6) = (   0.0243600   0.0421928   0.0000000), wk =   0.1111111
        k(    7) = (   0.0243600   0.0703213   0.0000000), wk =   0.1111111
        k(    8) = (   0.0243600  -0.0703213   0.0000000), wk =   0.1111111
        k(    9) = (   0.0243600  -0.0421928   0.0000000), wk =   0.1111111
        k(   10) = (   0.0243600  -0.0140643   0.0000000), wk =   0.1111111
        k(   11) = (   0.0487200   0.0281285   0.0000000), wk =   0.1111111
        k(   12) = (   0.0487200   0.0562570   0.0000000), wk =   0.1111111
        k(   13) = (   0.0487200   0.0843855   0.0000000), wk =   0.1111111
        k(   14) = (   0.0487200  -0.0562570   0.0000000), wk =   0.1111111
        k(   15) = (   0.0487200  -0.0281285   0.0000000), wk =   0.1111111
        k(   16) = (   0.0487200   0.0000000   0.0000000), wk =   0.1111111
        k(   17) = (  -0.0730800  -0.0421928   0.0000000), wk =   0.0555556
        k(   18) = (  -0.0730800  -0.0140643   0.0000000), wk =   0.1111111
        k(   19) = (  -0.0730800   0.0140643   0.0000000), wk =   0.1111111
        k(   20) = (  -0.0730800  -0.1265783   0.0000000), wk =   0.0555556

     Largest allocated arrays     est. size (Mb)     dimensions
     Largest temporary arrays     est. size (Mb)     dimensions

     Initial potential from superposition of free atoms
     Check: negative starting charge=   -0.839750

     starting charge  143.71134, renormalised to  147.00000

[...]

     *
     * You are using vdW-DF for exchange-correlation in this calculation.
     * Please cite the following three references that made this development
     * possible:
     *
     *   M. Dion, H. Rydberg, E. Schroder, D. C. Langreth, and
     *   B. I. Lundqvist, Phys. Rev. Lett. 92, 246401 (2004).
     *
     *   T. Thonhauser, V. R. Cooper, S. Li, A. Puzder, P. Hyldgaard, and
     *   D. C. Langreth, Phys. Rev. B 76, 125112 (2007).
     *
     *   G. Roman-Perez and J. M. Soler, Phys. Rev. Lett. 103, 096102 (2009).
     *
     *
     * If you are using vdW-DF2, please also cite:
     *
     *   K. Lee, E. D. Murray, L. Kong, B. I. Lundqvist, and
     *   D. C. Langreth, Phys. Rev. B 82, 081101(R) (2010).
     *
     *
     * If you are calculating the stress with vdW-DF, please also cite:
     *
     *   R. Sabatini, E. Kucukbenli, B. Kolb, T. Thonhauser, and
     *   S. de Gironcoli, J. Phys.: Condens. Matter 24, 424209 (2012).
     *

     Carrying out vdW-DF run using the following parameters:

     Nqs =      20    Nr_points =    1024   r_max =   100.000
     q_mesh =
               0.00001000     0.04494208     0.09755937     0.15916263
               0.23128650     0.31572767     0.41458969     0.53033537
               0.66584808     0.82450364     1.01025438     1.22772762
               1.48234092     1.78043706     2.12944203     2.53805004
               3.01644009     3.57652955     4.23227104     5.00000000

     Gradients computed in reciprocal space

[...]

     Starting wfc are  219 randomized atomic wfcs

     Self-consistent Calculation

[...]

     iteration # 12     ecut=    36.75 Ry     beta=0.10
     Davidson diagonalization with overlap
     c_bands:  2 eigenvalues not converged
     c_bands:  1 eigenvalues not converged
     ethr =  4.50E-06,  avg # of iterations =  9.0

[...]

     total energy              =   -1521.38387321 Ry
     Harris-Foulkes estimate   =   -1521.38387632 Ry
     estimated scf accuracy    <       0.00000577 Ry

     iteration # 23     ecut=    36.75 Ry     beta=0.10
     Davidson diagonalization with overlap
     ethr =  3.92E-09,  avg # of iterations =  4.0

[...]

     negative rho (up, down):  5.933E-01 0.000E+00

     Adding external electric field

     Computed dipole along edir(3) :
        Dipole                0.1326 Ry au,          0.3372 Debye
        Dipole field          0.0002 Ry au

        Potential amp.       -0.0225 Ry
        Total length         47.1424 bohr

     End of self-consistent calculation

[...]

          k = 0.0487 0.0000 0.0000 ( 26363 PWs)   bands (ev):

[...]

          k =-0.0731-0.1266 0.0000 ( 26310 PWs)   bands (ev):

   -69.5727 -69.5072 -69.3354 -39.5445 -39.5404 -39.5314 -39.5314 -39.5014
   -39.5013 -39.3509 -39.3509 -39.2398 -30.9449 -30.8409 -30.7573 -30.7373
   -30.6788 -30.6645 -30.2381 -30.1612 -30.0757 -15.3951 -15.2151 -15.0296
   -14.8953 -14.7833 -14.7096 -14.6889 -14.6508 -14.5435 -14.4962 -14.4749
   -14.4300 -14.4225 -14.4193 -14.3111 -14.1743 -14.1618 -13.9868 -13.8069
   -13.7638 -13.7222 -13.6504 -13.6171 -13.5529 -13.5373 -13.4835 -13.1632
     0.0854   0.1821   0.4164   0.4287   0.5288   0.7237   0.7941   0.8344
     0.8778   1.0006   1.0479   1.0926   1.0998   1.2623   1.3403   1.3988
     1.4673   1.5312   1.5806   1.5838   1.6539   1.7371   1.9439   2.0547
     2.1858   2.3675   2.5309   2.5406   2.7218   2.7354   2.8597   2.9548
     3.0226   3.0832   3.2053   3.2392   3.3972   3.4099   3.4409   3.4723
     3.5063   3.6461   3.6590   3.7478   3.7774   3.8654   3.8792   3.8992
     3.9512   3.9630   3.9820   4.0032   4.0424   4.0687   4.0766

     the Fermi energy is     2.3789 ev

!    total energy              =   -1521.38386563 Ry
     Harris-Foulkes estimate   =   -1521.38387560 Ry
     estimated scf accuracy    <       0.00000089 Ry

     The total energy is the sum of the following terms:

     one-electron contribution =   -7582.94161863 Ry
     hartree contribution      =    3804.22757964 Ry
     xc contribution           =    -537.98718142 Ry
     ewald contribution        =    2795.42088685 Ry
     electric field correction =       0.00003159 Ry
     smearing contrib. (-TS)   =      -0.10356367 Ry

     convergence has been achieved in  23 iterations

 BEEF-vdW xc energy contributions
           1 :   -475.354093273775
           2 :    437.332832351923
           3 :   -370.086782434038
           4 :    288.075361498528
           5 :   -206.781676323491
           6 :    138.490053261271
           7 :   -89.8128501994642
           8 :    61.3226262372556
           9 :   -48.9116295544748
          10 :    46.1052083422176
          11 :   -46.4581738078683
          12 :    45.2851862964336
          13 :   -40.3513121609174
          14 :    31.6194668580980
          15 :   -20.4844797401913
          16 :    8.93781374066833
          17 :    1.08588482997942
          18 :   -8.13660857192912
          19 :    11.4905097824195
          20 :   -11.2421293123767
          21 :    8.25146244699289
          22 :   -3.93655441400080
          23 :  -8.877561456694139E-002
          24 :    2.47452056957269
          25 :   -2.55453709657530
          26 :   0.547950085560558
          27 :    2.56934891891660
          28 :   -5.48793072537347
          29 :    7.10501208795375
          30 :   -6.95359912865518
          31 :   -41.5906592718681
          32 :   -30.1338199250700

     Forces acting on atoms (Ry/au):

     negative rho (up, down):  5.933E-01 0.000E+00
     atom    1 type  1   force =    -0.00000113    0.02467314   -0.01276312
     atom    2 type  1   force =     0.02136604   -0.01233745   -0.01276178
     atom    3 type  1   force =    -0.02136614   -0.01233575   -0.01276307
     atom    4 type  2   force =     0.00000304    0.00000142    0.04287411
     atom    5 type  1   force =     0.00000270   -0.01446825    0.00059967
     atom    6 type  1   force =    -0.01253344    0.00723497    0.00059893
     atom    7 type  1   force =     0.01253311    0.00723316    0.00059833
     atom    8 type  2   force =    -0.00000166    0.00000314   -0.00343058
     atom    9 type  1   force =     0.00000090    0.00142304   -0.00108568
     atom   10 type  1   force =     0.00123459   -0.00071194   -0.00108521
     atom   11 type  1   force =    -0.00123607   -0.00071563   -0.00107775
     atom   12 type  2   force =    -0.00000195    0.00000015    0.00029615

     Total force =     0.069309     Total SCF correction =     0.002228

     entering subroutine stress ...

     negative rho (up, down):  5.933E-01 0.000E+00
          total   stress  (Ry/bohr**3)                   (kbar)     P=   -3.57
  -0.00003293   0.00000000  -0.00000000         -4.84      0.00     -0.00
   0.00000000  -0.00003293  -0.00000000          0.00     -4.84     -0.00
  -0.00000000  -0.00000000  -0.00000695         -0.00     -0.00     -1.02

 !ASE

     Writing output data file calc.save

     General routines

     Parallel routines

   This run was terminated on:  21:59: 1  26Dec2018

   JOB DONE.
Job  /afs/slac/g/suncat/bin/suncat-tsmpirun -x LD_LIBRARY_PATH -wdir /scratch/qe110024_PQOmK pw.x -in pw.inp

TID   HOST_NAME   COMMAND_LINE            STATUS            TERMINATION_TIME
00000 suncat0043 pw.x -in pw.inp   Done                     12/26/2018 21:59:01
00001 suncat0043 pw.x -in pw.inp   Done                     12/26/2018 21:59:01
00002 suncat0043 pw.x -in pw.inp   Done                     12/26/2018 21:59:01
00003 suncat0043 pw.x -in pw.inp   Done                     12/26/2018 21:59:01
00004 suncat0043 pw.x -in pw.inp   Done                     12/26/2018 21:59:01
00005 suncat0043 pw.x -in pw.inp   Done                     12/26/2018 21:59:01
00006 suncat0043 pw.x -in pw.inp   Done                     12/26/2018 21:59:01
00007 suncat0043 pw.x -in pw.inp   Done                     12/26/2018 21:59:01
00008 suncat0027 pw.x -in pw.inp   Done                     12/26/2018 21:59:01
00009 suncat0027 pw.x -in pw.inp   Done                     12/26/2018 21:59:01
00010 suncat0027 pw.x -in pw.inp   Done                     12/26/2018 21:59:01
00011 suncat0027 pw.x -in pw.inp   Done                     12/26/2018 21:59:01
00012 suncat0027 pw.x -in pw.inp   Done                     12/26/2018 21:59:01
00013 suncat0027 pw.x -in pw.inp   Done                     12/26/2018 21:59:01
00014 suncat0027 pw.x -in pw.inp   Done                     12/26/2018 21:59:01
00015 suncat0027 pw.x -in pw.inp   Done                     12/26/2018 21:59:01
00016 suncat0026 pw.x -in pw.inp   Done                     12/26/2018 21:59:01
00017 suncat0026 pw.x -in pw.inp   Done                     12/26/2018 21:59:01
00018 suncat0026 pw.x -in pw.inp   Done                     12/26/2018 21:59:01
00019 suncat0026 pw.x -in pw.inp   Done                     12/26/2018 21:59:01
00020 suncat0026 pw.x -in pw.inp   Done                     12/26/2018 21:59:01
00021 suncat0026 pw.x -in pw.inp   Done                     12/26/2018 21:59:01
00022 suncat0026 pw.x -in pw.inp   Done                     12/26/2018 21:59:01
00023 suncat0026 pw.x -in pw.inp   Done                     12/26/2018 21:59:01
00024 suncat0021 pw.x -in pw.inp   Done                     12/26/2018 21:59:01
00025 suncat0021 pw.x -in pw.inp   Done                     12/26/2018 21:59:01
00026 suncat0021 pw.x -in pw.inp   Done                     12/26/2018 21:59:01
00027 suncat0021 pw.x -in pw.inp   Done                     12/26/2018 21:59:01
00028 suncat0021 pw.x -in pw.inp   Done                     12/26/2018 21:59:01
00029 suncat0021 pw.x -in pw.inp   Done                     12/26/2018 21:59:01
00030 suncat0021 pw.x -in pw.inp   Done                     12/26/2018 21:59:01
00031 suncat0021 pw.x -in pw.inp   Done                     12/26/2018 21:59:01
00032 suncat0010 pw.x -in pw.inp   Done                     12/26/2018 21:59:01
00033 suncat0010 pw.x -in pw.inp   Done                     12/26/2018 21:59:01
00034 suncat0010 pw.x -in pw.inp   Done                     12/26/2018 21:59:01
00035 suncat0010 pw.x -in pw.inp   Done                     12/26/2018 21:59:01
00036 suncat0010 pw.x -in pw.inp   Done                     12/26/2018 21:59:01
00037 suncat0010 pw.x -in pw.inp   Done                     12/26/2018 21:59:01
00038 suncat0010 pw.x -in pw.inp   Done                     12/26/2018 21:59:01
00039 suncat0010 pw.x -in pw.inp   Done                     12/26/2018 21:59:01
00040 suncat0191 pw.x -in pw.inp   Done                     12/26/2018 21:59:01
00041 suncat0191 pw.x -in pw.inp   Done                     12/26/2018 21:59:01
00042 suncat0191 pw.x -in pw.inp   Done                     12/26/2018 21:59:01
00043 suncat0191 pw.x -in pw.inp   Done                     12/26/2018 21:59:01
00044 suncat0191 pw.x -in pw.inp   Done                     12/26/2018 21:59:01
00045 suncat0191 pw.x -in pw.inp   Done                     12/26/2018 21:59:01
00046 suncat0191 pw.x -in pw.inp   Done                     12/26/2018 21:59:01
00047 suncat0191 pw.x -in pw.inp   Done                     12/26/2018 21:59:01
00048 suncat0007 pw.x -in pw.inp   Done                     12/26/2018 21:59:01
00049 suncat0007 pw.x -in pw.inp   Done                     12/26/2018 21:59:01
00050 suncat0007 pw.x -in pw.inp   Done                     12/26/2018 21:59:01
00051 suncat0007 pw.x -in pw.inp   Done                     12/26/2018 21:59:01
00052 suncat0007 pw.x -in pw.inp   Done                     12/26/2018 21:59:01
00053 suncat0007 pw.x -in pw.inp   Done                     12/26/2018 21:59:01
00054 suncat0007 pw.x -in pw.inp   Done                     12/26/2018 21:59:01
00055 suncat0007 pw.x -in pw.inp   Done                     12/26/2018 21:59:01
00056 suncat0100 pw.x -in pw.inp   Done                     12/26/2018 21:59:01
00057 suncat0100 pw.x -in pw.inp   Done                     12/26/2018 21:59:01
00058 suncat0100 pw.x -in pw.inp   Done                     12/26/2018 21:59:01
00059 suncat0100 pw.x -in pw.inp   Done                     12/26/2018 21:59:01
00060 suncat0100 pw.x -in pw.inp   Done                     12/26/2018 21:59:01
00061 suncat0100 pw.x -in pw.inp   Done                     12/26/2018 21:59:01
00062 suncat0100 pw.x -in pw.inp   Done                     12/26/2018 21:59:01
00063 suncat0100 pw.x -in pw.inp   Done                     12/26/2018 21:59:01