     Program PWSCF v.5.1rc2 (svn rev. 11289) starts on 31Dec2018 at 15:18:31

     Current dimensions of program PWSCF are:
     Max number of different atomic species (ntypx) = 10
     Max number of k-points (npk) =  40000
     Max angular momentum in pseudopotentials (lmaxx) =  3
     Presently stress not available with electric field

     IMPORTANT: XC functional enforced from input :
     Exchange-correlation      = BEEF-VDW ( 1  4 27 13 2)
     Any further DFT definition will be discarded
     Please, verify this is what you really want

     Subspace diagonalization in iterative solution of the eigenvalue problem:
     a serial algorithm will be used

     bravais-lattice index     =            0
     lattice parameter (alat)  =       1.8897  a.u.
     unit-cell volume          =    4708.0823 (a.u.)^3
     number of atoms/cell      =           12
     number of atomic types    =            2
     number of electrons       =       180.00
     number of Kohn-Sham states=          120
     kinetic-energy cutoff     =      36.7493  Ry
     charge density cutoff     =     367.4932  Ry
     convergence threshold     =      1.0E-06
     mixing beta               =       0.1000
     number of iterations used =           10  plain     mixing
     Exchange-correlation      = BEEF-VDW ( 1  4 27 13 2)
     nstep                     =           50

     celldm(1)=   1.889726  celldm(2)=   0.000000  celldm(3)=   0.000000
     celldm(4)=   0.000000  celldm(5)=   0.000000  celldm(6)=   0.000000

     crystal axes: (cart. coord. in units of alat)
               a(1) = (   5.714884   0.000000   0.000000 )
               a(2) = (  -2.857442   4.949235   0.000000 )
               a(3) = (   0.000000   0.000000  24.666183 )

     reciprocal axes: (cart. coord. in units 2 pi/alat)
               b(1) = (  0.174982  0.101026  0.000000 )
               b(2) = (  0.000000  0.202051  0.000000 )
               b(3) = (  0.000000  0.000000  0.040541 )

     PseudoPot. # 1 for Pt read from file:
     /afs/slac.stanford.edu/u/if/mamunm/psp/gbrv1.5pbe/Pt.UPF
     MD5 check sum: f09d6de1a584b5a045c4fc126da2d0c4
     Pseudo is Ultrasoft + core correction, Zval = 16.0
     Generated by new atomic code, or converted to UPF format
     Using radial grid of  985 points,  6 beta functions with:
                l(1) =   0
                l(2) =   0
                l(3) =   1
                l(4) =   1
                l(5) =   2
                l(6) =   2
     Q(r) pseudized with  8 coefficients,  rinner =    1.300   1.300   1.300
                                                       1.300   1.300

     PseudoPot. # 2 for Hf read from file:
     /afs/slac.stanford.edu/u/if/mamunm/psp/gbrv1.5pbe/Hf.UPF
     MD5 check sum: 8ee9378dfe14276e333edf04c5e4aa26
     Pseudo is Ultrasoft + core correction, Zval = 12.0
     Generated by new atomic code, or converted to UPF format
     Using radial grid of  921 points,  8 beta functions with:
                l(1) =   0
                l(2) =   0
                l(3) =   0
                l(4) =   1
                l(5) =   1
                l(6) =   2
                l(7) =   2
                l(8) =   3
     Q(r) pseudized with  6 coefficients,  rinner =    1.200   1.200   1.200
                                                       1.200   1.200   1.200
                                                       1.200

     vdW kernel table read from file vdW_kernel_table
     MD5 check sum: 095c7af220d748ca6e76c0b4c6cfb241

     atomic species   valence    mass     pseudopotential
        Pt1           16.00   195.08400     Pt( 1.00)
        Hf1           12.00   178.49000     Hf( 1.00)

     No symmetry found

   Cartesian axes

     site n.     atom                  positions (alat units)
         1           Pt1 tau(   1) = (   0.0000000   0.0000000  10.0000000  )
         2           Pt1 tau(   2) = (  -1.4287210   2.4746174  10.0000000  )
         3           Pt1 tau(   3) = (   1.4287210   2.4746174  10.0000000  )
         4           Hf1 tau(   4) = (   2.8574421   0.0000000  10.0000000  )
         5           Pt1 tau(   5) = (   2.8574421   1.6497450  12.3330917  )
         6           Pt1 tau(   6) = (   1.4287210   4.1243624  12.3330917  )
         7           Pt1 tau(   7) = (  -1.4287210   4.1243624  12.3330917  )
         8           Hf1 tau(   8) = (   0.0000000   1.6497450  12.3330917  )
         9           Pt1 tau(   9) = (  -0.0000000   3.2994899  14.6661834  )
        10           Pt1 tau(  10) = (   1.4287210   0.8248725  14.6661834  )
        11           Pt1 tau(  11) = (   4.2861631   0.8248725  14.6661834  )
        12           Hf1 tau(  12) = (   2.8574421   3.2994899  14.6661834  )

     number of k points=    20  Fermi-Dirac smearing, width (Ry)=  0.0110
                       cart. coord. in units 2pi/alat
        k(    1) = (   0.0000000   0.0000000   0.0000000), wk =   0.0555556
        k(    2) = (   0.0000000   0.0336752   0.0000000), wk =   0.1111111
        k(    3) = (   0.0000000   0.0673505   0.0000000), wk =   0.1111111
        k(    4) = (   0.0000000  -0.1010257   0.0000000), wk =   0.0555556
        k(    5) = (   0.0291636   0.0168376   0.0000000), wk =   0.1111111
        k(    6) = (   0.0291636   0.0505129   0.0000000), wk =   0.1111111
        k(    7) = (   0.0291636   0.0841881   0.0000000), wk =   0.1111111
        k(    8) = (   0.0291636  -0.0841881   0.0000000), wk =   0.1111111
        k(    9) = (   0.0291636  -0.0505129   0.0000000), wk =   0.1111111
        k(   10) = (   0.0291636  -0.0168376   0.0000000), wk =   0.1111111
        k(   11) = (   0.0583272   0.0336752   0.0000000), wk =   0.1111111
        k(   12) = (   0.0583272   0.0673505   0.0000000), wk =   0.1111111
        k(   13) = (   0.0583272   0.1010257   0.0000000), wk =   0.1111111
        k(   14) = (   0.0583272  -0.0673505   0.0000000), wk =   0.1111111
        k(   15) = (   0.0583272  -0.0336752   0.0000000), wk =   0.1111111
        k(   16) = (   0.0583272   0.0000000   0.0000000), wk =   0.1111111
        k(   17) = (  -0.0874908  -0.0505129   0.0000000), wk =   0.0555556
        k(   18) = (  -0.0874908  -0.0168376   0.0000000), wk =   0.1111111
        k(   19) = (  -0.0874908   0.0168376   0.0000000), wk =   0.1111111
        k(   20) = (  -0.0874908  -0.1515386   0.0000000), wk =   0.0555556

     Largest allocated arrays     est. size (Mb)     dimensions
     Largest temporary arrays     est. size (Mb)     dimensions

     Check: negative/imaginary core charge=   -0.000002    0.000000

     Initial potential from superposition of free atoms
     Check: negative starting charge=   -1.968998

     starting charge  169.49989, renormalised to  180.00000

     negative rho (up, down):  2.091E+00 0.000E+00

     *
     * You are using vdW-DF for exchange-correlation in this calculation.
     * Please cite the following three references that made this development
     * possible:
     *
     *   M. Dion, H. Rydberg, E. Schroder, D. C. Langreth, and
     *   B. I. Lundqvist, Phys. Rev. Lett. 92, 246401 (2004).
     *
     *   T. Thonhauser, V. R. Cooper, S. Li, A. Puzder, P. Hyldgaard, and
     *   D. C. Langreth, Phys. Rev. B 76, 125112 (2007).
     *
     *   G. Roman-Perez and J. M. Soler, Phys. Rev. Lett. 103, 096102 (2009).
     *
     *
     * If you are using vdW-DF2, please also cite:
     *
     *   K. Lee, E. D. Murray, L. Kong, B. I. Lundqvist, and
     *   D. C. Langreth, Phys. Rev. B 82, 081101(R) (2010).
     *
     *
     * If you are calculating the stress with vdW-DF, please also cite:
     *
     *   R. Sabatini, E. Kucukbenli, B. Kolb, T. Thonhauser, and
     *   S. de Gironcoli, J. Phys.: Condens. Matter 24, 424209 (2012).
     *

     Carrying out vdW-DF run using the following parameters:

     Nqs =      20    Nr_points =    1024   r_max =   100.000
     q_mesh =
               0.00001000     0.04494208     0.09755937     0.15916263
               0.23128650     0.31572767     0.41458969     0.53033537
               0.66584808     0.82450364     1.01025438     1.22772762
               1.48234092     1.78043706     2.12944203     2.53805004
               3.01644009     3.57652955     4.23227104     5.00000000

     Gradients computed in reciprocal space

     Adding external electric field

     Computed dipole along edir(3) :
        Dipole                0.0000 Ry au,          0.0000 Debye
        Dipole field          0.0000 Ry au

        Potential amp.       -0.0000 Ry
        Total length         45.4470 bohr

     Starting wfc are  147 randomized atomic wfcs

     Self-consistent Calculation

     iteration #  1     ecut=    36.75 Ry     beta=0.10
     Davidson diagonalization with overlap
     ethr =  1.00E-02,  avg # of iterations =  7.3

[...]

     total energy              =   -2380.87610349 Ry
     Harris-Foulkes estimate   =   -2403.78673895 Ry
     estimated scf accuracy    <     132.00272697 Ry

[...]

     End of self-consistent calculation

          k = 0.0000 0.0000 0.0000 ( 17753 PWs)   bands (ev):

   -61.2411 -61.2405 -60.8813 -50.9739 -50.8694 -50.8694 -50.8028 -50.8028
   -50.7914 -50.7351 -50.6889 -50.6889 -50.4951 -50.4951 -50.4838 -50.4838
   -50.4582 -50.4555 -50.3960 -50.3938 -50.2457 -50.2457 -50.2456 -50.2456
   -50.2350 -50.2219 -50.2115 -50.2115 -50.2043 -50.2043 -29.8518 -29.8416
   -29.6231 -29.6231 -29.6205 -29.6205 -29.4097 -29.4097 -29.3085  -6.3584
    -4.6294  -4.1703  -3.8103  -3.8103  -3.7297  -3.5530  -3.5530  -3.5292
    -3.0775  -3.0775  -3.0186  -2.8987  -2.8987  -2.8936  -1.7113  -1.6003
    -1.6003  -1.4883  -1.4883  -1.1747  -0.9880  -0.8874  -0.8471  -0.7685
    -0.7685  -0.5871  -0.5871  -0.2813  -0.2813  -0.2416  -0.2416  -0.1407
    -0.1407   0.4144   0.8459   0.8459   0.8677   0.8677   0.9808   0.9808
     1.0662   1.4581   1.4858   1.7115   1.7115   1.8879   2.2794   2.3280
     2.5853   2.6861   3.2546   3.2546   3.6575   3.8992   3.8992   4.3051
     4.3051   4.3581   4.3581   4.3734   4.3734   4.5235   4.9448   4.9448
     5.6676   5.6676   5.9810   5.9810   6.0048   6.2464   6.5531   6.8558
     6.8967   6.8967   7.2689   7.8048   8.7165   8.8245   8.8271   8.8560

[...]

          k =-0.0875-0.0505 0.0000 ( 17688 PWs)   bands (ev):

[...]

     the Fermi energy is     2.0861 ev

!    total energy              =   -2393.59371519 Ry
     Harris-Foulkes estimate   =   -2393.59367308 Ry
     estimated scf accuracy    <       0.00000091 Ry

     The total energy is the sum of the following terms:

     one-electron contribution =  -16831.26391005 Ry
     hartree contribution      =    8440.06406611 Ry
     xc contribution           =    -759.80887662 Ry
     ewald contribution        =    6757.45085286 Ry
     electric field correction =       0.00000000 Ry
     smearing contrib. (-TS)   =      -0.03584749 Ry

     convergence has been achieved in  17 iterations

 BEEF-vdW xc energy contributions
           1 :   -679.258142557115
           2 :    632.135279178413
           3 :   -547.759634906116
           4 :    442.384317531746
           5 :   -333.627586852920
           6 :    235.865738744139
           7 :   -157.535150208621
           8 :    100.743830380560
[...]
     Using radial grid of  985 points,  6 beta functions with:
                l(1) =   0
                l(2) =   0
                l(3) =   1
                l(4) =   1
                l(5) =   2
                l(6) =   2
     Q(r) pseudized with  8 coefficients,  rinner =    1.300   1.300   1.300
                                                       1.300   1.300

     PseudoPot. # 2 for Hf read from file:
     /afs/slac.stanford.edu/u/if/mamunm/psp/gbrv1.5pbe/Hf.UPF
     MD5 check sum: 8ee9378dfe14276e333edf04c5e4aa26
     Pseudo is Ultrasoft + core correction, Zval = 12.0
     Generated by new atomic code, or converted to UPF format
     Using radial grid of  921 points,  8 beta functions with:
                l(1) =   0
                l(2) =   0
                l(3) =   0
                l(4) =   1
                l(5) =   1
                l(6) =   2
                l(7) =   2
                l(8) =   3
     Q(r) pseudized with  6 coefficients,  rinner =    1.200   1.200   1.200
                                                       1.200   1.200   1.200
                                                       1.200

     vdW kernel table read from file vdW_kernel_table
     MD5 check sum: 095c7af220d748ca6e76c0b4c6cfb241

     atomic species   valence    mass     pseudopotential
        Pt1           16.00   195.08400     Pt( 1.00)
        Hf1           12.00   178.49000     Hf( 1.00)

     No symmetry found

   Cartesian axes

     site n.     atom                  positions (alat units)
         1           Pt1 tau(   1) = (   0.0000000   0.0000000  10.0000000  )
         2           Pt1 tau(   2) = (  -1.4287210   2.4746174  10.0000000  )
         3           Pt1 tau(   3) = (   1.4287210   2.4746174  10.0000000  )
         4           Hf1 tau(   4) = (   2.8574421   0.0000000  10.0000000  )
         5           Pt1 tau(   5) = (   2.8574421   1.6497450  12.3330917  )
         6           Pt1 tau(   6) = (   1.4287210   4.1243624  12.3330917  )
         7           Pt1 tau(   7) = (  -1.4287210   4.1243624  12.3330917  )
         8           Hf1 tau(   8) = (   0.0000000   1.6497450  12.3330917  )
         9           Pt1 tau(   9) = (  -0.0000001   3.2588758  14.6529145  )
        10           Pt1 tau(  10) = (   1.3935483   0.8451792  14.6529141  )
        11           Pt1 tau(  11) = (   4.3213356   0.8451788  14.6529138  )
        12           Hf1 tau(  12) = (   2.8574426   3.2994899  14.5884509  )

     number of k points=    20  Fermi-Dirac smearing, width (Ry)=  0.0110
                       cart. coord. in units 2pi/alat
        k(    1) = (   0.0000000   0.0000000   0.0000000), wk =   0.0555556
        k(    2) = (   0.0000000   0.0336752   0.0000000), wk =   0.1111111
        k(    3) = (   0.0000000   0.0673505   0.0000000), wk =   0.1111111
        k(    4) = (   0.0000000  -0.1010257   0.0000000), wk =   0.0555556
        k(    5) = (   0.0291636   0.0168376   0.0000000), wk =   0.1111111
        k(    6) = (   0.0291636   0.0505129   0.0000000), wk =   0.1111111
        k(    7) = (   0.0291636   0.0841881   0.0000000), wk =   0.1111111
        k(    8) = (   0.0291636  -0.0841881   0.0000000), wk =   0.1111111
        k(    9) = (   0.0291636  -0.0505129   0.0000000), wk =   0.1111111
        k(   10) = (   0.0291636  -0.0168376   0.0000000), wk =   0.1111111
        k(   11) = (   0.0583272   0.0336752   0.0000000), wk =   0.1111111
        k(   12) = (   0.0583272   0.0673505   0.0000000), wk =   0.1111111
        k(   13) = (   0.0583272   0.1010257   0.0000000), wk =   0.1111111
        k(   14) = (   0.0583272  -0.0673505   0.0000000), wk =   0.1111111
        k(   15) = (   0.0583272  -0.0336752   0.0000000), wk =   0.1111111
        k(   16) = (   0.0583272   0.0000000   0.0000000), wk =   0.1111111
        k(   17) = (  -0.0874908  -0.0505129   0.0000000), wk =   0.0555556
        k(   18) = (  -0.0874908  -0.0168376   0.0000000), wk =   0.1111111
        k(   19) = (  -0.0874908   0.0168376   0.0000000), wk =   0.1111111
        k(   20) = (  -0.0874908  -0.1515386   0.0000000), wk =   0.0555556

     Largest allocated arrays     est. size (Mb)     dimensions
     Largest temporary arrays     est. size (Mb)     dimensions

     Check: negative/imaginary core charge=   -0.000002    0.000000

     Initial potential from superposition of free atoms
     Check: negative starting charge=   -1.977055

     starting charge  169.49989, renormalised to  180.00000

[...]

     *
     * You are using vdW-DF for exchange-correlation in this calculation.
     * Please cite the following three references that made this development
     * possible:
     *
     *   M. Dion, H. Rydberg, E. Schroder, D. C. Langreth, and
     *   B. I. Lundqvist, Phys. Rev. Lett. 92, 246401 (2004).
     *
     *   T. Thonhauser, V. R. Cooper, S. Li, A. Puzder, P. Hyldgaard, and
     *   D. C. Langreth, Phys. Rev. B 76, 125112 (2007).
     *
     *   G. Roman-Perez and J. M. Soler, Phys. Rev. Lett. 103, 096102 (2009).
     *
     *
     * If you are using vdW-DF2, please also cite:
     *
     *   K. Lee, E. D. Murray, L. Kong, B. I. Lundqvist, and
     *   D. C. Langreth, Phys. Rev. B 82, 081101(R) (2010).
     *
     *
     * If you are calculating the stress with vdW-DF, please also cite:
     *
     *   R. Sabatini, E. Kucukbenli, B. Kolb, T. Thonhauser, and
     *   S. de Gironcoli, J. Phys.: Condens. Matter 24, 424209 (2012).
     *

     Carrying out vdW-DF run using the following parameters:

     Nqs =      20    Nr_points =    1024   r_max =   100.000
     q_mesh =
               0.00001000     0.04494208     0.09755937     0.15916263
               0.23128650     0.31572767     0.41458969     0.53033537
               0.66584808     0.82450364     1.01025438     1.22772762
               1.48234092     1.78043706     2.12944203     2.53805004
               3.01644009     3.57652955     4.23227104     5.00000000

     Gradients computed in reciprocal space

[...]

     Starting wfc are  147 randomized atomic wfcs

     Self-consistent Calculation

[...]

     total energy              =   -2393.62168644 Ry
     Harris-Foulkes estimate   =   -2393.62167798 Ry
     estimated scf accuracy    <       0.00000125 Ry

     iteration # 18     ecut=    36.75 Ry     beta=0.10
     Davidson diagonalization with overlap
     ethr =  6.94E-10,  avg # of iterations =  2.0

[...]

     negative rho (up, down):  1.925E+00 0.000E+00

     Adding external electric field

     Computed dipole along edir(3) :
        Dipole               -0.0136 Ry au,         -0.0347 Debye
        Dipole field         -0.0000 Ry au

        Potential amp.        0.0033 Ry
        Total length         45.4470 bohr

     End of self-consistent calculation

[...]

          k = 0.0583 0.0000 0.0000 ( 17731 PWs)   bands (ev):

[...]

          k =-0.0875-0.1515 0.0000 ( 17688 PWs)   bands (ev):

   -61.2752 -61.1724 -60.8675 -50.9928 -50.9378 -50.9060 -50.8703 -50.8441
   -50.8210 -50.8168 -50.7963 -50.7440 -50.5169 -50.5090 -50.4841 -50.4728
   -50.4527 -50.4464 -50.4317 -50.4032 -50.3502 -50.3486 -50.2863 -50.2765
   -50.2562 -50.2469 -50.2447 -50.2393 -50.2352 -50.2306 -29.8846 -29.7835
   -29.6698 -29.6601 -29.5889 -29.5790 -29.4199 -29.4093 -29.3022  -4.7274
    -4.5734  -3.3598  -3.2526  -3.0546  -2.9843  -2.9807  -2.8196  -2.7806
    -2.6717  -2.5594  -2.3405  -2.1992  -2.0491  -2.0210  -1.9176  -1.8778
    -1.8618  -1.6947  -1.5898  -1.1601  -1.1190  -1.1089  -0.9819  -0.9489
    -0.9114  -0.7720  -0.7513  -0.7480  -0.6679  -0.6479  -0.5518  -0.5325
    -0.4619  -0.4416  -0.3021  -0.1688  -0.0992   0.0370   0.1305   0.1440
     0.2566   0.5132   0.5739   0.7081   0.8770   0.9938   1.0970   1.5397
     1.5705   1.5821   1.9302   2.6800   2.9075   3.5682   3.6187   3.6585
     3.7645   3.9113   4.0005   4.1567   4.2473   4.3632   4.5135   4.5917
     5.3265   5.7426   5.9960   6.8613   7.2167   7.5237   7.6152   7.6777
     7.7437   7.8611   8.1795   8.2684   8.3831   8.3976   8.4728   9.1916

     the Fermi energy is     2.0611 ev

!    total energy              =   -2393.62171795 Ry
     Harris-Foulkes estimate   =   -2393.62168671 Ry
     estimated scf accuracy    <       0.00000045 Ry

     The total energy is the sum of the following terms:

     one-electron contribution =  -16893.92207557 Ry
     hartree contribution      =    8471.19343202 Ry
     xc contribution           =    -759.90118891 Ry
     ewald contribution        =    6789.04311094 Ry
     electric field correction =       0.00000050 Ry
     smearing contrib. (-TS)   =      -0.03499692 Ry

     convergence has been achieved in  18 iterations

 BEEF-vdW xc energy contributions
           1 :   -680.025424866838
           2 :    632.927506404347
           3 :   -548.583099495084
           4 :    443.220309977275
           5 :   -334.441150295297
           6 :    236.625618075642
           7 :   -158.230815612150
           8 :    101.389682200217
           9 :   -63.3956741318577
          10 :    39.0937757439277
          11 :   -23.1787184659310
          12 :    11.6768930678788
          13 :   -2.41920160865880
          14 :   -5.27826116164863
          15 :    11.2803788536376
          16 :   -15.2716467207880
          17 :    17.1559345084620
          18 :   -17.1985007667611
          19 :    15.9674791616608
          20 :   -14.1640082518327
          21 :    12.4087184601392
          22 :   -11.0634201993441
          23 :    10.1540041833296
          24 :   -9.44488594987752
          25 :    8.64002657740605
          26 :   -7.61740103357249
          27 :    6.55998801366184
          28 :   -5.89415414099335
          29 :    6.04657350127491
          30 :   -7.15210137199335
          31 :   -53.5252538437251
          32 :   -39.3036061064699

     Forces acting on atoms (Ry/au):

     negative rho (up, down):  1.925E+00 0.000E+00
     atom    1 type  1   force =     0.00000005    0.02196979    0.00128035
     atom    2 type  1   force =     0.01902620   -0.01098474    0.00128016
     atom    3 type  1   force =    -0.01902616   -0.01098477    0.00127987
     atom    4 type  2   force =    -0.00000001    0.00000006    0.02003645
     atom    5 type  1   force =     0.00000000   -0.00365559   -0.00400643
     atom    6 type  1   force =    -0.00316594    0.00182779   -0.00400639
     atom    7 type  1   force =     0.00316596    0.00182752   -0.00400639
     atom    8 type  2   force =     0.00000003    0.00000004   -0.00565337
     atom    9 type  1   force =    -0.00000004    0.00014492   -0.00156374
     atom   10 type  1   force =     0.00012542   -0.00007241   -0.00156368
     atom   11 type  1   force =    -0.00012539   -0.00007246   -0.00156349
     atom   12 type  2   force =    -0.00000011   -0.00000015   -0.00151334

     Total force =     0.044545     Total SCF correction =     0.002759

     entering subroutine stress ...

     negative rho (up, down):  1.925E+00 0.000E+00
          total   stress  (Ry/bohr**3)                   (kbar)     P=  -20.47
  -0.00018366  -0.00000000   0.00000000        -27.02     -0.00      0.00
  -0.00000000  -0.00018366   0.00000000         -0.00    -27.02      0.00
   0.00000000   0.00000000  -0.00005008          0.00      0.00     -7.37

 !ASE

     Writing output data file calc.save

     General routines

     Parallel routines

   This run was terminated on:  16: 4:47  31Dec2018

   JOB DONE.
Job  /afs/slac/g/suncat/bin/suncat-tsmpirun -x LD_LIBRARY_PATH -wdir /scratch/qe648801_X5ptT pw.x -in pw.inp

TID   HOST_NAME   COMMAND_LINE            STATUS            TERMINATION_TIME
00000 suncat0086 pw.x -in pw.inp   Done                     12/31/2018 16:04:47
00001 suncat0086 pw.x -in pw.inp   Done                     12/31/2018 16:04:47
00002 suncat0086 pw.x -in pw.inp   Done                     12/31/2018 16:04:47
00003 suncat0086 pw.x -in pw.inp   Done                     12/31/2018 16:04:47
00004 suncat0086 pw.x -in pw.inp   Done                     12/31/2018 16:04:47
00005 suncat0086 pw.x -in pw.inp   Done                     12/31/2018 16:04:47
00006 suncat0086 pw.x -in pw.inp   Done                     12/31/2018 16:04:47
00007 suncat0086 pw.x -in pw.inp   Done                     12/31/2018 16:04:47
00008 suncat0085 pw.x -in pw.inp   Done                     12/31/2018 16:04:47
00009 suncat0085 pw.x -in pw.inp   Done                     12/31/2018 16:04:47
00010 suncat0085 pw.x -in pw.inp   Done                     12/31/2018 16:04:47
00011 suncat0085 pw.x -in pw.inp   Done                     12/31/2018 16:04:47
00012 suncat0085 pw.x -in pw.inp   Done                     12/31/2018 16:04:47
00013 suncat0085 pw.x -in pw.inp   Done                     12/31/2018 16:04:47
00014 suncat0085 pw.x -in pw.inp   Done                     12/31/2018 16:04:47
00015 suncat0085 pw.x -in pw.inp   Done                     12/31/2018 16:04:47
00016 suncat0084 pw.x -in pw.inp   Done                     12/31/2018 16:04:47
00017 suncat0084 pw.x -in pw.inp   Done                     12/31/2018 16:04:47
00018 suncat0084 pw.x -in pw.inp   Done                     12/31/2018 16:04:47
00019 suncat0084 pw.x -in pw.inp   Done                     12/31/2018 16:04:47
00020 suncat0084 pw.x -in pw.inp   Done                     12/31/2018 16:04:47
00021 suncat0084 pw.x -in pw.inp   Done                     12/31/2018 16:04:47
00022 suncat0084 pw.x -in pw.inp   Done                     12/31/2018 16:04:47
00023 suncat0084 pw.x -in pw.inp   Done                     12/31/2018 16:04:47
00024 suncat0083 pw.x -in pw.inp   Done                     12/31/2018 16:04:47
00025 suncat0083 pw.x -in pw.inp   Done                     12/31/2018 16:04:47
00026 suncat0083 pw.x -in pw.inp   Done                     12/31/2018 16:04:47
00027 suncat0083 pw.x -in pw.inp   Done                     12/31/2018 16:04:47
00028 suncat0083 pw.x -in pw.inp   Done                     12/31/2018 16:04:47
00029 suncat0083 pw.x -in pw.inp   Done                     12/31/2018 16:04:47
00030 suncat0083 pw.x -in pw.inp   Done                     12/31/2018 16:04:47
00031 suncat0083 pw.x -in pw.inp   Done                     12/31/2018 16:04:47
00032 suncat0234 pw.x -in pw.inp   Done                     12/31/2018 16:04:47
00033 suncat0234 pw.x -in pw.inp   Done                     12/31/2018 16:04:47
00034 suncat0234 pw.x -in pw.inp   Done                     12/31/2018 16:04:47
00035 suncat0234 pw.x -in pw.inp   Done                     12/31/2018 16:04:47
00036 suncat0234 pw.x -in pw.inp   Done                     12/31/2018 16:04:47
00037 suncat0234 pw.x -in pw.inp   Done                     12/31/2018 16:04:47
00038 suncat0234 pw.x -in pw.inp   Done                     12/31/2018 16:04:47
00039 suncat0234 pw.x -in pw.inp   Done                     12/31/2018 16:04:47
00040 suncat0233 pw.x -in pw.inp   Done                     12/31/2018 16:04:47
00041 suncat0233 pw.x -in pw.inp   Done                     12/31/2018 16:04:47
00042 suncat0233 pw.x -in pw.inp   Done                     12/31/2018 16:04:47
00043 suncat0233 pw.x -in pw.inp   Done                     12/31/2018 16:04:47
00044 suncat0233 pw.x -in pw.inp   Done                     12/31/2018 16:04:47
00045 suncat0233 pw.x -in pw.inp   Done                     12/31/2018 16:04:47
00046 suncat0233 pw.x -in pw.inp   Done                     12/31/2018 16:04:47
00047 suncat0233 pw.x -in pw.inp   Done                     12/31/2018 16:04:47
00048 suncat0222 pw.x -in pw.inp   Done                     12/31/2018 16:04:47
00049 suncat0222 pw.x -in pw.inp   Done                     12/31/2018 16:04:47
00050 suncat0222 pw.x -in pw.inp   Done                     12/31/2018 16:04:47
00051 suncat0222 pw.x -in pw.inp   Done                     12/31/2018 16:04:47
00052 suncat0222 pw.x -in pw.inp   Done                     12/31/2018 16:04:47
00053 suncat0222 pw.x -in pw.inp   Done                     12/31/2018 16:04:47
00054 suncat0222 pw.x -in pw.inp   Done                     12/31/2018 16:04:47
00055 suncat0222 pw.x -in pw.inp   Done                     12/31/2018 16:04:47
00056 suncat0221 pw.x -in pw.inp   Done                     12/31/2018 16:04:47
00057 suncat0221 pw.x -in pw.inp   Done                     12/31/2018 16:04:47
00058 suncat0221 pw.x -in pw.inp   Done                     12/31/2018 16:04:47
00059 suncat0221 pw.x -in pw.inp   Done                     12/31/2018 16:04:47
00060 suncat0221 pw.x -in pw.inp   Done                     12/31/2018 16:04:47
00061 suncat0221 pw.x -in pw.inp   Done                     12/31/2018 16:04:47
00062 suncat0221 pw.x -in pw.inp   Done                     12/31/2018 16:04:47
00063 suncat0221 pw.x -in pw.inp   Done                     12/31/2018 16:04:47