     Program PWSCF v.5.1rc2 (svn rev. 11289) starts on 19Dec2018 at 17:33:40

     Current dimensions of program PWSCF are:
     Max number of different atomic species (ntypx) = 10
     Max number of k-points (npk) =  40000
     Max angular momentum in pseudopotentials (lmaxx) =  3
     Presently stress not available with electric field

     IMPORTANT: XC functional enforced from input :
     Exchange-correlation      = BEEF-VDW ( 1  4 27 13 2)
     Any further DFT definition will be discarded
     Please, verify this is what you really want

     Subspace diagonalization in iterative solution of the eigenvalue problem:
     a serial algorithm will be used

     bravais-lattice index     =            0
     lattice parameter (alat)  =       1.8897  a.u.
     unit-cell volume          =    5277.5292 (a.u.)^3
     number of atoms/cell      =           12
     number of atomic types    =            2
     number of electrons       =        66.00
     number of Kohn-Sham states=           63
     kinetic-energy cutoff     =      36.7493  Ry
     charge density cutoff     =     367.4932  Ry
     convergence threshold     =      1.0E-06
     mixing beta               =       0.1000
     number of iterations used =           10  plain     mixing
     Exchange-correlation      = BEEF-VDW ( 1  4 27 13 2)
     nstep                     =           50

     celldm(1)=   1.889726  celldm(2)=   0.000000  celldm(3)=   0.000000
     celldm(4)=   0.000000  celldm(5)=   0.000000  celldm(6)=   0.000000

     crystal axes: (cart. coord. in units of alat)
               a(1) = (   6.020278   0.000000   0.000000 )
               a(2) = (  -3.010139   5.213714   0.000000 )
               a(3) = (   0.000000   0.000000  24.915537 )

     reciprocal axes: (cart. coord. in units 2 pi/alat)
               b(1) = (  0.166105  0.095901  0.000000 )
               b(2) = (  0.000000  0.191802  0.000000 )
               b(3) = (  0.000000  0.000000  0.040136 )

     PseudoPot. # 1 for Al read from file:
     /afs/slac.stanford.edu/u/if/mamunm/psp/gbrv1.5pbe/Al.UPF
     MD5 check sum: 0a6289f5291fc8f409219462bc851e1f
     Pseudo is Ultrasoft + core correction, Zval =  3.0
     Generated by new atomic code, or converted to UPF format
     Using radial grid of  893 points,  3 beta functions with:
                l(1) =   0
                l(2) =   1
                l(3) =   2
     Q(r) pseudized with  8 coefficients,  rinner =    0.900   0.900   0.900
                                                       0.900   0.900

     PseudoPot. # 2 for In read from file:
     /afs/slac.stanford.edu/u/if/mamunm/psp/gbrv1.5pbe/In.UPF
     MD5 check sum: 90777abd96fbb83f2e67db2a40c566b9
     Pseudo is Ultrasoft + core correction, Zval = 13.0
     Generated by new atomic code, or converted to UPF format
     Using radial grid of  889 points,  6 beta functions with:
                l(1) =   0
                l(2) =   0
                l(3) =   1
                l(4) =   1
                l(5) =   2
                l(6) =   2
     Q(r) pseudized with  6 coefficients,  rinner =    1.400   1.400   1.400
                                                       1.400   1.400

     vdW kernel table read from file vdW_kernel_table
     MD5 check sum: 095c7af220d748ca6e76c0b4c6cfb241

     atomic species   valence    mass     pseudopotential
        Al1            3.00    26.98154     Al( 1.00)
        In1           13.00   114.81800     In( 1.00)

     No symmetry found

   Cartesian axes

     site n.     atom                  positions (alat units)
         1           Al1 tau(   1) = (   0.0000000   0.0000000  10.0000000  )
         2           Al1 tau(   2) = (  -1.5050696   2.6068571  10.0000000  )
         3           Al1 tau(   3) = (   1.5050696   2.6068571  10.0000000  )
         4           In1 tau(   4) = (   3.0101392   0.0000000  10.0000000  )
         5           Al1 tau(   5) = (   3.0101392   1.7379047  12.4577684  )
         6           Al1 tau(   6) = (   1.5050696   4.3447618  12.4577684  )
         7           Al1 tau(   7) = (  -1.5050696   4.3447618  12.4577684  )
         8           In1 tau(   8) = (   0.0000000   1.7379047  12.4577684  )
         9           Al1 tau(   9) = (  -0.0000000   3.4758094  14.9155368  )
        10           Al1 tau(  10) = (   1.5050696   0.8689524  14.9155368  )
        11           Al1 tau(  11) = (   4.5152089   0.8689524  14.9155368  )
        12           In1 tau(  12) = (   3.0101392   3.4758094  14.9155368  )

     number of k points=    20  Fermi-Dirac smearing, width (Ry)=  0.0110
                       cart. coord. in units 2pi/alat
        k(    1) = (   0.0000000   0.0000000   0.0000000), wk =   0.0555556
        k(    2) = (   0.0000000   0.0319670   0.0000000), wk =   0.1111111
        k(    3) = (   0.0000000   0.0639339   0.0000000), wk =   0.1111111
        k(    4) = (   0.0000000  -0.0959009   0.0000000), wk =   0.0555556
        k(    5) = (   0.0276842   0.0159835   0.0000000), wk =   0.1111111
        k(    6) = (   0.0276842   0.0479505   0.0000000), wk =   0.1111111
        k(    7) = (   0.0276842   0.0799174   0.0000000), wk =   0.1111111
        k(    8) = (   0.0276842  -0.0799174   0.0000000), wk =   0.1111111
        k(    9) = (   0.0276842  -0.0479505   0.0000000), wk =   0.1111111
        k(   10) = (   0.0276842  -0.0159835   0.0000000), wk =   0.1111111
        k(   11) = (   0.0553684   0.0319670   0.0000000), wk =   0.1111111
        k(   12) = (   0.0553684   0.0639339   0.0000000), wk =   0.1111111
        k(   13) = (   0.0553684   0.0959009   0.0000000), wk =   0.1111111
        k(   14) = (   0.0553684  -0.0639339   0.0000000), wk =   0.1111111
        k(   15) = (   0.0553684  -0.0319670   0.0000000), wk =   0.1111111
        k(   16) = (   0.0553684   0.0000000   0.0000000), wk =   0.1111111
        k(   17) = (  -0.0830526  -0.0479505   0.0000000), wk =   0.0555556
        k(   18) = (  -0.0830526  -0.0159835   0.0000000), wk =   0.1111111
        k(   19) = (  -0.0830526   0.0159835   0.0000000), wk =   0.1111111
        k(   20) = (  -0.0830526  -0.1438514   0.0000000), wk =   0.0555556

     Largest allocated arrays     est. size (Mb)     dimensions
     Largest temporary arrays     est. size (Mb)     dimensions

     Initial potential from superposition of free atoms
     Check: negative starting charge=   -0.000171

     starting charge   61.47781, renormalised to   66.00000

     negative rho (up, down):  1.837E-04 0.000E+00

     *
     * You are using vdW-DF for exchange-correlation in this calculation.
     * Please cite the following three references that made this development
     * possible:
     *
     *   M. Dion, H. Rydberg, E. Schroder, D. C. Langreth, and
     *   B. I. Lundqvist, Phys. Rev. Lett. 92, 246401 (2004).
     *
     *   T. Thonhauser, V. R. Cooper, S. Li, A. Puzder, P. Hyldgaard, and
     *   D. C. Langreth, Phys. Rev. B 76, 125112 (2007).
     *
     *   G. Roman-Perez and J. M. Soler, Phys. Rev. Lett. 103, 096102 (2009).
     *
     *
     * If you are using vdW-DF2, please also cite:
     *
     *   K. Lee, E. D. Murray, L. Kong, B. I. Lundqvist, and
     *   D. C. Langreth, Phys. Rev. B 82, 081101(R) (2010).
     *
     *
     * If you are calculating the stress with vdW-DF, please also cite:
     *
     *   R. Sabatini, E. Kucukbenli, B. Kolb, T. Thonhauser, and
     *   S. de Gironcoli, J. Phys.: Condens. Matter 24, 424209 (2012).
     *

     Carrying out vdW-DF run using the following parameters:

     Nqs =      20    Nr_points =    1024   r_max =   100.000
     q_mesh =
               0.00001000     0.04494208     0.09755937     0.15916263
               0.23128650     0.31572767     0.41458969     0.53033537
               0.66584808     0.82450364     1.01025438     1.22772762
               1.48234092     1.78043706     2.12944203     2.53805004
               3.01644009     3.57652955     4.23227104     5.00000000

     Gradients computed in reciprocal space

     Adding external electric field

     Computed dipole along edir(3) :
        Dipole               -0.0000 Ry au,         -0.0000 Debye
        Dipole field         -0.0000 Ry au

        Potential amp.        0.0000 Ry
        Total length         45.9065 bohr

     Starting wfc are   63 randomized atomic wfcs

     Self-consistent Calculation

     iteration #  1     ecut=    36.75 Ry     beta=0.10
     Davidson diagonalization with overlap
     ethr =  1.00E-02,  avg # of iterations =  7.3

[...]

     total energy              =    -466.67524578 Ry
     Harris-Foulkes estimate   =    -467.50302489 Ry
     estimated scf accuracy    <       4.71182552 Ry

[...]

     End of self-consistent calculation

          k = 0.0000 0.0000 0.0000 ( 19687 PWs)   bands (ev):

   -15.3081 -15.3000 -15.3000 -15.2853 -15.2853 -15.2264 -15.2221 -15.2106
   -15.2106 -15.2073 -15.2073 -15.1962 -15.1962 -15.1859 -15.1859 -10.3872
    -8.8157  -6.3824  -4.9892  -4.7999  -4.7095  -4.7095  -4.6640  -4.6640
    -3.4759  -3.3954  -3.3954  -3.2147  -3.1623  -2.9037  -2.9037  -1.1063
    -0.9802  -0.9802  -0.8784  -0.6843  -0.6843   0.1577   2.1976   2.1976
     2.2091   2.2164   2.2358   2.2358   2.2787   3.0716   3.7535   4.0706
     4.5600   4.9353   4.9353   5.3143   5.4584   5.4584   5.5343   5.5931
     5.7983   5.7983   5.8515   5.8808   6.6394   6.6394   7.0424

[...]

          k =-0.0831-0.0480 0.0000 ( 19890 PWs)   bands (ev):

[...]

     the Fermi energy is    -0.4096 ev

!    total energy              =    -465.95957994 Ry
     Harris-Foulkes estimate   =    -465.95957555 Ry
     estimated scf accuracy    <       0.00000014 Ry

     The total energy is the sum of the following terms:

     one-electron contribution =   -2120.51311544 Ry
     hartree contribution      =    1084.22651448 Ry
     xc contribution           =    -156.85055637 Ry
     ewald contribution        =     727.20733178 Ry
     electric field correction =       0.00000000 Ry
     smearing contrib. (-TS)   =      -0.02975439 Ry

     convergence has been achieved in  14 iterations

 BEEF-vdW xc energy contributions
           1 :   -135.176337463115
           2 :    121.785159942978
           3 :   -99.8496453782163
           4 :    76.3069151672273
           5 :   -56.7409458714770
           6 :    43.3141184772388
           7 :   -34.9284139854008
           8 :    29.0054843125154
           9 :   -23.4436300020724
          10 :    17.5577484167721
          11 :   -11.8037009513583
          12 :    6.93410707450502
          13 :   -3.36658025441952
          14 :    1.06722282574620
          15 :   0.255743686582946
          16 :  -0.978131851309854
          17 :    1.49815401732286
          18 :   -2.16257680944130
          19 :    3.10227381587171
          20 :   -4.10922707121188
          21 :    4.74680598807819
          22 :   -4.68543902917239
          23 :    4.00025643362355
          24 :   -3.15432956866667
          25 :    2.65447048154971
          26 :   -2.66914964574090
          27 :    2.93618780808018
          28 :   -3.02724490076210
          29 :    2.71838705482199
          30 :   -2.14219894193567
          31 :   -14.1814979457395
[...]
     celldm(4)=   0.000000  celldm(5)=   0.000000  celldm(6)=   0.000000

     crystal axes: (cart. coord. in units of alat)
               a(1) = (   6.020278   0.000000   0.000000 )
               a(2) = (  -3.010139   5.213714   0.000000 )
               a(3) = (   0.000000   0.000000  24.915537 )

     reciprocal axes: (cart. coord. in units 2 pi/alat)
               b(1) = (  0.166105  0.095901  0.000000 )
               b(2) = (  0.000000  0.191802  0.000000 )
               b(3) = (  0.000000  0.000000  0.040136 )

     PseudoPot. # 1 for Al read from file:
     /afs/slac.stanford.edu/u/if/mamunm/psp/gbrv1.5pbe/Al.UPF
     MD5 check sum: 0a6289f5291fc8f409219462bc851e1f
     Pseudo is Ultrasoft + core correction, Zval =  3.0
     Generated by new atomic code, or converted to UPF format
     Using radial grid of  893 points,  3 beta functions with:
                l(1) =   0
                l(2) =   1
                l(3) =   2
     Q(r) pseudized with  8 coefficients,  rinner =    0.900   0.900   0.900
                                                       0.900   0.900

     PseudoPot. # 2 for In read from file:
     /afs/slac.stanford.edu/u/if/mamunm/psp/gbrv1.5pbe/In.UPF
     MD5 check sum: 90777abd96fbb83f2e67db2a40c566b9
     Pseudo is Ultrasoft + core correction, Zval = 13.0
     Generated by new atomic code, or converted to UPF format
     Using radial grid of  889 points,  6 beta functions with:
                l(1) =   0
                l(2) =   0
                l(3) =   1
                l(4) =   1
                l(5) =   2
                l(6) =   2
     Q(r) pseudized with  6 coefficients,  rinner =    1.400   1.400   1.400
                                                       1.400   1.400

     vdW kernel table read from file vdW_kernel_table
     MD5 check sum: 095c7af220d748ca6e76c0b4c6cfb241

     atomic species   valence    mass     pseudopotential
        Al1            3.00    26.98154     Al( 1.00)
        In1           13.00   114.81800     In( 1.00)

     No symmetry found

   Cartesian axes

     site n.     atom                  positions (alat units)
         1           Al1 tau(   1) = (   0.0000000   0.0000000  10.0000000  )
         2           Al1 tau(   2) = (  -1.5050696   2.6068571  10.0000000  )
         3           Al1 tau(   3) = (   1.5050696   2.6068571  10.0000000  )
         4           In1 tau(   4) = (   3.0101392   0.0000000  10.0000000  )
         5           Al1 tau(   5) = (   3.0101392   1.7379047  12.4577684  )
         6           Al1 tau(   6) = (   1.5050696   4.3447618  12.4577684  )
         7           Al1 tau(   7) = (  -1.5050696   4.3447618  12.4577684  )
         8           In1 tau(   8) = (   0.0000000   1.7379047  12.4577684  )
         9           Al1 tau(   9) = (  -0.0000016   3.5526997  14.7771094  )
        10           Al1 tau(  10) = (   1.5716550   0.8305027  14.7771095  )
        11           Al1 tau(  11) = (   4.4486228   0.8305043  14.7771093  )
        12           In1 tau(  12) = (   3.0101355   3.4758080  15.1690360  )

     number of k points=    20  Fermi-Dirac smearing, width (Ry)=  0.0110
                       cart. coord. in units 2pi/alat
        k(    1) = (   0.0000000   0.0000000   0.0000000), wk =   0.0555556
        k(    2) = (   0.0000000   0.0319670   0.0000000), wk =   0.1111111
        k(    3) = (   0.0000000   0.0639339   0.0000000), wk =   0.1111111
        k(    4) = (   0.0000000  -0.0959009   0.0000000), wk =   0.0555556
        k(    5) = (   0.0276842   0.0159835   0.0000000), wk =   0.1111111
        k(    6) = (   0.0276842   0.0479505   0.0000000), wk =   0.1111111
        k(    7) = (   0.0276842   0.0799174   0.0000000), wk =   0.1111111
        k(    8) = (   0.0276842  -0.0799174   0.0000000), wk =   0.1111111
        k(    9) = (   0.0276842  -0.0479505   0.0000000), wk =   0.1111111
        k(   10) = (   0.0276842  -0.0159835   0.0000000), wk =   0.1111111
        k(   11) = (   0.0553684   0.0319670   0.0000000), wk =   0.1111111
        k(   12) = (   0.0553684   0.0639339   0.0000000), wk =   0.1111111
        k(   13) = (   0.0553684   0.0959009   0.0000000), wk =   0.1111111
        k(   14) = (   0.0553684  -0.0639339   0.0000000), wk =   0.1111111
        k(   15) = (   0.0553684  -0.0319670   0.0000000), wk =   0.1111111
        k(   16) = (   0.0553684   0.0000000   0.0000000), wk =   0.1111111
        k(   17) = (  -0.0830526  -0.0479505   0.0000000), wk =   0.0555556
        k(   18) = (  -0.0830526  -0.0159835   0.0000000), wk =   0.1111111
        k(   19) = (  -0.0830526   0.0159835   0.0000000), wk =   0.1111111
        k(   20) = (  -0.0830526  -0.1438514   0.0000000), wk =   0.0555556

     Largest allocated arrays     est. size (Mb)     dimensions
     Largest temporary arrays     est. size (Mb)     dimensions

     Initial potential from superposition of free atoms
     Check: negative starting charge=   -0.000172

     starting charge   61.47781, renormalised to   66.00000

[...]

     *
     * You are using vdW-DF for exchange-correlation in this calculation.
     * Please cite the following three references that made this development
     * possible:
     *
     *   M. Dion, H. Rydberg, E. Schroder, D. C. Langreth, and
     *   B. I. Lundqvist, Phys. Rev. Lett. 92, 246401 (2004).
     *
     *   T. Thonhauser, V. R. Cooper, S. Li, A. Puzder, P. Hyldgaard, and
     *   D. C. Langreth, Phys. Rev. B 76, 125112 (2007).
     *
     *   G. Roman-Perez and J. M. Soler, Phys. Rev. Lett. 103, 096102 (2009).
     *
     *
     * If you are using vdW-DF2, please also cite:
     *
     *   K. Lee, E. D. Murray, L. Kong, B. I. Lundqvist, and
     *   D. C. Langreth, Phys. Rev. B 82, 081101(R) (2010).
     *
     *
     * If you are calculating the stress with vdW-DF, please also cite:
     *
     *   R. Sabatini, E. Kucukbenli, B. Kolb, T. Thonhauser, and
     *   S. de Gironcoli, J. Phys.: Condens. Matter 24, 424209 (2012).
     *

     Carrying out vdW-DF run using the following parameters:

     Nqs =      20    Nr_points =    1024   r_max =   100.000
     q_mesh =
               0.00001000     0.04494208     0.09755937     0.15916263
               0.23128650     0.31572767     0.41458969     0.53033537
               0.66584808     0.82450364     1.01025438     1.22772762
               1.48234092     1.78043706     2.12944203     2.53805004
               3.01644009     3.57652955     4.23227104     5.00000000

     Gradients computed in reciprocal space

[...]

     Starting wfc are   63 randomized atomic wfcs

     Self-consistent Calculation

[...]

     total energy              =    -465.97083632 Ry
     Harris-Foulkes estimate   =    -465.97083576 Ry
     estimated scf accuracy    <       0.00000468 Ry

     iteration # 14     ecut=    36.75 Ry     beta=0.10
     Davidson diagonalization with overlap
     ethr =  7.09E-09,  avg # of iterations =  2.0

[...]

     negative rho (up, down):  6.513E-04 0.000E+00

     Adding external electric field

     Computed dipole along edir(3) :
        Dipole                0.0014 Ry au,          0.0035 Debye
        Dipole field          0.0000 Ry au

        Potential amp.       -0.0003 Ry
        Total length         45.9065 bohr

     End of self-consistent calculation

[...]

          k = 0.0554 0.0000 0.0000 ( 19867 PWs)   bands (ev):

[...]

          k =-0.0831-0.1439 0.0000 ( 19890 PWs)   bands (ev):

   -15.3473 -15.3414 -15.3406 -15.3183 -15.3173 -15.2303 -15.2215 -15.2187
   -15.2062 -15.2019 -15.1993 -15.1760 -15.1740 -15.1715 -15.1675  -9.1316
    -8.9263  -7.5140  -7.3212  -6.2497  -6.2020  -5.1130  -4.8718  -4.5699
    -4.5404  -2.2852  -2.2458  -1.8596  -1.7534  -0.8250  -0.7682  -0.7572
    -0.6354   0.3503   0.5619   0.8554   0.9664   1.0677   1.2777   1.2867
     1.6090   1.9373   2.1577   2.9385   3.0882   3.1601   3.2544   3.4351
     3.5168   3.5959   3.6470   3.9612   4.1547   4.4050   4.4616   5.1096
     5.1298   5.3125   5.4024   5.6379   5.8237   5.8524   6.0741

     the Fermi energy is    -0.4304 ev

!    total energy              =    -465.97084349 Ry
     Harris-Foulkes estimate   =    -465.97083719 Ry
     estimated scf accuracy    <       0.00000026 Ry

     The total energy is the sum of the following terms:

     one-electron contribution =   -2093.74769918 Ry
     hartree contribution      =    1070.82386686 Ry
     xc contribution           =    -156.88762239 Ry
     ewald contribution        =     713.87065666 Ry
     electric field correction =       0.00000000 Ry
     smearing contrib. (-TS)   =      -0.03004544 Ry

     convergence has been achieved in  14 iterations

 BEEF-vdW xc energy contributions
           1 :   -135.275600927556
           2 :    121.876951890858
           3 :   -99.9353914937327
           4 :    76.3993909271330
           5 :   -56.8583922695356
           6 :    43.4687670837301
           7 :   -35.1158953390262
           8 :    29.2028819872942
           9 :   -23.6204774125534
          10 :    17.6951320653044
          11 :   -11.9080654660613
          12 :    7.03295174231334
          13 :   -3.48711691938018
          14 :    1.21451019434036
          15 :   0.103231680033986
          16 :  -0.850486431613831
          17 :    1.40828310275612
          18 :   -2.09533989749843
          19 :    3.02804600741058
          20 :   -4.01028918044202
          21 :    4.63356700676894
          22 :   -4.58847944000507
          23 :    3.94546883497370
          24 :   -3.14218727220126
          25 :    2.66062613388871
          26 :   -2.66511232316515
          27 :    2.91189438029710
          28 :   -2.99713984406088
          29 :    2.70779848148732
          30 :   -2.16710069112699
          31 :   -14.1889023391516
          32 :   -10.3349405772924

     Forces acting on atoms (Ry/au):

     negative rho (up, down):  6.513E-04 0.000E+00
     atom    1 type  1   force =    -0.00000003   -0.00753488    0.00811126
     atom    2 type  1   force =    -0.00652544    0.00376747    0.00811127
     atom    3 type  1   force =     0.00652539    0.00376741    0.00811130
     atom    4 type  2   force =     0.00000009    0.00000036   -0.01589862
     atom    5 type  1   force =    -0.00000001    0.00917946   -0.00131764
     atom    6 type  1   force =     0.00794968   -0.00458979   -0.00131789
     atom    7 type  1   force =    -0.00794976   -0.00458980   -0.00131790
     atom    8 type  2   force =     0.00000017    0.00000021   -0.00747440
     atom    9 type  1   force =    -0.00000012    0.00010327    0.00059913
     atom   10 type  1   force =     0.00008992   -0.00005135    0.00059924
     atom   11 type  1   force =    -0.00008995   -0.00005122    0.00059912
     atom   12 type  2   force =     0.00000005   -0.00000116    0.00119512

     Total force =     0.030608     Total SCF correction =     0.000409

     entering subroutine stress ...

     negative rho (up, down):  6.513E-04 0.000E+00
          total   stress  (Ry/bohr**3)                   (kbar)     P=   -4.88
  -0.00004614  -0.00000000  -0.00000000         -6.79     -0.00     -0.00
  -0.00000000  -0.00004614   0.00000000         -0.00     -6.79      0.00
  -0.00000000   0.00000000  -0.00000728         -0.00      0.00     -1.07

 !ASE

     Writing output data file calc.save

     General routines

     Parallel routines

   This run was terminated on:  18:14:23  19Dec2018

   JOB DONE.
Job  /afs/slac/g/suncat/bin/suncat-tsmpirun -x LD_LIBRARY_PATH -wdir /scratch/qe773267_C1a8u pw.x -in pw.inp

TID   HOST_NAME   COMMAND_LINE            STATUS            TERMINATION_TIME
00000 suncat0226 pw.x -in pw.inp   Done                     12/19/2018 18:14:23
00001 suncat0226 pw.x -in pw.inp   Done                     12/19/2018 18:14:23
00002 suncat0226 pw.x -in pw.inp   Done                     12/19/2018 18:14:23
00003 suncat0226 pw.x -in pw.inp   Done                     12/19/2018 18:14:23
00004 suncat0226 pw.x -in pw.inp   Done                     12/19/2018 18:14:23
00005 suncat0226 pw.x -in pw.inp   Done                     12/19/2018 18:14:23
00006 suncat0226 pw.x -in pw.inp   Done                     12/19/2018 18:14:23
00007 suncat0226 pw.x -in pw.inp   Done                     12/19/2018 18:14:23
00008 suncat0225 pw.x -in pw.inp   Done                     12/19/2018 18:14:23
00009 suncat0225 pw.x -in pw.inp   Done                     12/19/2018 18:14:23
00010 suncat0225 pw.x -in pw.inp   Done                     12/19/2018 18:14:23
00011 suncat0225 pw.x -in pw.inp   Done                     12/19/2018 18:14:23
00012 suncat0225 pw.x -in pw.inp   Done                     12/19/2018 18:14:23
00013 suncat0225 pw.x -in pw.inp   Done                     12/19/2018 18:14:23
00014 suncat0225 pw.x -in pw.inp   Done                     12/19/2018 18:14:23
00015 suncat0225 pw.x -in pw.inp   Done                     12/19/2018 18:14:23
00016 suncat0224 pw.x -in pw.inp   Done                     12/19/2018 18:14:23
00017 suncat0224 pw.x -in pw.inp   Done                     12/19/2018 18:14:23
00018 suncat0224 pw.x -in pw.inp   Done                     12/19/2018 18:14:23
00019 suncat0224 pw.x -in pw.inp   Done                     12/19/2018 18:14:23
00020 suncat0224 pw.x -in pw.inp   Done                     12/19/2018 18:14:23
00021 suncat0224 pw.x -in pw.inp   Done                     12/19/2018 18:14:23
00022 suncat0224 pw.x -in pw.inp   Done                     12/19/2018 18:14:23
00023 suncat0224 pw.x -in pw.inp   Done                     12/19/2018 18:14:23
00024 suncat0223 pw.x -in pw.inp   Done                     12/19/2018 18:14:23
00025 suncat0223 pw.x -in pw.inp   Done                     12/19/2018 18:14:23
00026 suncat0223 pw.x -in pw.inp   Done                     12/19/2018 18:14:23
00027 suncat0223 pw.x -in pw.inp   Done                     12/19/2018 18:14:23
00028 suncat0223 pw.x -in pw.inp   Done                     12/19/2018 18:14:23
00029 suncat0223 pw.x -in pw.inp   Done                     12/19/2018 18:14:23
00030 suncat0223 pw.x -in pw.inp   Done                     12/19/2018 18:14:23
00031 suncat0223 pw.x -in pw.inp   Done                     12/19/2018 18:14:23
00032 suncat0222 pw.x -in pw.inp   Done                     12/19/2018 18:14:23
00033 suncat0222 pw.x -in pw.inp   Done                     12/19/2018 18:14:23
00034 suncat0222 pw.x -in pw.inp   Done                     12/19/2018 18:14:23
00035 suncat0222 pw.x -in pw.inp   Done                     12/19/2018 18:14:23
00036 suncat0222 pw.x -in pw.inp   Done                     12/19/2018 18:14:23
00037 suncat0222 pw.x -in pw.inp   Done                     12/19/2018 18:14:23
00038 suncat0222 pw.x -in pw.inp   Done                     12/19/2018 18:14:23
00039 suncat0222 pw.x -in pw.inp   Done                     12/19/2018 18:14:23
00040 suncat0221 pw.x -in pw.inp   Done                     12/19/2018 18:14:23
00041 suncat0221 pw.x -in pw.inp   Done                     12/19/2018 18:14:23
00042 suncat0221 pw.x -in pw.inp   Done                     12/19/2018 18:14:23
00043 suncat0221 pw.x -in pw.inp   Done                     12/19/2018 18:14:23
00044 suncat0221 pw.x -in pw.inp   Done                     12/19/2018 18:14:23
00045 suncat0221 pw.x -in pw.inp   Done                     12/19/2018 18:14:23
00046 suncat0221 pw.x -in pw.inp   Done                     12/19/2018 18:14:23
00047 suncat0221 pw.x -in pw.inp   Done                     12/19/2018 18:14:23
00048 suncat0220 pw.x -in pw.inp   Done                     12/19/2018 18:14:23
00049 suncat0220 pw.x -in pw.inp   Done                     12/19/2018 18:14:23
00050 suncat0220 pw.x -in pw.inp   Done                     12/19/2018 18:14:23
00051 suncat0220 pw.x -in pw.inp   Done                     12/19/2018 18:14:23
00052 suncat0220 pw.x -in pw.inp   Done                     12/19/2018 18:14:23
00053 suncat0220 pw.x -in pw.inp   Done                     12/19/2018 18:14:23
00054 suncat0220 pw.x -in pw.inp   Done                     12/19/2018 18:14:23
00055 suncat0220 pw.x -in pw.inp   Done                     12/19/2018 18:14:23
00056 suncat0219 pw.x -in pw.inp   Done                     12/19/2018 18:14:23
00057 suncat0219 pw.x -in pw.inp   Done                     12/19/2018 18:14:23
00058 suncat0219 pw.x -in pw.inp   Done                     12/19/2018 18:14:23
00059 suncat0219 pw.x -in pw.inp   Done                     12/19/2018 18:14:23
00060 suncat0219 pw.x -in pw.inp   Done                     12/19/2018 18:14:23
00061 suncat0219 pw.x -in pw.inp   Done                     12/19/2018 18:14:23
00062 suncat0219 pw.x -in pw.inp   Done                     12/19/2018 18:14:23
00063 suncat0219 pw.x -in pw.inp   Done                     12/19/2018 18:14:23