     Program PWSCF v.5.1rc2 (svn rev. 11289) starts on 28Dec2018 at 23:44:25

     Current dimensions of program PWSCF are:
     Max number of different atomic species (ntypx) = 10
     Max number of k-points (npk) =  40000
     Max angular momentum in pseudopotentials (lmaxx) =  3
     Presently stress not available with electric field

     IMPORTANT: XC functional enforced from input :
     Exchange-correlation      = BEEF-VDW ( 1  4 27 13 2)
     Any further DFT definition will be discarded
     Please, verify this is what you really want

     Subspace diagonalization in iterative solution of the eigenvalue problem:
     a serial algorithm will be used

     bravais-lattice index     =            0
     lattice parameter (alat)  =       1.8897  a.u.
     unit-cell volume          =    4191.9159 (a.u.)^3
     number of atoms/cell      =           12
     number of atomic types    =            2
     number of electrons       =       204.00
     number of Kohn-Sham states=          132
     kinetic-energy cutoff     =      36.7493  Ry
     charge density cutoff     =     367.4932  Ry
     convergence threshold     =      1.0E-06
     mixing beta               =       0.1000
     number of iterations used =           10  plain     mixing
     Exchange-correlation      = BEEF-VDW ( 1  4 27 13 2)
     nstep                     =           50

     celldm(1)=   1.889726  celldm(2)=   0.000000  celldm(3)=   0.000000
     celldm(4)=   0.000000  celldm(5)=   0.000000  celldm(6)=   0.000000

     crystal axes: (cart. coord. in units of alat)
               a(1) = (   5.419112   0.000000   0.000000 )
               a(2) = (  -2.709556   4.693089   0.000000 )
               a(3) = (   0.000000   0.000000  24.424687 )

     reciprocal axes: (cart. coord. in units 2 pi/alat)
               b(1) = (  0.184532  0.106540  0.000000 )
               b(2) = (  0.000000  0.213079  0.000000 )
               b(3) = (  0.000000  0.000000  0.040942 )

     PseudoPot. # 1 for Ru read from file:
     /afs/slac.stanford.edu/u/if/mamunm/psp/gbrv1.5pbe/Ru.UPF
     MD5 check sum: 7158a806dd851261a58e6920c40ebe78
     Pseudo is Ultrasoft + core correction, Zval = 16.0
     Generated by new atomic code, or converted to UPF format
     Using radial grid of  967 points,  6 beta functions with:
                l(1) =   0
                l(2) =   0
                l(3) =   1
                l(4) =   1
                l(5) =   2
                l(6) =   2
     Q(r) pseudized with  8 coefficients,  rinner =    1.300   1.300   1.300
                                                       1.300   1.300

     PseudoPot. # 2 for Zn read from file:
     /afs/slac.stanford.edu/u/if/mamunm/psp/gbrv1.5pbe/Zn.UPF
     MD5 check sum: df62231357ef9e81f77b2b3087fa5675
     Pseudo is Ultrasoft, Zval = 20.0
     Generated by new atomic code, or converted to UPF format
     Using radial grid of  943 points,  6 beta functions with:
                l(1) =   0
                l(2) =   0
                l(3) =   1
                l(4) =   1
                l(5) =   2
                l(6) =   2
     Q(r) pseudized with  8 coefficients,  rinner =    1.100   1.100   1.100
                                                       1.100   1.100

     vdW kernel table read from file vdW_kernel_table
     MD5 check sum: 095c7af220d748ca6e76c0b4c6cfb241

     atomic species   valence    mass     pseudopotential
        Ru1           16.00   101.07000     Ru( 1.00)
        Zn1           20.00    65.38000     Zn( 1.00)

     No symmetry found

   Cartesian axes

     site n.     atom                  positions (alat units)
         1           Ru1 tau(   1) = (   0.0000000   0.0000000  10.0000000  )
         2           Ru1 tau(   2) = (  -1.3547781   2.3465445  10.0000000  )
         3           Ru1 tau(   3) = (   1.3547781   2.3465445  10.0000000  )
         4           Zn1 tau(   4) = (   2.7095562   0.0000000  10.0000000  )
         5           Ru1 tau(   5) = (   2.7095562   1.5643630  12.2123434  )
         6           Ru1 tau(   6) = (   1.3547781   3.9109076  12.2123434  )
         7           Ru1 tau(   7) = (  -1.3547781   3.9109076  12.2123434  )
         8           Zn1 tau(   8) = (   0.0000000   1.5643630  12.2123434  )
         9           Ru1 tau(   9) = (   0.0001271   3.1555486  14.3575185  )
        10           Ru1 tau(  10) = (   1.3779570   0.7688175  14.3575705  )
        11           Ru1 tau(  11) = (   4.0411775   0.7686842  14.3575425  )
        12           Zn1 tau(  12) = (   2.7097002   3.1285782  14.5348469  )

     number of k points=    20  Fermi-Dirac smearing, width (Ry)=  0.0110
                       cart. coord. in units 2pi/alat
        k(    1) = (   0.0000000   0.0000000   0.0000000), wk =   0.0555556
        k(    2) = (   0.0000000   0.0355132   0.0000000), wk =   0.1111111
        k(    3) = (   0.0000000   0.0710264   0.0000000), wk =   0.1111111
        k(    4) = (   0.0000000  -0.1065396   0.0000000), wk =   0.0555556
        k(    5) = (   0.0307553   0.0177566   0.0000000), wk =   0.1111111
        k(    6) = (   0.0307553   0.0532698   0.0000000), wk =   0.1111111
        k(    7) = (   0.0307553   0.0887830   0.0000000), wk =   0.1111111
        k(    8) = (   0.0307553  -0.0887830   0.0000000), wk =   0.1111111
        k(    9) = (   0.0307553  -0.0532698   0.0000000), wk =   0.1111111
        k(   10) = (   0.0307553  -0.0177566   0.0000000), wk =   0.1111111
        k(   11) = (   0.0615107   0.0355132   0.0000000), wk =   0.1111111
        k(   12) = (   0.0615107   0.0710264   0.0000000), wk =   0.1111111
        k(   13) = (   0.0615107   0.1065396   0.0000000), wk =   0.1111111
        k(   14) = (   0.0615107  -0.0710264   0.0000000), wk =   0.1111111
        k(   15) = (   0.0615107  -0.0355132   0.0000000), wk =   0.1111111
        k(   16) = (   0.0615107   0.0000000   0.0000000), wk =   0.1111111
        k(   17) = (  -0.0922660  -0.0532698   0.0000000), wk =   0.0555556
        k(   18) = (  -0.0922660  -0.0177566   0.0000000), wk =   0.1111111
        k(   19) = (  -0.0922660   0.0177566   0.0000000), wk =   0.1111111
        k(   20) = (  -0.0922660  -0.1598095   0.0000000), wk =   0.0555556

     Largest allocated arrays     est. size (Mb)     dimensions
     Largest temporary arrays     est. size (Mb)     dimensions

     Initial potential from superposition of free atoms
     Check: negative starting charge=   -0.656454

     starting charge  194.99944, renormalised to  204.00000

     negative rho (up, down):  6.868E-01 0.000E+00

     *
     * You are using vdW-DF for exchange-correlation in this calculation.
     * Please cite the following three references that made this development
     * possible:
     *
     *   M. Dion, H. Rydberg, E. Schroder, D. C. Langreth, and
     *   B. I. Lundqvist, Phys. Rev. Lett. 92, 246401 (2004).
     *
     *   T. Thonhauser, V. R. Cooper, S. Li, A. Puzder, P. Hyldgaard, and
     *   D. C. Langreth, Phys. Rev. B 76, 125112 (2007).
     *
     *   G. Roman-Perez and J. M. Soler, Phys. Rev. Lett. 103, 096102 (2009).
     *
     *
     * If you are using vdW-DF2, please also cite:
     *
     *   K. Lee, E. D. Murray, L. Kong, B. I. Lundqvist, and
     *   D. C. Langreth, Phys. Rev. B 82, 081101(R) (2010).
     *
     *
     * If you are calculating the stress with vdW-DF, please also cite:
     *
     *   R. Sabatini, E. Kucukbenli, B. Kolb, T. Thonhauser, and
     *   S. de Gironcoli, J. Phys.: Condens. Matter 24, 424209 (2012).
     *

     Carrying out vdW-DF run using the following parameters:

     Nqs =      20    Nr_points =    1024   r_max =   100.000
     q_mesh =
               0.00001000     0.04494208     0.09755937     0.15916263
               0.23128650     0.31572767     0.41458969     0.53033537
               0.66584808     0.82450364     1.01025438     1.22772762
               1.48234092     1.78043706     2.12944203     2.53805004
               3.01644009     3.57652955     4.23227104     5.00000000

     Gradients computed in reciprocal space

     Adding external electric field

     Computed dipole along edir(3) :
        Dipole               -0.3093 Ry au,         -0.7860 Debye
        Dipole field         -0.0009 Ry au

        Potential amp.        0.0834 Ry
        Total length         45.0021 bohr

     Starting wfc are  156 randomized atomic wfcs

     Self-consistent Calculation

     iteration #  1     ecut=    36.75 Ry     beta=0.10
     Davidson diagonalization with overlap
     ethr =  1.00E-02,  avg # of iterations =  7.2

[...]

     total energy              =   -3113.23043578 Ry
     Harris-Foulkes estimate   =   -3165.64292682 Ry
     estimated scf accuracy    <     286.27797407 Ry

[...]

     End of self-consistent calculation

          k = 0.0000 0.0000 0.0000 ( 15665 PWs)   bands (ev):

  -124.1588-124.0619-124.0528 -78.3406 -78.3380 -78.3380 -78.2391 -78.2391
   -78.2383 -78.2307 -78.2307 -78.2266 -71.1279 -71.0470 -71.0470 -70.8501
   -70.7953 -70.7751 -70.7751 -70.7206 -70.7206 -41.5112 -41.2628 -41.2628
   -41.2433 -41.2032 -41.1467 -41.1467 -41.1109 -40.8988 -40.8988 -40.8832
   -40.7995 -40.7995 -40.7563 -40.7563 -40.7346 -40.6666 -40.6666 -40.6007
   -40.5759 -40.5759 -40.5695 -40.5429 -40.5429 -40.5077 -40.5045 -40.5045
    -5.8668  -5.4456  -5.4456  -5.3766  -5.3723  -5.3723  -5.2227  -5.2227
    -5.2110  -5.2003  -5.2003  -5.1911  -5.0108  -5.0108  -5.0023  -5.0022
    -4.3395  -4.0188  -3.7803  -2.9003  -2.6049  -2.1673  -2.0572  -2.0572
    -1.9150  -1.9148  -1.6772  -1.5177  -1.5177  -1.3877  -1.3877  -0.5709
    -0.5708  -0.4771  -0.4771  -0.2114  -0.0355   0.1050   0.4619   0.4620
     0.6884   0.9055   0.9056   1.3701   1.3719   1.3720   1.6410   1.7486
     1.7487   1.8889   1.8889   2.0286   2.0286   2.2540   2.3458   2.3460
     2.4614   2.4615   2.9282   2.9282   3.1376   3.1376   3.1714   3.6172
     3.8030   3.8967   3.9818   4.7503   4.7966   5.1522   5.1522   5.2431
     5.2431   5.9886   6.1992   6.8339   7.1162   7.3298   7.8527   8.3986
     8.9688   9.3680   9.3681   9.4629

[...]

          k =-0.0923-0.0533 0.0000 ( 15792 PWs)   bands (ev):

[...]

     the Fermi energy is     1.8265 ev

!    total energy              =   -3144.15601566 Ry
     Harris-Foulkes estimate   =   -3144.15601455 Ry
     estimated scf accuracy    <       0.00000087 Ry

     The total energy is the sum of the following terms:

     one-electron contribution =  -25649.55850030 Ry
     hartree contribution      =   12821.80425654 Ry
     xc contribution           =    -371.87714826 Ry
     ewald contribution        =   10055.57260366 Ry
     electric field correction =       0.00000098 Ry
     smearing contrib. (-TS)   =      -0.09722828 Ry

     convergence has been achieved in  20 iterations

 BEEF-vdW xc energy contributions
           1 :   -325.374329271805
           2 :    297.404320306451
           3 :   -249.497902634239
           4 :    194.247185710071
           5 :   -143.857880928009
           6 :    106.078734178685
           7 :   -82.5792246536204
           8 :    70.0457577121883
           9 :   -62.9989413582232
          10 :    56.7152817467785
[...]
     Pseudo is Ultrasoft + core correction, Zval = 16.0
     Generated by new atomic code, or converted to UPF format
     Using radial grid of  967 points,  6 beta functions with:
                l(1) =   0
                l(2) =   0
                l(3) =   1
                l(4) =   1
                l(5) =   2
                l(6) =   2
     Q(r) pseudized with  8 coefficients,  rinner =    1.300   1.300   1.300
                                                       1.300   1.300

     PseudoPot. # 2 for Zn read from file:
     /afs/slac.stanford.edu/u/if/mamunm/psp/gbrv1.5pbe/Zn.UPF
     MD5 check sum: df62231357ef9e81f77b2b3087fa5675
     Pseudo is Ultrasoft, Zval = 20.0
     Generated by new atomic code, or converted to UPF format
     Using radial grid of  943 points,  6 beta functions with:
                l(1) =   0
                l(2) =   0
                l(3) =   1
                l(4) =   1
                l(5) =   2
                l(6) =   2
     Q(r) pseudized with  8 coefficients,  rinner =    1.100   1.100   1.100
                                                       1.100   1.100

     vdW kernel table read from file vdW_kernel_table
     MD5 check sum: 095c7af220d748ca6e76c0b4c6cfb241

     atomic species   valence    mass     pseudopotential
        Ru1           16.00   101.07000     Ru( 1.00)
        Zn1           20.00    65.38000     Zn( 1.00)

     No symmetry found

   Cartesian axes

     site n.     atom                  positions (alat units)
         1           Ru1 tau(   1) = (   0.0000000   0.0000000  10.0000000  )
         2           Ru1 tau(   2) = (  -1.3547781   2.3465445  10.0000000  )
         3           Ru1 tau(   3) = (   1.3547781   2.3465445  10.0000000  )
         4           Zn1 tau(   4) = (   2.7095562   0.0000000  10.0000000  )
         5           Ru1 tau(   5) = (   2.7095562   1.5643630  12.2123434  )
         6           Ru1 tau(   6) = (   1.3547781   3.9109076  12.2123434  )
         7           Ru1 tau(   7) = (  -1.3547781   3.9109076  12.2123434  )
         8           Zn1 tau(   8) = (   0.0000000   1.5643630  12.2123434  )
         9           Ru1 tau(   9) = (   0.0001146   3.1552405  14.3599352  )
        10           Ru1 tau(  10) = (   1.3776747   0.7689338  14.3599429  )
        11           Ru1 tau(  11) = (   4.0414445   0.7688060  14.3599309  )
        12           Zn1 tau(  12) = (   2.7096077   3.1286106  14.5419892  )

     number of k points=    20  Fermi-Dirac smearing, width (Ry)=  0.0110
                       cart. coord. in units 2pi/alat
        k(    1) = (   0.0000000   0.0000000   0.0000000), wk =   0.0555556
        k(    2) = (   0.0000000   0.0355132   0.0000000), wk =   0.1111111
        k(    3) = (   0.0000000   0.0710264   0.0000000), wk =   0.1111111
        k(    4) = (   0.0000000  -0.1065396   0.0000000), wk =   0.0555556
        k(    5) = (   0.0307553   0.0177566   0.0000000), wk =   0.1111111
        k(    6) = (   0.0307553   0.0532698   0.0000000), wk =   0.1111111
        k(    7) = (   0.0307553   0.0887830   0.0000000), wk =   0.1111111
        k(    8) = (   0.0307553  -0.0887830   0.0000000), wk =   0.1111111
        k(    9) = (   0.0307553  -0.0532698   0.0000000), wk =   0.1111111
        k(   10) = (   0.0307553  -0.0177566   0.0000000), wk =   0.1111111
        k(   11) = (   0.0615107   0.0355132   0.0000000), wk =   0.1111111
        k(   12) = (   0.0615107   0.0710264   0.0000000), wk =   0.1111111
        k(   13) = (   0.0615107   0.1065396   0.0000000), wk =   0.1111111
        k(   14) = (   0.0615107  -0.0710264   0.0000000), wk =   0.1111111
        k(   15) = (   0.0615107  -0.0355132   0.0000000), wk =   0.1111111
        k(   16) = (   0.0615107   0.0000000   0.0000000), wk =   0.1111111
        k(   17) = (  -0.0922660  -0.0532698   0.0000000), wk =   0.0555556
        k(   18) = (  -0.0922660  -0.0177566   0.0000000), wk =   0.1111111
        k(   19) = (  -0.0922660   0.0177566   0.0000000), wk =   0.1111111
        k(   20) = (  -0.0922660  -0.1598095   0.0000000), wk =   0.0555556

     Largest allocated arrays     est. size (Mb)     dimensions
     Largest temporary arrays     est. size (Mb)     dimensions

     Initial potential from superposition of free atoms
     Check: negative starting charge=   -0.656449

     starting charge  194.99944, renormalised to  204.00000

[...]

     *
     * You are using vdW-DF for exchange-correlation in this calculation.
     * Please cite the following three references that made this development
     * possible:
     *
     *   M. Dion, H. Rydberg, E. Schroder, D. C. Langreth, and
     *   B. I. Lundqvist, Phys. Rev. Lett. 92, 246401 (2004).
     *
     *   T. Thonhauser, V. R. Cooper, S. Li, A. Puzder, P. Hyldgaard, and
     *   D. C. Langreth, Phys. Rev. B 76, 125112 (2007).
     *
     *   G. Roman-Perez and J. M. Soler, Phys. Rev. Lett. 103, 096102 (2009).
     *
     *
     * If you are using vdW-DF2, please also cite:
     *
     *   K. Lee, E. D. Murray, L. Kong, B. I. Lundqvist, and
     *   D. C. Langreth, Phys. Rev. B 82, 081101(R) (2010).
     *
     *
     * If you are calculating the stress with vdW-DF, please also cite:
     *
     *   R. Sabatini, E. Kucukbenli, B. Kolb, T. Thonhauser, and
     *   S. de Gironcoli, J. Phys.: Condens. Matter 24, 424209 (2012).
     *

     Carrying out vdW-DF run using the following parameters:

     Nqs =      20    Nr_points =    1024   r_max =   100.000
     q_mesh =
               0.00001000     0.04494208     0.09755937     0.15916263
               0.23128650     0.31572767     0.41458969     0.53033537
               0.66584808     0.82450364     1.01025438     1.22772762
               1.48234092     1.78043706     2.12944203     2.53805004
               3.01644009     3.57652955     4.23227104     5.00000000

     Gradients computed in reciprocal space

[...]

     Starting wfc are  156 randomized atomic wfcs

     Self-consistent Calculation

[...]

     total energy              =   -3144.15601920 Ry
     Harris-Foulkes estimate   =   -3144.15601890 Ry
     estimated scf accuracy    <       0.00000100 Ry

     iteration # 21     ecut=    36.75 Ry     beta=0.10
     Davidson diagonalization with overlap
     ethr =  4.91E-10,  avg # of iterations =  2.0

[...]

     negative rho (up, down):  6.784E-01 0.000E+00

     Adding external electric field

     Computed dipole along edir(3) :
        Dipole                0.0159 Ry au,          0.0405 Debye
        Dipole field          0.0000 Ry au

        Potential amp.       -0.0043 Ry
        Total length         45.0021 bohr

     End of self-consistent calculation

[...]

          k = 0.0615 0.0000 0.0000 ( 15756 PWs)   bands (ev):

[...]

          k =-0.0923-0.1598 0.0000 ( 15792 PWs)   bands (ev):

  -124.1573-124.0571-124.0515 -78.3390 -78.3367 -78.3366 -78.2345 -78.2345
   -78.2335 -78.2296 -78.2296 -78.2252 -71.0983 -71.0720 -71.0446 -70.8245
   -70.7971 -70.7733 -70.7699 -70.7452 -70.7200 -41.3746 -41.2725 -41.1711
   -41.1705 -41.0688 -41.0628 -41.0524 -41.0118 -41.0045 -40.9683 -40.8457
   -40.8102 -40.7760 -40.7600 -40.7535 -40.7297 -40.7105 -40.6980 -40.6807
   -40.6541 -40.6492 -40.6229 -40.6080 -40.5875 -40.5726 -40.5458 -40.5050
    -5.3465  -5.2931  -5.2539  -5.2324  -5.2207  -5.1655  -5.1400  -5.0918
    -5.0745  -5.0527  -5.0310  -5.0243  -5.0059  -4.9932  -4.9524  -4.2129
    -3.9319  -3.1056  -2.9786  -2.6232  -2.5614  -2.4019  -1.8003  -1.7760
    -1.7353  -1.5688  -1.3804  -1.3699  -1.3488  -1.1758  -1.1295  -0.9787
    -0.7403  -0.6345  -0.4914  -0.2977  -0.1316  -0.0456   0.0238   0.0675
     0.0948   0.1806   0.3019   0.3840   0.4622   0.4937   0.6032   0.6056
     1.1108   1.2237   1.2863   1.3125   1.4151   1.5184   1.7153   1.7321
     1.8383   1.9182   1.9420   2.0344   2.3680   2.6718   3.0622   3.2758
     3.6282   3.6320   3.9670   4.7727   5.5229   5.7724   5.7852   6.2739
     6.7732   7.1859   7.6127   7.6485   8.2097   8.2459   8.5432   8.5504
     9.0944   9.5393   9.5460   9.5777

     the Fermi energy is     1.8277 ev

!    total energy              =   -3144.15601998 Ry
     Harris-Foulkes estimate   =   -3144.15601931 Ry
     estimated scf accuracy    <       0.00000020 Ry

     The total energy is the sum of the following terms:

     one-electron contribution =  -25636.11359160 Ry
     hartree contribution      =   12815.07938050 Ry
     xc contribution           =    -371.87193548 Ry
     ewald contribution        =   10048.84741272 Ry
     electric field correction =       0.00000076 Ry
     smearing contrib. (-TS)   =      -0.09728689 Ry

     convergence has been achieved in  21 iterations

 BEEF-vdW xc energy contributions
           1 :   -325.368765571115
           2 :    297.395821319481
           3 :   -249.485629541062
           4 :    194.233136218450
           5 :   -143.845818820279
           6 :    106.071991542037
           7 :   -82.5787183354432
           8 :    70.0494395859142
           9 :   -63.0029595700602
          10 :    56.7161028992228
          11 :   -48.9201920977393
          12 :    39.8330487642755
          13 :   -31.0183035894625
          14 :    24.0094096696724
          15 :   -19.4653784872254
          16 :    17.0866234241485
          17 :   -16.0335122064391
          18 :    15.4217714119438
          19 :   -14.6182091974624
          20 :    13.3095613684142
          21 :   -11.4658952462946
          22 :    9.30023564828781
          23 :   -7.22075766774879
          24 :    5.70627098649925
          25 :   -5.08674482511378
          26 :    5.32679061663561
          27 :   -5.97323165483090
          28 :    6.35429950041066
          29 :   -5.94845326129808
          30 :    4.70068860045262
          31 :   -30.6419985959078
          32 :   -22.5481682985735

     Forces acting on atoms (Ry/au):

     negative rho (up, down):  6.784E-01 0.000E+00
     atom    1 type  1   force =    -0.00000273   -0.01130142    0.01292869
     atom    2 type  1   force =    -0.00979470    0.00565253    0.01292628
     atom    3 type  1   force =     0.00978194    0.00564835    0.01292668
     atom    4 type  2   force =    -0.00000207    0.00001083   -0.01775323
     atom    5 type  1   force =     0.00000122    0.00980837   -0.00459952
     atom    6 type  1   force =     0.00849438   -0.00490348   -0.00459928
     atom    7 type  1   force =    -0.00850507   -0.00491121   -0.00460265
     atom    8 type  2   force =     0.00006395   -0.00000235   -0.00815112
     atom    9 type  1   force =    -0.00002264    0.00007203    0.00048864
     atom   10 type  1   force =     0.00005197   -0.00004490    0.00048217
     atom   11 type  1   force =    -0.00006795   -0.00002824    0.00049217
     atom   12 type  2   force =     0.00000171   -0.00000052   -0.00053883

     Total force =     0.040243     Total SCF correction =     0.002741

     entering subroutine stress ...

     negative rho (up, down):  6.784E-01 0.000E+00
          total   stress  (Ry/bohr**3)                   (kbar)     P=  -23.62
  -0.00022108   0.00000001  -0.00000001        -32.52      0.00     -0.00
   0.00000001  -0.00022107   0.00000001          0.00    -32.52      0.00
  -0.00000001   0.00000001  -0.00003946         -0.00      0.00     -5.81

 !ASE

     Writing output data file calc.save

     General routines

     Parallel routines

   This run was terminated on:   7: 9:26  29Dec2018

   JOB DONE.
Job  /afs/slac/g/suncat/bin/suncat-tsmpirun -x LD_LIBRARY_PATH -wdir /scratch/qe305332_weDAW pw.x -in pw.inp

TID   HOST_NAME   COMMAND_LINE            STATUS            TERMINATION_TIME
00000 suncat0066 pw.x -in pw.inp   Done                     12/29/2018 07:09:26
00001 suncat0066 pw.x -in pw.inp   Done                     12/29/2018 07:09:26
00002 suncat0066 pw.x -in pw.inp   Done                     12/29/2018 07:09:26
00003 suncat0066 pw.x -in pw.inp   Done                     12/29/2018 07:09:26
00004 suncat0066 pw.x -in pw.inp   Done                     12/29/2018 07:09:26
00005 suncat0066 pw.x -in pw.inp   Done                     12/29/2018 07:09:26
00006 suncat0066 pw.x -in pw.inp   Done                     12/29/2018 07:09:26
00007 suncat0066 pw.x -in pw.inp   Done                     12/29/2018 07:09:26
00008 suncat0061 pw.x -in pw.inp   Done                     12/29/2018 07:09:26
00009 suncat0061 pw.x -in pw.inp   Done                     12/29/2018 07:09:26
00010 suncat0061 pw.x -in pw.inp   Done                     12/29/2018 07:09:26
00011 suncat0061 pw.x -in pw.inp   Done                     12/29/2018 07:09:26
00012 suncat0061 pw.x -in pw.inp   Done                     12/29/2018 07:09:26
00013 suncat0061 pw.x -in pw.inp   Done                     12/29/2018 07:09:26
00014 suncat0061 pw.x -in pw.inp   Done                     12/29/2018 07:09:26
00015 suncat0061 pw.x -in pw.inp   Done                     12/29/2018 07:09:26
00016 suncat0052 pw.x -in pw.inp   Done                     12/29/2018 07:09:26
00017 suncat0052 pw.x -in pw.inp   Done                     12/29/2018 07:09:26
00018 suncat0052 pw.x -in pw.inp   Done                     12/29/2018 07:09:26
00019 suncat0052 pw.x -in pw.inp   Done                     12/29/2018 07:09:26
00020 suncat0052 pw.x -in pw.inp   Done                     12/29/2018 07:09:26
00021 suncat0052 pw.x -in pw.inp   Done                     12/29/2018 07:09:26
00022 suncat0052 pw.x -in pw.inp   Done                     12/29/2018 07:09:26
00023 suncat0052 pw.x -in pw.inp   Done                     12/29/2018 07:09:26
00024 suncat0043 pw.x -in pw.inp   Done                     12/29/2018 07:09:26
00025 suncat0043 pw.x -in pw.inp   Done                     12/29/2018 07:09:26
00026 suncat0043 pw.x -in pw.inp   Done                     12/29/2018 07:09:26
00027 suncat0043 pw.x -in pw.inp   Done                     12/29/2018 07:09:26
00028 suncat0043 pw.x -in pw.inp   Done                     12/29/2018 07:09:26
00029 suncat0043 pw.x -in pw.inp   Done                     12/29/2018 07:09:26
00030 suncat0043 pw.x -in pw.inp   Done                     12/29/2018 07:09:26
00031 suncat0043 pw.x -in pw.inp   Done                     12/29/2018 07:09:26
00032 suncat0024 pw.x -in pw.inp   Done                     12/29/2018 07:09:26
00033 suncat0024 pw.x -in pw.inp   Done                     12/29/2018 07:09:26
00034 suncat0024 pw.x -in pw.inp   Done                     12/29/2018 07:09:26
00035 suncat0024 pw.x -in pw.inp   Done                     12/29/2018 07:09:26
00036 suncat0024 pw.x -in pw.inp   Done                     12/29/2018 07:09:26
00037 suncat0024 pw.x -in pw.inp   Done                     12/29/2018 07:09:26
00038 suncat0024 pw.x -in pw.inp   Done                     12/29/2018 07:09:26
00039 suncat0024 pw.x -in pw.inp   Done                     12/29/2018 07:09:26
00040 suncat0023 pw.x -in pw.inp   Done                     12/29/2018 07:09:26
00041 suncat0023 pw.x -in pw.inp   Done                     12/29/2018 07:09:26
00042 suncat0023 pw.x -in pw.inp   Done                     12/29/2018 07:09:26
00043 suncat0023 pw.x -in pw.inp   Done                     12/29/2018 07:09:26
00044 suncat0023 pw.x -in pw.inp   Done                     12/29/2018 07:09:26
00045 suncat0023 pw.x -in pw.inp   Done                     12/29/2018 07:09:26
00046 suncat0023 pw.x -in pw.inp   Done                     12/29/2018 07:09:26
00047 suncat0023 pw.x -in pw.inp   Done                     12/29/2018 07:09:26
00048 suncat0190 pw.x -in pw.inp   Done                     12/29/2018 07:09:26
00049 suncat0190 pw.x -in pw.inp   Done                     12/29/2018 07:09:26
00050 suncat0190 pw.x -in pw.inp   Done                     12/29/2018 07:09:26
00051 suncat0190 pw.x -in pw.inp   Done                     12/29/2018 07:09:26
00052 suncat0190 pw.x -in pw.inp   Done                     12/29/2018 07:09:26
00053 suncat0190 pw.x -in pw.inp   Done                     12/29/2018 07:09:26
00054 suncat0190 pw.x -in pw.inp   Done                     12/29/2018 07:09:26
00055 suncat0190 pw.x -in pw.inp   Done                     12/29/2018 07:09:26
00056 suncat0009 pw.x -in pw.inp   Done                     12/29/2018 07:09:26
00057 suncat0009 pw.x -in pw.inp   Done                     12/29/2018 07:09:26
00058 suncat0009 pw.x -in pw.inp   Done                     12/29/2018 07:09:26
00059 suncat0009 pw.x -in pw.inp   Done                     12/29/2018 07:09:26
00060 suncat0009 pw.x -in pw.inp   Done                     12/29/2018 07:09:26
00061 suncat0009 pw.x -in pw.inp   Done                     12/29/2018 07:09:26
00062 suncat0009 pw.x -in pw.inp   Done                     12/29/2018 07:09:26
00063 suncat0009 pw.x -in pw.inp   Done                     12/29/2018 07:09:26