     Program PWSCF v.5.1rc2 (svn rev. 11289) starts on 25Dec2018 at 18: 0:23

     Current dimensions of program PWSCF are:
     Max number of different atomic species (ntypx) = 10
     Max number of k-points (npk) =  40000
     Max angular momentum in pseudopotentials (lmaxx) =  3
     Presently stress not available with electric field

     IMPORTANT: XC functional enforced from input :
     Exchange-correlation      = BEEF-VDW ( 1  4 27 13 2)
     Any further DFT definition will be discarded
     Please, verify this is what you really want

     Subspace diagonalization in iterative solution of the eigenvalue problem:
     a serial algorithm will be used

     bravais-lattice index     =            0
     lattice parameter (alat)  =       1.8897  a.u.
     unit-cell volume          =    3996.5541 (a.u.)^3
     number of atoms/cell      =           12
     number of atomic types    =            2
     number of electrons       =       219.00
     number of Kohn-Sham states=          139
     kinetic-energy cutoff     =      36.7493  Ry
     charge density cutoff     =     367.4932  Ry
     convergence threshold     =      1.0E-06
     mixing beta               =       0.1000
     number of iterations used =           10  plain     mixing
     Exchange-correlation      = BEEF-VDW ( 1  4 27 13 2)
     nstep                     =           50

     celldm(1)=   1.889726  celldm(2)=   0.000000  celldm(3)=   0.000000
     celldm(4)=   0.000000  celldm(5)=   0.000000  celldm(6)=   0.000000

     crystal axes: (cart. coord. in units of alat)
               a(1) = (   5.301740   0.000000   0.000000 )
               a(2) = (  -2.650870   4.591441   0.000000 )
               a(3) = (   0.000000   0.000000  24.328852 )

     reciprocal axes: (cart. coord. in units 2 pi/alat)
               b(1) = (  0.188617  0.108898  0.000000 )
               b(2) = (  0.000000  0.217797  0.000000 )
               b(3) = (  0.000000  0.000000  0.041103 )

     PseudoPot. # 1 for Cu read from file:
     /afs/slac.stanford.edu/u/if/mamunm/psp/gbrv1.5pbe/Cu.UPF
     MD5 check sum: 6e991ff952a84172a2a52a1c1e996048
     Pseudo is Ultrasoft + core correction, Zval = 19.0
     Generated by new atomic code, or converted to UPF format
     Using radial grid of  867 points,  6 beta functions with:
                l(1) =   0
                l(2) =   0
                l(3) =   1
                l(4) =   1
                l(5) =   2
                l(6) =   2
     Q(r) pseudized with  8 coefficients,  rinner =    1.150   1.150   1.150
                                                       1.150   1.150

     PseudoPot. # 2 for Pt read from file:
     /afs/slac.stanford.edu/u/if/mamunm/psp/gbrv1.5pbe/Pt.UPF
     MD5 check sum: f09d6de1a584b5a045c4fc126da2d0c4
     Pseudo is Ultrasoft + core correction, Zval = 16.0
     Generated by new atomic code, or converted to UPF format
     Using radial grid of  985 points,  6 beta functions with:
                l(1) =   0
                l(2) =   0
                l(3) =   1
                l(4) =   1
                l(5) =   2
                l(6) =   2
     Q(r) pseudized with  8 coefficients,  rinner =    1.300   1.300   1.300
                                                       1.300   1.300

     vdW kernel table read from file vdW_kernel_table
     MD5 check sum: 095c7af220d748ca6e76c0b4c6cfb241

     atomic species   valence    mass     pseudopotential
        Cu1           19.00    63.54600     Cu( 1.00)
        Pt1           16.00   195.08400     Pt( 1.00)

     No symmetry found

   Cartesian axes

     site n.     atom                  positions (alat units)
         1           Cu1 tau(   1) = (   0.0000000   0.0000000  10.0000000  )
         2           Cu1 tau(   2) = (  -1.3254350   2.2957207  10.0000000  )
         3           Cu1 tau(   3) = (   1.3254350   2.2957207  10.0000000  )
         4           Pt1 tau(   4) = (   2.6508699   0.0000000  10.0000000  )
         5           Cu1 tau(   5) = (   2.6508699   1.5304805  12.1644262  )
         6           Cu1 tau(   6) = (   1.3254350   3.8262012  12.1644262  )
         7           Cu1 tau(   7) = (  -1.3254350   3.8262012  12.1644262  )
         8           Pt1 tau(   8) = (   0.0000000   1.5304805  12.1644262  )
         9           Cu1 tau(   9) = (  -0.0000000   3.0609610  14.3288525  )
        10           Cu1 tau(  10) = (   1.3254350   0.7652402  14.3288525  )
        11           Cu1 tau(  11) = (   3.9763049   0.7652402  14.3288525  )
        12           Pt1 tau(  12) = (   2.6508699   3.0609610  14.3288525  )

     number of k points=    20  Fermi-Dirac smearing, width (Ry)=  0.0110
                       cart. coord. in units 2pi/alat
        k(    1) = (   0.0000000   0.0000000   0.0000000), wk =   0.0555556
        k(    2) = (   0.0000000   0.0362994   0.0000000), wk =   0.1111111
        k(    3) = (   0.0000000   0.0725988   0.0000000), wk =   0.1111111
        k(    4) = (   0.0000000  -0.1088983   0.0000000), wk =   0.0555556
        k(    5) = (   0.0314362   0.0181497   0.0000000), wk =   0.1111111
        k(    6) = (   0.0314362   0.0544491   0.0000000), wk =   0.1111111
        k(    7) = (   0.0314362   0.0907486   0.0000000), wk =   0.1111111
        k(    8) = (   0.0314362  -0.0907486   0.0000000), wk =   0.1111111
        k(    9) = (   0.0314362  -0.0544491   0.0000000), wk =   0.1111111
        k(   10) = (   0.0314362  -0.0181497   0.0000000), wk =   0.1111111
        k(   11) = (   0.0628724   0.0362994   0.0000000), wk =   0.1111111
        k(   12) = (   0.0628724   0.0725988   0.0000000), wk =   0.1111111
        k(   13) = (   0.0628724   0.1088983   0.0000000), wk =   0.1111111
        k(   14) = (   0.0628724  -0.0725988   0.0000000), wk =   0.1111111
        k(   15) = (   0.0628724  -0.0362994   0.0000000), wk =   0.1111111
        k(   16) = (   0.0628724   0.0000000   0.0000000), wk =   0.1111111
        k(   17) = (  -0.0943087  -0.0544491   0.0000000), wk =   0.0555556
        k(   18) = (  -0.0943087  -0.0181497   0.0000000), wk =   0.1111111
        k(   19) = (  -0.0943087   0.0181497   0.0000000), wk =   0.1111111
        k(   20) = (  -0.0943087  -0.1633474   0.0000000), wk =   0.0555556

     Largest allocated arrays     est. size (Mb)     dimensions
     Largest temporary arrays     est. size (Mb)     dimensions

     Initial potential from superposition of free atoms
     Check: negative starting charge=   -0.551725

     starting charge  208.49995, renormalised to  219.00000

     negative rho (up, down):  5.795E-01 0.000E+00

     *
     * You are using vdW-DF for exchange-correlation in this calculation.
     * Please cite the following three references that made this development
     * possible:
     *
     *   M. Dion, H. Rydberg, E. Schroder, D. C. Langreth, and
     *   B. I. Lundqvist, Phys. Rev. Lett. 92, 246401 (2004).
     *
     *   T. Thonhauser, V. R. Cooper, S. Li, A. Puzder, P. Hyldgaard, and
     *   D. C. Langreth, Phys. Rev. B 76, 125112 (2007).
     *
     *   G. Roman-Perez and J. M. Soler, Phys. Rev. Lett. 103, 096102 (2009).
     *
     *
     * If you are using vdW-DF2, please also cite:
     *
     *   K. Lee, E. D. Murray, L. Kong, B. I. Lundqvist, and
     *   D. C. Langreth, Phys. Rev. B 82, 081101(R) (2010).
     *
     *
     * If you are calculating the stress with vdW-DF, please also cite:
     *
     *   R. Sabatini, E. Kucukbenli, B. Kolb, T. Thonhauser, and
     *   S. de Gironcoli, J. Phys.: Condens. Matter 24, 424209 (2012).
     *

     Carrying out vdW-DF run using the following parameters:

     Nqs =      20    Nr_points =    1024   r_max =   100.000
     q_mesh =
               0.00001000     0.04494208     0.09755937     0.15916263
               0.23128650     0.31572767     0.41458969     0.53033537
               0.66584808     0.82450364     1.01025438     1.22772762
               1.48234092     1.78043706     2.12944203     2.53805004
               3.01644009     3.57652955     4.23227104     5.00000000

     Gradients computed in reciprocal space

     Adding external electric field

     Computed dipole along edir(3) :
        Dipole                0.0000 Ry au,          0.0000 Debye
        Dipole field          0.0000 Ry au

        Potential amp.       -0.0000 Ry
        Total length         44.8255 bohr

     Starting wfc are  153 randomized atomic wfcs

     Self-consistent Calculation

     iteration #  1     ecut=    36.75 Ry     beta=0.10
     Davidson diagonalization with overlap
     ethr =  1.00E-02,  avg # of iterations =  7.0

[...]

     total energy              =   -4278.64241882 Ry
     Harris-Foulkes estimate   =   -4289.50883698 Ry
     estimated scf accuracy    <      62.85225332 Ry

[...]

     End of self-consistent calculation

          k = 0.0000 0.0000 0.0000 ( 15137 PWs)   bands (ev):

  -111.5365-111.5325-111.5325-111.4107-111.4102-111.4067-111.4067-111.4062
  -111.4062 -68.9709 -68.9537 -68.9537 -68.9409 -68.9409 -68.9346 -68.9227
   -68.9037 -68.9037 -68.8651 -68.8643 -68.8503 -68.8503 -68.8489 -68.8489
   -68.8272 -68.8266 -68.8173 -68.8173 -68.8167 -68.8167 -68.7574 -68.7558
   -68.7529 -68.7529 -68.7519 -68.7519 -51.6640 -51.6299 -51.6299 -51.4308
   -51.4308 -51.4305 -51.4305 -51.2953 -51.2947  -7.4614  -5.6511  -4.5267
    -4.2295  -4.2295  -4.1000  -4.1000  -3.6117  -3.5977  -3.5977  -3.4395
    -3.4395  -3.4095  -3.2402  -2.9766  -2.6912  -2.6912  -2.3204  -2.1948
    -2.1948  -2.0914  -2.0196  -2.0110  -1.9048  -1.9048  -1.8012  -1.8012
    -1.7500  -1.7500  -1.7233  -1.7083  -1.7083  -1.5497  -1.5190  -1.5190
    -1.1914  -1.1209  -1.1209  -1.1153  -1.1153  -1.0701  -1.0701  -0.9369
    -0.8106  -0.7621  -0.7621  -0.6857  -0.5977  -0.5808  -0.5515  -0.5515
    -0.4593  -0.3408  -0.3408  -0.1596  -0.1596  -0.0465  -0.0465  -0.0012
    -0.0012   0.0890   0.2584   0.2584   1.0205   1.3408   1.5321   1.5321
     2.5974   2.7326   2.7326   2.9280   2.9356   2.9356   4.7894   5.1569
     5.2603   5.5247   6.1404   6.1404   6.2843   6.4515   6.5801   6.5801
     7.0829   7.1791   7.5388   7.5388   8.7150   9.0066   9.9330  10.0438
    10.0722  10.0722  10.7191

[...]

          k =-0.0943-0.0544 0.0000 ( 15066 PWs)   bands (ev):

[...]

     the Fermi energy is     0.6321 ev

!    total energy              =   -4281.55398302 Ry
     Harris-Foulkes estimate   =   -4281.55397205 Ry
     estimated scf accuracy    <       0.00000084 Ry

     The total energy is the sum of the following terms:

     one-electron contribution =  -32064.71278492 Ry
     hartree contribution      =   16054.46939926 Ry
     xc contribution           =    -536.09647521 Ry
     ewald contribution        =   12264.81074132 Ry
     electric field correction =       0.00000011 Ry
     smearing contrib. (-TS)   =      -0.02486358 Ry

     convergence has been achieved in  18 iterations

 BEEF-vdW xc energy contributions
           1 :   -475.977313229038
           2 :    435.326925856840
           3 :   -365.383588712752
           4 :    283.758282197644
           5 :   -207.146647572129
           6 :    145.707408719541
           7 :   -101.367654255376
           8 :    70.0978082062094
[...]
                l(1) =   0
                l(2) =   0
                l(3) =   1
                l(4) =   1
                l(5) =   2
                l(6) =   2
     Q(r) pseudized with  8 coefficients,  rinner =    1.150   1.150   1.150
                                                       1.150   1.150

     PseudoPot. # 2 for Pt read from file:
     /afs/slac.stanford.edu/u/if/mamunm/psp/gbrv1.5pbe/Pt.UPF
     MD5 check sum: f09d6de1a584b5a045c4fc126da2d0c4
     Pseudo is Ultrasoft + core correction, Zval = 16.0
     Generated by new atomic code, or converted to UPF format
     Using radial grid of  985 points,  6 beta functions with:
                l(1) =   0
                l(2) =   0
                l(3) =   1
                l(4) =   1
                l(5) =   2
                l(6) =   2
     Q(r) pseudized with  8 coefficients,  rinner =    1.300   1.300   1.300
                                                       1.300   1.300

     vdW kernel table read from file vdW_kernel_table
     MD5 check sum: 095c7af220d748ca6e76c0b4c6cfb241

     atomic species   valence    mass     pseudopotential
        Cu1           19.00    63.54600     Cu( 1.00)
        Pt1           16.00   195.08400     Pt( 1.00)

     No symmetry found

   Cartesian axes

     site n.     atom                  positions (alat units)
         1           Cu1 tau(   1) = (   0.0000000   0.0000000  10.0000000  )
         2           Cu1 tau(   2) = (  -1.3254350   2.2957207  10.0000000  )
         3           Cu1 tau(   3) = (   1.3254350   2.2957207  10.0000000  )
         4           Pt1 tau(   4) = (   2.6508699   0.0000000  10.0000000  )
         5           Cu1 tau(   5) = (   2.6508699   1.5304805  12.1644262  )
         6           Cu1 tau(   6) = (   1.3254350   3.8262012  12.1644262  )
         7           Cu1 tau(   7) = (  -1.3254350   3.8262012  12.1644262  )
         8           Pt1 tau(   8) = (   0.0000000   1.5304805  12.1644262  )
         9           Cu1 tau(   9) = (  -0.0000022   3.0819963  14.3311248  )
        10           Cu1 tau(  10) = (   1.3436587   0.7547155  14.3311079  )
        11           Cu1 tau(  11) = (   3.9580921   0.7547259  14.3310965  )
        12           Pt1 tau(  12) = (   2.6508678   3.0609641  14.2919823  )

     number of k points=    20  Fermi-Dirac smearing, width (Ry)=  0.0110
                       cart. coord. in units 2pi/alat
        k(    1) = (   0.0000000   0.0000000   0.0000000), wk =   0.0555556
        k(    2) = (   0.0000000   0.0362994   0.0000000), wk =   0.1111111
        k(    3) = (   0.0000000   0.0725988   0.0000000), wk =   0.1111111
        k(    4) = (   0.0000000  -0.1088983   0.0000000), wk =   0.0555556
        k(    5) = (   0.0314362   0.0181497   0.0000000), wk =   0.1111111
        k(    6) = (   0.0314362   0.0544491   0.0000000), wk =   0.1111111
        k(    7) = (   0.0314362   0.0907486   0.0000000), wk =   0.1111111
        k(    8) = (   0.0314362  -0.0907486   0.0000000), wk =   0.1111111
        k(    9) = (   0.0314362  -0.0544491   0.0000000), wk =   0.1111111
        k(   10) = (   0.0314362  -0.0181497   0.0000000), wk =   0.1111111
        k(   11) = (   0.0628724   0.0362994   0.0000000), wk =   0.1111111
        k(   12) = (   0.0628724   0.0725988   0.0000000), wk =   0.1111111
        k(   13) = (   0.0628724   0.1088983   0.0000000), wk =   0.1111111
        k(   14) = (   0.0628724  -0.0725988   0.0000000), wk =   0.1111111
        k(   15) = (   0.0628724  -0.0362994   0.0000000), wk =   0.1111111
        k(   16) = (   0.0628724   0.0000000   0.0000000), wk =   0.1111111
        k(   17) = (  -0.0943087  -0.0544491   0.0000000), wk =   0.0555556
        k(   18) = (  -0.0943087  -0.0181497   0.0000000), wk =   0.1111111
        k(   19) = (  -0.0943087   0.0181497   0.0000000), wk =   0.1111111
        k(   20) = (  -0.0943087  -0.1633474   0.0000000), wk =   0.0555556

     Largest allocated arrays     est. size (Mb)     dimensions
     Largest temporary arrays     est. size (Mb)     dimensions

     Initial potential from superposition of free atoms
     Check: negative starting charge=   -0.552719

     starting charge  208.49995, renormalised to  219.00000

[...]

     *
     * You are using vdW-DF for exchange-correlation in this calculation.
     * Please cite the following three references that made this development
     * possible:
     *
     *   M. Dion, H. Rydberg, E. Schroder, D. C. Langreth, and
     *   B. I. Lundqvist, Phys. Rev. Lett. 92, 246401 (2004).
     *
     *   T. Thonhauser, V. R. Cooper, S. Li, A. Puzder, P. Hyldgaard, and
     *   D. C. Langreth, Phys. Rev. B 76, 125112 (2007).
     *
     *   G. Roman-Perez and J. M. Soler, Phys. Rev. Lett. 103, 096102 (2009).
     *
     *
     * If you are using vdW-DF2, please also cite:
     *
     *   K. Lee, E. D. Murray, L. Kong, B. I. Lundqvist, and
     *   D. C. Langreth, Phys. Rev. B 82, 081101(R) (2010).
     *
     *
     * If you are calculating the stress with vdW-DF, please also cite:
     *
     *   R. Sabatini, E. Kucukbenli, B. Kolb, T. Thonhauser, and
     *   S. de Gironcoli, J. Phys.: Condens. Matter 24, 424209 (2012).
     *

     Carrying out vdW-DF run using the following parameters:

     Nqs =      20    Nr_points =    1024   r_max =   100.000
     q_mesh =
               0.00001000     0.04494208     0.09755937     0.15916263
               0.23128650     0.31572767     0.41458969     0.53033537
               0.66584808     0.82450364     1.01025438     1.22772762
               1.48234092     1.78043706     2.12944203     2.53805004
               3.01644009     3.57652955     4.23227104     5.00000000

     Gradients computed in reciprocal space

[...]

     Starting wfc are  153 randomized atomic wfcs

     Self-consistent Calculation

[...]

     total energy              =   -4281.55474498 Ry
     Harris-Foulkes estimate   =   -4281.55474126 Ry
     estimated scf accuracy    <       0.00000188 Ry

     iteration # 17     ecut=    36.75 Ry     beta=0.10
     Davidson diagonalization with overlap
     ethr =  8.60E-10,  avg # of iterations =  2.0

[...]

     negative rho (up, down):  5.298E-01 0.000E+00

     Adding external electric field

     Computed dipole along edir(3) :
        Dipole                0.0014 Ry au,          0.0036 Debye
        Dipole field          0.0000 Ry au

        Potential amp.       -0.0004 Ry
        Total length         44.8255 bohr

     End of self-consistent calculation

[...]

          k = 0.0629 0.0000 0.0000 ( 15043 PWs)   bands (ev):

[...]

          k =-0.0943-0.1633 0.0000 ( 15066 PWs)   bands (ev):

  -111.5352-111.5338-111.5325-111.4023-111.4010-111.4008-111.3997-111.3993
  -111.3980 -68.9615 -68.9545 -68.9505 -68.9408 -68.9336 -68.9294 -68.9272
   -68.9200 -68.9062 -68.8488 -68.8477 -68.8336 -68.8328 -68.8322 -68.8314
   -68.8301 -68.8298 -68.8275 -68.8267 -68.8124 -68.8108 -68.7479 -68.7466
   -68.7455 -68.7450 -68.7440 -68.7427 -51.6430 -51.6146 -51.6141 -51.4567
   -51.4563 -51.4270 -51.4265 -51.3282 -51.2907  -5.7947  -5.5630  -4.4334
    -3.9622  -3.8946  -3.6563  -3.5138  -3.3343  -3.2720  -3.2183  -2.9815
    -2.9222  -2.8698  -2.8434  -2.6990  -2.6077  -2.5414  -2.4763  -2.4694
    -2.3315  -2.2841  -2.2171  -2.1096  -2.0128  -1.9679  -1.9128  -1.8899
    -1.8347  -1.8267  -1.7965  -1.7837  -1.7233  -1.6924  -1.6825  -1.6633
    -1.6473  -1.6171  -1.6079  -1.6004  -1.5652  -1.3741  -1.3120  -1.3002
    -1.1997  -1.1914  -1.1675  -1.1607  -1.0663  -1.0041  -0.9629  -0.9541
    -0.8441  -0.8129  -0.7580  -0.7367  -0.6672  -0.6580  -0.6430  -0.4819
    -0.2822  -0.2742  -0.2643  -0.2015   0.2136   0.9675   1.4205   1.5579
     2.2942   2.3973   2.8473   4.1633   4.2301   4.8780   4.9102   6.4094
     6.4287   6.9898   7.0163   7.1771   7.1889   7.5510   8.0268   8.0413
     8.0966   8.1831   8.2454   8.2981   8.6103   8.6738   8.7013   9.5342
     9.6136   9.6411   9.9522

     the Fermi energy is     0.6372 ev

!    total energy              =   -4281.55475803 Ry
     Harris-Foulkes estimate   =   -4281.55474523 Ry
     estimated scf accuracy    <       0.00000097 Ry

     The total energy is the sum of the following terms:

     one-electron contribution =  -32092.21377334 Ry
     hartree contribution      =   16068.25201914 Ry
     xc contribution           =    -536.10515839 Ry
     ewald contribution        =   12278.53699665 Ry
     electric field correction =       0.00000001 Ry
     smearing contrib. (-TS)   =      -0.02484210 Ry

     convergence has been achieved in  17 iterations

 BEEF-vdW xc energy contributions
           1 :   -475.987253225609
           2 :    435.344246654060
           3 :   -365.409120909859
           4 :    283.784961743347
           5 :   -207.164346479308
           6 :    145.710132643198
           7 :   -101.357931203681
           8 :    70.0850433718483
           9 :   -46.1945188296396
          10 :    25.9480870062154
          11 :   -8.78251207148003
          12 :   -3.91639098894689
          13 :    11.0366606588439
          14 :   -13.2219536983787
          15 :    12.7194069701933
          16 :   -11.9905588696199
          17 :    12.2707359857320
          18 :   -13.1326806473268
          19 :    13.2574201602941
          20 :   -11.7367376426970
          21 :    8.91307824142768
          22 :   -6.18450799301877
          23 :    4.98663501518138
          24 :   -5.74560733067415
          25 :    7.56728604388786
          26 :   -8.86833528130194
          27 :    8.47536929899150
          28 :   -6.41279174401939
          29 :    3.84310575261895
          30 :   -2.23141687100531
          31 :   -38.1756272874261
          32 :   -26.7784019724643

     Forces acting on atoms (Ry/au):

     negative rho (up, down):  5.298E-01 0.000E+00
     atom    1 type  1   force =     0.00000092   -0.00437695   -0.00121736
     atom    2 type  1   force =    -0.00379064    0.00218888   -0.00121344
     atom    3 type  1   force =     0.00378911    0.00218697   -0.00121172
     atom    4 type  2   force =     0.00000073    0.00000094    0.00969712
     atom    5 type  1   force =    -0.00000175   -0.00210696   -0.00333298
     atom    6 type  1   force =    -0.00182539    0.00105293   -0.00333194
     atom    7 type  1   force =     0.00182722    0.00105488   -0.00333080
     atom    8 type  2   force =     0.00000123    0.00000186    0.00361682
     atom    9 type  1   force =     0.00000047   -0.00076105    0.00015576
     atom   10 type  1   force =    -0.00065806    0.00038012    0.00015704
     atom   11 type  1   force =     0.00065458    0.00037902    0.00015895
     atom   12 type  2   force =     0.00000158   -0.00000063   -0.00014745

     Total force =     0.014746     Total SCF correction =     0.007987
     SCF correction compared to forces is large: reduce conv_thr to get better values

     entering subroutine stress ...

     negative rho (up, down):  5.298E-01 0.000E+00
          total   stress  (Ry/bohr**3)                   (kbar)     P=  -18.68
  -0.00015515   0.00000000  -0.00000000        -22.82      0.00     -0.00
   0.00000000  -0.00015515  -0.00000000          0.00    -22.82     -0.00
  -0.00000000  -0.00000000  -0.00007064         -0.00     -0.00    -10.39

 !ASE

     Writing output data file calc.save

     General routines

     Parallel routines

   This run was terminated on:  18:45:30  25Dec2018

   JOB DONE.
Job  /afs/slac/g/suncat/bin/suncat-tsmpirun -x LD_LIBRARY_PATH -wdir /scratch/qe109586_hlfgT pw.x -in pw.inp

TID   HOST_NAME   COMMAND_LINE            STATUS            TERMINATION_TIME
00000 suncat0190 pw.x -in pw.inp   Done                     12/25/2018 18:45:30
00001 suncat0190 pw.x -in pw.inp   Done                     12/25/2018 18:45:30
00002 suncat0190 pw.x -in pw.inp   Done                     12/25/2018 18:45:30
00003 suncat0190 pw.x -in pw.inp   Done                     12/25/2018 18:45:30
00004 suncat0190 pw.x -in pw.inp   Done                     12/25/2018 18:45:30
00005 suncat0190 pw.x -in pw.inp   Done                     12/25/2018 18:45:30
00006 suncat0190 pw.x -in pw.inp   Done                     12/25/2018 18:45:30
00007 suncat0190 pw.x -in pw.inp   Done                     12/25/2018 18:45:30
00008 suncat0009 pw.x -in pw.inp   Done                     12/25/2018 18:45:30
00009 suncat0009 pw.x -in pw.inp   Done                     12/25/2018 18:45:30
00010 suncat0009 pw.x -in pw.inp   Done                     12/25/2018 18:45:30
00011 suncat0009 pw.x -in pw.inp   Done                     12/25/2018 18:45:30
00012 suncat0009 pw.x -in pw.inp   Done                     12/25/2018 18:45:30
00013 suncat0009 pw.x -in pw.inp   Done                     12/25/2018 18:45:30
00014 suncat0009 pw.x -in pw.inp   Done                     12/25/2018 18:45:30
00015 suncat0009 pw.x -in pw.inp   Done                     12/25/2018 18:45:30
00016 suncat0169 pw.x -in pw.inp   Done                     12/25/2018 18:45:30
00017 suncat0169 pw.x -in pw.inp   Done                     12/25/2018 18:45:30
00018 suncat0169 pw.x -in pw.inp   Done                     12/25/2018 18:45:30
00019 suncat0169 pw.x -in pw.inp   Done                     12/25/2018 18:45:30
00020 suncat0169 pw.x -in pw.inp   Done                     12/25/2018 18:45:30
00021 suncat0169 pw.x -in pw.inp   Done                     12/25/2018 18:45:30
00022 suncat0169 pw.x -in pw.inp   Done                     12/25/2018 18:45:30
00023 suncat0169 pw.x -in pw.inp   Done                     12/25/2018 18:45:30
00024 suncat0168 pw.x -in pw.inp   Done                     12/25/2018 18:45:30
00025 suncat0168 pw.x -in pw.inp   Done                     12/25/2018 18:45:30
00026 suncat0168 pw.x -in pw.inp   Done                     12/25/2018 18:45:30
00027 suncat0168 pw.x -in pw.inp   Done                     12/25/2018 18:45:30
00028 suncat0168 pw.x -in pw.inp   Done                     12/25/2018 18:45:30
00029 suncat0168 pw.x -in pw.inp   Done                     12/25/2018 18:45:30
00030 suncat0168 pw.x -in pw.inp   Done                     12/25/2018 18:45:30
00031 suncat0168 pw.x -in pw.inp   Done                     12/25/2018 18:45:30
00032 suncat0114 pw.x -in pw.inp   Done                     12/25/2018 18:45:30
00033 suncat0114 pw.x -in pw.inp   Done                     12/25/2018 18:45:30
00034 suncat0114 pw.x -in pw.inp   Done                     12/25/2018 18:45:30
00035 suncat0114 pw.x -in pw.inp   Done                     12/25/2018 18:45:30
00036 suncat0114 pw.x -in pw.inp   Done                     12/25/2018 18:45:30
00037 suncat0114 pw.x -in pw.inp   Done                     12/25/2018 18:45:30
00038 suncat0114 pw.x -in pw.inp   Done                     12/25/2018 18:45:30
00039 suncat0114 pw.x -in pw.inp   Done                     12/25/2018 18:45:30
00040 suncat0113 pw.x -in pw.inp   Done                     12/25/2018 18:45:30
00041 suncat0113 pw.x -in pw.inp   Done                     12/25/2018 18:45:30
00042 suncat0113 pw.x -in pw.inp   Done                     12/25/2018 18:45:30
00043 suncat0113 pw.x -in pw.inp   Done                     12/25/2018 18:45:30
00044 suncat0113 pw.x -in pw.inp   Done                     12/25/2018 18:45:30
00045 suncat0113 pw.x -in pw.inp   Done                     12/25/2018 18:45:30
00046 suncat0113 pw.x -in pw.inp   Done                     12/25/2018 18:45:30
00047 suncat0113 pw.x -in pw.inp   Done                     12/25/2018 18:45:30
00048 suncat0110 pw.x -in pw.inp   Done                     12/25/2018 18:45:30
00049 suncat0110 pw.x -in pw.inp   Done                     12/25/2018 18:45:30
00050 suncat0110 pw.x -in pw.inp   Done                     12/25/2018 18:45:30
00051 suncat0110 pw.x -in pw.inp   Done                     12/25/2018 18:45:30
00052 suncat0110 pw.x -in pw.inp   Done                     12/25/2018 18:45:30
00053 suncat0110 pw.x -in pw.inp   Done                     12/25/2018 18:45:30
00054 suncat0110 pw.x -in pw.inp   Done                     12/25/2018 18:45:30
00055 suncat0110 pw.x -in pw.inp   Done                     12/25/2018 18:45:30
00056 suncat0109 pw.x -in pw.inp   Done                     12/25/2018 18:45:30
00057 suncat0109 pw.x -in pw.inp   Done                     12/25/2018 18:45:30
00058 suncat0109 pw.x -in pw.inp   Done                     12/25/2018 18:45:30
00059 suncat0109 pw.x -in pw.inp   Done                     12/25/2018 18:45:30
00060 suncat0109 pw.x -in pw.inp   Done                     12/25/2018 18:45:30
00061 suncat0109 pw.x -in pw.inp   Done                     12/25/2018 18:45:30
00062 suncat0109 pw.x -in pw.inp   Done                     12/25/2018 18:45:30
00063 suncat0109 pw.x -in pw.inp   Done                     12/25/2018 18:45:30