     Program PWSCF v.5.1rc2 (svn rev. 11289) starts on 28Dec2018 at  2:19:13

     Current dimensions of program PWSCF are:
     Max number of different atomic species (ntypx) = 10
     Max number of k-points (npk) =  40000
     Max angular momentum in pseudopotentials (lmaxx) =  3
     Presently stress not available with electric field

     IMPORTANT: XC functional enforced from input :
     Exchange-correlation      = BEEF-VDW ( 1  4 27 13 2)
     Any further DFT definition will be discarded
     Please, verify this is what you really want

     Subspace diagonalization in iterative solution of the eigenvalue problem:
     a serial algorithm will be used

     bravais-lattice index     =            0
     lattice parameter (alat)  =       1.8897  a.u.
     unit-cell volume          =    4668.3483 (a.u.)^3
     number of atoms/cell      =           12
     number of atomic types    =            2
     number of electrons       =       168.00
     number of Kohn-Sham states=          114
     kinetic-energy cutoff     =      36.7493  Ry
     charge density cutoff     =     367.4932  Ry
     convergence threshold     =      1.0E-06
     mixing beta               =       0.1000
     number of iterations used =           10  plain     mixing
     Exchange-correlation      = BEEF-VDW ( 1  4 27 13 2)
     nstep                     =           50

     celldm(1)=   1.889726  celldm(2)=   0.000000  celldm(3)=   0.000000
     celldm(4)=   0.000000  celldm(5)=   0.000000  celldm(6)=   0.000000

     crystal axes: (cart. coord. in units of alat)
               a(1) = (   5.692799   0.000000   0.000000 )
               a(2) = (  -2.846399   4.930108   0.000000 )
               a(3) = (   0.000000   0.000000  24.648151 )

     reciprocal axes: (cart. coord. in units 2 pi/alat)
               b(1) = (  0.175661  0.101418  0.000000 )
               b(2) = (  0.000000  0.202835  0.000000 )
               b(3) = (  0.000000  0.000000  0.040571 )

     PseudoPot. # 1 for Ti read from file:
     /afs/slac.stanford.edu/u/if/mamunm/psp/gbrv1.5pbe/Ti.UPF
     MD5 check sum: 88a00a6731bd790ddea75d31a80cb452
     Pseudo is Ultrasoft + core correction, Zval = 12.0
     Generated by new atomic code, or converted to UPF format
     Using radial grid of  851 points,  6 beta functions with:
                l(1) =   0
                l(2) =   0
                l(3) =   1
                l(4) =   1
                l(5) =   2
                l(6) =   2
     Q(r) pseudized with  6 coefficients,  rinner =    1.000   1.000   1.000
                                                       1.000   1.000

     PseudoPot. # 2 for Zn read from file:
     /afs/slac.stanford.edu/u/if/mamunm/psp/gbrv1.5pbe/Zn.UPF
     MD5 check sum: df62231357ef9e81f77b2b3087fa5675
     Pseudo is Ultrasoft, Zval = 20.0
     Generated by new atomic code, or converted to UPF format
     Using radial grid of  943 points,  6 beta functions with:
                l(1) =   0
                l(2) =   0
                l(3) =   1
                l(4) =   1
                l(5) =   2
                l(6) =   2
     Q(r) pseudized with  8 coefficients,  rinner =    1.100   1.100   1.100
                                                       1.100   1.100

     vdW kernel table read from file vdW_kernel_table
     MD5 check sum: 095c7af220d748ca6e76c0b4c6cfb241

     atomic species   valence    mass     pseudopotential
        Ti1           12.00    47.86700     Ti( 1.00)
        Zn1           20.00    65.38000     Zn( 1.00)

     No symmetry found

   Cartesian axes

     site n.     atom                  positions (alat units)
         1           Ti1 tau(   1) = (   0.0000000   0.0000000  10.0000000  )
         2           Ti1 tau(   2) = (  -1.4231997   2.4650542  10.0000000  )
         3           Ti1 tau(   3) = (   1.4231997   2.4650542  10.0000000  )
         4           Zn1 tau(   4) = (   2.8463994   0.0000000  10.0000000  )
         5           Ti1 tau(   5) = (   2.8463994   1.6433695  12.3240754  )
         6           Ti1 tau(   6) = (   1.4231997   4.1084237  12.3240754  )
         7           Ti1 tau(   7) = (  -1.4231997   4.1084237  12.3240754  )
         8           Zn1 tau(   8) = (   0.0000000   1.6433695  12.3240754  )
         9           Ti1 tau(   9) = (  -0.0000000   3.2867389  14.6481508  )
        10           Ti1 tau(  10) = (   1.4231997   0.8216847  14.6481508  )
        11           Ti1 tau(  11) = (   4.2695991   0.8216847  14.6481508  )
        12           Zn1 tau(  12) = (   2.8463994   3.2867389  14.6481508  )

     number of k points=    20  Fermi-Dirac smearing, width (Ry)=  0.0110
                       cart. coord. in units 2pi/alat
        k(    1) = (   0.0000000   0.0000000   0.0000000), wk =   0.0555556
        k(    2) = (   0.0000000   0.0338059   0.0000000), wk =   0.1111111
        k(    3) = (   0.0000000   0.0676118   0.0000000), wk =   0.1111111
        k(    4) = (   0.0000000  -0.1014176   0.0000000), wk =   0.0555556
        k(    5) = (   0.0292768   0.0169029   0.0000000), wk =   0.1111111
        k(    6) = (   0.0292768   0.0507088   0.0000000), wk =   0.1111111
        k(    7) = (   0.0292768   0.0845147   0.0000000), wk =   0.1111111
        k(    8) = (   0.0292768  -0.0845147   0.0000000), wk =   0.1111111
        k(    9) = (   0.0292768  -0.0507088   0.0000000), wk =   0.1111111
        k(   10) = (   0.0292768  -0.0169029   0.0000000), wk =   0.1111111
        k(   11) = (   0.0585535   0.0338059   0.0000000), wk =   0.1111111
        k(   12) = (   0.0585535   0.0676118   0.0000000), wk =   0.1111111
        k(   13) = (   0.0585535   0.1014176   0.0000000), wk =   0.1111111
        k(   14) = (   0.0585535  -0.0676118   0.0000000), wk =   0.1111111
        k(   15) = (   0.0585535  -0.0338059   0.0000000), wk =   0.1111111
        k(   16) = (   0.0585535   0.0000000   0.0000000), wk =   0.1111111
        k(   17) = (  -0.0878303  -0.0507088   0.0000000), wk =   0.0555556
        k(   18) = (  -0.0878303  -0.0169029   0.0000000), wk =   0.1111111
        k(   19) = (  -0.0878303   0.0169029   0.0000000), wk =   0.1111111
        k(   20) = (  -0.0878303  -0.1521265   0.0000000), wk =   0.0555556

     Largest allocated arrays     est. size (Mb)     dimensions
     Largest temporary arrays     est. size (Mb)     dimensions

     Check: negative/imaginary core charge=   -0.000006    0.000000

     Initial potential from superposition of free atoms
     Check: negative starting charge=   -0.010112

     starting charge  158.99918, renormalised to  168.00000

     negative rho (up, down):  1.068E-02 0.000E+00

     *
     * You are using vdW-DF for exchange-correlation in this calculation.
     * Please cite the following three references that made this development
     * possible:
     *
     *   M. Dion, H. Rydberg, E. Schroder, D. C. Langreth, and
     *   B. I. Lundqvist, Phys. Rev. Lett. 92, 246401 (2004).
     *
     *   T. Thonhauser, V. R. Cooper, S. Li, A. Puzder, P. Hyldgaard, and
     *   D. C. Langreth, Phys. Rev. B 76, 125112 (2007).
     *
     *   G. Roman-Perez and J. M. Soler, Phys. Rev. Lett. 103, 096102 (2009).
     *
     *
     * If you are using vdW-DF2, please also cite:
     *
     *   K. Lee, E. D. Murray, L. Kong, B. I. Lundqvist, and
     *   D. C. Langreth, Phys. Rev. B 82, 081101(R) (2010).
     *
     *
     * If you are calculating the stress with vdW-DF, please also cite:
     *
     *   R. Sabatini, E. Kucukbenli, B. Kolb, T. Thonhauser, and
     *   S. de Gironcoli, J. Phys.: Condens. Matter 24, 424209 (2012).
     *

     Carrying out vdW-DF run using the following parameters:

     Nqs =      20    Nr_points =    1024   r_max =   100.000
     q_mesh =
               0.00001000     0.04494208     0.09755937     0.15916263
               0.23128650     0.31572767     0.41458969     0.53033537
               0.66584808     0.82450364     1.01025438     1.22772762
               1.48234092     1.78043706     2.12944203     2.53805004
               3.01644009     3.57652955     4.23227104     5.00000000

     Gradients computed in reciprocal space

     Adding external electric field

     Computed dipole along edir(3) :
        Dipole                0.0000 Ry au,          0.0000 Debye
        Dipole field          0.0000 Ry au

        Potential amp.       -0.0000 Ry
        Total length         45.4138 bohr

     Starting wfc are  129 randomized atomic wfcs

     Self-consistent Calculation

     iteration #  1     ecut=    36.75 Ry     beta=0.10
     Davidson diagonalization with overlap
     ethr =  1.00E-02,  avg # of iterations =  8.4

[...]

     total energy              =   -2443.14650195 Ry
     Harris-Foulkes estimate   =   -2505.47313503 Ry
     estimated scf accuracy    <     338.91194396 Ry

[...]

     End of self-consistent calculation

          k = 0.0000 0.0000 0.0000 ( 17615 PWs)   bands (ev):

  -125.2546-125.2545-125.1082 -79.4221 -79.4221 -79.4221 -79.4221 -79.4122
   -79.4121 -79.2703 -79.2703 -79.2680 -56.2584 -56.2538 -56.1794 -56.1794
   -56.1784 -56.1783 -55.9761 -55.9033 -55.9032 -32.6926 -32.6693 -32.6523
   -32.5907 -32.5907 -32.5736 -32.5724 -32.5724 -32.5542 -32.5542 -32.5081
   -32.5081 -32.4874 -32.3087 -32.2952 -32.2772 -32.2772 -32.1314 -32.1314
   -32.1292 -32.1292 -32.1042 -32.1042 -32.1038 -32.0229 -31.9014 -31.9014
    -6.2277  -6.2277  -6.2081  -6.2081  -6.1984  -6.1786  -6.1786  -6.1731
    -6.1149  -6.1149  -6.0727  -6.0594  -6.0594  -5.9808  -5.9808  -5.8640
    -4.4994  -3.6531  -1.9318  -1.6306  -1.4756  -0.5899  -0.5899  -0.3626
    -0.2988  -0.2768  -0.2768  -0.2076  -0.2076   0.0484   0.0484   0.3845
     0.3845   0.6145   0.6868   0.8317   1.1671   1.1671   1.2755   1.2755
     1.3205   1.5439   1.5439   1.7746   1.7746   1.7779   1.8155   2.2846
     2.6854   2.7156   2.7156   2.8394   2.8394   2.8951   2.8952   3.0419
     3.0419   3.2483   3.2484   3.3535   3.5556   3.5556   3.7075   3.7075
     3.8119   3.8980

[...]

          k =-0.0878-0.0507 0.0000 ( 17540 PWs)   bands (ev):

[...]

     the Fermi energy is     0.8050 ev

!    total energy              =   -2467.24937373 Ry
     Harris-Foulkes estimate   =   -2467.24937090 Ry
     estimated scf accuracy    <       0.00000096 Ry

     The total energy is the sum of the following terms:

     one-electron contribution =  -16142.60714711 Ry
     hartree contribution      =    8057.02356728 Ry
     xc contribution           =    -298.87794617 Ry
     ewald contribution        =    5917.32221138 Ry
     electric field correction =       0.00000002 Ry
     smearing contrib. (-TS)   =      -0.11005913 Ry

     convergence has been achieved in  21 iterations

 BEEF-vdW xc energy contributions
           1 :   -260.539433785913
           2 :    234.395454376161
           3 :   -191.045107608091
           4 :    143.700879761727
           5 :   -103.602681294427
           6 :    75.7206703760891
           7 :   -58.4203755438065
           8 :    46.4613722960305
           9 :   -34.9926110305027
          10 :    22.1311140696190
          11 :   -9.06866300084778
          12 :   -1.73305545829851
          13 :    8.69736685926142
[...]
                l(1) =   0
                l(2) =   0
                l(3) =   1
                l(4) =   1
                l(5) =   2
                l(6) =   2
     Q(r) pseudized with  6 coefficients,  rinner =    1.000   1.000   1.000
                                                       1.000   1.000

     PseudoPot. # 2 for Zn read from file:
     /afs/slac.stanford.edu/u/if/mamunm/psp/gbrv1.5pbe/Zn.UPF
     MD5 check sum: df62231357ef9e81f77b2b3087fa5675
     Pseudo is Ultrasoft, Zval = 20.0
     Generated by new atomic code, or converted to UPF format
     Using radial grid of  943 points,  6 beta functions with:
                l(1) =   0
                l(2) =   0
                l(3) =   1
                l(4) =   1
                l(5) =   2
                l(6) =   2
     Q(r) pseudized with  8 coefficients,  rinner =    1.100   1.100   1.100
                                                       1.100   1.100

     vdW kernel table read from file vdW_kernel_table
     MD5 check sum: 095c7af220d748ca6e76c0b4c6cfb241

     atomic species   valence    mass     pseudopotential
        Ti1           12.00    47.86700     Ti( 1.00)
        Zn1           20.00    65.38000     Zn( 1.00)

     No symmetry found

   Cartesian axes

     site n.     atom                  positions (alat units)
         1           Ti1 tau(   1) = (   0.0000000   0.0000000  10.0000000  )
         2           Ti1 tau(   2) = (  -1.4231997   2.4650542  10.0000000  )
         3           Ti1 tau(   3) = (   1.4231997   2.4650542  10.0000000  )
         4           Zn1 tau(   4) = (   2.8463994   0.0000000  10.0000000  )
         5           Ti1 tau(   5) = (   2.8463994   1.6433695  12.3240754  )
         6           Ti1 tau(   6) = (   1.4231997   4.1084237  12.3240754  )
         7           Ti1 tau(   7) = (  -1.4231997   4.1084237  12.3240754  )
         8           Zn1 tau(   8) = (   0.0000000   1.6433695  12.3240754  )
         9           Ti1 tau(   9) = (   0.0000325   3.2570608  14.5981576  )
        10           Ti1 tau(  10) = (   1.3975023   0.8365319  14.5982051  )
        11           Ti1 tau(  11) = (   4.2953418   0.8365198  14.5981968  )
        12           Zn1 tau(  12) = (   2.8464152   3.2867150  14.6532391  )

     number of k points=    20  Fermi-Dirac smearing, width (Ry)=  0.0110
                       cart. coord. in units 2pi/alat
        k(    1) = (   0.0000000   0.0000000   0.0000000), wk =   0.0555556
        k(    2) = (   0.0000000   0.0338059   0.0000000), wk =   0.1111111
        k(    3) = (   0.0000000   0.0676118   0.0000000), wk =   0.1111111
        k(    4) = (   0.0000000  -0.1014176   0.0000000), wk =   0.0555556
        k(    5) = (   0.0292768   0.0169029   0.0000000), wk =   0.1111111
        k(    6) = (   0.0292768   0.0507088   0.0000000), wk =   0.1111111
        k(    7) = (   0.0292768   0.0845147   0.0000000), wk =   0.1111111
        k(    8) = (   0.0292768  -0.0845147   0.0000000), wk =   0.1111111
        k(    9) = (   0.0292768  -0.0507088   0.0000000), wk =   0.1111111
        k(   10) = (   0.0292768  -0.0169029   0.0000000), wk =   0.1111111
        k(   11) = (   0.0585535   0.0338059   0.0000000), wk =   0.1111111
        k(   12) = (   0.0585535   0.0676118   0.0000000), wk =   0.1111111
        k(   13) = (   0.0585535   0.1014176   0.0000000), wk =   0.1111111
        k(   14) = (   0.0585535  -0.0676118   0.0000000), wk =   0.1111111
        k(   15) = (   0.0585535  -0.0338059   0.0000000), wk =   0.1111111
        k(   16) = (   0.0585535   0.0000000   0.0000000), wk =   0.1111111
        k(   17) = (  -0.0878303  -0.0507088   0.0000000), wk =   0.0555556
        k(   18) = (  -0.0878303  -0.0169029   0.0000000), wk =   0.1111111
        k(   19) = (  -0.0878303   0.0169029   0.0000000), wk =   0.1111111
        k(   20) = (  -0.0878303  -0.1521265   0.0000000), wk =   0.0555556

     Largest allocated arrays     est. size (Mb)     dimensions
     Largest temporary arrays     est. size (Mb)     dimensions

     Check: negative/imaginary core charge=   -0.000006    0.000000

     Initial potential from superposition of free atoms
     Check: negative starting charge=   -0.011626

     starting charge  158.99918, renormalised to  168.00000

[...]

     *
     * You are using vdW-DF for exchange-correlation in this calculation.
     * Please cite the following three references that made this development
     * possible:
     *
     *   M. Dion, H. Rydberg, E. Schroder, D. C. Langreth, and
     *   B. I. Lundqvist, Phys. Rev. Lett. 92, 246401 (2004).
     *
     *   T. Thonhauser, V. R. Cooper, S. Li, A. Puzder, P. Hyldgaard, and
     *   D. C. Langreth, Phys. Rev. B 76, 125112 (2007).
     *
     *   G. Roman-Perez and J. M. Soler, Phys. Rev. Lett. 103, 096102 (2009).
     *
     *
     * If you are using vdW-DF2, please also cite:
     *
     *   K. Lee, E. D. Murray, L. Kong, B. I. Lundqvist, and
     *   D. C. Langreth, Phys. Rev. B 82, 081101(R) (2010).
     *
     *
     * If you are calculating the stress with vdW-DF, please also cite:
     *
     *   R. Sabatini, E. Kucukbenli, B. Kolb, T. Thonhauser, and
     *   S. de Gironcoli, J. Phys.: Condens. Matter 24, 424209 (2012).
     *

     Carrying out vdW-DF run using the following parameters:

     Nqs =      20    Nr_points =    1024   r_max =   100.000
     q_mesh =
               0.00001000     0.04494208     0.09755937     0.15916263
               0.23128650     0.31572767     0.41458969     0.53033537
               0.66584808     0.82450364     1.01025438     1.22772762
               1.48234092     1.78043706     2.12944203     2.53805004
               3.01644009     3.57652955     4.23227104     5.00000000

     Gradients computed in reciprocal space

[...]

     Starting wfc are  129 randomized atomic wfcs

     Self-consistent Calculation

[...]

     iteration # 15     ecut=    36.75 Ry     beta=0.10
     Davidson diagonalization with overlap
     c_bands:  1 eigenvalues not converged
     ethr =  1.81E-06,  avg # of iterations =  4.5

[...]

     total energy              =   -2467.25881446 Ry
     Harris-Foulkes estimate   =   -2467.25881324 Ry
     estimated scf accuracy    <       0.00000168 Ry

     iteration # 22     ecut=    36.75 Ry     beta=0.10
     Davidson diagonalization with overlap
     ethr =  9.98E-10,  avg # of iterations =  2.5

[...]

     negative rho (up, down):  5.785E-03 0.000E+00

     Adding external electric field

     Computed dipole along edir(3) :
        Dipole               -0.0007 Ry au,         -0.0018 Debye
        Dipole field         -0.0000 Ry au

        Potential amp.        0.0002 Ry
        Total length         45.4138 bohr

     End of self-consistent calculation

[...]

          k = 0.0586 0.0000 0.0000 ( 17573 PWs)   bands (ev):

[...]

          k =-0.0878-0.1521 0.0000 ( 17540 PWs)   bands (ev):

  -125.2625-125.2589-125.1311 -79.4300 -79.4300 -79.4273 -79.4273 -79.4202
   -79.4157 -79.2925 -79.2909 -79.2908 -56.2376 -56.2122 -56.2001 -56.1862
   -56.1711 -56.1455 -55.9345 -55.9107 -55.8863 -32.6187 -32.6128 -32.6008
   -32.5716 -32.5519 -32.5472 -32.5192 -32.5143 -32.4627 -32.4497 -32.4252
   -32.4248 -32.4108 -32.3764 -32.3694 -32.3436 -32.3190 -32.2034 -32.1761
   -32.1571 -32.1471 -32.1439 -32.0953 -32.0556 -32.0389 -32.0214 -31.9016
    -6.2034  -6.2006  -6.1719  -6.1684  -6.1451  -6.1436  -6.1398  -6.1372
    -6.1246  -6.1198  -6.0745  -6.0473  -6.0456  -6.0363  -5.9885  -4.5376
    -4.2960  -3.5017  -2.5660  -1.8133  -1.5265  -1.4247  -0.8607  -0.5099
    -0.3479  -0.3073  -0.1424  -0.0697   0.0208   0.1757   0.3039   0.3293
     0.4750   0.4875   0.6634   0.7777   0.7910   0.8406   0.9844   0.9955
     1.1078   1.1232   1.4849   1.4909   1.6042   1.6489   1.7191   1.8025
     2.1471   2.4816   2.5608   2.6090   2.6238   2.6287   2.7952   2.8139
     2.9244   2.9340   3.0081   3.0905   3.1313   3.3046   3.3599   3.5035
     3.6671   3.7367

     the Fermi energy is     0.7998 ev

!    total energy              =   -2467.25881849 Ry
     Harris-Foulkes estimate   =   -2467.25881470 Ry
     estimated scf accuracy    <       0.00000072 Ry

     The total energy is the sum of the following terms:

     one-electron contribution =  -16207.97049265 Ry
     hartree contribution      =    8089.74056137 Ry
     xc contribution           =    -298.93934889 Ry
     ewald contribution        =    5950.02059861 Ry
     electric field correction =       0.00000000 Ry
     smearing contrib. (-TS)   =      -0.11013693 Ry

     convergence has been achieved in  22 iterations

 BEEF-vdW xc energy contributions
           1 :   -260.827408435294
           2 :    234.700993280302
           3 :   -191.365237279141
           4 :    144.011003034623
           5 :   -103.876578487261
           6 :    75.9537529353888
           7 :   -58.6356565329340
           8 :    46.6929249235764
           9 :   -35.2601318466326
          10 :    22.4258749972780
          11 :   -9.36049440027500
          12 :   -1.47324561807727
          13 :    8.47613145965971
          14 :   -11.9949220867325
          15 :    13.8235781060632
          16 :   -15.7526742322449
          17 :    18.3377744707587
          18 :   -20.7427595068769
          19 :    21.6164491084319
          20 :   -20.2295231609151
          21 :    17.0138042509337
          22 :   -13.2031229248182
          23 :    9.95011371933970
          24 :   -7.61483621671368
          25 :    5.70062553466374
          26 :   -3.40305882628212
          27 :   0.307037169169632
          28 :    3.27887651755140
          29 :   -6.55331397708375
          30 :    8.79059041855794
          31 :   -24.3037022343827
          32 :   -17.0591644198612

     Forces acting on atoms (Ry/au):

     negative rho (up, down):  5.785E-03 0.000E+00
     atom    1 type  1   force =     0.00000264    0.00786927    0.00537195
     atom    2 type  1   force =     0.00681894   -0.00392880    0.00537453
     atom    3 type  1   force =    -0.00681067   -0.00392675    0.00537605
     atom    4 type  2   force =     0.00003079   -0.00005667   -0.00134471
     atom    5 type  1   force =     0.00000926    0.00197205   -0.00206647
     atom    6 type  1   force =     0.00171484   -0.00097797   -0.00207340
     atom    7 type  1   force =    -0.00170494   -0.00098264   -0.00207244
     atom    8 type  2   force =    -0.00006779   -0.00004950   -0.00764005
     atom    9 type  1   force =     0.00000079   -0.00022937   -0.00024166
     atom   10 type  1   force =    -0.00020071    0.00011486   -0.00024970
     atom   11 type  1   force =     0.00020803    0.00011788   -0.00024129
     atom   12 type  2   force =    -0.00000117    0.00007764   -0.00019282

     Total force =     0.018905     Total SCF correction =     0.003464
     SCF correction compared to forces is large: reduce conv_thr to get better values

     entering subroutine stress ...

     negative rho (up, down):  5.785E-03 0.000E+00
          total   stress  (Ry/bohr**3)                   (kbar)     P=   -8.65
  -0.00007475   0.00000000  -0.00000000        -11.00      0.00     -0.00
   0.00000000  -0.00007474   0.00000000          0.00    -10.99      0.00
  -0.00000000   0.00000000  -0.00002687         -0.00      0.00     -3.95

 !ASE

     Writing output data file calc.save

     General routines

     Parallel routines

   This run was terminated on:   3:42:55  28Dec2018

   JOB DONE.
Job  /afs/slac/g/suncat/bin/suncat-tsmpirun -x LD_LIBRARY_PATH -wdir /scratch/qe111158_Nsp77 pw.x -in pw.inp

TID   HOST_NAME   COMMAND_LINE            STATUS            TERMINATION_TIME
00000 suncat0081 pw.x -in pw.inp   Done                     12/28/2018 03:42:55
00001 suncat0081 pw.x -in pw.inp   Done                     12/28/2018 03:42:55
00002 suncat0081 pw.x -in pw.inp   Done                     12/28/2018 03:42:55
00003 suncat0081 pw.x -in pw.inp   Done                     12/28/2018 03:42:55
00004 suncat0081 pw.x -in pw.inp   Done                     12/28/2018 03:42:55
00005 suncat0081 pw.x -in pw.inp   Done                     12/28/2018 03:42:55
00006 suncat0081 pw.x -in pw.inp   Done                     12/28/2018 03:42:55
00007 suncat0081 pw.x -in pw.inp   Done                     12/28/2018 03:42:55
00008 suncat0079 pw.x -in pw.inp   Done                     12/28/2018 03:42:55
00009 suncat0079 pw.x -in pw.inp   Done                     12/28/2018 03:42:55
00010 suncat0079 pw.x -in pw.inp   Done                     12/28/2018 03:42:55
00011 suncat0079 pw.x -in pw.inp   Done                     12/28/2018 03:42:55
00012 suncat0079 pw.x -in pw.inp   Done                     12/28/2018 03:42:55
00013 suncat0079 pw.x -in pw.inp   Done                     12/28/2018 03:42:55
00014 suncat0079 pw.x -in pw.inp   Done                     12/28/2018 03:42:55
00015 suncat0079 pw.x -in pw.inp   Done                     12/28/2018 03:42:55
00016 suncat0076 pw.x -in pw.inp   Done                     12/28/2018 03:42:55
00017 suncat0076 pw.x -in pw.inp   Done                     12/28/2018 03:42:55
00018 suncat0076 pw.x -in pw.inp   Done                     12/28/2018 03:42:55
00019 suncat0076 pw.x -in pw.inp   Done                     12/28/2018 03:42:55
00020 suncat0076 pw.x -in pw.inp   Done                     12/28/2018 03:42:55
00021 suncat0076 pw.x -in pw.inp   Done                     12/28/2018 03:42:55
00022 suncat0076 pw.x -in pw.inp   Done                     12/28/2018 03:42:55
00023 suncat0076 pw.x -in pw.inp   Done                     12/28/2018 03:42:55
00024 suncat0073 pw.x -in pw.inp   Done                     12/28/2018 03:42:55
00025 suncat0073 pw.x -in pw.inp   Done                     12/28/2018 03:42:55
00026 suncat0073 pw.x -in pw.inp   Done                     12/28/2018 03:42:55
00027 suncat0073 pw.x -in pw.inp   Done                     12/28/2018 03:42:55
00028 suncat0073 pw.x -in pw.inp   Done                     12/28/2018 03:42:55
00029 suncat0073 pw.x -in pw.inp   Done                     12/28/2018 03:42:55
00030 suncat0073 pw.x -in pw.inp   Done                     12/28/2018 03:42:55
00031 suncat0073 pw.x -in pw.inp   Done                     12/28/2018 03:42:55
00032 suncat0064 pw.x -in pw.inp   Done                     12/28/2018 03:42:55
00033 suncat0064 pw.x -in pw.inp   Done                     12/28/2018 03:42:55
00034 suncat0064 pw.x -in pw.inp   Done                     12/28/2018 03:42:55
00035 suncat0064 pw.x -in pw.inp   Done                     12/28/2018 03:42:55
00036 suncat0064 pw.x -in pw.inp   Done                     12/28/2018 03:42:55
00037 suncat0064 pw.x -in pw.inp   Done                     12/28/2018 03:42:55
00038 suncat0064 pw.x -in pw.inp   Done                     12/28/2018 03:42:55
00039 suncat0064 pw.x -in pw.inp   Done                     12/28/2018 03:42:55
00040 suncat0058 pw.x -in pw.inp   Done                     12/28/2018 03:42:55
00041 suncat0058 pw.x -in pw.inp   Done                     12/28/2018 03:42:55
00042 suncat0058 pw.x -in pw.inp   Done                     12/28/2018 03:42:55
00043 suncat0058 pw.x -in pw.inp   Done                     12/28/2018 03:42:55
00044 suncat0058 pw.x -in pw.inp   Done                     12/28/2018 03:42:55
00045 suncat0058 pw.x -in pw.inp   Done                     12/28/2018 03:42:55
00046 suncat0058 pw.x -in pw.inp   Done                     12/28/2018 03:42:55
00047 suncat0058 pw.x -in pw.inp   Done                     12/28/2018 03:42:55
00048 suncat0040 pw.x -in pw.inp   Done                     12/28/2018 03:42:55
00049 suncat0040 pw.x -in pw.inp   Done                     12/28/2018 03:42:55
00050 suncat0040 pw.x -in pw.inp   Done                     12/28/2018 03:42:55
00051 suncat0040 pw.x -in pw.inp   Done                     12/28/2018 03:42:55
00052 suncat0040 pw.x -in pw.inp   Done                     12/28/2018 03:42:55
00053 suncat0040 pw.x -in pw.inp   Done                     12/28/2018 03:42:55
00054 suncat0040 pw.x -in pw.inp   Done                     12/28/2018 03:42:55
00055 suncat0040 pw.x -in pw.inp   Done                     12/28/2018 03:42:55
00056 suncat0179 pw.x -in pw.inp   Done                     12/28/2018 03:42:55
00057 suncat0179 pw.x -in pw.inp   Done                     12/28/2018 03:42:55
00058 suncat0179 pw.x -in pw.inp   Done                     12/28/2018 03:42:55
00059 suncat0179 pw.x -in pw.inp   Done                     12/28/2018 03:42:55
00060 suncat0179 pw.x -in pw.inp   Done                     12/28/2018 03:42:55
00061 suncat0179 pw.x -in pw.inp   Done                     12/28/2018 03:42:55
00062 suncat0179 pw.x -in pw.inp   Done                     12/28/2018 03:42:55
00063 suncat0179 pw.x -in pw.inp   Done                     12/28/2018 03:42:55