     Program PWSCF v.5.1rc2 (svn rev. 11289) starts on 30Dec2018 at  5:26:38

     Current dimensions of program PWSCF are:
     Max number of different atomic species (ntypx) = 10
     Max number of k-points (npk) =  40000
     Max angular momentum in pseudopotentials (lmaxx) =  3
     Presently stress not available with electric field

     IMPORTANT: XC functional enforced from input :
     Exchange-correlation      = BEEF-VDW ( 1  4 27 13 2)
     Any further DFT definition will be discarded
     Please, verify this is what you really want

     Subspace diagonalization in iterative solution of the eigenvalue problem:
     a serial algorithm will be used

     bravais-lattice index     =            0
     lattice parameter (alat)  =       1.8897  a.u.
     unit-cell volume          =    4753.5456 (a.u.)^3
     number of atoms/cell      =           12
     number of atomic types    =            2
     number of electrons       =       228.00
     number of Kohn-Sham states=          144
     kinetic-energy cutoff     =      36.7493  Ry
     charge density cutoff     =     367.4932  Ry
     convergence threshold     =      1.0E-06
     mixing beta               =       0.1000
     number of iterations used =           10  plain     mixing
     Exchange-correlation      = BEEF-VDW ( 1  4 27 13 2)
     nstep                     =           50

     celldm(1)=   1.889726  celldm(2)=   0.000000  celldm(3)=   0.000000
     celldm(4)=   0.000000  celldm(5)=   0.000000  celldm(6)=   0.000000

     crystal axes: (cart. coord. in units of alat)
               a(1) = (   5.740023   0.000000   0.000000 )
               a(2) = (  -2.870011   4.971006   0.000000 )
               a(3) = (   0.000000   0.000000  24.686709 )

     reciprocal axes: (cart. coord. in units 2 pi/alat)
               b(1) = (  0.174215  0.100583  0.000000 )
               b(2) = (  0.000000  0.201167  0.000000 )
               b(3) = (  0.000000  0.000000  0.040508 )

     PseudoPot. # 1 for Ga read from file:
     /afs/slac.stanford.edu/u/if/mamunm/psp/gbrv1.5pbe/Ga.UPF
     MD5 check sum: ccd671392a58a050fbb373893b4fcd66
     Pseudo is Ultrasoft + core correction, Zval = 19.0
     Generated by new atomic code, or converted to UPF format
     Using radial grid of  871 points,  6 beta functions with:
                l(1) =   0
                l(2) =   0
                l(3) =   1
                l(4) =   1
                l(5) =   2
                l(6) =   2
     Q(r) pseudized with  8 coefficients,  rinner =    1.250   1.250   1.250
                                                       1.250   1.250

     PseudoPot. # 2 for Cu read from file:
     /afs/slac.stanford.edu/u/if/mamunm/psp/gbrv1.5pbe/Cu.UPF
     MD5 check sum: 6e991ff952a84172a2a52a1c1e996048
     Pseudo is Ultrasoft + core correction, Zval = 19.0
     Generated by new atomic code, or converted to UPF format
     Using radial grid of  867 points,  6 beta functions with:
                l(1) =   0
                l(2) =   0
                l(3) =   1
                l(4) =   1
                l(5) =   2
                l(6) =   2
     Q(r) pseudized with  8 coefficients,  rinner =    1.150   1.150   1.150
                                                       1.150   1.150

     vdW kernel table read from file vdW_kernel_table
     MD5 check sum: 095c7af220d748ca6e76c0b4c6cfb241

     atomic species   valence    mass     pseudopotential
        Ga1           19.00    69.72300     Ga( 1.00)
        Cu1           19.00    63.54600     Cu( 1.00)

     No symmetry found

   Cartesian axes

     site n.     atom                  positions (alat units)
         1           Ga1 tau(   1) = (   0.0000000   0.0000000  10.0000000  )
         2           Ga1 tau(   2) = (  -1.4350057   2.4855028  10.0000000  )
         3           Ga1 tau(   3) = (   1.4350057   2.4855028  10.0000000  )
         4           Cu1 tau(   4) = (   2.8700114   0.0000000  10.0000000  )
         5           Ga1 tau(   5) = (   2.8700114   1.6570018  12.3433545  )
         6           Ga1 tau(   6) = (   1.4350057   4.1425046  12.3433545  )
         7           Ga1 tau(   7) = (  -1.4350057   4.1425046  12.3433545  )
         8           Cu1 tau(   8) = (   0.0000000   1.6570018  12.3433545  )
         9           Ga1 tau(   9) = (  -0.0000000   3.3140037  14.6867090  )
        10           Ga1 tau(  10) = (   1.4350057   0.8285009  14.6867090  )
        11           Ga1 tau(  11) = (   4.3050171   0.8285009  14.6867090  )
        12           Cu1 tau(  12) = (   2.8700114   3.3140037  14.6867090  )

     number of k points=    20  Fermi-Dirac smearing, width (Ry)=  0.0110
                       cart. coord. in units 2pi/alat
        k(    1) = (   0.0000000   0.0000000   0.0000000), wk =   0.0555556
        k(    2) = (   0.0000000   0.0335278   0.0000000), wk =   0.1111111
        k(    3) = (   0.0000000   0.0670555   0.0000000), wk =   0.1111111
        k(    4) = (   0.0000000  -0.1005833   0.0000000), wk =   0.0555556
        k(    5) = (   0.0290359   0.0167639   0.0000000), wk =   0.1111111
        k(    6) = (   0.0290359   0.0502916   0.0000000), wk =   0.1111111
        k(    7) = (   0.0290359   0.0838194   0.0000000), wk =   0.1111111
        k(    8) = (   0.0290359  -0.0838194   0.0000000), wk =   0.1111111
        k(    9) = (   0.0290359  -0.0502916   0.0000000), wk =   0.1111111
        k(   10) = (   0.0290359  -0.0167639   0.0000000), wk =   0.1111111
        k(   11) = (   0.0580718   0.0335278   0.0000000), wk =   0.1111111
        k(   12) = (   0.0580718   0.0670555   0.0000000), wk =   0.1111111
        k(   13) = (   0.0580718   0.1005833   0.0000000), wk =   0.1111111
        k(   14) = (   0.0580718  -0.0670555   0.0000000), wk =   0.1111111
        k(   15) = (   0.0580718  -0.0335278   0.0000000), wk =   0.1111111
        k(   16) = (   0.0580718   0.0000000   0.0000000), wk =   0.1111111
        k(   17) = (  -0.0871077  -0.0502916   0.0000000), wk =   0.0555556
        k(   18) = (  -0.0871077  -0.0167639   0.0000000), wk =   0.1111111
        k(   19) = (  -0.0871077   0.0167639   0.0000000), wk =   0.1111111
        k(   20) = (  -0.0871077  -0.1508749   0.0000000), wk =   0.0555556

     Largest allocated arrays     est. size (Mb)     dimensions
     Largest temporary arrays     est. size (Mb)     dimensions

     Initial potential from superposition of free atoms
     Check: negative starting charge=   -0.001074

     starting charge  215.99999, renormalised to  228.00000

     negative rho (up, down):  1.133E-03 0.000E+00

     *
     * You are using vdW-DF for exchange-correlation in this calculation.
     * Please cite the following three references that made this development
     * possible:
     *
     *   M. Dion, H. Rydberg, E. Schroder, D. C. Langreth, and
     *   B. I. Lundqvist, Phys. Rev. Lett. 92, 246401 (2004).
     *
     *   T. Thonhauser, V. R. Cooper, S. Li, A. Puzder, P. Hyldgaard, and
     *   D. C. Langreth, Phys. Rev. B 76, 125112 (2007).
     *
     *   G. Roman-Perez and J. M. Soler, Phys. Rev. Lett. 103, 096102 (2009).
     *
     *
     * If you are using vdW-DF2, please also cite:
     *
     *   K. Lee, E. D. Murray, L. Kong, B. I. Lundqvist, and
     *   D. C. Langreth, Phys. Rev. B 82, 081101(R) (2010).
     *
     *
     * If you are calculating the stress with vdW-DF, please also cite:
     *
     *   R. Sabatini, E. Kucukbenli, B. Kolb, T. Thonhauser, and
     *   S. de Gironcoli, J. Phys.: Condens. Matter 24, 424209 (2012).
     *

     Carrying out vdW-DF run using the following parameters:

     Nqs =      20    Nr_points =    1024   r_max =   100.000
     q_mesh =
               0.00001000     0.04494208     0.09755937     0.15916263
               0.23128650     0.31572767     0.41458969     0.53033537
               0.66584808     0.82450364     1.01025438     1.22772762
               1.48234092     1.78043706     2.12944203     2.53805004
               3.01644009     3.57652955     4.23227104     5.00000000

     Gradients computed in reciprocal space

     Adding external electric field

     Computed dipole along edir(3) :
        Dipole               -0.0000 Ry au,         -0.0000 Debye
        Dipole field         -0.0000 Ry au

        Potential amp.        0.0000 Ry
        Total length         45.4848 bohr

     Starting wfc are  147 randomized atomic wfcs

     Self-consistent Calculation

     iteration #  1     ecut=    36.75 Ry     beta=0.10
     Davidson diagonalization with overlap
     ethr =  1.00E-02,  avg # of iterations =  6.8

[...]

     total energy              =   -4951.73044750 Ry
     Harris-Foulkes estimate   =   -4984.98129591 Ry
     estimated scf accuracy    <     187.33684719 Ry

[...]

     End of self-consistent calculation

          k = 0.0000 0.0000 0.0000 ( 17959 PWs)   bands (ev):

  -112.4482-112.1438-112.1428 -94.4566 -94.4536 -94.4536 -94.4451 -94.4446
   -94.4446 -94.4399 -94.4399 -94.4386 -94.4237 -94.4233 -94.4232 -94.4232
   -94.4228 -94.4228 -94.4130 -94.4126 -94.4101 -94.4101 -94.4097 -94.4097
   -94.3971 -94.3971 -94.3967 -94.3967 -94.3959 -94.3955 -69.8573 -69.8440
   -69.8440 -69.5701 -69.5701 -69.5691 -69.5691 -69.5163 -69.5152 -15.0148
   -14.9838 -14.9789 -14.9788 -14.9479 -14.9375 -14.9022 -14.8926 -14.8926
   -14.8858 -14.8858 -14.8764 -14.8763 -14.8457 -14.8422 -14.8422 -14.8208
   -14.7944 -14.7778 -14.7778 -14.7546 -14.7460 -14.7355 -14.7355 -14.7171
   -14.7170 -14.6961 -14.6961 -14.6913 -14.6852 -14.6852 -14.6782 -14.6782
   -14.6667 -14.6667 -14.6379 -14.6379 -14.6210 -14.6210 -14.6120 -14.5899
   -14.5837 -14.5837 -14.5433 -14.5406 -10.1894  -8.5281  -6.1905  -4.9059
    -4.9058  -4.2913  -4.2913  -3.6213  -3.4685  -3.4685  -3.2078  -2.6350
    -2.6350  -2.5471  -2.5318  -2.5318  -2.2991  -2.2991  -2.2107  -2.0304
    -2.0304  -2.0165  -1.9219  -1.9219  -1.7833  -1.6786  -1.6318  -1.6318
    -1.2201  -1.2201  -0.3033   0.1920   0.1920   0.6092   0.6092   1.6273
     1.7175   2.3095   3.6279   4.1950   4.2308   4.2308   4.2845   4.2845
     4.7626   5.0445   5.2961   5.5262   6.7225   6.7481   7.0242   7.1783
     7.1783   7.9472   7.9472   7.9790   8.4104   8.4515   8.4515   8.5113

[...]

          k =-0.0871-0.0503 0.0000 ( 17848 PWs)   bands (ev):

[...]

     the Fermi energy is     0.3603 ev

!    total energy              =   -4964.05581426 Ry
     Harris-Foulkes estimate   =   -4964.05580650 Ry
     estimated scf accuracy    <       0.00000047 Ry

     The total energy is the sum of the following terms:

     one-electron contribution =  -30263.77394334 Ry
     hartree contribution      =   15139.06590587 Ry
     xc contribution           =    -567.62981494 Ry
     ewald contribution        =   10728.30846525 Ry
     electric field correction =       0.00000000 Ry
     smearing contrib. (-TS)   =      -0.02642709 Ry

     convergence has been achieved in  17 iterations

 BEEF-vdW xc energy contributions
           1 :   -506.121049914341
           2 :    459.545316308571
           3 :   -381.225154352343
           4 :    293.626384090983
           5 :   -216.790929223367
           6 :    160.823701533018
           7 :   -124.406501133084
[...]
                l(2) =   0
                l(3) =   1
                l(4) =   1
                l(5) =   2
                l(6) =   2
     Q(r) pseudized with  8 coefficients,  rinner =    1.250   1.250   1.250
                                                       1.250   1.250

     PseudoPot. # 2 for Cu read from file:
     /afs/slac.stanford.edu/u/if/mamunm/psp/gbrv1.5pbe/Cu.UPF
     MD5 check sum: 6e991ff952a84172a2a52a1c1e996048
     Pseudo is Ultrasoft + core correction, Zval = 19.0
     Generated by new atomic code, or converted to UPF format
     Using radial grid of  867 points,  6 beta functions with:
                l(1) =   0
                l(2) =   0
                l(3) =   1
                l(4) =   1
                l(5) =   2
                l(6) =   2
     Q(r) pseudized with  8 coefficients,  rinner =    1.150   1.150   1.150
                                                       1.150   1.150

     vdW kernel table read from file vdW_kernel_table
     MD5 check sum: 095c7af220d748ca6e76c0b4c6cfb241

     atomic species   valence    mass     pseudopotential
        Ga1           19.00    69.72300     Ga( 1.00)
        Cu1           19.00    63.54600     Cu( 1.00)

     No symmetry found

   Cartesian axes

     site n.     atom                  positions (alat units)
         1           Ga1 tau(   1) = (   0.0000000   0.0000000  10.0000000  )
         2           Ga1 tau(   2) = (  -1.4350057   2.4855028  10.0000000  )
         3           Ga1 tau(   3) = (   1.4350057   2.4855028  10.0000000  )
         4           Cu1 tau(   4) = (   2.8700114   0.0000000  10.0000000  )
         5           Ga1 tau(   5) = (   2.8700114   1.6570018  12.3433545  )
         6           Ga1 tau(   6) = (   1.4350057   4.1425046  12.3433545  )
         7           Ga1 tau(   7) = (  -1.4350057   4.1425046  12.3433545  )
         8           Cu1 tau(   8) = (   0.0000000   1.6570018  12.3433545  )
         9           Ga1 tau(   9) = (  -0.0000474   3.2836967  14.8010430  )
        10           Ga1 tau(  10) = (   1.4087655   0.8436125  14.8010903  )
        11           Ga1 tau(  11) = (   4.3312761   0.8436495  14.8010943  )
        12           Cu1 tau(  12) = (   2.8699718   3.3140155  14.4778301  )

     number of k points=    20  Fermi-Dirac smearing, width (Ry)=  0.0110
                       cart. coord. in units 2pi/alat
        k(    1) = (   0.0000000   0.0000000   0.0000000), wk =   0.0555556
        k(    2) = (   0.0000000   0.0335278   0.0000000), wk =   0.1111111
        k(    3) = (   0.0000000   0.0670555   0.0000000), wk =   0.1111111
        k(    4) = (   0.0000000  -0.1005833   0.0000000), wk =   0.0555556
        k(    5) = (   0.0290359   0.0167639   0.0000000), wk =   0.1111111
        k(    6) = (   0.0290359   0.0502916   0.0000000), wk =   0.1111111
        k(    7) = (   0.0290359   0.0838194   0.0000000), wk =   0.1111111
        k(    8) = (   0.0290359  -0.0838194   0.0000000), wk =   0.1111111
        k(    9) = (   0.0290359  -0.0502916   0.0000000), wk =   0.1111111
        k(   10) = (   0.0290359  -0.0167639   0.0000000), wk =   0.1111111
        k(   11) = (   0.0580718   0.0335278   0.0000000), wk =   0.1111111
        k(   12) = (   0.0580718   0.0670555   0.0000000), wk =   0.1111111
        k(   13) = (   0.0580718   0.1005833   0.0000000), wk =   0.1111111
        k(   14) = (   0.0580718  -0.0670555   0.0000000), wk =   0.1111111
        k(   15) = (   0.0580718  -0.0335278   0.0000000), wk =   0.1111111
        k(   16) = (   0.0580718   0.0000000   0.0000000), wk =   0.1111111
        k(   17) = (  -0.0871077  -0.0502916   0.0000000), wk =   0.0555556
        k(   18) = (  -0.0871077  -0.0167639   0.0000000), wk =   0.1111111
        k(   19) = (  -0.0871077   0.0167639   0.0000000), wk =   0.1111111
        k(   20) = (  -0.0871077  -0.1508749   0.0000000), wk =   0.0555556

     Largest allocated arrays     est. size (Mb)     dimensions
     Largest temporary arrays     est. size (Mb)     dimensions

     Initial potential from superposition of free atoms
     Check: negative starting charge=   -0.001113

     starting charge  215.99999, renormalised to  228.00000

[...]

     *
     * You are using vdW-DF for exchange-correlation in this calculation.
     * Please cite the following three references that made this development
     * possible:
     *
     *   M. Dion, H. Rydberg, E. Schroder, D. C. Langreth, and
     *   B. I. Lundqvist, Phys. Rev. Lett. 92, 246401 (2004).
     *
     *   T. Thonhauser, V. R. Cooper, S. Li, A. Puzder, P. Hyldgaard, and
     *   D. C. Langreth, Phys. Rev. B 76, 125112 (2007).
     *
     *   G. Roman-Perez and J. M. Soler, Phys. Rev. Lett. 103, 096102 (2009).
     *
     *
     * If you are using vdW-DF2, please also cite:
     *
     *   K. Lee, E. D. Murray, L. Kong, B. I. Lundqvist, and
     *   D. C. Langreth, Phys. Rev. B 82, 081101(R) (2010).
     *
     *
     * If you are calculating the stress with vdW-DF, please also cite:
     *
     *   R. Sabatini, E. Kucukbenli, B. Kolb, T. Thonhauser, and
     *   S. de Gironcoli, J. Phys.: Condens. Matter 24, 424209 (2012).
     *

     Carrying out vdW-DF run using the following parameters:

     Nqs =      20    Nr_points =    1024   r_max =   100.000
     q_mesh =
               0.00001000     0.04494208     0.09755937     0.15916263
               0.23128650     0.31572767     0.41458969     0.53033537
               0.66584808     0.82450364     1.01025438     1.22772762
               1.48234092     1.78043706     2.12944203     2.53805004
               3.01644009     3.57652955     4.23227104     5.00000000

     Gradients computed in reciprocal space

[...]

     Starting wfc are  147 randomized atomic wfcs

     Self-consistent Calculation

[...]

     total energy              =   -4964.08233370 Ry
     Harris-Foulkes estimate   =   -4964.08233106 Ry
     estimated scf accuracy    <       0.00000377 Ry

     iteration # 16     ecut=    36.75 Ry     beta=0.10
     Davidson diagonalization with overlap
     ethr =  1.65E-09,  avg # of iterations =  2.0

[...]

     negative rho (up, down):  1.009E-03 0.000E+00

     Adding external electric field

     Computed dipole along edir(3) :
        Dipole                0.0261 Ry au,          0.0664 Debye
        Dipole field          0.0001 Ry au

        Potential amp.       -0.0063 Ry
        Total length         45.4848 bohr

     End of self-consistent calculation

[...]

          k = 0.0581 0.0000 0.0000 ( 17903 PWs)   bands (ev):

[...]

          k =-0.0871-0.1509 0.0000 ( 17848 PWs)   bands (ev):

  -112.3657-112.2847-112.0863 -94.4135 -94.4134 -94.4132 -94.4122 -94.4113
   -94.4104 -94.4000 -94.3998 -94.3996 -94.3986 -94.3970 -94.3967 -94.3963
   -94.3961 -94.3958 -94.3849 -94.3846 -94.3839 -94.3810 -94.3808 -94.3807
   -94.3707 -94.3696 -94.3687 -94.3557 -94.3553 -94.3548 -69.7734 -69.7624
   -69.7624 -69.6958 -69.6958 -69.6799 -69.5131 -69.5131 -69.4594 -14.9262
   -14.8864 -14.8806 -14.8656 -14.8497 -14.8459 -14.8255 -14.8189 -14.8098
   -14.8087 -14.7987 -14.7959 -14.7815 -14.7723 -14.7634 -14.7631 -14.7497
   -14.7421 -14.7359 -14.7282 -14.7265 -14.7224 -14.7138 -14.7121 -14.7106
   -14.7016 -14.6997 -14.6964 -14.6942 -14.6879 -14.6807 -14.6759 -14.6739
   -14.6694 -14.6607 -14.6577 -14.6529 -14.6484 -14.6466 -14.6326 -14.6245
   -14.6153 -14.5906 -14.5676 -14.5396  -8.7402  -8.4036  -7.0444  -6.8184
    -5.6530  -5.6133  -4.8374  -4.2152  -3.7753  -3.2153  -2.7977  -2.7889
    -2.7702  -2.5933  -2.5826  -2.5384  -2.5111  -2.4395  -2.3535  -2.3207
    -2.2124  -2.1148  -2.0671  -1.9364  -1.7554  -1.2502  -0.6073  -0.0768
     0.1952   1.1447   1.5160   1.5399   1.6141   2.1170   2.8089   2.8707
     3.0246   3.0668   3.2234   3.6740   3.8205   4.2150   4.4279   4.8294
     4.9973   5.0371   5.3801   5.5620   5.6316   5.7286   5.8349   5.9174
     6.2318   6.3466   6.3807   6.6253   6.7450   6.7707   7.0697   7.7836

     the Fermi energy is     0.3815 ev

!    total energy              =   -4964.08234420 Ry
     Harris-Foulkes estimate   =   -4964.08233434 Ry
     estimated scf accuracy    <       0.00000088 Ry

     The total energy is the sum of the following terms:

     one-electron contribution =  -30126.12326718 Ry
     hartree contribution      =   15070.43016384 Ry
     xc contribution           =    -567.61130990 Ry
     ewald contribution        =   10659.24827247 Ry
     electric field correction =       0.00000180 Ry
     smearing contrib. (-TS)   =      -0.02620524 Ry

     convergence has been achieved in  16 iterations

 BEEF-vdW xc energy contributions
           1 :   -506.695354303818
           2 :    460.103388666608
           3 :   -381.758316313955
           4 :    294.138073636658
           5 :   -217.296506835062
           6 :    161.344396134501
           7 :   -124.958655434272
           8 :    99.7540878389405
           9 :   -77.1635721743747
          10 :    53.5216400817367
          11 :   -30.7838451217816
          12 :    13.3738645210008
          13 :   -3.99320147580283
          14 :    1.41135949801628
          15 :   -1.44741817099248
          16 :  -1.523494349521570E-002
          17 :    4.38746866158669
          18 :   -9.94394137248287
          19 :    13.6507451445023
          20 :   -13.6916156750935
          21 :    10.8017604617187
          22 :   -7.57211847904807
          23 :    6.43128932723459
          24 :   -7.90981152526501
          25 :    10.4413202787123
          26 :   -11.7245507190237
          27 :    10.5175026423578
          28 :   -7.50635021458083
          29 :    4.67389608530380
          30 :   -3.74362518058467
          31 :   -37.8981264310687
          32 :   -25.8126445491043

     Forces acting on atoms (Ry/au):

     negative rho (up, down):  1.009E-03 0.000E+00
     atom    1 type  1   force =     0.00000246    0.00930720   -0.00804051
     atom    2 type  1   force =     0.00806311   -0.00465424   -0.00803598
     atom    3 type  1   force =    -0.00806314   -0.00465150   -0.00803773
     atom    4 type  2   force =    -0.00000097   -0.00000025    0.01047731
     atom    5 type  1   force =     0.00000499   -0.00597153    0.00320381
     atom    6 type  1   force =    -0.00517148    0.00298912    0.00320374
     atom    7 type  1   force =     0.00517386    0.00298620    0.00320139
     atom    8 type  2   force =     0.00000074   -0.00000026    0.00297777
     atom    9 type  1   force =    -0.00000114   -0.00013601    0.00022452
     atom   10 type  1   force =    -0.00011963    0.00006736    0.00022625
     atom   11 type  1   force =     0.00011226    0.00006622    0.00022655
     atom   12 type  2   force =    -0.00000108   -0.00000231    0.00037287

     Total force =     0.026657     Total SCF correction =     0.005261
     SCF correction compared to forces is large: reduce conv_thr to get better values

     entering subroutine stress ...

     negative rho (up, down):  1.009E-03 0.000E+00
          total   stress  (Ry/bohr**3)                   (kbar)     P=  -10.90
  -0.00010188   0.00000000   0.00000000        -14.99      0.00      0.00
   0.00000000  -0.00010188   0.00000000          0.00    -14.99      0.00
   0.00000000   0.00000000  -0.00001850          0.00      0.00     -2.72

 !ASE

     Writing output data file calc.save

     General routines

     Parallel routines

   This run was terminated on:   7:37: 0  30Dec2018

   JOB DONE.
Job  /afs/slac/g/suncat/bin/suncat-tsmpirun -x LD_LIBRARY_PATH -wdir /scratch/qe648450_DH0P4 pw.x -in pw.inp

TID   HOST_NAME   COMMAND_LINE            STATUS            TERMINATION_TIME
00000 suncat0058 pw.x -in pw.inp   Done                     12/30/2018 07:37:00
00001 suncat0058 pw.x -in pw.inp   Done                     12/30/2018 07:37:00
00002 suncat0058 pw.x -in pw.inp   Done                     12/30/2018 07:37:00
00003 suncat0058 pw.x -in pw.inp   Done                     12/30/2018 07:37:00
00004 suncat0058 pw.x -in pw.inp   Done                     12/30/2018 07:37:00
00005 suncat0058 pw.x -in pw.inp   Done                     12/30/2018 07:37:00
00006 suncat0058 pw.x -in pw.inp   Done                     12/30/2018 07:37:00
00007 suncat0058 pw.x -in pw.inp   Done                     12/30/2018 07:37:00
00008 suncat0054 pw.x -in pw.inp   Done                     12/30/2018 07:37:00
00009 suncat0054 pw.x -in pw.inp   Done                     12/30/2018 07:37:00
00010 suncat0054 pw.x -in pw.inp   Done                     12/30/2018 07:37:00
00011 suncat0054 pw.x -in pw.inp   Done                     12/30/2018 07:37:00
00012 suncat0054 pw.x -in pw.inp   Done                     12/30/2018 07:37:00
00013 suncat0054 pw.x -in pw.inp   Done                     12/30/2018 07:37:00
00014 suncat0054 pw.x -in pw.inp   Done                     12/30/2018 07:37:00
00015 suncat0054 pw.x -in pw.inp   Done                     12/30/2018 07:37:00
00016 suncat0180 pw.x -in pw.inp   Done                     12/30/2018 07:37:00
00017 suncat0180 pw.x -in pw.inp   Done                     12/30/2018 07:37:00
00018 suncat0180 pw.x -in pw.inp   Done                     12/30/2018 07:37:00
00019 suncat0180 pw.x -in pw.inp   Done                     12/30/2018 07:37:00
00020 suncat0180 pw.x -in pw.inp   Done                     12/30/2018 07:37:00
00021 suncat0180 pw.x -in pw.inp   Done                     12/30/2018 07:37:00
00022 suncat0180 pw.x -in pw.inp   Done                     12/30/2018 07:37:00
00023 suncat0180 pw.x -in pw.inp   Done                     12/30/2018 07:37:00
00024 suncat0167 pw.x -in pw.inp   Done                     12/30/2018 07:37:00
00025 suncat0167 pw.x -in pw.inp   Done                     12/30/2018 07:37:00
00026 suncat0167 pw.x -in pw.inp   Done                     12/30/2018 07:37:00
00027 suncat0167 pw.x -in pw.inp   Done                     12/30/2018 07:37:00
00028 suncat0167 pw.x -in pw.inp   Done                     12/30/2018 07:37:00
00029 suncat0167 pw.x -in pw.inp   Done                     12/30/2018 07:37:00
00030 suncat0167 pw.x -in pw.inp   Done                     12/30/2018 07:37:00
00031 suncat0167 pw.x -in pw.inp   Done                     12/30/2018 07:37:00
00032 suncat0166 pw.x -in pw.inp   Done                     12/30/2018 07:37:00
00033 suncat0166 pw.x -in pw.inp   Done                     12/30/2018 07:37:00
00034 suncat0166 pw.x -in pw.inp   Done                     12/30/2018 07:37:00
00035 suncat0166 pw.x -in pw.inp   Done                     12/30/2018 07:37:00
00036 suncat0166 pw.x -in pw.inp   Done                     12/30/2018 07:37:00
00037 suncat0166 pw.x -in pw.inp   Done                     12/30/2018 07:37:00
00038 suncat0166 pw.x -in pw.inp   Done                     12/30/2018 07:37:00
00039 suncat0166 pw.x -in pw.inp   Done                     12/30/2018 07:37:00
00040 suncat0149 pw.x -in pw.inp   Done                     12/30/2018 07:37:00
00041 suncat0149 pw.x -in pw.inp   Done                     12/30/2018 07:37:00
00042 suncat0149 pw.x -in pw.inp   Done                     12/30/2018 07:37:00
00043 suncat0149 pw.x -in pw.inp   Done                     12/30/2018 07:37:00
00044 suncat0149 pw.x -in pw.inp   Done                     12/30/2018 07:37:00
00045 suncat0149 pw.x -in pw.inp   Done                     12/30/2018 07:37:00
00046 suncat0149 pw.x -in pw.inp   Done                     12/30/2018 07:37:00
00047 suncat0149 pw.x -in pw.inp   Done                     12/30/2018 07:37:00
00048 suncat0148 pw.x -in pw.inp   Done                     12/30/2018 07:37:00
00049 suncat0148 pw.x -in pw.inp   Done                     12/30/2018 07:37:00
00050 suncat0148 pw.x -in pw.inp   Done                     12/30/2018 07:37:00
00051 suncat0148 pw.x -in pw.inp   Done                     12/30/2018 07:37:00
00052 suncat0148 pw.x -in pw.inp   Done                     12/30/2018 07:37:00
00053 suncat0148 pw.x -in pw.inp   Done                     12/30/2018 07:37:00
00054 suncat0148 pw.x -in pw.inp   Done                     12/30/2018 07:37:00
00055 suncat0148 pw.x -in pw.inp   Done                     12/30/2018 07:37:00
00056 suncat0142 pw.x -in pw.inp   Done                     12/30/2018 07:37:00
00057 suncat0142 pw.x -in pw.inp   Done                     12/30/2018 07:37:00
00058 suncat0142 pw.x -in pw.inp   Done                     12/30/2018 07:37:00
00059 suncat0142 pw.x -in pw.inp   Done                     12/30/2018 07:37:00
00060 suncat0142 pw.x -in pw.inp   Done                     12/30/2018 07:37:00
00061 suncat0142 pw.x -in pw.inp   Done                     12/30/2018 07:37:00
00062 suncat0142 pw.x -in pw.inp   Done                     12/30/2018 07:37:00
00063 suncat0142 pw.x -in pw.inp   Done                     12/30/2018 07:37:00