     Program PWSCF v.5.1rc2 (svn rev. 11289) starts on 25Dec2018 at  4: 4:58

     Current dimensions of program PWSCF are:
     Max number of different atomic species (ntypx) = 10
     Max number of k-points (npk) =  40000
     Max angular momentum in pseudopotentials (lmaxx) =  3
     Presently stress not available with electric field

     IMPORTANT: XC functional enforced from input :
     Exchange-correlation      = BEEF-VDW ( 1  4 27 13 2)
     Any further DFT definition will be discarded
     Please, verify this is what you really want

     Subspace diagonalization in iterative solution of the eigenvalue problem:
     a serial algorithm will be used

     Found symmetry operation: I + ( -0.5000  0.5000  0.0000)
     This is a supercell, fractional translations are disabled

     bravais-lattice index     =            0
     lattice parameter (alat)  =       1.8897  a.u.
     unit-cell volume          =    5696.0822 (a.u.)^3
     number of atoms/cell      =           12
     number of atomic types    =            2
     number of electrons       =       156.00
     number of Kohn-Sham states=          108
     kinetic-energy cutoff     =      36.7493  Ry
     charge density cutoff     =     367.4932  Ry
     convergence threshold     =      1.0E-06
     mixing beta               =       0.1000
     number of iterations used =           10  plain     mixing
     Exchange-correlation      = BEEF-VDW ( 1  4 27 13 2)
     nstep                     =           50

     celldm(1)=   1.889726  celldm(2)=   0.000000  celldm(3)=   0.000000
     celldm(4)=   0.000000  celldm(5)=   0.000000  celldm(6)=   0.000000

     crystal axes: (cart. coord. in units of alat)
               a(1) = (   5.986350   0.000000   0.000000 )
               a(2) = (   1.915953   5.671464   0.000000 )
               a(3) = (   0.000000   0.000000  24.861217 )

     reciprocal axes: (cart. coord. in units 2 pi/alat)
               b(1) = (  0.167047 -0.056432  0.000000 )
               b(2) = (  0.000000  0.176321  0.000000 )
               b(3) = (  0.000000  0.000000  0.040223 )

     PseudoPot. # 1 for Y  read from file:
     /afs/slac.stanford.edu/u/if/mamunm/psp/gbrv1.5pbe/Y.UPF
     MD5 check sum: d034151ed7554c50b6e82763ed42c788
     Pseudo is Ultrasoft + core correction, Zval = 11.0
     Generated by new atomic code, or converted to UPF format
     Using radial grid of  885 points,  6 beta functions with:
                l(1) =   0
                l(2) =   0
                l(3) =   1
                l(4) =   1
                l(5) =   2
                l(6) =   2
     Q(r) pseudized with  8 coefficients,  rinner =    1.200   1.200   1.200
                                                       1.200   1.200

     PseudoPot. # 2 for Re read from file:
     /afs/slac.stanford.edu/u/if/mamunm/psp/gbrv1.5pbe/Re.UPF
     MD5 check sum: 85f993410f3e006da9d71c142b4ad953
     Pseudo is Ultrasoft + core correction, Zval = 15.0
     Generated by new atomic code, or converted to UPF format
     Using radial grid of  981 points,  8 beta functions with:
                l(1) =   0
                l(2) =   0
                l(3) =   1
                l(4) =   1
                l(5) =   2
                l(6) =   2
                l(7) =   3
                l(8) =   3
     Q(r) pseudized with  8 coefficients,  rinner =    1.150   1.150   1.150
                                                       1.150   1.150   1.150
                                                       1.150

     vdW kernel table read from file vdW_kernel_table
     MD5 check sum: 095c7af220d748ca6e76c0b4c6cfb241

     atomic species   valence    mass     pseudopotential
        Y1            11.00    88.90584     Y ( 1.00)
        Re1           15.00   186.20700     Re( 1.00)

     No symmetry found

   Cartesian axes

     site n.     atom                  positions (alat units)
         1           Y1  tau(   1) = (   0.0000000   0.0000000  10.0000000  )
         2           Y1  tau(   2) = (   3.9511514   2.8357321  10.0000000  )
         3           Re1 tau(   3) = (   2.9931748   0.0000000  10.0000000  )
         4           Re1 tau(   4) = (   0.9579766   2.8357321  10.0000000  )
         5           Y1  tau(   5) = (   5.9863496   4.2963890  12.4306085  )
         6           Y1  tau(   6) = (   2.0351982   1.4606570  12.4306085  )
         7           Re1 tau(   7) = (   2.9931748   4.2963890  12.4306085  )
         8           Re1 tau(   8) = (   5.0283730   1.4606570  12.4306085  )
         9           Y1  tau(   9) = (   4.0703964   2.9213139  14.8612169  )
        10           Y1  tau(  10) = (   0.1192450   0.0855819  14.8612169  )
        11           Re1 tau(  11) = (   1.0772216   2.9213139  14.8612169  )
        12           Re1 tau(  12) = (   3.1124198   0.0855819  14.8612169  )

     number of k points=    20  Fermi-Dirac smearing, width (Ry)=  0.0110
                       cart. coord. in units 2pi/alat
        k(    1) = (   0.0000000   0.0000000   0.0000000), wk =   0.0555556
        k(    2) = (   0.0000000   0.0293869   0.0000000), wk =   0.1111111
        k(    3) = (   0.0000000   0.0587738   0.0000000), wk =   0.1111111
        k(    4) = (   0.0000000  -0.0881607   0.0000000), wk =   0.0555556
        k(    5) = (   0.0278411  -0.0094054   0.0000000), wk =   0.1111111
        k(    6) = (   0.0278411   0.0199815   0.0000000), wk =   0.1111111
        k(    7) = (   0.0278411   0.0493684   0.0000000), wk =   0.1111111
        k(    8) = (   0.0278411  -0.0975660   0.0000000), wk =   0.1111111
        k(    9) = (   0.0278411  -0.0681792   0.0000000), wk =   0.1111111
        k(   10) = (   0.0278411  -0.0387923   0.0000000), wk =   0.1111111
        k(   11) = (   0.0556822  -0.0188108   0.0000000), wk =   0.1111111
        k(   12) = (   0.0556822   0.0105761   0.0000000), wk =   0.1111111
        k(   13) = (   0.0556822   0.0399630   0.0000000), wk =   0.1111111
        k(   14) = (   0.0556822  -0.1069714   0.0000000), wk =   0.1111111
        k(   15) = (   0.0556822  -0.0775845   0.0000000), wk =   0.1111111
        k(   16) = (   0.0556822  -0.0481976   0.0000000), wk =   0.1111111
        k(   17) = (  -0.0835234   0.0282161   0.0000000), wk =   0.0555556
        k(   18) = (  -0.0835234   0.0576030   0.0000000), wk =   0.1111111
        k(   19) = (  -0.0835234   0.0869899   0.0000000), wk =   0.1111111
        k(   20) = (  -0.0835234  -0.0599445   0.0000000), wk =   0.0555556

     Largest allocated arrays     est. size (Mb)     dimensions
     Largest temporary arrays     est. size (Mb)     dimensions

     Initial potential from superposition of free atoms
     Check: negative starting charge=   -0.771940

     starting charge  152.97292, renormalised to  156.00000

     negative rho (up, down):  7.872E-01 0.000E+00

     *
     * You are using vdW-DF for exchange-correlation in this calculation.
     * Please cite the following three references that made this development
     * possible:
     *
     *   M. Dion, H. Rydberg, E. Schroder, D. C. Langreth, and
     *   B. I. Lundqvist, Phys. Rev. Lett. 92, 246401 (2004).
     *
     *   T. Thonhauser, V. R. Cooper, S. Li, A. Puzder, P. Hyldgaard, and
     *   D. C. Langreth, Phys. Rev. B 76, 125112 (2007).
     *
     *   G. Roman-Perez and J. M. Soler, Phys. Rev. Lett. 103, 096102 (2009).
     *
     *
     * If you are using vdW-DF2, please also cite:
     *
     *   K. Lee, E. D. Murray, L. Kong, B. I. Lundqvist, and
     *   D. C. Langreth, Phys. Rev. B 82, 081101(R) (2010).
     *
     *
     * If you are calculating the stress with vdW-DF, please also cite:
     *
     *   R. Sabatini, E. Kucukbenli, B. Kolb, T. Thonhauser, and
     *   S. de Gironcoli, J. Phys.: Condens. Matter 24, 424209 (2012).
     *

     Carrying out vdW-DF run using the following parameters:

     Nqs =      20    Nr_points =    1024   r_max =   100.000
     q_mesh =
               0.00001000     0.04494208     0.09755937     0.15916263
               0.23128650     0.31572767     0.41458969     0.53033537
               0.66584808     0.82450364     1.01025438     1.22772762
               1.48234092     1.78043706     2.12944203     2.53805004
               3.01644009     3.57652955     4.23227104     5.00000000

     Gradients computed in reciprocal space

     Adding external electric field

     Computed dipole along edir(3) :
        Dipole                0.0000 Ry au,          0.0000 Debye
        Dipole field          0.0000 Ry au

        Potential amp.       -0.0000 Ry
        Total length         45.8064 bohr

     Starting wfc are  156 randomized atomic wfcs

     Self-consistent Calculation

     iteration #  1     ecut=    36.75 Ry     beta=0.10
     Davidson diagonalization with overlap
     ethr =  1.00E-02,  avg # of iterations =  2.0

[...]

     total energy              =   -1714.37317412 Ry
     Harris-Foulkes estimate   =   -1715.15754687 Ry
     estimated scf accuracy    <       4.56447903 Ry

[...]

     End of self-consistent calculation

          k = 0.0000 0.0000 0.0000 ( 21343 PWs)   bands (ev):

   -77.9963 -77.9952 -77.8722 -77.8722 -77.8711 -77.8711 -40.3869 -40.3674
   -40.3458 -40.3353 -39.7511 -39.7511 -39.7235 -39.7169 -39.7103 -39.6675
   -39.6637 -39.6513 -39.6490 -39.6460 -39.6289 -39.6286 -39.5795 -39.5793
   -39.5277 -39.5256 -39.5230 -39.5203 -39.4222 -39.4176 -20.5696 -20.5558
   -20.4679 -20.4662 -20.4383 -20.4171 -20.3349 -20.3154 -20.3121 -20.2817
   -20.1794 -20.1756 -19.7427 -19.5665 -19.5436 -19.5101 -19.4983 -19.3351
    -3.8940  -2.5835  -1.9615  -1.7411  -1.6558  -1.1040  -0.9923  -0.9186
    -0.9034  -0.8544  -0.7886  -0.6059  -0.2361   0.3342   0.3643   0.4084
     0.4318   0.4559   0.5694   0.5813   0.5840   0.7535   0.9200   1.0955
     1.2404   1.4499   1.4862   1.7049   2.0192   2.0924   2.1073   2.3461
     2.4001   2.5904   2.8197   2.9279   3.4663   3.5773   3.6839   3.7007
     3.7587   3.7794   4.1545   4.5419   4.6669   4.7413   4.9171   5.0083
     5.1193   5.3442   5.4836   5.5034   5.6469   5.7248   5.7315   5.7605
     5.8063   5.8155   5.8685   5.9421

[...]

          k =-0.0835 0.0282 0.0000 ( 21440 PWs)   bands (ev):

[...]

     the Fermi energy is     1.6870 ev

!    total energy              =   -1714.61567681 Ry
     Harris-Foulkes estimate   =   -1714.61567944 Ry
     estimated scf accuracy    <       0.00000073 Ry

     The total energy is the sum of the following terms:

     one-electron contribution =  -10460.50263378 Ry
     hartree contribution      =    5222.23702541 Ry
     xc contribution           =    -494.51103178 Ry
     ewald contribution        =    4018.26891038 Ry
     electric field correction =       0.00000005 Ry
     smearing contrib. (-TS)   =      -0.10794710 Ry

     convergence has been achieved in  18 iterations

 BEEF-vdW xc energy contributions
           1 :   -436.936855057652
           2 :    401.283412754038
           3 :   -338.122350788234
           4 :    260.658391579414
           5 :   -182.741813749899
           6 :    115.096117774561
           7 :   -63.4113207116076
           8 :    28.4590642874330
           9 :   -7.62202052603357
[...]
     /afs/slac.stanford.edu/u/if/mamunm/psp/gbrv1.5pbe/Y.UPF
     MD5 check sum: d034151ed7554c50b6e82763ed42c788
     Pseudo is Ultrasoft + core correction, Zval = 11.0
     Generated by new atomic code, or converted to UPF format
     Using radial grid of  885 points,  6 beta functions with:
                l(1) =   0
                l(2) =   0
                l(3) =   1
                l(4) =   1
                l(5) =   2
                l(6) =   2
     Q(r) pseudized with  8 coefficients,  rinner =    1.200   1.200   1.200
                                                       1.200   1.200

     PseudoPot. # 2 for Re read from file:
     /afs/slac.stanford.edu/u/if/mamunm/psp/gbrv1.5pbe/Re.UPF
     MD5 check sum: 85f993410f3e006da9d71c142b4ad953
     Pseudo is Ultrasoft + core correction, Zval = 15.0
     Generated by new atomic code, or converted to UPF format
     Using radial grid of  981 points,  8 beta functions with:
                l(1) =   0
                l(2) =   0
                l(3) =   1
                l(4) =   1
                l(5) =   2
                l(6) =   2
                l(7) =   3
                l(8) =   3
     Q(r) pseudized with  8 coefficients,  rinner =    1.150   1.150   1.150
                                                       1.150   1.150   1.150
                                                       1.150

     vdW kernel table read from file vdW_kernel_table
     MD5 check sum: 095c7af220d748ca6e76c0b4c6cfb241

     atomic species   valence    mass     pseudopotential
        Y1            11.00    88.90584     Y ( 1.00)
        Re1           15.00   186.20700     Re( 1.00)

     No symmetry found

   Cartesian axes

     site n.     atom                  positions (alat units)
         1           Y1  tau(   1) = (   0.0000000   0.0000000  10.0000000  )
         2           Y1  tau(   2) = (   3.9511514   2.8357321  10.0000000  )
         3           Re1 tau(   3) = (   2.9931748   0.0000000  10.0000000  )
         4           Re1 tau(   4) = (   0.9579766   2.8357321  10.0000000  )
         5           Y1  tau(   5) = (   5.9863496   4.2963890  12.4306085  )
         6           Y1  tau(   6) = (   2.0351982   1.4606570  12.4306085  )
         7           Re1 tau(   7) = (   2.9931748   4.2963890  12.4306085  )
         8           Re1 tau(   8) = (   5.0283730   1.4606570  12.4306085  )
         9           Y1  tau(   9) = (   4.7918951   3.4393218  15.2188224  )
        10           Y1  tau(  10) = (   0.8411919   0.6038867  15.2191257  )
        11           Re1 tau(  11) = (   2.0297072   3.6054479  14.4715565  )
        12           Re1 tau(  12) = (   4.0653878   0.7691975  14.4711883  )

     number of k points=    20  Fermi-Dirac smearing, width (Ry)=  0.0110
                       cart. coord. in units 2pi/alat
        k(    1) = (   0.0000000   0.0000000   0.0000000), wk =   0.0555556
        k(    2) = (   0.0000000   0.0293869   0.0000000), wk =   0.1111111
        k(    3) = (   0.0000000   0.0587738   0.0000000), wk =   0.1111111
        k(    4) = (   0.0000000  -0.0881607   0.0000000), wk =   0.0555556
        k(    5) = (   0.0278411  -0.0094054   0.0000000), wk =   0.1111111
        k(    6) = (   0.0278411   0.0199815   0.0000000), wk =   0.1111111
        k(    7) = (   0.0278411   0.0493684   0.0000000), wk =   0.1111111
        k(    8) = (   0.0278411  -0.0975660   0.0000000), wk =   0.1111111
        k(    9) = (   0.0278411  -0.0681792   0.0000000), wk =   0.1111111
        k(   10) = (   0.0278411  -0.0387923   0.0000000), wk =   0.1111111
        k(   11) = (   0.0556822  -0.0188108   0.0000000), wk =   0.1111111
        k(   12) = (   0.0556822   0.0105761   0.0000000), wk =   0.1111111
        k(   13) = (   0.0556822   0.0399630   0.0000000), wk =   0.1111111
        k(   14) = (   0.0556822  -0.1069714   0.0000000), wk =   0.1111111
        k(   15) = (   0.0556822  -0.0775845   0.0000000), wk =   0.1111111
        k(   16) = (   0.0556822  -0.0481976   0.0000000), wk =   0.1111111
        k(   17) = (  -0.0835234   0.0282161   0.0000000), wk =   0.0555556
        k(   18) = (  -0.0835234   0.0576030   0.0000000), wk =   0.1111111
        k(   19) = (  -0.0835234   0.0869899   0.0000000), wk =   0.1111111
        k(   20) = (  -0.0835234  -0.0599445   0.0000000), wk =   0.0555556

     Largest allocated arrays     est. size (Mb)     dimensions
     Largest temporary arrays     est. size (Mb)     dimensions

     Initial potential from superposition of free atoms
     Check: negative starting charge=   -0.769973

     starting charge  152.97292, renormalised to  156.00000

[...]

     *
     * You are using vdW-DF for exchange-correlation in this calculation.
     * Please cite the following three references that made this development
     * possible:
     *
     *   M. Dion, H. Rydberg, E. Schroder, D. C. Langreth, and
     *   B. I. Lundqvist, Phys. Rev. Lett. 92, 246401 (2004).
     *
     *   T. Thonhauser, V. R. Cooper, S. Li, A. Puzder, P. Hyldgaard, and
     *   D. C. Langreth, Phys. Rev. B 76, 125112 (2007).
     *
     *   G. Roman-Perez and J. M. Soler, Phys. Rev. Lett. 103, 096102 (2009).
     *
     *
     * If you are using vdW-DF2, please also cite:
     *
     *   K. Lee, E. D. Murray, L. Kong, B. I. Lundqvist, and
     *   D. C. Langreth, Phys. Rev. B 82, 081101(R) (2010).
     *
     *
     * If you are calculating the stress with vdW-DF, please also cite:
     *
     *   R. Sabatini, E. Kucukbenli, B. Kolb, T. Thonhauser, and
     *   S. de Gironcoli, J. Phys.: Condens. Matter 24, 424209 (2012).
     *

     Carrying out vdW-DF run using the following parameters:

     Nqs =      20    Nr_points =    1024   r_max =   100.000
     q_mesh =
               0.00001000     0.04494208     0.09755937     0.15916263
               0.23128650     0.31572767     0.41458969     0.53033537
               0.66584808     0.82450364     1.01025438     1.22772762
               1.48234092     1.78043706     2.12944203     2.53805004
               3.01644009     3.57652955     4.23227104     5.00000000

     Gradients computed in reciprocal space

[...]

     Starting wfc are  156 randomized atomic wfcs

     Self-consistent Calculation

[...]

     total energy              =   -1714.76786828 Ry
     Harris-Foulkes estimate   =   -1714.76786959 Ry
     estimated scf accuracy    <       0.00000216 Ry

     iteration # 19     ecut=    36.75 Ry     beta=0.10
     Davidson diagonalization with overlap
     ethr =  1.38E-09,  avg # of iterations =  2.0

[...]

     negative rho (up, down):  7.672E-01 0.000E+00

     Adding external electric field

     Computed dipole along edir(3) :
        Dipole                0.3297 Ry au,          0.8381 Debye
        Dipole field          0.0007 Ry au

        Potential amp.       -0.0666 Ry
        Total length         45.8064 bohr

     End of self-consistent calculation

[...]

          k = 0.0557-0.0482 0.0000 ( 21436 PWs)   bands (ev):

[...]

          k =-0.0835-0.0599 0.0000 ( 21482 PWs)   bands (ev):

   -77.9820 -77.9809 -77.7501 -77.7490 -77.4062 -77.4051 -40.8583 -40.8218
   -40.3998 -40.3823 -40.0201 -39.9907 -39.7046 -39.7019 -39.6172 -39.6127
   -39.4510 -39.4112 -39.3714 -39.3602 -39.3270 -39.3117 -39.1830 -39.1748
   -39.1666 -39.1393 -39.1310 -39.1192 -39.0690 -39.0427 -21.0100 -20.9683
   -20.9351 -20.7508 -20.6958 -20.5583 -20.2294 -20.1237 -20.0659 -20.0094
   -19.9377 -19.8202 -19.6800 -19.4994 -19.4530 -19.4525 -19.4192 -19.2574
    -2.4398  -1.6865  -1.6134  -1.1352  -0.9969  -0.7693  -0.7579  -0.3996
    -0.2046  -0.1436  -0.0601   0.0852   0.1119   0.2936   0.5980   0.6157
     0.8626   0.8881   0.9551   1.0165   1.0736   1.2720   1.2921   1.3850
     1.5409   1.6447   1.7606   1.9075   1.9289   2.0661   2.1049   2.1348
     2.1929   2.3311   2.4921   2.5406   2.7417   3.1174   3.2162   3.2654
     3.3845   3.6001   3.8155   3.9274   4.0166   4.3582   4.3764   4.4895
     4.6240   4.7857   4.8838   4.9176   5.0881   5.0900   5.2571   5.3241
     5.4100   5.4940   5.8637   5.9509

     the Fermi energy is     2.1022 ev

!    total energy              =   -1714.76786446 Ry
     Harris-Foulkes estimate   =   -1714.76786720 Ry
     estimated scf accuracy    <       0.00000070 Ry

     The total energy is the sum of the following terms:

     one-electron contribution =  -10559.99711526 Ry
     hartree contribution      =    5272.48071711 Ry
     xc contribution           =    -494.65656612 Ry
     ewald contribution        =    4067.48737824 Ry
     electric field correction =       0.00023985 Ry
     smearing contrib. (-TS)   =      -0.08251828 Ry

     convergence has been achieved in  19 iterations

 BEEF-vdW xc energy contributions
           1 :   -437.102714987523
           2 :    401.549389324248
           3 :   -338.556852565461
           4 :    261.249808418900
           5 :   -183.352845028623
           6 :    115.485860758709
           7 :   -63.3531309626688
           8 :    27.8846354014090
           9 :   -6.68560832092714
          10 :   -4.07384265643907
          11 :    8.08646325560306
          12 :   -8.11302122485847
          13 :    5.97360106090701
          14 :   -2.94999151100649
          15 :   0.128016280593727
          16 :    1.55608942741168
          17 :   -1.49566304289289
          18 :  -0.397514178511926
          19 :    3.65771182311408
          20 :   -7.42306966690290
          21 :    10.7209203638151
          22 :   -12.7663534736224
          23 :    13.1624425303982
          24 :   -11.9524907590219
          25 :    9.54534582862021
          26 :   -6.57203530758522
          27 :    3.71813673358980
          28 :   -1.55973205467484
          29 :   0.430532365765600
          30 :  -0.355695210105068
          31 :   -38.1009031691470
          32 :   -27.3137531961449

     Forces acting on atoms (Ry/au):

     negative rho (up, down):  7.672E-01 0.000E+00
     atom    1 type  1   force =     0.00344637    0.00246342   -0.03939189
     atom    2 type  1   force =     0.00343979    0.00247643   -0.03939082
     atom    3 type  2   force =    -0.00105361   -0.00075401    0.03327827
     atom    4 type  2   force =    -0.00104474   -0.00075291    0.03328722
     atom    5 type  1   force =     0.00646716    0.00462527   -0.04094437
     atom    6 type  1   force =     0.00648303    0.00467549   -0.04087586
     atom    7 type  2   force =    -0.00888438   -0.00635195    0.04657009
     atom    8 type  2   force =    -0.00879116   -0.00632173    0.04641385
     atom    9 type  1   force =     0.00028066    0.00018685    0.00038917
     atom   10 type  1   force =     0.00026253    0.00019114    0.00037794
     atom   11 type  2   force =    -0.00026508   -0.00020279    0.00003124
     atom   12 type  2   force =    -0.00034057   -0.00023522    0.00025515

     Total force =     0.115728     Total SCF correction =     0.003030

     entering subroutine stress ...

     negative rho (up, down):  7.672E-01 0.000E+00
          total   stress  (Ry/bohr**3)                   (kbar)     P=   -8.34
  -0.00007543   0.00002438  -0.00000352        -11.10      3.59     -0.52
   0.00002438  -0.00009192  -0.00000253          3.59    -13.52     -0.37
  -0.00000352  -0.00000253  -0.00000273         -0.52     -0.37     -0.40

 !ASE

     Writing output data file calc.save

     General routines

     Parallel routines

   This run was terminated on:  14:14: 2  25Dec2018

   JOB DONE.
Job  /afs/slac/g/suncat/bin/suncat-tsmpirun -x LD_LIBRARY_PATH -wdir /scratch/qe109193_57i5A pw.x -in pw.inp

TID   HOST_NAME   COMMAND_LINE            STATUS            TERMINATION_TIME
00000 suncat0092 pw.x -in pw.inp   Done                     12/25/2018 14:14:02
00001 suncat0092 pw.x -in pw.inp   Done                     12/25/2018 14:14:02
00002 suncat0092 pw.x -in pw.inp   Done                     12/25/2018 14:14:02
00003 suncat0092 pw.x -in pw.inp   Done                     12/25/2018 14:14:02
00004 suncat0092 pw.x -in pw.inp   Done                     12/25/2018 14:14:02
00005 suncat0092 pw.x -in pw.inp   Done                     12/25/2018 14:14:02
00006 suncat0092 pw.x -in pw.inp   Done                     12/25/2018 14:14:02
00007 suncat0092 pw.x -in pw.inp   Done                     12/25/2018 14:14:02
00008 suncat0091 pw.x -in pw.inp   Done                     12/25/2018 14:14:02
00009 suncat0091 pw.x -in pw.inp   Done                     12/25/2018 14:14:02
00010 suncat0091 pw.x -in pw.inp   Done                     12/25/2018 14:14:02
00011 suncat0091 pw.x -in pw.inp   Done                     12/25/2018 14:14:02
00012 suncat0091 pw.x -in pw.inp   Done                     12/25/2018 14:14:02
00013 suncat0091 pw.x -in pw.inp   Done                     12/25/2018 14:14:02
00014 suncat0091 pw.x -in pw.inp   Done                     12/25/2018 14:14:02
00015 suncat0091 pw.x -in pw.inp   Done                     12/25/2018 14:14:02
00016 suncat0090 pw.x -in pw.inp   Done                     12/25/2018 14:14:02
00017 suncat0090 pw.x -in pw.inp   Done                     12/25/2018 14:14:02
00018 suncat0090 pw.x -in pw.inp   Done                     12/25/2018 14:14:02
00019 suncat0090 pw.x -in pw.inp   Done                     12/25/2018 14:14:02
00020 suncat0090 pw.x -in pw.inp   Done                     12/25/2018 14:14:02
00021 suncat0090 pw.x -in pw.inp   Done                     12/25/2018 14:14:02
00022 suncat0090 pw.x -in pw.inp   Done                     12/25/2018 14:14:02
00023 suncat0090 pw.x -in pw.inp   Done                     12/25/2018 14:14:02
00024 suncat0089 pw.x -in pw.inp   Done                     12/25/2018 14:14:02
00025 suncat0089 pw.x -in pw.inp   Done                     12/25/2018 14:14:02
00026 suncat0089 pw.x -in pw.inp   Done                     12/25/2018 14:14:02
00027 suncat0089 pw.x -in pw.inp   Done                     12/25/2018 14:14:02
00028 suncat0089 pw.x -in pw.inp   Done                     12/25/2018 14:14:02
00029 suncat0089 pw.x -in pw.inp   Done                     12/25/2018 14:14:02
00030 suncat0089 pw.x -in pw.inp   Done                     12/25/2018 14:14:02
00031 suncat0089 pw.x -in pw.inp   Done                     12/25/2018 14:14:02
00032 suncat0088 pw.x -in pw.inp   Done                     12/25/2018 14:14:02
00033 suncat0088 pw.x -in pw.inp   Done                     12/25/2018 14:14:02
00034 suncat0088 pw.x -in pw.inp   Done                     12/25/2018 14:14:02
00035 suncat0088 pw.x -in pw.inp   Done                     12/25/2018 14:14:02
00036 suncat0088 pw.x -in pw.inp   Done                     12/25/2018 14:14:02
00037 suncat0088 pw.x -in pw.inp   Done                     12/25/2018 14:14:02
00038 suncat0088 pw.x -in pw.inp   Done                     12/25/2018 14:14:02
00039 suncat0088 pw.x -in pw.inp   Done                     12/25/2018 14:14:02
00040 suncat0087 pw.x -in pw.inp   Done                     12/25/2018 14:14:02
00041 suncat0087 pw.x -in pw.inp   Done                     12/25/2018 14:14:02
00042 suncat0087 pw.x -in pw.inp   Done                     12/25/2018 14:14:02
00043 suncat0087 pw.x -in pw.inp   Done                     12/25/2018 14:14:02
00044 suncat0087 pw.x -in pw.inp   Done                     12/25/2018 14:14:02
00045 suncat0087 pw.x -in pw.inp   Done                     12/25/2018 14:14:02
00046 suncat0087 pw.x -in pw.inp   Done                     12/25/2018 14:14:02
00047 suncat0087 pw.x -in pw.inp   Done                     12/25/2018 14:14:02
00048 suncat0156 pw.x -in pw.inp   Done                     12/25/2018 14:14:02
00049 suncat0156 pw.x -in pw.inp   Done                     12/25/2018 14:14:02
00050 suncat0156 pw.x -in pw.inp   Done                     12/25/2018 14:14:02
00051 suncat0156 pw.x -in pw.inp   Done                     12/25/2018 14:14:02
00052 suncat0156 pw.x -in pw.inp   Done                     12/25/2018 14:14:02
00053 suncat0156 pw.x -in pw.inp   Done                     12/25/2018 14:14:02
00054 suncat0156 pw.x -in pw.inp   Done                     12/25/2018 14:14:02
00055 suncat0156 pw.x -in pw.inp   Done                     12/25/2018 14:14:02
00056 suncat0153 pw.x -in pw.inp   Done                     12/25/2018 14:14:02
00057 suncat0153 pw.x -in pw.inp   Done                     12/25/2018 14:14:02
00058 suncat0153 pw.x -in pw.inp   Done                     12/25/2018 14:14:02
00059 suncat0153 pw.x -in pw.inp   Done                     12/25/2018 14:14:02
00060 suncat0153 pw.x -in pw.inp   Done                     12/25/2018 14:14:02
00061 suncat0153 pw.x -in pw.inp   Done                     12/25/2018 14:14:02
00062 suncat0153 pw.x -in pw.inp   Done                     12/25/2018 14:14:02
00063 suncat0153 pw.x -in pw.inp   Done                     12/25/2018 14:14:02