     Program PWSCF v.5.1rc2 (svn rev. 11289) starts on  2Jan2019 at 20:32: 0

     Current dimensions of program PWSCF are:
     Max number of different atomic species (ntypx) = 10
     Max number of k-points (npk) =  40000
     Max angular momentum in pseudopotentials (lmaxx) =  3
     Presently stress not available with electric field

     IMPORTANT: XC functional enforced from input :
     Exchange-correlation      = BEEF-VDW ( 1  4 27 13 2)
     Any further DFT definition will be discarded
     Please, verify this is what you really want

     Subspace diagonalization in iterative solution of the eigenvalue problem:
     a serial algorithm will be used

     bravais-lattice index     =            0
     lattice parameter (alat)  =       1.8897  a.u.
     unit-cell volume          =    5818.6416 (a.u.)^3
     number of atoms/cell      =           12
     number of atomic types    =            2
     number of electrons       =       147.00
     number of Kohn-Sham states=          103
     kinetic-energy cutoff     =      36.7493  Ry
     charge density cutoff     =     367.4932  Ry
     convergence threshold     =      1.0E-06
     mixing beta               =       0.1000
     number of iterations used =           10  plain     mixing
     Exchange-correlation      = BEEF-VDW ( 1  4 27 13 2)
     nstep                     =           50

     celldm(1)=   1.889726  celldm(2)=   0.000000  celldm(3)=   0.000000
     celldm(4)=   0.000000  celldm(5)=   0.000000  celldm(6)=   0.000000

     crystal axes: (cart. coord. in units of alat)
               a(1) = (   6.293293   0.000000   0.000000 )
               a(2) = (  -3.146646   5.450151   0.000000 )
               a(3) = (   0.000000   0.000000  25.138452 )

     reciprocal axes: (cart. coord. in units 2 pi/alat)
               b(1) = (  0.158899  0.091741  0.000000 )
               b(2) = (  0.000000  0.183481  0.000000 )
               b(3) = (  0.000000  0.000000  0.039780 )

     PseudoPot. # 1 for Zr read from file:
     /afs/slac.stanford.edu/u/if/mamunm/psp/gbrv1.5pbe/Zr.UPF
     MD5 check sum: 5db81b1e868ab7776c4564c113de050b
     Pseudo is Ultrasoft + core correction, Zval = 12.0
     Generated by new atomic code, or converted to UPF format
     Using radial grid of  887 points,  6 beta functions with:
                l(1) =   0
                l(2) =   0
                l(3) =   1
                l(4) =   1
                l(5) =   2
                l(6) =   2
     Q(r) pseudized with  6 coefficients,  rinner =    1.200   1.200   1.200
                                                       1.200   1.200

     PseudoPot. # 2 for Nb read from file:
     /afs/slac.stanford.edu/u/if/mamunm/psp/gbrv1.5pbe/Nb.UPF
     MD5 check sum: 573aab8a2fa660278ed4a62cd769473f
     Pseudo is Ultrasoft + core correction, Zval = 13.0
     Generated by new atomic code, or converted to UPF format
     Using radial grid of  887 points,  6 beta functions with:
                l(1) =   0
                l(2) =   0
                l(3) =   1
                l(4) =   1
                l(5) =   2
                l(6) =   2
     Q(r) pseudized with  6 coefficients,  rinner =    1.000   1.000   1.000
                                                       1.000   1.000

     vdW kernel table read from file vdW_kernel_table
     MD5 check sum: 095c7af220d748ca6e76c0b4c6cfb241

     atomic species   valence    mass     pseudopotential
        Zr1           12.00    91.22400     Zr( 1.00)
        Nb1           13.00    92.90637     Nb( 1.00)

     No symmetry found

   Cartesian axes

     site n.     atom                  positions (alat units)
         1           Zr1 tau(   1) = (   0.0000000   0.0000000  10.0000000  )
         2           Zr1 tau(   2) = (  -1.5733231   2.7250756  10.0000000  )
         3           Zr1 tau(   3) = (   1.5733231   2.7250756  10.0000000  )
         4           Nb1 tau(   4) = (   3.1466463   0.0000000  10.0000000  )
         5           Zr1 tau(   5) = (   3.1466463   1.8167171  12.5692259  )
         6           Zr1 tau(   6) = (   1.5733231   4.5417927  12.5692259  )
         7           Zr1 tau(   7) = (  -1.5733231   4.5417927  12.5692259  )
         8           Nb1 tau(   8) = (   0.0000000   1.8167171  12.5692259  )
         9           Zr1 tau(   9) = (   0.0000000   3.6334342  15.1384519  )
        10           Zr1 tau(  10) = (   1.5733231   0.9083585  15.1384519  )
        11           Zr1 tau(  11) = (   4.7199694   0.9083585  15.1384519  )
        12           Nb1 tau(  12) = (   3.1466463   3.6334342  15.1384519  )

     number of k points=    20  Fermi-Dirac smearing, width (Ry)=  0.0110
                       cart. coord. in units 2pi/alat
        k(    1) = (   0.0000000   0.0000000   0.0000000), wk =   0.0555556
        k(    2) = (   0.0000000   0.0305802   0.0000000), wk =   0.1111111
        k(    3) = (   0.0000000   0.0611604   0.0000000), wk =   0.1111111
        k(    4) = (   0.0000000  -0.0917406   0.0000000), wk =   0.0555556
        k(    5) = (   0.0264832   0.0152901   0.0000000), wk =   0.1111111
        k(    6) = (   0.0264832   0.0458703   0.0000000), wk =   0.1111111
        k(    7) = (   0.0264832   0.0764505   0.0000000), wk =   0.1111111
        k(    8) = (   0.0264832  -0.0764505   0.0000000), wk =   0.1111111
        k(    9) = (   0.0264832  -0.0458703   0.0000000), wk =   0.1111111
        k(   10) = (   0.0264832  -0.0152901   0.0000000), wk =   0.1111111
        k(   11) = (   0.0529664   0.0305802   0.0000000), wk =   0.1111111
        k(   12) = (   0.0529664   0.0611604   0.0000000), wk =   0.1111111
        k(   13) = (   0.0529664   0.0917406   0.0000000), wk =   0.1111111
        k(   14) = (   0.0529664  -0.0611604   0.0000000), wk =   0.1111111
        k(   15) = (   0.0529664  -0.0305802   0.0000000), wk =   0.1111111
        k(   16) = (   0.0529664  -0.0000000   0.0000000), wk =   0.1111111
        k(   17) = (  -0.0794497  -0.0458703   0.0000000), wk =   0.0555556
        k(   18) = (  -0.0794497  -0.0152901   0.0000000), wk =   0.1111111
        k(   19) = (  -0.0794497   0.0152901   0.0000000), wk =   0.1111111
        k(   20) = (  -0.0794497  -0.1376109   0.0000000), wk =   0.0555556

     Largest allocated arrays     est. size (Mb)     dimensions
     Largest temporary arrays     est. size (Mb)     dimensions

     Initial potential from superposition of free atoms
     Check: negative starting charge=   -0.549263

     starting charge  146.97246, renormalised to  147.00000

     negative rho (up, down):  5.494E-01 0.000E+00

     *
     * You are using vdW-DF for exchange-correlation in this calculation.
     * Please cite the following three references that made this development
     * possible:
     *
     *   M. Dion, H. Rydberg, E. Schroder, D. C. Langreth, and
     *   B. I. Lundqvist, Phys. Rev. Lett. 92, 246401 (2004).
     *
     *   T. Thonhauser, V. R. Cooper, S. Li, A. Puzder, P. Hyldgaard, and
     *   D. C. Langreth, Phys. Rev. B 76, 125112 (2007).
     *
     *   G. Roman-Perez and J. M. Soler, Phys. Rev. Lett. 103, 096102 (2009).
     *
     *
     * If you are using vdW-DF2, please also cite:
     *
     *   K. Lee, E. D. Murray, L. Kong, B. I. Lundqvist, and
     *   D. C. Langreth, Phys. Rev. B 82, 081101(R) (2010).
     *
     *
     * If you are calculating the stress with vdW-DF, please also cite:
     *
     *   R. Sabatini, E. Kucukbenli, B. Kolb, T. Thonhauser, and
     *   S. de Gironcoli, J. Phys.: Condens. Matter 24, 424209 (2012).
     *

     Carrying out vdW-DF run using the following parameters:

     Nqs =      20    Nr_points =    1024   r_max =   100.000
     q_mesh =
               0.00001000     0.04494208     0.09755937     0.15916263
               0.23128650     0.31572767     0.41458969     0.53033537
               0.66584808     0.82450364     1.01025438     1.22772762
               1.48234092     1.78043706     2.12944203     2.53805004
               3.01644009     3.57652955     4.23227104     5.00000000

     Gradients computed in reciprocal space

     Adding external electric field

     Computed dipole along edir(3) :
        Dipole                0.0000 Ry au,          0.0000 Debye
        Dipole field          0.0000 Ry au

        Potential amp.       -0.0000 Ry
        Total length         46.3172 bohr

     Starting wfc are  156 randomized atomic wfcs

     Self-consistent Calculation

     iteration #  1     ecut=    36.75 Ry     beta=0.10
     Davidson diagonalization with overlap
     ethr =  1.00E-02,  avg # of iterations =  2.0

[...]

     total energy              =   -1252.19680945 Ry
     Harris-Foulkes estimate   =   -1253.96283746 Ry
     estimated scf accuracy    <       9.94997343 Ry

[...]

     iteration #  9     ecut=    36.75 Ry     beta=0.10
     Davidson diagonalization with overlap
     c_bands:  1 eigenvalues not converged
     c_bands:  1 eigenvalues not converged
     ethr =  1.07E-05,  avg # of iterations =  8.4

[...]

     End of self-consistent calculation

          k = 0.0000 0.0000 0.0000 ( 21907 PWs)   bands (ev):

   -53.5120 -53.5119 -53.4957 -47.6750 -47.6706 -47.5887 -47.5887 -47.5876
   -47.5875 -47.3548 -47.2749 -47.2746 -29.5666 -29.5565 -29.5278 -29.5278
   -29.5222 -29.5222 -29.5136 -29.5136 -29.5092 -26.0687 -26.0278 -25.8515
   -25.7896 -25.7895 -25.7293 -25.7292 -25.7053 -25.7053 -25.6964 -25.6707
   -25.6011 -25.6011 -25.3932 -25.3781 -25.3781 -25.3704 -25.2691 -25.2690
   -25.2553 -25.2553 -25.2087 -25.1774 -25.1773 -25.0608 -24.9779 -24.9778
    -3.5405  -2.3960  -1.6452  -1.2985  -1.2460  -1.2460  -1.1306  -1.0746
    -1.0746  -0.6748  -0.6450  -0.6450  -0.5416  -0.5416  -0.5241   0.3934
     0.3934   0.4322   1.2519   1.4627   1.4627   1.4664   1.6048   1.8928
     2.0466   2.2429   2.2430   2.2686   2.2686   2.3525   2.4475   2.4475
     2.4975   2.4975   2.5267   2.5267   2.7602   2.8293   2.8954   2.8954
     3.5216   3.5433   3.5433   3.6496   3.6496   4.1221   4.3528   4.3779
     4.3779   4.7687   4.7687   4.8103   4.8103   5.1635   5.3079

[...]

          k =-0.0794-0.0459 0.0000 ( 21852 PWs)   bands (ev):

[...]

     the Fermi energy is     1.5416 ev

!    total energy              =   -1253.12707570 Ry
     Harris-Foulkes estimate   =   -1253.12707575 Ry
     estimated scf accuracy    <       0.00000015 Ry

     The total energy is the sum of the following terms:

     one-electron contribution =   -8935.35844167 Ry
     hartree contribution      =    4458.57912499 Ry
     xc contribution           =    -222.39566248 Ry
     ewald contribution        =    3446.17217791 Ry
     electric field correction =       0.00000000 Ry
     smearing contrib. (-TS)   =      -0.12427445 Ry

     convergence has been achieved in  19 iterations

 BEEF-vdW xc energy contributions
           1 :   -190.592407645219
           2 :    172.792770639304
           3 :   -142.646811484672
           4 :    108.507723611061
           5 :   -78.1207720016710
           6 :    55.8861960162231
           7 :   -42.0528528136412
           8 :    33.8422775264783
           9 :   -27.6062036273183
          10 :    20.7847087911598
          11 :   -12.8092496487481
[...]
     MD5 check sum: 5db81b1e868ab7776c4564c113de050b
     Pseudo is Ultrasoft + core correction, Zval = 12.0
     Generated by new atomic code, or converted to UPF format
     Using radial grid of  887 points,  6 beta functions with:
                l(1) =   0
                l(2) =   0
                l(3) =   1
                l(4) =   1
                l(5) =   2
                l(6) =   2
     Q(r) pseudized with  6 coefficients,  rinner =    1.200   1.200   1.200
                                                       1.200   1.200

     PseudoPot. # 2 for Nb read from file:
     /afs/slac.stanford.edu/u/if/mamunm/psp/gbrv1.5pbe/Nb.UPF
     MD5 check sum: 573aab8a2fa660278ed4a62cd769473f
     Pseudo is Ultrasoft + core correction, Zval = 13.0
     Generated by new atomic code, or converted to UPF format
     Using radial grid of  887 points,  6 beta functions with:
                l(1) =   0
                l(2) =   0
                l(3) =   1
                l(4) =   1
                l(5) =   2
                l(6) =   2
     Q(r) pseudized with  6 coefficients,  rinner =    1.000   1.000   1.000
                                                       1.000   1.000

     vdW kernel table read from file vdW_kernel_table
     MD5 check sum: 095c7af220d748ca6e76c0b4c6cfb241

     atomic species   valence    mass     pseudopotential
        Zr1           12.00    91.22400     Zr( 1.00)
        Nb1           13.00    92.90637     Nb( 1.00)

     No symmetry found

   Cartesian axes

     site n.     atom                  positions (alat units)
         1           Zr1 tau(   1) = (   0.0000000   0.0000000  10.0000000  )
         2           Zr1 tau(   2) = (  -1.5733231   2.7250756  10.0000000  )
         3           Zr1 tau(   3) = (   1.5733231   2.7250756  10.0000000  )
         4           Nb1 tau(   4) = (   3.1466463   0.0000000  10.0000000  )
         5           Zr1 tau(   5) = (   3.1466463   1.8167171  12.5692259  )
         6           Zr1 tau(   6) = (   1.5733231   4.5417927  12.5692259  )
         7           Zr1 tau(   7) = (  -1.5733231   4.5417927  12.5692259  )
         8           Nb1 tau(   8) = (   0.0000000   1.8167171  12.5692259  )
         9           Zr1 tau(   9) = (  -0.0000123   3.5856911  15.0939709  )
        10           Zr1 tau(  10) = (   1.5319744   0.9322271  15.0939581  )
        11           Zr1 tau(  11) = (   4.7613104   0.9322334  15.0939787  )
        12           Nb1 tau(  12) = (   3.1466477   3.6335036  14.8910860  )

     number of k points=    20  Fermi-Dirac smearing, width (Ry)=  0.0110
                       cart. coord. in units 2pi/alat
        k(    1) = (   0.0000000   0.0000000   0.0000000), wk =   0.0555556
        k(    2) = (   0.0000000   0.0305802   0.0000000), wk =   0.1111111
        k(    3) = (   0.0000000   0.0611604   0.0000000), wk =   0.1111111
        k(    4) = (   0.0000000  -0.0917406   0.0000000), wk =   0.0555556
        k(    5) = (   0.0264832   0.0152901   0.0000000), wk =   0.1111111
        k(    6) = (   0.0264832   0.0458703   0.0000000), wk =   0.1111111
        k(    7) = (   0.0264832   0.0764505   0.0000000), wk =   0.1111111
        k(    8) = (   0.0264832  -0.0764505   0.0000000), wk =   0.1111111
        k(    9) = (   0.0264832  -0.0458703   0.0000000), wk =   0.1111111
        k(   10) = (   0.0264832  -0.0152901   0.0000000), wk =   0.1111111
        k(   11) = (   0.0529664   0.0305802   0.0000000), wk =   0.1111111
        k(   12) = (   0.0529664   0.0611604   0.0000000), wk =   0.1111111
        k(   13) = (   0.0529664   0.0917406   0.0000000), wk =   0.1111111
        k(   14) = (   0.0529664  -0.0611604   0.0000000), wk =   0.1111111
        k(   15) = (   0.0529664  -0.0305802   0.0000000), wk =   0.1111111
        k(   16) = (   0.0529664  -0.0000000   0.0000000), wk =   0.1111111
        k(   17) = (  -0.0794497  -0.0458703   0.0000000), wk =   0.0555556
        k(   18) = (  -0.0794497  -0.0152901   0.0000000), wk =   0.1111111
        k(   19) = (  -0.0794497   0.0152901   0.0000000), wk =   0.1111111
        k(   20) = (  -0.0794497  -0.1376109   0.0000000), wk =   0.0555556

     Largest allocated arrays     est. size (Mb)     dimensions
     Largest temporary arrays     est. size (Mb)     dimensions

     Initial potential from superposition of free atoms
     Check: negative starting charge=   -0.549464

     starting charge  146.97246, renormalised to  147.00000

[...]

     *
     * You are using vdW-DF for exchange-correlation in this calculation.
     * Please cite the following three references that made this development
     * possible:
     *
     *   M. Dion, H. Rydberg, E. Schroder, D. C. Langreth, and
     *   B. I. Lundqvist, Phys. Rev. Lett. 92, 246401 (2004).
     *
     *   T. Thonhauser, V. R. Cooper, S. Li, A. Puzder, P. Hyldgaard, and
     *   D. C. Langreth, Phys. Rev. B 76, 125112 (2007).
     *
     *   G. Roman-Perez and J. M. Soler, Phys. Rev. Lett. 103, 096102 (2009).
     *
     *
     * If you are using vdW-DF2, please also cite:
     *
     *   K. Lee, E. D. Murray, L. Kong, B. I. Lundqvist, and
     *   D. C. Langreth, Phys. Rev. B 82, 081101(R) (2010).
     *
     *
     * If you are calculating the stress with vdW-DF, please also cite:
     *
     *   R. Sabatini, E. Kucukbenli, B. Kolb, T. Thonhauser, and
     *   S. de Gironcoli, J. Phys.: Condens. Matter 24, 424209 (2012).
     *

     Carrying out vdW-DF run using the following parameters:

     Nqs =      20    Nr_points =    1024   r_max =   100.000
     q_mesh =
               0.00001000     0.04494208     0.09755937     0.15916263
               0.23128650     0.31572767     0.41458969     0.53033537
               0.66584808     0.82450364     1.01025438     1.22772762
               1.48234092     1.78043706     2.12944203     2.53805004
               3.01644009     3.57652955     4.23227104     5.00000000

     Gradients computed in reciprocal space

[...]

     Starting wfc are  156 randomized atomic wfcs

     Self-consistent Calculation

[...]

     iteration # 10     ecut=    36.75 Ry     beta=0.10
     Davidson diagonalization with overlap
     c_bands:  1 eigenvalues not converged
     ethr =  2.20E-06,  avg # of iterations =  8.6

[...]

     total energy              =   -1253.13786913 Ry
     Harris-Foulkes estimate   =   -1253.13786778 Ry
     estimated scf accuracy    <       0.00000185 Ry

     iteration # 18     ecut=    36.75 Ry     beta=0.10
     Davidson diagonalization with overlap
     ethr =  1.26E-09,  avg # of iterations =  2.2

[...]

     negative rho (up, down):  5.642E-01 0.000E+00

     Adding external electric field

     Computed dipole along edir(3) :
        Dipole                0.0488 Ry au,          0.1241 Debye
        Dipole field          0.0001 Ry au

        Potential amp.       -0.0098 Ry
        Total length         46.3172 bohr

     End of self-consistent calculation

[...]

          k = 0.0530-0.0000 0.0000 ( 21915 PWs)   bands (ev):

[...]

          k =-0.0794-0.1376 0.0000 ( 21852 PWs)   bands (ev):

   -53.4766 -53.4669 -53.3740 -47.6405 -47.6132 -47.6032 -47.5847 -47.5772
   -47.5564 -47.2511 -47.2243 -47.1971 -29.5245 -29.4905 -29.4890 -29.4834
   -29.4778 -29.4749 -29.4337 -29.4152 -29.4053 -25.8976 -25.8538 -25.7935
   -25.7299 -25.6996 -25.6729 -25.6516 -25.6198 -25.6132 -25.5949 -25.5889
   -25.5634 -25.5483 -25.5334 -25.5171 -25.5047 -25.4449 -25.2913 -25.2692
   -25.2255 -25.1977 -25.1583 -25.1319 -25.1273 -25.1137 -25.0948 -24.9310
    -2.0773  -2.0363  -1.1051  -1.0927  -0.5325  -0.5074  -0.4429  -0.4360
    -0.3899  -0.3507   0.2156   0.2320   0.2850   0.3432   0.4435   0.4465
     0.7404   0.7570   0.8649   0.8879   0.9140   1.0109   1.1660   1.2847
     1.2866   1.3371   1.4629   1.5194   1.5952   1.5994   1.7234   1.8493
     1.8723   2.1240   2.2045   2.2867   2.3819   2.4308   2.8411   2.8899
     3.0514   3.3258   3.3469   3.5262   3.6018   3.6427   3.7393   3.9313
     3.9323   3.9546   4.0957   4.2294   4.3140   4.3208   4.4186

     the Fermi energy is     1.5655 ev

!    total energy              =   -1253.13786925 Ry
     Harris-Foulkes estimate   =   -1253.13786854 Ry
     estimated scf accuracy    <       0.00000055 Ry

     The total energy is the sum of the following terms:

     one-electron contribution =   -9061.45127773 Ry
     hartree contribution      =    4521.86516717 Ry
     xc contribution           =    -222.54837482 Ry
     ewald contribution        =    3509.11711068 Ry
     electric field correction =       0.00000515 Ry
     smearing contrib. (-TS)   =      -0.12049969 Ry

     convergence has been achieved in  18 iterations

 BEEF-vdW xc energy contributions
           1 :   -190.758924172439
           2 :    173.008173154197
           3 :   -142.917383355699
           4 :    108.784131549116
           5 :   -78.3236881450200
           6 :    55.9560667463652
           7 :   -41.9918417631474
           8 :    33.7192123359132
           9 :   -27.5180260315987
          10 :    20.7985132502776
          11 :   -12.9223564442503
          12 :    4.91440735319674
          13 :    1.59894988756071
          14 :   -5.52341508208553
          15 :    6.89580397167543
          16 :   -6.73617856943008
          17 :    6.36088369549708
          18 :   -6.63380219961874
          19 :    7.59125757141311
          20 :   -8.60753939164289
          21 :    8.92127983497409
          22 :   -8.16081311369044
          23 :    6.55406161846525
          24 :   -4.74681376443738
          25 :    3.39151384078087
          26 :   -2.78445366098595
          27 :    2.75692419182229
          28 :   -2.85382641364657
          29 :    2.65624204750401
          30 :   -2.03841121948156
          31 :   -22.0214474256594
          32 :   -16.4947726911790

     Forces acting on atoms (Ry/au):

     negative rho (up, down):  5.642E-01 0.000E+00
     atom    1 type  1   force =     0.00000182    0.00895558    0.00483396
     atom    2 type  1   force =     0.00775651   -0.00447734    0.00483230
     atom    3 type  1   force =    -0.00775631   -0.00447937    0.00483314
     atom    4 type  2   force =    -0.00000075    0.00000009    0.02711509
     atom    5 type  1   force =    -0.00000089   -0.01119105   -0.01195760
     atom    6 type  1   force =    -0.00969645    0.00559589   -0.01196157
     atom    7 type  1   force =     0.00969652    0.00559729   -0.01196580
     atom    8 type  2   force =     0.00000022    0.00000663   -0.00376620
     atom    9 type  1   force =     0.00000089    0.00046559   -0.00039389
     atom   10 type  1   force =     0.00040442   -0.00023115   -0.00039131
     atom   11 type  1   force =    -0.00040549   -0.00023247   -0.00039289
     atom   12 type  2   force =    -0.00000050   -0.00000970   -0.00078524

     Total force =     0.043209     Total SCF correction =     0.003381

     entering subroutine stress ...

     negative rho (up, down):  5.642E-01 0.000E+00
          total   stress  (Ry/bohr**3)                   (kbar)     P=   -9.25
  -0.00007593  -0.00000000   0.00000000        -11.17     -0.00      0.00
  -0.00000000  -0.00007593   0.00000000         -0.00    -11.17      0.00
   0.00000000   0.00000000  -0.00003683          0.00      0.00     -5.42

 !ASE

     Writing output data file calc.save

     General routines

     Parallel routines

   This run was terminated on:  21:33:55   2Jan2019

   JOB DONE.
Job  /afs/slac/g/suncat/bin/suncat-tsmpirun -x LD_LIBRARY_PATH -wdir /scratch/qe649551_HZ1iX pw.x -in pw.inp

TID   HOST_NAME   COMMAND_LINE            STATUS            TERMINATION_TIME
00000 suncat0078 pw.x -in pw.inp   Done                     01/02/2019 21:33:55
00001 suncat0078 pw.x -in pw.inp   Done                     01/02/2019 21:33:55
00002 suncat0078 pw.x -in pw.inp   Done                     01/02/2019 21:33:55
00003 suncat0078 pw.x -in pw.inp   Done                     01/02/2019 21:33:55
00004 suncat0078 pw.x -in pw.inp   Done                     01/02/2019 21:33:55
00005 suncat0078 pw.x -in pw.inp   Done                     01/02/2019 21:33:55
00006 suncat0078 pw.x -in pw.inp   Done                     01/02/2019 21:33:55
00007 suncat0078 pw.x -in pw.inp   Done                     01/02/2019 21:33:55
00008 suncat0077 pw.x -in pw.inp   Done                     01/02/2019 21:33:55
00009 suncat0077 pw.x -in pw.inp   Done                     01/02/2019 21:33:55
00010 suncat0077 pw.x -in pw.inp   Done                     01/02/2019 21:33:55
00011 suncat0077 pw.x -in pw.inp   Done                     01/02/2019 21:33:55
00012 suncat0077 pw.x -in pw.inp   Done                     01/02/2019 21:33:55
00013 suncat0077 pw.x -in pw.inp   Done                     01/02/2019 21:33:55
00014 suncat0077 pw.x -in pw.inp   Done                     01/02/2019 21:33:55
00015 suncat0077 pw.x -in pw.inp   Done                     01/02/2019 21:33:55
00016 suncat0076 pw.x -in pw.inp   Done                     01/02/2019 21:33:55
00017 suncat0076 pw.x -in pw.inp   Done                     01/02/2019 21:33:55
00018 suncat0076 pw.x -in pw.inp   Done                     01/02/2019 21:33:55
00019 suncat0076 pw.x -in pw.inp   Done                     01/02/2019 21:33:55
00020 suncat0076 pw.x -in pw.inp   Done                     01/02/2019 21:33:55
00021 suncat0076 pw.x -in pw.inp   Done                     01/02/2019 21:33:55
00022 suncat0076 pw.x -in pw.inp   Done                     01/02/2019 21:33:55
00023 suncat0076 pw.x -in pw.inp   Done                     01/02/2019 21:33:55
00024 suncat0074 pw.x -in pw.inp   Done                     01/02/2019 21:33:55
00025 suncat0074 pw.x -in pw.inp   Done                     01/02/2019 21:33:55
00026 suncat0074 pw.x -in pw.inp   Done                     01/02/2019 21:33:55
00027 suncat0074 pw.x -in pw.inp   Done                     01/02/2019 21:33:55
00028 suncat0074 pw.x -in pw.inp   Done                     01/02/2019 21:33:55
00029 suncat0074 pw.x -in pw.inp   Done                     01/02/2019 21:33:55
00030 suncat0074 pw.x -in pw.inp   Done                     01/02/2019 21:33:55
00031 suncat0074 pw.x -in pw.inp   Done                     01/02/2019 21:33:55
00032 suncat0073 pw.x -in pw.inp   Done                     01/02/2019 21:33:55
00033 suncat0073 pw.x -in pw.inp   Done                     01/02/2019 21:33:55
00034 suncat0073 pw.x -in pw.inp   Done                     01/02/2019 21:33:55
00035 suncat0073 pw.x -in pw.inp   Done                     01/02/2019 21:33:55
00036 suncat0073 pw.x -in pw.inp   Done                     01/02/2019 21:33:55
00037 suncat0073 pw.x -in pw.inp   Done                     01/02/2019 21:33:55
00038 suncat0073 pw.x -in pw.inp   Done                     01/02/2019 21:33:55
00039 suncat0073 pw.x -in pw.inp   Done                     01/02/2019 21:33:55
00040 suncat0069 pw.x -in pw.inp   Done                     01/02/2019 21:33:55
00041 suncat0069 pw.x -in pw.inp   Done                     01/02/2019 21:33:55
00042 suncat0069 pw.x -in pw.inp   Done                     01/02/2019 21:33:55
00043 suncat0069 pw.x -in pw.inp   Done                     01/02/2019 21:33:55
00044 suncat0069 pw.x -in pw.inp   Done                     01/02/2019 21:33:55
00045 suncat0069 pw.x -in pw.inp   Done                     01/02/2019 21:33:55
00046 suncat0069 pw.x -in pw.inp   Done                     01/02/2019 21:33:55
00047 suncat0069 pw.x -in pw.inp   Done                     01/02/2019 21:33:55
00048 suncat0165 pw.x -in pw.inp   Done                     01/02/2019 21:33:55
00049 suncat0165 pw.x -in pw.inp   Done                     01/02/2019 21:33:55
00050 suncat0165 pw.x -in pw.inp   Done                     01/02/2019 21:33:55
00051 suncat0165 pw.x -in pw.inp   Done                     01/02/2019 21:33:55
00052 suncat0165 pw.x -in pw.inp   Done                     01/02/2019 21:33:55
00053 suncat0165 pw.x -in pw.inp   Done                     01/02/2019 21:33:55
00054 suncat0165 pw.x -in pw.inp   Done                     01/02/2019 21:33:55
00055 suncat0165 pw.x -in pw.inp   Done                     01/02/2019 21:33:55
00056 suncat0164 pw.x -in pw.inp   Done                     01/02/2019 21:33:55
00057 suncat0164 pw.x -in pw.inp   Done                     01/02/2019 21:33:55
00058 suncat0164 pw.x -in pw.inp   Done                     01/02/2019 21:33:55
00059 suncat0164 pw.x -in pw.inp   Done                     01/02/2019 21:33:55
00060 suncat0164 pw.x -in pw.inp   Done                     01/02/2019 21:33:55
00061 suncat0164 pw.x -in pw.inp   Done                     01/02/2019 21:33:55
00062 suncat0164 pw.x -in pw.inp   Done                     01/02/2019 21:33:55
00063 suncat0164 pw.x -in pw.inp   Done                     01/02/2019 21:33:55