     Program PWSCF v.5.1rc2 (svn rev. 11289) starts on 28Dec2018 at  1: 5:16

     Current dimensions of program PWSCF are:
     Max number of different atomic species (ntypx) = 10
     Max number of k-points (npk) =  40000
     Max angular momentum in pseudopotentials (lmaxx) =  3
     Presently stress not available with electric field

     IMPORTANT: XC functional enforced from input :
     Exchange-correlation      = BEEF-VDW ( 1  4 27 13 2)
     Any further DFT definition will be discarded
     Please, verify this is what you really want

     Subspace diagonalization in iterative solution of the eigenvalue problem:
     a serial algorithm will be used

     bravais-lattice index     =            0
     lattice parameter (alat)  =       1.8897  a.u.
     unit-cell volume          =    4879.6971 (a.u.)^3
     number of atoms/cell      =           12
     number of atomic types    =            2
     number of electrons       =       177.00
     number of Kohn-Sham states=          118
     kinetic-energy cutoff     =      36.7493  Ry
     charge density cutoff     =     367.4932  Ry
     convergence threshold     =      1.0E-06
     mixing beta               =       0.1000
     number of iterations used =           10  plain     mixing
     Exchange-correlation      = BEEF-VDW ( 1  4 27 13 2)
     nstep                     =           50

     celldm(1)=   1.889726  celldm(2)=   0.000000  celldm(3)=   0.000000
     celldm(4)=   0.000000  celldm(5)=   0.000000  celldm(6)=   0.000000

     crystal axes: (cart. coord. in units of alat)
               a(1) = (   5.809061   0.000000   0.000000 )
               a(2) = (  -2.904531   5.030795   0.000000 )
               a(3) = (   0.000000   0.000000  24.743079 )

     reciprocal axes: (cart. coord. in units 2 pi/alat)
               b(1) = (  0.172145  0.099388  0.000000 )
               b(2) = (  0.000000  0.198776  0.000000 )
               b(3) = (  0.000000  0.000000  0.040415 )

     PseudoPot. # 1 for Ta read from file:
     /afs/slac.stanford.edu/u/if/mamunm/psp/gbrv1.5pbe/Ta.UPF
     MD5 check sum: f8bbe9446314a3b8ea5d9f3e3836c939
     Pseudo is Ultrasoft + core correction, Zval = 13.0
     Generated by new atomic code, or converted to UPF format
     Using radial grid of  921 points,  7 beta functions with:
                l(1) =   0
                l(2) =   0
                l(3) =   1
                l(4) =   1
                l(5) =   2
                l(6) =   2
                l(7) =   3
     Q(r) pseudized with  6 coefficients,  rinner =    1.300   1.300   1.300
                                                       1.300   1.300   1.300
                                                       1.300

     PseudoPot. # 2 for Zn read from file:
     /afs/slac.stanford.edu/u/if/mamunm/psp/gbrv1.5pbe/Zn.UPF
     MD5 check sum: df62231357ef9e81f77b2b3087fa5675
     Pseudo is Ultrasoft, Zval = 20.0
     Generated by new atomic code, or converted to UPF format
     Using radial grid of  943 points,  6 beta functions with:
                l(1) =   0
                l(2) =   0
                l(3) =   1
                l(4) =   1
                l(5) =   2
                l(6) =   2
     Q(r) pseudized with  8 coefficients,  rinner =    1.100   1.100   1.100
                                                       1.100   1.100

     vdW kernel table read from file vdW_kernel_table
     MD5 check sum: 095c7af220d748ca6e76c0b4c6cfb241

     atomic species   valence    mass     pseudopotential
        Ta1           13.00   180.94788     Ta( 1.00)
        Zn1           20.00    65.38000     Zn( 1.00)

     No symmetry found

   Cartesian axes

     site n.     atom                  positions (alat units)
         1           Ta1 tau(   1) = (   0.0000000   0.0000000  10.0000000  )
         2           Ta1 tau(   2) = (  -1.4522653   2.5153973  10.0000000  )
         3           Ta1 tau(   3) = (   1.4522653   2.5153973  10.0000000  )
         4           Zn1 tau(   4) = (   2.9045306   0.0000000  10.0000000  )
         5           Ta1 tau(   5) = (   2.9045306   1.6769315  12.3715393  )
         6           Ta1 tau(   6) = (   1.4522653   4.1923288  12.3715393  )
         7           Ta1 tau(   7) = (  -1.4522653   4.1923288  12.3715393  )
         8           Zn1 tau(   8) = (   0.0000000   1.6769315  12.3715393  )
         9           Ta1 tau(   9) = (  -0.0000000   3.3538630  14.7430786  )
        10           Ta1 tau(  10) = (   1.4522653   0.8384658  14.7430786  )
        11           Ta1 tau(  11) = (   4.3567959   0.8384658  14.7430786  )
        12           Zn1 tau(  12) = (   2.9045306   3.3538630  14.7430786  )

     number of k points=    20  Fermi-Dirac smearing, width (Ry)=  0.0110
                       cart. coord. in units 2pi/alat
        k(    1) = (   0.0000000   0.0000000   0.0000000), wk =   0.0555556
        k(    2) = (   0.0000000   0.0331293   0.0000000), wk =   0.1111111
        k(    3) = (   0.0000000   0.0662586   0.0000000), wk =   0.1111111
        k(    4) = (   0.0000000  -0.0993879   0.0000000), wk =   0.0555556
        k(    5) = (   0.0286908   0.0165646   0.0000000), wk =   0.1111111
        k(    6) = (   0.0286908   0.0496939   0.0000000), wk =   0.1111111
        k(    7) = (   0.0286908   0.0828232   0.0000000), wk =   0.1111111
        k(    8) = (   0.0286908  -0.0828232   0.0000000), wk =   0.1111111
        k(    9) = (   0.0286908  -0.0496939   0.0000000), wk =   0.1111111
        k(   10) = (   0.0286908  -0.0165646   0.0000000), wk =   0.1111111
        k(   11) = (   0.0573816   0.0331293   0.0000000), wk =   0.1111111
        k(   12) = (   0.0573816   0.0662586   0.0000000), wk =   0.1111111
        k(   13) = (   0.0573816   0.0993879   0.0000000), wk =   0.1111111
        k(   14) = (   0.0573816  -0.0662586   0.0000000), wk =   0.1111111
        k(   15) = (   0.0573816  -0.0331293   0.0000000), wk =   0.1111111
        k(   16) = (   0.0573816   0.0000000   0.0000000), wk =   0.1111111
        k(   17) = (  -0.0860724  -0.0496939   0.0000000), wk =   0.0555556
        k(   18) = (  -0.0860724  -0.0165646   0.0000000), wk =   0.1111111
        k(   19) = (  -0.0860724   0.0165646   0.0000000), wk =   0.1111111
        k(   20) = (  -0.0860724  -0.1490818   0.0000000), wk =   0.0555556

     Largest allocated arrays     est. size (Mb)     dimensions
     Largest temporary arrays     est. size (Mb)     dimensions

     Initial potential from superposition of free atoms
     Check: negative starting charge=   -0.839004

     starting charge  176.98957, renormalised to  177.00000

     negative rho (up, down):  8.391E-01 0.000E+00

     *
     * You are using vdW-DF for exchange-correlation in this calculation.
     * Please cite the following three references that made this development
     * possible:
     *
     *   M. Dion, H. Rydberg, E. Schroder, D. C. Langreth, and
     *   B. I. Lundqvist, Phys. Rev. Lett. 92, 246401 (2004).
     *
     *   T. Thonhauser, V. R. Cooper, S. Li, A. Puzder, P. Hyldgaard, and
     *   D. C. Langreth, Phys. Rev. B 76, 125112 (2007).
     *
     *   G. Roman-Perez and J. M. Soler, Phys. Rev. Lett. 103, 096102 (2009).
     *
     *
     * If you are using vdW-DF2, please also cite:
     *
     *   K. Lee, E. D. Murray, L. Kong, B. I. Lundqvist, and
     *   D. C. Langreth, Phys. Rev. B 82, 081101(R) (2010).
     *
     *
     * If you are calculating the stress with vdW-DF, please also cite:
     *
     *   R. Sabatini, E. Kucukbenli, B. Kolb, T. Thonhauser, and
     *   S. de Gironcoli, J. Phys.: Condens. Matter 24, 424209 (2012).
     *

     Carrying out vdW-DF run using the following parameters:

     Nqs =      20    Nr_points =    1024   r_max =   100.000
     q_mesh =
               0.00001000     0.04494208     0.09755937     0.15916263
               0.23128650     0.31572767     0.41458969     0.53033537
               0.66584808     0.82450364     1.01025438     1.22772762
               1.48234092     1.78043706     2.12944203     2.53805004
               3.01644009     3.57652955     4.23227104     5.00000000

     Gradients computed in reciprocal space

     Adding external electric field

     Computed dipole along edir(3) :
        Dipole               -0.0000 Ry au,         -0.0000 Debye
        Dipole field         -0.0000 Ry au

        Potential amp.        0.0000 Ry
        Total length         45.5887 bohr

     Starting wfc are  156 randomized atomic wfcs

     Self-consistent Calculation

     iteration #  1     ecut=    36.75 Ry     beta=0.10
     Davidson diagonalization with overlap
     ethr =  1.00E-02,  avg # of iterations =  2.0

[...]

     total energy              =   -2676.78905611 Ry
     Harris-Foulkes estimate   =   -2677.36396584 Ry
     estimated scf accuracy    <       3.41048389 Ry

[...]

     End of self-consistent calculation

          k = 0.0000 0.0000 0.0000 ( 18415 PWs)   bands (ev):

  -124.4420-124.4420-124.4073 -78.6099 -78.6099 -78.6099 -78.6099 -78.6046
   -78.6046 -78.5755 -78.5755 -78.5659 -66.6902 -66.6869 -66.6289 -66.6289
   -66.6281 -66.6281 -66.4528 -66.3954 -66.3954 -33.4730 -33.4062 -33.3212
   -33.2654 -33.2654 -33.2528 -33.2172 -33.2172 -33.1903 -33.1903 -33.1251
   -33.0185 -33.0185 -32.8831 -32.8831 -32.8187 -32.7775 -32.6175 -32.6174
   -32.6087 -32.5566 -32.5566 -32.5484 -32.5484 -32.5437 -32.3915 -32.3915
    -6.4047  -5.5250  -5.5250  -5.5179  -5.5074  -5.5016  -5.5016  -5.4624
    -5.4624  -5.4179  -5.4179  -5.4022  -5.3227  -5.3227  -5.2788  -5.2788
    -4.5624  -3.8752  -2.8612  -2.3783  -2.2738  -1.3191  -1.3191  -0.7474
    -0.6976  -0.6976  -0.5395  -0.5395  -0.5266  -0.3176  -0.3176   0.5303
     0.5303   0.9500   1.0479   1.5009   1.5009   1.6946   1.7525   1.7525
     2.0214   2.1378   2.1378   2.4386   2.4565   2.5028   2.5028   3.3056
     4.0225   4.0225   4.2037   4.2291   4.2819   4.2819   4.5011   4.5011
     4.8711   4.8711   4.9376   4.9376   5.0374   5.5124   5.5124   5.6409
     5.6409   5.7065   5.7882   5.7882   5.8279   6.5830

[...]

          k =-0.0861-0.0497 0.0000 ( 18288 PWs)   bands (ev):

[...]

     the Fermi energy is     1.6457 ev

!    total energy              =   -2676.99414342 Ry
     Harris-Foulkes estimate   =   -2676.99935149 Ry
     estimated scf accuracy    <       0.00000048 Ry

     The total energy is the sum of the following terms:

     one-electron contribution =  -16727.37440297 Ry
     hartree contribution      =    8347.35916094 Ry
     xc contribution           =    -522.44031902 Ry
     ewald contribution        =    6225.54873358 Ry
     electric field correction =       0.00000000 Ry
     smearing contrib. (-TS)   =      -0.08731595 Ry

     convergence has been achieved in  15 iterations

 BEEF-vdW xc energy contributions
           1 :   -460.838209533595
           2 :    423.716099411384
           3 :   -359.443282148313
           4 :    283.732939709637
           5 :   -211.940192214393
           6 :    154.020569681393
           7 :   -112.593526493400
           8 :    84.4272023128668
           9 :   -63.9661574117021
          10 :    46.7556073306634
          11 :   -31.1124232470653
[...]
     MD5 check sum: f8bbe9446314a3b8ea5d9f3e3836c939
     Pseudo is Ultrasoft + core correction, Zval = 13.0
     Generated by new atomic code, or converted to UPF format
     Using radial grid of  921 points,  7 beta functions with:
                l(1) =   0
                l(2) =   0
                l(3) =   1
                l(4) =   1
                l(5) =   2
                l(6) =   2
                l(7) =   3
     Q(r) pseudized with  6 coefficients,  rinner =    1.300   1.300   1.300
                                                       1.300   1.300   1.300
                                                       1.300

     PseudoPot. # 2 for Zn read from file:
     /afs/slac.stanford.edu/u/if/mamunm/psp/gbrv1.5pbe/Zn.UPF
     MD5 check sum: df62231357ef9e81f77b2b3087fa5675
     Pseudo is Ultrasoft, Zval = 20.0
     Generated by new atomic code, or converted to UPF format
     Using radial grid of  943 points,  6 beta functions with:
                l(1) =   0
                l(2) =   0
                l(3) =   1
                l(4) =   1
                l(5) =   2
                l(6) =   2
     Q(r) pseudized with  8 coefficients,  rinner =    1.100   1.100   1.100
                                                       1.100   1.100

     vdW kernel table read from file vdW_kernel_table
     MD5 check sum: 095c7af220d748ca6e76c0b4c6cfb241

     atomic species   valence    mass     pseudopotential
        Ta1           13.00   180.94788     Ta( 1.00)
        Zn1           20.00    65.38000     Zn( 1.00)

     No symmetry found

   Cartesian axes

     site n.     atom                  positions (alat units)
         1           Ta1 tau(   1) = (   0.0000000   0.0000000  10.0000000  )
         2           Ta1 tau(   2) = (  -1.4522653   2.5153973  10.0000000  )
         3           Ta1 tau(   3) = (   1.4522653   2.5153973  10.0000000  )
         4           Zn1 tau(   4) = (   2.9045306   0.0000000  10.0000000  )
         5           Ta1 tau(   5) = (   2.9045306   1.6769315  12.3715393  )
         6           Ta1 tau(   6) = (   1.4522653   4.1923288  12.3715393  )
         7           Ta1 tau(   7) = (  -1.4522653   4.1923288  12.3715393  )
         8           Zn1 tau(   8) = (   0.0000000   1.6769315  12.3715393  )
         9           Ta1 tau(   9) = (  -0.0000024   3.3318328  14.6374564  )
        10           Ta1 tau(  10) = (   1.4331992   0.8494557  14.6374530  )
        11           Ta1 tau(  11) = (   4.3758558   0.8494540  14.6374532  )
        12           Zn1 tau(  12) = (   2.9045294   3.3538481  14.8940792  )

     number of k points=    20  Fermi-Dirac smearing, width (Ry)=  0.0110
                       cart. coord. in units 2pi/alat
        k(    1) = (   0.0000000   0.0000000   0.0000000), wk =   0.0555556
        k(    2) = (   0.0000000   0.0331293   0.0000000), wk =   0.1111111
        k(    3) = (   0.0000000   0.0662586   0.0000000), wk =   0.1111111
        k(    4) = (   0.0000000  -0.0993879   0.0000000), wk =   0.0555556
        k(    5) = (   0.0286908   0.0165646   0.0000000), wk =   0.1111111
        k(    6) = (   0.0286908   0.0496939   0.0000000), wk =   0.1111111
        k(    7) = (   0.0286908   0.0828232   0.0000000), wk =   0.1111111
        k(    8) = (   0.0286908  -0.0828232   0.0000000), wk =   0.1111111
        k(    9) = (   0.0286908  -0.0496939   0.0000000), wk =   0.1111111
        k(   10) = (   0.0286908  -0.0165646   0.0000000), wk =   0.1111111
        k(   11) = (   0.0573816   0.0331293   0.0000000), wk =   0.1111111
        k(   12) = (   0.0573816   0.0662586   0.0000000), wk =   0.1111111
        k(   13) = (   0.0573816   0.0993879   0.0000000), wk =   0.1111111
        k(   14) = (   0.0573816  -0.0662586   0.0000000), wk =   0.1111111
        k(   15) = (   0.0573816  -0.0331293   0.0000000), wk =   0.1111111
        k(   16) = (   0.0573816   0.0000000   0.0000000), wk =   0.1111111
        k(   17) = (  -0.0860724  -0.0496939   0.0000000), wk =   0.0555556
        k(   18) = (  -0.0860724  -0.0165646   0.0000000), wk =   0.1111111
        k(   19) = (  -0.0860724   0.0165646   0.0000000), wk =   0.1111111
        k(   20) = (  -0.0860724  -0.1490818   0.0000000), wk =   0.0555556

     Largest allocated arrays     est. size (Mb)     dimensions
     Largest temporary arrays     est. size (Mb)     dimensions

     Initial potential from superposition of free atoms
     Check: negative starting charge=   -0.841159

     starting charge  176.98957, renormalised to  177.00000

[...]

     *
     * You are using vdW-DF for exchange-correlation in this calculation.
     * Please cite the following three references that made this development
     * possible:
     *
     *   M. Dion, H. Rydberg, E. Schroder, D. C. Langreth, and
     *   B. I. Lundqvist, Phys. Rev. Lett. 92, 246401 (2004).
     *
     *   T. Thonhauser, V. R. Cooper, S. Li, A. Puzder, P. Hyldgaard, and
     *   D. C. Langreth, Phys. Rev. B 76, 125112 (2007).
     *
     *   G. Roman-Perez and J. M. Soler, Phys. Rev. Lett. 103, 096102 (2009).
     *
     *
     * If you are using vdW-DF2, please also cite:
     *
     *   K. Lee, E. D. Murray, L. Kong, B. I. Lundqvist, and
     *   D. C. Langreth, Phys. Rev. B 82, 081101(R) (2010).
     *
     *
     * If you are calculating the stress with vdW-DF, please also cite:
     *
     *   R. Sabatini, E. Kucukbenli, B. Kolb, T. Thonhauser, and
     *   S. de Gironcoli, J. Phys.: Condens. Matter 24, 424209 (2012).
     *

     Carrying out vdW-DF run using the following parameters:

     Nqs =      20    Nr_points =    1024   r_max =   100.000
     q_mesh =
               0.00001000     0.04494208     0.09755937     0.15916263
               0.23128650     0.31572767     0.41458969     0.53033537
               0.66584808     0.82450364     1.01025438     1.22772762
               1.48234092     1.78043706     2.12944203     2.53805004
               3.01644009     3.57652955     4.23227104     5.00000000

     Gradients computed in reciprocal space

[...]

     Starting wfc are  156 randomized atomic wfcs

     Self-consistent Calculation

[...]

     total energy              =   -2677.01649749 Ry
     Harris-Foulkes estimate   =   -2677.01649873 Ry
     estimated scf accuracy    <       0.00000679 Ry

     iteration # 15     ecut=    36.75 Ry     beta=0.10
     Davidson diagonalization with overlap
     ethr =  3.83E-09,  avg # of iterations =  2.2

[...]

     negative rho (up, down):  8.788E-01 0.000E+00

     Adding external electric field

     Computed dipole along edir(3) :
        Dipole               -0.0105 Ry au,         -0.0267 Debye
        Dipole field         -0.0000 Ry au

        Potential amp.        0.0025 Ry
        Total length         45.5887 bohr

     End of self-consistent calculation

[...]

          k = 0.0574 0.0000 0.0000 ( 18383 PWs)   bands (ev):

[...]

          k =-0.0861-0.1491 0.0000 ( 18288 PWs)   bands (ev):

  -124.4801-124.4732-124.3413 -78.6457 -78.6455 -78.6433 -78.6408 -78.6406
   -78.6364 -78.5132 -78.5130 -78.5012 -66.6939 -66.6741 -66.6540 -66.6079
   -66.5865 -66.5654 -66.4270 -66.4090 -66.3901 -33.3450 -33.3164 -33.2738
   -33.2079 -33.1684 -33.1606 -33.1184 -33.0832 -33.0683 -33.0524 -33.0315
   -32.9923 -32.9839 -32.9721 -32.9399 -32.9246 -32.8855 -32.8357 -32.7310
   -32.7237 -32.7109 -32.6121 -32.5592 -32.5369 -32.5325 -32.4990 -32.4003
    -5.5303  -5.4845  -5.4825  -5.4746  -5.4452  -5.4322  -5.3990  -5.3937
    -5.3698  -5.3493  -5.3337  -5.2589  -5.2545  -5.2304  -5.2144  -4.5954
    -4.4715  -3.1739  -3.0738  -2.4353  -2.0930  -1.8141  -1.3947  -0.7949
    -0.6401  -0.4411  -0.3040  -0.1644  -0.1455  -0.0432   0.1560   0.4829
     0.5886   0.6063   0.6645   0.7464   0.9349   1.0679   1.0890   1.3509
     1.3564   1.5010   1.9161   2.0104   2.0500   2.2358   2.4062   2.5406
     3.0339   3.6164   3.7398   3.7422   3.7977   3.9355   4.0404   4.1104
     4.1825   4.2656   4.4237   4.6813   4.7157   4.8380   4.9132   5.1255
     5.8874   5.9308   6.0329   6.0451   6.6838   6.9063

     the Fermi energy is     1.6206 ev

!    total energy              =   -2677.01650227 Ry
     Harris-Foulkes estimate   =   -2677.01649804 Ry
     estimated scf accuracy    <       0.00000094 Ry

     The total energy is the sum of the following terms:

     one-electron contribution =  -16766.92935209 Ry
     hartree contribution      =    8367.15167360 Ry
     xc contribution           =    -522.58289028 Ry
     ewald contribution        =    6245.42806008 Ry
     electric field correction =       0.00000028 Ry
     smearing contrib. (-TS)   =      -0.08399385 Ry

     convergence has been achieved in  15 iterations

 BEEF-vdW xc energy contributions
           1 :   -461.335539787056
           2 :    424.248189942261
           3 :   -360.016188966559
           4 :    284.311884286315
           5 :   -212.464706485898
           6 :    154.439762562221
           7 :   -112.899882767303
           8 :    84.6658517286272
           9 :   -64.2119642965697
          10 :    47.0710836461529
          11 :   -31.5121507303513
          12 :    18.1280026856178
          13 :   -8.19714882811854
          14 :    2.15156708443919
          15 :   0.924129120805560
          16 :   -2.70453544820651
          17 :    4.58607417326493
          18 :   -6.98454292970490
          19 :    9.36778225002377
          20 :   -10.8706383525819
          21 :    10.9956099867682
          22 :   -9.94366060263474
          23 :    8.43619491953154
          24 :   -7.23732770766571
          25 :    6.73489199334739
          26 :   -6.83090417377207
          27 :    7.14055053177515
          28 :   -7.30099717685289
          29 :    7.16585591395682
          30 :   -6.79463491878408
          31 :   -39.7264478350008
          32 :   -28.9874372303450

     Forces acting on atoms (Ry/au):

     negative rho (up, down):  8.788E-01 0.000E+00
     atom    1 type  1   force =    -0.00000073    0.00718576    0.02014506
     atom    2 type  1   force =     0.00622291   -0.00359315    0.02014486
     atom    3 type  1   force =    -0.00622293   -0.00359244    0.02014518
     atom    4 type  2   force =    -0.00000254    0.00000071   -0.01751598
     atom    5 type  1   force =    -0.00000016    0.00950062   -0.00706889
     atom    6 type  1   force =     0.00822758   -0.00475180   -0.00706937
     atom    7 type  1   force =    -0.00822733   -0.00475123   -0.00706936
     atom    8 type  2   force =     0.00000005   -0.00000104   -0.02133278
     atom    9 type  1   force =     0.00000052   -0.00085048   -0.00064280
     atom   10 type  1   force =    -0.00073627    0.00042627   -0.00064215
     atom   11 type  1   force =     0.00073719    0.00042641   -0.00064157
     atom   12 type  2   force =     0.00000171    0.00000039    0.00154780

     Total force =     0.050604     Total SCF correction =     0.003309

     entering subroutine stress ...

     negative rho (up, down):  8.788E-01 0.000E+00
          total   stress  (Ry/bohr**3)                   (kbar)     P=  -21.04
  -0.00017002  -0.00000000   0.00000000        -25.01     -0.00      0.00
  -0.00000000  -0.00017002   0.00000000         -0.00    -25.01      0.00
   0.00000000   0.00000000  -0.00008907          0.00      0.00    -13.10

 !ASE

     Writing output data file calc.save

     General routines

     Parallel routines

   This run was terminated on:   2:14:33  28Dec2018

   JOB DONE.
Job  /afs/slac/g/suncat/bin/suncat-tsmpirun -x LD_LIBRARY_PATH -wdir /scratch/qe111034_xpnFF pw.x -in pw.inp

TID   HOST_NAME   COMMAND_LINE            STATUS            TERMINATION_TIME
00000 suncat0274 pw.x -in pw.inp   Done                     12/28/2018 02:14:33
00001 suncat0274 pw.x -in pw.inp   Done                     12/28/2018 02:14:33
00002 suncat0274 pw.x -in pw.inp   Done                     12/28/2018 02:14:33
00003 suncat0274 pw.x -in pw.inp   Done                     12/28/2018 02:14:33
00004 suncat0274 pw.x -in pw.inp   Done                     12/28/2018 02:14:33
00005 suncat0274 pw.x -in pw.inp   Done                     12/28/2018 02:14:33
00006 suncat0274 pw.x -in pw.inp   Done                     12/28/2018 02:14:33
00007 suncat0274 pw.x -in pw.inp   Done                     12/28/2018 02:14:33
00008 suncat0273 pw.x -in pw.inp   Done                     12/28/2018 02:14:33
00009 suncat0273 pw.x -in pw.inp   Done                     12/28/2018 02:14:33
00010 suncat0273 pw.x -in pw.inp   Done                     12/28/2018 02:14:33
00011 suncat0273 pw.x -in pw.inp   Done                     12/28/2018 02:14:33
00012 suncat0273 pw.x -in pw.inp   Done                     12/28/2018 02:14:33
00013 suncat0273 pw.x -in pw.inp   Done                     12/28/2018 02:14:33
00014 suncat0273 pw.x -in pw.inp   Done                     12/28/2018 02:14:33
00015 suncat0273 pw.x -in pw.inp   Done                     12/28/2018 02:14:33
00016 suncat0230 pw.x -in pw.inp   Done                     12/28/2018 02:14:33
00017 suncat0230 pw.x -in pw.inp   Done                     12/28/2018 02:14:33
00018 suncat0230 pw.x -in pw.inp   Done                     12/28/2018 02:14:33
00019 suncat0230 pw.x -in pw.inp   Done                     12/28/2018 02:14:33
00020 suncat0230 pw.x -in pw.inp   Done                     12/28/2018 02:14:33
00021 suncat0230 pw.x -in pw.inp   Done                     12/28/2018 02:14:33
00022 suncat0230 pw.x -in pw.inp   Done                     12/28/2018 02:14:33
00023 suncat0230 pw.x -in pw.inp   Done                     12/28/2018 02:14:33
00024 suncat0229 pw.x -in pw.inp   Done                     12/28/2018 02:14:33
00025 suncat0229 pw.x -in pw.inp   Done                     12/28/2018 02:14:33
00026 suncat0229 pw.x -in pw.inp   Done                     12/28/2018 02:14:33
00027 suncat0229 pw.x -in pw.inp   Done                     12/28/2018 02:14:33
00028 suncat0229 pw.x -in pw.inp   Done                     12/28/2018 02:14:33
00029 suncat0229 pw.x -in pw.inp   Done                     12/28/2018 02:14:33
00030 suncat0229 pw.x -in pw.inp   Done                     12/28/2018 02:14:33
00031 suncat0229 pw.x -in pw.inp   Done                     12/28/2018 02:14:33
00032 suncat0209 pw.x -in pw.inp   Done                     12/28/2018 02:14:33
00033 suncat0209 pw.x -in pw.inp   Done                     12/28/2018 02:14:33
00034 suncat0209 pw.x -in pw.inp   Done                     12/28/2018 02:14:33
00035 suncat0209 pw.x -in pw.inp   Done                     12/28/2018 02:14:33
00036 suncat0209 pw.x -in pw.inp   Done                     12/28/2018 02:14:33
00037 suncat0209 pw.x -in pw.inp   Done                     12/28/2018 02:14:33
00038 suncat0209 pw.x -in pw.inp   Done                     12/28/2018 02:14:33
00039 suncat0209 pw.x -in pw.inp   Done                     12/28/2018 02:14:33
00040 suncat0205 pw.x -in pw.inp   Done                     12/28/2018 02:14:33
00041 suncat0205 pw.x -in pw.inp   Done                     12/28/2018 02:14:33
00042 suncat0205 pw.x -in pw.inp   Done                     12/28/2018 02:14:33
00043 suncat0205 pw.x -in pw.inp   Done                     12/28/2018 02:14:33
00044 suncat0205 pw.x -in pw.inp   Done                     12/28/2018 02:14:33
00045 suncat0205 pw.x -in pw.inp   Done                     12/28/2018 02:14:33
00046 suncat0205 pw.x -in pw.inp   Done                     12/28/2018 02:14:33
00047 suncat0205 pw.x -in pw.inp   Done                     12/28/2018 02:14:33
00048 suncat0204 pw.x -in pw.inp   Done                     12/28/2018 02:14:33
00049 suncat0204 pw.x -in pw.inp   Done                     12/28/2018 02:14:33
00050 suncat0204 pw.x -in pw.inp   Done                     12/28/2018 02:14:33
00051 suncat0204 pw.x -in pw.inp   Done                     12/28/2018 02:14:33
00052 suncat0204 pw.x -in pw.inp   Done                     12/28/2018 02:14:33
00053 suncat0204 pw.x -in pw.inp   Done                     12/28/2018 02:14:33
00054 suncat0204 pw.x -in pw.inp   Done                     12/28/2018 02:14:33
00055 suncat0204 pw.x -in pw.inp   Done                     12/28/2018 02:14:33
00056 suncat0203 pw.x -in pw.inp   Done                     12/28/2018 02:14:33
00057 suncat0203 pw.x -in pw.inp   Done                     12/28/2018 02:14:33
00058 suncat0203 pw.x -in pw.inp   Done                     12/28/2018 02:14:33
00059 suncat0203 pw.x -in pw.inp   Done                     12/28/2018 02:14:33
00060 suncat0203 pw.x -in pw.inp   Done                     12/28/2018 02:14:33
00061 suncat0203 pw.x -in pw.inp   Done                     12/28/2018 02:14:33
00062 suncat0203 pw.x -in pw.inp   Done                     12/28/2018 02:14:33
00063 suncat0203 pw.x -in pw.inp   Done                     12/28/2018 02:14:33