     Program PWSCF v.5.1rc2 (svn rev. 11289) starts on 26Dec2018 at  6:44:33

     Current dimensions of program PWSCF are:
     Max number of different atomic species (ntypx) = 10
     Max number of k-points (npk) =  40000
     Max angular momentum in pseudopotentials (lmaxx) =  3
     Presently stress not available with electric field

     IMPORTANT: XC functional enforced from input :
     Exchange-correlation      = BEEF-VDW ( 1  4 27 13 2)
     Any further DFT definition will be discarded
     Please, verify this is what you really want

     Subspace diagonalization in iterative solution of the eigenvalue problem:
     a serial algorithm will be used

     Generating pointlists ...
     new r_m :   0.4125 (alat units)  0.7795 (a.u.) for type    1
     new r_m :   0.4125 (alat units)  0.7795 (a.u.) for type    2

     bravais-lattice index     =            0
     lattice parameter (alat)  =       1.8897  a.u.
     unit-cell volume          =    5254.1348 (a.u.)^3
     number of atoms/cell      =           12
     number of atomic types    =            2
     number of electrons       =       162.00
     number of Kohn-Sham states=          111
     kinetic-energy cutoff     =      36.7493  Ry
     charge density cutoff     =     367.4932  Ry
     convergence threshold     =      1.0E-06
     mixing beta               =       0.1000
     number of iterations used =           10  plain     mixing
     Exchange-correlation      = BEEF-VDW ( 1  4 27 13 2)
     nstep                     =           50

     celldm(1)=   1.889726  celldm(2)=   0.000000  celldm(3)=   0.000000
     celldm(4)=   0.000000  celldm(5)=   0.000000  celldm(6)=   0.000000

     crystal axes: (cart. coord. in units of alat)
               a(1) = (   6.008118   0.000000   0.000000 )
               a(2) = (  -3.004059   5.203182   0.000000 )
               a(3) = (   0.000000   0.000000  24.905607 )

     reciprocal axes: (cart. coord. in units 2 pi/alat)
               b(1) = (  0.166441  0.096095  0.000000 )
               b(2) = (  0.000000  0.192190  0.000000 )
               b(3) = (  0.000000  0.000000  0.040152 )

     PseudoPot. # 1 for Hf read from file:
     /afs/slac.stanford.edu/u/if/mamunm/psp/gbrv1.5pbe/Hf.UPF
     MD5 check sum: 8ee9378dfe14276e333edf04c5e4aa26
     Pseudo is Ultrasoft + core correction, Zval = 12.0
     Generated by new atomic code, or converted to UPF format
     Using radial grid of  921 points,  8 beta functions with:
                l(1) =   0
                l(2) =   0
                l(3) =   0
                l(4) =   1
                l(5) =   1
                l(6) =   2
                l(7) =   2
                l(8) =   3
     Q(r) pseudized with  6 coefficients,  rinner =    1.200   1.200   1.200
                                                       1.200   1.200   1.200
                                                       1.200

     PseudoPot. # 2 for Ni read from file:
     /afs/slac.stanford.edu/u/if/mamunm/psp/gbrv1.5pbe/Ni.UPF
     MD5 check sum: 1ee80287db30b12d2bc1f57a5b5d6409
     Pseudo is Ultrasoft + core correction, Zval = 18.0
     Generated by new atomic code, or converted to UPF format
     Using radial grid of  865 points,  6 beta functions with:
                l(1) =   0
                l(2) =   0
                l(3) =   1
                l(4) =   1
                l(5) =   2
                l(6) =   2
     Q(r) pseudized with 10 coefficients,  rinner =    0.980   0.980   0.980
                                                       0.980   0.980

     vdW kernel table read from file vdW_kernel_table
     MD5 check sum: 095c7af220d748ca6e76c0b4c6cfb241

     atomic species   valence    mass     pseudopotential
        Hf1           12.00   178.49000     Hf( 1.00)
        Ni1           18.00    58.69340     Ni( 1.00)

     Starting magnetic structure
     atomic species   magnetization
        Hf1          0.167
        Ni1          0.111

     No symmetry found

   Cartesian axes

     site n.     atom                  positions (alat units)
         1           Hf1 tau(   1) = (   0.0000000   0.0000000  10.0000000  )
         2           Hf1 tau(   2) = (  -1.5020294   2.6015912  10.0000000  )
         3           Hf1 tau(   3) = (   1.5020294   2.6015912  10.0000000  )
         4           Ni1 tau(   4) = (   3.0040588   0.0000000  10.0000000  )
         5           Hf1 tau(   5) = (   3.0040588   1.7343941  12.4528037  )
         6           Hf1 tau(   6) = (   1.5020294   4.3359853  12.4528037  )
         7           Hf1 tau(   7) = (  -1.5020294   4.3359853  12.4528037  )
         8           Ni1 tau(   8) = (   0.0000000   1.7343941  12.4528037  )
         9           Hf1 tau(   9) = (  -0.0000000   3.4687883  14.9056074  )
        10           Hf1 tau(  10) = (   1.5020294   0.8671971  14.9056074  )
        11           Hf1 tau(  11) = (   4.5060881   0.8671971  14.9056074  )
        12           Ni1 tau(  12) = (   3.0040588   3.4687883  14.9056074  )

     number of k points=    40  Fermi-Dirac smearing, width (Ry)=  0.0110
                       cart. coord. in units 2pi/alat
        k(    1) = (   0.0000000   0.0000000   0.0000000), wk =   0.0277778
        k(    2) = (   0.0000000   0.0320317   0.0000000), wk =   0.0555556
        k(    3) = (   0.0000000   0.0640634   0.0000000), wk =   0.0555556
        k(    4) = (   0.0000000  -0.0960950   0.0000000), wk =   0.0277778
        k(    5) = (   0.0277402   0.0160158   0.0000000), wk =   0.0555556
        k(    6) = (   0.0277402   0.0480475   0.0000000), wk =   0.0555556
        k(    7) = (   0.0277402   0.0800792   0.0000000), wk =   0.0555556
        k(    8) = (   0.0277402  -0.0800792   0.0000000), wk =   0.0555556
        k(    9) = (   0.0277402  -0.0480475   0.0000000), wk =   0.0555556
        k(   10) = (   0.0277402  -0.0160158   0.0000000), wk =   0.0555556
        k(   11) = (   0.0554805   0.0320317   0.0000000), wk =   0.0555556
        k(   12) = (   0.0554805   0.0640634   0.0000000), wk =   0.0555556
        k(   13) = (   0.0554805   0.0960950   0.0000000), wk =   0.0555556
        k(   14) = (   0.0554805  -0.0640634   0.0000000), wk =   0.0555556
        k(   15) = (   0.0554805  -0.0320317   0.0000000), wk =   0.0555556
        k(   16) = (   0.0554805   0.0000000   0.0000000), wk =   0.0555556
        k(   17) = (  -0.0832207  -0.0480475   0.0000000), wk =   0.0277778
        k(   18) = (  -0.0832207  -0.0160158   0.0000000), wk =   0.0555556
        k(   19) = (  -0.0832207   0.0160158   0.0000000), wk =   0.0555556
        k(   20) = (  -0.0832207  -0.1441426   0.0000000), wk =   0.0277778
        k(   21) = (   0.0000000   0.0000000   0.0000000), wk =   0.0277778
        k(   22) = (   0.0000000   0.0320317   0.0000000), wk =   0.0555556
        k(   23) = (   0.0000000   0.0640634   0.0000000), wk =   0.0555556
        k(   24) = (   0.0000000  -0.0960950   0.0000000), wk =   0.0277778
        k(   25) = (   0.0277402   0.0160158   0.0000000), wk =   0.0555556
        k(   26) = (   0.0277402   0.0480475   0.0000000), wk =   0.0555556
        k(   27) = (   0.0277402   0.0800792   0.0000000), wk =   0.0555556
        k(   28) = (   0.0277402  -0.0800792   0.0000000), wk =   0.0555556
        k(   29) = (   0.0277402  -0.0480475   0.0000000), wk =   0.0555556
        k(   30) = (   0.0277402  -0.0160158   0.0000000), wk =   0.0555556
        k(   31) = (   0.0554805   0.0320317   0.0000000), wk =   0.0555556
        k(   32) = (   0.0554805   0.0640634   0.0000000), wk =   0.0555556
        k(   33) = (   0.0554805   0.0960950   0.0000000), wk =   0.0555556
        k(   34) = (   0.0554805  -0.0640634   0.0000000), wk =   0.0555556
        k(   35) = (   0.0554805  -0.0320317   0.0000000), wk =   0.0555556
        k(   36) = (   0.0554805   0.0000000   0.0000000), wk =   0.0555556
        k(   37) = (  -0.0832207  -0.0480475   0.0000000), wk =   0.0277778
        k(   38) = (  -0.0832207  -0.0160158   0.0000000), wk =   0.0555556
        k(   39) = (  -0.0832207   0.0160158   0.0000000), wk =   0.0555556
        k(   40) = (  -0.0832207  -0.1441426   0.0000000), wk =   0.0277778

     Largest allocated arrays     est. size (Mb)     dimensions
     Largest temporary arrays     est. size (Mb)     dimensions

     Check: negative/imaginary core charge=   -0.000003    0.000000

     Initial potential from superposition of free atoms
     Check: negative starting charge=(component1):   -0.563605
     Check: negative starting charge=(component2):   -0.402597

     starting charge  137.99998, renormalised to  162.00000

     negative rho (up, down):  6.616E-01 4.726E-01

     *
     * You are using vdW-DF for exchange-correlation in this calculation.
     * Please cite the following three references that made this development
     * possible:
     *
     *   M. Dion, H. Rydberg, E. Schroder, D. C. Langreth, and
     *   B. I. Lundqvist, Phys. Rev. Lett. 92, 246401 (2004).
     *
     *   T. Thonhauser, V. R. Cooper, S. Li, A. Puzder, P. Hyldgaard, and
     *   D. C. Langreth, Phys. Rev. B 76, 125112 (2007).
     *
     *   G. Roman-Perez and J. M. Soler, Phys. Rev. Lett. 103, 096102 (2009).
     *
     *
     * If you are using vdW-DF2, please also cite:
     *
     *   K. Lee, E. D. Murray, L. Kong, B. I. Lundqvist, and
     *   D. C. Langreth, Phys. Rev. B 82, 081101(R) (2010).
     *
     *
     * If you are calculating the stress with vdW-DF, please also cite:
     *
     *   R. Sabatini, E. Kucukbenli, B. Kolb, T. Thonhauser, and
     *   S. de Gironcoli, J. Phys.: Condens. Matter 24, 424209 (2012).
     *

     Carrying out vdW-DF run using the following parameters:

     Nqs =      20    Nr_points =    1024   r_max =   100.000
     q_mesh =
               0.00001000     0.04494208     0.09755937     0.15916263
               0.23128650     0.31572767     0.41458969     0.53033537
               0.66584808     0.82450364     1.01025438     1.22772762
               1.48234092     1.78043706     2.12944203     2.53805004
               3.01644009     3.57652955     4.23227104     5.00000000

     Gradients computed in reciprocal space

     Adding external electric field

     Computed dipole along edir(3) :
        Dipole                0.0000 Ry au,          0.0000 Debye
        Dipole field          0.0000 Ry au

        Potential amp.       -0.0000 Ry
        Total length         45.8882 bohr

[...]

     Starting wfc are  156 randomized atomic wfcs

     Self-consistent Calculation

     iteration #  1     ecut=    36.75 Ry     beta=0.10
     Davidson diagonalization with overlap
     ethr =  1.00E-02,  avg # of iterations =  8.3

[...]

     Magnetic moment per site:
     atom:    1    charge:    1.2703    magn:    0.1963    constr:    0.0000
     atom:    2    charge:    1.2703    magn:    0.1963    constr:    0.0000
     atom:    3    charge:    1.2703    magn:    0.1963    constr:    0.0000
     atom:    4    charge:   10.3033    magn:    1.1013    constr:    0.0000
     atom:    5    charge:    1.2733    magn:    0.1969    constr:    0.0000
     atom:    6    charge:    1.2733    magn:    0.1969    constr:    0.0000
[...]
        k(    2) = (   0.0000000   0.0320317   0.0000000), wk =   0.0555556
        k(    3) = (   0.0000000   0.0640634   0.0000000), wk =   0.0555556
        k(    4) = (   0.0000000  -0.0960950   0.0000000), wk =   0.0277778
        k(    5) = (   0.0277402   0.0160158   0.0000000), wk =   0.0555556
        k(    6) = (   0.0277402   0.0480475   0.0000000), wk =   0.0555556
        k(    7) = (   0.0277402   0.0800792   0.0000000), wk =   0.0555556
        k(    8) = (   0.0277402  -0.0800792   0.0000000), wk =   0.0555556
        k(    9) = (   0.0277402  -0.0480475   0.0000000), wk =   0.0555556
        k(   10) = (   0.0277402  -0.0160158   0.0000000), wk =   0.0555556
        k(   11) = (   0.0554805   0.0320317   0.0000000), wk =   0.0555556
        k(   12) = (   0.0554805   0.0640634   0.0000000), wk =   0.0555556
        k(   13) = (   0.0554805   0.0960950   0.0000000), wk =   0.0555556
        k(   14) = (   0.0554805  -0.0640634   0.0000000), wk =   0.0555556
        k(   15) = (   0.0554805  -0.0320317   0.0000000), wk =   0.0555556
        k(   16) = (   0.0554805   0.0000000   0.0000000), wk =   0.0555556
        k(   17) = (  -0.0832207  -0.0480475   0.0000000), wk =   0.0277778
        k(   18) = (  -0.0832207  -0.0160158   0.0000000), wk =   0.0555556
        k(   19) = (  -0.0832207   0.0160158   0.0000000), wk =   0.0555556
        k(   20) = (  -0.0832207  -0.1441426   0.0000000), wk =   0.0277778
        k(   21) = (   0.0000000   0.0000000   0.0000000), wk =   0.0277778
        k(   22) = (   0.0000000   0.0320317   0.0000000), wk =   0.0555556
        k(   23) = (   0.0000000   0.0640634   0.0000000), wk =   0.0555556
        k(   24) = (   0.0000000  -0.0960950   0.0000000), wk =   0.0277778
        k(   25) = (   0.0277402   0.0160158   0.0000000), wk =   0.0555556
        k(   26) = (   0.0277402   0.0480475   0.0000000), wk =   0.0555556
        k(   27) = (   0.0277402   0.0800792   0.0000000), wk =   0.0555556
        k(   28) = (   0.0277402  -0.0800792   0.0000000), wk =   0.0555556
        k(   29) = (   0.0277402  -0.0480475   0.0000000), wk =   0.0555556
        k(   30) = (   0.0277402  -0.0160158   0.0000000), wk =   0.0555556
        k(   31) = (   0.0554805   0.0320317   0.0000000), wk =   0.0555556
        k(   32) = (   0.0554805   0.0640634   0.0000000), wk =   0.0555556
        k(   33) = (   0.0554805   0.0960950   0.0000000), wk =   0.0555556
        k(   34) = (   0.0554805  -0.0640634   0.0000000), wk =   0.0555556
        k(   35) = (   0.0554805  -0.0320317   0.0000000), wk =   0.0555556
        k(   36) = (   0.0554805   0.0000000   0.0000000), wk =   0.0555556
        k(   37) = (  -0.0832207  -0.0480475   0.0000000), wk =   0.0277778
        k(   38) = (  -0.0832207  -0.0160158   0.0000000), wk =   0.0555556
        k(   39) = (  -0.0832207   0.0160158   0.0000000), wk =   0.0555556
        k(   40) = (  -0.0832207  -0.1441426   0.0000000), wk =   0.0277778

     Largest allocated arrays     est. size (Mb)     dimensions
     Largest temporary arrays     est. size (Mb)     dimensions

     Check: negative/imaginary core charge=   -0.000003    0.000000

     Initial potential from superposition of free atoms
     Check: negative starting charge=(component1):   -0.566217
     Check: negative starting charge=(component2):   -0.404463

     starting charge  137.99998, renormalised to  162.00000

[...]

     *
     * You are using vdW-DF for exchange-correlation in this calculation.
     * Please cite the following three references that made this development
     * possible:
     *
     *   M. Dion, H. Rydberg, E. Schroder, D. C. Langreth, and
     *   B. I. Lundqvist, Phys. Rev. Lett. 92, 246401 (2004).
     *
     *   T. Thonhauser, V. R. Cooper, S. Li, A. Puzder, P. Hyldgaard, and
     *   D. C. Langreth, Phys. Rev. B 76, 125112 (2007).
     *
     *   G. Roman-Perez and J. M. Soler, Phys. Rev. Lett. 103, 096102 (2009).
     *
     *
     * If you are using vdW-DF2, please also cite:
     *
     *   K. Lee, E. D. Murray, L. Kong, B. I. Lundqvist, and
     *   D. C. Langreth, Phys. Rev. B 82, 081101(R) (2010).
     *
     *
     * If you are calculating the stress with vdW-DF, please also cite:
     *
     *   R. Sabatini, E. Kucukbenli, B. Kolb, T. Thonhauser, and
     *   S. de Gironcoli, J. Phys.: Condens. Matter 24, 424209 (2012).
     *

     Carrying out vdW-DF run using the following parameters:

     Nqs =      20    Nr_points =    1024   r_max =   100.000
     q_mesh =
               0.00001000     0.04494208     0.09755937     0.15916263
               0.23128650     0.31572767     0.41458969     0.53033537
               0.66584808     0.82450364     1.01025438     1.22772762
               1.48234092     1.78043706     2.12944203     2.53805004
               3.01644009     3.57652955     4.23227104     5.00000000

     Gradients computed in reciprocal space

[...]

     Starting wfc are  156 randomized atomic wfcs

     Self-consistent Calculation

[...]

     total energy              =   -2478.23369136 Ry
     Harris-Foulkes estimate   =   -2478.23369035 Ry
     estimated scf accuracy    <       0.00000142 Ry

[...]

     iteration # 39     ecut=    36.75 Ry     beta=0.10
     Davidson diagonalization with overlap
     ethr =  8.74E-10,  avg # of iterations =  2.0

[...]

     negative rho (up, down):  5.117E-01 5.117E-01

[...]

     Adding external electric field

     Computed dipole along edir(3) :
        Dipole                0.0527 Ry au,          0.1339 Debye
        Dipole field          0.0001 Ry au

        Potential amp.       -0.0116 Ry
        Total length         45.8882 bohr

     Magnetic moment per site:
     atom:    1    charge:    1.1396    magn:    0.0000    constr:    0.0000
     atom:    2    charge:    1.1396    magn:    0.0000    constr:    0.0000
     atom:    3    charge:    1.1396    magn:    0.0000    constr:    0.0000
     atom:    4    charge:    9.3392    magn:    0.0008    constr:    0.0000
     atom:    5    charge:    1.1442    magn:   -0.0000    constr:    0.0000
     atom:    6    charge:    1.1442    magn:   -0.0000    constr:    0.0000
     atom:    7    charge:    1.1442    magn:   -0.0000    constr:    0.0000
     atom:    8    charge:    9.3339    magn:    0.0015    constr:    0.0000
     atom:    9    charge:    1.1390    magn:    0.0001    constr:    0.0000
     atom:   10    charge:    1.1390    magn:    0.0001    constr:    0.0000
     atom:   11    charge:    1.1390    magn:    0.0001    constr:    0.0000
     atom:   12    charge:    9.3365    magn:   -0.0024    constr:    0.0000

     End of self-consistent calculation

 ------ SPIN UP ------------

[...]

 ------ SPIN DOWN ----------

[...]

          k = 0.0555 0.0000 0.0000 ( 19767 PWs)   bands (ev):

[...]

          k =-0.0832-0.1441 0.0000 ( 19788 PWs)   bands (ev):

  -101.6697-101.6334-101.4146 -62.0557 -62.0300 -62.0299 -62.0279 -61.9810
   -61.9808 -61.7925 -61.7870 -61.7868 -60.9458 -60.9338 -60.9211 -60.9147
   -60.9033 -60.8953 -60.4374 -60.4184 -60.3991 -29.7828 -29.7374 -29.7088
   -29.6565 -29.6383 -29.5891 -29.5584 -29.5555 -29.5289 -29.5075 -29.4807
   -29.4633 -29.4152 -29.4051 -29.3967 -29.3642 -29.3046 -29.0846 -29.0666
   -29.0487 -28.9905 -28.9541 -28.9235 -28.8845 -28.8821 -28.8558 -28.6658
    -3.6046  -3.4836  -2.2875  -2.0919  -1.4093  -1.2765  -1.0623  -0.9950
    -0.9643  -0.8695  -0.4887  -0.4375  -0.3722  -0.3023  -0.2595  -0.2105
    -0.1234  -0.0457  -0.0020  -0.0005   0.0815   0.1245   0.1697   0.3596
     0.5193   0.7478   0.8371   0.8500   0.9663   1.0114   1.1587   1.1909
     1.4078   1.5012   1.5636   1.7500   1.7956   1.9400   1.9842   2.1436
     2.2552   2.6901   2.7776   2.9000   2.9894   3.0791   3.1552   3.2671
     3.4711   4.3172   4.4894   4.5450   4.6691   4.6818   4.7844   4.8035
     5.0573   5.0822   5.1476   5.4650   5.4901   5.5260   5.6250

     the Fermi energy is     1.5280 ev

!    total energy              =   -2478.23369414 Ry
     Harris-Foulkes estimate   =   -2478.23369125 Ry
     estimated scf accuracy    <       0.00000069 Ry

     The total energy is the sum of the following terms:

     one-electron contribution =  -13056.65915854 Ry
     hartree contribution      =    6521.30753785 Ry
     xc contribution           =    -806.53883147 Ry
     ewald contribution        =    4863.75484295 Ry
     electric field correction =       0.00000664 Ry
     smearing contrib. (-TS)   =      -0.09809157 Ry

     total magnetization       =     0.02 Bohr mag/cell
     absolute magnetization    =     0.04 Bohr mag/cell

     convergence has been achieved in  39 iterations

 BEEF-vdW xc energy contributions
           1 :   -726.953872204338
           2 :    673.697139079889
           3 :   -579.917691333183
           4 :    466.019726901356
           5 :   -352.840405735283
           6 :    255.460683187299
           7 :   -180.588251442470
           8 :    127.703031735797
           9 :   -92.4302715674016
          10 :    69.8250908816599
          11 :   -56.0906245385115
          12 :    48.5148509739342
          13 :   -44.5920977047010
          14 :    41.4436293318342
          15 :   -36.1870851573615
          16 :    26.9792245856806
          17 :   -13.9769753388819
          18 :  -0.567740219964321
          19 :    13.2470122372770
          20 :   -21.0365514557631
          21 :    22.5897137048487
          22 :   -18.6658943302517
          23 :    11.5603138367427
          24 :   -4.00081340853319
          25 :   -1.86028006754759
          26 :    4.89408752964073
          27 :   -4.89093170663364
          28 :    2.19864179851879
          29 :    2.52649098259701
          30 :   -8.35225565888118
          31 :   -53.2104005705576
          32 :   -38.1201638483234

     Forces acting on atoms (Ry/au):

     negative rho (up, down):  5.117E-01 5.117E-01
     atom    1 type  1   force =    -0.00000007    0.02371861   -0.00576734
     atom    2 type  1   force =     0.02054077   -0.01185937   -0.00576744
     atom    3 type  1   force =    -0.02054089   -0.01185939   -0.00576736
     atom    4 type  2   force =     0.00000042   -0.00000036    0.03908462
     atom    5 type  1   force =     0.00000025   -0.00223877   -0.00606966
     atom    6 type  1   force =    -0.00193898    0.00111957   -0.00606918
     atom    7 type  1   force =     0.00193884    0.00111917   -0.00606975
     atom    8 type  2   force =     0.00000028   -0.00000006   -0.00335626
     atom    9 type  1   force =    -0.00000002   -0.00080769    0.00019629
     atom   10 type  1   force =    -0.00069940    0.00040401    0.00019634
     atom   11 type  1   force =     0.00069922    0.00040384    0.00019596
     atom   12 type  2   force =    -0.00000041    0.00000044   -0.00080621

     Total force =     0.058776     Total SCF correction =     0.001685

     entering subroutine stress ...

     negative rho (up, down):  5.117E-01 5.117E-01
          total   stress  (Ry/bohr**3)                   (kbar)     P=  -22.55
  -0.00017213  -0.00000000  -0.00000000        -25.32     -0.00     -0.00
  -0.00000000  -0.00017213   0.00000000         -0.00    -25.32      0.00
  -0.00000000   0.00000000  -0.00011559         -0.00      0.00    -17.00

 !ASE

     Writing output data file calc.save

     General routines

     Parallel routines

   This run was terminated on:  14:44:19  26Dec2018

   JOB DONE.
Job  /afs/slac/g/suncat/bin/suncat-tsmpirun -x LD_LIBRARY_PATH -wdir /scratch/qe109751_Z1l62 pw.x -in pw.inp

TID   HOST_NAME   COMMAND_LINE            STATUS            TERMINATION_TIME
00000 suncat0139 pw.x -in pw.inp   Done                     12/26/2018 14:44:19
00001 suncat0139 pw.x -in pw.inp   Done                     12/26/2018 14:44:19
00002 suncat0139 pw.x -in pw.inp   Done                     12/26/2018 14:44:19
00003 suncat0139 pw.x -in pw.inp   Done                     12/26/2018 14:44:19
00004 suncat0139 pw.x -in pw.inp   Done                     12/26/2018 14:44:19
00005 suncat0139 pw.x -in pw.inp   Done                     12/26/2018 14:44:19
00006 suncat0139 pw.x -in pw.inp   Done                     12/26/2018 14:44:19
00007 suncat0139 pw.x -in pw.inp   Done                     12/26/2018 14:44:19
00008 suncat0124 pw.x -in pw.inp   Done                     12/26/2018 14:44:19
00009 suncat0124 pw.x -in pw.inp   Done                     12/26/2018 14:44:19
00010 suncat0124 pw.x -in pw.inp   Done                     12/26/2018 14:44:19
00011 suncat0124 pw.x -in pw.inp   Done                     12/26/2018 14:44:19
00012 suncat0124 pw.x -in pw.inp   Done                     12/26/2018 14:44:19
00013 suncat0124 pw.x -in pw.inp   Done                     12/26/2018 14:44:19
00014 suncat0124 pw.x -in pw.inp   Done                     12/26/2018 14:44:19
00015 suncat0124 pw.x -in pw.inp   Done                     12/26/2018 14:44:19
00016 suncat0123 pw.x -in pw.inp   Done                     12/26/2018 14:44:19
00017 suncat0123 pw.x -in pw.inp   Done                     12/26/2018 14:44:19
00018 suncat0123 pw.x -in pw.inp   Done                     12/26/2018 14:44:19
00019 suncat0123 pw.x -in pw.inp   Done                     12/26/2018 14:44:19
00020 suncat0123 pw.x -in pw.inp   Done                     12/26/2018 14:44:19
00021 suncat0123 pw.x -in pw.inp   Done                     12/26/2018 14:44:19
00022 suncat0123 pw.x -in pw.inp   Done                     12/26/2018 14:44:19
00023 suncat0123 pw.x -in pw.inp   Done                     12/26/2018 14:44:19
00024 suncat0122 pw.x -in pw.inp   Done                     12/26/2018 14:44:19
00025 suncat0122 pw.x -in pw.inp   Done                     12/26/2018 14:44:19
00026 suncat0122 pw.x -in pw.inp   Done                     12/26/2018 14:44:19
00027 suncat0122 pw.x -in pw.inp   Done                     12/26/2018 14:44:19
00028 suncat0122 pw.x -in pw.inp   Done                     12/26/2018 14:44:19
00029 suncat0122 pw.x -in pw.inp   Done                     12/26/2018 14:44:19
00030 suncat0122 pw.x -in pw.inp   Done                     12/26/2018 14:44:19
00031 suncat0122 pw.x -in pw.inp   Done                     12/26/2018 14:44:19
00032 suncat0241 pw.x -in pw.inp   Done                     12/26/2018 14:44:19
00033 suncat0241 pw.x -in pw.inp   Done                     12/26/2018 14:44:19
00034 suncat0241 pw.x -in pw.inp   Done                     12/26/2018 14:44:19
00035 suncat0241 pw.x -in pw.inp   Done                     12/26/2018 14:44:19
00036 suncat0241 pw.x -in pw.inp   Done                     12/26/2018 14:44:19
00037 suncat0241 pw.x -in pw.inp   Done                     12/26/2018 14:44:19
00038 suncat0241 pw.x -in pw.inp   Done                     12/26/2018 14:44:19
00039 suncat0241 pw.x -in pw.inp   Done                     12/26/2018 14:44:19
00040 suncat0240 pw.x -in pw.inp   Done                     12/26/2018 14:44:19
00041 suncat0240 pw.x -in pw.inp   Done                     12/26/2018 14:44:19
00042 suncat0240 pw.x -in pw.inp   Done                     12/26/2018 14:44:19
00043 suncat0240 pw.x -in pw.inp   Done                     12/26/2018 14:44:19
00044 suncat0240 pw.x -in pw.inp   Done                     12/26/2018 14:44:19
00045 suncat0240 pw.x -in pw.inp   Done                     12/26/2018 14:44:19
00046 suncat0240 pw.x -in pw.inp   Done                     12/26/2018 14:44:19
00047 suncat0240 pw.x -in pw.inp   Done                     12/26/2018 14:44:19
00048 suncat0239 pw.x -in pw.inp   Done                     12/26/2018 14:44:19
00049 suncat0239 pw.x -in pw.inp   Done                     12/26/2018 14:44:19
00050 suncat0239 pw.x -in pw.inp   Done                     12/26/2018 14:44:19
00051 suncat0239 pw.x -in pw.inp   Done                     12/26/2018 14:44:19
00052 suncat0239 pw.x -in pw.inp   Done                     12/26/2018 14:44:19
00053 suncat0239 pw.x -in pw.inp   Done                     12/26/2018 14:44:19
00054 suncat0239 pw.x -in pw.inp   Done                     12/26/2018 14:44:19
00055 suncat0239 pw.x -in pw.inp   Done                     12/26/2018 14:44:19
00056 suncat0098 pw.x -in pw.inp   Done                     12/26/2018 14:44:19
00057 suncat0098 pw.x -in pw.inp   Done                     12/26/2018 14:44:19
00058 suncat0098 pw.x -in pw.inp   Done                     12/26/2018 14:44:19
00059 suncat0098 pw.x -in pw.inp   Done                     12/26/2018 14:44:19
00060 suncat0098 pw.x -in pw.inp   Done                     12/26/2018 14:44:19
00061 suncat0098 pw.x -in pw.inp   Done                     12/26/2018 14:44:19
00062 suncat0098 pw.x -in pw.inp   Done                     12/26/2018 14:44:19
00063 suncat0098 pw.x -in pw.inp   Done                     12/26/2018 14:44:19