     Program PWSCF v.5.1rc2 (svn rev. 11289) starts on 27Dec2018 at 23:41:20

     Current dimensions of program PWSCF are:
     Max number of different atomic species (ntypx) = 10
     Max number of k-points (npk) =  40000
     Max angular momentum in pseudopotentials (lmaxx) =  3
     Presently stress not available with electric field

     IMPORTANT: XC functional enforced from input :
     Exchange-correlation      = BEEF-VDW ( 1  4 27 13 2)
     Any further DFT definition will be discarded
     Please, verify this is what you really want

     Subspace diagonalization in iterative solution of the eigenvalue problem:
     a serial algorithm will be used

     bravais-lattice index     =            0
     lattice parameter (alat)  =       1.8897  a.u.
     unit-cell volume          =    6166.5333 (a.u.)^3
     number of atoms/cell      =           12
     number of atomic types    =            2
     number of electrons       =       162.00
     number of Kohn-Sham states=          111
     kinetic-energy cutoff     =      36.7493  Ry
     charge density cutoff     =     367.4932  Ry
     convergence threshold     =      1.0E-06
     mixing beta               =       0.1000
     number of iterations used =           10  plain     mixing
     Exchange-correlation      = BEEF-VDW ( 1  4 27 13 2)
     nstep                     =           50

     celldm(1)=   1.889726  celldm(2)=   0.000000  celldm(3)=   0.000000
     celldm(4)=   0.000000  celldm(5)=   0.000000  celldm(6)=   0.000000

     crystal axes: (cart. coord. in units of alat)
               a(1) = (   6.461112   0.000000   0.000000 )
               a(2) = (  -3.230556   5.595487   0.000000 )
               a(3) = (   0.000000   0.000000  25.275476 )

     reciprocal axes: (cart. coord. in units 2 pi/alat)
               b(1) = (  0.154772  0.089358  0.000000 )
               b(2) = (  0.000000  0.178715  0.000000 )
               b(3) = (  0.000000  0.000000  0.039564 )

     PseudoPot. # 1 for Sn read from file:
     /afs/slac.stanford.edu/u/if/mamunm/psp/gbrv1.5pbe/Sn.UPF
     MD5 check sum: 469debedee59599fedebd795477fea03
     Pseudo is Ultrasoft + core correction, Zval = 14.0
     Generated by new atomic code, or converted to UPF format
     Using radial grid of  891 points,  6 beta functions with:
                l(1) =   0
                l(2) =   0
                l(3) =   1
                l(4) =   1
                l(5) =   2
                l(6) =   2
     Q(r) pseudized with  8 coefficients,  rinner =    1.350   1.350   1.350
                                                       1.350   1.350

     PseudoPot. # 2 for Ti read from file:
     /afs/slac.stanford.edu/u/if/mamunm/psp/gbrv1.5pbe/Ti.UPF
     MD5 check sum: 88a00a6731bd790ddea75d31a80cb452
     Pseudo is Ultrasoft + core correction, Zval = 12.0
     Generated by new atomic code, or converted to UPF format
     Using radial grid of  851 points,  6 beta functions with:
                l(1) =   0
                l(2) =   0
                l(3) =   1
                l(4) =   1
                l(5) =   2
                l(6) =   2
     Q(r) pseudized with  6 coefficients,  rinner =    1.000   1.000   1.000
                                                       1.000   1.000

     vdW kernel table read from file vdW_kernel_table
     MD5 check sum: 095c7af220d748ca6e76c0b4c6cfb241

     atomic species   valence    mass     pseudopotential
        Sn1           14.00   118.71000     Sn( 1.00)
        Ti1           12.00    47.86700     Ti( 1.00)

     No symmetry found

   Cartesian axes

     site n.     atom                  positions (alat units)
         1           Sn1 tau(   1) = (   0.0000000   0.0000000  10.0000000  )
         2           Sn1 tau(   2) = (  -1.6152779   2.7977435  10.0000000  )
         3           Sn1 tau(   3) = (   1.6152779   2.7977435  10.0000000  )
         4           Ti1 tau(   4) = (   3.2305559   0.0000000  10.0000000  )
         5           Sn1 tau(   5) = (   3.2305559   1.8651623  12.6377378  )
         6           Sn1 tau(   6) = (   1.6152779   4.6629058  12.6377378  )
         7           Sn1 tau(   7) = (  -1.6152779   4.6629058  12.6377378  )
         8           Ti1 tau(   8) = (   0.0000000   1.8651623  12.6377378  )
         9           Sn1 tau(   9) = (  -0.0000000   3.7303246  15.2754757  )
        10           Sn1 tau(  10) = (   1.6152779   0.9325812  15.2754757  )
        11           Sn1 tau(  11) = (   4.8458338   0.9325812  15.2754757  )
        12           Ti1 tau(  12) = (   3.2305559   3.7303246  15.2754757  )

     number of k points=    20  Fermi-Dirac smearing, width (Ry)=  0.0110
                       cart. coord. in units 2pi/alat
        k(    1) = (   0.0000000   0.0000000   0.0000000), wk =   0.0555556
        k(    2) = (   0.0000000   0.0297859   0.0000000), wk =   0.1111111
        k(    3) = (   0.0000000   0.0595718   0.0000000), wk =   0.1111111
        k(    4) = (   0.0000000  -0.0893577   0.0000000), wk =   0.0555556
        k(    5) = (   0.0257954   0.0148930   0.0000000), wk =   0.1111111
        k(    6) = (   0.0257954   0.0446789   0.0000000), wk =   0.1111111
        k(    7) = (   0.0257954   0.0744648   0.0000000), wk =   0.1111111
        k(    8) = (   0.0257954  -0.0744648   0.0000000), wk =   0.1111111
        k(    9) = (   0.0257954  -0.0446789   0.0000000), wk =   0.1111111
        k(   10) = (   0.0257954  -0.0148930   0.0000000), wk =   0.1111111
        k(   11) = (   0.0515907   0.0297859   0.0000000), wk =   0.1111111
        k(   12) = (   0.0515907   0.0595718   0.0000000), wk =   0.1111111
        k(   13) = (   0.0515907   0.0893577   0.0000000), wk =   0.1111111
        k(   14) = (   0.0515907  -0.0595718   0.0000000), wk =   0.1111111
        k(   15) = (   0.0515907  -0.0297859   0.0000000), wk =   0.1111111
        k(   16) = (   0.0515907   0.0000000   0.0000000), wk =   0.1111111
        k(   17) = (  -0.0773861  -0.0446789   0.0000000), wk =   0.0555556
        k(   18) = (  -0.0773861  -0.0148930   0.0000000), wk =   0.1111111
        k(   19) = (  -0.0773861   0.0148930   0.0000000), wk =   0.1111111
        k(   20) = (  -0.0773861  -0.1340366   0.0000000), wk =   0.0555556

     Largest allocated arrays     est. size (Mb)     dimensions
     Largest temporary arrays     est. size (Mb)     dimensions

     Check: negative/imaginary core charge=   -0.000002    0.000000

     Initial potential from superposition of free atoms
     Check: negative starting charge=   -0.005857

     starting charge  149.99946, renormalised to  162.00000

     negative rho (up, down):  6.326E-03 0.000E+00

     *
     * You are using vdW-DF for exchange-correlation in this calculation.
     * Please cite the following three references that made this development
     * possible:
     *
     *   M. Dion, H. Rydberg, E. Schroder, D. C. Langreth, and
     *   B. I. Lundqvist, Phys. Rev. Lett. 92, 246401 (2004).
     *
     *   T. Thonhauser, V. R. Cooper, S. Li, A. Puzder, P. Hyldgaard, and
     *   D. C. Langreth, Phys. Rev. B 76, 125112 (2007).
     *
     *   G. Roman-Perez and J. M. Soler, Phys. Rev. Lett. 103, 096102 (2009).
     *
     *
     * If you are using vdW-DF2, please also cite:
     *
     *   K. Lee, E. D. Murray, L. Kong, B. I. Lundqvist, and
     *   D. C. Langreth, Phys. Rev. B 82, 081101(R) (2010).
     *
     *
     * If you are calculating the stress with vdW-DF, please also cite:
     *
     *   R. Sabatini, E. Kucukbenli, B. Kolb, T. Thonhauser, and
     *   S. de Gironcoli, J. Phys.: Condens. Matter 24, 424209 (2012).
     *

     Carrying out vdW-DF run using the following parameters:

     Nqs =      20    Nr_points =    1024   r_max =   100.000
     q_mesh =
               0.00001000     0.04494208     0.09755937     0.15916263
               0.23128650     0.31572767     0.41458969     0.53033537
               0.66584808     0.82450364     1.01025438     1.22772762
               1.48234092     1.78043706     2.12944203     2.53805004
               3.01644009     3.57652955     4.23227104     5.00000000

     Gradients computed in reciprocal space

     Adding external electric field

     Computed dipole along edir(3) :
        Dipole               -0.0000 Ry au,         -0.0000 Debye
        Dipole field         -0.0000 Ry au

        Potential amp.        0.0000 Ry
        Total length         46.5696 bohr

     Starting wfc are  111 randomized atomic wfcs

     Self-consistent Calculation

     iteration #  1     ecut=    36.75 Ry     beta=0.10
     Davidson diagonalization with overlap
     ethr =  1.00E-02,  avg # of iterations =  9.0

[...]

     total energy              =   -1808.63181476 Ry
     Harris-Foulkes estimate   =   -1811.11769468 Ry
     estimated scf accuracy    <      14.27297700 Ry

[...]

     End of self-consistent calculation

          k = 0.0000 0.0000 0.0000 ( 23247 PWs)   bands (ev):

   -56.9032 -56.9030 -56.6940 -33.2020 -33.2017 -33.0883 -33.0883 -33.0880
   -33.0880 -32.9613 -32.9613 -32.8247 -21.1713 -21.1396 -21.1395 -21.1231
   -21.0510 -21.0509 -21.0240 -21.0182 -21.0154 -21.0154 -21.0099 -20.9982
   -20.9755 -20.9755 -20.9663 -20.9663 -20.9534 -20.9532 -20.9450 -20.9370
   -20.9370 -20.9187 -20.8807 -20.8807 -20.8706 -20.8616 -20.8592 -20.8592
   -20.8545 -20.8315 -20.8315 -20.8125 -20.8083 -20.8083 -20.8076 -20.8076
   -20.8034 -20.8034 -20.7977 -20.7977 -20.7793 -20.7793 -20.7785 -20.7166
   -20.7164  -9.7696  -8.4429  -6.7996  -5.8688  -5.8687  -5.1432  -5.1432
    -4.1847  -4.1847  -3.7273  -2.9327  -2.5998  -2.4419  -2.4419  -2.0727
    -1.1145  -1.1145  -0.8767  -0.8767  -0.4739   0.6764   0.6764   0.7112
     0.7112   1.2258   1.2549   1.4337   1.4337   1.5575   1.5575   1.5634
     1.6117   1.6117   1.7981   1.8761   1.8761   2.1546   2.9026   3.1767
     3.1767   3.3958   3.3958   3.9689   4.0109   4.0887   4.2419   4.6346
     5.1356   5.1356   5.2945   5.3775   5.4381   5.8914   5.8914

[...]

          k =-0.0774-0.0447 0.0000 ( 23216 PWs)   bands (ev):

[...]

     the Fermi energy is     0.9717 ev

!    total energy              =   -1805.86343649 Ry
     Harris-Foulkes estimate   =   -1805.86343622 Ry
     estimated scf accuracy    <       0.00000095 Ry

     The total energy is the sum of the following terms:

     one-electron contribution =  -10543.83886784 Ry
     hartree contribution      =    5315.93388429 Ry
     xc contribution           =    -456.72495494 Ry
     ewald contribution        =    3878.84303188 Ry
     electric field correction =       0.00000008 Ry
     smearing contrib. (-TS)   =      -0.07652997 Ry

     convergence has been achieved in  20 iterations

 BEEF-vdW xc energy contributions
           1 :   -400.310036178882
           2 :    365.549510404627
           3 :   -306.925637512396
           4 :    241.115199994567
           5 :   -183.460686487445
           6 :    142.478758818850
           7 :   -118.320858292820
           8 :    105.171436140962
           9 :   -95.6813687359840
          10 :    84.8814657712073
          11 :   -71.8217270638508
          12 :    58.6848059480326
          13 :   -48.4695411249805
          14 :    42.8134763584004
[...]
     /afs/slac.stanford.edu/u/if/mamunm/psp/gbrv1.5pbe/Sn.UPF
     MD5 check sum: 469debedee59599fedebd795477fea03
     Pseudo is Ultrasoft + core correction, Zval = 14.0
     Generated by new atomic code, or converted to UPF format
     Using radial grid of  891 points,  6 beta functions with:
                l(1) =   0
                l(2) =   0
                l(3) =   1
                l(4) =   1
                l(5) =   2
                l(6) =   2
     Q(r) pseudized with  8 coefficients,  rinner =    1.350   1.350   1.350
                                                       1.350   1.350

     PseudoPot. # 2 for Ti read from file:
     /afs/slac.stanford.edu/u/if/mamunm/psp/gbrv1.5pbe/Ti.UPF
     MD5 check sum: 88a00a6731bd790ddea75d31a80cb452
     Pseudo is Ultrasoft + core correction, Zval = 12.0
     Generated by new atomic code, or converted to UPF format
     Using radial grid of  851 points,  6 beta functions with:
                l(1) =   0
                l(2) =   0
                l(3) =   1
                l(4) =   1
                l(5) =   2
                l(6) =   2
     Q(r) pseudized with  6 coefficients,  rinner =    1.000   1.000   1.000
                                                       1.000   1.000

     vdW kernel table read from file vdW_kernel_table
     MD5 check sum: 095c7af220d748ca6e76c0b4c6cfb241

     atomic species   valence    mass     pseudopotential
        Sn1           14.00   118.71000     Sn( 1.00)
        Ti1           12.00    47.86700     Ti( 1.00)

     No symmetry found

   Cartesian axes

     site n.     atom                  positions (alat units)
         1           Sn1 tau(   1) = (   0.0000000   0.0000000  10.0000000  )
         2           Sn1 tau(   2) = (  -1.6152779   2.7977435  10.0000000  )
         3           Sn1 tau(   3) = (   1.6152779   2.7977435  10.0000000  )
         4           Ti1 tau(   4) = (   3.2305559   0.0000000  10.0000000  )
         5           Sn1 tau(   5) = (   3.2305559   1.8651623  12.6377378  )
         6           Sn1 tau(   6) = (   1.6152779   4.6629058  12.6377378  )
         7           Sn1 tau(   7) = (  -1.6152779   4.6629058  12.6377378  )
         8           Ti1 tau(   8) = (   0.0000000   1.8651623  12.6377378  )
         9           Sn1 tau(   9) = (  -0.0000217   3.6616586  15.3801315  )
        10           Sn1 tau(  10) = (   1.5558111   0.9668463  15.3801358  )
        11           Sn1 tau(  11) = (   4.9052782   0.9668679  15.3801345  )
        12           Ti1 tau(  12) = (   3.2305616   3.7303507  14.7940654  )

     number of k points=    20  Fermi-Dirac smearing, width (Ry)=  0.0110
                       cart. coord. in units 2pi/alat
        k(    1) = (   0.0000000   0.0000000   0.0000000), wk =   0.0555556
        k(    2) = (   0.0000000   0.0297859   0.0000000), wk =   0.1111111
        k(    3) = (   0.0000000   0.0595718   0.0000000), wk =   0.1111111
        k(    4) = (   0.0000000  -0.0893577   0.0000000), wk =   0.0555556
        k(    5) = (   0.0257954   0.0148930   0.0000000), wk =   0.1111111
        k(    6) = (   0.0257954   0.0446789   0.0000000), wk =   0.1111111
        k(    7) = (   0.0257954   0.0744648   0.0000000), wk =   0.1111111
        k(    8) = (   0.0257954  -0.0744648   0.0000000), wk =   0.1111111
        k(    9) = (   0.0257954  -0.0446789   0.0000000), wk =   0.1111111
        k(   10) = (   0.0257954  -0.0148930   0.0000000), wk =   0.1111111
        k(   11) = (   0.0515907   0.0297859   0.0000000), wk =   0.1111111
        k(   12) = (   0.0515907   0.0595718   0.0000000), wk =   0.1111111
        k(   13) = (   0.0515907   0.0893577   0.0000000), wk =   0.1111111
        k(   14) = (   0.0515907  -0.0595718   0.0000000), wk =   0.1111111
        k(   15) = (   0.0515907  -0.0297859   0.0000000), wk =   0.1111111
        k(   16) = (   0.0515907   0.0000000   0.0000000), wk =   0.1111111
        k(   17) = (  -0.0773861  -0.0446789   0.0000000), wk =   0.0555556
        k(   18) = (  -0.0773861  -0.0148930   0.0000000), wk =   0.1111111
        k(   19) = (  -0.0773861   0.0148930   0.0000000), wk =   0.1111111
        k(   20) = (  -0.0773861  -0.1340366   0.0000000), wk =   0.0555556

     Largest allocated arrays     est. size (Mb)     dimensions
     Largest temporary arrays     est. size (Mb)     dimensions

     Check: negative/imaginary core charge=   -0.000002    0.000000

     Initial potential from superposition of free atoms
     Check: negative starting charge=   -0.005883

     starting charge  149.99946, renormalised to  162.00000

[...]

     *
     * You are using vdW-DF for exchange-correlation in this calculation.
     * Please cite the following three references that made this development
     * possible:
     *
     *   M. Dion, H. Rydberg, E. Schroder, D. C. Langreth, and
     *   B. I. Lundqvist, Phys. Rev. Lett. 92, 246401 (2004).
     *
     *   T. Thonhauser, V. R. Cooper, S. Li, A. Puzder, P. Hyldgaard, and
     *   D. C. Langreth, Phys. Rev. B 76, 125112 (2007).
     *
     *   G. Roman-Perez and J. M. Soler, Phys. Rev. Lett. 103, 096102 (2009).
     *
     *
     * If you are using vdW-DF2, please also cite:
     *
     *   K. Lee, E. D. Murray, L. Kong, B. I. Lundqvist, and
     *   D. C. Langreth, Phys. Rev. B 82, 081101(R) (2010).
     *
     *
     * If you are calculating the stress with vdW-DF, please also cite:
     *
     *   R. Sabatini, E. Kucukbenli, B. Kolb, T. Thonhauser, and
     *   S. de Gironcoli, J. Phys.: Condens. Matter 24, 424209 (2012).
     *

     Carrying out vdW-DF run using the following parameters:

     Nqs =      20    Nr_points =    1024   r_max =   100.000
     q_mesh =
               0.00001000     0.04494208     0.09755937     0.15916263
               0.23128650     0.31572767     0.41458969     0.53033537
               0.66584808     0.82450364     1.01025438     1.22772762
               1.48234092     1.78043706     2.12944203     2.53805004
               3.01644009     3.57652955     4.23227104     5.00000000

     Gradients computed in reciprocal space

[...]

     Starting wfc are  111 randomized atomic wfcs

     Self-consistent Calculation

[...]

     total energy              =   -1805.89985394 Ry
     Harris-Foulkes estimate   =   -1805.89985398 Ry
     estimated scf accuracy    <       0.00000115 Ry

     iteration # 21     ecut=    36.75 Ry     beta=0.10
     Davidson diagonalization with overlap
     ethr =  7.07E-10,  avg # of iterations =  2.0

[...]

     negative rho (up, down):  2.268E-03 0.000E+00

     Adding external electric field

     Computed dipole along edir(3) :
        Dipole               -0.0295 Ry au,         -0.0749 Debye
        Dipole field         -0.0001 Ry au

        Potential amp.        0.0056 Ry
        Total length         46.5696 bohr

     End of self-consistent calculation

[...]

          k = 0.0516 0.0000 0.0000 ( 23188 PWs)   bands (ev):

[...]

          k =-0.0774-0.1340 0.0000 ( 23216 PWs)   bands (ev):

   -57.0132 -56.7982 -56.7732 -33.3233 -33.1903 -33.1901 -33.0391 -33.0388
   -33.0360 -33.0351 -33.0268 -32.9107 -21.1793 -21.1294 -21.1126 -21.1038
   -21.0937 -21.0821 -21.0770 -21.0728 -21.0502 -21.0367 -21.0324 -21.0240
   -21.0120 -21.0092 -21.0048 -20.9921 -20.9727 -20.9620 -20.9571 -20.9535
   -20.9379 -20.9364 -20.9354 -20.9284 -20.9161 -20.9093 -20.9043 -20.9038
   -20.8999 -20.8946 -20.8875 -20.8794 -20.8762 -20.8749 -20.8713 -20.8663
   -20.8644 -20.8618 -20.8522 -20.8496 -20.8454 -20.8429 -20.8407 -20.8036
   -20.7959  -8.7941  -8.4145  -7.4523  -7.0057  -6.3840  -6.3414  -5.6876
    -5.1579  -3.8633  -3.3655  -2.8329  -2.0290  -1.2342  -1.1064  -1.0870
    -0.7792  -0.7016  -0.1002  -0.0553   0.0594   0.1298   0.5743   0.7892
     0.9786   1.1277   1.1357   1.1925   1.3328   1.3503   1.5670   1.5852
     1.6586   1.7013   1.7489   1.9621   2.1409   2.3744   2.5068   2.7086
     2.9595   3.0142   3.4511   3.5554   3.6270   4.0132   4.3714   4.5697
     4.7105   5.0344   5.2964   5.3568   5.5552   5.6436   5.7929

     the Fermi energy is     0.8938 ev

!    total energy              =   -1805.89985486 Ry
     Harris-Foulkes estimate   =   -1805.89985408 Ry
     estimated scf accuracy    <       0.00000029 Ry

     The total energy is the sum of the following terms:

     one-electron contribution =  -10571.99663620 Ry
     hartree contribution      =    5329.77164525 Ry
     xc contribution           =    -456.76915893 Ry
     ewald contribution        =    3893.16402105 Ry
     electric field correction =       0.00000177 Ry
     smearing contrib. (-TS)   =      -0.06972780 Ry

     convergence has been achieved in  21 iterations

 BEEF-vdW xc energy contributions
           1 :   -400.398428305492
           2 :    365.646028006047
           3 :   -307.024333519692
           4 :    241.192217283124
           5 :   -183.491028495556
           6 :    142.462711449896
           7 :   -118.290963408965
           8 :    105.170463000698
           9 :   -95.7297120701566
          10 :    84.9619961565535
          11 :   -71.8939809056756
          12 :    58.7162839488446
          13 :   -48.4600453744574
          14 :    42.7953235111310
          15 :   -41.1256373107891
          16 :    41.2003349688256
          17 :   -40.6055702031740
          18 :    38.1284481518770
          19 :   -34.2398296934561
          20 :    30.5399178588857
          21 :   -28.6175587205465
          22 :    29.0456301508979
          23 :   -31.0877549161255
          24 :    33.2243603628183
          25 :   -34.1207520198084
          26 :    33.4110337665057
          27 :   -31.8198830745644
          28 :    30.5806037327858
          29 :   -30.5684195997464
          30 :    31.7320544336962
          31 :   -35.8573257760536
          32 :   -26.0651797937572

     Forces acting on atoms (Ry/au):

     negative rho (up, down):  2.268E-03 0.000E+00
     atom    1 type  1   force =    -0.00000252    0.01142871   -0.01161756
     atom    2 type  1   force =     0.00989493   -0.00571134   -0.01160693
     atom    3 type  1   force =    -0.00989625   -0.00570776   -0.01160628
     atom    4 type  2   force =     0.00000055    0.00000056    0.05948246
     atom    5 type  1   force =     0.00000030   -0.01452444   -0.00900029
     atom    6 type  1   force =    -0.01257276    0.00726035   -0.00901324
     atom    7 type  1   force =     0.01257219    0.00725956   -0.00901547
     atom    8 type  2   force =     0.00000015   -0.00000172   -0.00019201
     atom    9 type  1   force =     0.00000472    0.00097578    0.00070926
     atom   10 type  1   force =     0.00085358   -0.00049094    0.00071486
     atom   11 type  1   force =    -0.00085427   -0.00049406    0.00071596
     atom   12 type  2   force =    -0.00000061    0.00000529    0.00042923

     Total force =     0.072214     Total SCF correction =     0.002862

     entering subroutine stress ...

     negative rho (up, down):  2.268E-03 0.000E+00
          total   stress  (Ry/bohr**3)                   (kbar)     P=  -10.76
  -0.00009452   0.00000000   0.00000000        -13.90      0.00      0.00
   0.00000000  -0.00009454   0.00000000          0.00    -13.91      0.00
   0.00000000   0.00000000  -0.00003035          0.00      0.00     -4.46

 !ASE

     Writing output data file calc.save

     General routines

     Parallel routines

   This run was terminated on:   1: 4:52  28Dec2018

   JOB DONE.
Job  /afs/slac/g/suncat/bin/suncat-tsmpirun -x LD_LIBRARY_PATH -wdir /scratch/qe110954_g6B4w pw.x -in pw.inp

TID   HOST_NAME   COMMAND_LINE            STATUS            TERMINATION_TIME
00000 suncat0274 pw.x -in pw.inp   Done                     12/28/2018 01:04:52
00001 suncat0274 pw.x -in pw.inp   Done                     12/28/2018 01:04:52
00002 suncat0274 pw.x -in pw.inp   Done                     12/28/2018 01:04:52
00003 suncat0274 pw.x -in pw.inp   Done                     12/28/2018 01:04:52
00004 suncat0274 pw.x -in pw.inp   Done                     12/28/2018 01:04:52
00005 suncat0274 pw.x -in pw.inp   Done                     12/28/2018 01:04:52
00006 suncat0274 pw.x -in pw.inp   Done                     12/28/2018 01:04:52
00007 suncat0274 pw.x -in pw.inp   Done                     12/28/2018 01:04:52
00008 suncat0273 pw.x -in pw.inp   Done                     12/28/2018 01:04:52
00009 suncat0273 pw.x -in pw.inp   Done                     12/28/2018 01:04:52
00010 suncat0273 pw.x -in pw.inp   Done                     12/28/2018 01:04:52
00011 suncat0273 pw.x -in pw.inp   Done                     12/28/2018 01:04:52
00012 suncat0273 pw.x -in pw.inp   Done                     12/28/2018 01:04:52
00013 suncat0273 pw.x -in pw.inp   Done                     12/28/2018 01:04:52
00014 suncat0273 pw.x -in pw.inp   Done                     12/28/2018 01:04:52
00015 suncat0273 pw.x -in pw.inp   Done                     12/28/2018 01:04:52
00016 suncat0230 pw.x -in pw.inp   Done                     12/28/2018 01:04:52
00017 suncat0230 pw.x -in pw.inp   Done                     12/28/2018 01:04:52
00018 suncat0230 pw.x -in pw.inp   Done                     12/28/2018 01:04:52
00019 suncat0230 pw.x -in pw.inp   Done                     12/28/2018 01:04:52
00020 suncat0230 pw.x -in pw.inp   Done                     12/28/2018 01:04:52
00021 suncat0230 pw.x -in pw.inp   Done                     12/28/2018 01:04:52
00022 suncat0230 pw.x -in pw.inp   Done                     12/28/2018 01:04:52
00023 suncat0230 pw.x -in pw.inp   Done                     12/28/2018 01:04:52
00024 suncat0229 pw.x -in pw.inp   Done                     12/28/2018 01:04:52
00025 suncat0229 pw.x -in pw.inp   Done                     12/28/2018 01:04:52
00026 suncat0229 pw.x -in pw.inp   Done                     12/28/2018 01:04:52
00027 suncat0229 pw.x -in pw.inp   Done                     12/28/2018 01:04:52
00028 suncat0229 pw.x -in pw.inp   Done                     12/28/2018 01:04:52
00029 suncat0229 pw.x -in pw.inp   Done                     12/28/2018 01:04:52
00030 suncat0229 pw.x -in pw.inp   Done                     12/28/2018 01:04:52
00031 suncat0229 pw.x -in pw.inp   Done                     12/28/2018 01:04:52
00032 suncat0209 pw.x -in pw.inp   Done                     12/28/2018 01:04:52
00033 suncat0209 pw.x -in pw.inp   Done                     12/28/2018 01:04:52
00034 suncat0209 pw.x -in pw.inp   Done                     12/28/2018 01:04:52
00035 suncat0209 pw.x -in pw.inp   Done                     12/28/2018 01:04:52
00036 suncat0209 pw.x -in pw.inp   Done                     12/28/2018 01:04:52
00037 suncat0209 pw.x -in pw.inp   Done                     12/28/2018 01:04:52
00038 suncat0209 pw.x -in pw.inp   Done                     12/28/2018 01:04:52
00039 suncat0209 pw.x -in pw.inp   Done                     12/28/2018 01:04:52
00040 suncat0205 pw.x -in pw.inp   Done                     12/28/2018 01:04:52
00041 suncat0205 pw.x -in pw.inp   Done                     12/28/2018 01:04:52
00042 suncat0205 pw.x -in pw.inp   Done                     12/28/2018 01:04:52
00043 suncat0205 pw.x -in pw.inp   Done                     12/28/2018 01:04:52
00044 suncat0205 pw.x -in pw.inp   Done                     12/28/2018 01:04:52
00045 suncat0205 pw.x -in pw.inp   Done                     12/28/2018 01:04:52
00046 suncat0205 pw.x -in pw.inp   Done                     12/28/2018 01:04:52
00047 suncat0205 pw.x -in pw.inp   Done                     12/28/2018 01:04:52
00048 suncat0204 pw.x -in pw.inp   Done                     12/28/2018 01:04:52
00049 suncat0204 pw.x -in pw.inp   Done                     12/28/2018 01:04:52
00050 suncat0204 pw.x -in pw.inp   Done                     12/28/2018 01:04:52
00051 suncat0204 pw.x -in pw.inp   Done                     12/28/2018 01:04:52
00052 suncat0204 pw.x -in pw.inp   Done                     12/28/2018 01:04:52
00053 suncat0204 pw.x -in pw.inp   Done                     12/28/2018 01:04:52
00054 suncat0204 pw.x -in pw.inp   Done                     12/28/2018 01:04:52
00055 suncat0204 pw.x -in pw.inp   Done                     12/28/2018 01:04:52
00056 suncat0203 pw.x -in pw.inp   Done                     12/28/2018 01:04:52
00057 suncat0203 pw.x -in pw.inp   Done                     12/28/2018 01:04:52
00058 suncat0203 pw.x -in pw.inp   Done                     12/28/2018 01:04:52
00059 suncat0203 pw.x -in pw.inp   Done                     12/28/2018 01:04:52
00060 suncat0203 pw.x -in pw.inp   Done                     12/28/2018 01:04:52
00061 suncat0203 pw.x -in pw.inp   Done                     12/28/2018 01:04:52
00062 suncat0203 pw.x -in pw.inp   Done                     12/28/2018 01:04:52
00063 suncat0203 pw.x -in pw.inp   Done                     12/28/2018 01:04:52