     Program PWSCF v.5.1rc2 (svn rev. 11289) starts on 31Dec2018 at 22:36: 2

     Current dimensions of program PWSCF are:
     Max number of different atomic species (ntypx) = 10
     Max number of k-points (npk) =  40000
     Max angular momentum in pseudopotentials (lmaxx) =  3
     Presently stress not available with electric field

     IMPORTANT: XC functional enforced from input :
     Exchange-correlation      = BEEF-VDW ( 1  4 27 13 2)
     Any further DFT definition will be discarded
     Please, verify this is what you really want

     Subspace diagonalization in iterative solution of the eigenvalue problem:
     a serial algorithm will be used

     Generating pointlists ...
     new r_m :   0.4125 (alat units)  0.7795 (a.u.) for type    1
     new r_m :   0.4125 (alat units)  0.7795 (a.u.) for type    2

     bravais-lattice index     =            0
     lattice parameter (alat)  =       1.8897  a.u.
     unit-cell volume          =    4181.9613 (a.u.)^3
     number of atoms/cell      =           12
     number of atomic types    =            2
     number of electrons       =       180.00
     number of Kohn-Sham states=          120
     kinetic-energy cutoff     =      36.7493  Ry
     charge density cutoff     =     367.4932  Ry
     convergence threshold     =      1.0E-06
     mixing beta               =       0.1000
     number of iterations used =           10  plain     mixing
     Exchange-correlation      = BEEF-VDW ( 1  4 27 13 2)
     nstep                     =           50

     celldm(1)=   1.889726  celldm(2)=   0.000000  celldm(3)=   0.000000
     celldm(4)=   0.000000  celldm(5)=   0.000000  celldm(6)=   0.000000

     crystal axes: (cart. coord. in units of alat)
               a(1) = (   5.413208   0.000000   0.000000 )
               a(2) = (  -2.706604   4.687976   0.000000 )
               a(3) = (   0.000000   0.000000  24.419866 )

     reciprocal axes: (cart. coord. in units 2 pi/alat)
               b(1) = (  0.184733  0.106656  0.000000 )
               b(2) = (  0.000000  0.213312  0.000000 )
               b(3) = (  0.000000  0.000000  0.040950 )

     PseudoPot. # 1 for Rh read from file:
     /afs/slac.stanford.edu/u/if/mamunm/psp/gbrv1.5pbe/Rh.UPF
     MD5 check sum: 761627e959a2e3a1f56b0b5fe687810e
     Pseudo is Ultrasoft + core correction, Zval = 15.0
     Generated by new atomic code, or converted to UPF format
     Using radial grid of  969 points,  7 beta functions with:
                l(1) =   0
                l(2) =   0
                l(3) =   1
                l(4) =   1
                l(5) =   2
                l(6) =   2
                l(7) =   2
     Q(r) pseudized with  8 coefficients,  rinner =    1.200   1.200   1.200
                                                       1.200   1.200

     PseudoPot. # 2 for Mn read from file:
     /afs/slac.stanford.edu/u/if/mamunm/psp/gbrv1.5pbe/Mn.UPF
     MD5 check sum: 82ef2b46521d7a7d9e736dc3972e4928
     Pseudo is Ultrasoft + core correction, Zval = 15.0
     Generated by new atomic code, or converted to UPF format
     Using radial grid of  859 points,  6 beta functions with:
                l(1) =   0
                l(2) =   0
                l(3) =   1
                l(4) =   1
                l(5) =   2
                l(6) =   2
     Q(r) pseudized with  8 coefficients,  rinner =    0.950   0.950   0.950
                                                       0.950   0.950

     vdW kernel table read from file vdW_kernel_table
     MD5 check sum: 095c7af220d748ca6e76c0b4c6cfb241

     atomic species   valence    mass     pseudopotential
        Rh1           15.00   102.90550     Rh( 1.00)
        Mn1           15.00    54.93804     Mn( 1.00)

     Starting magnetic structure
     atomic species   magnetization
        Rh1          0.133
        Mn1          0.133

     No symmetry found

   Cartesian axes

     site n.     atom                  positions (alat units)
         1           Rh1 tau(   1) = (   0.0000000   0.0000000  10.0000000  )
         2           Rh1 tau(   2) = (  -1.3533021   2.3439880  10.0000000  )
         3           Rh1 tau(   3) = (   1.3533021   2.3439880  10.0000000  )
         4           Mn1 tau(   4) = (   2.7066042   0.0000000  10.0000000  )
         5           Rh1 tau(   5) = (   2.7066042   1.5626587  12.2099331  )
         6           Rh1 tau(   6) = (   1.3533021   3.9066467  12.2099331  )
         7           Rh1 tau(   7) = (  -1.3533021   3.9066467  12.2099331  )
         8           Mn1 tau(   8) = (   0.0000000   1.5626587  12.2099331  )
         9           Rh1 tau(   9) = (  -0.0000000   3.1253173  14.4198662  )
        10           Rh1 tau(  10) = (   1.3533021   0.7813293  14.4198662  )
        11           Rh1 tau(  11) = (   4.0599063   0.7813293  14.4198662  )
        12           Mn1 tau(  12) = (   2.7066042   3.1253173  14.4198662  )

     number of k points=    40  Fermi-Dirac smearing, width (Ry)=  0.0110
                       cart. coord. in units 2pi/alat
        k(    1) = (   0.0000000   0.0000000   0.0000000), wk =   0.0277778
        k(    2) = (   0.0000000   0.0355519   0.0000000), wk =   0.0555556
        k(    3) = (   0.0000000   0.0711039   0.0000000), wk =   0.0555556
        k(    4) = (   0.0000000  -0.1066558   0.0000000), wk =   0.0277778
        k(    5) = (   0.0307889   0.0177760   0.0000000), wk =   0.0555556
        k(    6) = (   0.0307889   0.0533279   0.0000000), wk =   0.0555556
        k(    7) = (   0.0307889   0.0888799   0.0000000), wk =   0.0555556
        k(    8) = (   0.0307889  -0.0888799   0.0000000), wk =   0.0555556
        k(    9) = (   0.0307889  -0.0533279   0.0000000), wk =   0.0555556
        k(   10) = (   0.0307889  -0.0177760   0.0000000), wk =   0.0555556
        k(   11) = (   0.0615778   0.0355519   0.0000000), wk =   0.0555556
        k(   12) = (   0.0615778   0.0711039   0.0000000), wk =   0.0555556
        k(   13) = (   0.0615778   0.1066558   0.0000000), wk =   0.0555556
        k(   14) = (   0.0615778  -0.0711039   0.0000000), wk =   0.0555556
        k(   15) = (   0.0615778  -0.0355519   0.0000000), wk =   0.0555556
        k(   16) = (   0.0615778   0.0000000   0.0000000), wk =   0.0555556
        k(   17) = (  -0.0923667  -0.0533279   0.0000000), wk =   0.0277778
        k(   18) = (  -0.0923667  -0.0177760   0.0000000), wk =   0.0555556
        k(   19) = (  -0.0923667   0.0177760   0.0000000), wk =   0.0555556
        k(   20) = (  -0.0923667  -0.1599838   0.0000000), wk =   0.0277778
        k(   21) = (   0.0000000   0.0000000   0.0000000), wk =   0.0277778
        k(   22) = (   0.0000000   0.0355519   0.0000000), wk =   0.0555556
        k(   23) = (   0.0000000   0.0711039   0.0000000), wk =   0.0555556
        k(   24) = (   0.0000000  -0.1066558   0.0000000), wk =   0.0277778
        k(   25) = (   0.0307889   0.0177760   0.0000000), wk =   0.0555556
        k(   26) = (   0.0307889   0.0533279   0.0000000), wk =   0.0555556
        k(   27) = (   0.0307889   0.0888799   0.0000000), wk =   0.0555556
        k(   28) = (   0.0307889  -0.0888799   0.0000000), wk =   0.0555556
        k(   29) = (   0.0307889  -0.0533279   0.0000000), wk =   0.0555556
        k(   30) = (   0.0307889  -0.0177760   0.0000000), wk =   0.0555556
        k(   31) = (   0.0615778   0.0355519   0.0000000), wk =   0.0555556
        k(   32) = (   0.0615778   0.0711039   0.0000000), wk =   0.0555556
        k(   33) = (   0.0615778   0.1066558   0.0000000), wk =   0.0555556
        k(   34) = (   0.0615778  -0.0711039   0.0000000), wk =   0.0555556
        k(   35) = (   0.0615778  -0.0355519   0.0000000), wk =   0.0555556
        k(   36) = (   0.0615778   0.0000000   0.0000000), wk =   0.0555556
        k(   37) = (  -0.0923667  -0.0533279   0.0000000), wk =   0.0277778
        k(   38) = (  -0.0923667  -0.0177760   0.0000000), wk =   0.0555556
        k(   39) = (  -0.0923667   0.0177760   0.0000000), wk =   0.0555556
        k(   40) = (  -0.0923667  -0.1599838   0.0000000), wk =   0.0277778

     Largest allocated arrays     est. size (Mb)     dimensions
     Largest temporary arrays     est. size (Mb)     dimensions

     Check: negative/imaginary core charge=   -0.000003    0.000000

     Initial potential from superposition of free atoms
     Check: negative starting charge=(component1):   -0.277804
     Check: negative starting charge=(component2):   -0.212438

     starting charge  173.99886, renormalised to  180.00000

     negative rho (up, down):  2.874E-01 2.198E-01

     *
     * You are using vdW-DF for exchange-correlation in this calculation.
     * Please cite the following three references that made this development
     * possible:
     *
     *   M. Dion, H. Rydberg, E. Schroder, D. C. Langreth, and
     *   B. I. Lundqvist, Phys. Rev. Lett. 92, 246401 (2004).
     *
     *   T. Thonhauser, V. R. Cooper, S. Li, A. Puzder, P. Hyldgaard, and
     *   D. C. Langreth, Phys. Rev. B 76, 125112 (2007).
     *
     *   G. Roman-Perez and J. M. Soler, Phys. Rev. Lett. 103, 096102 (2009).
     *
     *
     * If you are using vdW-DF2, please also cite:
     *
     *   K. Lee, E. D. Murray, L. Kong, B. I. Lundqvist, and
     *   D. C. Langreth, Phys. Rev. B 82, 081101(R) (2010).
     *
     *
     * If you are calculating the stress with vdW-DF, please also cite:
     *
     *   R. Sabatini, E. Kucukbenli, B. Kolb, T. Thonhauser, and
     *   S. de Gironcoli, J. Phys.: Condens. Matter 24, 424209 (2012).
     *

     Carrying out vdW-DF run using the following parameters:

     Nqs =      20    Nr_points =    1024   r_max =   100.000
     q_mesh =
               0.00001000     0.04494208     0.09755937     0.15916263
               0.23128650     0.31572767     0.41458969     0.53033537
               0.66584808     0.82450364     1.01025438     1.22772762
               1.48234092     1.78043706     2.12944203     2.53805004
               3.01644009     3.57652955     4.23227104     5.00000000

     Gradients computed in reciprocal space

     Adding external electric field

     Computed dipole along edir(3) :
        Dipole               -0.0000 Ry au,         -0.0000 Debye
        Dipole field         -0.0000 Ry au

        Potential amp.        0.0000 Ry
        Total length         44.9932 bohr

[...]

     Starting wfc are  147 randomized atomic wfcs

     Self-consistent Calculation

     iteration #  1     ecut=    36.75 Ry     beta=0.10
     Davidson diagonalization with overlap
     ethr =  1.00E-02,  avg # of iterations =  7.8

[...]

     Magnetic moment per site:
     atom:    1    charge:    2.7749    magn:    0.3458    constr:    0.0000
     atom:    2    charge:    2.7749    magn:    0.3458    constr:    0.0000
     atom:    3    charge:    2.7749    magn:    0.3458    constr:    0.0000
     atom:    4    charge:    6.0531    magn:    0.7801    constr:    0.0000
     atom:    5    charge:    2.7623    magn:    0.3442    constr:    0.0000
     atom:    6    charge:    2.7623    magn:    0.3442    constr:    0.0000
     atom:    7    charge:    2.7623    magn:    0.3442    constr:    0.0000
[...]
        k(    4) = (   0.0000000  -0.1066558   0.0000000), wk =   0.0277778
        k(    5) = (   0.0307889   0.0177760   0.0000000), wk =   0.0555556
        k(    6) = (   0.0307889   0.0533279   0.0000000), wk =   0.0555556
        k(    7) = (   0.0307889   0.0888799   0.0000000), wk =   0.0555556
        k(    8) = (   0.0307889  -0.0888799   0.0000000), wk =   0.0555556
        k(    9) = (   0.0307889  -0.0533279   0.0000000), wk =   0.0555556
        k(   10) = (   0.0307889  -0.0177760   0.0000000), wk =   0.0555556
        k(   11) = (   0.0615778   0.0355519   0.0000000), wk =   0.0555556
        k(   12) = (   0.0615778   0.0711039   0.0000000), wk =   0.0555556
        k(   13) = (   0.0615778   0.1066558   0.0000000), wk =   0.0555556
        k(   14) = (   0.0615778  -0.0711039   0.0000000), wk =   0.0555556
        k(   15) = (   0.0615778  -0.0355519   0.0000000), wk =   0.0555556
        k(   16) = (   0.0615778   0.0000000   0.0000000), wk =   0.0555556
        k(   17) = (  -0.0923667  -0.0533279   0.0000000), wk =   0.0277778
        k(   18) = (  -0.0923667  -0.0177760   0.0000000), wk =   0.0555556
        k(   19) = (  -0.0923667   0.0177760   0.0000000), wk =   0.0555556
        k(   20) = (  -0.0923667  -0.1599838   0.0000000), wk =   0.0277778
        k(   21) = (   0.0000000   0.0000000   0.0000000), wk =   0.0277778
        k(   22) = (   0.0000000   0.0355519   0.0000000), wk =   0.0555556
        k(   23) = (   0.0000000   0.0711039   0.0000000), wk =   0.0555556
        k(   24) = (   0.0000000  -0.1066558   0.0000000), wk =   0.0277778
        k(   25) = (   0.0307889   0.0177760   0.0000000), wk =   0.0555556
        k(   26) = (   0.0307889   0.0533279   0.0000000), wk =   0.0555556
        k(   27) = (   0.0307889   0.0888799   0.0000000), wk =   0.0555556
        k(   28) = (   0.0307889  -0.0888799   0.0000000), wk =   0.0555556
        k(   29) = (   0.0307889  -0.0533279   0.0000000), wk =   0.0555556
        k(   30) = (   0.0307889  -0.0177760   0.0000000), wk =   0.0555556
        k(   31) = (   0.0615778   0.0355519   0.0000000), wk =   0.0555556
        k(   32) = (   0.0615778   0.0711039   0.0000000), wk =   0.0555556
        k(   33) = (   0.0615778   0.1066558   0.0000000), wk =   0.0555556
        k(   34) = (   0.0615778  -0.0711039   0.0000000), wk =   0.0555556
        k(   35) = (   0.0615778  -0.0355519   0.0000000), wk =   0.0555556
        k(   36) = (   0.0615778   0.0000000   0.0000000), wk =   0.0555556
        k(   37) = (  -0.0923667  -0.0533279   0.0000000), wk =   0.0277778
        k(   38) = (  -0.0923667  -0.0177760   0.0000000), wk =   0.0555556
        k(   39) = (  -0.0923667   0.0177760   0.0000000), wk =   0.0555556
        k(   40) = (  -0.0923667  -0.1599838   0.0000000), wk =   0.0277778

     Largest allocated arrays     est. size (Mb)     dimensions
     Largest temporary arrays     est. size (Mb)     dimensions

     Check: negative/imaginary core charge=   -0.000003    0.000000

     Initial potential from superposition of free atoms
     Check: negative starting charge=(component1):   -0.276988
     Check: negative starting charge=(component2):   -0.211815

     starting charge  173.99886, renormalised to  180.00000

[...]

     *
     * You are using vdW-DF for exchange-correlation in this calculation.
     * Please cite the following three references that made this development
     * possible:
     *
     *   M. Dion, H. Rydberg, E. Schroder, D. C. Langreth, and
     *   B. I. Lundqvist, Phys. Rev. Lett. 92, 246401 (2004).
     *
     *   T. Thonhauser, V. R. Cooper, S. Li, A. Puzder, P. Hyldgaard, and
     *   D. C. Langreth, Phys. Rev. B 76, 125112 (2007).
     *
     *   G. Roman-Perez and J. M. Soler, Phys. Rev. Lett. 103, 096102 (2009).
     *
     *
     * If you are using vdW-DF2, please also cite:
     *
     *   K. Lee, E. D. Murray, L. Kong, B. I. Lundqvist, and
     *   D. C. Langreth, Phys. Rev. B 82, 081101(R) (2010).
     *
     *
     * If you are calculating the stress with vdW-DF, please also cite:
     *
     *   R. Sabatini, E. Kucukbenli, B. Kolb, T. Thonhauser, and
     *   S. de Gironcoli, J. Phys.: Condens. Matter 24, 424209 (2012).
     *

     Carrying out vdW-DF run using the following parameters:

     Nqs =      20    Nr_points =    1024   r_max =   100.000
     q_mesh =
               0.00001000     0.04494208     0.09755937     0.15916263
               0.23128650     0.31572767     0.41458969     0.53033537
               0.66584808     0.82450364     1.01025438     1.22772762
               1.48234092     1.78043706     2.12944203     2.53805004
               3.01644009     3.57652955     4.23227104     5.00000000

     Gradients computed in reciprocal space

[...]

     Starting wfc are  147 randomized atomic wfcs

     Self-consistent Calculation

[...]

     total energy              =   -2186.26414668 Ry
     Harris-Foulkes estimate   =   -2186.26414589 Ry
     estimated scf accuracy    <       0.00000115 Ry

[...]

     iteration # 29     ecut=    36.75 Ry     beta=0.10
     Davidson diagonalization with overlap
     ethr =  6.40E-10,  avg # of iterations =  1.8

[...]

     negative rho (up, down):  2.565E-01 2.553E-01

[...]

     Adding external electric field

     Computed dipole along edir(3) :
        Dipole                0.0082 Ry au,          0.0208 Debye
        Dipole field          0.0000 Ry au

        Potential amp.       -0.0022 Ry
        Total length         44.9932 bohr

     Magnetic moment per site:
     atom:    1    charge:    2.7049    magn:   -0.0073    constr:    0.0000
     atom:    2    charge:    2.7049    magn:   -0.0073    constr:    0.0000
     atom:    3    charge:    2.7049    magn:   -0.0073    constr:    0.0000
     atom:    4    charge:    6.0136    magn:    1.5438    constr:    0.0000
     atom:    5    charge:    2.6946    magn:    0.0052    constr:    0.0000
     atom:    6    charge:    2.6947    magn:    0.0052    constr:    0.0000
     atom:    7    charge:    2.6947    magn:    0.0052    constr:    0.0000
     atom:    8    charge:    5.9908    magn:    1.3913    constr:    0.0000
     atom:    9    charge:    2.7014    magn:   -0.0075    constr:    0.0000
     atom:   10    charge:    2.7014    magn:   -0.0075    constr:    0.0000
     atom:   11    charge:    2.7014    magn:   -0.0075    constr:    0.0000
     atom:   12    charge:    6.0140    magn:    1.5489    constr:    0.0000

     End of self-consistent calculation

 ------ SPIN UP ------------

[...]

 ------ SPIN DOWN ----------

[...]

          k = 0.0616 0.0000 0.0000 ( 15728 PWs)   bands (ev):

[...]

          k =-0.0924-0.1600 0.0000 ( 15756 PWs)   bands (ev):

   -75.7831 -75.5673 -75.5600 -45.1870 -45.1002 -45.0715 -45.0556 -45.0490
   -44.9784 -44.9755 -44.9085 -44.8863 -44.8541 -44.7585 -44.7387 -44.6981
   -44.6951 -44.6682 -44.6637 -44.6445 -44.6435 -44.6292 -44.6167 -44.6041
   -44.5640 -44.5301 -44.5280 -44.4967 -44.4913 -44.4864 -44.4684 -44.4521
   -44.4270 -44.3932 -44.3840 -44.3386 -44.3348 -44.2540 -44.2480  -3.6142
    -3.4644  -2.9386  -2.8248  -2.6835  -2.6030  -2.3935  -2.2995  -2.2985
    -2.1513  -2.1296  -2.1035  -1.8876  -1.7173  -1.7052  -1.6808  -1.5883
    -1.5780  -1.2930  -1.0908  -0.8313  -0.7695  -0.6900  -0.6176  -0.5431
    -0.5321  -0.4376  -0.3631  -0.3577  -0.3212  -0.2707  -0.2380  -0.2307
    -0.1395   0.1564   0.2167   0.3988   0.4151   0.4156   0.4664   0.5508
     0.8060   0.9042   0.9124   1.3160   1.3624   1.3838   1.5288   1.9699
     1.9937   2.0009   2.4355   2.5443   2.8176   2.8297   2.9094   2.9448
     2.9772   3.2351   3.2934   3.3251   3.4221   3.5715   3.8275   4.3242
     4.4566   4.9132   5.3601   5.6539   5.9086   6.2024   6.2398   7.4769
     7.4831   7.5039   7.6285   8.1146   8.1205   8.3092   8.3137   9.3947

     the Fermi energy is     1.5562 ev

!    total energy              =   -2186.26414787 Ry
     Harris-Foulkes estimate   =   -2186.26414684 Ry
     estimated scf accuracy    <       0.00000069 Ry

     The total energy is the sum of the following terms:

     one-electron contribution =  -19460.52216811 Ry
     hartree contribution      =    9760.56218697 Ry
     xc contribution           =    -362.29666175 Ry
     ewald contribution        =    7876.09273256 Ry
     electric field correction =       0.00000020 Ry
     smearing contrib. (-TS)   =      -0.10023774 Ry

     total magnetization       =    11.29 Bohr mag/cell
     absolute magnetization    =    12.68 Bohr mag/cell

     convergence has been achieved in  29 iterations

 BEEF-vdW xc energy contributions
           1 :   -315.811305756727
           2 :    288.911883864141
           3 :   -242.933823428270
           4 :    189.958610536160
           5 :   -141.499901865689
           6 :    104.838249004788
           7 :   -81.7534910705705
           8 :    69.5192226673718
           9 :   -63.1905831072302
          10 :    58.0199615746487
          11 :   -51.1121073417249
          12 :    41.9332044784880
          13 :   -31.7997596103050
          14 :    22.7765825444155
          15 :   -16.4998579878492
          16 :    13.3899145210721
          17 :   -12.5576253430345
          18 :    12.3922608446208
          19 :   -11.4691537057375
          20 :    9.24778781965887
          21 :   -6.18923246952608
          22 :    3.29876565989997
          23 :   -1.44335269467365
          24 :   0.874319172483240
          25 :   -1.19154901635937
          26 :    1.67620714034155
          27 :   -1.72227859906161
          28 :    1.11017808254684
          29 :  -2.787116649233212E-002
          30 :   -1.10047594456438
          31 :   -30.4987968299205
          32 :   -22.5807356935978

     Forces acting on atoms (Ry/au):

     negative rho (up, down):  2.565E-01 2.553E-01
     atom    1 type  1   force =     0.00000020    0.00561681    0.00846299
     atom    2 type  1   force =     0.00486524   -0.00280837    0.00846342
     atom    3 type  1   force =    -0.00486390   -0.00280781    0.00846156
     atom    4 type  2   force =     0.00000118    0.00000136   -0.00483963
     atom    5 type  1   force =     0.00000073    0.00376524   -0.00592495
     atom    6 type  1   force =     0.00326085   -0.00188157   -0.00592557
     atom    7 type  1   force =    -0.00325939   -0.00188147   -0.00592570
     atom    8 type  2   force =    -0.00000466   -0.00000412   -0.00738534
     atom    9 type  1   force =     0.00000036   -0.00101455    0.00109860
     atom   10 type  1   force =    -0.00087801    0.00050754    0.00109902
     atom   11 type  1   force =     0.00087701    0.00050647    0.00109777
     atom   12 type  2   force =     0.00000040    0.00000047    0.00131783

     Total force =     0.023318     Total SCF correction =     0.003572
     SCF correction compared to forces is large: reduce conv_thr to get better values

     entering subroutine stress ...

     negative rho (up, down):  2.565E-01 2.553E-01
          total   stress  (Ry/bohr**3)                   (kbar)     P=  -23.49
  -0.00016980  -0.00000000  -0.00000000        -24.98     -0.00     -0.00
  -0.00000000  -0.00016980   0.00000000         -0.00    -24.98      0.00
  -0.00000000   0.00000000  -0.00013948         -0.00      0.00    -20.52

 !ASE

     Writing output data file calc.save

     General routines

     Parallel routines

   This run was terminated on:   0:34: 8   1Jan2019

   JOB DONE.
Job  /afs/slac/g/suncat/bin/suncat-tsmpirun -x LD_LIBRARY_PATH -wdir /scratch/qe648884_r1PGP pw.x -in pw.inp

TID   HOST_NAME   COMMAND_LINE            STATUS            TERMINATION_TIME
00000 suncat0074 pw.x -in pw.inp   Done                     01/01/2019 00:34:08
00001 suncat0074 pw.x -in pw.inp   Done                     01/01/2019 00:34:08
00002 suncat0074 pw.x -in pw.inp   Done                     01/01/2019 00:34:08
00003 suncat0074 pw.x -in pw.inp   Done                     01/01/2019 00:34:08
00004 suncat0074 pw.x -in pw.inp   Done                     01/01/2019 00:34:08
00005 suncat0074 pw.x -in pw.inp   Done                     01/01/2019 00:34:08
00006 suncat0074 pw.x -in pw.inp   Done                     01/01/2019 00:34:08
00007 suncat0074 pw.x -in pw.inp   Done                     01/01/2019 00:34:08
00008 suncat0073 pw.x -in pw.inp   Done                     01/01/2019 00:34:08
00009 suncat0073 pw.x -in pw.inp   Done                     01/01/2019 00:34:08
00010 suncat0073 pw.x -in pw.inp   Done                     01/01/2019 00:34:08
00011 suncat0073 pw.x -in pw.inp   Done                     01/01/2019 00:34:08
00012 suncat0073 pw.x -in pw.inp   Done                     01/01/2019 00:34:08
00013 suncat0073 pw.x -in pw.inp   Done                     01/01/2019 00:34:08
00014 suncat0073 pw.x -in pw.inp   Done                     01/01/2019 00:34:08
00015 suncat0073 pw.x -in pw.inp   Done                     01/01/2019 00:34:08
00016 suncat0065 pw.x -in pw.inp   Done                     01/01/2019 00:34:08
00017 suncat0065 pw.x -in pw.inp   Done                     01/01/2019 00:34:08
00018 suncat0065 pw.x -in pw.inp   Done                     01/01/2019 00:34:08
00019 suncat0065 pw.x -in pw.inp   Done                     01/01/2019 00:34:08
00020 suncat0065 pw.x -in pw.inp   Done                     01/01/2019 00:34:08
00021 suncat0065 pw.x -in pw.inp   Done                     01/01/2019 00:34:08
00022 suncat0065 pw.x -in pw.inp   Done                     01/01/2019 00:34:08
00023 suncat0065 pw.x -in pw.inp   Done                     01/01/2019 00:34:08
00024 suncat0064 pw.x -in pw.inp   Done                     01/01/2019 00:34:08
00025 suncat0064 pw.x -in pw.inp   Done                     01/01/2019 00:34:08
00026 suncat0064 pw.x -in pw.inp   Done                     01/01/2019 00:34:08
00027 suncat0064 pw.x -in pw.inp   Done                     01/01/2019 00:34:08
00028 suncat0064 pw.x -in pw.inp   Done                     01/01/2019 00:34:08
00029 suncat0064 pw.x -in pw.inp   Done                     01/01/2019 00:34:08
00030 suncat0064 pw.x -in pw.inp   Done                     01/01/2019 00:34:08
00031 suncat0064 pw.x -in pw.inp   Done                     01/01/2019 00:34:08
00032 suncat0156 pw.x -in pw.inp   Done                     01/01/2019 00:34:08
00033 suncat0156 pw.x -in pw.inp   Done                     01/01/2019 00:34:08
00034 suncat0156 pw.x -in pw.inp   Done                     01/01/2019 00:34:08
00035 suncat0156 pw.x -in pw.inp   Done                     01/01/2019 00:34:08
00036 suncat0156 pw.x -in pw.inp   Done                     01/01/2019 00:34:08
00037 suncat0156 pw.x -in pw.inp   Done                     01/01/2019 00:34:08
00038 suncat0156 pw.x -in pw.inp   Done                     01/01/2019 00:34:08
00039 suncat0156 pw.x -in pw.inp   Done                     01/01/2019 00:34:08
00040 suncat0153 pw.x -in pw.inp   Done                     01/01/2019 00:34:08
00041 suncat0153 pw.x -in pw.inp   Done                     01/01/2019 00:34:08
00042 suncat0153 pw.x -in pw.inp   Done                     01/01/2019 00:34:08
00043 suncat0153 pw.x -in pw.inp   Done                     01/01/2019 00:34:08
00044 suncat0153 pw.x -in pw.inp   Done                     01/01/2019 00:34:08
00045 suncat0153 pw.x -in pw.inp   Done                     01/01/2019 00:34:08
00046 suncat0153 pw.x -in pw.inp   Done                     01/01/2019 00:34:08
00047 suncat0153 pw.x -in pw.inp   Done                     01/01/2019 00:34:08
00048 suncat0145 pw.x -in pw.inp   Done                     01/01/2019 00:34:08
00049 suncat0145 pw.x -in pw.inp   Done                     01/01/2019 00:34:08
00050 suncat0145 pw.x -in pw.inp   Done                     01/01/2019 00:34:08
00051 suncat0145 pw.x -in pw.inp   Done                     01/01/2019 00:34:08
00052 suncat0145 pw.x -in pw.inp   Done                     01/01/2019 00:34:08
00053 suncat0145 pw.x -in pw.inp   Done                     01/01/2019 00:34:08
00054 suncat0145 pw.x -in pw.inp   Done                     01/01/2019 00:34:08
00055 suncat0145 pw.x -in pw.inp   Done                     01/01/2019 00:34:08
00056 suncat0144 pw.x -in pw.inp   Done                     01/01/2019 00:34:08
00057 suncat0144 pw.x -in pw.inp   Done                     01/01/2019 00:34:08
00058 suncat0144 pw.x -in pw.inp   Done                     01/01/2019 00:34:08
00059 suncat0144 pw.x -in pw.inp   Done                     01/01/2019 00:34:08
00060 suncat0144 pw.x -in pw.inp   Done                     01/01/2019 00:34:08
00061 suncat0144 pw.x -in pw.inp   Done                     01/01/2019 00:34:08
00062 suncat0144 pw.x -in pw.inp   Done                     01/01/2019 00:34:08
00063 suncat0144 pw.x -in pw.inp   Done                     01/01/2019 00:34:08