     Program PWSCF v.5.1rc2 (svn rev. 11289) starts on 27Dec2018 at  7:56:33

     Current dimensions of program PWSCF are:
     Max number of different atomic species (ntypx) = 10
     Max number of k-points (npk) =  40000
     Max angular momentum in pseudopotentials (lmaxx) =  3
     Presently stress not available with electric field

     IMPORTANT: XC functional enforced from input :
     Exchange-correlation      = BEEF-VDW ( 1  4 27 13 2)
     Any further DFT definition will be discarded
     Please, verify this is what you really want

     Subspace diagonalization in iterative solution of the eigenvalue problem:
     a serial algorithm will be used

     Generating pointlists ...
     new r_m :   0.4125 (alat units)  0.7795 (a.u.) for type    1
     new r_m :   0.4125 (alat units)  0.7795 (a.u.) for type    2

     bravais-lattice index     =            0
     lattice parameter (alat)  =       1.8897  a.u.
     unit-cell volume          =    3729.3975 (a.u.)^3
     number of atoms/cell      =           12
     number of atomic types    =            2
     number of electrons       =       210.00
     number of Kohn-Sham states=          135
     kinetic-energy cutoff     =      36.7493  Ry
     charge density cutoff     =     367.4932  Ry
     convergence threshold     =      1.0E-06
     mixing beta               =       0.1000
     number of iterations used =           10  plain     mixing
     Exchange-correlation      = BEEF-VDW ( 1  4 27 13 2)
     nstep                     =           50

     celldm(1)=   1.889726  celldm(2)=   0.000000  celldm(3)=   0.000000
     celldm(4)=   0.000000  celldm(5)=   0.000000  celldm(6)=   0.000000

     crystal axes: (cart. coord. in units of alat)
               a(1) = (   5.135795   0.000000   0.000000 )
               a(2) = (  -2.567897   4.447729   0.000000 )
               a(3) = (   0.000000   0.000000  24.193359 )

     reciprocal axes: (cart. coord. in units 2 pi/alat)
               b(1) = (  0.194712  0.112417  0.000000 )
               b(2) = (  0.000000  0.224834  0.000000 )
               b(3) = (  0.000000  0.000000  0.041334 )

     PseudoPot. # 1 for Ni read from file:
     /afs/slac.stanford.edu/u/if/mamunm/psp/gbrv1.5pbe/Ni.UPF
     MD5 check sum: 1ee80287db30b12d2bc1f57a5b5d6409
     Pseudo is Ultrasoft + core correction, Zval = 18.0
     Generated by new atomic code, or converted to UPF format
     Using radial grid of  865 points,  6 beta functions with:
                l(1) =   0
                l(2) =   0
                l(3) =   1
                l(4) =   1
                l(5) =   2
                l(6) =   2
     Q(r) pseudized with 10 coefficients,  rinner =    0.980   0.980   0.980
                                                       0.980   0.980

     PseudoPot. # 2 for Os read from file:
     /afs/slac.stanford.edu/u/if/mamunm/psp/gbrv1.5pbe/Os.UPF
     MD5 check sum: a3fb40a04f0c37c25c34bbc47164c9a8
     Pseudo is Ultrasoft + core correction, Zval = 16.0
     Generated by new atomic code, or converted to UPF format
     Using radial grid of  983 points,  8 beta functions with:
                l(1) =   0
                l(2) =   0
                l(3) =   1
                l(4) =   1
                l(5) =   2
                l(6) =   2
                l(7) =   3
                l(8) =   3
     Q(r) pseudized with  8 coefficients,  rinner =    1.150   1.150   1.150
                                                       1.150   1.150   1.150
                                                       1.150

     vdW kernel table read from file vdW_kernel_table
     MD5 check sum: 095c7af220d748ca6e76c0b4c6cfb241

     atomic species   valence    mass     pseudopotential
        Ni1           18.00    58.69340     Ni( 1.00)
        Os1           16.00   190.23000     Os( 1.00)

     Starting magnetic structure
     atomic species   magnetization
        Ni1          0.111
        Os1          0.125

     No symmetry found

   Cartesian axes

     site n.     atom                  positions (alat units)
         1           Ni1 tau(   1) = (   0.0000000   0.0000000  10.0000000  )
         2           Ni1 tau(   2) = (  -1.2839486   2.2238643  10.0000000  )
         3           Ni1 tau(   3) = (   1.2839486   2.2238643  10.0000000  )
         4           Os1 tau(   4) = (   2.5678973   0.0000000  10.0000000  )
         5           Ni1 tau(   5) = (   2.5678973   1.4825762  12.0966793  )
         6           Ni1 tau(   6) = (   1.2839486   3.7064405  12.0966793  )
         7           Ni1 tau(   7) = (  -1.2839486   3.7064405  12.0966793  )
         8           Os1 tau(   8) = (   0.0000000   1.4825762  12.0966793  )
         9           Ni1 tau(   9) = (  -0.0000000   2.9651524  14.1933587  )
        10           Ni1 tau(  10) = (   1.2839486   0.7412881  14.1933587  )
        11           Ni1 tau(  11) = (   3.8518459   0.7412881  14.1933587  )
        12           Os1 tau(  12) = (   2.5678973   2.9651524  14.1933587  )

     number of k points=    40  Fermi-Dirac smearing, width (Ry)=  0.0110
                       cart. coord. in units 2pi/alat
        k(    1) = (   0.0000000   0.0000000   0.0000000), wk =   0.0277778
        k(    2) = (   0.0000000   0.0374723   0.0000000), wk =   0.0555556
        k(    3) = (   0.0000000   0.0749446   0.0000000), wk =   0.0555556
        k(    4) = (   0.0000000  -0.1124169   0.0000000), wk =   0.0277778
        k(    5) = (   0.0324520   0.0187362   0.0000000), wk =   0.0555556
        k(    6) = (   0.0324520   0.0562085   0.0000000), wk =   0.0555556
        k(    7) = (   0.0324520   0.0936808   0.0000000), wk =   0.0555556
        k(    8) = (   0.0324520  -0.0936808   0.0000000), wk =   0.0555556
        k(    9) = (   0.0324520  -0.0562085   0.0000000), wk =   0.0555556
        k(   10) = (   0.0324520  -0.0187362   0.0000000), wk =   0.0555556
        k(   11) = (   0.0649039   0.0374723   0.0000000), wk =   0.0555556
        k(   12) = (   0.0649039   0.0749446   0.0000000), wk =   0.0555556
        k(   13) = (   0.0649039   0.1124169   0.0000000), wk =   0.0555556
        k(   14) = (   0.0649039  -0.0749446   0.0000000), wk =   0.0555556
        k(   15) = (   0.0649039  -0.0374723   0.0000000), wk =   0.0555556
        k(   16) = (   0.0649039   0.0000000   0.0000000), wk =   0.0555556
        k(   17) = (  -0.0973559  -0.0562085   0.0000000), wk =   0.0277778
        k(   18) = (  -0.0973559  -0.0187362   0.0000000), wk =   0.0555556
        k(   19) = (  -0.0973559   0.0187362   0.0000000), wk =   0.0555556
        k(   20) = (  -0.0973559  -0.1686254   0.0000000), wk =   0.0277778
        k(   21) = (   0.0000000   0.0000000   0.0000000), wk =   0.0277778
        k(   22) = (   0.0000000   0.0374723   0.0000000), wk =   0.0555556
        k(   23) = (   0.0000000   0.0749446   0.0000000), wk =   0.0555556
        k(   24) = (   0.0000000  -0.1124169   0.0000000), wk =   0.0277778
        k(   25) = (   0.0324520   0.0187362   0.0000000), wk =   0.0555556
        k(   26) = (   0.0324520   0.0562085   0.0000000), wk =   0.0555556
        k(   27) = (   0.0324520   0.0936808   0.0000000), wk =   0.0555556
        k(   28) = (   0.0324520  -0.0936808   0.0000000), wk =   0.0555556
        k(   29) = (   0.0324520  -0.0562085   0.0000000), wk =   0.0555556
        k(   30) = (   0.0324520  -0.0187362   0.0000000), wk =   0.0555556
        k(   31) = (   0.0649039   0.0374723   0.0000000), wk =   0.0555556
        k(   32) = (   0.0649039   0.0749446   0.0000000), wk =   0.0555556
        k(   33) = (   0.0649039   0.1124169   0.0000000), wk =   0.0555556
        k(   34) = (   0.0649039  -0.0749446   0.0000000), wk =   0.0555556
        k(   35) = (   0.0649039  -0.0374723   0.0000000), wk =   0.0555556
        k(   36) = (   0.0649039   0.0000000   0.0000000), wk =   0.0555556
        k(   37) = (  -0.0973559  -0.0562085   0.0000000), wk =   0.0277778
        k(   38) = (  -0.0973559  -0.0187362   0.0000000), wk =   0.0555556
        k(   39) = (  -0.0973559   0.0187362   0.0000000), wk =   0.0555556
        k(   40) = (  -0.0973559  -0.1686254   0.0000000), wk =   0.0277778

     Largest allocated arrays     est. size (Mb)     dimensions
     Largest temporary arrays     est. size (Mb)     dimensions

     Check: negative/imaginary core charge=   -0.000002    0.000000

     Initial potential from superposition of free atoms
     Check: negative starting charge=(component1):   -0.217443
     Check: negative starting charge=(component2):   -0.169129

     starting charge  190.49989, renormalised to  210.00000

     negative rho (up, down):  2.397E-01 1.864E-01

     *
     * You are using vdW-DF for exchange-correlation in this calculation.
     * Please cite the following three references that made this development
     * possible:
     *
     *   M. Dion, H. Rydberg, E. Schroder, D. C. Langreth, and
     *   B. I. Lundqvist, Phys. Rev. Lett. 92, 246401 (2004).
     *
     *   T. Thonhauser, V. R. Cooper, S. Li, A. Puzder, P. Hyldgaard, and
     *   D. C. Langreth, Phys. Rev. B 76, 125112 (2007).
     *
     *   G. Roman-Perez and J. M. Soler, Phys. Rev. Lett. 103, 096102 (2009).
     *
     *
     * If you are using vdW-DF2, please also cite:
     *
     *   K. Lee, E. D. Murray, L. Kong, B. I. Lundqvist, and
     *   D. C. Langreth, Phys. Rev. B 82, 081101(R) (2010).
     *
     *
     * If you are calculating the stress with vdW-DF, please also cite:
     *
     *   R. Sabatini, E. Kucukbenli, B. Kolb, T. Thonhauser, and
     *   S. de Gironcoli, J. Phys.: Condens. Matter 24, 424209 (2012).
     *

     Carrying out vdW-DF run using the following parameters:

     Nqs =      20    Nr_points =    1024   r_max =   100.000
     q_mesh =
               0.00001000     0.04494208     0.09755937     0.15916263
               0.23128650     0.31572767     0.41458969     0.53033537
               0.66584808     0.82450364     1.01025438     1.22772762
               1.48234092     1.78043706     2.12944203     2.53805004
               3.01644009     3.57652955     4.23227104     5.00000000

     Gradients computed in reciprocal space

     Adding external electric field

     Computed dipole along edir(3) :
        Dipole                0.0000 Ry au,          0.0000 Debye
        Dipole field          0.0000 Ry au

        Potential amp.       -0.0000 Ry
        Total length         44.5759 bohr

[...]

     Starting wfc are  156 randomized atomic wfcs

     Self-consistent Calculation

     iteration #  1     ecut=    36.75 Ry     beta=0.10
     Davidson diagonalization with overlap
     ethr =  1.00E-02,  avg # of iterations =  7.9

[...]

     Magnetic moment per site:
     atom:    1    charge:    9.7935    magn:    1.0373    constr:    0.0000
     atom:    2    charge:    9.7935    magn:    1.0373    constr:    0.0000
     atom:    3    charge:    9.7935    magn:    1.0373    constr:    0.0000
     atom:    4    charge:    2.3777    magn:    0.2725    constr:    0.0000
     atom:    5    charge:    9.7948    magn:    1.0377    constr:    0.0000
     atom:    6    charge:    9.7948    magn:    1.0377    constr:    0.0000
[...]
        k(    5) = (   0.0324520   0.0187362   0.0000000), wk =   0.0555556
        k(    6) = (   0.0324520   0.0562085   0.0000000), wk =   0.0555556
        k(    7) = (   0.0324520   0.0936808   0.0000000), wk =   0.0555556
        k(    8) = (   0.0324520  -0.0936808   0.0000000), wk =   0.0555556
        k(    9) = (   0.0324520  -0.0562085   0.0000000), wk =   0.0555556
        k(   10) = (   0.0324520  -0.0187362   0.0000000), wk =   0.0555556
        k(   11) = (   0.0649039   0.0374723   0.0000000), wk =   0.0555556
        k(   12) = (   0.0649039   0.0749446   0.0000000), wk =   0.0555556
        k(   13) = (   0.0649039   0.1124169   0.0000000), wk =   0.0555556
        k(   14) = (   0.0649039  -0.0749446   0.0000000), wk =   0.0555556
        k(   15) = (   0.0649039  -0.0374723   0.0000000), wk =   0.0555556
        k(   16) = (   0.0649039   0.0000000   0.0000000), wk =   0.0555556
        k(   17) = (  -0.0973559  -0.0562085   0.0000000), wk =   0.0277778
        k(   18) = (  -0.0973559  -0.0187362   0.0000000), wk =   0.0555556
        k(   19) = (  -0.0973559   0.0187362   0.0000000), wk =   0.0555556
        k(   20) = (  -0.0973559  -0.1686254   0.0000000), wk =   0.0277778
        k(   21) = (   0.0000000   0.0000000   0.0000000), wk =   0.0277778
        k(   22) = (   0.0000000   0.0374723   0.0000000), wk =   0.0555556
        k(   23) = (   0.0000000   0.0749446   0.0000000), wk =   0.0555556
        k(   24) = (   0.0000000  -0.1124169   0.0000000), wk =   0.0277778
        k(   25) = (   0.0324520   0.0187362   0.0000000), wk =   0.0555556
        k(   26) = (   0.0324520   0.0562085   0.0000000), wk =   0.0555556
        k(   27) = (   0.0324520   0.0936808   0.0000000), wk =   0.0555556
        k(   28) = (   0.0324520  -0.0936808   0.0000000), wk =   0.0555556
        k(   29) = (   0.0324520  -0.0562085   0.0000000), wk =   0.0555556
        k(   30) = (   0.0324520  -0.0187362   0.0000000), wk =   0.0555556
        k(   31) = (   0.0649039   0.0374723   0.0000000), wk =   0.0555556
        k(   32) = (   0.0649039   0.0749446   0.0000000), wk =   0.0555556
        k(   33) = (   0.0649039   0.1124169   0.0000000), wk =   0.0555556
        k(   34) = (   0.0649039  -0.0749446   0.0000000), wk =   0.0555556
        k(   35) = (   0.0649039  -0.0374723   0.0000000), wk =   0.0555556
        k(   36) = (   0.0649039   0.0000000   0.0000000), wk =   0.0555556
        k(   37) = (  -0.0973559  -0.0562085   0.0000000), wk =   0.0277778
        k(   38) = (  -0.0973559  -0.0187362   0.0000000), wk =   0.0555556
        k(   39) = (  -0.0973559   0.0187362   0.0000000), wk =   0.0555556
        k(   40) = (  -0.0973559  -0.1686254   0.0000000), wk =   0.0277778

     Largest allocated arrays     est. size (Mb)     dimensions
     Largest temporary arrays     est. size (Mb)     dimensions

     Check: negative/imaginary core charge=   -0.000002    0.000000

     Initial potential from superposition of free atoms
     Check: negative starting charge=(component1):   -0.216538
     Check: negative starting charge=(component2):   -0.168425

     starting charge  190.49989, renormalised to  210.00000

[...]

     *
     * You are using vdW-DF for exchange-correlation in this calculation.
     * Please cite the following three references that made this development
     * possible:
     *
     *   M. Dion, H. Rydberg, E. Schroder, D. C. Langreth, and
     *   B. I. Lundqvist, Phys. Rev. Lett. 92, 246401 (2004).
     *
     *   T. Thonhauser, V. R. Cooper, S. Li, A. Puzder, P. Hyldgaard, and
     *   D. C. Langreth, Phys. Rev. B 76, 125112 (2007).
     *
     *   G. Roman-Perez and J. M. Soler, Phys. Rev. Lett. 103, 096102 (2009).
     *
     *
     * If you are using vdW-DF2, please also cite:
     *
     *   K. Lee, E. D. Murray, L. Kong, B. I. Lundqvist, and
     *   D. C. Langreth, Phys. Rev. B 82, 081101(R) (2010).
     *
     *
     * If you are calculating the stress with vdW-DF, please also cite:
     *
     *   R. Sabatini, E. Kucukbenli, B. Kolb, T. Thonhauser, and
     *   S. de Gironcoli, J. Phys.: Condens. Matter 24, 424209 (2012).
     *

     Carrying out vdW-DF run using the following parameters:

     Nqs =      20    Nr_points =    1024   r_max =   100.000
     q_mesh =
               0.00001000     0.04494208     0.09755937     0.15916263
               0.23128650     0.31572767     0.41458969     0.53033537
               0.66584808     0.82450364     1.01025438     1.22772762
               1.48234092     1.78043706     2.12944203     2.53805004
               3.01644009     3.57652955     4.23227104     5.00000000

     Gradients computed in reciprocal space

[...]

     Starting wfc are  156 randomized atomic wfcs

     Self-consistent Calculation

[...]

     total energy              =   -3698.94622955 Ry
     Harris-Foulkes estimate   =   -3698.94622870 Ry
     estimated scf accuracy    <       0.00000156 Ry

[...]

     iteration # 65     ecut=    36.75 Ry     beta=0.10
     Davidson diagonalization with overlap
     ethr =  5.41E-10,  avg # of iterations =  1.1

[...]

     negative rho (up, down):  1.801E-01 1.989E-01

[...]

     Adding external electric field

     Computed dipole along edir(3) :
        Dipole                0.0042 Ry au,          0.0107 Debye
        Dipole field          0.0000 Ry au

        Potential amp.       -0.0013 Ry
        Total length         44.5759 bohr

     Magnetic moment per site:
     atom:    1    charge:    9.3528    magn:    0.1117    constr:    0.0000
     atom:    2    charge:    9.3529    magn:    0.1117    constr:    0.0000
     atom:    3    charge:    9.3528    magn:    0.1117    constr:    0.0000
     atom:    4    charge:    2.1860    magn:    0.0275    constr:    0.0000
     atom:    5    charge:    9.3506    magn:    0.1157    constr:    0.0000
     atom:    6    charge:    9.3505    magn:    0.1157    constr:    0.0000
     atom:    7    charge:    9.3505    magn:    0.1157    constr:    0.0000
     atom:    8    charge:    2.1902    magn:    0.0159    constr:    0.0000
     atom:    9    charge:    9.3431    magn:    0.0942    constr:    0.0000
     atom:   10    charge:    9.3430    magn:    0.0944    constr:    0.0000
     atom:   11    charge:    9.3430    magn:    0.0945    constr:    0.0000
     atom:   12    charge:    2.1833    magn:    0.0220    constr:    0.0000

     End of self-consistent calculation

 ------ SPIN UP ------------

[...]

 ------ SPIN DOWN ----------

[...]

          k = 0.0649 0.0000 0.0000 ( 14047 PWs)   bands (ev):

[...]

          k =-0.0974-0.1686 0.0000 ( 14042 PWs)   bands (ev):

  -102.2817-102.2779-102.2743-102.0491-102.0453-102.0418-101.9940-101.9905
  -101.9867 -85.5426 -85.0055 -84.9421 -62.7731 -62.7564 -62.7449 -62.7183
   -62.7069 -62.6928 -62.5890 -62.5733 -62.5606 -62.5500 -62.5346 -62.5304
   -62.5169 -62.5153 -62.4906 -62.4679 -62.4437 -62.4195 -62.4084 -62.3840
   -62.3580 -62.2719 -62.2625 -62.2520 -62.2107 -62.2029 -62.1932 -44.8772
   -44.7478 -44.7450 -44.2808 -44.2780 -44.2182 -44.2139 -44.2113 -44.1235
    -5.6339  -5.2432  -4.0496  -3.5513  -3.5091  -3.3579  -3.0310  -2.7674
    -2.7168  -2.6833  -2.3881  -2.2664  -2.2235  -2.2002  -2.0445  -1.7827
    -1.7302  -1.6665  -1.6211  -1.5028  -1.4762  -1.3379  -1.1291  -1.0592
    -1.0017  -0.9213  -0.9169  -0.8551  -0.7946  -0.7763  -0.7199  -0.6884
    -0.6675  -0.6022  -0.5923  -0.5437  -0.5219  -0.4833  -0.4749  -0.4551
    -0.1983  -0.1270  -0.0887  -0.0157   0.1047   0.1234   0.1983   0.2944
     0.3883   0.4163   0.5640   0.6353   0.7151   0.7706   0.8083   0.8739
     0.9188   0.9498   1.2338   1.3859   1.4163   1.4656   1.5619   2.1345
     2.5263   2.7803   3.1835   3.9640   4.3209   4.8462   5.4324   5.6107
     6.5169   6.5480   7.3449   7.3739   7.8679   7.9012   8.0788   8.0898
     8.8106   9.0958   9.1353   9.5745   9.6386   9.7049   9.9922

     the Fermi energy is     1.1409 ev

!    total energy              =   -3698.94623409 Ry
     Harris-Foulkes estimate   =   -3698.94622978 Ry
     estimated scf accuracy    <       0.00000074 Ry

     The total energy is the sum of the following terms:

     one-electron contribution =  -31261.54704657 Ry
     hartree contribution      =   15633.86555976 Ry
     xc contribution           =    -446.78997708 Ry
     ewald contribution        =   12375.64067312 Ry
     electric field correction =       0.00000006 Ry
     smearing contrib. (-TS)   =      -0.11544338 Ry

     total magnetization       =     2.52 Bohr mag/cell
     absolute magnetization    =     2.77 Bohr mag/cell

     convergence has been achieved in  65 iterations

 BEEF-vdW xc energy contributions
           1 :   -393.087328751982
           2 :    358.356019895360
           3 :   -299.281759046616
           4 :    232.013901186468
           5 :   -171.872559994077
           6 :    127.998701182654
           7 :   -101.506351332823
           8 :    87.3870779108807
           9 :   -78.5913396065885
          10 :    69.8666360625340
          11 :   -59.5377065694328
          12 :    48.8527264498430
          13 :   -39.9429272633654
          14 :    33.9478955176349
          15 :   -30.3905891379116
          16 :    27.8360458431248
          17 :   -25.0649327457831
          18 :    21.8294243111577
          19 :   -18.7583983730735
          20 :    16.6318036700110
          21 :   -15.6596121147082
          22 :    15.2904241718560
          23 :   -14.6400365537854
          24 :    13.1582788871415
          25 :   -11.0247623593373
          26 :    8.99079564913961
          27 :   -7.81565136169394
          28 :    7.71610984292346
          29 :   -8.22428710191201
          30 :    8.52827731823021
          31 :   -33.7874941042228
          32 :   -24.2232244315551

     Forces acting on atoms (Ry/au):

     negative rho (up, down):  1.801E-01 1.989E-01
     atom    1 type  1   force =    -0.00000023    0.00401694    0.00808096
     atom    2 type  1   force =     0.00350863   -0.00200144    0.00806127
     atom    3 type  1   force =    -0.00350569   -0.00199917    0.00804867
     atom    4 type  2   force =     0.00000050    0.00001081    0.01673891
     atom    5 type  1   force =     0.00000387   -0.00284232   -0.00970748
     atom    6 type  1   force =    -0.00241321    0.00143862   -0.00973713
     atom    7 type  1   force =     0.00241810    0.00143639   -0.00972578
     atom    8 type  2   force =     0.00000046    0.00001425   -0.01190548
     atom    9 type  1   force =    -0.00002926    0.00042679   -0.00018435
     atom   10 type  1   force =     0.00033748   -0.00027219   -0.00018237
     atom   11 type  1   force =    -0.00032509   -0.00023127   -0.00015837
     atom   12 type  2   force =     0.00000444    0.00000259    0.00067115

     Total force =     0.031214     Total SCF correction =     0.002866

     entering subroutine stress ...

     negative rho (up, down):  1.801E-01 1.989E-01
          total   stress  (Ry/bohr**3)                   (kbar)     P=  -68.15
  -0.00050967  -0.00000002  -0.00000002        -74.98     -0.00     -0.00
  -0.00000002  -0.00050965  -0.00000002         -0.00    -74.97     -0.00
  -0.00000002  -0.00000002  -0.00037041         -0.00     -0.00    -54.49

 !ASE

     Writing output data file calc.save

     General routines

     Parallel routines

   This run was terminated on:  13:30:30  27Dec2018

   JOB DONE.
Job  /afs/slac/g/suncat/bin/suncat-tsmpirun -x LD_LIBRARY_PATH -wdir /scratch/qe110268_kvZz9 pw.x -in pw.inp

TID   HOST_NAME   COMMAND_LINE            STATUS            TERMINATION_TIME
00000 suncat0092 pw.x -in pw.inp   Done                     12/27/2018 13:30:30
00001 suncat0092 pw.x -in pw.inp   Done                     12/27/2018 13:30:30
00002 suncat0092 pw.x -in pw.inp   Done                     12/27/2018 13:30:30
00003 suncat0092 pw.x -in pw.inp   Done                     12/27/2018 13:30:30
00004 suncat0092 pw.x -in pw.inp   Done                     12/27/2018 13:30:30
00005 suncat0092 pw.x -in pw.inp   Done                     12/27/2018 13:30:30
00006 suncat0092 pw.x -in pw.inp   Done                     12/27/2018 13:30:30
00007 suncat0092 pw.x -in pw.inp   Done                     12/27/2018 13:30:30
00008 suncat0075 pw.x -in pw.inp   Done                     12/27/2018 13:30:30
00009 suncat0075 pw.x -in pw.inp   Done                     12/27/2018 13:30:30
00010 suncat0075 pw.x -in pw.inp   Done                     12/27/2018 13:30:30
00011 suncat0075 pw.x -in pw.inp   Done                     12/27/2018 13:30:30
00012 suncat0075 pw.x -in pw.inp   Done                     12/27/2018 13:30:30
00013 suncat0075 pw.x -in pw.inp   Done                     12/27/2018 13:30:30
00014 suncat0075 pw.x -in pw.inp   Done                     12/27/2018 13:30:30
00015 suncat0075 pw.x -in pw.inp   Done                     12/27/2018 13:30:30
00016 suncat0074 pw.x -in pw.inp   Done                     12/27/2018 13:30:30
00017 suncat0074 pw.x -in pw.inp   Done                     12/27/2018 13:30:30
00018 suncat0074 pw.x -in pw.inp   Done                     12/27/2018 13:30:30
00019 suncat0074 pw.x -in pw.inp   Done                     12/27/2018 13:30:30
00020 suncat0074 pw.x -in pw.inp   Done                     12/27/2018 13:30:30
00021 suncat0074 pw.x -in pw.inp   Done                     12/27/2018 13:30:30
00022 suncat0074 pw.x -in pw.inp   Done                     12/27/2018 13:30:30
00023 suncat0074 pw.x -in pw.inp   Done                     12/27/2018 13:30:30
00024 suncat0195 pw.x -in pw.inp   Done                     12/27/2018 13:30:30
00025 suncat0195 pw.x -in pw.inp   Done                     12/27/2018 13:30:30
00026 suncat0195 pw.x -in pw.inp   Done                     12/27/2018 13:30:30
00027 suncat0195 pw.x -in pw.inp   Done                     12/27/2018 13:30:30
00028 suncat0195 pw.x -in pw.inp   Done                     12/27/2018 13:30:30
00029 suncat0195 pw.x -in pw.inp   Done                     12/27/2018 13:30:30
00030 suncat0195 pw.x -in pw.inp   Done                     12/27/2018 13:30:30
00031 suncat0195 pw.x -in pw.inp   Done                     12/27/2018 13:30:30
00032 suncat0003 pw.x -in pw.inp   Done                     12/27/2018 13:30:30
00033 suncat0003 pw.x -in pw.inp   Done                     12/27/2018 13:30:30
00034 suncat0003 pw.x -in pw.inp   Done                     12/27/2018 13:30:30
00035 suncat0003 pw.x -in pw.inp   Done                     12/27/2018 13:30:30
00036 suncat0003 pw.x -in pw.inp   Done                     12/27/2018 13:30:30
00037 suncat0003 pw.x -in pw.inp   Done                     12/27/2018 13:30:30
00038 suncat0003 pw.x -in pw.inp   Done                     12/27/2018 13:30:30
00039 suncat0003 pw.x -in pw.inp   Done                     12/27/2018 13:30:30
00040 suncat0002 pw.x -in pw.inp   Done                     12/27/2018 13:30:30
00041 suncat0002 pw.x -in pw.inp   Done                     12/27/2018 13:30:30
00042 suncat0002 pw.x -in pw.inp   Done                     12/27/2018 13:30:30
00043 suncat0002 pw.x -in pw.inp   Done                     12/27/2018 13:30:30
00044 suncat0002 pw.x -in pw.inp   Done                     12/27/2018 13:30:30
00045 suncat0002 pw.x -in pw.inp   Done                     12/27/2018 13:30:30
00046 suncat0002 pw.x -in pw.inp   Done                     12/27/2018 13:30:30
00047 suncat0002 pw.x -in pw.inp   Done                     12/27/2018 13:30:30
00048 suncat0283 pw.x -in pw.inp   Done                     12/27/2018 13:30:30
00049 suncat0283 pw.x -in pw.inp   Done                     12/27/2018 13:30:30
00050 suncat0283 pw.x -in pw.inp   Done                     12/27/2018 13:30:30
00051 suncat0283 pw.x -in pw.inp   Done                     12/27/2018 13:30:30
00052 suncat0283 pw.x -in pw.inp   Done                     12/27/2018 13:30:30
00053 suncat0283 pw.x -in pw.inp   Done                     12/27/2018 13:30:30
00054 suncat0283 pw.x -in pw.inp   Done                     12/27/2018 13:30:30
00055 suncat0283 pw.x -in pw.inp   Done                     12/27/2018 13:30:30
00056 suncat0282 pw.x -in pw.inp   Done                     12/27/2018 13:30:30
00057 suncat0282 pw.x -in pw.inp   Done                     12/27/2018 13:30:30
00058 suncat0282 pw.x -in pw.inp   Done                     12/27/2018 13:30:30
00059 suncat0282 pw.x -in pw.inp   Done                     12/27/2018 13:30:30
00060 suncat0282 pw.x -in pw.inp   Done                     12/27/2018 13:30:30
00061 suncat0282 pw.x -in pw.inp   Done                     12/27/2018 13:30:30
00062 suncat0282 pw.x -in pw.inp   Done                     12/27/2018 13:30:30
00063 suncat0282 pw.x -in pw.inp   Done                     12/27/2018 13:30:30