     Program PWSCF v.5.1rc2 (svn rev. 11289) starts on 25Dec2018 at 20:15:47

     Current dimensions of program PWSCF are:
     Max number of different atomic species (ntypx) = 10
     Max number of k-points (npk) =  40000
     Max angular momentum in pseudopotentials (lmaxx) =  3
     Presently stress not available with electric field

     IMPORTANT: XC functional enforced from input :
     Exchange-correlation      = BEEF-VDW ( 1  4 27 13 2)
     Any further DFT definition will be discarded
     Please, verify this is what you really want

     Subspace diagonalization in iterative solution of the eigenvalue problem:
     a serial algorithm will be used

     Generating pointlists ...
     new r_m :   0.4125 (alat units)  0.7795 (a.u.) for type    1
     new r_m :   0.4125 (alat units)  0.7795 (a.u.) for type    2

     bravais-lattice index     =            0
     lattice parameter (alat)  =       1.8897  a.u.
     unit-cell volume          =    3907.9638 (a.u.)^3
     number of atoms/cell      =           12
     number of atomic types    =            2
     number of electrons       =       183.00
     number of Kohn-Sham states=          121
     kinetic-energy cutoff     =      36.7493  Ry
     charge density cutoff     =     367.4932  Ry
     convergence threshold     =      1.0E-06
     mixing beta               =       0.1000
     number of iterations used =           10  plain     mixing
     Exchange-correlation      = BEEF-VDW ( 1  4 27 13 2)
     nstep                     =           50

     celldm(1)=   1.889726  celldm(2)=   0.000000  celldm(3)=   0.000000
     celldm(4)=   0.000000  celldm(5)=   0.000000  celldm(6)=   0.000000

     crystal axes: (cart. coord. in units of alat)
               a(1) = (   5.247434   0.000000   0.000000 )
               a(2) = (  -2.623717   4.544411   0.000000 )
               a(3) = (   0.000000   0.000000  24.284512 )

     reciprocal axes: (cart. coord. in units 2 pi/alat)
               b(1) = (  0.190569  0.110025  0.000000 )
               b(2) = (  0.000000  0.220051  0.000000 )
               b(3) = (  0.000000  0.000000  0.041179 )

     PseudoPot. # 1 for Fe read from file:
     /afs/slac.stanford.edu/u/if/mamunm/psp/gbrv1.5pbe/Fe.UPF
     MD5 check sum: a130daea23fe5165f5d574ae7f82ed95
     Pseudo is Ultrasoft + core correction, Zval = 16.0
     Generated by new atomic code, or converted to UPF format
     Using radial grid of  861 points,  6 beta functions with:
                l(1) =   0
                l(2) =   0
                l(3) =   1
                l(4) =   1
                l(5) =   2
                l(6) =   2
     Q(r) pseudized with  8 coefficients,  rinner =    1.000   1.000   1.000
                                                       1.000   1.000

     PseudoPot. # 2 for Nb read from file:
     /afs/slac.stanford.edu/u/if/mamunm/psp/gbrv1.5pbe/Nb.UPF
     MD5 check sum: 573aab8a2fa660278ed4a62cd769473f
     Pseudo is Ultrasoft + core correction, Zval = 13.0
     Generated by new atomic code, or converted to UPF format
     Using radial grid of  887 points,  6 beta functions with:
                l(1) =   0
                l(2) =   0
                l(3) =   1
                l(4) =   1
                l(5) =   2
                l(6) =   2
     Q(r) pseudized with  6 coefficients,  rinner =    1.000   1.000   1.000
                                                       1.000   1.000

     vdW kernel table read from file vdW_kernel_table
     MD5 check sum: 095c7af220d748ca6e76c0b4c6cfb241

     atomic species   valence    mass     pseudopotential
        Fe1           16.00    55.84500     Fe( 1.00)
        Nb1           13.00    92.90637     Nb( 1.00)

     Starting magnetic structure
     atomic species   magnetization
        Fe1          0.125
        Nb1          0.154

     No symmetry found

   Cartesian axes

     site n.     atom                  positions (alat units)
         1           Fe1 tau(   1) = (   0.0000000   0.0000000  10.0000000  )
         2           Fe1 tau(   2) = (  -1.3118584   2.2722055  10.0000000  )
         3           Fe1 tau(   3) = (   1.3118584   2.2722055  10.0000000  )
         4           Nb1 tau(   4) = (   2.6237169   0.0000000  10.0000000  )
         5           Fe1 tau(   5) = (   2.6237169   1.5148036  12.1422559  )
         6           Fe1 tau(   6) = (   1.3118584   3.7870091  12.1422559  )
         7           Fe1 tau(   7) = (  -1.3118584   3.7870091  12.1422559  )
         8           Nb1 tau(   8) = (   0.0000000   1.5148036  12.1422559  )
         9           Fe1 tau(   9) = (  -0.0000000   3.0296073  14.2845117  )
        10           Fe1 tau(  10) = (   1.3118584   0.7574018  14.2845117  )
        11           Fe1 tau(  11) = (   3.9355753   0.7574018  14.2845117  )
        12           Nb1 tau(  12) = (   2.6237169   3.0296073  14.2845117  )

     number of k points=    40  Fermi-Dirac smearing, width (Ry)=  0.0110
                       cart. coord. in units 2pi/alat
        k(    1) = (   0.0000000   0.0000000   0.0000000), wk =   0.0277778
        k(    2) = (   0.0000000   0.0366751   0.0000000), wk =   0.0555556
        k(    3) = (   0.0000000   0.0733502   0.0000000), wk =   0.0555556
        k(    4) = (   0.0000000  -0.1100253   0.0000000), wk =   0.0277778
        k(    5) = (   0.0317616   0.0183375   0.0000000), wk =   0.0555556
        k(    6) = (   0.0317616   0.0550126   0.0000000), wk =   0.0555556
        k(    7) = (   0.0317616   0.0916877   0.0000000), wk =   0.0555556
        k(    8) = (   0.0317616  -0.0916877   0.0000000), wk =   0.0555556
        k(    9) = (   0.0317616  -0.0550126   0.0000000), wk =   0.0555556
        k(   10) = (   0.0317616  -0.0183375   0.0000000), wk =   0.0555556
        k(   11) = (   0.0635231   0.0366751   0.0000000), wk =   0.0555556
        k(   12) = (   0.0635231   0.0733502   0.0000000), wk =   0.0555556
        k(   13) = (   0.0635231   0.1100253   0.0000000), wk =   0.0555556
        k(   14) = (   0.0635231  -0.0733502   0.0000000), wk =   0.0555556
        k(   15) = (   0.0635231  -0.0366751   0.0000000), wk =   0.0555556
        k(   16) = (   0.0635231   0.0000000   0.0000000), wk =   0.0555556
        k(   17) = (  -0.0952847  -0.0550126   0.0000000), wk =   0.0277778
        k(   18) = (  -0.0952847  -0.0183375   0.0000000), wk =   0.0555556
        k(   19) = (  -0.0952847   0.0183375   0.0000000), wk =   0.0555556
        k(   20) = (  -0.0952847  -0.1650379   0.0000000), wk =   0.0277778
        k(   21) = (   0.0000000   0.0000000   0.0000000), wk =   0.0277778
        k(   22) = (   0.0000000   0.0366751   0.0000000), wk =   0.0555556
        k(   23) = (   0.0000000   0.0733502   0.0000000), wk =   0.0555556
        k(   24) = (   0.0000000  -0.1100253   0.0000000), wk =   0.0277778
        k(   25) = (   0.0317616   0.0183375   0.0000000), wk =   0.0555556
        k(   26) = (   0.0317616   0.0550126   0.0000000), wk =   0.0555556
        k(   27) = (   0.0317616   0.0916877   0.0000000), wk =   0.0555556
        k(   28) = (   0.0317616  -0.0916877   0.0000000), wk =   0.0555556
        k(   29) = (   0.0317616  -0.0550126   0.0000000), wk =   0.0555556
        k(   30) = (   0.0317616  -0.0183375   0.0000000), wk =   0.0555556
        k(   31) = (   0.0635231   0.0366751   0.0000000), wk =   0.0555556
        k(   32) = (   0.0635231   0.0733502   0.0000000), wk =   0.0555556
        k(   33) = (   0.0635231   0.1100253   0.0000000), wk =   0.0555556
        k(   34) = (   0.0635231  -0.0733502   0.0000000), wk =   0.0555556
        k(   35) = (   0.0635231  -0.0366751   0.0000000), wk =   0.0555556
        k(   36) = (   0.0635231   0.0000000   0.0000000), wk =   0.0555556
        k(   37) = (  -0.0952847  -0.0550126   0.0000000), wk =   0.0277778
        k(   38) = (  -0.0952847  -0.0183375   0.0000000), wk =   0.0555556
        k(   39) = (  -0.0952847   0.0183375   0.0000000), wk =   0.0555556
        k(   40) = (  -0.0952847  -0.1650379   0.0000000), wk =   0.0277778

     Largest allocated arrays     est. size (Mb)     dimensions
     Largest temporary arrays     est. size (Mb)     dimensions

     Check: negative/imaginary core charge=   -0.000007    0.000000

     Initial potential from superposition of free atoms
     Check: negative starting charge=(component1):   -0.001511
     Check: negative starting charge=(component2):   -0.001108

     starting charge  173.99175, renormalised to  183.00000

     negative rho (up, down):  1.589E-03 1.165E-03

     *
     * You are using vdW-DF for exchange-correlation in this calculation.
     * Please cite the following three references that made this development
     * possible:
     *
     *   M. Dion, H. Rydberg, E. Schroder, D. C. Langreth, and
     *   B. I. Lundqvist, Phys. Rev. Lett. 92, 246401 (2004).
     *
     *   T. Thonhauser, V. R. Cooper, S. Li, A. Puzder, P. Hyldgaard, and
     *   D. C. Langreth, Phys. Rev. B 76, 125112 (2007).
     *
     *   G. Roman-Perez and J. M. Soler, Phys. Rev. Lett. 103, 096102 (2009).
     *
     *
     * If you are using vdW-DF2, please also cite:
     *
     *   K. Lee, E. D. Murray, L. Kong, B. I. Lundqvist, and
     *   D. C. Langreth, Phys. Rev. B 82, 081101(R) (2010).
     *
     *
     * If you are calculating the stress with vdW-DF, please also cite:
     *
     *   R. Sabatini, E. Kucukbenli, B. Kolb, T. Thonhauser, and
     *   S. de Gironcoli, J. Phys.: Condens. Matter 24, 424209 (2012).
     *

     Carrying out vdW-DF run using the following parameters:

     Nqs =      20    Nr_points =    1024   r_max =   100.000
     q_mesh =
               0.00001000     0.04494208     0.09755937     0.15916263
               0.23128650     0.31572767     0.41458969     0.53033537
               0.66584808     0.82450364     1.01025438     1.22772762
               1.48234092     1.78043706     2.12944203     2.53805004
               3.01644009     3.57652955     4.23227104     5.00000000

     Gradients computed in reciprocal space

     Adding external electric field

     Computed dipole along edir(3) :
        Dipole               -0.0000 Ry au,         -0.0000 Debye
        Dipole field         -0.0000 Ry au

        Potential amp.        0.0000 Ry
        Total length         44.7438 bohr

[...]

     Starting wfc are  156 randomized atomic wfcs

     Self-consistent Calculation

     iteration #  1     ecut=    36.75 Ry     beta=0.10
     Davidson diagonalization with overlap
     ethr =  1.00E-02,  avg # of iterations =  5.3

[...]

     Magnetic moment per site:
     atom:    1    charge:    7.2627    magn:    0.9005    constr:    0.0000
     atom:    2    charge:    7.2627    magn:    0.9005    constr:    0.0000
     atom:    3    charge:    7.2627    magn:    0.9005    constr:    0.0000
     atom:    4    charge:    1.5310    magn:    0.2160    constr:    0.0000
     atom:    5    charge:    7.2754    magn:    0.8906    constr:    0.0000
     atom:    6    charge:    7.2754    magn:    0.8906    constr:    0.0000
     atom:    7    charge:    7.2754    magn:    0.8906    constr:    0.0000
     atom:    8    charge:    1.5376    magn:    0.2161    constr:    0.0000
[...]
        k(    3) = (   0.0000000   0.0733502   0.0000000), wk =   0.0555556
        k(    4) = (   0.0000000  -0.1100253   0.0000000), wk =   0.0277778
        k(    5) = (   0.0317616   0.0183375   0.0000000), wk =   0.0555556
        k(    6) = (   0.0317616   0.0550126   0.0000000), wk =   0.0555556
        k(    7) = (   0.0317616   0.0916877   0.0000000), wk =   0.0555556
        k(    8) = (   0.0317616  -0.0916877   0.0000000), wk =   0.0555556
        k(    9) = (   0.0317616  -0.0550126   0.0000000), wk =   0.0555556
        k(   10) = (   0.0317616  -0.0183375   0.0000000), wk =   0.0555556
        k(   11) = (   0.0635231   0.0366751   0.0000000), wk =   0.0555556
        k(   12) = (   0.0635231   0.0733502   0.0000000), wk =   0.0555556
        k(   13) = (   0.0635231   0.1100253   0.0000000), wk =   0.0555556
        k(   14) = (   0.0635231  -0.0733502   0.0000000), wk =   0.0555556
        k(   15) = (   0.0635231  -0.0366751   0.0000000), wk =   0.0555556
        k(   16) = (   0.0635231   0.0000000   0.0000000), wk =   0.0555556
        k(   17) = (  -0.0952847  -0.0550126   0.0000000), wk =   0.0277778
        k(   18) = (  -0.0952847  -0.0183375   0.0000000), wk =   0.0555556
        k(   19) = (  -0.0952847   0.0183375   0.0000000), wk =   0.0555556
        k(   20) = (  -0.0952847  -0.1650379   0.0000000), wk =   0.0277778
        k(   21) = (   0.0000000   0.0000000   0.0000000), wk =   0.0277778
        k(   22) = (   0.0000000   0.0366751   0.0000000), wk =   0.0555556
        k(   23) = (   0.0000000   0.0733502   0.0000000), wk =   0.0555556
        k(   24) = (   0.0000000  -0.1100253   0.0000000), wk =   0.0277778
        k(   25) = (   0.0317616   0.0183375   0.0000000), wk =   0.0555556
        k(   26) = (   0.0317616   0.0550126   0.0000000), wk =   0.0555556
        k(   27) = (   0.0317616   0.0916877   0.0000000), wk =   0.0555556
        k(   28) = (   0.0317616  -0.0916877   0.0000000), wk =   0.0555556
        k(   29) = (   0.0317616  -0.0550126   0.0000000), wk =   0.0555556
        k(   30) = (   0.0317616  -0.0183375   0.0000000), wk =   0.0555556
        k(   31) = (   0.0635231   0.0366751   0.0000000), wk =   0.0555556
        k(   32) = (   0.0635231   0.0733502   0.0000000), wk =   0.0555556
        k(   33) = (   0.0635231   0.1100253   0.0000000), wk =   0.0555556
        k(   34) = (   0.0635231  -0.0733502   0.0000000), wk =   0.0555556
        k(   35) = (   0.0635231  -0.0366751   0.0000000), wk =   0.0555556
        k(   36) = (   0.0635231   0.0000000   0.0000000), wk =   0.0555556
        k(   37) = (  -0.0952847  -0.0550126   0.0000000), wk =   0.0277778
        k(   38) = (  -0.0952847  -0.0183375   0.0000000), wk =   0.0555556
        k(   39) = (  -0.0952847   0.0183375   0.0000000), wk =   0.0555556
        k(   40) = (  -0.0952847  -0.1650379   0.0000000), wk =   0.0277778

     Largest allocated arrays     est. size (Mb)     dimensions
     Largest temporary arrays     est. size (Mb)     dimensions

     Check: negative/imaginary core charge=   -0.000007    0.000000

     Initial potential from superposition of free atoms
     Check: negative starting charge=(component1):   -0.001503
     Check: negative starting charge=(component2):   -0.001103

     starting charge  173.99175, renormalised to  183.00000

[...]

     *
     * You are using vdW-DF for exchange-correlation in this calculation.
     * Please cite the following three references that made this development
     * possible:
     *
     *   M. Dion, H. Rydberg, E. Schroder, D. C. Langreth, and
     *   B. I. Lundqvist, Phys. Rev. Lett. 92, 246401 (2004).
     *
     *   T. Thonhauser, V. R. Cooper, S. Li, A. Puzder, P. Hyldgaard, and
     *   D. C. Langreth, Phys. Rev. B 76, 125112 (2007).
     *
     *   G. Roman-Perez and J. M. Soler, Phys. Rev. Lett. 103, 096102 (2009).
     *
     *
     * If you are using vdW-DF2, please also cite:
     *
     *   K. Lee, E. D. Murray, L. Kong, B. I. Lundqvist, and
     *   D. C. Langreth, Phys. Rev. B 82, 081101(R) (2010).
     *
     *
     * If you are calculating the stress with vdW-DF, please also cite:
     *
     *   R. Sabatini, E. Kucukbenli, B. Kolb, T. Thonhauser, and
     *   S. de Gironcoli, J. Phys.: Condens. Matter 24, 424209 (2012).
     *

     Carrying out vdW-DF run using the following parameters:

     Nqs =      20    Nr_points =    1024   r_max =   100.000
     q_mesh =
               0.00001000     0.04494208     0.09755937     0.15916263
               0.23128650     0.31572767     0.41458969     0.53033537
               0.66584808     0.82450364     1.01025438     1.22772762
               1.48234092     1.78043706     2.12944203     2.53805004
               3.01644009     3.57652955     4.23227104     5.00000000

     Gradients computed in reciprocal space

[...]

     Starting wfc are  156 randomized atomic wfcs

     Self-consistent Calculation

[...]

     total energy              =   -2617.54828196 Ry
     Harris-Foulkes estimate   =   -2617.54828118 Ry
     estimated scf accuracy    <       0.00000167 Ry

[...]

     iteration # 34     ecut=    36.75 Ry     beta=0.10
     Davidson diagonalization with overlap
     ethr =  8.81E-10,  avg # of iterations =  1.7

[...]

     negative rho (up, down):  1.214E-03 1.388E-03

[...]

     Adding external electric field

     Computed dipole along edir(3) :
        Dipole               -0.0046 Ry au,         -0.0116 Debye
        Dipole field         -0.0000 Ry au

        Potential amp.        0.0013 Ry
        Total length         44.7438 bohr

     Magnetic moment per site:
     atom:    1    charge:    7.0867    magn:    1.0782    constr:    0.0000
     atom:    2    charge:    7.0867    magn:    1.0782    constr:    0.0000
     atom:    3    charge:    7.0867    magn:    1.0782    constr:    0.0000
     atom:    4    charge:    1.4890    magn:   -0.0509    constr:    0.0000
     atom:    5    charge:    7.0831    magn:    0.9227    constr:    0.0000
     atom:    6    charge:    7.0831    magn:    0.9227    constr:    0.0000
     atom:    7    charge:    7.0831    magn:    0.9227    constr:    0.0000
     atom:    8    charge:    1.4940    magn:   -0.0413    constr:    0.0000
     atom:    9    charge:    7.0821    magn:    1.0964    constr:    0.0000
     atom:   10    charge:    7.0821    magn:    1.0964    constr:    0.0000
     atom:   11    charge:    7.0821    magn:    1.0963    constr:    0.0000
     atom:   12    charge:    1.4842    magn:   -0.0503    constr:    0.0000

     End of self-consistent calculation

 ------ SPIN UP ------------

[...]

 ------ SPIN DOWN ----------

[...]

          k = 0.0635 0.0000 0.0000 ( 14729 PWs)   bands (ev):

[...]

          k =-0.0953-0.1650 0.0000 ( 14714 PWs)   bands (ev):

   -84.3983 -84.3902 -84.3822 -84.1246 -84.1207 -84.1166 -84.1088 -84.1084
   -84.1017 -54.0734 -54.0661 -53.9677 -50.5991 -50.5542 -50.5331 -50.5235
   -50.5102 -50.4809 -50.4253 -50.4030 -50.3590 -50.3326 -50.3229 -50.3130
   -50.2945 -50.2809 -50.2775 -50.2225 -50.2214 -50.1928 -50.1727 -50.1677
   -50.1533 -50.1532 -50.1513 -50.1269 -50.1183 -50.0736 -50.0706 -30.2286
   -30.2188 -30.1471 -30.1382 -30.1375 -30.1232 -30.0811 -30.0645 -30.0232
    -3.9043  -3.8491  -2.7405  -2.2438  -2.0554  -1.9640  -1.7575  -1.5333
    -1.1823  -1.1593  -0.9303  -0.8068  -0.6775  -0.5738  -0.5315  -0.3715
    -0.2792  -0.2495  -0.0009   0.0684   0.0738   0.2478   0.2656   0.5334
     0.5590   0.5977   0.6674   0.7636   0.7918   0.8129   0.8884   0.9516
     1.1016   1.1116   1.1843   1.2636   1.2949   1.4227   1.5043   1.7069
     1.7920   1.9133   1.9753   2.0544   2.1077   2.2345   2.2485   2.2777
     2.5053   2.5346   2.6295   2.6718   2.6924   2.9385   2.9910   3.0207
     3.1259   3.2135   3.4517   3.4760   3.5258   3.8017   3.9618   4.2096
     4.4482   4.6401   4.7552   5.6237   6.1252   6.4316   6.5540   6.6305
     7.2033

     the Fermi energy is     1.4027 ev

!    total energy              =   -2617.54828435 Ry
     Harris-Foulkes estimate   =   -2617.54828204 Ry
     estimated scf accuracy    <       0.00000040 Ry

     The total energy is the sum of the following terms:

     one-electron contribution =  -22119.36871301 Ry
     hartree contribution      =   11058.54482970 Ry
     xc contribution           =    -329.68558578 Ry
     ewald contribution        =    8773.05441869 Ry
     electric field correction =       0.00000007 Ry
     smearing contrib. (-TS)   =      -0.09323403 Ry

     total magnetization       =    16.24 Bohr mag/cell
     absolute magnetization    =    23.23 Bohr mag/cell

     convergence has been achieved in  34 iterations

 BEEF-vdW xc energy contributions
           1 :   -287.598120123491
           2 :    260.588173876784
           3 :   -215.101922496974
           4 :    164.180613327777
           5 :   -119.805969722066
           6 :    88.5836796761820
           7 :   -70.5645530877440
           8 :    61.1332892017127
           9 :   -54.4678704125156
          10 :    46.5692172662708
          11 :   -36.5514932645779
          12 :    25.9868211521369
          13 :   -17.1594246856750
          14 :    11.4170205742528
          15 :   -8.51939744660723
          16 :    7.09140198120537
          17 :   -5.66214980313828
          18 :    3.51780639378148
          19 :  -0.907762051483473
          20 :   -1.38726413660373
          21 :    2.70676103136452
          22 :   -2.94499209770765
          23 :    2.53725303800297
          24 :   -2.11125850732685
          25 :    2.07829236486191
          26 :   -2.43790908294329
          27 :    2.86637016848437
          28 :   -2.99106259171856
          29 :    2.64343653800324
          30 :   -1.95209687665471
          31 :   -26.7248834717937
          32 :   -19.1932404297290

     Forces acting on atoms (Ry/au):

     negative rho (up, down):  1.214E-03 1.388E-03
     atom    1 type  1   force =     0.00000028   -0.01321668   -0.00518253
     atom    2 type  1   force =    -0.01145824    0.00661256   -0.00518890
     atom    3 type  1   force =     0.01145226    0.00660914   -0.00519776
     atom    4 type  2   force =    -0.00000104    0.00000154   -0.00275173
     atom    5 type  1   force =     0.00001229    0.00151035    0.00087747
     atom    6 type  1   force =     0.00129935   -0.00074759    0.00090385
     atom    7 type  1   force =    -0.00130163   -0.00076314    0.00088816
     atom    8 type  2   force =     0.00000052    0.00000053    0.01267486
     atom    9 type  1   force =     0.00001033   -0.00033633    0.00074520
     atom   10 type  1   force =    -0.00030452    0.00016523    0.00074953
     atom   11 type  1   force =     0.00030956    0.00015594    0.00075388
     atom   12 type  2   force =    -0.00001915    0.00000846    0.00072798

     Total force =     0.028023     Total SCF correction =     0.002585

     entering subroutine stress ...

     negative rho (up, down):  1.214E-03 1.388E-03
          total   stress  (Ry/bohr**3)                   (kbar)     P=   -9.20
  -0.00010150   0.00000000  -0.00000000        -14.93      0.00     -0.00
   0.00000000  -0.00010150  -0.00000000          0.00    -14.93     -0.00
  -0.00000000  -0.00000000   0.00001539         -0.00     -0.00      2.26

 !ASE

     Writing output data file calc.save

     General routines

     Parallel routines

   This run was terminated on:  22:38: 6  25Dec2018

   JOB DONE.
Job  /afs/slac/g/suncat/bin/suncat-tsmpirun -x LD_LIBRARY_PATH -wdir /scratch/qe109630_oJor7 pw.x -in pw.inp

TID   HOST_NAME   COMMAND_LINE            STATUS            TERMINATION_TIME
00000 suncat0060 pw.x -in pw.inp   Done                     12/25/2018 22:38:06
00001 suncat0060 pw.x -in pw.inp   Done                     12/25/2018 22:38:06
00002 suncat0060 pw.x -in pw.inp   Done                     12/25/2018 22:38:06
00003 suncat0060 pw.x -in pw.inp   Done                     12/25/2018 22:38:06
00004 suncat0060 pw.x -in pw.inp   Done                     12/25/2018 22:38:06
00005 suncat0060 pw.x -in pw.inp   Done                     12/25/2018 22:38:06
00006 suncat0060 pw.x -in pw.inp   Done                     12/25/2018 22:38:06
00007 suncat0060 pw.x -in pw.inp   Done                     12/25/2018 22:38:06
00008 suncat0059 pw.x -in pw.inp   Done                     12/25/2018 22:38:06
00009 suncat0059 pw.x -in pw.inp   Done                     12/25/2018 22:38:06
00010 suncat0059 pw.x -in pw.inp   Done                     12/25/2018 22:38:06
00011 suncat0059 pw.x -in pw.inp   Done                     12/25/2018 22:38:06
00012 suncat0059 pw.x -in pw.inp   Done                     12/25/2018 22:38:06
00013 suncat0059 pw.x -in pw.inp   Done                     12/25/2018 22:38:06
00014 suncat0059 pw.x -in pw.inp   Done                     12/25/2018 22:38:06
00015 suncat0059 pw.x -in pw.inp   Done                     12/25/2018 22:38:06
00016 suncat0058 pw.x -in pw.inp   Done                     12/25/2018 22:38:06
00017 suncat0058 pw.x -in pw.inp   Done                     12/25/2018 22:38:06
00018 suncat0058 pw.x -in pw.inp   Done                     12/25/2018 22:38:06
00019 suncat0058 pw.x -in pw.inp   Done                     12/25/2018 22:38:06
00020 suncat0058 pw.x -in pw.inp   Done                     12/25/2018 22:38:06
00021 suncat0058 pw.x -in pw.inp   Done                     12/25/2018 22:38:06
00022 suncat0058 pw.x -in pw.inp   Done                     12/25/2018 22:38:06
00023 suncat0058 pw.x -in pw.inp   Done                     12/25/2018 22:38:06
00024 suncat0195 pw.x -in pw.inp   Done                     12/25/2018 22:38:06
00025 suncat0195 pw.x -in pw.inp   Done                     12/25/2018 22:38:06
00026 suncat0195 pw.x -in pw.inp   Done                     12/25/2018 22:38:06
00027 suncat0195 pw.x -in pw.inp   Done                     12/25/2018 22:38:06
00028 suncat0195 pw.x -in pw.inp   Done                     12/25/2018 22:38:06
00029 suncat0195 pw.x -in pw.inp   Done                     12/25/2018 22:38:06
00030 suncat0195 pw.x -in pw.inp   Done                     12/25/2018 22:38:06
00031 suncat0195 pw.x -in pw.inp   Done                     12/25/2018 22:38:06
00032 suncat0003 pw.x -in pw.inp   Done                     12/25/2018 22:38:06
00033 suncat0003 pw.x -in pw.inp   Done                     12/25/2018 22:38:06
00034 suncat0003 pw.x -in pw.inp   Done                     12/25/2018 22:38:06
00035 suncat0003 pw.x -in pw.inp   Done                     12/25/2018 22:38:06
00036 suncat0003 pw.x -in pw.inp   Done                     12/25/2018 22:38:06
00037 suncat0003 pw.x -in pw.inp   Done                     12/25/2018 22:38:06
00038 suncat0003 pw.x -in pw.inp   Done                     12/25/2018 22:38:06
00039 suncat0003 pw.x -in pw.inp   Done                     12/25/2018 22:38:06
00040 suncat0002 pw.x -in pw.inp   Done                     12/25/2018 22:38:06
00041 suncat0002 pw.x -in pw.inp   Done                     12/25/2018 22:38:06
00042 suncat0002 pw.x -in pw.inp   Done                     12/25/2018 22:38:06
00043 suncat0002 pw.x -in pw.inp   Done                     12/25/2018 22:38:06
00044 suncat0002 pw.x -in pw.inp   Done                     12/25/2018 22:38:06
00045 suncat0002 pw.x -in pw.inp   Done                     12/25/2018 22:38:06
00046 suncat0002 pw.x -in pw.inp   Done                     12/25/2018 22:38:06
00047 suncat0002 pw.x -in pw.inp   Done                     12/25/2018 22:38:06
00048 suncat0283 pw.x -in pw.inp   Done                     12/25/2018 22:38:06
00049 suncat0283 pw.x -in pw.inp   Done                     12/25/2018 22:38:06
00050 suncat0283 pw.x -in pw.inp   Done                     12/25/2018 22:38:06
00051 suncat0283 pw.x -in pw.inp   Done                     12/25/2018 22:38:06
00052 suncat0283 pw.x -in pw.inp   Done                     12/25/2018 22:38:06
00053 suncat0283 pw.x -in pw.inp   Done                     12/25/2018 22:38:06
00054 suncat0283 pw.x -in pw.inp   Done                     12/25/2018 22:38:06
00055 suncat0283 pw.x -in pw.inp   Done                     12/25/2018 22:38:06
00056 suncat0282 pw.x -in pw.inp   Done                     12/25/2018 22:38:06
00057 suncat0282 pw.x -in pw.inp   Done                     12/25/2018 22:38:06
00058 suncat0282 pw.x -in pw.inp   Done                     12/25/2018 22:38:06
00059 suncat0282 pw.x -in pw.inp   Done                     12/25/2018 22:38:06
00060 suncat0282 pw.x -in pw.inp   Done                     12/25/2018 22:38:06
00061 suncat0282 pw.x -in pw.inp   Done                     12/25/2018 22:38:06
00062 suncat0282 pw.x -in pw.inp   Done                     12/25/2018 22:38:06
00063 suncat0282 pw.x -in pw.inp   Done                     12/25/2018 22:38:06