     Program PWSCF v.5.1rc2 (svn rev. 11289) starts on 30Dec2018 at 12:12:10

     Current dimensions of program PWSCF are:
     Max number of different atomic species (ntypx) = 10
     Max number of k-points (npk) =  40000
     Max angular momentum in pseudopotentials (lmaxx) =  3
     Presently stress not available with electric field

     IMPORTANT: XC functional enforced from input :
     Exchange-correlation      = BEEF-VDW ( 1  4 27 13 2)
     Any further DFT definition will be discarded
     Please, verify this is what you really want

     Subspace diagonalization in iterative solution of the eigenvalue problem:
     a serial algorithm will be used

     bravais-lattice index     =            0
     lattice parameter (alat)  =       1.8897  a.u.
     unit-cell volume          =    7928.9848 (a.u.)^3
     number of atoms/cell      =           12
     number of atomic types    =            2
     number of electrons       =       135.00
     number of Kohn-Sham states=           97
     kinetic-energy cutoff     =      36.7493  Ry
     charge density cutoff     =     367.4932  Ry
     convergence threshold     =      1.0E-06
     mixing beta               =       0.1000
     number of iterations used =           10  plain     mixing
     Exchange-correlation      = BEEF-VDW ( 1  4 27 13 2)
     nstep                     =           50

     celldm(1)=   1.889726  celldm(2)=   0.000000  celldm(3)=   0.000000
     celldm(4)=   0.000000  celldm(5)=   0.000000  celldm(6)=   0.000000

     crystal axes: (cart. coord. in units of alat)
               a(1) = (   7.236423   0.000000   0.000000 )
               a(2) = (  -3.618211   6.266926   0.000000 )
               a(3) = (   0.000000   0.000000  25.908514 )

     reciprocal axes: (cart. coord. in units 2 pi/alat)
               b(1) = (  0.138190  0.079784  0.000000 )
               b(2) = (  0.000000  0.159568  0.000000 )
               b(3) = (  0.000000  0.000000  0.038597 )

     PseudoPot. # 1 for La read from file:
     /afs/slac.stanford.edu/u/if/mamunm/psp/gbrv1.5pbe/La.UPF
     MD5 check sum: 5937b0c7494ba0601a847275249473aa
     Pseudo is Ultrasoft + core correction, Zval = 11.0
     Generated by new atomic code, or converted to UPF format
     Using radial grid of  995 points,  8 beta functions with:
                l(1) =   0
                l(2) =   0
                l(3) =   1
                l(4) =   1
                l(5) =   2
                l(6) =   2
                l(7) =   3
                l(8) =   3
     Q(r) pseudized with  8 coefficients,  rinner =    1.700   1.700   1.700
                                                       1.700   1.700   1.700
                                                       1.700

     PseudoPot. # 2 for Cd read from file:
     /afs/slac.stanford.edu/u/if/mamunm/psp/gbrv1.5pbe/Cd.UPF
     MD5 check sum: 17164a7926edb8e0dc231208abae86a6
     Pseudo is Ultrasoft + core correction, Zval = 12.0
     Generated by new atomic code, or converted to UPF format
     Using radial grid of  889 points,  6 beta functions with:
                l(1) =   0
                l(2) =   0
                l(3) =   1
                l(4) =   1
                l(5) =   2
                l(6) =   2
     Q(r) pseudized with  6 coefficients,  rinner =    1.000   1.000   1.000
                                                       1.000   1.000

     vdW kernel table read from file vdW_kernel_table
     MD5 check sum: 095c7af220d748ca6e76c0b4c6cfb241

     atomic species   valence    mass     pseudopotential
        La1           11.00   138.90547     La( 1.00)
        Cd1           12.00   112.41400     Cd( 1.00)

     No symmetry found

   Cartesian axes

     site n.     atom                  positions (alat units)
         1           La1 tau(   1) = (   0.0000000   0.0000000  10.0000000  )
         2           La1 tau(   2) = (  -1.8091056   3.1334629  10.0000000  )
         3           La1 tau(   3) = (   1.8091056   3.1334629  10.0000000  )
         4           Cd1 tau(   4) = (   3.6182113   0.0000000  10.0000000  )
         5           La1 tau(   5) = (   3.6182113   2.0889753  12.9542571  )
         6           La1 tau(   6) = (   1.8091056   5.2224382  12.9542571  )
         7           La1 tau(   7) = (  -1.8091056   5.2224382  12.9542571  )
         8           Cd1 tau(   8) = (   0.0000000   2.0889753  12.9542571  )
         9           La1 tau(   9) = (  -0.0000000   4.1779505  15.9085143  )
        10           La1 tau(  10) = (   1.8091056   1.0444876  15.9085143  )
        11           La1 tau(  11) = (   5.4273169   1.0444876  15.9085143  )
        12           Cd1 tau(  12) = (   3.6182113   4.1779505  15.9085143  )

     number of k points=    20  Fermi-Dirac smearing, width (Ry)=  0.0110
                       cart. coord. in units 2pi/alat
        k(    1) = (   0.0000000   0.0000000   0.0000000), wk =   0.0555556
        k(    2) = (   0.0000000   0.0265946   0.0000000), wk =   0.1111111
        k(    3) = (   0.0000000   0.0531893   0.0000000), wk =   0.1111111
        k(    4) = (   0.0000000  -0.0797839   0.0000000), wk =   0.0555556
        k(    5) = (   0.0230316   0.0132973   0.0000000), wk =   0.1111111
        k(    6) = (   0.0230316   0.0398920   0.0000000), wk =   0.1111111
        k(    7) = (   0.0230316   0.0664866   0.0000000), wk =   0.1111111
        k(    8) = (   0.0230316  -0.0664866   0.0000000), wk =   0.1111111
        k(    9) = (   0.0230316  -0.0398920   0.0000000), wk =   0.1111111
        k(   10) = (   0.0230316  -0.0132973   0.0000000), wk =   0.1111111
        k(   11) = (   0.0460633   0.0265946   0.0000000), wk =   0.1111111
        k(   12) = (   0.0460633   0.0531893   0.0000000), wk =   0.1111111
        k(   13) = (   0.0460633   0.0797839   0.0000000), wk =   0.1111111
        k(   14) = (   0.0460633  -0.0531893   0.0000000), wk =   0.1111111
        k(   15) = (   0.0460633  -0.0265946   0.0000000), wk =   0.1111111
        k(   16) = (   0.0460633   0.0000000   0.0000000), wk =   0.1111111
        k(   17) = (  -0.0690949  -0.0398920   0.0000000), wk =   0.0555556
        k(   18) = (  -0.0690949  -0.0132973   0.0000000), wk =   0.1111111
        k(   19) = (  -0.0690949   0.0132973   0.0000000), wk =   0.1111111
        k(   20) = (  -0.0690949  -0.1196759   0.0000000), wk =   0.0555556

     Largest allocated arrays     est. size (Mb)     dimensions
     Largest temporary arrays     est. size (Mb)     dimensions

     Initial potential from superposition of free atoms
     Check: negative starting charge=   -0.695409

     starting charge  133.21126, renormalised to  135.00000

     negative rho (up, down):  7.047E-01 0.000E+00

     *
     * You are using vdW-DF for exchange-correlation in this calculation.
     * Please cite the following three references that made this development
     * possible:
     *
     *   M. Dion, H. Rydberg, E. Schroder, D. C. Langreth, and
     *   B. I. Lundqvist, Phys. Rev. Lett. 92, 246401 (2004).
     *
     *   T. Thonhauser, V. R. Cooper, S. Li, A. Puzder, P. Hyldgaard, and
     *   D. C. Langreth, Phys. Rev. B 76, 125112 (2007).
     *
     *   G. Roman-Perez and J. M. Soler, Phys. Rev. Lett. 103, 096102 (2009).
     *
     *
     * If you are using vdW-DF2, please also cite:
     *
     *   K. Lee, E. D. Murray, L. Kong, B. I. Lundqvist, and
     *   D. C. Langreth, Phys. Rev. B 82, 081101(R) (2010).
     *
     *
     * If you are calculating the stress with vdW-DF, please also cite:
     *
     *   R. Sabatini, E. Kucukbenli, B. Kolb, T. Thonhauser, and
     *   S. de Gironcoli, J. Phys.: Condens. Matter 24, 424209 (2012).
     *

     Carrying out vdW-DF run using the following parameters:

     Nqs =      20    Nr_points =    1024   r_max =   100.000
     q_mesh =
               0.00001000     0.04494208     0.09755937     0.15916263
               0.23128650     0.31572767     0.41458969     0.53033537
               0.66584808     0.82450364     1.01025438     1.22772762
               1.48234092     1.78043706     2.12944203     2.53805004
               3.01644009     3.57652955     4.23227104     5.00000000

     Gradients computed in reciprocal space

     Adding external electric field

     Computed dipole along edir(3) :
        Dipole               -0.0000 Ry au,         -0.0000 Debye
        Dipole field         -0.0000 Ry au

        Potential amp.        0.0000 Ry
        Total length         47.7360 bohr

     Starting wfc are  207 randomized atomic wfcs

     Self-consistent Calculation

     iteration #  1     ecut=    36.75 Ry     beta=0.10
     Davidson diagonalization with overlap
     ethr =  1.00E-02,  avg # of iterations =  2.0

[...]

     total energy              =   -1284.03469955 Ry
     Harris-Foulkes estimate   =   -1284.99644260 Ry
     estimated scf accuracy    <       5.40526897 Ry

[...]

     iteration # 11     ecut=    36.75 Ry     beta=0.10
     Davidson diagonalization with overlap
     c_bands:  1 eigenvalues not converged
     c_bands:  1 eigenvalues not converged
     c_bands:  4 eigenvalues not converged
     c_bands:  4 eigenvalues not converged
     c_bands:  3 eigenvalues not converged
     c_bands:  2 eigenvalues not converged
     c_bands:  4 eigenvalues not converged
     c_bands:  2 eigenvalues not converged
     c_bands:  4 eigenvalues not converged
     c_bands:  3 eigenvalues not converged
     c_bands:  1 eigenvalues not converged
     ethr =  8.60E-07,  avg # of iterations = 15.4

[...]

     End of self-consistent calculation

          k = 0.0000 0.0000 0.0000 ( 29801 PWs)   bands (ev):

   -31.7646 -31.7552 -31.6216 -31.6216 -31.6195 -31.6195 -31.3426 -31.2114
   -31.2114 -16.0253 -15.9419 -15.7318 -15.6395 -15.6395 -15.5370 -15.5370
   -15.5202 -15.5179 -15.5179 -15.4441 -15.2727 -15.2727 -15.0027 -15.0027
   -14.9629 -14.9200 -14.7342 -14.7282 -14.7282 -14.7184 -14.7184 -14.6715
   -14.6715 -14.5001 -14.3802 -14.3802  -6.7597  -6.7597  -6.7559  -6.7545
    -6.7545  -6.7441  -6.7351  -6.7351  -6.7185  -6.7185  -6.5799  -6.5799
    -6.5672  -6.5438  -6.5438  -2.7000  -2.0876  -2.0326  -0.4808  -0.0642
     0.3313   0.8225   0.8282   1.0401   1.0401   1.1081   1.1081   1.3236
     1.3236   1.3407   1.3407   1.7890   1.8115   1.9451   1.9451   2.4373
     2.4373   2.4511   2.5160   2.6282   2.6282   2.6478   2.7378   2.7378
     2.7508   2.7509   2.8140   2.8331   2.8783   2.9565   2.9565   2.9626
     2.9628   3.0064   3.0418   3.0418   3.0688   3.0688   3.0886   3.1259
     3.1261

[...]

          k =-0.0691-0.0399 0.0000 ( 29836 PWs)   bands (ev):

[...]

     the Fermi energy is     1.6718 ev

!    total energy              =   -1284.44521686 Ry
     Harris-Foulkes estimate   =   -1284.44524462 Ry
     estimated scf accuracy    <       0.00000081 Ry

     The total energy is the sum of the following terms:

     one-electron contribution =   -5321.62190282 Ry
     hartree contribution      =    2693.64511676 Ry
     xc contribution           =    -578.71033621 Ry
     ewald contribution        =    1922.35529678 Ry
     electric field correction =       0.00000000 Ry
     smearing contrib. (-TS)   =      -0.11339137 Ry

[...]
                l(1) =   0
                l(2) =   0
                l(3) =   1
                l(4) =   1
                l(5) =   2
                l(6) =   2
                l(7) =   3
                l(8) =   3
     Q(r) pseudized with  8 coefficients,  rinner =    1.700   1.700   1.700
                                                       1.700   1.700   1.700
                                                       1.700

     PseudoPot. # 2 for Cd read from file:
     /afs/slac.stanford.edu/u/if/mamunm/psp/gbrv1.5pbe/Cd.UPF
     MD5 check sum: 17164a7926edb8e0dc231208abae86a6
     Pseudo is Ultrasoft + core correction, Zval = 12.0
     Generated by new atomic code, or converted to UPF format
     Using radial grid of  889 points,  6 beta functions with:
                l(1) =   0
                l(2) =   0
                l(3) =   1
                l(4) =   1
                l(5) =   2
                l(6) =   2
     Q(r) pseudized with  6 coefficients,  rinner =    1.000   1.000   1.000
                                                       1.000   1.000

     vdW kernel table read from file vdW_kernel_table
     MD5 check sum: 095c7af220d748ca6e76c0b4c6cfb241

     atomic species   valence    mass     pseudopotential
        La1           11.00   138.90547     La( 1.00)
        Cd1           12.00   112.41400     Cd( 1.00)

     No symmetry found

   Cartesian axes

     site n.     atom                  positions (alat units)
         1           La1 tau(   1) = (   0.0000000   0.0000000  10.0000000  )
         2           La1 tau(   2) = (  -1.8091056   3.1334629  10.0000000  )
         3           La1 tau(   3) = (   1.8091056   3.1334629  10.0000000  )
         4           Cd1 tau(   4) = (   3.6182113   0.0000000  10.0000000  )
         5           La1 tau(   5) = (   3.6182113   2.0889753  12.9542571  )
         6           La1 tau(   6) = (   1.8091056   5.2224382  12.9542571  )
         7           La1 tau(   7) = (  -1.8091056   5.2224382  12.9542571  )
         8           Cd1 tau(   8) = (   0.0000000   2.0889753  12.9542571  )
         9           La1 tau(   9) = (   0.0000092   4.1199637  15.9094411  )
        10           La1 tau(  10) = (   1.7588693   1.0734397  15.9092494  )
        11           La1 tau(  11) = (   5.4775332   1.0734695  15.9093205  )
        12           Cd1 tau(  12) = (   3.6182466   4.1778847  15.7347521  )

     number of k points=    20  Fermi-Dirac smearing, width (Ry)=  0.0110
                       cart. coord. in units 2pi/alat
        k(    1) = (   0.0000000   0.0000000   0.0000000), wk =   0.0555556
        k(    2) = (   0.0000000   0.0265946   0.0000000), wk =   0.1111111
        k(    3) = (   0.0000000   0.0531893   0.0000000), wk =   0.1111111
        k(    4) = (   0.0000000  -0.0797839   0.0000000), wk =   0.0555556
        k(    5) = (   0.0230316   0.0132973   0.0000000), wk =   0.1111111
        k(    6) = (   0.0230316   0.0398920   0.0000000), wk =   0.1111111
        k(    7) = (   0.0230316   0.0664866   0.0000000), wk =   0.1111111
        k(    8) = (   0.0230316  -0.0664866   0.0000000), wk =   0.1111111
        k(    9) = (   0.0230316  -0.0398920   0.0000000), wk =   0.1111111
        k(   10) = (   0.0230316  -0.0132973   0.0000000), wk =   0.1111111
        k(   11) = (   0.0460633   0.0265946   0.0000000), wk =   0.1111111
        k(   12) = (   0.0460633   0.0531893   0.0000000), wk =   0.1111111
        k(   13) = (   0.0460633   0.0797839   0.0000000), wk =   0.1111111
        k(   14) = (   0.0460633  -0.0531893   0.0000000), wk =   0.1111111
        k(   15) = (   0.0460633  -0.0265946   0.0000000), wk =   0.1111111
        k(   16) = (   0.0460633   0.0000000   0.0000000), wk =   0.1111111
        k(   17) = (  -0.0690949  -0.0398920   0.0000000), wk =   0.0555556
        k(   18) = (  -0.0690949  -0.0132973   0.0000000), wk =   0.1111111
        k(   19) = (  -0.0690949   0.0132973   0.0000000), wk =   0.1111111
        k(   20) = (  -0.0690949  -0.1196759   0.0000000), wk =   0.0555556

     Largest allocated arrays     est. size (Mb)     dimensions
     Largest temporary arrays     est. size (Mb)     dimensions

     Initial potential from superposition of free atoms
     Check: negative starting charge=   -0.695520

     starting charge  133.21126, renormalised to  135.00000

[...]

     *
     * You are using vdW-DF for exchange-correlation in this calculation.
     * Please cite the following three references that made this development
     * possible:
     *
     *   M. Dion, H. Rydberg, E. Schroder, D. C. Langreth, and
     *   B. I. Lundqvist, Phys. Rev. Lett. 92, 246401 (2004).
     *
     *   T. Thonhauser, V. R. Cooper, S. Li, A. Puzder, P. Hyldgaard, and
     *   D. C. Langreth, Phys. Rev. B 76, 125112 (2007).
     *
     *   G. Roman-Perez and J. M. Soler, Phys. Rev. Lett. 103, 096102 (2009).
     *
     *
     * If you are using vdW-DF2, please also cite:
     *
     *   K. Lee, E. D. Murray, L. Kong, B. I. Lundqvist, and
     *   D. C. Langreth, Phys. Rev. B 82, 081101(R) (2010).
     *
     *
     * If you are calculating the stress with vdW-DF, please also cite:
     *
     *   R. Sabatini, E. Kucukbenli, B. Kolb, T. Thonhauser, and
     *   S. de Gironcoli, J. Phys.: Condens. Matter 24, 424209 (2012).
     *

     Carrying out vdW-DF run using the following parameters:

     Nqs =      20    Nr_points =    1024   r_max =   100.000
     q_mesh =
               0.00001000     0.04494208     0.09755937     0.15916263
               0.23128650     0.31572767     0.41458969     0.53033537
               0.66584808     0.82450364     1.01025438     1.22772762
               1.48234092     1.78043706     2.12944203     2.53805004
               3.01644009     3.57652955     4.23227104     5.00000000

     Gradients computed in reciprocal space

[...]

     Starting wfc are  207 randomized atomic wfcs

     Self-consistent Calculation

[...]

     iteration # 12     ecut=    36.75 Ry     beta=0.10
     Davidson diagonalization with overlap
     c_bands:  1 eigenvalues not converged
     c_bands:  1 eigenvalues not converged
     c_bands:  1 eigenvalues not converged
     ethr =  2.17E-06,  avg # of iterations =  8.9

[...]

     total energy              =   -1284.46235455 Ry
     Harris-Foulkes estimate   =   -1284.46236228 Ry
     estimated scf accuracy    <       0.00000127 Ry

     iteration # 19     ecut=    36.75 Ry     beta=0.10
     Davidson diagonalization with overlap
     ethr =  9.42E-10,  avg # of iterations =  3.6

[...]

     negative rho (up, down):  4.994E-01 0.000E+00

     Adding external electric field

     Computed dipole along edir(3) :
        Dipole                0.0227 Ry au,          0.0577 Debye
        Dipole field          0.0000 Ry au

        Potential amp.       -0.0034 Ry
        Total length         47.7360 bohr

     End of self-consistent calculation

[...]

          k = 0.0461 0.0000 0.0000 ( 29813 PWs)   bands (ev):

[...]

          k =-0.0691-0.1197 0.0000 ( 29836 PWs)   bands (ev):

   -31.7052 -31.6993 -31.6544 -31.6440 -31.6066 -31.6014 -31.2760 -31.2335
   -31.1882 -15.7680 -15.7072 -15.6357 -15.5126 -15.4860 -15.4237 -15.3807
   -15.3493 -15.3228 -15.3151 -15.3107 -15.2584 -15.2537 -15.2213 -15.1928
   -15.1755 -15.1588 -14.9074 -14.8196 -14.8165 -14.7620 -14.7519 -14.6832
   -14.6810 -14.6525 -14.6153 -14.3924  -6.7596  -6.7481  -6.7478  -6.7371
    -6.7284  -6.7176  -6.7156  -6.7138  -6.7101  -6.7087  -6.5436  -6.5261
    -6.5195  -6.5084  -6.5047  -1.8051  -1.7793  -1.4891  -0.0357   0.1961
     0.4096   0.6420   0.9441   0.9683   1.1253   1.1948   1.2922   1.4025
     1.4519   1.5163   1.5893   1.6402   1.9153   2.0072   2.0407   2.1320
     2.1621   2.1819   2.2662   2.3545   2.4303   2.4580   2.6559   2.6962
     2.7023   2.7417   2.7854   2.9043   2.9123   2.9222   2.9622   2.9835
     3.0068   3.0113   3.0298   3.0308   3.0583   3.0868   3.0964   3.1373
     3.1466

     the Fermi energy is     1.6880 ev

!    total energy              =   -1284.46232943 Ry
     Harris-Foulkes estimate   =   -1284.46235478 Ry
     estimated scf accuracy    <       0.00000099 Ry

     The total energy is the sum of the following terms:

     one-electron contribution =   -5357.24873671 Ry
     hartree contribution      =    2711.56787481 Ry
     xc contribution           =    -578.74737950 Ry
     ewald contribution        =    1940.07899424 Ry
     electric field correction =       0.00000082 Ry
     smearing contrib. (-TS)   =      -0.11308309 Ry

     convergence has been achieved in  19 iterations

 BEEF-vdW xc energy contributions
           1 :   -511.739201522079
           2 :    470.335939297744
           3 :   -397.744665861412
           4 :    310.447065850600
           5 :   -225.454539430890
           6 :    155.372859012011
           7 :   -105.982314539525
           8 :    76.5849889153720
           9 :   -62.2553286565683
          10 :    56.6656389934627
          11 :   -54.3237825054574
          12 :    51.6168618217586
          13 :   -46.7665118915049
          14 :    39.2801743515330
          15 :   -29.4954996866013
          16 :    18.4194681070408
          17 :   -7.65830779443604
          18 :  -0.872426426229595
          19 :    5.54390582896360
          20 :   -5.69828183858442
          21 :    2.04669932952106
          22 :    3.49525324711578
          23 :   -8.53045132937382
          24 :    11.1423959458316
          25 :   -10.6294364875945
          26 :    7.65849224281351
          27 :   -3.80388835305394
          28 :   0.747994093193483
          29 :   0.446777503085741
          30 :   0.319288916474193
          31 :   -43.9325415389887
          32 :   -31.6450590755385

     Forces acting on atoms (Ry/au):

     negative rho (up, down):  4.994E-01 0.000E+00
     atom    1 type  1   force =    -0.00000729    0.00897729   -0.00119672
     atom    2 type  1   force =     0.00777562   -0.00449517   -0.00121026
     atom    3 type  1   force =    -0.00777440   -0.00448869   -0.00120468
     atom    4 type  2   force =    -0.00000625    0.00000138    0.01057402
     atom    5 type  1   force =    -0.00000015   -0.00155317   -0.00155942
     atom    6 type  1   force =    -0.00133561    0.00077442   -0.00156560
     atom    7 type  1   force =     0.00133457    0.00077381   -0.00156931
     atom    8 type  2   force =     0.00000421    0.00001279   -0.00045899
     atom    9 type  1   force =     0.00000337   -0.00082592   -0.00058081
     atom   10 type  1   force =    -0.00071082    0.00041144   -0.00056775
     atom   11 type  1   force =     0.00071356    0.00040643   -0.00057952
     atom   12 type  2   force =     0.00000319    0.00000540   -0.00008096

     Total force =     0.019385     Total SCF correction =     0.002146
     SCF correction compared to forces is large: reduce conv_thr to get better values

     entering subroutine stress ...

     negative rho (up, down):  4.994E-01 0.000E+00
          total   stress  (Ry/bohr**3)                   (kbar)     P=   -3.11
  -0.00002614  -0.00000000   0.00000000         -3.85     -0.00      0.00
  -0.00000000  -0.00002615   0.00000000         -0.00     -3.85      0.00
   0.00000000   0.00000000  -0.00001113          0.00      0.00     -1.64

 !ASE

     Writing output data file calc.save

     General routines

     Parallel routines

   This run was terminated on:  14:43:26  30Dec2018

   JOB DONE.
Job  /afs/slac/g/suncat/bin/suncat-tsmpirun -x LD_LIBRARY_PATH -wdir /scratch/qe648544_TTdpy pw.x -in pw.inp

TID   HOST_NAME   COMMAND_LINE            STATUS            TERMINATION_TIME
00000 suncat0079 pw.x -in pw.inp   Done                     12/30/2018 14:43:26
00001 suncat0079 pw.x -in pw.inp   Done                     12/30/2018 14:43:26
00002 suncat0079 pw.x -in pw.inp   Done                     12/30/2018 14:43:26
00003 suncat0079 pw.x -in pw.inp   Done                     12/30/2018 14:43:26
00004 suncat0079 pw.x -in pw.inp   Done                     12/30/2018 14:43:26
00005 suncat0079 pw.x -in pw.inp   Done                     12/30/2018 14:43:26
00006 suncat0079 pw.x -in pw.inp   Done                     12/30/2018 14:43:26
00007 suncat0079 pw.x -in pw.inp   Done                     12/30/2018 14:43:26
00008 suncat0078 pw.x -in pw.inp   Done                     12/30/2018 14:43:26
00009 suncat0078 pw.x -in pw.inp   Done                     12/30/2018 14:43:26
00010 suncat0078 pw.x -in pw.inp   Done                     12/30/2018 14:43:26
00011 suncat0078 pw.x -in pw.inp   Done                     12/30/2018 14:43:26
00012 suncat0078 pw.x -in pw.inp   Done                     12/30/2018 14:43:26
00013 suncat0078 pw.x -in pw.inp   Done                     12/30/2018 14:43:26
00014 suncat0078 pw.x -in pw.inp   Done                     12/30/2018 14:43:26
00015 suncat0078 pw.x -in pw.inp   Done                     12/30/2018 14:43:26
00016 suncat0076 pw.x -in pw.inp   Done                     12/30/2018 14:43:26
00017 suncat0076 pw.x -in pw.inp   Done                     12/30/2018 14:43:26
00018 suncat0076 pw.x -in pw.inp   Done                     12/30/2018 14:43:26
00019 suncat0076 pw.x -in pw.inp   Done                     12/30/2018 14:43:26
00020 suncat0076 pw.x -in pw.inp   Done                     12/30/2018 14:43:26
00021 suncat0076 pw.x -in pw.inp   Done                     12/30/2018 14:43:26
00022 suncat0076 pw.x -in pw.inp   Done                     12/30/2018 14:43:26
00023 suncat0076 pw.x -in pw.inp   Done                     12/30/2018 14:43:26
00024 suncat0075 pw.x -in pw.inp   Done                     12/30/2018 14:43:26
00025 suncat0075 pw.x -in pw.inp   Done                     12/30/2018 14:43:26
00026 suncat0075 pw.x -in pw.inp   Done                     12/30/2018 14:43:26
00027 suncat0075 pw.x -in pw.inp   Done                     12/30/2018 14:43:26
00028 suncat0075 pw.x -in pw.inp   Done                     12/30/2018 14:43:26
00029 suncat0075 pw.x -in pw.inp   Done                     12/30/2018 14:43:26
00030 suncat0075 pw.x -in pw.inp   Done                     12/30/2018 14:43:26
00031 suncat0075 pw.x -in pw.inp   Done                     12/30/2018 14:43:26
00032 suncat0074 pw.x -in pw.inp   Done                     12/30/2018 14:43:26
00033 suncat0074 pw.x -in pw.inp   Done                     12/30/2018 14:43:26
00034 suncat0074 pw.x -in pw.inp   Done                     12/30/2018 14:43:26
00035 suncat0074 pw.x -in pw.inp   Done                     12/30/2018 14:43:26
00036 suncat0074 pw.x -in pw.inp   Done                     12/30/2018 14:43:26
00037 suncat0074 pw.x -in pw.inp   Done                     12/30/2018 14:43:26
00038 suncat0074 pw.x -in pw.inp   Done                     12/30/2018 14:43:26
00039 suncat0074 pw.x -in pw.inp   Done                     12/30/2018 14:43:26
00040 suncat0073 pw.x -in pw.inp   Done                     12/30/2018 14:43:26
00041 suncat0073 pw.x -in pw.inp   Done                     12/30/2018 14:43:26
00042 suncat0073 pw.x -in pw.inp   Done                     12/30/2018 14:43:26
00043 suncat0073 pw.x -in pw.inp   Done                     12/30/2018 14:43:26
00044 suncat0073 pw.x -in pw.inp   Done                     12/30/2018 14:43:26
00045 suncat0073 pw.x -in pw.inp   Done                     12/30/2018 14:43:26
00046 suncat0073 pw.x -in pw.inp   Done                     12/30/2018 14:43:26
00047 suncat0073 pw.x -in pw.inp   Done                     12/30/2018 14:43:26
00048 suncat0065 pw.x -in pw.inp   Done                     12/30/2018 14:43:26
00049 suncat0065 pw.x -in pw.inp   Done                     12/30/2018 14:43:26
00050 suncat0065 pw.x -in pw.inp   Done                     12/30/2018 14:43:26
00051 suncat0065 pw.x -in pw.inp   Done                     12/30/2018 14:43:26
00052 suncat0065 pw.x -in pw.inp   Done                     12/30/2018 14:43:26
00053 suncat0065 pw.x -in pw.inp   Done                     12/30/2018 14:43:26
00054 suncat0065 pw.x -in pw.inp   Done                     12/30/2018 14:43:26
00055 suncat0065 pw.x -in pw.inp   Done                     12/30/2018 14:43:26
00056 suncat0064 pw.x -in pw.inp   Done                     12/30/2018 14:43:26
00057 suncat0064 pw.x -in pw.inp   Done                     12/30/2018 14:43:26
00058 suncat0064 pw.x -in pw.inp   Done                     12/30/2018 14:43:26
00059 suncat0064 pw.x -in pw.inp   Done                     12/30/2018 14:43:26
00060 suncat0064 pw.x -in pw.inp   Done                     12/30/2018 14:43:26
00061 suncat0064 pw.x -in pw.inp   Done                     12/30/2018 14:43:26
00062 suncat0064 pw.x -in pw.inp   Done                     12/30/2018 14:43:26
00063 suncat0064 pw.x -in pw.inp   Done                     12/30/2018 14:43:26