     Program PWSCF v.5.1rc2 (svn rev. 11289) starts on  1Jan2019 at 16:43: 7

     Current dimensions of program PWSCF are:
     Max number of different atomic species (ntypx) = 10
     Max number of k-points (npk) =  40000
     Max angular momentum in pseudopotentials (lmaxx) =  3
     Presently stress not available with electric field

     IMPORTANT: XC functional enforced from input :
     Exchange-correlation      = BEEF-VDW ( 1  4 27 13 2)
     Any further DFT definition will be discarded
     Please, verify this is what you really want

     Subspace diagonalization in iterative solution of the eigenvalue problem:
     a serial algorithm will be used

     bravais-lattice index     =            0
     lattice parameter (alat)  =       1.8897  a.u.
     unit-cell volume          =    4899.0621 (a.u.)^3
     number of atoms/cell      =           12
     number of atomic types    =            2
     number of electrons       =       162.00
     number of Kohn-Sham states=          111
     kinetic-energy cutoff     =      36.7493  Ry
     charge density cutoff     =     367.4932  Ry
     convergence threshold     =      1.0E-06
     mixing beta               =       0.1000
     number of iterations used =           10  plain     mixing
     Exchange-correlation      = BEEF-VDW ( 1  4 27 13 2)
     nstep                     =           50

     celldm(1)=   1.889726  celldm(2)=   0.000000  celldm(3)=   0.000000
     celldm(4)=   0.000000  celldm(5)=   0.000000  celldm(6)=   0.000000

     crystal axes: (cart. coord. in units of alat)
               a(1) = (   5.819568   0.000000   0.000000 )
               a(2) = (  -2.909784   5.039893   0.000000 )
               a(3) = (   0.000000   0.000000  24.751657 )

     reciprocal axes: (cart. coord. in units 2 pi/alat)
               b(1) = (  0.171834  0.099208  0.000000 )
               b(2) = (  0.000000  0.198417  0.000000 )
               b(3) = (  0.000000  0.000000  0.040401 )

     PseudoPot. # 1 for Ta read from file:
     /afs/slac.stanford.edu/u/if/mamunm/psp/gbrv1.5pbe/Ta.UPF
     MD5 check sum: f8bbe9446314a3b8ea5d9f3e3836c939
     Pseudo is Ultrasoft + core correction, Zval = 13.0
     Generated by new atomic code, or converted to UPF format
     Using radial grid of  921 points,  7 beta functions with:
                l(1) =   0
                l(2) =   0
                l(3) =   1
                l(4) =   1
                l(5) =   2
                l(6) =   2
                l(7) =   3
     Q(r) pseudized with  6 coefficients,  rinner =    1.300   1.300   1.300
                                                       1.300   1.300   1.300
                                                       1.300

     PseudoPot. # 2 for Ir read from file:
     /afs/slac.stanford.edu/u/if/mamunm/psp/gbrv1.5pbe/Ir.UPF
     MD5 check sum: 8836f839c3459d2b385c504ce6d91f2c
     Pseudo is Ultrasoft + core correction, Zval = 15.0
     Generated by new atomic code, or converted to UPF format
     Using radial grid of  983 points,  7 beta functions with:
                l(1) =   0
                l(2) =   0
                l(3) =   1
                l(4) =   1
                l(5) =   1
                l(6) =   2
                l(7) =   2
     Q(r) pseudized with  8 coefficients,  rinner =    1.400   1.400   1.400
                                                       1.400   1.400

     vdW kernel table read from file vdW_kernel_table
     MD5 check sum: 095c7af220d748ca6e76c0b4c6cfb241

     atomic species   valence    mass     pseudopotential
        Ta1           13.00   180.94788     Ta( 1.00)
        Ir1           15.00   192.21700     Ir( 1.00)

     No symmetry found

   Cartesian axes

     site n.     atom                  positions (alat units)
         1           Ta1 tau(   1) = (   0.0000000   0.0000000  10.0000000  )
         2           Ta1 tau(   2) = (  -1.4548919   2.5199467  10.0000000  )
         3           Ta1 tau(   3) = (   1.4548919   2.5199467  10.0000000  )
         4           Ir1 tau(   4) = (   2.9097838   0.0000000  10.0000000  )
         5           Ta1 tau(   5) = (   2.9097838   1.6799645  12.3758285  )
         6           Ta1 tau(   6) = (   1.4548919   4.1999112  12.3758285  )
         7           Ta1 tau(   7) = (  -1.4548919   4.1999112  12.3758285  )
         8           Ir1 tau(   8) = (   0.0000000   1.6799645  12.3758285  )
         9           Ta1 tau(   9) = (  -0.0000000   3.3599289  14.7516571  )
        10           Ta1 tau(  10) = (   1.4548919   0.8399822  14.7516571  )
        11           Ta1 tau(  11) = (   4.3646757   0.8399822  14.7516571  )
        12           Ir1 tau(  12) = (   2.9097838   3.3599289  14.7516571  )

     number of k points=    20  Fermi-Dirac smearing, width (Ry)=  0.0110
                       cart. coord. in units 2pi/alat
        k(    1) = (   0.0000000   0.0000000   0.0000000), wk =   0.0555556
        k(    2) = (   0.0000000   0.0330695   0.0000000), wk =   0.1111111
        k(    3) = (   0.0000000   0.0661390   0.0000000), wk =   0.1111111
        k(    4) = (   0.0000000  -0.0992084   0.0000000), wk =   0.0555556
        k(    5) = (   0.0286390   0.0165347   0.0000000), wk =   0.1111111
        k(    6) = (   0.0286390   0.0496042   0.0000000), wk =   0.1111111
        k(    7) = (   0.0286390   0.0826737   0.0000000), wk =   0.1111111
        k(    8) = (   0.0286390  -0.0826737   0.0000000), wk =   0.1111111
        k(    9) = (   0.0286390  -0.0496042   0.0000000), wk =   0.1111111
        k(   10) = (   0.0286390  -0.0165347   0.0000000), wk =   0.1111111
        k(   11) = (   0.0572780   0.0330695   0.0000000), wk =   0.1111111
        k(   12) = (   0.0572780   0.0661390   0.0000000), wk =   0.1111111
        k(   13) = (   0.0572780   0.0992084   0.0000000), wk =   0.1111111
        k(   14) = (   0.0572780  -0.0661390   0.0000000), wk =   0.1111111
        k(   15) = (   0.0572780  -0.0330695   0.0000000), wk =   0.1111111
        k(   16) = (   0.0572780   0.0000000   0.0000000), wk =   0.1111111
        k(   17) = (  -0.0859170  -0.0496042   0.0000000), wk =   0.0555556
        k(   18) = (  -0.0859170  -0.0165347   0.0000000), wk =   0.1111111
        k(   19) = (  -0.0859170   0.0165347   0.0000000), wk =   0.1111111
        k(   20) = (  -0.0859170  -0.1488127   0.0000000), wk =   0.0555556

     Largest allocated arrays     est. size (Mb)     dimensions
     Largest temporary arrays     est. size (Mb)     dimensions

     Initial potential from superposition of free atoms
     Check: negative starting charge=   -1.929478

     starting charge  160.48990, renormalised to  162.00000

     negative rho (up, down):  1.948E+00 0.000E+00

     *
     * You are using vdW-DF for exchange-correlation in this calculation.
     * Please cite the following three references that made this development
     * possible:
     *
     *   M. Dion, H. Rydberg, E. Schroder, D. C. Langreth, and
     *   B. I. Lundqvist, Phys. Rev. Lett. 92, 246401 (2004).
     *
     *   T. Thonhauser, V. R. Cooper, S. Li, A. Puzder, P. Hyldgaard, and
     *   D. C. Langreth, Phys. Rev. B 76, 125112 (2007).
     *
     *   G. Roman-Perez and J. M. Soler, Phys. Rev. Lett. 103, 096102 (2009).
     *
     *
     * If you are using vdW-DF2, please also cite:
     *
     *   K. Lee, E. D. Murray, L. Kong, B. I. Lundqvist, and
     *   D. C. Langreth, Phys. Rev. B 82, 081101(R) (2010).
     *
     *
     * If you are calculating the stress with vdW-DF, please also cite:
     *
     *   R. Sabatini, E. Kucukbenli, B. Kolb, T. Thonhauser, and
     *   S. de Gironcoli, J. Phys.: Condens. Matter 24, 424209 (2012).
     *

     Carrying out vdW-DF run using the following parameters:

     Nqs =      20    Nr_points =    1024   r_max =   100.000
     q_mesh =
               0.00001000     0.04494208     0.09755937     0.15916263
               0.23128650     0.31572767     0.41458969     0.53033537
               0.66584808     0.82450364     1.01025438     1.22772762
               1.48234092     1.78043706     2.12944203     2.53805004
               3.01644009     3.57652955     4.23227104     5.00000000

     Gradients computed in reciprocal space

     Adding external electric field

     Computed dipole along edir(3) :
        Dipole               -0.0000 Ry au,         -0.0000 Debye
        Dipole field         -0.0000 Ry au

        Potential amp.        0.0000 Ry
        Total length         45.6045 bohr

     Starting wfc are  153 randomized atomic wfcs

     Self-consistent Calculation

     iteration #  1     ecut=    36.75 Ry     beta=0.10
     Davidson diagonalization with overlap
     ethr =  1.00E-02,  avg # of iterations =  2.0

[...]

     total energy              =   -1838.56306581 Ry
     Harris-Foulkes estimate   =   -1839.76870595 Ry
     estimated scf accuracy    <       7.21669009 Ry

[...]

     End of self-consistent calculation

          k = 0.0000 0.0000 0.0000 ( 18487 PWs)   bands (ev):

   -66.1731 -66.1687 -66.1125 -66.1125 -66.1114 -66.1114 -66.0019 -65.9469
   -65.9466 -46.9551 -46.9249 -46.9249 -46.5631 -46.5621 -46.5374 -46.5374
   -46.5372 -46.5372 -32.9620 -32.8516 -32.8103 -32.7759 -32.7524 -32.7524
   -32.7051 -32.7051 -32.6547 -32.6219 -32.6219 -32.5505 -32.5505 -32.4102
   -32.4102 -32.2831 -32.2204 -32.1563 -32.1561 -32.1551 -32.0687 -32.0160
   -32.0160 -32.0096 -32.0096 -31.9431 -31.9430  -5.6765  -3.9917  -3.1767
    -2.6680  -2.6680  -2.5636  -2.4703  -2.4703  -2.2110  -1.7941  -1.7941
    -1.7528  -1.7528  -1.6930  -1.4680  -0.6207  -0.6207  -0.0653  -0.0396
    -0.0396   0.3124   0.5401   1.1074   1.4754   1.4754   1.6464   1.7670
     1.7670   1.7902   1.7903   1.8297   2.1231   2.1231   2.2077   2.2077
     2.6841   2.8603   2.9301   2.9388   2.9388   3.0819   3.0819   3.6241
     3.6241   3.9733   3.9733   4.0358   4.1547   4.7302   5.2911   5.2911
     5.5180   5.5180   6.0748   6.1727   6.1728   6.2193   6.2965   6.2965
     6.4081   6.4492   6.4492   6.6826   6.6827   6.7331   6.7331

[...]

          k =-0.0859-0.0496 0.0000 ( 18396 PWs)   bands (ev):

[...]

     the Fermi energy is     2.2139 ev

!    total energy              =   -1838.89372563 Ry
     Harris-Foulkes estimate   =   -1838.89375325 Ry
     estimated scf accuracy    <       0.00000047 Ry

     The total energy is the sum of the following terms:

     one-electron contribution =  -12996.02808652 Ry
     hartree contribution      =    6493.08051588 Ry
     xc contribution           =    -548.07492577 Ry
     ewald contribution        =    5212.21802304 Ry
     electric field correction =       0.00000000 Ry
     smearing contrib. (-TS)   =      -0.08925226 Ry

     convergence has been achieved in  16 iterations

 BEEF-vdW xc energy contributions
           1 :   -483.213653341784
           2 :    447.173526572196
           3 :   -383.721884378808
           4 :    306.809065986521
           5 :   -230.864137227529
           6 :    166.520418665583
           7 :   -118.436479247551
           8 :    85.6556784844877
           9 :   -63.8292729891330
          10 :    47.9778389992133
          11 :   -34.5462247402018
          12 :    22.1272327366505
[...]
     Pseudo is Ultrasoft + core correction, Zval = 13.0
     Generated by new atomic code, or converted to UPF format
     Using radial grid of  921 points,  7 beta functions with:
                l(1) =   0
                l(2) =   0
                l(3) =   1
                l(4) =   1
                l(5) =   2
                l(6) =   2
                l(7) =   3
     Q(r) pseudized with  6 coefficients,  rinner =    1.300   1.300   1.300
                                                       1.300   1.300   1.300
                                                       1.300

     PseudoPot. # 2 for Ir read from file:
     /afs/slac.stanford.edu/u/if/mamunm/psp/gbrv1.5pbe/Ir.UPF
     MD5 check sum: 8836f839c3459d2b385c504ce6d91f2c
     Pseudo is Ultrasoft + core correction, Zval = 15.0
     Generated by new atomic code, or converted to UPF format
     Using radial grid of  983 points,  7 beta functions with:
                l(1) =   0
                l(2) =   0
                l(3) =   1
                l(4) =   1
                l(5) =   1
                l(6) =   2
                l(7) =   2
     Q(r) pseudized with  8 coefficients,  rinner =    1.400   1.400   1.400
                                                       1.400   1.400

     vdW kernel table read from file vdW_kernel_table
     MD5 check sum: 095c7af220d748ca6e76c0b4c6cfb241

     atomic species   valence    mass     pseudopotential
        Ta1           13.00   180.94788     Ta( 1.00)
        Ir1           15.00   192.21700     Ir( 1.00)

     No symmetry found

   Cartesian axes

     site n.     atom                  positions (alat units)
         1           Ta1 tau(   1) = (   0.0000000   0.0000000  10.0000000  )
         2           Ta1 tau(   2) = (  -1.4548919   2.5199467  10.0000000  )
         3           Ta1 tau(   3) = (   1.4548919   2.5199467  10.0000000  )
         4           Ir1 tau(   4) = (   2.9097838   0.0000000  10.0000000  )
         5           Ta1 tau(   5) = (   2.9097838   1.6799645  12.3758285  )
         6           Ta1 tau(   6) = (   1.4548919   4.1999112  12.3758285  )
         7           Ta1 tau(   7) = (  -1.4548919   4.1999112  12.3758285  )
         8           Ir1 tau(   8) = (   0.0000000   1.6799645  12.3758285  )
         9           Ta1 tau(   9) = (  -0.0000130   3.3275052  14.7574494  )
        10           Ta1 tau(  10) = (   1.4268106   0.8561902  14.7574423  )
        11           Ta1 tau(  11) = (   4.3927401   0.8561943  14.7574671  )
        12           Ir1 tau(  12) = (   2.9097660   3.3599223  14.6647060  )

     number of k points=    20  Fermi-Dirac smearing, width (Ry)=  0.0110
                       cart. coord. in units 2pi/alat
        k(    1) = (   0.0000000   0.0000000   0.0000000), wk =   0.0555556
        k(    2) = (   0.0000000   0.0330695   0.0000000), wk =   0.1111111
        k(    3) = (   0.0000000   0.0661390   0.0000000), wk =   0.1111111
        k(    4) = (   0.0000000  -0.0992084   0.0000000), wk =   0.0555556
        k(    5) = (   0.0286390   0.0165347   0.0000000), wk =   0.1111111
        k(    6) = (   0.0286390   0.0496042   0.0000000), wk =   0.1111111
        k(    7) = (   0.0286390   0.0826737   0.0000000), wk =   0.1111111
        k(    8) = (   0.0286390  -0.0826737   0.0000000), wk =   0.1111111
        k(    9) = (   0.0286390  -0.0496042   0.0000000), wk =   0.1111111
        k(   10) = (   0.0286390  -0.0165347   0.0000000), wk =   0.1111111
        k(   11) = (   0.0572780   0.0330695   0.0000000), wk =   0.1111111
        k(   12) = (   0.0572780   0.0661390   0.0000000), wk =   0.1111111
        k(   13) = (   0.0572780   0.0992084   0.0000000), wk =   0.1111111
        k(   14) = (   0.0572780  -0.0661390   0.0000000), wk =   0.1111111
        k(   15) = (   0.0572780  -0.0330695   0.0000000), wk =   0.1111111
        k(   16) = (   0.0572780   0.0000000   0.0000000), wk =   0.1111111
        k(   17) = (  -0.0859170  -0.0496042   0.0000000), wk =   0.0555556
        k(   18) = (  -0.0859170  -0.0165347   0.0000000), wk =   0.1111111
        k(   19) = (  -0.0859170   0.0165347   0.0000000), wk =   0.1111111
        k(   20) = (  -0.0859170  -0.1488127   0.0000000), wk =   0.0555556

     Largest allocated arrays     est. size (Mb)     dimensions
     Largest temporary arrays     est. size (Mb)     dimensions

     Initial potential from superposition of free atoms
     Check: negative starting charge=   -1.932581

     starting charge  160.48990, renormalised to  162.00000

[...]

     *
     * You are using vdW-DF for exchange-correlation in this calculation.
     * Please cite the following three references that made this development
     * possible:
     *
     *   M. Dion, H. Rydberg, E. Schroder, D. C. Langreth, and
     *   B. I. Lundqvist, Phys. Rev. Lett. 92, 246401 (2004).
     *
     *   T. Thonhauser, V. R. Cooper, S. Li, A. Puzder, P. Hyldgaard, and
     *   D. C. Langreth, Phys. Rev. B 76, 125112 (2007).
     *
     *   G. Roman-Perez and J. M. Soler, Phys. Rev. Lett. 103, 096102 (2009).
     *
     *
     * If you are using vdW-DF2, please also cite:
     *
     *   K. Lee, E. D. Murray, L. Kong, B. I. Lundqvist, and
     *   D. C. Langreth, Phys. Rev. B 82, 081101(R) (2010).
     *
     *
     * If you are calculating the stress with vdW-DF, please also cite:
     *
     *   R. Sabatini, E. Kucukbenli, B. Kolb, T. Thonhauser, and
     *   S. de Gironcoli, J. Phys.: Condens. Matter 24, 424209 (2012).
     *

     Carrying out vdW-DF run using the following parameters:

     Nqs =      20    Nr_points =    1024   r_max =   100.000
     q_mesh =
               0.00001000     0.04494208     0.09755937     0.15916263
               0.23128650     0.31572767     0.41458969     0.53033537
               0.66584808     0.82450364     1.01025438     1.22772762
               1.48234092     1.78043706     2.12944203     2.53805004
               3.01644009     3.57652955     4.23227104     5.00000000

     Gradients computed in reciprocal space

[...]

     Starting wfc are  153 randomized atomic wfcs

     Self-consistent Calculation

[...]

     total energy              =   -1838.90772855 Ry
     Harris-Foulkes estimate   =   -1838.90772816 Ry
     estimated scf accuracy    <       0.00000160 Ry

     iteration # 17     ecut=    36.75 Ry     beta=0.10
     Davidson diagonalization with overlap
     ethr =  9.89E-10,  avg # of iterations =  3.3

[...]

     negative rho (up, down):  1.844E+00 0.000E+00

     Adding external electric field

     Computed dipole along edir(3) :
        Dipole                0.0257 Ry au,          0.0652 Debye
        Dipole field          0.0001 Ry au

        Potential amp.       -0.0060 Ry
        Total length         45.6045 bohr

     End of self-consistent calculation

[...]

          k = 0.0573 0.0000 0.0000 ( 18429 PWs)   bands (ev):

[...]

          k =-0.0859-0.1488 0.0000 ( 18396 PWs)   bands (ev):

   -66.1290 -66.1256 -66.1072 -66.1044 -66.0872 -66.0860 -65.9600 -65.9421
   -65.9233 -46.9352 -46.9037 -46.9027 -46.5944 -46.5563 -46.5553 -46.5407
   -46.5147 -46.5137 -32.7837 -32.7669 -32.7229 -32.6666 -32.6474 -32.6277
   -32.6011 -32.5810 -32.5584 -32.5016 -32.4722 -32.4549 -32.4307 -32.3926
   -32.3684 -32.3623 -32.3442 -32.3144 -32.2726 -32.2467 -32.2403 -32.1004
   -32.0947 -32.0707 -32.0293 -32.0092 -31.9350  -3.8901  -3.7594  -2.4644
    -2.3141  -1.8839  -1.8267  -1.6839  -1.5830  -1.5213  -1.2033  -1.1824
    -1.0485  -0.8316  -0.6951  -0.6458  -0.5116  -0.3436  -0.2403  -0.1970
    -0.0086   0.0903   0.1589   0.2471   0.4888   0.5437   0.8780   1.2410
     1.3089   1.3556   1.3713   1.4462   1.4570   1.5055   1.6602   1.7018
     1.9431   1.9505   2.1469   2.4513   2.6352   2.7206   3.0476   3.0760
     3.1386   3.5349   3.6273   3.6411   3.6984   3.9840   4.3617   4.4153
     4.4620   4.6438   4.7233   5.0964   5.2220   5.3045   5.3283   5.4464
     5.8028   5.9362   6.0936   6.3979   6.7112   6.7578   7.0486

     the Fermi energy is     2.2392 ev

!    total energy              =   -1838.90771340 Ry
     Harris-Foulkes estimate   =   -1838.90772810 Ry
     estimated scf accuracy    <       0.00000076 Ry

     The total energy is the sum of the following terms:

     one-electron contribution =  -13033.48240023 Ry
     hartree contribution      =    6511.92778907 Ry
     xc contribution           =    -548.11937548 Ry
     ewald contribution        =    5230.85473497 Ry
     electric field correction =       0.00000169 Ry
     smearing contrib. (-TS)   =      -0.08846341 Ry

     convergence has been achieved in  17 iterations

 BEEF-vdW xc energy contributions
           1 :   -483.553494852076
           2 :    447.528458162065
           3 :   -384.096474712094
           4 :    307.193489457809
           5 :   -231.238031951436
           6 :    166.862338209133
           7 :   -118.734894588999
           8 :    85.9160685428500
           9 :   -64.0728392040451
          10 :    48.2314707220035
          11 :   -34.8290851216797
          12 :    22.4417098581225
          13 :   -11.3199046839546
          14 :    2.34810889860921
          15 :    3.88960814175221
          16 :   -7.52649636854028
          17 :    9.27802283794028
          18 :   -10.0065160729898
          19 :    10.3177505146443
          20 :   -10.4159122872267
          21 :    10.2402418941919
          22 :   -9.73086779791720
          23 :    9.01095718577096
          24 :   -8.36256057069272
          25 :    8.03743548546743
          26 :   -8.06478833148276
          27 :    8.20963474604810
          28 :   -8.11981981014435
          29 :    7.56152988484018
          30 :   -6.58387851803184
          31 :   -42.5947076773937
          32 :   -31.7066324989067

     Forces acting on atoms (Ry/au):

     negative rho (up, down):  1.844E+00 0.000E+00
     atom    1 type  1   force =    -0.00000154    0.01833022   -0.00307345
     atom    2 type  1   force =     0.01587484   -0.00916579   -0.00307484
     atom    3 type  1   force =    -0.01587467   -0.00916402   -0.00307336
     atom    4 type  2   force =    -0.00000029    0.00000006    0.02454488
     atom    5 type  1   force =     0.00000160   -0.00617474   -0.00322244
     atom    6 type  1   force =    -0.00534637    0.00308886   -0.00322020
     atom    7 type  1   force =     0.00534719    0.00308736   -0.00322392
     atom    8 type  2   force =    -0.00000129   -0.00000010   -0.00241280
     atom    9 type  1   force =     0.00000246    0.00014017   -0.00078971
     atom   10 type  1   force =     0.00011788   -0.00006936   -0.00078716
     atom   11 type  1   force =    -0.00012037   -0.00007372   -0.00079225
     atom   12 type  2   force =     0.00000054    0.00000105   -0.00087476

     Total force =     0.042342     Total SCF correction =     0.005429
     SCF correction compared to forces is large: reduce conv_thr to get better values

     entering subroutine stress ...

     negative rho (up, down):  1.844E+00 0.000E+00
          total   stress  (Ry/bohr**3)                   (kbar)     P=  -34.84
  -0.00032210   0.00000000  -0.00000000        -47.38      0.00     -0.00
   0.00000000  -0.00032210  -0.00000000          0.00    -47.38     -0.00
  -0.00000000  -0.00000000  -0.00006621         -0.00     -0.00     -9.74

 !ASE

     Writing output data file calc.save

     General routines

     Parallel routines

   This run was terminated on:  17:20:11   1Jan2019

   JOB DONE.
Job  /afs/slac/g/suncat/bin/suncat-tsmpirun -x LD_LIBRARY_PATH -wdir /scratch/qe649105_dUp4q pw.x -in pw.inp

TID   HOST_NAME   COMMAND_LINE            STATUS            TERMINATION_TIME
00000 suncat0010 pw.x -in pw.inp   Done                     01/01/2019 17:20:11
00001 suncat0010 pw.x -in pw.inp   Done                     01/01/2019 17:20:11
00002 suncat0010 pw.x -in pw.inp   Done                     01/01/2019 17:20:11
00003 suncat0010 pw.x -in pw.inp   Done                     01/01/2019 17:20:11
00004 suncat0010 pw.x -in pw.inp   Done                     01/01/2019 17:20:11
00005 suncat0010 pw.x -in pw.inp   Done                     01/01/2019 17:20:11
00006 suncat0010 pw.x -in pw.inp   Done                     01/01/2019 17:20:11
00007 suncat0010 pw.x -in pw.inp   Done                     01/01/2019 17:20:11
00008 suncat0191 pw.x -in pw.inp   Done                     01/01/2019 17:20:11
00009 suncat0191 pw.x -in pw.inp   Done                     01/01/2019 17:20:11
00010 suncat0191 pw.x -in pw.inp   Done                     01/01/2019 17:20:11
00011 suncat0191 pw.x -in pw.inp   Done                     01/01/2019 17:20:11
00012 suncat0191 pw.x -in pw.inp   Done                     01/01/2019 17:20:11
00013 suncat0191 pw.x -in pw.inp   Done                     01/01/2019 17:20:11
00014 suncat0191 pw.x -in pw.inp   Done                     01/01/2019 17:20:11
00015 suncat0191 pw.x -in pw.inp   Done                     01/01/2019 17:20:11
00016 suncat0007 pw.x -in pw.inp   Done                     01/01/2019 17:20:11
00017 suncat0007 pw.x -in pw.inp   Done                     01/01/2019 17:20:11
00018 suncat0007 pw.x -in pw.inp   Done                     01/01/2019 17:20:11
00019 suncat0007 pw.x -in pw.inp   Done                     01/01/2019 17:20:11
00020 suncat0007 pw.x -in pw.inp   Done                     01/01/2019 17:20:11
00021 suncat0007 pw.x -in pw.inp   Done                     01/01/2019 17:20:11
00022 suncat0007 pw.x -in pw.inp   Done                     01/01/2019 17:20:11
00023 suncat0007 pw.x -in pw.inp   Done                     01/01/2019 17:20:11
00024 suncat0180 pw.x -in pw.inp   Done                     01/01/2019 17:20:11
00025 suncat0180 pw.x -in pw.inp   Done                     01/01/2019 17:20:11
00026 suncat0180 pw.x -in pw.inp   Done                     01/01/2019 17:20:11
00027 suncat0180 pw.x -in pw.inp   Done                     01/01/2019 17:20:11
00028 suncat0180 pw.x -in pw.inp   Done                     01/01/2019 17:20:11
00029 suncat0180 pw.x -in pw.inp   Done                     01/01/2019 17:20:11
00030 suncat0180 pw.x -in pw.inp   Done                     01/01/2019 17:20:11
00031 suncat0180 pw.x -in pw.inp   Done                     01/01/2019 17:20:11
00032 suncat0167 pw.x -in pw.inp   Done                     01/01/2019 17:20:11
00033 suncat0167 pw.x -in pw.inp   Done                     01/01/2019 17:20:11
00034 suncat0167 pw.x -in pw.inp   Done                     01/01/2019 17:20:11
00035 suncat0167 pw.x -in pw.inp   Done                     01/01/2019 17:20:11
00036 suncat0167 pw.x -in pw.inp   Done                     01/01/2019 17:20:11
00037 suncat0167 pw.x -in pw.inp   Done                     01/01/2019 17:20:11
00038 suncat0167 pw.x -in pw.inp   Done                     01/01/2019 17:20:11
00039 suncat0167 pw.x -in pw.inp   Done                     01/01/2019 17:20:11
00040 suncat0161 pw.x -in pw.inp   Done                     01/01/2019 17:20:11
00041 suncat0161 pw.x -in pw.inp   Done                     01/01/2019 17:20:11
00042 suncat0161 pw.x -in pw.inp   Done                     01/01/2019 17:20:11
00043 suncat0161 pw.x -in pw.inp   Done                     01/01/2019 17:20:11
00044 suncat0161 pw.x -in pw.inp   Done                     01/01/2019 17:20:11
00045 suncat0161 pw.x -in pw.inp   Done                     01/01/2019 17:20:11
00046 suncat0161 pw.x -in pw.inp   Done                     01/01/2019 17:20:11
00047 suncat0161 pw.x -in pw.inp   Done                     01/01/2019 17:20:11
00048 suncat0137 pw.x -in pw.inp   Done                     01/01/2019 17:20:11
00049 suncat0137 pw.x -in pw.inp   Done                     01/01/2019 17:20:11
00050 suncat0137 pw.x -in pw.inp   Done                     01/01/2019 17:20:11
00051 suncat0137 pw.x -in pw.inp   Done                     01/01/2019 17:20:11
00052 suncat0137 pw.x -in pw.inp   Done                     01/01/2019 17:20:11
00053 suncat0137 pw.x -in pw.inp   Done                     01/01/2019 17:20:11
00054 suncat0137 pw.x -in pw.inp   Done                     01/01/2019 17:20:11
00055 suncat0137 pw.x -in pw.inp   Done                     01/01/2019 17:20:11
00056 suncat0100 pw.x -in pw.inp   Done                     01/01/2019 17:20:11
00057 suncat0100 pw.x -in pw.inp   Done                     01/01/2019 17:20:11
00058 suncat0100 pw.x -in pw.inp   Done                     01/01/2019 17:20:11
00059 suncat0100 pw.x -in pw.inp   Done                     01/01/2019 17:20:11
00060 suncat0100 pw.x -in pw.inp   Done                     01/01/2019 17:20:11
00061 suncat0100 pw.x -in pw.inp   Done                     01/01/2019 17:20:11
00062 suncat0100 pw.x -in pw.inp   Done                     01/01/2019 17:20:11
00063 suncat0100 pw.x -in pw.inp   Done                     01/01/2019 17:20:11