     Program PWSCF v.5.1rc2 (svn rev. 11289) starts on  2Jan2019 at  0:26:29

     Current dimensions of program PWSCF are:
     Max number of different atomic species (ntypx) = 10
     Max number of k-points (npk) =  40000
     Max angular momentum in pseudopotentials (lmaxx) =  3
     Presently stress not available with electric field

     IMPORTANT: XC functional enforced from input :
     Exchange-correlation      = BEEF-VDW ( 1  4 27 13 2)
     Any further DFT definition will be discarded
     Please, verify this is what you really want

     Subspace diagonalization in iterative solution of the eigenvalue problem:
     a serial algorithm will be used

     bravais-lattice index     =            0
     lattice parameter (alat)  =       1.8897  a.u.
     unit-cell volume          =    6253.3576 (a.u.)^3
     number of atoms/cell      =           12
     number of atomic types    =            2
     number of electrons       =       159.00
     number of Kohn-Sham states=          109
     kinetic-energy cutoff     =      36.7493  Ry
     charge density cutoff     =     367.4932  Ry
     convergence threshold     =      1.0E-06
     mixing beta               =       0.1000
     number of iterations used =           10  plain     mixing
     Exchange-correlation      = BEEF-VDW ( 1  4 27 13 2)
     nstep                     =           50

     celldm(1)=   1.889726  celldm(2)=   0.000000  celldm(3)=   0.000000
     celldm(4)=   0.000000  celldm(5)=   0.000000  celldm(6)=   0.000000

     crystal axes: (cart. coord. in units of alat)
               a(1) = (   6.502132   0.000000   0.000000 )
               a(2) = (  -3.251066   5.631012   0.000000 )
               a(3) = (   0.000000   0.000000  25.308969 )

     reciprocal axes: (cart. coord. in units 2 pi/alat)
               b(1) = (  0.153796  0.088794  0.000000 )
               b(2) = (  0.000000  0.177588  0.000000 )
               b(3) = (  0.000000  0.000000  0.039512 )

     PseudoPot. # 1 for Tl read from file:
     /afs/slac.stanford.edu/u/if/mamunm/psp/gbrv1.5pbe/Tl.UPF
     MD5 check sum: b76cf1f7e72655a2b2c53cf6385d7059
     Pseudo is Ultrasoft + core correction, Zval = 13.0
     Generated by new atomic code, or converted to UPF format
     Using radial grid of  899 points,  6 beta functions with:
                l(1) =   0
                l(2) =   0
                l(3) =   1
                l(4) =   1
                l(5) =   2
                l(6) =   2
     Q(r) pseudized with  6 coefficients,  rinner =    1.100   1.100   1.100
                                                       1.100   1.100

     PseudoPot. # 2 for Cr read from file:
     /afs/slac.stanford.edu/u/if/mamunm/psp/gbrv1.5pbe/Cr.UPF
     MD5 check sum: 0d52af634a40206e4dee301ad30da4bf
     Pseudo is Ultrasoft + core correction, Zval = 14.0
     Generated by new atomic code, or converted to UPF format
     Using radial grid of  857 points,  6 beta functions with:
                l(1) =   0
                l(2) =   0
                l(3) =   1
                l(4) =   1
                l(5) =   2
                l(6) =   2
     Q(r) pseudized with  8 coefficients,  rinner =    0.950   0.950   0.950
                                                       0.950   0.950

     vdW kernel table read from file vdW_kernel_table
     MD5 check sum: 095c7af220d748ca6e76c0b4c6cfb241

     atomic species   valence    mass     pseudopotential
        Tl1           13.00   204.38000     Tl( 1.00)
        Cr1           14.00    51.99610     Cr( 1.00)

     No symmetry found

   Cartesian axes

     site n.     atom                  positions (alat units)
         1           Tl1 tau(   1) = (   0.0000000   0.0000000  10.0000000  )
         2           Tl1 tau(   2) = (  -1.6255330   2.8155058  10.0000000  )
         3           Tl1 tau(   3) = (   1.6255330   2.8155058  10.0000000  )
         4           Cr1 tau(   4) = (   3.2510661   0.0000000  10.0000000  )
         5           Tl1 tau(   5) = (   3.2510661   1.8770039  12.6544843  )
         6           Tl1 tau(   6) = (   1.6255330   4.6925097  12.6544843  )
         7           Tl1 tau(   7) = (  -1.6255330   4.6925097  12.6544843  )
         8           Cr1 tau(   8) = (   0.0000000   1.8770039  12.6544843  )
         9           Tl1 tau(   9) = (  -0.0000000   3.7540077  15.3089687  )
        10           Tl1 tau(  10) = (   1.6255330   0.9385019  15.3089687  )
        11           Tl1 tau(  11) = (   4.8765991   0.9385019  15.3089687  )
        12           Cr1 tau(  12) = (   3.2510661   3.7540077  15.3089687  )

     number of k points=    20  Fermi-Dirac smearing, width (Ry)=  0.0110
                       cart. coord. in units 2pi/alat
        k(    1) = (   0.0000000   0.0000000   0.0000000), wk =   0.0555556
        k(    2) = (   0.0000000   0.0295980   0.0000000), wk =   0.1111111
        k(    3) = (   0.0000000   0.0591960   0.0000000), wk =   0.1111111
        k(    4) = (   0.0000000  -0.0887940   0.0000000), wk =   0.0555556
        k(    5) = (   0.0256326   0.0147990   0.0000000), wk =   0.1111111
        k(    6) = (   0.0256326   0.0443970   0.0000000), wk =   0.1111111
        k(    7) = (   0.0256326   0.0739950   0.0000000), wk =   0.1111111
        k(    8) = (   0.0256326  -0.0739950   0.0000000), wk =   0.1111111
        k(    9) = (   0.0256326  -0.0443970   0.0000000), wk =   0.1111111
        k(   10) = (   0.0256326  -0.0147990   0.0000000), wk =   0.1111111
        k(   11) = (   0.0512652   0.0295980   0.0000000), wk =   0.1111111
        k(   12) = (   0.0512652   0.0591960   0.0000000), wk =   0.1111111
        k(   13) = (   0.0512652   0.0887940   0.0000000), wk =   0.1111111
        k(   14) = (   0.0512652  -0.0591960   0.0000000), wk =   0.1111111
        k(   15) = (   0.0512652  -0.0295980   0.0000000), wk =   0.1111111
        k(   16) = (   0.0512652   0.0000000   0.0000000), wk =   0.1111111
        k(   17) = (  -0.0768979  -0.0443970   0.0000000), wk =   0.0555556
        k(   18) = (  -0.0768979  -0.0147990   0.0000000), wk =   0.1111111
        k(   19) = (  -0.0768979   0.0147990   0.0000000), wk =   0.1111111
        k(   20) = (  -0.0768979  -0.1331910   0.0000000), wk =   0.0555556

     Largest allocated arrays     est. size (Mb)     dimensions
     Largest temporary arrays     est. size (Mb)     dimensions

     Check: negative/imaginary core charge=   -0.000002    0.000000

     Initial potential from superposition of free atoms
     Check: negative starting charge=   -0.458970

     starting charge  155.95616, renormalised to  159.00000

     negative rho (up, down):  4.679E-01 0.000E+00

     *
     * You are using vdW-DF for exchange-correlation in this calculation.
     * Please cite the following three references that made this development
     * possible:
     *
     *   M. Dion, H. Rydberg, E. Schroder, D. C. Langreth, and
     *   B. I. Lundqvist, Phys. Rev. Lett. 92, 246401 (2004).
     *
     *   T. Thonhauser, V. R. Cooper, S. Li, A. Puzder, P. Hyldgaard, and
     *   D. C. Langreth, Phys. Rev. B 76, 125112 (2007).
     *
     *   G. Roman-Perez and J. M. Soler, Phys. Rev. Lett. 103, 096102 (2009).
     *
     *
     * If you are using vdW-DF2, please also cite:
     *
     *   K. Lee, E. D. Murray, L. Kong, B. I. Lundqvist, and
     *   D. C. Langreth, Phys. Rev. B 82, 081101(R) (2010).
     *
     *
     * If you are calculating the stress with vdW-DF, please also cite:
     *
     *   R. Sabatini, E. Kucukbenli, B. Kolb, T. Thonhauser, and
     *   S. de Gironcoli, J. Phys.: Condens. Matter 24, 424209 (2012).
     *

     Carrying out vdW-DF run using the following parameters:

     Nqs =      20    Nr_points =    1024   r_max =   100.000
     q_mesh =
               0.00001000     0.04494208     0.09755937     0.15916263
               0.23128650     0.31572767     0.41458969     0.53033537
               0.66584808     0.82450364     1.01025438     1.22772762
               1.48234092     1.78043706     2.12944203     2.53805004
               3.01644009     3.57652955     4.23227104     5.00000000

     Gradients computed in reciprocal space

     Adding external electric field

     Computed dipole along edir(3) :
        Dipole                0.0000 Ry au,          0.0000 Debye
        Dipole field          0.0000 Ry au

        Potential amp.       -0.0000 Ry
        Total length         46.6313 bohr

     Starting wfc are  111 randomized atomic wfcs

     Self-consistent Calculation

     iteration #  1     ecut=    36.75 Ry     beta=0.10
     Davidson diagonalization with overlap
     ethr =  1.00E-02,  avg # of iterations =  7.2

[...]

     total energy              =   -1845.43733021 Ry
     Harris-Foulkes estimate   =   -1851.62257731 Ry
     estimated scf accuracy    <      34.07095058 Ry

[...]

     End of self-consistent calculation

          k = 0.0000 0.0000 0.0000 ( 23523 PWs)   bands (ev):

   -70.7568 -70.7567 -70.6971 -42.0974 -42.0974 -42.0973 -42.0973 -42.0860
   -42.0860 -42.0598 -42.0598 -41.9699 -11.5147 -11.4184 -11.4009 -11.4008
   -11.3773 -11.3568 -11.2438 -11.2438 -11.1980 -11.1980 -11.1796 -11.1207
   -11.1206 -11.0889 -11.0606 -11.0606 -10.9965 -10.9379 -10.8967 -10.8967
   -10.8682 -10.8138 -10.7821 -10.7819 -10.7698 -10.7696 -10.7097 -10.7097
   -10.6738 -10.6589 -10.6588 -10.6563 -10.6563 -10.6515 -10.6515 -10.5895
   -10.5895 -10.4912 -10.4912 -10.4521 -10.4210 -10.4209 -10.4125 -10.3243
   -10.3199  -8.8074  -7.4348  -5.5369  -4.4179  -4.4177  -3.8766  -3.8766
    -2.9128  -2.9127  -2.0375  -1.3856  -1.0686  -0.9364  -0.9364  -0.5848
     0.3434   0.3434   0.4100   0.4100   0.5354   0.7484   0.7484   0.7500
     0.7500   0.9770   1.0431   1.0432   1.0458   1.1326   1.1326   1.1500
     1.1501   1.5055   1.5055   1.5268   2.4836   2.7947   3.3086   4.0875
     4.3570   4.6835   4.6835   4.7014   4.7014   5.1214   5.2607   5.5178
     5.8920   6.4545   6.8958   6.8959   6.9240

[...]

          k =-0.0769-0.0444 0.0000 ( 23492 PWs)   bands (ev):

[...]

     the Fermi energy is     0.8243 ev

!    total energy              =   -1849.24851241 Ry
     Harris-Foulkes estimate   =   -1849.24852612 Ry
     estimated scf accuracy    <       0.00000092 Ry

     The total energy is the sum of the following terms:

     one-electron contribution =   -9864.47915340 Ry
     hartree contribution      =    4990.91114068 Ry
     xc contribution           =    -645.75198709 Ry
     ewald contribution        =    3670.20573811 Ry
     electric field correction =       0.00000000 Ry
     smearing contrib. (-TS)   =      -0.13425072 Ry

     convergence has been achieved in  20 iterations

 BEEF-vdW xc energy contributions
           1 :   -573.500589119565
           2 :    530.592102489449
           3 :   -455.810478996959
           4 :    366.561078735344
           5 :   -280.047694299713
           6 :    207.849664476881
           7 :   -153.771684221498
           8 :    115.172819781672
           9 :   -86.4373800756529
          10 :    62.5311706402829
          11 :   -41.0540428342083
          12 :    22.2801023591556
          13 :   -7.79548752808387
          14 :   -1.16615477309790
[...]

     PseudoPot. # 1 for Tl read from file:
     /afs/slac.stanford.edu/u/if/mamunm/psp/gbrv1.5pbe/Tl.UPF
     MD5 check sum: b76cf1f7e72655a2b2c53cf6385d7059
     Pseudo is Ultrasoft + core correction, Zval = 13.0
     Generated by new atomic code, or converted to UPF format
     Using radial grid of  899 points,  6 beta functions with:
                l(1) =   0
                l(2) =   0
                l(3) =   1
                l(4) =   1
                l(5) =   2
                l(6) =   2
     Q(r) pseudized with  6 coefficients,  rinner =    1.100   1.100   1.100
                                                       1.100   1.100

     PseudoPot. # 2 for Cr read from file:
     /afs/slac.stanford.edu/u/if/mamunm/psp/gbrv1.5pbe/Cr.UPF
     MD5 check sum: 0d52af634a40206e4dee301ad30da4bf
     Pseudo is Ultrasoft + core correction, Zval = 14.0
     Generated by new atomic code, or converted to UPF format
     Using radial grid of  857 points,  6 beta functions with:
                l(1) =   0
                l(2) =   0
                l(3) =   1
                l(4) =   1
                l(5) =   2
                l(6) =   2
     Q(r) pseudized with  8 coefficients,  rinner =    0.950   0.950   0.950
                                                       0.950   0.950

     vdW kernel table read from file vdW_kernel_table
     MD5 check sum: 095c7af220d748ca6e76c0b4c6cfb241

     atomic species   valence    mass     pseudopotential
        Tl1           13.00   204.38000     Tl( 1.00)
        Cr1           14.00    51.99610     Cr( 1.00)

     No symmetry found

   Cartesian axes

     site n.     atom                  positions (alat units)
         1           Tl1 tau(   1) = (   0.0000000   0.0000000  10.0000000  )
         2           Tl1 tau(   2) = (  -1.6255330   2.8155058  10.0000000  )
         3           Tl1 tau(   3) = (   1.6255330   2.8155058  10.0000000  )
         4           Cr1 tau(   4) = (   3.2510661   0.0000000  10.0000000  )
         5           Tl1 tau(   5) = (   3.2510661   1.8770039  12.6544843  )
         6           Tl1 tau(   6) = (   1.6255330   4.6925097  12.6544843  )
         7           Tl1 tau(   7) = (  -1.6255330   4.6925097  12.6544843  )
         8           Cr1 tau(   8) = (   0.0000000   1.8770039  12.6544843  )
         9           Tl1 tau(   9) = (   0.0000328   3.7314436  15.5699075  )
        10           Tl1 tau(  10) = (   1.6058733   0.9498687  15.5696828  )
        11           Tl1 tau(  11) = (   4.8962224   0.9499243  15.5697314  )
        12           Cr1 tau(  12) = (   3.2510640   3.7540006  14.7470591  )

     number of k points=    20  Fermi-Dirac smearing, width (Ry)=  0.0110
                       cart. coord. in units 2pi/alat
        k(    1) = (   0.0000000   0.0000000   0.0000000), wk =   0.0555556
        k(    2) = (   0.0000000   0.0295980   0.0000000), wk =   0.1111111
        k(    3) = (   0.0000000   0.0591960   0.0000000), wk =   0.1111111
        k(    4) = (   0.0000000  -0.0887940   0.0000000), wk =   0.0555556
        k(    5) = (   0.0256326   0.0147990   0.0000000), wk =   0.1111111
        k(    6) = (   0.0256326   0.0443970   0.0000000), wk =   0.1111111
        k(    7) = (   0.0256326   0.0739950   0.0000000), wk =   0.1111111
        k(    8) = (   0.0256326  -0.0739950   0.0000000), wk =   0.1111111
        k(    9) = (   0.0256326  -0.0443970   0.0000000), wk =   0.1111111
        k(   10) = (   0.0256326  -0.0147990   0.0000000), wk =   0.1111111
        k(   11) = (   0.0512652   0.0295980   0.0000000), wk =   0.1111111
        k(   12) = (   0.0512652   0.0591960   0.0000000), wk =   0.1111111
        k(   13) = (   0.0512652   0.0887940   0.0000000), wk =   0.1111111
        k(   14) = (   0.0512652  -0.0591960   0.0000000), wk =   0.1111111
        k(   15) = (   0.0512652  -0.0295980   0.0000000), wk =   0.1111111
        k(   16) = (   0.0512652   0.0000000   0.0000000), wk =   0.1111111
        k(   17) = (  -0.0768979  -0.0443970   0.0000000), wk =   0.0555556
        k(   18) = (  -0.0768979  -0.0147990   0.0000000), wk =   0.1111111
        k(   19) = (  -0.0768979   0.0147990   0.0000000), wk =   0.1111111
        k(   20) = (  -0.0768979  -0.1331910   0.0000000), wk =   0.0555556

     Largest allocated arrays     est. size (Mb)     dimensions
     Largest temporary arrays     est. size (Mb)     dimensions

     Check: negative/imaginary core charge=   -0.000002    0.000000

     Initial potential from superposition of free atoms
     Check: negative starting charge=   -0.460917

     starting charge  155.95616, renormalised to  159.00000

[...]

     *
     * You are using vdW-DF for exchange-correlation in this calculation.
     * Please cite the following three references that made this development
     * possible:
     *
     *   M. Dion, H. Rydberg, E. Schroder, D. C. Langreth, and
     *   B. I. Lundqvist, Phys. Rev. Lett. 92, 246401 (2004).
     *
     *   T. Thonhauser, V. R. Cooper, S. Li, A. Puzder, P. Hyldgaard, and
     *   D. C. Langreth, Phys. Rev. B 76, 125112 (2007).
     *
     *   G. Roman-Perez and J. M. Soler, Phys. Rev. Lett. 103, 096102 (2009).
     *
     *
     * If you are using vdW-DF2, please also cite:
     *
     *   K. Lee, E. D. Murray, L. Kong, B. I. Lundqvist, and
     *   D. C. Langreth, Phys. Rev. B 82, 081101(R) (2010).
     *
     *
     * If you are calculating the stress with vdW-DF, please also cite:
     *
     *   R. Sabatini, E. Kucukbenli, B. Kolb, T. Thonhauser, and
     *   S. de Gironcoli, J. Phys.: Condens. Matter 24, 424209 (2012).
     *

     Carrying out vdW-DF run using the following parameters:

     Nqs =      20    Nr_points =    1024   r_max =   100.000
     q_mesh =
               0.00001000     0.04494208     0.09755937     0.15916263
               0.23128650     0.31572767     0.41458969     0.53033537
               0.66584808     0.82450364     1.01025438     1.22772762
               1.48234092     1.78043706     2.12944203     2.53805004
               3.01644009     3.57652955     4.23227104     5.00000000

     Gradients computed in reciprocal space

[...]

     Starting wfc are  111 randomized atomic wfcs

     Self-consistent Calculation

[...]

     total energy              =   -1849.29342268 Ry
     Harris-Foulkes estimate   =   -1849.29342210 Ry
     estimated scf accuracy    <       0.00000154 Ry

     iteration # 24     ecut=    36.75 Ry     beta=0.10
     Davidson diagonalization with overlap
     ethr =  9.70E-10,  avg # of iterations =  2.1

[...]

     negative rho (up, down):  4.849E-01 0.000E+00

     Adding external electric field

     Computed dipole along edir(3) :
        Dipole                0.0626 Ry au,          0.1590 Debye
        Dipole field          0.0001 Ry au

        Potential amp.       -0.0117 Ry
        Total length         46.6313 bohr

     End of self-consistent calculation

[...]

          k = 0.0513 0.0000 0.0000 ( 23510 PWs)   bands (ev):

[...]

          k =-0.0769-0.1332 0.0000 ( 23492 PWs)   bands (ev):

   -70.7227 -70.6867 -70.6322 -42.0611 -42.0569 -42.0569 -42.0389 -42.0389
   -42.0036 -41.9928 -41.9927 -41.9129 -11.3118 -11.2106 -11.2046 -11.1792
   -11.1335 -11.1044 -11.0551 -11.0282 -11.0168 -10.9994 -10.9811 -10.9696
   -10.9410 -10.9131 -10.9046 -10.8782 -10.8718 -10.8346 -10.8172 -10.8096
   -10.8091 -10.8070 -10.7706 -10.7669 -10.7575 -10.7495 -10.7347 -10.7238
   -10.7224 -10.7162 -10.7098 -10.6996 -10.6834 -10.6833 -10.6625 -10.6533
   -10.6241 -10.6182 -10.6118 -10.5986 -10.5775 -10.5317 -10.4691 -10.4126
   -10.3611  -7.5988  -7.1690  -6.1876  -5.8556  -5.0779  -4.9340  -4.5830
    -3.8279  -2.7303  -1.9856  -1.3083  -0.5313   0.0145   0.0692   0.1663
     0.2298   0.2722   0.5063   0.6007   0.7580   0.7994   0.9706   0.9864
     1.0481   1.0621   1.1410   1.2732   1.4191   1.5727   2.0365   2.3566
     2.3769   2.5089   3.0806   3.1069   3.1915   3.4409   3.6820   3.8436
     4.3360   4.6276   4.7517   4.8905   4.9137   5.0873   5.1454   5.4361
     5.4963   5.6876   5.8774   6.0070   6.0190

     the Fermi energy is     0.8796 ev

!    total energy              =   -1849.29342374 Ry
     Harris-Foulkes estimate   =   -1849.29342279 Ry
     estimated scf accuracy    <       0.00000095 Ry

     The total energy is the sum of the following terms:

     one-electron contribution =   -9783.23355298 Ry
     hartree contribution      =    4950.53762023 Ry
     xc contribution           =    -645.72863341 Ry
     ewald contribution        =    3629.25791384 Ry
     electric field correction =       0.00000787 Ry
     smearing contrib. (-TS)   =      -0.12677928 Ry

     convergence has been achieved in  24 iterations

 BEEF-vdW xc energy contributions
           1 :   -573.625527239841
           2 :    530.677759857585
           3 :   -455.857191247507
           4 :    366.607936065462
           5 :   -280.138389457410
           6 :    207.995693311250
           7 :   -153.941322772137
           8 :    115.310568032763
           9 :   -86.4999644782963
          10 :    62.5189964224910
          11 :   -41.0202850600887
          12 :    22.3069394416243
          13 :   -7.94720885874210
          14 :  -0.887648452465328
          15 :    4.41694273848077
          16 :   -4.25642525670651
          17 :    2.67486473968972
          18 :   -1.63530295101350
          19 :    2.09720789439757
          20 :   -3.85112994331735
          21 :    5.88454107605014
          22 :   -7.06714927271935
          23 :    6.80605665436485
          24 :   -5.35043370307733
          25 :    3.59730170247178
          26 :   -2.52677130102450
          27 :    2.60076213083551
          28 :   -3.48952321362094
          29 :    4.29165303648551
          30 :   -4.11697724952080
          31 :   -47.0840098262812
          32 :   -34.3110383608962

     Forces acting on atoms (Ry/au):

     negative rho (up, down):  4.849E-01 0.000E+00
     atom    1 type  1   force =     0.00000260    0.01412734   -0.02096763
     atom    2 type  1   force =     0.01226281   -0.00704927   -0.02095385
     atom    3 type  1   force =    -0.01226537   -0.00705146   -0.02095736
     atom    4 type  2   force =     0.00000092    0.00000618    0.05392741
     atom    5 type  1   force =    -0.00000226   -0.01748452    0.00378587
     atom    6 type  1   force =    -0.01516822    0.00876103    0.00378138
     atom    7 type  1   force =     0.01517010    0.00875639    0.00377342
     atom    8 type  2   force =    -0.00000064    0.00000900    0.00125525
     atom    9 type  1   force =     0.00000167    0.00043292   -0.00151627
     atom   10 type  1   force =     0.00041690   -0.00025818   -0.00146196
     atom   11 type  1   force =    -0.00041852   -0.00026013   -0.00146204
     atom   12 type  2   force =     0.00000000    0.00001070    0.00079577

     Total force =     0.076142     Total SCF correction =     0.002507

     entering subroutine stress ...

     negative rho (up, down):  4.849E-01 0.000E+00
          total   stress  (Ry/bohr**3)                   (kbar)     P=   -9.90
  -0.00008548   0.00000000  -0.00000000        -12.57      0.00     -0.00
   0.00000000  -0.00008546   0.00000000          0.00    -12.57      0.00
  -0.00000000   0.00000000  -0.00003096         -0.00      0.00     -4.55

 !ASE

     Writing output data file calc.save

     General routines

     Parallel routines

   This run was terminated on:   1:56:18   2Jan2019

   JOB DONE.
Job  /afs/slac/g/suncat/bin/suncat-tsmpirun -x LD_LIBRARY_PATH -wdir /scratch/qe649241_JrRSS pw.x -in pw.inp

TID   HOST_NAME   COMMAND_LINE            STATUS            TERMINATION_TIME
00000 suncat0182 pw.x -in pw.inp   Done                     01/02/2019 01:56:18
00001 suncat0182 pw.x -in pw.inp   Done                     01/02/2019 01:56:18
00002 suncat0182 pw.x -in pw.inp   Done                     01/02/2019 01:56:18
00003 suncat0182 pw.x -in pw.inp   Done                     01/02/2019 01:56:18
00004 suncat0182 pw.x -in pw.inp   Done                     01/02/2019 01:56:18
00005 suncat0182 pw.x -in pw.inp   Done                     01/02/2019 01:56:18
00006 suncat0182 pw.x -in pw.inp   Done                     01/02/2019 01:56:18
00007 suncat0182 pw.x -in pw.inp   Done                     01/02/2019 01:56:18
00008 suncat0181 pw.x -in pw.inp   Done                     01/02/2019 01:56:18
00009 suncat0181 pw.x -in pw.inp   Done                     01/02/2019 01:56:18
00010 suncat0181 pw.x -in pw.inp   Done                     01/02/2019 01:56:18
00011 suncat0181 pw.x -in pw.inp   Done                     01/02/2019 01:56:18
00012 suncat0181 pw.x -in pw.inp   Done                     01/02/2019 01:56:18
00013 suncat0181 pw.x -in pw.inp   Done                     01/02/2019 01:56:18
00014 suncat0181 pw.x -in pw.inp   Done                     01/02/2019 01:56:18
00015 suncat0181 pw.x -in pw.inp   Done                     01/02/2019 01:56:18
00016 suncat0132 pw.x -in pw.inp   Done                     01/02/2019 01:56:18
00017 suncat0132 pw.x -in pw.inp   Done                     01/02/2019 01:56:18
00018 suncat0132 pw.x -in pw.inp   Done                     01/02/2019 01:56:18
00019 suncat0132 pw.x -in pw.inp   Done                     01/02/2019 01:56:18
00020 suncat0132 pw.x -in pw.inp   Done                     01/02/2019 01:56:18
00021 suncat0132 pw.x -in pw.inp   Done                     01/02/2019 01:56:18
00022 suncat0132 pw.x -in pw.inp   Done                     01/02/2019 01:56:18
00023 suncat0132 pw.x -in pw.inp   Done                     01/02/2019 01:56:18
00024 suncat0131 pw.x -in pw.inp   Done                     01/02/2019 01:56:18
00025 suncat0131 pw.x -in pw.inp   Done                     01/02/2019 01:56:18
00026 suncat0131 pw.x -in pw.inp   Done                     01/02/2019 01:56:18
00027 suncat0131 pw.x -in pw.inp   Done                     01/02/2019 01:56:18
00028 suncat0131 pw.x -in pw.inp   Done                     01/02/2019 01:56:18
00029 suncat0131 pw.x -in pw.inp   Done                     01/02/2019 01:56:18
00030 suncat0131 pw.x -in pw.inp   Done                     01/02/2019 01:56:18
00031 suncat0131 pw.x -in pw.inp   Done                     01/02/2019 01:56:18
00032 suncat0130 pw.x -in pw.inp   Done                     01/02/2019 01:56:18
00033 suncat0130 pw.x -in pw.inp   Done                     01/02/2019 01:56:18
00034 suncat0130 pw.x -in pw.inp   Done                     01/02/2019 01:56:18
00035 suncat0130 pw.x -in pw.inp   Done                     01/02/2019 01:56:18
00036 suncat0130 pw.x -in pw.inp   Done                     01/02/2019 01:56:18
00037 suncat0130 pw.x -in pw.inp   Done                     01/02/2019 01:56:18
00038 suncat0130 pw.x -in pw.inp   Done                     01/02/2019 01:56:18
00039 suncat0130 pw.x -in pw.inp   Done                     01/02/2019 01:56:18
00040 suncat0124 pw.x -in pw.inp   Done                     01/02/2019 01:56:18
00041 suncat0124 pw.x -in pw.inp   Done                     01/02/2019 01:56:18
00042 suncat0124 pw.x -in pw.inp   Done                     01/02/2019 01:56:18
00043 suncat0124 pw.x -in pw.inp   Done                     01/02/2019 01:56:18
00044 suncat0124 pw.x -in pw.inp   Done                     01/02/2019 01:56:18
00045 suncat0124 pw.x -in pw.inp   Done                     01/02/2019 01:56:18
00046 suncat0124 pw.x -in pw.inp   Done                     01/02/2019 01:56:18
00047 suncat0124 pw.x -in pw.inp   Done                     01/02/2019 01:56:18
00048 suncat0280 pw.x -in pw.inp   Done                     01/02/2019 01:56:18
00049 suncat0280 pw.x -in pw.inp   Done                     01/02/2019 01:56:18
00050 suncat0280 pw.x -in pw.inp   Done                     01/02/2019 01:56:18
00051 suncat0280 pw.x -in pw.inp   Done                     01/02/2019 01:56:18
00052 suncat0280 pw.x -in pw.inp   Done                     01/02/2019 01:56:18
00053 suncat0280 pw.x -in pw.inp   Done                     01/02/2019 01:56:18
00054 suncat0280 pw.x -in pw.inp   Done                     01/02/2019 01:56:18
00055 suncat0280 pw.x -in pw.inp   Done                     01/02/2019 01:56:18
00056 suncat0279 pw.x -in pw.inp   Done                     01/02/2019 01:56:18
00057 suncat0279 pw.x -in pw.inp   Done                     01/02/2019 01:56:18
00058 suncat0279 pw.x -in pw.inp   Done                     01/02/2019 01:56:18
00059 suncat0279 pw.x -in pw.inp   Done                     01/02/2019 01:56:18
00060 suncat0279 pw.x -in pw.inp   Done                     01/02/2019 01:56:18
00061 suncat0279 pw.x -in pw.inp   Done                     01/02/2019 01:56:18
00062 suncat0279 pw.x -in pw.inp   Done                     01/02/2019 01:56:18
00063 suncat0279 pw.x -in pw.inp   Done                     01/02/2019 01:56:18