     Program PWSCF v.5.1rc2 (svn rev. 11289) starts on 30Dec2018 at 16:34:29

     Current dimensions of program PWSCF are:
     Max number of different atomic species (ntypx) = 10
     Max number of k-points (npk) =  40000
     Max angular momentum in pseudopotentials (lmaxx) =  3
     Presently stress not available with electric field

     IMPORTANT: XC functional enforced from input :
     Exchange-correlation      = BEEF-VDW ( 1  4 27 13 2)
     Any further DFT definition will be discarded
     Please, verify this is what you really want

     Subspace diagonalization in iterative solution of the eigenvalue problem:
     a serial algorithm will be used

     bravais-lattice index     =            0
     lattice parameter (alat)  =       1.8897  a.u.
     unit-cell volume          =    4742.1568 (a.u.)^3
     number of atoms/cell      =           12
     number of atomic types    =            2
     number of electrons       =       162.00
     number of Kohn-Sham states=          111
     kinetic-energy cutoff     =      36.7493  Ry
     charge density cutoff     =     367.4932  Ry
     convergence threshold     =      1.0E-06
     mixing beta               =       0.1000
     number of iterations used =           10  plain     mixing
     Exchange-correlation      = BEEF-VDW ( 1  4 27 13 2)
     nstep                     =           50

     celldm(1)=   1.889726  celldm(2)=   0.000000  celldm(3)=   0.000000
     celldm(4)=   0.000000  celldm(5)=   0.000000  celldm(6)=   0.000000

     crystal axes: (cart. coord. in units of alat)
               a(1) = (   5.733738   0.000000   0.000000 )
               a(2) = (  -2.866869   4.965563   0.000000 )
               a(3) = (   0.000000   0.000000  24.681578 )

     reciprocal axes: (cart. coord. in units 2 pi/alat)
               b(1) = (  0.174406  0.100694  0.000000 )
               b(2) = (  0.000000  0.201387  0.000000 )
               b(3) = (  0.000000  0.000000  0.040516 )

     PseudoPot. # 1 for Mo read from file:
     /afs/slac.stanford.edu/u/if/mamunm/psp/gbrv1.5pbe/Mo.UPF
     MD5 check sum: 30c4dcd161f5d35cd49bb5239c51a633
     Pseudo is Ultrasoft + core correction, Zval = 14.0
     Generated by new atomic code, or converted to UPF format
     Using radial grid of  889 points,  6 beta functions with:
                l(1) =   0
                l(2) =   0
                l(3) =   1
                l(4) =   1
                l(5) =   2
                l(6) =   2
     Q(r) pseudized with  6 coefficients,  rinner =    1.000   1.000   1.000
                                                       1.000   1.000

     PseudoPot. # 2 for Cd read from file:
     /afs/slac.stanford.edu/u/if/mamunm/psp/gbrv1.5pbe/Cd.UPF
     MD5 check sum: 17164a7926edb8e0dc231208abae86a6
     Pseudo is Ultrasoft + core correction, Zval = 12.0
     Generated by new atomic code, or converted to UPF format
     Using radial grid of  889 points,  6 beta functions with:
                l(1) =   0
                l(2) =   0
                l(3) =   1
                l(4) =   1
                l(5) =   2
                l(6) =   2
     Q(r) pseudized with  6 coefficients,  rinner =    1.000   1.000   1.000
                                                       1.000   1.000

     vdW kernel table read from file vdW_kernel_table
     MD5 check sum: 095c7af220d748ca6e76c0b4c6cfb241

     atomic species   valence    mass     pseudopotential
        Mo1           14.00    95.95000     Mo( 1.00)
        Cd1           12.00   112.41400     Cd( 1.00)

     No symmetry found

   Cartesian axes

     site n.     atom                  positions (alat units)
         1           Mo1 tau(   1) = (   0.0000000   0.0000000  10.0000000  )
         2           Mo1 tau(   2) = (  -1.4334346   2.4827816  10.0000000  )
         3           Mo1 tau(   3) = (   1.4334346   2.4827816  10.0000000  )
         4           Cd1 tau(   4) = (   2.8668692   0.0000000  10.0000000  )
         5           Mo1 tau(   5) = (   2.8668692   1.6551877  12.3407889  )
         6           Mo1 tau(   6) = (   1.4334346   4.1379693  12.3407889  )
         7           Mo1 tau(   7) = (  -1.4334346   4.1379693  12.3407889  )
         8           Cd1 tau(   8) = (   0.0000000   1.6551877  12.3407889  )
         9           Mo1 tau(   9) = (  -0.0000000   3.3103754  14.6815778  )
        10           Mo1 tau(  10) = (   1.4334346   0.8275939  14.6815778  )
        11           Mo1 tau(  11) = (   4.3003038   0.8275939  14.6815778  )
        12           Cd1 tau(  12) = (   2.8668692   3.3103754  14.6815778  )

     number of k points=    20  Fermi-Dirac smearing, width (Ry)=  0.0110
                       cart. coord. in units 2pi/alat
        k(    1) = (   0.0000000   0.0000000   0.0000000), wk =   0.0555556
        k(    2) = (   0.0000000   0.0335645   0.0000000), wk =   0.1111111
        k(    3) = (   0.0000000   0.0671290   0.0000000), wk =   0.1111111
        k(    4) = (   0.0000000  -0.1006935   0.0000000), wk =   0.0555556
        k(    5) = (   0.0290677   0.0167823   0.0000000), wk =   0.1111111
        k(    6) = (   0.0290677   0.0503468   0.0000000), wk =   0.1111111
        k(    7) = (   0.0290677   0.0839113   0.0000000), wk =   0.1111111
        k(    8) = (   0.0290677  -0.0839113   0.0000000), wk =   0.1111111
        k(    9) = (   0.0290677  -0.0503468   0.0000000), wk =   0.1111111
        k(   10) = (   0.0290677  -0.0167823   0.0000000), wk =   0.1111111
        k(   11) = (   0.0581354   0.0335645   0.0000000), wk =   0.1111111
        k(   12) = (   0.0581354   0.0671290   0.0000000), wk =   0.1111111
        k(   13) = (   0.0581354   0.1006935   0.0000000), wk =   0.1111111
        k(   14) = (   0.0581354  -0.0671290   0.0000000), wk =   0.1111111
        k(   15) = (   0.0581354  -0.0335645   0.0000000), wk =   0.1111111
        k(   16) = (   0.0581354   0.0000000   0.0000000), wk =   0.1111111
        k(   17) = (  -0.0872031  -0.0503468   0.0000000), wk =   0.0555556
        k(   18) = (  -0.0872031  -0.0167823   0.0000000), wk =   0.1111111
        k(   19) = (  -0.0872031   0.0167823   0.0000000), wk =   0.1111111
        k(   20) = (  -0.0872031  -0.1510403   0.0000000), wk =   0.0555556

     Largest allocated arrays     est. size (Mb)     dimensions
     Largest temporary arrays     est. size (Mb)     dimensions

     Initial potential from superposition of free atoms
     Check: negative starting charge=   -0.067045

     starting charge  160.49031, renormalised to  162.00000

     negative rho (up, down):  6.768E-02 0.000E+00

     *
     * You are using vdW-DF for exchange-correlation in this calculation.
     * Please cite the following three references that made this development
     * possible:
     *
     *   M. Dion, H. Rydberg, E. Schroder, D. C. Langreth, and
     *   B. I. Lundqvist, Phys. Rev. Lett. 92, 246401 (2004).
     *
     *   T. Thonhauser, V. R. Cooper, S. Li, A. Puzder, P. Hyldgaard, and
     *   D. C. Langreth, Phys. Rev. B 76, 125112 (2007).
     *
     *   G. Roman-Perez and J. M. Soler, Phys. Rev. Lett. 103, 096102 (2009).
     *
     *
     * If you are using vdW-DF2, please also cite:
     *
     *   K. Lee, E. D. Murray, L. Kong, B. I. Lundqvist, and
     *   D. C. Langreth, Phys. Rev. B 82, 081101(R) (2010).
     *
     *
     * If you are calculating the stress with vdW-DF, please also cite:
     *
     *   R. Sabatini, E. Kucukbenli, B. Kolb, T. Thonhauser, and
     *   S. de Gironcoli, J. Phys.: Condens. Matter 24, 424209 (2012).
     *

     Carrying out vdW-DF run using the following parameters:

     Nqs =      20    Nr_points =    1024   r_max =   100.000
     q_mesh =
               0.00001000     0.04494208     0.09755937     0.15916263
               0.23128650     0.31572767     0.41458969     0.53033537
               0.66584808     0.82450364     1.01025438     1.22772762
               1.48234092     1.78043706     2.12944203     2.53805004
               3.01644009     3.57652955     4.23227104     5.00000000

     Gradients computed in reciprocal space

     Adding external electric field

     Computed dipole along edir(3) :
        Dipole               -0.0000 Ry au,         -0.0000 Debye
        Dipole field         -0.0000 Ry au

        Potential amp.        0.0000 Ry
        Total length         45.4754 bohr

     Starting wfc are  144 randomized atomic wfcs

     Self-consistent Calculation

     iteration #  1     ecut=    36.75 Ry     beta=0.10
     Davidson diagonalization with overlap
     ethr =  1.00E-02,  avg # of iterations =  2.0

[...]

     total energy              =   -1607.29792473 Ry
     Harris-Foulkes estimate   =   -1607.65149070 Ry
     estimated scf accuracy    <       2.10310261 Ry

[...]

     End of self-consistent calculation

          k = 0.0000 0.0000 0.0000 ( 17911 PWs)   bands (ev):

   -59.5250 -59.4250 -59.4249 -59.3393 -59.3289 -59.2479 -59.2478 -59.2453
   -59.2452 -33.9576 -33.7652 -33.7635 -33.7635 -33.6906 -33.6561 -33.6560
   -33.6552 -33.5010 -33.5010 -33.4116 -33.3718 -33.3717 -33.3513 -33.3209
   -33.3209 -33.1758 -33.1758 -33.1694 -33.1384 -33.1383 -33.1322 -33.0960
   -32.9341 -32.9341 -32.9293 -32.9293  -7.3344  -7.3344  -7.2831  -7.2492
    -7.2492  -7.0637  -7.0637  -7.0519  -7.0519  -7.0302  -6.9559  -6.8381
    -6.8381  -6.8302  -6.8302  -5.3924  -3.7255  -3.7046  -2.7067  -1.9782
    -1.7567  -1.0917  -0.9915  -0.9914  -0.7843  -0.7843  -0.7628  -0.5656
    -0.5656  -0.3970  -0.3970   0.2699   0.2699   0.5625   0.5793   0.5793
     0.8343   1.2235   1.2857   1.2857   1.6370   1.8251   1.8251   1.9336
     2.0958   2.7809   2.7897   2.7897   2.9239   2.9239   3.0339   3.0339
     3.2856   3.2856   3.3637   3.3638   3.5751   3.5751   3.7681   3.8675
     3.8675   4.3417   4.3417   4.4447   4.7167   5.1143   5.2063   5.3619
     5.3619   5.4676   5.5646   5.7533   5.9614   6.0285   6.0285

[...]

          k =-0.0872-0.0503 0.0000 ( 17816 PWs)   bands (ev):

[...]

     the Fermi energy is     1.6775 ev

!    total energy              =   -1607.41612320 Ry
     Harris-Foulkes estimate   =   -1607.41717375 Ry
     estimated scf accuracy    <       0.00000087 Ry

     The total energy is the sum of the following terms:

     one-electron contribution =  -13504.97955538 Ry
     hartree contribution      =    6769.96320012 Ry
     xc contribution           =    -302.25106302 Ry
     ewald contribution        =    5429.93792935 Ry
     electric field correction =       0.00000000 Ry
     smearing contrib. (-TS)   =      -0.08663428 Ry

     convergence has been achieved in  15 iterations

 BEEF-vdW xc energy contributions
           1 :   -261.724389910504
           2 :    239.349052967691
           3 :   -201.124502936930
           4 :    157.342340664049
           5 :   -118.143349841523
           6 :    90.1220502074172
           7 :   -74.7920274552694
           8 :    69.2261032958469
           9 :   -68.2735263272572
          10 :    67.1485594016200
          11 :   -63.2569448970175
          12 :    56.6316187745026
          13 :   -49.1014697164166
          14 :    42.8354866055630
          15 :   -39.0764292136084
[...]
               b(3) = (  0.000000  0.000000  0.040516 )

     PseudoPot. # 1 for Mo read from file:
     /afs/slac.stanford.edu/u/if/mamunm/psp/gbrv1.5pbe/Mo.UPF
     MD5 check sum: 30c4dcd161f5d35cd49bb5239c51a633
     Pseudo is Ultrasoft + core correction, Zval = 14.0
     Generated by new atomic code, or converted to UPF format
     Using radial grid of  889 points,  6 beta functions with:
                l(1) =   0
                l(2) =   0
                l(3) =   1
                l(4) =   1
                l(5) =   2
                l(6) =   2
     Q(r) pseudized with  6 coefficients,  rinner =    1.000   1.000   1.000
                                                       1.000   1.000

     PseudoPot. # 2 for Cd read from file:
     /afs/slac.stanford.edu/u/if/mamunm/psp/gbrv1.5pbe/Cd.UPF
     MD5 check sum: 17164a7926edb8e0dc231208abae86a6
     Pseudo is Ultrasoft + core correction, Zval = 12.0
     Generated by new atomic code, or converted to UPF format
     Using radial grid of  889 points,  6 beta functions with:
                l(1) =   0
                l(2) =   0
                l(3) =   1
                l(4) =   1
                l(5) =   2
                l(6) =   2
     Q(r) pseudized with  6 coefficients,  rinner =    1.000   1.000   1.000
                                                       1.000   1.000

     vdW kernel table read from file vdW_kernel_table
     MD5 check sum: 095c7af220d748ca6e76c0b4c6cfb241

     atomic species   valence    mass     pseudopotential
        Mo1           14.00    95.95000     Mo( 1.00)
        Cd1           12.00   112.41400     Cd( 1.00)

     No symmetry found

   Cartesian axes

     site n.     atom                  positions (alat units)
         1           Mo1 tau(   1) = (   0.0000000   0.0000000  10.0000000  )
         2           Mo1 tau(   2) = (  -1.4334346   2.4827816  10.0000000  )
         3           Mo1 tau(   3) = (   1.4334346   2.4827816  10.0000000  )
         4           Cd1 tau(   4) = (   2.8668692   0.0000000  10.0000000  )
         5           Mo1 tau(   5) = (   2.8668692   1.6551877  12.3407889  )
         6           Mo1 tau(   6) = (   1.4334346   4.1379693  12.3407889  )
         7           Mo1 tau(   7) = (  -1.4334346   4.1379693  12.3407889  )
         8           Cd1 tau(   8) = (   0.0000000   1.6551877  12.3407889  )
         9           Mo1 tau(   9) = (  -0.0000213   3.4976867  14.5503713  )
        10           Mo1 tau(  10) = (   1.5956427   0.7339229  14.5503713  )
        11           Mo1 tau(  11) = (   4.1380891   0.7339435  14.5503812  )
        12           Cd1 tau(  12) = (   2.8668767   3.3103754  15.1958455  )

     number of k points=    20  Fermi-Dirac smearing, width (Ry)=  0.0110
                       cart. coord. in units 2pi/alat
        k(    1) = (   0.0000000   0.0000000   0.0000000), wk =   0.0555556
        k(    2) = (   0.0000000   0.0335645   0.0000000), wk =   0.1111111
        k(    3) = (   0.0000000   0.0671290   0.0000000), wk =   0.1111111
        k(    4) = (   0.0000000  -0.1006935   0.0000000), wk =   0.0555556
        k(    5) = (   0.0290677   0.0167823   0.0000000), wk =   0.1111111
        k(    6) = (   0.0290677   0.0503468   0.0000000), wk =   0.1111111
        k(    7) = (   0.0290677   0.0839113   0.0000000), wk =   0.1111111
        k(    8) = (   0.0290677  -0.0839113   0.0000000), wk =   0.1111111
        k(    9) = (   0.0290677  -0.0503468   0.0000000), wk =   0.1111111
        k(   10) = (   0.0290677  -0.0167823   0.0000000), wk =   0.1111111
        k(   11) = (   0.0581354   0.0335645   0.0000000), wk =   0.1111111
        k(   12) = (   0.0581354   0.0671290   0.0000000), wk =   0.1111111
        k(   13) = (   0.0581354   0.1006935   0.0000000), wk =   0.1111111
        k(   14) = (   0.0581354  -0.0671290   0.0000000), wk =   0.1111111
        k(   15) = (   0.0581354  -0.0335645   0.0000000), wk =   0.1111111
        k(   16) = (   0.0581354   0.0000000   0.0000000), wk =   0.1111111
        k(   17) = (  -0.0872031  -0.0503468   0.0000000), wk =   0.0555556
        k(   18) = (  -0.0872031  -0.0167823   0.0000000), wk =   0.1111111
        k(   19) = (  -0.0872031   0.0167823   0.0000000), wk =   0.1111111
        k(   20) = (  -0.0872031  -0.1510403   0.0000000), wk =   0.0555556

     Largest allocated arrays     est. size (Mb)     dimensions
     Largest temporary arrays     est. size (Mb)     dimensions

     Initial potential from superposition of free atoms
     Check: negative starting charge=   -0.067286

     starting charge  160.49031, renormalised to  162.00000

[...]

     *
     * You are using vdW-DF for exchange-correlation in this calculation.
     * Please cite the following three references that made this development
     * possible:
     *
     *   M. Dion, H. Rydberg, E. Schroder, D. C. Langreth, and
     *   B. I. Lundqvist, Phys. Rev. Lett. 92, 246401 (2004).
     *
     *   T. Thonhauser, V. R. Cooper, S. Li, A. Puzder, P. Hyldgaard, and
     *   D. C. Langreth, Phys. Rev. B 76, 125112 (2007).
     *
     *   G. Roman-Perez and J. M. Soler, Phys. Rev. Lett. 103, 096102 (2009).
     *
     *
     * If you are using vdW-DF2, please also cite:
     *
     *   K. Lee, E. D. Murray, L. Kong, B. I. Lundqvist, and
     *   D. C. Langreth, Phys. Rev. B 82, 081101(R) (2010).
     *
     *
     * If you are calculating the stress with vdW-DF, please also cite:
     *
     *   R. Sabatini, E. Kucukbenli, B. Kolb, T. Thonhauser, and
     *   S. de Gironcoli, J. Phys.: Condens. Matter 24, 424209 (2012).
     *

     Carrying out vdW-DF run using the following parameters:

     Nqs =      20    Nr_points =    1024   r_max =   100.000
     q_mesh =
               0.00001000     0.04494208     0.09755937     0.15916263
               0.23128650     0.31572767     0.41458969     0.53033537
               0.66584808     0.82450364     1.01025438     1.22772762
               1.48234092     1.78043706     2.12944203     2.53805004
               3.01644009     3.57652955     4.23227104     5.00000000

     Gradients computed in reciprocal space

[...]

     Starting wfc are  144 randomized atomic wfcs

     Self-consistent Calculation

[...]

     total energy              =   -1607.48485451 Ry
     Harris-Foulkes estimate   =   -1607.48485391 Ry
     estimated scf accuracy    <       0.00000148 Ry

     iteration # 17     ecut=    36.75 Ry     beta=0.10
     Davidson diagonalization with overlap
     ethr =  9.13E-10,  avg # of iterations =  2.1

[...]

     negative rho (up, down):  7.107E-02 0.000E+00

     Adding external electric field

     Computed dipole along edir(3) :
        Dipole               -0.0045 Ry au,         -0.0113 Debye
        Dipole field         -0.0000 Ry au

        Potential amp.        0.0011 Ry
        Total length         45.4754 bohr

     End of self-consistent calculation

[...]

          k = 0.0581 0.0000 0.0000 ( 17845 PWs)   bands (ev):

[...]

          k =-0.0872-0.1510 0.0000 ( 17816 PWs)   bands (ev):

   -59.4699 -59.4312 -59.3913 -59.3103 -59.2935 -59.2793 -59.2530 -59.1410
   -59.1301 -33.9850 -33.8352 -33.7509 -33.7184 -33.7110 -33.5978 -33.5824
   -33.5478 -33.5251 -33.4757 -33.4416 -33.3841 -33.3525 -33.3364 -33.2909
   -33.2872 -33.2531 -33.2076 -33.2005 -33.1494 -33.0560 -33.0317 -33.0278
   -32.9665 -32.9579 -32.8611 -32.7576  -7.2797  -7.2057  -7.1715  -7.1489
    -7.1277  -7.0092  -6.9065  -6.8664  -6.8384  -6.8243  -6.6852  -6.6278
    -6.5753  -6.5687  -6.5427  -3.8245  -3.4222  -2.4718  -2.3081  -2.0387
    -1.8025  -1.6614  -1.1762  -0.9755  -0.8785  -0.7207  -0.6205  -0.5454
    -0.4272  -0.1920  -0.1834   0.0181   0.1251   0.1476   0.2343   0.5262
     0.5662   0.8110   0.8450   0.8483   1.0065   1.0462   1.1808   1.3195
     1.4486   1.5784   1.6331   1.6339   2.2339   2.3558   2.5604   2.7194
     2.7376   2.8450   2.8776   2.9327   3.1624   3.2075   3.2721   3.4797
     3.8385   4.0961   4.1769   4.2667   4.3808   4.4632   5.2168   5.3379
     5.6364   6.4782   6.5702   6.7282   6.8529   7.2085   7.2725

     the Fermi energy is     1.6742 ev

!    total energy              =   -1607.48485559 Ry
     Harris-Foulkes estimate   =   -1607.48485478 Ry
     estimated scf accuracy    <       0.00000052 Ry

     The total energy is the sum of the following terms:

     one-electron contribution =  -13474.69607487 Ry
     hartree contribution      =    6754.98742865 Ry
     xc contribution           =    -302.45508407 Ry
     ewald contribution        =    5414.75557825 Ry
     electric field correction =       0.00000005 Ry
     smearing contrib. (-TS)   =      -0.07670361 Ry

     convergence has been achieved in  17 iterations

 BEEF-vdW xc energy contributions
           1 :   -261.979059534091
           2 :    239.601848387158
           3 :   -201.385534075192
           4 :    157.619502777218
           5 :   -118.407603989140
           6 :    90.2854104829113
           7 :   -74.7287593068370
           8 :    68.8390363926331
           9 :   -67.5728505127738
          10 :    66.2900501474064
          11 :   -62.4983575030706
          12 :    56.2138182798844
          13 :   -49.1144012344881
          14 :    43.1522170486538
          15 :   -39.4065866116264
          16 :    37.6616787773233
          17 :   -36.7584735985506
          18 :    35.3767937104270
          19 :   -32.7691328237746
          20 :    29.0670343463512
          21 :   -25.0702206175656
          22 :    21.7036812064841
          23 :   -19.4869738093517
          24 :    18.2992950660411
          25 :   -17.5321267149932
          26 :    16.4901943210824
          27 :   -14.7858535091773
          28 :    12.5041397579097
          29 :   -10.0798870345743
          30 :    7.99444455587007
          31 :   -27.2694652093791
          32 :   -20.5762010991678

     Forces acting on atoms (Ry/au):

     negative rho (up, down):  7.107E-02 0.000E+00
     atom    1 type  1   force =    -0.00000095   -0.02398090    0.03198879
     atom    2 type  1   force =    -0.02076803    0.01198945    0.03198836
     atom    3 type  1   force =     0.02076586    0.01198938    0.03198928
     atom    4 type  2   force =    -0.00000184    0.00000113   -0.05864867
     atom    5 type  1   force =     0.00000012    0.02207560   -0.01077090
     atom    6 type  1   force =     0.01911768   -0.01103772   -0.01077033
     atom    7 type  1   force =    -0.01911901   -0.01103853   -0.01077495
     atom    8 type  2   force =     0.00000526    0.00000447   -0.00492353
     atom    9 type  1   force =     0.00000752    0.00086541   -0.00052167
     atom   10 type  1   force =     0.00075343   -0.00042832   -0.00052243
     atom   11 type  1   force =    -0.00075211   -0.00043673   -0.00052743
     atom   12 type  2   force =    -0.00000792   -0.00000325    0.00149348

     Total force =     0.100371     Total SCF correction =     0.004821

     entering subroutine stress ...

     negative rho (up, down):  7.107E-02 0.000E+00
          total   stress  (Ry/bohr**3)                   (kbar)     P=  -14.68
  -0.00012795  -0.00000000  -0.00000000        -18.82     -0.00     -0.00
  -0.00000000  -0.00012795   0.00000000         -0.00    -18.82      0.00
  -0.00000000   0.00000000  -0.00004339         -0.00      0.00     -6.38

 !ASE

     Writing output data file calc.save

     General routines

     Parallel routines

   This run was terminated on:  19:39:39  30Dec2018

   JOB DONE.
Job  /afs/slac/g/suncat/bin/suncat-tsmpirun -x LD_LIBRARY_PATH -wdir /scratch/qe648591_bvudr pw.x -in pw.inp

TID   HOST_NAME   COMMAND_LINE            STATUS            TERMINATION_TIME
00000 suncat0251 pw.x -in pw.inp   Done                     12/30/2018 19:39:39
00001 suncat0251 pw.x -in pw.inp   Done                     12/30/2018 19:39:39
00002 suncat0251 pw.x -in pw.inp   Done                     12/30/2018 19:39:39
00003 suncat0251 pw.x -in pw.inp   Done                     12/30/2018 19:39:39
00004 suncat0251 pw.x -in pw.inp   Done                     12/30/2018 19:39:39
00005 suncat0251 pw.x -in pw.inp   Done                     12/30/2018 19:39:39
00006 suncat0251 pw.x -in pw.inp   Done                     12/30/2018 19:39:39
00007 suncat0251 pw.x -in pw.inp   Done                     12/30/2018 19:39:39
00008 suncat0244 pw.x -in pw.inp   Done                     12/30/2018 19:39:39
00009 suncat0244 pw.x -in pw.inp   Done                     12/30/2018 19:39:39
00010 suncat0244 pw.x -in pw.inp   Done                     12/30/2018 19:39:39
00011 suncat0244 pw.x -in pw.inp   Done                     12/30/2018 19:39:39
00012 suncat0244 pw.x -in pw.inp   Done                     12/30/2018 19:39:39
00013 suncat0244 pw.x -in pw.inp   Done                     12/30/2018 19:39:39
00014 suncat0244 pw.x -in pw.inp   Done                     12/30/2018 19:39:39
00015 suncat0244 pw.x -in pw.inp   Done                     12/30/2018 19:39:39
00016 suncat0243 pw.x -in pw.inp   Done                     12/30/2018 19:39:39
00017 suncat0243 pw.x -in pw.inp   Done                     12/30/2018 19:39:39
00018 suncat0243 pw.x -in pw.inp   Done                     12/30/2018 19:39:39
00019 suncat0243 pw.x -in pw.inp   Done                     12/30/2018 19:39:39
00020 suncat0243 pw.x -in pw.inp   Done                     12/30/2018 19:39:39
00021 suncat0243 pw.x -in pw.inp   Done                     12/30/2018 19:39:39
00022 suncat0243 pw.x -in pw.inp   Done                     12/30/2018 19:39:39
00023 suncat0243 pw.x -in pw.inp   Done                     12/30/2018 19:39:39
00024 suncat0242 pw.x -in pw.inp   Done                     12/30/2018 19:39:39
00025 suncat0242 pw.x -in pw.inp   Done                     12/30/2018 19:39:39
00026 suncat0242 pw.x -in pw.inp   Done                     12/30/2018 19:39:39
00027 suncat0242 pw.x -in pw.inp   Done                     12/30/2018 19:39:39
00028 suncat0242 pw.x -in pw.inp   Done                     12/30/2018 19:39:39
00029 suncat0242 pw.x -in pw.inp   Done                     12/30/2018 19:39:39
00030 suncat0242 pw.x -in pw.inp   Done                     12/30/2018 19:39:39
00031 suncat0242 pw.x -in pw.inp   Done                     12/30/2018 19:39:39
00032 suncat0209 pw.x -in pw.inp   Done                     12/30/2018 19:39:39
00033 suncat0209 pw.x -in pw.inp   Done                     12/30/2018 19:39:39
00034 suncat0209 pw.x -in pw.inp   Done                     12/30/2018 19:39:39
00035 suncat0209 pw.x -in pw.inp   Done                     12/30/2018 19:39:39
00036 suncat0209 pw.x -in pw.inp   Done                     12/30/2018 19:39:39
00037 suncat0209 pw.x -in pw.inp   Done                     12/30/2018 19:39:39
00038 suncat0209 pw.x -in pw.inp   Done                     12/30/2018 19:39:39
00039 suncat0209 pw.x -in pw.inp   Done                     12/30/2018 19:39:39
00040 suncat0205 pw.x -in pw.inp   Done                     12/30/2018 19:39:39
00041 suncat0205 pw.x -in pw.inp   Done                     12/30/2018 19:39:39
00042 suncat0205 pw.x -in pw.inp   Done                     12/30/2018 19:39:39
00043 suncat0205 pw.x -in pw.inp   Done                     12/30/2018 19:39:39
00044 suncat0205 pw.x -in pw.inp   Done                     12/30/2018 19:39:39
00045 suncat0205 pw.x -in pw.inp   Done                     12/30/2018 19:39:39
00046 suncat0205 pw.x -in pw.inp   Done                     12/30/2018 19:39:39
00047 suncat0205 pw.x -in pw.inp   Done                     12/30/2018 19:39:39
00048 suncat0204 pw.x -in pw.inp   Done                     12/30/2018 19:39:39
00049 suncat0204 pw.x -in pw.inp   Done                     12/30/2018 19:39:39
00050 suncat0204 pw.x -in pw.inp   Done                     12/30/2018 19:39:39
00051 suncat0204 pw.x -in pw.inp   Done                     12/30/2018 19:39:39
00052 suncat0204 pw.x -in pw.inp   Done                     12/30/2018 19:39:39
00053 suncat0204 pw.x -in pw.inp   Done                     12/30/2018 19:39:39
00054 suncat0204 pw.x -in pw.inp   Done                     12/30/2018 19:39:39
00055 suncat0204 pw.x -in pw.inp   Done                     12/30/2018 19:39:39
00056 suncat0203 pw.x -in pw.inp   Done                     12/30/2018 19:39:39
00057 suncat0203 pw.x -in pw.inp   Done                     12/30/2018 19:39:39
00058 suncat0203 pw.x -in pw.inp   Done                     12/30/2018 19:39:39
00059 suncat0203 pw.x -in pw.inp   Done                     12/30/2018 19:39:39
00060 suncat0203 pw.x -in pw.inp   Done                     12/30/2018 19:39:39
00061 suncat0203 pw.x -in pw.inp   Done                     12/30/2018 19:39:39
00062 suncat0203 pw.x -in pw.inp   Done                     12/30/2018 19:39:39
00063 suncat0203 pw.x -in pw.inp   Done                     12/30/2018 19:39:39