     Program PWSCF v.5.1rc2 (svn rev. 11289) starts on 19Dec2018 at 15: 8: 3

     Current dimensions of program PWSCF are:
     Max number of different atomic species (ntypx) = 10
     Max number of k-points (npk) =  40000
     Max angular momentum in pseudopotentials (lmaxx) =  3
     Presently stress not available with electric field

     IMPORTANT: XC functional enforced from input :
     Exchange-correlation      = BEEF-VDW ( 1  4 27 13 2)
     Any further DFT definition will be discarded
     Please, verify this is what you really want

     Subspace diagonalization in iterative solution of the eigenvalue problem:
     a serial algorithm will be used

     bravais-lattice index     =            0
     lattice parameter (alat)  =       1.8897  a.u.
     unit-cell volume          =    5241.5549 (a.u.)^3
     number of atoms/cell      =           12
     number of atomic types    =            2
     number of electrons       =       207.00
     number of Kohn-Sham states=          133
     kinetic-energy cutoff     =      36.7493  Ry
     charge density cutoff     =     367.4932  Ry
     convergence threshold     =      1.0E-06
     mixing beta               =       0.1000
     number of iterations used =           10  plain     mixing
     Exchange-correlation      = BEEF-VDW ( 1  4 27 13 2)
     nstep                     =           50

     celldm(1)=   1.889726  celldm(2)=   0.000000  celldm(3)=   0.000000
     celldm(4)=   0.000000  celldm(5)=   0.000000  celldm(6)=   0.000000

     crystal axes: (cart. coord. in units of alat)
               a(1) = (   6.001565   0.000000   0.000000 )
               a(2) = (  -3.000783   5.197508   0.000000 )
               a(3) = (   0.000000   0.000000  24.900258 )

     reciprocal axes: (cart. coord. in units 2 pi/alat)
               b(1) = (  0.166623  0.096200  0.000000 )
               b(2) = (  0.000000  0.192400  0.000000 )
               b(3) = (  0.000000  0.000000  0.040160 )

     PseudoPot. # 1 for Ag read from file:
     /afs/slac.stanford.edu/u/if/mamunm/psp/gbrv1.5pbe/Ag.UPF
     MD5 check sum: d66d668201baa78d5eb5b04ef7011058
     Pseudo is Ultrasoft + core correction, Zval = 19.0
     Generated by new atomic code, or converted to UPF format
     Using radial grid of  887 points,  6 beta functions with:
                l(1) =   0
                l(2) =   0
                l(3) =   1
                l(4) =   1
                l(5) =   2
                l(6) =   2
     Q(r) pseudized with  6 coefficients,  rinner =    1.300   1.300   1.300
                                                       1.300   1.300

     PseudoPot. # 2 for Cd read from file:
     /afs/slac.stanford.edu/u/if/mamunm/psp/gbrv1.5pbe/Cd.UPF
     MD5 check sum: 17164a7926edb8e0dc231208abae86a6
     Pseudo is Ultrasoft + core correction, Zval = 12.0
     Generated by new atomic code, or converted to UPF format
     Using radial grid of  889 points,  6 beta functions with:
                l(1) =   0
                l(2) =   0
                l(3) =   1
                l(4) =   1
                l(5) =   2
                l(6) =   2
     Q(r) pseudized with  6 coefficients,  rinner =    1.000   1.000   1.000
                                                       1.000   1.000

     vdW kernel table read from file vdW_kernel_table
     MD5 check sum: 095c7af220d748ca6e76c0b4c6cfb241

     atomic species   valence    mass     pseudopotential
        Ag1           19.00   107.86820     Ag( 1.00)
        Cd1           12.00   112.41400     Cd( 1.00)

     No symmetry found

   Cartesian axes

     site n.     atom                  positions (alat units)
         1           Ag1 tau(   1) = (   0.0000000   0.0000000  10.0000000  )
         2           Ag1 tau(   2) = (  -1.5003913   2.5987540  10.0000000  )
         3           Ag1 tau(   3) = (   1.5003913   2.5987540  10.0000000  )
         4           Cd1 tau(   4) = (   3.0007826   0.0000000  10.0000000  )
         5           Ag1 tau(   5) = (   3.0007826   1.7325027  12.4501288  )
         6           Ag1 tau(   6) = (   1.5003913   4.3312566  12.4501288  )
         7           Ag1 tau(   7) = (  -1.5003913   4.3312566  12.4501288  )
         8           Cd1 tau(   8) = (   0.0000000   1.7325027  12.4501288  )
         9           Ag1 tau(   9) = (  -0.0000000   3.4650053  14.9002575  )
        10           Ag1 tau(  10) = (   1.5003913   0.8662513  14.9002575  )
        11           Ag1 tau(  11) = (   4.5011739   0.8662513  14.9002575  )
        12           Cd1 tau(  12) = (   3.0007826   3.4650053  14.9002575  )

     number of k points=    20  Fermi-Dirac smearing, width (Ry)=  0.0110
                       cart. coord. in units 2pi/alat
        k(    1) = (   0.0000000   0.0000000   0.0000000), wk =   0.0555556
        k(    2) = (   0.0000000   0.0320666   0.0000000), wk =   0.1111111
        k(    3) = (   0.0000000   0.0641333   0.0000000), wk =   0.1111111
        k(    4) = (   0.0000000  -0.0961999   0.0000000), wk =   0.0555556
        k(    5) = (   0.0277705   0.0160333   0.0000000), wk =   0.1111111
        k(    6) = (   0.0277705   0.0481000   0.0000000), wk =   0.1111111
        k(    7) = (   0.0277705   0.0801666   0.0000000), wk =   0.1111111
        k(    8) = (   0.0277705  -0.0801666   0.0000000), wk =   0.1111111
        k(    9) = (   0.0277705  -0.0481000   0.0000000), wk =   0.1111111
        k(   10) = (   0.0277705  -0.0160333   0.0000000), wk =   0.1111111
        k(   11) = (   0.0555411   0.0320666   0.0000000), wk =   0.1111111
        k(   12) = (   0.0555411   0.0641333   0.0000000), wk =   0.1111111
        k(   13) = (   0.0555411   0.0961999   0.0000000), wk =   0.1111111
        k(   14) = (   0.0555411  -0.0641333   0.0000000), wk =   0.1111111
        k(   15) = (   0.0555411  -0.0320666   0.0000000), wk =   0.1111111
        k(   16) = (   0.0555411   0.0000000   0.0000000), wk =   0.1111111
        k(   17) = (  -0.0833116  -0.0481000   0.0000000), wk =   0.0555556
        k(   18) = (  -0.0833116  -0.0160333   0.0000000), wk =   0.1111111
        k(   19) = (  -0.0833116   0.0160333   0.0000000), wk =   0.1111111
        k(   20) = (  -0.0833116  -0.1442999   0.0000000), wk =   0.0555556

     Largest allocated arrays     est. size (Mb)     dimensions
     Largest temporary arrays     est. size (Mb)     dimensions

     Initial potential from superposition of free atoms
     Check: negative starting charge=   -0.065433

     starting charge  200.99945, renormalised to  207.00000

     negative rho (up, down):  6.739E-02 0.000E+00

     *
     * You are using vdW-DF for exchange-correlation in this calculation.
     * Please cite the following three references that made this development
     * possible:
     *
     *   M. Dion, H. Rydberg, E. Schroder, D. C. Langreth, and
     *   B. I. Lundqvist, Phys. Rev. Lett. 92, 246401 (2004).
     *
     *   T. Thonhauser, V. R. Cooper, S. Li, A. Puzder, P. Hyldgaard, and
     *   D. C. Langreth, Phys. Rev. B 76, 125112 (2007).
     *
     *   G. Roman-Perez and J. M. Soler, Phys. Rev. Lett. 103, 096102 (2009).
     *
     *
     * If you are using vdW-DF2, please also cite:
     *
     *   K. Lee, E. D. Murray, L. Kong, B. I. Lundqvist, and
     *   D. C. Langreth, Phys. Rev. B 82, 081101(R) (2010).
     *
     *
     * If you are calculating the stress with vdW-DF, please also cite:
     *
     *   R. Sabatini, E. Kucukbenli, B. Kolb, T. Thonhauser, and
     *   S. de Gironcoli, J. Phys.: Condens. Matter 24, 424209 (2012).
     *

     Carrying out vdW-DF run using the following parameters:

     Nqs =      20    Nr_points =    1024   r_max =   100.000
     q_mesh =
               0.00001000     0.04494208     0.09755937     0.15916263
               0.23128650     0.31572767     0.41458969     0.53033537
               0.66584808     0.82450364     1.01025438     1.22772762
               1.48234092     1.78043706     2.12944203     2.53805004
               3.01644009     3.57652955     4.23227104     5.00000000

     Gradients computed in reciprocal space

     Adding external electric field

     Computed dipole along edir(3) :
        Dipole                0.0000 Ry au,          0.0000 Debye
        Dipole field          0.0000 Ry au

        Potential amp.       -0.0000 Ry
        Total length         45.8783 bohr

     Starting wfc are  144 randomized atomic wfcs

     Self-consistent Calculation

     iteration #  1     ecut=    36.75 Ry     beta=0.10
     Davidson diagonalization with overlap
     ethr =  1.00E-02,  avg # of iterations =  7.1

[...]

     total energy              =   -3018.51095992 Ry
     Harris-Foulkes estimate   =   -3021.63952170 Ry
     estimated scf accuracy    <      18.44311229 Ry

[...]

     End of self-consistent calculation

          k = 0.0000 0.0000 0.0000 ( 19543 PWs)   bands (ev):

   -91.2435 -91.2387 -91.2387 -90.9406 -90.9406 -90.9358 -90.9358 -90.9358
   -90.9358 -54.7799 -54.7620 -54.7620 -54.7399 -54.7399 -54.7285 -54.7260
   -54.6899 -54.6899 -54.4732 -54.4732 -54.4722 -54.4722 -54.4722 -54.4719
   -54.4433 -54.4430 -54.4134 -54.4134 -54.4130 -54.4130 -54.4086 -54.4063
   -54.3956 -54.3956 -54.3947 -54.3946  -8.0052  -8.0052  -7.9862  -7.9587
    -7.9587  -7.8146  -7.8072  -7.8072  -7.7963  -7.7963  -7.7727  -7.6900
    -7.6900  -7.6899  -7.6899  -6.1348  -5.1432  -4.8252  -4.8011  -4.4973
    -4.4403  -4.3111  -4.3111  -4.2468  -4.1161  -4.1161  -4.0063  -4.0063
    -3.9128  -3.9128  -3.8664  -3.7036  -3.7036  -3.5691  -3.4645  -3.4645
    -3.2593  -3.1817  -3.1609  -3.1609  -3.0793  -3.0213  -3.0213  -2.9795
    -2.9795  -2.8627  -2.8013  -2.8013  -2.6927  -2.6927  -2.6558  -2.6558
    -2.6377  -2.6377  -2.5237  -2.5237  -2.4698  -2.3332  -2.2747  -2.2747
    -2.0823  -2.0661  -0.7919   0.6818   0.6818   0.8618   1.1675   1.4158
     1.4794   1.4794   1.9507   1.9507   2.0334   3.3505   4.0168   4.0168
     4.3857   4.4332   5.0044   5.0867   5.0867   5.0939   5.3715   5.7428
     5.7428   6.3517   6.6533   7.8490   8.0179   8.1216   8.1216   8.3360
     8.3918   8.3918   8.5972   9.5867   9.5869

[...]

          k =-0.0833-0.0481 0.0000 ( 19732 PWs)   bands (ev):

[...]

     the Fermi energy is     1.1797 ev

!    total energy              =   -3018.14717444 Ry
     Harris-Foulkes estimate   =   -3018.14717868 Ry
     estimated scf accuracy    <       0.00000051 Ry

     The total energy is the sum of the following terms:

     one-electron contribution =  -20851.83244026 Ry
     hartree contribution      =   10440.78476653 Ry
     xc contribution           =    -393.18366640 Ry
     ewald contribution        =    7786.10681032 Ry
     electric field correction =       0.00000000 Ry
     smearing contrib. (-TS)   =      -0.02264464 Ry

     convergence has been achieved in  14 iterations

 BEEF-vdW xc energy contributions
           1 :   -341.932243092650
           2 :    310.717033622154
           3 :   -258.413614714599
           4 :    200.515330423095
           5 :   -151.233422993975
           6 :    118.332492085125
           7 :   -101.632840768070
           8 :    95.2476976380881
           9 :   -91.8225556640446
          10 :    86.3342403520665
[...]
     Using radial grid of  887 points,  6 beta functions with:
                l(1) =   0
                l(2) =   0
                l(3) =   1
                l(4) =   1
                l(5) =   2
                l(6) =   2
     Q(r) pseudized with  6 coefficients,  rinner =    1.300   1.300   1.300
                                                       1.300   1.300

     PseudoPot. # 2 for Cd read from file:
     /afs/slac.stanford.edu/u/if/mamunm/psp/gbrv1.5pbe/Cd.UPF
     MD5 check sum: 17164a7926edb8e0dc231208abae86a6
     Pseudo is Ultrasoft + core correction, Zval = 12.0
     Generated by new atomic code, or converted to UPF format
     Using radial grid of  889 points,  6 beta functions with:
                l(1) =   0
                l(2) =   0
                l(3) =   1
                l(4) =   1
                l(5) =   2
                l(6) =   2
     Q(r) pseudized with  6 coefficients,  rinner =    1.000   1.000   1.000
                                                       1.000   1.000

     vdW kernel table read from file vdW_kernel_table
     MD5 check sum: 095c7af220d748ca6e76c0b4c6cfb241

     atomic species   valence    mass     pseudopotential
        Ag1           19.00   107.86820     Ag( 1.00)
        Cd1           12.00   112.41400     Cd( 1.00)

     No symmetry found

   Cartesian axes

     site n.     atom                  positions (alat units)
         1           Ag1 tau(   1) = (   0.0000000   0.0000000  10.0000000  )
         2           Ag1 tau(   2) = (  -1.5003913   2.5987540  10.0000000  )
         3           Ag1 tau(   3) = (   1.5003913   2.5987540  10.0000000  )
         4           Cd1 tau(   4) = (   3.0007826   0.0000000  10.0000000  )
         5           Ag1 tau(   5) = (   3.0007826   1.7325027  12.4501288  )
         6           Ag1 tau(   6) = (   1.5003913   4.3312566  12.4501288  )
         7           Ag1 tau(   7) = (  -1.5003913   4.3312566  12.4501288  )
         8           Cd1 tau(   8) = (   0.0000000   1.7325027  12.4501288  )
         9           Ag1 tau(   9) = (   0.0000002   3.4746051  14.9628858  )
        10           Ag1 tau(  10) = (   1.5087081   0.8614492  14.9628794  )
        11           Ag1 tau(  11) = (   4.4928534   0.8614497  14.9628808  )
        12           Cd1 tau(  12) = (   3.0007859   3.4650090  15.1641087  )

     number of k points=    20  Fermi-Dirac smearing, width (Ry)=  0.0110
                       cart. coord. in units 2pi/alat
        k(    1) = (   0.0000000   0.0000000   0.0000000), wk =   0.0555556
        k(    2) = (   0.0000000   0.0320666   0.0000000), wk =   0.1111111
        k(    3) = (   0.0000000   0.0641333   0.0000000), wk =   0.1111111
        k(    4) = (   0.0000000  -0.0961999   0.0000000), wk =   0.0555556
        k(    5) = (   0.0277705   0.0160333   0.0000000), wk =   0.1111111
        k(    6) = (   0.0277705   0.0481000   0.0000000), wk =   0.1111111
        k(    7) = (   0.0277705   0.0801666   0.0000000), wk =   0.1111111
        k(    8) = (   0.0277705  -0.0801666   0.0000000), wk =   0.1111111
        k(    9) = (   0.0277705  -0.0481000   0.0000000), wk =   0.1111111
        k(   10) = (   0.0277705  -0.0160333   0.0000000), wk =   0.1111111
        k(   11) = (   0.0555411   0.0320666   0.0000000), wk =   0.1111111
        k(   12) = (   0.0555411   0.0641333   0.0000000), wk =   0.1111111
        k(   13) = (   0.0555411   0.0961999   0.0000000), wk =   0.1111111
        k(   14) = (   0.0555411  -0.0641333   0.0000000), wk =   0.1111111
        k(   15) = (   0.0555411  -0.0320666   0.0000000), wk =   0.1111111
        k(   16) = (   0.0555411   0.0000000   0.0000000), wk =   0.1111111
        k(   17) = (  -0.0833116  -0.0481000   0.0000000), wk =   0.0555556
        k(   18) = (  -0.0833116  -0.0160333   0.0000000), wk =   0.1111111
        k(   19) = (  -0.0833116   0.0160333   0.0000000), wk =   0.1111111
        k(   20) = (  -0.0833116  -0.1442999   0.0000000), wk =   0.0555556

     Largest allocated arrays     est. size (Mb)     dimensions
     Largest temporary arrays     est. size (Mb)     dimensions

     Initial potential from superposition of free atoms
     Check: negative starting charge=   -0.064961

     starting charge  200.99945, renormalised to  207.00000

[...]

     *
     * You are using vdW-DF for exchange-correlation in this calculation.
     * Please cite the following three references that made this development
     * possible:
     *
     *   M. Dion, H. Rydberg, E. Schroder, D. C. Langreth, and
     *   B. I. Lundqvist, Phys. Rev. Lett. 92, 246401 (2004).
     *
     *   T. Thonhauser, V. R. Cooper, S. Li, A. Puzder, P. Hyldgaard, and
     *   D. C. Langreth, Phys. Rev. B 76, 125112 (2007).
     *
     *   G. Roman-Perez and J. M. Soler, Phys. Rev. Lett. 103, 096102 (2009).
     *
     *
     * If you are using vdW-DF2, please also cite:
     *
     *   K. Lee, E. D. Murray, L. Kong, B. I. Lundqvist, and
     *   D. C. Langreth, Phys. Rev. B 82, 081101(R) (2010).
     *
     *
     * If you are calculating the stress with vdW-DF, please also cite:
     *
     *   R. Sabatini, E. Kucukbenli, B. Kolb, T. Thonhauser, and
     *   S. de Gironcoli, J. Phys.: Condens. Matter 24, 424209 (2012).
     *

     Carrying out vdW-DF run using the following parameters:

     Nqs =      20    Nr_points =    1024   r_max =   100.000
     q_mesh =
               0.00001000     0.04494208     0.09755937     0.15916263
               0.23128650     0.31572767     0.41458969     0.53033537
               0.66584808     0.82450364     1.01025438     1.22772762
               1.48234092     1.78043706     2.12944203     2.53805004
               3.01644009     3.57652955     4.23227104     5.00000000

     Gradients computed in reciprocal space

[...]

     Starting wfc are  144 randomized atomic wfcs

     Self-consistent Calculation

[...]

     total energy              =   -3018.15278562 Ry
     Harris-Foulkes estimate   =   -3018.15278675 Ry
     estimated scf accuracy    <       0.00000292 Ry

     iteration # 14     ecut=    36.75 Ry     beta=0.10
     Davidson diagonalization with overlap
     ethr =  1.41E-09,  avg # of iterations =  2.0

[...]

     negative rho (up, down):  6.688E-02 0.000E+00

     Adding external electric field

     Computed dipole along edir(3) :
        Dipole                0.0086 Ry au,          0.0220 Debye
        Dipole field          0.0000 Ry au

        Potential amp.       -0.0019 Ry
        Total length         45.8783 bohr

     End of self-consistent calculation

[...]

          k = 0.0555 0.0000 0.0000 ( 19721 PWs)   bands (ev):

[...]

          k =-0.0833-0.1443 0.0000 ( 19732 PWs)   bands (ev):

   -91.1416 -91.1400 -91.1384 -90.9228 -90.9212 -90.9196 -90.8843 -90.8826
   -90.8810 -54.6658 -54.6485 -54.6482 -54.6446 -54.6439 -54.6326 -54.6197
   -54.6112 -54.5951 -54.4567 -54.4435 -54.4382 -54.4320 -54.4197 -54.4184
   -54.4068 -54.4011 -54.3993 -54.3942 -54.3880 -54.3850 -54.3794 -54.3792
   -54.3588 -54.3464 -54.3437 -54.3398  -7.9079  -7.8641  -7.8476  -7.8348
    -7.8202  -7.7694  -7.7120  -7.7087  -7.6878  -7.6758  -7.6638  -7.6191
    -7.6142  -7.5892  -7.5804  -4.8213  -4.6788  -4.4264  -4.3080  -4.2167
    -4.1213  -4.0932  -4.0797  -3.9832  -3.8748  -3.8486  -3.8310  -3.7825
    -3.7786  -3.7572  -3.7179  -3.6828  -3.5704  -3.4928  -3.3478  -3.3299
    -3.2936  -3.2746  -3.2377  -3.1954  -3.1639  -3.1518  -3.1310  -3.1236
    -3.0861  -3.0294  -3.0156  -2.9869  -2.9725  -2.9511  -2.9454  -2.8961
    -2.8803  -2.8552  -2.8366  -2.7724  -2.7444  -2.6283  -2.5935  -2.4883
    -2.3173  -2.1875  -2.0131  -1.6895  -0.2411   0.2832   0.4440   0.5647
     1.3358   1.4705   3.0027   3.2651   3.4627   3.5342   5.4462   5.5991
     5.9438   6.0123   6.2110   6.2423   6.2996   6.3617   6.3837   6.5921
     6.6870   6.6966   7.4795   7.6630   7.7012   7.7282   7.7750   7.9097
     8.0012   8.0237   8.1568   8.4197   9.1102

     the Fermi energy is     1.1604 ev

!    total energy              =   -3018.15278223 Ry
     Harris-Foulkes estimate   =   -3018.15278602 Ry
     estimated scf accuracy    <       0.00000095 Ry

     The total energy is the sum of the following terms:

     one-electron contribution =  -20573.91693469 Ry
     hartree contribution      =   10302.23377384 Ry
     xc contribution           =    -393.12797680 Ry
     ewald contribution        =    7646.67941370 Ry
     electric field correction =       0.00000018 Ry
     smearing contrib. (-TS)   =      -0.02105846 Ry

     convergence has been achieved in  14 iterations

 BEEF-vdW xc energy contributions
           1 :   -341.919246109264
           2 :    310.632586390511
           3 :   -258.248115967315
           4 :    200.335008349463
           5 :   -151.135467731189
           6 :    118.373869909864
           7 :   -101.785636242927
           8 :    95.4149302172498
           9 :   -91.9042662130627
          10 :    86.2966705375612
          11 :   -77.5842844705015
          12 :    67.7533904967833
          13 :   -59.4873511083221
          14 :    54.1701861770078
          15 :   -51.2863489056390
          16 :    49.2169904615934
          17 :   -46.5765774750516
          18 :    43.0779288765936
          19 :   -39.4460938635971
          20 :    36.6331890989600
          21 :   -35.0201589967857
          22 :    34.1728573647645
          23 :   -33.2380710465920
          24 :    31.6019563736263
          25 :   -29.3118147606426
          26 :    26.9905225504062
          27 :   -25.3577556230823
          28 :    24.7257777243311
          29 :   -24.8173777490159
          30 :    24.9964921047594
          31 :   -32.9985858902043
          32 :   -24.0281951498827

     Forces acting on atoms (Ry/au):

     negative rho (up, down):  6.688E-02 0.000E+00
     atom    1 type  1   force =    -0.00000022   -0.00179219   -0.00339960
     atom    2 type  1   force =    -0.00155203    0.00089607   -0.00339958
     atom    3 type  1   force =     0.00155263    0.00089671   -0.00339907
     atom    4 type  2   force =    -0.00000334    0.00000092   -0.01464575
     atom    5 type  1   force =    -0.00000005    0.00238011    0.00687827
     atom    6 type  1   force =     0.00206134   -0.00119027    0.00687826
     atom    7 type  1   force =    -0.00205992   -0.00118964    0.00687843
     atom    8 type  2   force =    -0.00000087   -0.00000279    0.00604005
     atom    9 type  1   force =     0.00000064   -0.00033769   -0.00082312
     atom   10 type  1   force =    -0.00029163    0.00016945   -0.00082256
     atom   11 type  1   force =     0.00029357    0.00016860   -0.00082200
     atom   12 type  2   force =    -0.00000012    0.00000071    0.00063666

     Total force =     0.021377     Total SCF correction =     0.006711
     SCF correction compared to forces is large: reduce conv_thr to get better values

     entering subroutine stress ...

     negative rho (up, down):  6.688E-02 0.000E+00
          total   stress  (Ry/bohr**3)                   (kbar)     P=   -6.21
  -0.00006322  -0.00000000  -0.00000000         -9.30     -0.00     -0.00
  -0.00000000  -0.00006322  -0.00000000         -0.00     -9.30     -0.00
  -0.00000000  -0.00000000  -0.00000014         -0.00     -0.00     -0.02

 !ASE

     Writing output data file calc.save

     General routines

     Parallel routines

   This run was terminated on:  16:41:41  19Dec2018

   JOB DONE.
Job  /afs/slac/g/suncat/bin/suncat-tsmpirun -x LD_LIBRARY_PATH -wdir /scratch/qe773148_QEgkE pw.x -in pw.inp

TID   HOST_NAME   COMMAND_LINE            STATUS            TERMINATION_TIME
00000 suncat0234 pw.x -in pw.inp   Done                     12/19/2018 16:41:41
00001 suncat0234 pw.x -in pw.inp   Done                     12/19/2018 16:41:41
00002 suncat0234 pw.x -in pw.inp   Done                     12/19/2018 16:41:41
00003 suncat0234 pw.x -in pw.inp   Done                     12/19/2018 16:41:41
00004 suncat0234 pw.x -in pw.inp   Done                     12/19/2018 16:41:41
00005 suncat0234 pw.x -in pw.inp   Done                     12/19/2018 16:41:41
00006 suncat0234 pw.x -in pw.inp   Done                     12/19/2018 16:41:41
00007 suncat0234 pw.x -in pw.inp   Done                     12/19/2018 16:41:41
00008 suncat0233 pw.x -in pw.inp   Done                     12/19/2018 16:41:41
00009 suncat0233 pw.x -in pw.inp   Done                     12/19/2018 16:41:41
00010 suncat0233 pw.x -in pw.inp   Done                     12/19/2018 16:41:41
00011 suncat0233 pw.x -in pw.inp   Done                     12/19/2018 16:41:41
00012 suncat0233 pw.x -in pw.inp   Done                     12/19/2018 16:41:41
00013 suncat0233 pw.x -in pw.inp   Done                     12/19/2018 16:41:41
00014 suncat0233 pw.x -in pw.inp   Done                     12/19/2018 16:41:41
00015 suncat0233 pw.x -in pw.inp   Done                     12/19/2018 16:41:41
00016 suncat0232 pw.x -in pw.inp   Done                     12/19/2018 16:41:41
00017 suncat0232 pw.x -in pw.inp   Done                     12/19/2018 16:41:41
00018 suncat0232 pw.x -in pw.inp   Done                     12/19/2018 16:41:41
00019 suncat0232 pw.x -in pw.inp   Done                     12/19/2018 16:41:41
00020 suncat0232 pw.x -in pw.inp   Done                     12/19/2018 16:41:41
00021 suncat0232 pw.x -in pw.inp   Done                     12/19/2018 16:41:41
00022 suncat0232 pw.x -in pw.inp   Done                     12/19/2018 16:41:41
00023 suncat0232 pw.x -in pw.inp   Done                     12/19/2018 16:41:41
00024 suncat0231 pw.x -in pw.inp   Done                     12/19/2018 16:41:41
00025 suncat0231 pw.x -in pw.inp   Done                     12/19/2018 16:41:41
00026 suncat0231 pw.x -in pw.inp   Done                     12/19/2018 16:41:41
00027 suncat0231 pw.x -in pw.inp   Done                     12/19/2018 16:41:41
00028 suncat0231 pw.x -in pw.inp   Done                     12/19/2018 16:41:41
00029 suncat0231 pw.x -in pw.inp   Done                     12/19/2018 16:41:41
00030 suncat0231 pw.x -in pw.inp   Done                     12/19/2018 16:41:41
00031 suncat0231 pw.x -in pw.inp   Done                     12/19/2018 16:41:41
00032 suncat0230 pw.x -in pw.inp   Done                     12/19/2018 16:41:41
00033 suncat0230 pw.x -in pw.inp   Done                     12/19/2018 16:41:41
00034 suncat0230 pw.x -in pw.inp   Done                     12/19/2018 16:41:41
00035 suncat0230 pw.x -in pw.inp   Done                     12/19/2018 16:41:41
00036 suncat0230 pw.x -in pw.inp   Done                     12/19/2018 16:41:41
00037 suncat0230 pw.x -in pw.inp   Done                     12/19/2018 16:41:41
00038 suncat0230 pw.x -in pw.inp   Done                     12/19/2018 16:41:41
00039 suncat0230 pw.x -in pw.inp   Done                     12/19/2018 16:41:41
00040 suncat0229 pw.x -in pw.inp   Done                     12/19/2018 16:41:41
00041 suncat0229 pw.x -in pw.inp   Done                     12/19/2018 16:41:41
00042 suncat0229 pw.x -in pw.inp   Done                     12/19/2018 16:41:41
00043 suncat0229 pw.x -in pw.inp   Done                     12/19/2018 16:41:41
00044 suncat0229 pw.x -in pw.inp   Done                     12/19/2018 16:41:41
00045 suncat0229 pw.x -in pw.inp   Done                     12/19/2018 16:41:41
00046 suncat0229 pw.x -in pw.inp   Done                     12/19/2018 16:41:41
00047 suncat0229 pw.x -in pw.inp   Done                     12/19/2018 16:41:41
00048 suncat0228 pw.x -in pw.inp   Done                     12/19/2018 16:41:41
00049 suncat0228 pw.x -in pw.inp   Done                     12/19/2018 16:41:41
00050 suncat0228 pw.x -in pw.inp   Done                     12/19/2018 16:41:41
00051 suncat0228 pw.x -in pw.inp   Done                     12/19/2018 16:41:41
00052 suncat0228 pw.x -in pw.inp   Done                     12/19/2018 16:41:41
00053 suncat0228 pw.x -in pw.inp   Done                     12/19/2018 16:41:41
00054 suncat0228 pw.x -in pw.inp   Done                     12/19/2018 16:41:41
00055 suncat0228 pw.x -in pw.inp   Done                     12/19/2018 16:41:41
00056 suncat0227 pw.x -in pw.inp   Done                     12/19/2018 16:41:41
00057 suncat0227 pw.x -in pw.inp   Done                     12/19/2018 16:41:41
00058 suncat0227 pw.x -in pw.inp   Done                     12/19/2018 16:41:41
00059 suncat0227 pw.x -in pw.inp   Done                     12/19/2018 16:41:41
00060 suncat0227 pw.x -in pw.inp   Done                     12/19/2018 16:41:41
00061 suncat0227 pw.x -in pw.inp   Done                     12/19/2018 16:41:41
00062 suncat0227 pw.x -in pw.inp   Done                     12/19/2018 16:41:41
00063 suncat0227 pw.x -in pw.inp   Done                     12/19/2018 16:41:41