     Program PWSCF v.5.1rc2 (svn rev. 11289) starts on 19Dec2018 at 19:23:27

     Current dimensions of program PWSCF are:
     Max number of different atomic species (ntypx) = 10
     Max number of k-points (npk) =  40000
     Max angular momentum in pseudopotentials (lmaxx) =  3
     Presently stress not available with electric field

     IMPORTANT: XC functional enforced from input :
     Exchange-correlation      = BEEF-VDW ( 1  4 27 13 2)
     Any further DFT definition will be discarded
     Please, verify this is what you really want

     Subspace diagonalization in iterative solution of the eigenvalue problem:
     a serial algorithm will be used

     bravais-lattice index     =            0
     lattice parameter (alat)  =       1.8897  a.u.
     unit-cell volume          =    4959.9049 (a.u.)^3
     number of atoms/cell      =           12
     number of atomic types    =            2
     number of electrons       =       147.00
     number of Kohn-Sham states=          103
     kinetic-energy cutoff     =      36.7493  Ry
     charge density cutoff     =     367.4932  Ry
     convergence threshold     =      1.0E-06
     mixing beta               =       0.1000
     number of iterations used =           10  plain     mixing
     Exchange-correlation      = BEEF-VDW ( 1  4 27 13 2)
     nstep                     =           50

     celldm(1)=   1.889726  celldm(2)=   0.000000  celldm(3)=   0.000000
     celldm(4)=   0.000000  celldm(5)=   0.000000  celldm(6)=   0.000000

     crystal axes: (cart. coord. in units of alat)
               a(1) = (   5.852423   0.000000   0.000000 )
               a(2) = (  -2.926211   5.068347   0.000000 )
               a(3) = (   0.000000   0.000000  24.778483 )

     reciprocal axes: (cart. coord. in units 2 pi/alat)
               b(1) = (  0.170869  0.098651  0.000000 )
               b(2) = (  0.000000  0.197303  0.000000 )
               b(3) = (  0.000000  0.000000  0.040358 )

     PseudoPot. # 1 for Au read from file:
     /afs/slac.stanford.edu/u/if/mamunm/psp/gbrv1.5pbe/Au.UPF
     MD5 check sum: 9d7f43293ad2c663164586bc4b293ffc
     Pseudo is Ultrasoft + core correction, Zval = 11.0
     Generated by new atomic code, or converted to UPF format
     Using radial grid of  985 points,  7 beta functions with:
                l(1) =   0
                l(2) =   0
                l(3) =   1
                l(4) =   1
                l(5) =   2
                l(6) =   2
                l(7) =   3
     Q(r) pseudized with  6 coefficients,  rinner =    1.900   1.900   1.900
                                                       1.900   1.900   1.900
                                                       1.900

     PseudoPot. # 2 for Pd read from file:
     /afs/slac.stanford.edu/u/if/mamunm/psp/gbrv1.5pbe/Pd.UPF
     MD5 check sum: 2d733d2bc2cbfd217af676df1668a4bc
     Pseudo is Ultrasoft + core correction, Zval = 16.0
     Generated by new atomic code, or converted to UPF format
     Using radial grid of  887 points,  6 beta functions with:
                l(1) =   0
                l(2) =   0
                l(3) =   1
                l(4) =   1
                l(5) =   2
                l(6) =   2
     Q(r) pseudized with  8 coefficients,  rinner =    1.130   1.130   1.130
                                                       1.130   1.130

     vdW kernel table read from file vdW_kernel_table
     MD5 check sum: 095c7af220d748ca6e76c0b4c6cfb241

     atomic species   valence    mass     pseudopotential
        Au1           11.00   196.96657     Au( 1.00)
        Pd1           16.00   106.42000     Pd( 1.00)

     No symmetry found

   Cartesian axes

     site n.     atom                  positions (alat units)
         1           Au1 tau(   1) = (   0.0000000   0.0000000  10.0000000  )
         2           Au1 tau(   2) = (  -1.4631057   2.5341734  10.0000000  )
         3           Au1 tau(   3) = (   1.4631057   2.5341734  10.0000000  )
         4           Pd1 tau(   4) = (   2.9262114   0.0000000  10.0000000  )
         5           Au1 tau(   5) = (   2.9262114   1.6894490  12.3892416  )
         6           Au1 tau(   6) = (   1.4631057   4.2236224  12.3892416  )
         7           Au1 tau(   7) = (  -1.4631057   4.2236224  12.3892416  )
         8           Pd1 tau(   8) = (   0.0000000   1.6894490  12.3892416  )
         9           Au1 tau(   9) = (  -0.0000000   3.3788979  14.7784833  )
        10           Au1 tau(  10) = (   1.4631057   0.8447245  14.7784833  )
        11           Au1 tau(  11) = (   4.3893172   0.8447245  14.7784833  )
        12           Pd1 tau(  12) = (   2.9262114   3.3788979  14.7784833  )

     number of k points=    20  Fermi-Dirac smearing, width (Ry)=  0.0110
                       cart. coord. in units 2pi/alat
        k(    1) = (   0.0000000   0.0000000   0.0000000), wk =   0.0555556
        k(    2) = (   0.0000000   0.0328838   0.0000000), wk =   0.1111111
        k(    3) = (   0.0000000   0.0657677   0.0000000), wk =   0.1111111
        k(    4) = (   0.0000000  -0.0986515   0.0000000), wk =   0.0555556
        k(    5) = (   0.0284782   0.0164419   0.0000000), wk =   0.1111111
        k(    6) = (   0.0284782   0.0493257   0.0000000), wk =   0.1111111
        k(    7) = (   0.0284782   0.0822096   0.0000000), wk =   0.1111111
        k(    8) = (   0.0284782  -0.0822096   0.0000000), wk =   0.1111111
        k(    9) = (   0.0284782  -0.0493257   0.0000000), wk =   0.1111111
        k(   10) = (   0.0284782  -0.0164419   0.0000000), wk =   0.1111111
        k(   11) = (   0.0569565   0.0328838   0.0000000), wk =   0.1111111
        k(   12) = (   0.0569565   0.0657677   0.0000000), wk =   0.1111111
        k(   13) = (   0.0569565   0.0986515   0.0000000), wk =   0.1111111
        k(   14) = (   0.0569565  -0.0657677   0.0000000), wk =   0.1111111
        k(   15) = (   0.0569565  -0.0328838   0.0000000), wk =   0.1111111
        k(   16) = (   0.0569565   0.0000000   0.0000000), wk =   0.1111111
        k(   17) = (  -0.0854347  -0.0493257   0.0000000), wk =   0.0555556
        k(   18) = (  -0.0854347  -0.0164419   0.0000000), wk =   0.1111111
        k(   19) = (  -0.0854347   0.0164419   0.0000000), wk =   0.1111111
        k(   20) = (  -0.0854347  -0.1479772   0.0000000), wk =   0.0555556

     Largest allocated arrays     est. size (Mb)     dimensions
     Largest temporary arrays     est. size (Mb)     dimensions

     Check: negative/imaginary core charge=   -0.000002    0.000000

     Initial potential from superposition of free atoms
     Check: negative starting charge=   -0.223276

     starting charge  145.49888, renormalised to  147.00000

     negative rho (up, down):  2.256E-01 0.000E+00

     *
     * You are using vdW-DF for exchange-correlation in this calculation.
     * Please cite the following three references that made this development
     * possible:
     *
     *   M. Dion, H. Rydberg, E. Schroder, D. C. Langreth, and
     *   B. I. Lundqvist, Phys. Rev. Lett. 92, 246401 (2004).
     *
     *   T. Thonhauser, V. R. Cooper, S. Li, A. Puzder, P. Hyldgaard, and
     *   D. C. Langreth, Phys. Rev. B 76, 125112 (2007).
     *
     *   G. Roman-Perez and J. M. Soler, Phys. Rev. Lett. 103, 096102 (2009).
     *
     *
     * If you are using vdW-DF2, please also cite:
     *
     *   K. Lee, E. D. Murray, L. Kong, B. I. Lundqvist, and
     *   D. C. Langreth, Phys. Rev. B 82, 081101(R) (2010).
     *
     *
     * If you are calculating the stress with vdW-DF, please also cite:
     *
     *   R. Sabatini, E. Kucukbenli, B. Kolb, T. Thonhauser, and
     *   S. de Gironcoli, J. Phys.: Condens. Matter 24, 424209 (2012).
     *

     Carrying out vdW-DF run using the following parameters:

     Nqs =      20    Nr_points =    1024   r_max =   100.000
     q_mesh =
               0.00001000     0.04494208     0.09755937     0.15916263
               0.23128650     0.31572767     0.41458969     0.53033537
               0.66584808     0.82450364     1.01025438     1.22772762
               1.48234092     1.78043706     2.12944203     2.53805004
               3.01644009     3.57652955     4.23227104     5.00000000

     Gradients computed in reciprocal space

     Adding external electric field

     Computed dipole along edir(3) :
        Dipole                0.0000 Ry au,          0.0000 Debye
        Dipole field          0.0000 Ry au

        Potential amp.       -0.0000 Ry
        Total length         45.6539 bohr

     Starting wfc are  117 randomized atomic wfcs

     Self-consistent Calculation

     iteration #  1     ecut=    36.75 Ry     beta=0.10
     Davidson diagonalization with overlap
     ethr =  1.00E-02,  avg # of iterations =  7.8

[...]

     total energy              =   -1649.81217882 Ry
     Harris-Foulkes estimate   =   -1650.07693176 Ry
     estimated scf accuracy    <       1.69337586 Ry

[...]

     End of self-consistent calculation

          k = 0.0000 0.0000 0.0000 ( 18763 PWs)   bands (ev):

   -49.0753 -49.0433 -49.0433 -48.9763 -48.9763 -48.9763 -48.9763 -48.8718
   -48.8716  -7.2766  -5.9598  -5.6655  -5.3699  -5.2889  -5.2889  -5.1208
    -5.0897  -5.0897  -4.9739  -4.8355  -4.8355  -4.7633  -4.7169  -4.7169
    -4.0807  -3.7662  -3.7662  -3.6909  -3.6909  -3.5080  -3.3805  -3.3600
    -3.2043  -3.1844  -3.1844  -3.1115  -3.1115  -2.9354  -2.9354  -2.7844
    -2.7844  -2.7695  -2.7695  -2.3814  -2.1736  -2.1736  -2.1306  -2.1306
    -1.8642  -1.8642  -1.5599  -1.4485  -1.4485  -1.3906  -1.3449  -1.2606
    -1.1083  -1.0567  -0.9091  -0.9091  -0.7201  -0.7201  -0.6396  -0.5536
    -0.5536  -0.4419  -0.4419  -0.3552  -0.3552  -0.2661  -0.2074  -0.2074
     1.1746   1.3801   1.5221   1.5221   2.2559   2.2559   2.5027   2.5231
     2.5231   2.7407   4.1039   4.1039   4.5608   4.8548   4.8548   5.0167
     5.1679   5.7713   5.7713   5.8630   6.0606   6.4080   6.7795   7.1111
     8.5532   8.7801   8.9299   8.9300   9.2342   9.2342   9.2534

[...]

          k =-0.0854-0.0493 0.0000 ( 18624 PWs)   bands (ev):

[...]

     the Fermi energy is     0.2499 ev

!    total energy              =   -1649.73690236 Ry
     Harris-Foulkes estimate   =   -1649.73689529 Ry
     estimated scf accuracy    <       0.00000041 Ry

     The total energy is the sum of the following terms:

     one-electron contribution =  -10545.38080995 Ry
     hartree contribution      =    5357.57810279 Ry
     xc contribution           =    -673.78922197 Ry
     ewald contribution        =    4211.87931525 Ry
     electric field correction =       0.00000000 Ry
     smearing contrib. (-TS)   =      -0.02428847 Ry

     convergence has been achieved in  14 iterations

 BEEF-vdW xc energy contributions
           1 :   -599.633178532082
           2 :    556.127931545783
           3 :   -478.896112498365
           4 :    383.822310592871
           5 :   -287.707625978099
           6 :    203.676840584152
           7 :   -138.647986850359
           8 :    93.2696595546890
           9 :   -63.8494115566185
          10 :    45.1203422726288
          11 :   -32.6023470549151
          12 :    23.7212738184807
          13 :   -17.6085897395253
[...]
     Pseudo is Ultrasoft + core correction, Zval = 11.0
     Generated by new atomic code, or converted to UPF format
     Using radial grid of  985 points,  7 beta functions with:
                l(1) =   0
                l(2) =   0
                l(3) =   1
                l(4) =   1
                l(5) =   2
                l(6) =   2
                l(7) =   3
     Q(r) pseudized with  6 coefficients,  rinner =    1.900   1.900   1.900
                                                       1.900   1.900   1.900
                                                       1.900

     PseudoPot. # 2 for Pd read from file:
     /afs/slac.stanford.edu/u/if/mamunm/psp/gbrv1.5pbe/Pd.UPF
     MD5 check sum: 2d733d2bc2cbfd217af676df1668a4bc
     Pseudo is Ultrasoft + core correction, Zval = 16.0
     Generated by new atomic code, or converted to UPF format
     Using radial grid of  887 points,  6 beta functions with:
                l(1) =   0
                l(2) =   0
                l(3) =   1
                l(4) =   1
                l(5) =   2
                l(6) =   2
     Q(r) pseudized with  8 coefficients,  rinner =    1.130   1.130   1.130
                                                       1.130   1.130

     vdW kernel table read from file vdW_kernel_table
     MD5 check sum: 095c7af220d748ca6e76c0b4c6cfb241

     atomic species   valence    mass     pseudopotential
        Au1           11.00   196.96657     Au( 1.00)
        Pd1           16.00   106.42000     Pd( 1.00)

     No symmetry found

   Cartesian axes

     site n.     atom                  positions (alat units)
         1           Au1 tau(   1) = (   0.0000000   0.0000000  10.0000000  )
         2           Au1 tau(   2) = (  -1.4631057   2.5341734  10.0000000  )
         3           Au1 tau(   3) = (   1.4631057   2.5341734  10.0000000  )
         4           Pd1 tau(   4) = (   2.9262114   0.0000000  10.0000000  )
         5           Au1 tau(   5) = (   2.9262114   1.6894490  12.3892416  )
         6           Au1 tau(   6) = (   1.4631057   4.2236224  12.3892416  )
         7           Au1 tau(   7) = (  -1.4631057   4.2236224  12.3892416  )
         8           Pd1 tau(   8) = (   0.0000000   1.6894490  12.3892416  )
         9           Au1 tau(   9) = (  -0.0000080   3.3672992  14.8186453  )
        10           Au1 tau(  10) = (   1.4530545   0.8505269  14.8186468  )
        11           Au1 tau(  11) = (   4.3993565   0.8505255  14.8186429  )
        12           Pd1 tau(  12) = (   2.9262006   3.3788876  14.7308310  )

     number of k points=    20  Fermi-Dirac smearing, width (Ry)=  0.0110
                       cart. coord. in units 2pi/alat
        k(    1) = (   0.0000000   0.0000000   0.0000000), wk =   0.0555556
        k(    2) = (   0.0000000   0.0328838   0.0000000), wk =   0.1111111
        k(    3) = (   0.0000000   0.0657677   0.0000000), wk =   0.1111111
        k(    4) = (   0.0000000  -0.0986515   0.0000000), wk =   0.0555556
        k(    5) = (   0.0284782   0.0164419   0.0000000), wk =   0.1111111
        k(    6) = (   0.0284782   0.0493257   0.0000000), wk =   0.1111111
        k(    7) = (   0.0284782   0.0822096   0.0000000), wk =   0.1111111
        k(    8) = (   0.0284782  -0.0822096   0.0000000), wk =   0.1111111
        k(    9) = (   0.0284782  -0.0493257   0.0000000), wk =   0.1111111
        k(   10) = (   0.0284782  -0.0164419   0.0000000), wk =   0.1111111
        k(   11) = (   0.0569565   0.0328838   0.0000000), wk =   0.1111111
        k(   12) = (   0.0569565   0.0657677   0.0000000), wk =   0.1111111
        k(   13) = (   0.0569565   0.0986515   0.0000000), wk =   0.1111111
        k(   14) = (   0.0569565  -0.0657677   0.0000000), wk =   0.1111111
        k(   15) = (   0.0569565  -0.0328838   0.0000000), wk =   0.1111111
        k(   16) = (   0.0569565   0.0000000   0.0000000), wk =   0.1111111
        k(   17) = (  -0.0854347  -0.0493257   0.0000000), wk =   0.0555556
        k(   18) = (  -0.0854347  -0.0164419   0.0000000), wk =   0.1111111
        k(   19) = (  -0.0854347   0.0164419   0.0000000), wk =   0.1111111
        k(   20) = (  -0.0854347  -0.1479772   0.0000000), wk =   0.0555556

     Largest allocated arrays     est. size (Mb)     dimensions
     Largest temporary arrays     est. size (Mb)     dimensions

     Check: negative/imaginary core charge=   -0.000002    0.000000

     Initial potential from superposition of free atoms
     Check: negative starting charge=   -0.223160

     starting charge  145.49888, renormalised to  147.00000

[...]

     *
     * You are using vdW-DF for exchange-correlation in this calculation.
     * Please cite the following three references that made this development
     * possible:
     *
     *   M. Dion, H. Rydberg, E. Schroder, D. C. Langreth, and
     *   B. I. Lundqvist, Phys. Rev. Lett. 92, 246401 (2004).
     *
     *   T. Thonhauser, V. R. Cooper, S. Li, A. Puzder, P. Hyldgaard, and
     *   D. C. Langreth, Phys. Rev. B 76, 125112 (2007).
     *
     *   G. Roman-Perez and J. M. Soler, Phys. Rev. Lett. 103, 096102 (2009).
     *
     *
     * If you are using vdW-DF2, please also cite:
     *
     *   K. Lee, E. D. Murray, L. Kong, B. I. Lundqvist, and
     *   D. C. Langreth, Phys. Rev. B 82, 081101(R) (2010).
     *
     *
     * If you are calculating the stress with vdW-DF, please also cite:
     *
     *   R. Sabatini, E. Kucukbenli, B. Kolb, T. Thonhauser, and
     *   S. de Gironcoli, J. Phys.: Condens. Matter 24, 424209 (2012).
     *

     Carrying out vdW-DF run using the following parameters:

     Nqs =      20    Nr_points =    1024   r_max =   100.000
     q_mesh =
               0.00001000     0.04494208     0.09755937     0.15916263
               0.23128650     0.31572767     0.41458969     0.53033537
               0.66584808     0.82450364     1.01025438     1.22772762
               1.48234092     1.78043706     2.12944203     2.53805004
               3.01644009     3.57652955     4.23227104     5.00000000

     Gradients computed in reciprocal space

[...]

     Starting wfc are  117 randomized atomic wfcs

     Self-consistent Calculation

[...]

     total energy              =   -1649.75595320 Ry
     Harris-Foulkes estimate   =   -1649.75595242 Ry
     estimated scf accuracy    <       0.00000161 Ry

     iteration # 15     ecut=    36.75 Ry     beta=0.10
     Davidson diagonalization with overlap
     ethr =  1.09E-09,  avg # of iterations =  3.0

[...]

     negative rho (up, down):  2.316E-01 0.000E+00

     Adding external electric field

     Computed dipole along edir(3) :
        Dipole               -0.0040 Ry au,         -0.0101 Debye
        Dipole field         -0.0000 Ry au

        Potential amp.        0.0009 Ry
        Total length         45.6539 bohr

     End of self-consistent calculation

[...]

          k = 0.0570 0.0000 0.0000 ( 18665 PWs)   bands (ev):

[...]

          k =-0.0854-0.1480 0.0000 ( 18624 PWs)   bands (ev):

   -49.0622 -49.0358 -49.0356 -49.0143 -49.0140 -48.9879 -48.9877 -48.9242
   -48.8835  -5.9728  -5.6760  -4.9570  -4.7784  -4.7621  -4.7125  -4.6243
    -4.5225  -4.4523  -4.4117  -4.3398  -4.3175  -4.0512  -4.0313  -3.9748
    -3.9133  -3.9010  -3.8549  -3.7810  -3.7019  -3.4642  -3.3474  -3.3278
    -3.3095  -3.2960  -3.2374  -3.2371  -3.2010  -3.1508  -3.0690  -3.0394
    -3.0174  -2.9840  -2.9661  -2.8680  -2.8446  -2.7389  -2.6588  -2.6369
    -2.5517  -2.5320  -2.3803  -2.3097  -2.3059  -1.9987  -1.8223  -1.8113
    -1.6855  -1.5677  -1.5248  -1.4879  -1.2798  -1.1723  -1.1657  -1.1450
    -1.0848  -1.0802  -1.0487  -0.8765  -0.6705  -0.6663  -0.6504  -0.5807
    -0.2498   0.8165   0.9638   1.0872   1.7240   1.8718   2.5008   3.8257
     4.0277   4.0571   4.4667   5.8947   5.9121   6.5132   6.5764   6.5871
     6.6229   6.6251   6.9791   7.0583   7.0987   7.3952   7.4844   7.7969
     7.8191   8.0616   8.1444   8.4166   8.6160   8.7178   8.8768

     the Fermi energy is     0.2378 ev

!    total energy              =   -1649.75595703 Ry
     Harris-Foulkes estimate   =   -1649.75595392 Ry
     estimated scf accuracy    <       0.00000054 Ry

     The total energy is the sum of the following terms:

     one-electron contribution =  -10527.40704091 Ry
     hartree contribution      =    5348.58758629 Ry
     xc contribution           =    -673.78484514 Ry
     ewald contribution        =    4202.87312598 Ry
     electric field correction =       0.00000004 Ry
     smearing contrib. (-TS)   =      -0.02478329 Ry

     convergence has been achieved in  15 iterations

 BEEF-vdW xc energy contributions
           1 :   -600.144783479840
           2 :    556.623050584198
           3 :   -479.370441568200
           4 :    384.287664610290
           5 :   -288.186268175949
           6 :    204.188812209785
           7 :   -139.198579156072
           8 :    93.8447332502139
           9 :   -64.4220362543721
          10 :    45.6650719590461
          11 :   -33.1094756385500
          12 :    24.2026699676751
          13 :   -18.0914421951891
          14 :    14.6288922959277
          15 :   -13.3909414215608
          16 :    13.2641550106018
          17 :   -12.7309559464554
          18 :    10.5534543556356
          19 :   -6.39413824253688
          20 :   0.996470569769940
          21 :    4.16722139095987
          22 :   -7.59148198278672
          23 :    8.41368615808142
          24 :   -6.74957497375726
          25 :    3.55817317022309
          26 :  -0.152916678647443
          27 :   -2.37229660846606
          28 :    3.52618196637991
          29 :   -3.46963784738659
          30 :    2.76465566960997
          31 :   -48.8829174136442
          32 :   -35.7017599978617

     Forces acting on atoms (Ry/au):

     negative rho (up, down):  2.316E-01 0.000E+00
     atom    1 type  1   force =     0.00000047    0.00328043   -0.00598114
     atom    2 type  1   force =     0.00284258   -0.00164353   -0.00598554
     atom    3 type  1   force =    -0.00284285   -0.00164086   -0.00598156
     atom    4 type  2   force =     0.00000018    0.00000061    0.00705029
     atom    5 type  1   force =    -0.00000507   -0.00370382    0.00190689
     atom    6 type  1   force =    -0.00320184    0.00185281    0.00190814
     atom    7 type  1   force =     0.00320544    0.00185245    0.00190584
     atom    8 type  2   force =     0.00000001    0.00000064    0.00324366
     atom    9 type  1   force =    -0.00000056    0.00157828    0.00056712
     atom   10 type  1   force =     0.00136764   -0.00078985    0.00056242
     atom   11 type  1   force =    -0.00136694   -0.00078986    0.00056130
     atom   12 type  2   force =     0.00000094    0.00000270    0.00024258

     Total force =     0.016138     Total SCF correction =     0.001998
     SCF correction compared to forces is large: reduce conv_thr to get better values

     entering subroutine stress ...

     negative rho (up, down):  2.316E-01 0.000E+00
          total   stress  (Ry/bohr**3)                   (kbar)     P=   -9.83
  -0.00010195  -0.00000000   0.00000000        -15.00     -0.00      0.00
  -0.00000000  -0.00010195   0.00000000         -0.00    -15.00      0.00
   0.00000000   0.00000000   0.00000353          0.00      0.00      0.52

 !ASE

     Writing output data file calc.save

     General routines

     Parallel routines

   This run was terminated on:  20:12:19  19Dec2018

   JOB DONE.
Job  /afs/slac/g/suncat/bin/suncat-tsmpirun -x LD_LIBRARY_PATH -wdir /scratch/qe773375_hWKsn pw.x -in pw.inp

TID   HOST_NAME   COMMAND_LINE            STATUS            TERMINATION_TIME
00000 suncat0004 pw.x -in pw.inp   Done                     12/19/2018 20:12:19
00001 suncat0004 pw.x -in pw.inp   Done                     12/19/2018 20:12:19
00002 suncat0004 pw.x -in pw.inp   Done                     12/19/2018 20:12:19
00003 suncat0004 pw.x -in pw.inp   Done                     12/19/2018 20:12:19
00004 suncat0004 pw.x -in pw.inp   Done                     12/19/2018 20:12:19
00005 suncat0004 pw.x -in pw.inp   Done                     12/19/2018 20:12:19
00006 suncat0004 pw.x -in pw.inp   Done                     12/19/2018 20:12:19
00007 suncat0004 pw.x -in pw.inp   Done                     12/19/2018 20:12:19
00008 suncat0187 pw.x -in pw.inp   Done                     12/19/2018 20:12:19
00009 suncat0187 pw.x -in pw.inp   Done                     12/19/2018 20:12:19
00010 suncat0187 pw.x -in pw.inp   Done                     12/19/2018 20:12:19
00011 suncat0187 pw.x -in pw.inp   Done                     12/19/2018 20:12:19
00012 suncat0187 pw.x -in pw.inp   Done                     12/19/2018 20:12:19
00013 suncat0187 pw.x -in pw.inp   Done                     12/19/2018 20:12:19
00014 suncat0187 pw.x -in pw.inp   Done                     12/19/2018 20:12:19
00015 suncat0187 pw.x -in pw.inp   Done                     12/19/2018 20:12:19
00016 suncat0186 pw.x -in pw.inp   Done                     12/19/2018 20:12:19
00017 suncat0186 pw.x -in pw.inp   Done                     12/19/2018 20:12:19
00018 suncat0186 pw.x -in pw.inp   Done                     12/19/2018 20:12:19
00019 suncat0186 pw.x -in pw.inp   Done                     12/19/2018 20:12:19
00020 suncat0186 pw.x -in pw.inp   Done                     12/19/2018 20:12:19
00021 suncat0186 pw.x -in pw.inp   Done                     12/19/2018 20:12:19
00022 suncat0186 pw.x -in pw.inp   Done                     12/19/2018 20:12:19
00023 suncat0186 pw.x -in pw.inp   Done                     12/19/2018 20:12:19
00024 suncat0185 pw.x -in pw.inp   Done                     12/19/2018 20:12:19
00025 suncat0185 pw.x -in pw.inp   Done                     12/19/2018 20:12:19
00026 suncat0185 pw.x -in pw.inp   Done                     12/19/2018 20:12:19
00027 suncat0185 pw.x -in pw.inp   Done                     12/19/2018 20:12:19
00028 suncat0185 pw.x -in pw.inp   Done                     12/19/2018 20:12:19
00029 suncat0185 pw.x -in pw.inp   Done                     12/19/2018 20:12:19
00030 suncat0185 pw.x -in pw.inp   Done                     12/19/2018 20:12:19
00031 suncat0185 pw.x -in pw.inp   Done                     12/19/2018 20:12:19
00032 suncat0184 pw.x -in pw.inp   Done                     12/19/2018 20:12:19
00033 suncat0184 pw.x -in pw.inp   Done                     12/19/2018 20:12:19
00034 suncat0184 pw.x -in pw.inp   Done                     12/19/2018 20:12:19
00035 suncat0184 pw.x -in pw.inp   Done                     12/19/2018 20:12:19
00036 suncat0184 pw.x -in pw.inp   Done                     12/19/2018 20:12:19
00037 suncat0184 pw.x -in pw.inp   Done                     12/19/2018 20:12:19
00038 suncat0184 pw.x -in pw.inp   Done                     12/19/2018 20:12:19
00039 suncat0184 pw.x -in pw.inp   Done                     12/19/2018 20:12:19
00040 suncat0183 pw.x -in pw.inp   Done                     12/19/2018 20:12:19
00041 suncat0183 pw.x -in pw.inp   Done                     12/19/2018 20:12:19
00042 suncat0183 pw.x -in pw.inp   Done                     12/19/2018 20:12:19
00043 suncat0183 pw.x -in pw.inp   Done                     12/19/2018 20:12:19
00044 suncat0183 pw.x -in pw.inp   Done                     12/19/2018 20:12:19
00045 suncat0183 pw.x -in pw.inp   Done                     12/19/2018 20:12:19
00046 suncat0183 pw.x -in pw.inp   Done                     12/19/2018 20:12:19
00047 suncat0183 pw.x -in pw.inp   Done                     12/19/2018 20:12:19
00048 suncat0182 pw.x -in pw.inp   Done                     12/19/2018 20:12:19
00049 suncat0182 pw.x -in pw.inp   Done                     12/19/2018 20:12:19
00050 suncat0182 pw.x -in pw.inp   Done                     12/19/2018 20:12:19
00051 suncat0182 pw.x -in pw.inp   Done                     12/19/2018 20:12:19
00052 suncat0182 pw.x -in pw.inp   Done                     12/19/2018 20:12:19
00053 suncat0182 pw.x -in pw.inp   Done                     12/19/2018 20:12:19
00054 suncat0182 pw.x -in pw.inp   Done                     12/19/2018 20:12:19
00055 suncat0182 pw.x -in pw.inp   Done                     12/19/2018 20:12:19
00056 suncat0181 pw.x -in pw.inp   Done                     12/19/2018 20:12:19
00057 suncat0181 pw.x -in pw.inp   Done                     12/19/2018 20:12:19
00058 suncat0181 pw.x -in pw.inp   Done                     12/19/2018 20:12:19
00059 suncat0181 pw.x -in pw.inp   Done                     12/19/2018 20:12:19
00060 suncat0181 pw.x -in pw.inp   Done                     12/19/2018 20:12:19
00061 suncat0181 pw.x -in pw.inp   Done                     12/19/2018 20:12:19
00062 suncat0181 pw.x -in pw.inp   Done                     12/19/2018 20:12:19
00063 suncat0181 pw.x -in pw.inp   Done                     12/19/2018 20:12:19