     Program PWSCF v.5.1rc2 (svn rev. 11289) starts on 30Dec2018 at  9:44:55

     Current dimensions of program PWSCF are:
     Max number of different atomic species (ntypx) = 10
     Max number of k-points (npk) =  40000
     Max angular momentum in pseudopotentials (lmaxx) =  3
     Presently stress not available with electric field

     IMPORTANT: XC functional enforced from input :
     Exchange-correlation      = BEEF-VDW ( 1  4 27 13 2)
     Any further DFT definition will be discarded
     Please, verify this is what you really want

     Subspace diagonalization in iterative solution of the eigenvalue problem:
     a serial algorithm will be used

     bravais-lattice index     =            0
     lattice parameter (alat)  =       1.8897  a.u.
     unit-cell volume          =    6643.1471 (a.u.)^3
     number of atoms/cell      =           12
     number of atomic types    =            2
     number of electrons       =       174.00
     number of Kohn-Sham states=          117
     kinetic-energy cutoff     =      36.7493  Ry
     charge density cutoff     =     367.4932  Ry
     convergence threshold     =      1.0E-06
     mixing beta               =       0.1000
     number of iterations used =           10  plain     mixing
     Exchange-correlation      = BEEF-VDW ( 1  4 27 13 2)
     nstep                     =           50

     celldm(1)=   1.889726  celldm(2)=   0.000000  celldm(3)=   0.000000
     celldm(4)=   0.000000  celldm(5)=   0.000000  celldm(6)=   0.000000

     crystal axes: (cart. coord. in units of alat)
               a(1) = (   6.682323   0.000000   0.000000 )
               a(2) = (  -3.341161   5.787061   0.000000 )
               a(3) = (   0.000000   0.000000  25.456094 )

     reciprocal axes: (cart. coord. in units 2 pi/alat)
               b(1) = (  0.149649  0.086400  0.000000 )
               b(2) = (  0.000000  0.172799  0.000000 )
               b(3) = (  0.000000  0.000000  0.039283 )

     PseudoPot. # 1 for In read from file:
     /afs/slac.stanford.edu/u/if/mamunm/psp/gbrv1.5pbe/In.UPF
     MD5 check sum: 90777abd96fbb83f2e67db2a40c566b9
     Pseudo is Ultrasoft + core correction, Zval = 13.0
     Generated by new atomic code, or converted to UPF format
     Using radial grid of  889 points,  6 beta functions with:
                l(1) =   0
                l(2) =   0
                l(3) =   1
                l(4) =   1
                l(5) =   2
                l(6) =   2
     Q(r) pseudized with  6 coefficients,  rinner =    1.400   1.400   1.400
                                                       1.400   1.400

     PseudoPot. # 2 for Ga read from file:
     /afs/slac.stanford.edu/u/if/mamunm/psp/gbrv1.5pbe/Ga.UPF
     MD5 check sum: ccd671392a58a050fbb373893b4fcd66
     Pseudo is Ultrasoft + core correction, Zval = 19.0
     Generated by new atomic code, or converted to UPF format
     Using radial grid of  871 points,  6 beta functions with:
                l(1) =   0
                l(2) =   0
                l(3) =   1
                l(4) =   1
                l(5) =   2
                l(6) =   2
     Q(r) pseudized with  8 coefficients,  rinner =    1.250   1.250   1.250
                                                       1.250   1.250

     vdW kernel table read from file vdW_kernel_table
     MD5 check sum: 095c7af220d748ca6e76c0b4c6cfb241

     atomic species   valence    mass     pseudopotential
        In1           13.00   114.81800     In( 1.00)
        Ga1           19.00    69.72300     Ga( 1.00)

     No symmetry found

   Cartesian axes

     site n.     atom                  positions (alat units)
         1           In1 tau(   1) = (   0.0000000   0.0000000  10.0000000  )
         2           In1 tau(   2) = (  -1.6705807   2.8935306  10.0000000  )
         3           In1 tau(   3) = (   1.6705807   2.8935306  10.0000000  )
         4           Ga1 tau(   4) = (   3.3411613   0.0000000  10.0000000  )
         5           In1 tau(   5) = (   3.3411613   1.9290204  12.7280468  )
         6           In1 tau(   6) = (   1.6705807   4.8225509  12.7280468  )
         7           In1 tau(   7) = (  -1.6705807   4.8225509  12.7280468  )
         8           Ga1 tau(   8) = (   0.0000000   1.9290204  12.7280468  )
         9           In1 tau(   9) = (  -0.0000000   3.8580408  15.4560936  )
        10           In1 tau(  10) = (   1.6705807   0.9645102  15.4560936  )
        11           In1 tau(  11) = (   5.0117420   0.9645102  15.4560936  )
        12           Ga1 tau(  12) = (   3.3411613   3.8580408  15.4560936  )

     number of k points=    20  Fermi-Dirac smearing, width (Ry)=  0.0110
                       cart. coord. in units 2pi/alat
        k(    1) = (   0.0000000   0.0000000   0.0000000), wk =   0.0555556
        k(    2) = (   0.0000000   0.0287999   0.0000000), wk =   0.1111111
        k(    3) = (   0.0000000   0.0575998   0.0000000), wk =   0.1111111
        k(    4) = (   0.0000000  -0.0863996   0.0000000), wk =   0.0555556
        k(    5) = (   0.0249414   0.0143999   0.0000000), wk =   0.1111111
        k(    6) = (   0.0249414   0.0431998   0.0000000), wk =   0.1111111
        k(    7) = (   0.0249414   0.0719997   0.0000000), wk =   0.1111111
        k(    8) = (   0.0249414  -0.0719997   0.0000000), wk =   0.1111111
        k(    9) = (   0.0249414  -0.0431998   0.0000000), wk =   0.1111111
        k(   10) = (   0.0249414  -0.0143999   0.0000000), wk =   0.1111111
        k(   11) = (   0.0498829   0.0287999   0.0000000), wk =   0.1111111
        k(   12) = (   0.0498829   0.0575998   0.0000000), wk =   0.1111111
        k(   13) = (   0.0498829   0.0863996   0.0000000), wk =   0.1111111
        k(   14) = (   0.0498829  -0.0575998   0.0000000), wk =   0.1111111
        k(   15) = (   0.0498829  -0.0287999   0.0000000), wk =   0.1111111
        k(   16) = (   0.0498829   0.0000000   0.0000000), wk =   0.1111111
        k(   17) = (  -0.0748243  -0.0431998   0.0000000), wk =   0.0555556
        k(   18) = (  -0.0748243  -0.0143999   0.0000000), wk =   0.1111111
        k(   19) = (  -0.0748243   0.0143999   0.0000000), wk =   0.1111111
        k(   20) = (  -0.0748243  -0.1295995   0.0000000), wk =   0.0555556

     Largest allocated arrays     est. size (Mb)     dimensions
     Largest temporary arrays     est. size (Mb)     dimensions

     Initial potential from superposition of free atoms
     Check: negative starting charge=   -0.000760

     starting charge  157.49999, renormalised to  174.00000

     negative rho (up, down):  8.392E-04 0.000E+00

     *
     * You are using vdW-DF for exchange-correlation in this calculation.
     * Please cite the following three references that made this development
     * possible:
     *
     *   M. Dion, H. Rydberg, E. Schroder, D. C. Langreth, and
     *   B. I. Lundqvist, Phys. Rev. Lett. 92, 246401 (2004).
     *
     *   T. Thonhauser, V. R. Cooper, S. Li, A. Puzder, P. Hyldgaard, and
     *   D. C. Langreth, Phys. Rev. B 76, 125112 (2007).
     *
     *   G. Roman-Perez and J. M. Soler, Phys. Rev. Lett. 103, 096102 (2009).
     *
     *
     * If you are using vdW-DF2, please also cite:
     *
     *   K. Lee, E. D. Murray, L. Kong, B. I. Lundqvist, and
     *   D. C. Langreth, Phys. Rev. B 82, 081101(R) (2010).
     *
     *
     * If you are calculating the stress with vdW-DF, please also cite:
     *
     *   R. Sabatini, E. Kucukbenli, B. Kolb, T. Thonhauser, and
     *   S. de Gironcoli, J. Phys.: Condens. Matter 24, 424209 (2012).
     *

     Carrying out vdW-DF run using the following parameters:

     Nqs =      20    Nr_points =    1024   r_max =   100.000
     q_mesh =
               0.00001000     0.04494208     0.09755937     0.15916263
               0.23128650     0.31572767     0.41458969     0.53033537
               0.66584808     0.82450364     1.01025438     1.22772762
               1.48234092     1.78043706     2.12944203     2.53805004
               3.01644009     3.57652955     4.23227104     5.00000000

     Gradients computed in reciprocal space

     Adding external electric field

     Computed dipole along edir(3) :
        Dipole                0.0000 Ry au,          0.0000 Debye
        Dipole field          0.0000 Ry au

        Potential amp.       -0.0000 Ry
        Total length         46.9024 bohr

     Starting wfc are  117 randomized atomic wfcs

     Self-consistent Calculation

     iteration #  1     ecut=    36.75 Ry     beta=0.10
     Davidson diagonalization with overlap
     ethr =  1.00E-02,  avg # of iterations =  8.8

[...]

     total energy              =   -2416.11769615 Ry
     Harris-Foulkes estimate   =   -2525.39954629 Ry
     estimated scf accuracy    <     605.48779203 Ry

[...]

     End of self-consistent calculation

          k = 0.0000 0.0000 0.0000 ( 24909 PWs)   bands (ev):

   -94.6040 -94.6040 -94.5850 -94.5850 -94.5847 -94.5847 -94.5228 -94.5228
   -94.5178 -14.9479 -14.9375 -14.9375 -14.9354 -14.9272 -14.9272 -14.9254
   -14.9254 -14.9157 -14.9156 -14.8809 -14.8809 -14.8775 -14.8593 -14.8593
   -14.7803 -14.7697 -14.7633 -14.7528 -14.7528 -14.7292 -14.7165 -14.7165
   -14.7013 -14.6930 -14.6930 -14.6763 -14.6712 -14.6712 -14.6434 -14.6365
   -14.6365 -14.6256 -14.6187 -14.6187 -14.5490 -14.5456 -14.5377 -14.5377
   -14.5372 -14.5282 -14.5282 -14.5251 -14.5251 -14.5001 -14.5001 -14.4960
   -14.4960 -14.4791 -14.4791 -14.4625 -14.4625 -14.4324 -14.4316 -14.4316
   -14.3913 -14.3913 -14.3853 -14.3838 -14.3646  -8.6347  -7.3802  -5.5102
    -4.4807  -4.1835  -3.9797  -3.9797  -3.6390  -3.6390  -3.2855  -2.5073
    -2.5073  -2.2176  -2.0754  -2.0754  -1.7543  -0.8465  -0.7463  -0.5703
    -0.5703  -0.3762  -0.3762   0.9857   2.6803   2.6832   2.9612   2.9637
     2.9637   2.9971   2.9971   3.6539   4.3102   4.5315   4.5315   4.6350
     4.9521   5.0523   5.4207   5.4207   5.6914   5.6914   6.0849   6.1568
     6.2882   6.3632   6.4790   6.4790   7.0443

[...]

          k =-0.0748-0.0432 0.0000 ( 25034 PWs)   bands (ev):

[...]

     the Fermi energy is     0.2094 ev

!    total energy              =   -2462.72724589 Ry
     Harris-Foulkes estimate   =   -2462.72723241 Ry
     estimated scf accuracy    <       0.00000053 Ry

     The total energy is the sum of the following terms:

     one-electron contribution =  -12120.16203133 Ry
     hartree contribution      =    6119.33822333 Ry
     xc contribution           =    -500.91051600 Ry
     ewald contribution        =    4039.04537684 Ry
     electric field correction =       0.00000002 Ry
     smearing contrib. (-TS)   =      -0.03829876 Ry

     convergence has been achieved in  16 iterations

 BEEF-vdW xc energy contributions
           1 :   -441.528622767792
           2 :    402.582209316784
           3 :   -337.026213349442
           4 :    263.624298244375
           5 :   -199.321163590654
           6 :    152.940896117240
           7 :   -123.627090427643
           8 :    104.090929077297
           9 :   -86.2493892985949
          10 :    65.8675857837450
          11 :   -43.8838689696287
          12 :    24.3493931878324
          13 :   -10.9098485765212
          14 :    4.27800125577244
[...]
     MD5 check sum: 90777abd96fbb83f2e67db2a40c566b9
     Pseudo is Ultrasoft + core correction, Zval = 13.0
     Generated by new atomic code, or converted to UPF format
     Using radial grid of  889 points,  6 beta functions with:
                l(1) =   0
                l(2) =   0
                l(3) =   1
                l(4) =   1
                l(5) =   2
                l(6) =   2
     Q(r) pseudized with  6 coefficients,  rinner =    1.400   1.400   1.400
                                                       1.400   1.400

     PseudoPot. # 2 for Ga read from file:
     /afs/slac.stanford.edu/u/if/mamunm/psp/gbrv1.5pbe/Ga.UPF
     MD5 check sum: ccd671392a58a050fbb373893b4fcd66
     Pseudo is Ultrasoft + core correction, Zval = 19.0
     Generated by new atomic code, or converted to UPF format
     Using radial grid of  871 points,  6 beta functions with:
                l(1) =   0
                l(2) =   0
                l(3) =   1
                l(4) =   1
                l(5) =   2
                l(6) =   2
     Q(r) pseudized with  8 coefficients,  rinner =    1.250   1.250   1.250
                                                       1.250   1.250

     vdW kernel table read from file vdW_kernel_table
     MD5 check sum: 095c7af220d748ca6e76c0b4c6cfb241

     atomic species   valence    mass     pseudopotential
        In1           13.00   114.81800     In( 1.00)
        Ga1           19.00    69.72300     Ga( 1.00)

     No symmetry found

   Cartesian axes

     site n.     atom                  positions (alat units)
         1           In1 tau(   1) = (   0.0000000   0.0000000  10.0000000  )
         2           In1 tau(   2) = (  -1.6705807   2.8935306  10.0000000  )
         3           In1 tau(   3) = (   1.6705807   2.8935306  10.0000000  )
         4           Ga1 tau(   4) = (   3.3411613   0.0000000  10.0000000  )
         5           In1 tau(   5) = (   3.3411613   1.9290204  12.7280468  )
         6           In1 tau(   6) = (   1.6705807   4.8225509  12.7280468  )
         7           In1 tau(   7) = (  -1.6705807   4.8225509  12.7280468  )
         8           Ga1 tau(   8) = (   0.0000000   1.9290204  12.7280468  )
         9           In1 tau(   9) = (   0.0000164   3.8471103  15.4933370  )
        10           In1 tau(  10) = (   1.6610958   0.9699752  15.4933724  )
        11           In1 tau(  11) = (   5.0212207   0.9699849  15.4933888  )
        12           Ga1 tau(  12) = (   3.3411283   3.8580176  15.3221389  )

     number of k points=    20  Fermi-Dirac smearing, width (Ry)=  0.0110
                       cart. coord. in units 2pi/alat
        k(    1) = (   0.0000000   0.0000000   0.0000000), wk =   0.0555556
        k(    2) = (   0.0000000   0.0287999   0.0000000), wk =   0.1111111
        k(    3) = (   0.0000000   0.0575998   0.0000000), wk =   0.1111111
        k(    4) = (   0.0000000  -0.0863996   0.0000000), wk =   0.0555556
        k(    5) = (   0.0249414   0.0143999   0.0000000), wk =   0.1111111
        k(    6) = (   0.0249414   0.0431998   0.0000000), wk =   0.1111111
        k(    7) = (   0.0249414   0.0719997   0.0000000), wk =   0.1111111
        k(    8) = (   0.0249414  -0.0719997   0.0000000), wk =   0.1111111
        k(    9) = (   0.0249414  -0.0431998   0.0000000), wk =   0.1111111
        k(   10) = (   0.0249414  -0.0143999   0.0000000), wk =   0.1111111
        k(   11) = (   0.0498829   0.0287999   0.0000000), wk =   0.1111111
        k(   12) = (   0.0498829   0.0575998   0.0000000), wk =   0.1111111
        k(   13) = (   0.0498829   0.0863996   0.0000000), wk =   0.1111111
        k(   14) = (   0.0498829  -0.0575998   0.0000000), wk =   0.1111111
        k(   15) = (   0.0498829  -0.0287999   0.0000000), wk =   0.1111111
        k(   16) = (   0.0498829   0.0000000   0.0000000), wk =   0.1111111
        k(   17) = (  -0.0748243  -0.0431998   0.0000000), wk =   0.0555556
        k(   18) = (  -0.0748243  -0.0143999   0.0000000), wk =   0.1111111
        k(   19) = (  -0.0748243   0.0143999   0.0000000), wk =   0.1111111
        k(   20) = (  -0.0748243  -0.1295995   0.0000000), wk =   0.0555556

     Largest allocated arrays     est. size (Mb)     dimensions
     Largest temporary arrays     est. size (Mb)     dimensions

     Initial potential from superposition of free atoms
     Check: negative starting charge=   -0.000739

     starting charge  157.49999, renormalised to  174.00000

[...]

     *
     * You are using vdW-DF for exchange-correlation in this calculation.
     * Please cite the following three references that made this development
     * possible:
     *
     *   M. Dion, H. Rydberg, E. Schroder, D. C. Langreth, and
     *   B. I. Lundqvist, Phys. Rev. Lett. 92, 246401 (2004).
     *
     *   T. Thonhauser, V. R. Cooper, S. Li, A. Puzder, P. Hyldgaard, and
     *   D. C. Langreth, Phys. Rev. B 76, 125112 (2007).
     *
     *   G. Roman-Perez and J. M. Soler, Phys. Rev. Lett. 103, 096102 (2009).
     *
     *
     * If you are using vdW-DF2, please also cite:
     *
     *   K. Lee, E. D. Murray, L. Kong, B. I. Lundqvist, and
     *   D. C. Langreth, Phys. Rev. B 82, 081101(R) (2010).
     *
     *
     * If you are calculating the stress with vdW-DF, please also cite:
     *
     *   R. Sabatini, E. Kucukbenli, B. Kolb, T. Thonhauser, and
     *   S. de Gironcoli, J. Phys.: Condens. Matter 24, 424209 (2012).
     *

     Carrying out vdW-DF run using the following parameters:

     Nqs =      20    Nr_points =    1024   r_max =   100.000
     q_mesh =
               0.00001000     0.04494208     0.09755937     0.15916263
               0.23128650     0.31572767     0.41458969     0.53033537
               0.66584808     0.82450364     1.01025438     1.22772762
               1.48234092     1.78043706     2.12944203     2.53805004
               3.01644009     3.57652955     4.23227104     5.00000000

     Gradients computed in reciprocal space

[...]

     Starting wfc are  117 randomized atomic wfcs

     Self-consistent Calculation

[...]

     total energy              =   -2462.72807870 Ry
     Harris-Foulkes estimate   =   -2462.72807709 Ry
     estimated scf accuracy    <       0.00000100 Ry

     iteration # 18     ecut=    36.75 Ry     beta=0.10
     Davidson diagonalization with overlap
     ethr =  5.77E-10,  avg # of iterations =  2.4

[...]

     negative rho (up, down):  1.155E-03 0.000E+00

     Adding external electric field

     Computed dipole along edir(3) :
        Dipole               -0.0002 Ry au,         -0.0004 Debye
        Dipole field         -0.0000 Ry au

        Potential amp.        0.0000 Ry
        Total length         46.9024 bohr

     End of self-consistent calculation

[...]

          k = 0.0499 0.0000 0.0000 ( 24974 PWs)   bands (ev):

[...]

          k =-0.0748-0.1296 0.0000 ( 25034 PWs)   bands (ev):

   -94.6062 -94.5867 -94.5867 -94.5676 -94.5535 -94.5535 -94.5203 -94.5203
   -94.5151 -14.9346 -14.9232 -14.9210 -14.9136 -14.9073 -14.9035 -14.8915
   -14.8914 -14.8836 -14.8783 -14.8673 -14.8584 -14.8550 -14.8471 -14.8446
   -14.7674 -14.7357 -14.7186 -14.7010 -14.6981 -14.6766 -14.6744 -14.6673
   -14.6595 -14.6500 -14.6462 -14.6408 -14.6313 -14.6193 -14.6112 -14.6059
   -14.6009 -14.5983 -14.5979 -14.5850 -14.5821 -14.5811 -14.5749 -14.5743
   -14.5738 -14.5617 -14.5509 -14.5481 -14.5434 -14.5336 -14.5278 -14.5247
   -14.5178 -14.5167 -14.5073 -14.5022 -14.4983 -14.4936 -14.4915 -14.4894
   -14.4725 -14.4669 -14.4332 -14.4231 -14.3812  -7.4832  -7.4261  -6.2828
    -6.1423  -5.2697  -4.9040  -4.4014  -4.3334  -4.0006  -3.7124  -2.6290
    -2.0367  -0.5554  -0.5331  -0.2592  -0.0652   0.0143   0.2079   0.9341
     1.0891   1.1979   1.2892   1.8674   2.0465   2.1405   2.3116   2.4296
     2.5081   2.9609   3.1724   3.2642   3.4768   3.5246   3.5500   4.0399
     4.0960   4.1400   4.1527   4.7363   4.7541   5.1644   5.1869   5.4146
     5.4423   5.6576   5.7278   5.8591   5.9440

     the Fermi energy is     0.2102 ev

!    total energy              =   -2462.72808795 Ry
     Harris-Foulkes estimate   =   -2462.72807894 Ry
     estimated scf accuracy    <       0.00000023 Ry

     The total energy is the sum of the following terms:

     one-electron contribution =  -12147.72255538 Ry
     hartree contribution      =    6133.12450081 Ry
     xc contribution           =    -500.91129193 Ry
     ewald contribution        =    4052.81985627 Ry
     electric field correction =       0.00000000 Ry
     smearing contrib. (-TS)   =      -0.03859772 Ry

     convergence has been achieved in  18 iterations

 BEEF-vdW xc energy contributions
           1 :   -441.529232802621
           2 :    402.582431918575
           3 :   -337.026655048598
           4 :    263.626541282636
           5 :   -199.326240059416
           6 :    152.947561657471
           7 :   -123.631817537174
           8 :    104.090156251635
           9 :   -86.2423966624560
          10 :    65.8577125802520
          11 :   -43.8767267132525
          12 :    24.3491705010830
          13 :   -10.9164424925993
          14 :    4.28706798603389
          15 :   -2.10181332037405
          16 :   0.820746664175090
          17 :    1.96166985644800
          18 :   -6.36363430469919
          19 :    10.7641950251299
          20 :   -13.3756278576595
          21 :    13.5952037837575
          22 :   -12.2607855460878
          23 :    10.8357821055646
          24 :   -10.2973896538192
          25 :    10.5822312558595
          26 :   -10.9005788042371
          27 :    10.5348408736012
          28 :   -9.43328483684405
          29 :    8.16450352217220
          30 :   -7.35852146211073
          31 :   -37.7276841732779
          32 :   -26.8674000397115

     Forces acting on atoms (Ry/au):

     negative rho (up, down):  1.155E-03 0.000E+00
     atom    1 type  1   force =     0.00000012    0.00256336   -0.00176944
     atom    2 type  1   force =     0.00222039   -0.00128144   -0.00176774
     atom    3 type  1   force =    -0.00221995   -0.00128147   -0.00176789
     atom    4 type  2   force =    -0.00000005    0.00000074    0.00485569
     atom    5 type  1   force =     0.00000053   -0.00230760    0.00023540
     atom    6 type  1   force =    -0.00199762    0.00115459    0.00023366
     atom    7 type  1   force =     0.00199708    0.00115346    0.00023501
     atom    8 type  2   force =    -0.00000071    0.00000055    0.00109802
     atom    9 type  1   force =    -0.00000103   -0.00043431   -0.00001195
     atom   10 type  1   force =    -0.00037450    0.00021588   -0.00001437
     atom   11 type  1   force =     0.00037503    0.00021716   -0.00001494
     atom   12 type  2   force =     0.00000071   -0.00000090   -0.00131146

     Total force =     0.008503     Total SCF correction =     0.004273
     SCF correction compared to forces is large: reduce conv_thr to get better values

     entering subroutine stress ...

     negative rho (up, down):  1.155E-03 0.000E+00
          total   stress  (Ry/bohr**3)                   (kbar)     P=   -3.81
  -0.00003607   0.00000000  -0.00000000         -5.31      0.00     -0.00
   0.00000000  -0.00003607   0.00000000          0.00     -5.31      0.00
  -0.00000000   0.00000000  -0.00000553         -0.00      0.00     -0.81

 !ASE

     Writing output data file calc.save

     General routines

     Parallel routines

   This run was terminated on:  11:26:56  30Dec2018

   JOB DONE.
Job  /afs/slac/g/suncat/bin/suncat-tsmpirun -x LD_LIBRARY_PATH -wdir /scratch/qe648505_N77zH pw.x -in pw.inp

TID   HOST_NAME   COMMAND_LINE            STATUS            TERMINATION_TIME
00000 suncat0062 pw.x -in pw.inp   Done                     12/30/2018 11:26:56
00001 suncat0062 pw.x -in pw.inp   Done                     12/30/2018 11:26:56
00002 suncat0062 pw.x -in pw.inp   Done                     12/30/2018 11:26:56
00003 suncat0062 pw.x -in pw.inp   Done                     12/30/2018 11:26:56
00004 suncat0062 pw.x -in pw.inp   Done                     12/30/2018 11:26:56
00005 suncat0062 pw.x -in pw.inp   Done                     12/30/2018 11:26:56
00006 suncat0062 pw.x -in pw.inp   Done                     12/30/2018 11:26:56
00007 suncat0062 pw.x -in pw.inp   Done                     12/30/2018 11:26:56
00008 suncat0061 pw.x -in pw.inp   Done                     12/30/2018 11:26:56
00009 suncat0061 pw.x -in pw.inp   Done                     12/30/2018 11:26:56
00010 suncat0061 pw.x -in pw.inp   Done                     12/30/2018 11:26:56
00011 suncat0061 pw.x -in pw.inp   Done                     12/30/2018 11:26:56
00012 suncat0061 pw.x -in pw.inp   Done                     12/30/2018 11:26:56
00013 suncat0061 pw.x -in pw.inp   Done                     12/30/2018 11:26:56
00014 suncat0061 pw.x -in pw.inp   Done                     12/30/2018 11:26:56
00015 suncat0061 pw.x -in pw.inp   Done                     12/30/2018 11:26:56
00016 suncat0057 pw.x -in pw.inp   Done                     12/30/2018 11:26:56
00017 suncat0057 pw.x -in pw.inp   Done                     12/30/2018 11:26:56
00018 suncat0057 pw.x -in pw.inp   Done                     12/30/2018 11:26:56
00019 suncat0057 pw.x -in pw.inp   Done                     12/30/2018 11:26:56
00020 suncat0057 pw.x -in pw.inp   Done                     12/30/2018 11:26:56
00021 suncat0057 pw.x -in pw.inp   Done                     12/30/2018 11:26:56
00022 suncat0057 pw.x -in pw.inp   Done                     12/30/2018 11:26:56
00023 suncat0057 pw.x -in pw.inp   Done                     12/30/2018 11:26:56
00024 suncat0165 pw.x -in pw.inp   Done                     12/30/2018 11:26:56
00025 suncat0165 pw.x -in pw.inp   Done                     12/30/2018 11:26:56
00026 suncat0165 pw.x -in pw.inp   Done                     12/30/2018 11:26:56
00027 suncat0165 pw.x -in pw.inp   Done                     12/30/2018 11:26:56
00028 suncat0165 pw.x -in pw.inp   Done                     12/30/2018 11:26:56
00029 suncat0165 pw.x -in pw.inp   Done                     12/30/2018 11:26:56
00030 suncat0165 pw.x -in pw.inp   Done                     12/30/2018 11:26:56
00031 suncat0165 pw.x -in pw.inp   Done                     12/30/2018 11:26:56
00032 suncat0106 pw.x -in pw.inp   Done                     12/30/2018 11:26:56
00033 suncat0106 pw.x -in pw.inp   Done                     12/30/2018 11:26:56
00034 suncat0106 pw.x -in pw.inp   Done                     12/30/2018 11:26:56
00035 suncat0106 pw.x -in pw.inp   Done                     12/30/2018 11:26:56
00036 suncat0106 pw.x -in pw.inp   Done                     12/30/2018 11:26:56
00037 suncat0106 pw.x -in pw.inp   Done                     12/30/2018 11:26:56
00038 suncat0106 pw.x -in pw.inp   Done                     12/30/2018 11:26:56
00039 suncat0106 pw.x -in pw.inp   Done                     12/30/2018 11:26:56
00040 suncat0105 pw.x -in pw.inp   Done                     12/30/2018 11:26:56
00041 suncat0105 pw.x -in pw.inp   Done                     12/30/2018 11:26:56
00042 suncat0105 pw.x -in pw.inp   Done                     12/30/2018 11:26:56
00043 suncat0105 pw.x -in pw.inp   Done                     12/30/2018 11:26:56
00044 suncat0105 pw.x -in pw.inp   Done                     12/30/2018 11:26:56
00045 suncat0105 pw.x -in pw.inp   Done                     12/30/2018 11:26:56
00046 suncat0105 pw.x -in pw.inp   Done                     12/30/2018 11:26:56
00047 suncat0105 pw.x -in pw.inp   Done                     12/30/2018 11:26:56
00048 suncat0277 pw.x -in pw.inp   Done                     12/30/2018 11:26:56
00049 suncat0277 pw.x -in pw.inp   Done                     12/30/2018 11:26:56
00050 suncat0277 pw.x -in pw.inp   Done                     12/30/2018 11:26:56
00051 suncat0277 pw.x -in pw.inp   Done                     12/30/2018 11:26:56
00052 suncat0277 pw.x -in pw.inp   Done                     12/30/2018 11:26:56
00053 suncat0277 pw.x -in pw.inp   Done                     12/30/2018 11:26:56
00054 suncat0277 pw.x -in pw.inp   Done                     12/30/2018 11:26:56
00055 suncat0277 pw.x -in pw.inp   Done                     12/30/2018 11:26:56
00056 suncat0276 pw.x -in pw.inp   Done                     12/30/2018 11:26:56
00057 suncat0276 pw.x -in pw.inp   Done                     12/30/2018 11:26:56
00058 suncat0276 pw.x -in pw.inp   Done                     12/30/2018 11:26:56
00059 suncat0276 pw.x -in pw.inp   Done                     12/30/2018 11:26:56
00060 suncat0276 pw.x -in pw.inp   Done                     12/30/2018 11:26:56
00061 suncat0276 pw.x -in pw.inp   Done                     12/30/2018 11:26:56
00062 suncat0276 pw.x -in pw.inp   Done                     12/30/2018 11:26:56
00063 suncat0276 pw.x -in pw.inp   Done                     12/30/2018 11:26:56