     Program PWSCF v.5.1rc2 (svn rev. 11289) starts on 26Dec2018 at 17:40:16

     Current dimensions of program PWSCF are:
     Max number of different atomic species (ntypx) = 10
     Max number of k-points (npk) =  40000
     Max angular momentum in pseudopotentials (lmaxx) =  3
     Presently stress not available with electric field

     IMPORTANT: XC functional enforced from input :
     Exchange-correlation      = BEEF-VDW ( 1  4 27 13 2)
     Any further DFT definition will be discarded
     Please, verify this is what you really want

     Subspace diagonalization in iterative solution of the eigenvalue problem:
     a serial algorithm will be used

     bravais-lattice index     =            0
     lattice parameter (alat)  =       1.8897  a.u.
     unit-cell volume          =    8058.0106 (a.u.)^3
     number of atoms/cell      =           12
     number of atomic types    =            2
     number of electrons       =       132.00
     number of Kohn-Sham states=           96
     kinetic-energy cutoff     =      36.7493  Ry
     charge density cutoff     =     367.4932  Ry
     convergence threshold     =      1.0E-06
     mixing beta               =       0.1000
     number of iterations used =           10  plain     mixing
     Exchange-correlation      = BEEF-VDW ( 1  4 27 13 2)
     nstep                     =           50

     celldm(1)=   1.889726  celldm(2)=   0.000000  celldm(3)=   0.000000
     celldm(4)=   0.000000  celldm(5)=   0.000000  celldm(6)=   0.000000

     crystal axes: (cart. coord. in units of alat)
               a(1) = (   7.289024   0.000000   0.000000 )
               a(2) = (  -3.644512   6.312480   0.000000 )
               a(3) = (   0.000000   0.000000  25.951463 )

     reciprocal axes: (cart. coord. in units 2 pi/alat)
               b(1) = (  0.137193  0.079208  0.000000 )
               b(2) = (  0.000000  0.158416  0.000000 )
               b(3) = (  0.000000  0.000000  0.038533 )

     PseudoPot. # 1 for La read from file:
     /afs/slac.stanford.edu/u/if/mamunm/psp/gbrv1.5pbe/La.UPF
     MD5 check sum: 5937b0c7494ba0601a847275249473aa
     Pseudo is Ultrasoft + core correction, Zval = 11.0
     Generated by new atomic code, or converted to UPF format
     Using radial grid of  995 points,  8 beta functions with:
                l(1) =   0
                l(2) =   0
                l(3) =   1
                l(4) =   1
                l(5) =   2
                l(6) =   2
                l(7) =   3
                l(8) =   3
     Q(r) pseudized with  8 coefficients,  rinner =    1.700   1.700   1.700
                                                       1.700   1.700   1.700
                                                       1.700

     PseudoPot. # 2 for Sc read from file:
     /afs/slac.stanford.edu/u/if/mamunm/psp/gbrv1.5pbe/Sc.UPF
     MD5 check sum: db30a2753ba66ef00f23801d899b7e7f
     Pseudo is Ultrasoft + core correction, Zval = 11.0
     Generated by new atomic code, or converted to UPF format
     Using radial grid of  849 points,  6 beta functions with:
                l(1) =   0
                l(2) =   0
                l(3) =   1
                l(4) =   1
                l(5) =   2
                l(6) =   2
     Q(r) pseudized with  6 coefficients,  rinner =    1.200   1.200   1.200
                                                       1.200   1.200

     vdW kernel table read from file vdW_kernel_table
     MD5 check sum: 095c7af220d748ca6e76c0b4c6cfb241

     atomic species   valence    mass     pseudopotential
        La1           11.00   138.90547     La( 1.00)
        Sc1           11.00    44.95591     Sc( 1.00)

     No symmetry found

   Cartesian axes

     site n.     atom                  positions (alat units)
         1           La1 tau(   1) = (   0.0000000   0.0000000  10.0000000  )
         2           La1 tau(   2) = (  -1.8222560   3.1562400  10.0000000  )
         3           La1 tau(   3) = (   1.8222560   3.1562400  10.0000000  )
         4           Sc1 tau(   4) = (   3.6445120   0.0000000  10.0000000  )
         5           La1 tau(   5) = (   3.6445120   2.1041600  12.9757316  )
         6           La1 tau(   6) = (   1.8222560   5.2603999  12.9757316  )
         7           La1 tau(   7) = (  -1.8222560   5.2603999  12.9757316  )
         8           Sc1 tau(   8) = (   0.0000000   2.1041600  12.9757316  )
         9           La1 tau(   9) = (  -0.0000000   4.2083199  15.9514631  )
        10           La1 tau(  10) = (   1.8222560   1.0520800  15.9514631  )
        11           La1 tau(  11) = (   5.4667680   1.0520800  15.9514631  )
        12           Sc1 tau(  12) = (   3.6445120   4.2083199  15.9514631  )

     number of k points=    20  Fermi-Dirac smearing, width (Ry)=  0.0110
                       cart. coord. in units 2pi/alat
        k(    1) = (   0.0000000   0.0000000   0.0000000), wk =   0.0555556
        k(    2) = (   0.0000000   0.0264027   0.0000000), wk =   0.1111111
        k(    3) = (   0.0000000   0.0528054   0.0000000), wk =   0.1111111
        k(    4) = (   0.0000000  -0.0792082   0.0000000), wk =   0.0555556
        k(    5) = (   0.0228654   0.0132014   0.0000000), wk =   0.1111111
        k(    6) = (   0.0228654   0.0396041   0.0000000), wk =   0.1111111
        k(    7) = (   0.0228654   0.0660068   0.0000000), wk =   0.1111111
        k(    8) = (   0.0228654  -0.0660068   0.0000000), wk =   0.1111111
        k(    9) = (   0.0228654  -0.0396041   0.0000000), wk =   0.1111111
        k(   10) = (   0.0228654  -0.0132014   0.0000000), wk =   0.1111111
        k(   11) = (   0.0457309   0.0264027   0.0000000), wk =   0.1111111
        k(   12) = (   0.0457309   0.0528054   0.0000000), wk =   0.1111111
        k(   13) = (   0.0457309   0.0792082   0.0000000), wk =   0.1111111
        k(   14) = (   0.0457309  -0.0528054   0.0000000), wk =   0.1111111
        k(   15) = (   0.0457309  -0.0264027   0.0000000), wk =   0.1111111
        k(   16) = (   0.0457309   0.0000000   0.0000000), wk =   0.1111111
        k(   17) = (  -0.0685963  -0.0396041   0.0000000), wk =   0.0555556
        k(   18) = (  -0.0685963  -0.0132014   0.0000000), wk =   0.1111111
        k(   19) = (  -0.0685963   0.0132014   0.0000000), wk =   0.1111111
        k(   20) = (  -0.0685963  -0.1188123   0.0000000), wk =   0.0555556

     Largest allocated arrays     est. size (Mb)     dimensions
     Largest temporary arrays     est. size (Mb)     dimensions

     Initial potential from superposition of free atoms
     Check: negative starting charge=   -0.626097

     starting charge  131.70418, renormalised to  132.00000

     negative rho (up, down):  6.275E-01 0.000E+00

     *
     * You are using vdW-DF for exchange-correlation in this calculation.
     * Please cite the following three references that made this development
     * possible:
     *
     *   M. Dion, H. Rydberg, E. Schroder, D. C. Langreth, and
     *   B. I. Lundqvist, Phys. Rev. Lett. 92, 246401 (2004).
     *
     *   T. Thonhauser, V. R. Cooper, S. Li, A. Puzder, P. Hyldgaard, and
     *   D. C. Langreth, Phys. Rev. B 76, 125112 (2007).
     *
     *   G. Roman-Perez and J. M. Soler, Phys. Rev. Lett. 103, 096102 (2009).
     *
     *
     * If you are using vdW-DF2, please also cite:
     *
     *   K. Lee, E. D. Murray, L. Kong, B. I. Lundqvist, and
     *   D. C. Langreth, Phys. Rev. B 82, 081101(R) (2010).
     *
     *
     * If you are calculating the stress with vdW-DF, please also cite:
     *
     *   R. Sabatini, E. Kucukbenli, B. Kolb, T. Thonhauser, and
     *   S. de Gironcoli, J. Phys.: Condens. Matter 24, 424209 (2012).
     *

     Carrying out vdW-DF run using the following parameters:

     Nqs =      20    Nr_points =    1024   r_max =   100.000
     q_mesh =
               0.00001000     0.04494208     0.09755937     0.15916263
               0.23128650     0.31572767     0.41458969     0.53033537
               0.66584808     0.82450364     1.01025438     1.22772762
               1.48234092     1.78043706     2.12944203     2.53805004
               3.01644009     3.57652955     4.23227104     5.00000000

     Gradients computed in reciprocal space

     Adding external electric field

     Computed dipole along edir(3) :
        Dipole               -0.0000 Ry au,         -0.0000 Debye
        Dipole field         -0.0000 Ry au

        Potential amp.        0.0000 Ry
        Total length         47.8151 bohr

     Starting wfc are  219 randomized atomic wfcs

     Self-consistent Calculation

     iteration #  1     ecut=    36.75 Ry     beta=0.10
     Davidson diagonalization with overlap
     ethr =  1.00E-02,  avg # of iterations =  2.0

[...]

     total energy              =   -1219.72677836 Ry
     Harris-Foulkes estimate   =   -1221.37615242 Ry
     estimated scf accuracy    <       9.21250917 Ry

[...]

     iteration # 11     ecut=    36.75 Ry     beta=0.10
     Davidson diagonalization with overlap
     c_bands:  1 eigenvalues not converged
     c_bands:  1 eigenvalues not converged
     c_bands:  1 eigenvalues not converged
     c_bands:  1 eigenvalues not converged
     c_bands:  1 eigenvalues not converged
     ethr =  4.01E-06,  avg # of iterations = 17.7

[...]

     End of self-consistent calculation

          k = 0.0000 0.0000 0.0000 ( 30245 PWs)   bands (ev):

   -48.8642 -48.8642 -48.5314 -31.7259 -31.7187 -31.5939 -31.5939 -31.5923
   -31.5922 -31.2720 -31.1488 -31.1488 -27.4965 -27.4957 -27.4023 -27.4023
   -27.4021 -27.4021 -27.1075 -27.1075 -27.0738 -15.9895 -15.9167 -15.6662
   -15.5836 -15.5836 -15.4915 -15.4915 -15.4454 -15.4454 -15.4274 -15.3917
   -15.2303 -15.2303 -14.9404 -14.9404 -14.9328 -14.8963 -14.7533 -14.7533
   -14.7435 -14.7435 -14.6899 -14.6258 -14.6258 -14.4546 -14.3563 -14.3563
    -1.7110  -0.9625  -0.7568  -0.4188   0.0710   0.0913   0.2761   0.2761
     0.4700   0.4700   0.5428   0.6838   0.6838   0.7435   0.7435   0.9365
     1.4371   1.4371   1.7201   1.7865   2.0459   2.1970   2.1970   2.4189
     2.4422   2.6222   2.6222   2.6908   2.7290   2.7290   2.8161   2.8340
     2.8340   2.8346   2.8554   2.8866   2.8996   2.8996   2.9083   2.9084
     2.9578   2.9578   2.9617   2.9619   2.9847   2.9849   3.0274   3.0568

[...]

          k =-0.0686-0.0396 0.0000 ( 30354 PWs)   bands (ev):

[...]

     the Fermi energy is     1.5505 ev

!    total energy              =   -1220.46899216 Ry
     Harris-Foulkes estimate   =   -1220.46900034 Ry
     estimated scf accuracy    <       0.00000067 Ry

     The total energy is the sum of the following terms:

     one-electron contribution =   -5048.10489549 Ry
     hartree contribution      =    2527.75004465 Ry
     xc contribution           =    -497.74321744 Ry
     ewald contribution        =    1797.76418912 Ry
     electric field correction =       0.00000000 Ry
     smearing contrib. (-TS)   =      -0.13511301 Ry

     convergence has been achieved in  22 iterations

 BEEF-vdW xc energy contributions
           1 :   -439.167935063804
           2 :    402.703189595911
           3 :   -339.059216151472
           4 :    262.919525353745
           5 :   -188.973519767104
[...]
     Pseudo is Ultrasoft + core correction, Zval = 11.0
     Generated by new atomic code, or converted to UPF format
     Using radial grid of  995 points,  8 beta functions with:
                l(1) =   0
                l(2) =   0
                l(3) =   1
                l(4) =   1
                l(5) =   2
                l(6) =   2
                l(7) =   3
                l(8) =   3
     Q(r) pseudized with  8 coefficients,  rinner =    1.700   1.700   1.700
                                                       1.700   1.700   1.700
                                                       1.700

     PseudoPot. # 2 for Sc read from file:
     /afs/slac.stanford.edu/u/if/mamunm/psp/gbrv1.5pbe/Sc.UPF
     MD5 check sum: db30a2753ba66ef00f23801d899b7e7f
     Pseudo is Ultrasoft + core correction, Zval = 11.0
     Generated by new atomic code, or converted to UPF format
     Using radial grid of  849 points,  6 beta functions with:
                l(1) =   0
                l(2) =   0
                l(3) =   1
                l(4) =   1
                l(5) =   2
                l(6) =   2
     Q(r) pseudized with  6 coefficients,  rinner =    1.200   1.200   1.200
                                                       1.200   1.200

     vdW kernel table read from file vdW_kernel_table
     MD5 check sum: 095c7af220d748ca6e76c0b4c6cfb241

     atomic species   valence    mass     pseudopotential
        La1           11.00   138.90547     La( 1.00)
        Sc1           11.00    44.95591     Sc( 1.00)

     No symmetry found

   Cartesian axes

     site n.     atom                  positions (alat units)
         1           La1 tau(   1) = (   0.0000000   0.0000000  10.0000000  )
         2           La1 tau(   2) = (  -1.8222560   3.1562400  10.0000000  )
         3           La1 tau(   3) = (   1.8222560   3.1562400  10.0000000  )
         4           Sc1 tau(   4) = (   3.6445120   0.0000000  10.0000000  )
         5           La1 tau(   5) = (   3.6445120   2.1041600  12.9757316  )
         6           La1 tau(   6) = (   1.8222560   5.2603999  12.9757316  )
         7           La1 tau(   7) = (  -1.8222560   5.2603999  12.9757316  )
         8           Sc1 tau(   8) = (   0.0000000   2.1041600  12.9757316  )
         9           La1 tau(   9) = (   0.0000173   4.1685671  15.9344944  )
        10           La1 tau(  10) = (   1.7878340   1.0719559  15.9344797  )
        11           La1 tau(  11) = (   5.5012039   1.0719286  15.9344859  )
        12           Sc1 tau(  12) = (   3.6445642   4.2082953  15.6722653  )

     number of k points=    20  Fermi-Dirac smearing, width (Ry)=  0.0110
                       cart. coord. in units 2pi/alat
        k(    1) = (   0.0000000   0.0000000   0.0000000), wk =   0.0555556
        k(    2) = (   0.0000000   0.0264027   0.0000000), wk =   0.1111111
        k(    3) = (   0.0000000   0.0528054   0.0000000), wk =   0.1111111
        k(    4) = (   0.0000000  -0.0792082   0.0000000), wk =   0.0555556
        k(    5) = (   0.0228654   0.0132014   0.0000000), wk =   0.1111111
        k(    6) = (   0.0228654   0.0396041   0.0000000), wk =   0.1111111
        k(    7) = (   0.0228654   0.0660068   0.0000000), wk =   0.1111111
        k(    8) = (   0.0228654  -0.0660068   0.0000000), wk =   0.1111111
        k(    9) = (   0.0228654  -0.0396041   0.0000000), wk =   0.1111111
        k(   10) = (   0.0228654  -0.0132014   0.0000000), wk =   0.1111111
        k(   11) = (   0.0457309   0.0264027   0.0000000), wk =   0.1111111
        k(   12) = (   0.0457309   0.0528054   0.0000000), wk =   0.1111111
        k(   13) = (   0.0457309   0.0792082   0.0000000), wk =   0.1111111
        k(   14) = (   0.0457309  -0.0528054   0.0000000), wk =   0.1111111
        k(   15) = (   0.0457309  -0.0264027   0.0000000), wk =   0.1111111
        k(   16) = (   0.0457309   0.0000000   0.0000000), wk =   0.1111111
        k(   17) = (  -0.0685963  -0.0396041   0.0000000), wk =   0.0555556
        k(   18) = (  -0.0685963  -0.0132014   0.0000000), wk =   0.1111111
        k(   19) = (  -0.0685963   0.0132014   0.0000000), wk =   0.1111111
        k(   20) = (  -0.0685963  -0.1188123   0.0000000), wk =   0.0555556

     Largest allocated arrays     est. size (Mb)     dimensions
     Largest temporary arrays     est. size (Mb)     dimensions

     Initial potential from superposition of free atoms
     Check: negative starting charge=   -0.626902

     starting charge  131.70418, renormalised to  132.00000

[...]

     *
     * You are using vdW-DF for exchange-correlation in this calculation.
     * Please cite the following three references that made this development
     * possible:
     *
     *   M. Dion, H. Rydberg, E. Schroder, D. C. Langreth, and
     *   B. I. Lundqvist, Phys. Rev. Lett. 92, 246401 (2004).
     *
     *   T. Thonhauser, V. R. Cooper, S. Li, A. Puzder, P. Hyldgaard, and
     *   D. C. Langreth, Phys. Rev. B 76, 125112 (2007).
     *
     *   G. Roman-Perez and J. M. Soler, Phys. Rev. Lett. 103, 096102 (2009).
     *
     *
     * If you are using vdW-DF2, please also cite:
     *
     *   K. Lee, E. D. Murray, L. Kong, B. I. Lundqvist, and
     *   D. C. Langreth, Phys. Rev. B 82, 081101(R) (2010).
     *
     *
     * If you are calculating the stress with vdW-DF, please also cite:
     *
     *   R. Sabatini, E. Kucukbenli, B. Kolb, T. Thonhauser, and
     *   S. de Gironcoli, J. Phys.: Condens. Matter 24, 424209 (2012).
     *

     Carrying out vdW-DF run using the following parameters:

     Nqs =      20    Nr_points =    1024   r_max =   100.000
     q_mesh =
               0.00001000     0.04494208     0.09755937     0.15916263
               0.23128650     0.31572767     0.41458969     0.53033537
               0.66584808     0.82450364     1.01025438     1.22772762
               1.48234092     1.78043706     2.12944203     2.53805004
               3.01644009     3.57652955     4.23227104     5.00000000

     Gradients computed in reciprocal space

[...]

     Starting wfc are  219 randomized atomic wfcs

     Self-consistent Calculation

[...]

     iteration # 15     ecut=    36.75 Ry     beta=0.10
     Davidson diagonalization with overlap
     c_bands:  1 eigenvalues not converged
     ethr =  1.16E-06,  avg # of iterations =  6.1

[...]

     total energy              =   -1220.48685783 Ry
     Harris-Foulkes estimate   =   -1220.48685985 Ry
     estimated scf accuracy    <       0.00000153 Ry

     iteration # 25     ecut=    36.75 Ry     beta=0.10
     Davidson diagonalization with overlap
     ethr =  7.68E-10,  avg # of iterations =  5.5

[...]

     negative rho (up, down):  4.390E-01 0.000E+00

     Adding external electric field

     Computed dipole along edir(3) :
        Dipole                0.0234 Ry au,          0.0595 Debye
        Dipole field          0.0000 Ry au

        Potential amp.       -0.0035 Ry
        Total length         47.8151 bohr

     End of self-consistent calculation

[...]

          k = 0.0457 0.0000 0.0000 ( 30281 PWs)   bands (ev):

[...]

          k =-0.0686-0.1188 0.0000 ( 30354 PWs)   bands (ev):

   -48.8624 -48.6872 -48.5039 -31.6745 -31.6720 -31.6317 -31.6228 -31.5878
   -31.5813 -31.1710 -31.1300 -31.0876 -27.4991 -27.3977 -27.3970 -27.3245
   -27.2373 -27.2366 -27.0827 -27.0819 -27.0440 -15.7359 -15.6834 -15.5799
   -15.4514 -15.4323 -15.3791 -15.3301 -15.3006 -15.2896 -15.2869 -15.2648
   -15.2467 -15.2158 -15.2020 -15.1702 -15.1512 -15.1366 -14.8151 -14.8054
   -14.7797 -14.7357 -14.6715 -14.6366 -14.6128 -14.5935 -14.5522 -14.3312
    -0.5187  -0.5127   0.0670   0.1361   0.3145   0.5021   0.7170   0.8816
     0.9470   1.0213   1.0263   1.0578   1.2400   1.3352   1.3787   1.4850
     1.4861   1.5999   1.6040   1.6464   1.7279   1.8154   1.8784   1.9143
     1.9952   2.0249   2.0767   2.0885   2.1819   2.2357   2.3340   2.3682
     2.3787   2.4512   2.4631   2.5256   2.6769   2.6861   2.8477   2.8971
     2.9272   2.9486   2.9762   2.9917   3.0011   3.0135   3.0289   3.0294

     the Fermi energy is     1.5616 ev

!    total energy              =   -1220.48685347 Ry
     Harris-Foulkes estimate   =   -1220.48685832 Ry
     estimated scf accuracy    <       0.00000086 Ry

     The total energy is the sum of the following terms:

     one-electron contribution =   -5107.97325358 Ry
     hartree contribution      =    2557.85926032 Ry
     xc contribution           =    -497.82960382 Ry
     ewald contribution        =    1827.59033859 Ry
     electric field correction =       0.00000085 Ry
     smearing contrib. (-TS)   =      -0.13359583 Ry

     convergence has been achieved in  25 iterations

 BEEF-vdW xc energy contributions
           1 :   -439.628581820004
           2 :    403.186715443623
           3 :   -339.561885942557
           4 :    263.410059358590
           5 :   -189.416865571892
           6 :    128.104163242070
           7 :   -84.2471587905357
           8 :    57.6066889813210
           9 :   -44.7511388670027
          10 :    40.8532947807141
          11 :   -41.0023780265969
          12 :    41.0679436878232
          13 :   -38.2802811800170
          14 :    31.5602003571034
          15 :   -21.5108409009973
          16 :    9.99479902010495
          17 :   0.616145252829938
          18 :   -8.26264616261250
          19 :    11.7960931403857
          20 :   -11.2026562890997
          21 :    7.48718791944532
          22 :   -2.33892396185348
          23 :   -2.33800022739280
          24 :    4.97383521299531
          25 :   -4.84352668290433
          26 :    2.32391114794626
          27 :    1.28405613924082
          28 :   -4.35219069963665
          29 :    5.67083809784691
          30 :   -4.96118460118367
          31 :   -38.4272316886138
          32 :   -27.5997675454664

     Forces acting on atoms (Ry/au):

     negative rho (up, down):  4.390E-01 0.000E+00
     atom    1 type  1   force =    -0.00000115    0.00394934   -0.00051869
     atom    2 type  1   force =     0.00341981   -0.00197461   -0.00051786
     atom    3 type  1   force =    -0.00342001   -0.00197573   -0.00051943
     atom    4 type  2   force =    -0.00000071   -0.00000040    0.01540684
     atom    5 type  1   force =    -0.00000013   -0.00195335   -0.00475496
     atom    6 type  1   force =    -0.00169058    0.00097702   -0.00475481
     atom    7 type  1   force =     0.00169260    0.00097658   -0.00475625
     atom    8 type  2   force =     0.00000034   -0.00000026    0.00085748
     atom    9 type  1   force =     0.00000092    0.00018444   -0.00060120
     atom   10 type  1   force =     0.00016152   -0.00009302   -0.00060093
     atom   11 type  1   force =    -0.00016006   -0.00009232   -0.00060085
     atom   12 type  2   force =    -0.00000255    0.00000230    0.00136067

     Total force =     0.019184     Total SCF correction =     0.001328

     entering subroutine stress ...

     negative rho (up, down):  4.390E-01 0.000E+00
          total   stress  (Ry/bohr**3)                   (kbar)     P=   -2.85
  -0.00002316   0.00000000  -0.00000000         -3.41      0.00     -0.00
   0.00000000  -0.00002316   0.00000000          0.00     -3.41      0.00
  -0.00000000   0.00000000  -0.00001185         -0.00      0.00     -1.74

 !ASE

     Writing output data file calc.save

     General routines

     Parallel routines

   This run was terminated on:  19:45:19  26Dec2018

   JOB DONE.
Job  /afs/slac/g/suncat/bin/suncat-tsmpirun -x LD_LIBRARY_PATH -wdir /scratch/qe110025_8Ale3 pw.x -in pw.inp

TID   HOST_NAME   COMMAND_LINE            STATUS            TERMINATION_TIME
00000 suncat0277 pw.x -in pw.inp   Done                     12/26/2018 19:45:19
00001 suncat0277 pw.x -in pw.inp   Done                     12/26/2018 19:45:19
00002 suncat0277 pw.x -in pw.inp   Done                     12/26/2018 19:45:19
00003 suncat0277 pw.x -in pw.inp   Done                     12/26/2018 19:45:19
00004 suncat0277 pw.x -in pw.inp   Done                     12/26/2018 19:45:19
00005 suncat0277 pw.x -in pw.inp   Done                     12/26/2018 19:45:19
00006 suncat0277 pw.x -in pw.inp   Done                     12/26/2018 19:45:19
00007 suncat0277 pw.x -in pw.inp   Done                     12/26/2018 19:45:19
00008 suncat0276 pw.x -in pw.inp   Done                     12/26/2018 19:45:19
00009 suncat0276 pw.x -in pw.inp   Done                     12/26/2018 19:45:19
00010 suncat0276 pw.x -in pw.inp   Done                     12/26/2018 19:45:19
00011 suncat0276 pw.x -in pw.inp   Done                     12/26/2018 19:45:19
00012 suncat0276 pw.x -in pw.inp   Done                     12/26/2018 19:45:19
00013 suncat0276 pw.x -in pw.inp   Done                     12/26/2018 19:45:19
00014 suncat0276 pw.x -in pw.inp   Done                     12/26/2018 19:45:19
00015 suncat0276 pw.x -in pw.inp   Done                     12/26/2018 19:45:19
00016 suncat0274 pw.x -in pw.inp   Done                     12/26/2018 19:45:19
00017 suncat0274 pw.x -in pw.inp   Done                     12/26/2018 19:45:19
00018 suncat0274 pw.x -in pw.inp   Done                     12/26/2018 19:45:19
00019 suncat0274 pw.x -in pw.inp   Done                     12/26/2018 19:45:19
00020 suncat0274 pw.x -in pw.inp   Done                     12/26/2018 19:45:19
00021 suncat0274 pw.x -in pw.inp   Done                     12/26/2018 19:45:19
00022 suncat0274 pw.x -in pw.inp   Done                     12/26/2018 19:45:19
00023 suncat0274 pw.x -in pw.inp   Done                     12/26/2018 19:45:19
00024 suncat0273 pw.x -in pw.inp   Done                     12/26/2018 19:45:19
00025 suncat0273 pw.x -in pw.inp   Done                     12/26/2018 19:45:19
00026 suncat0273 pw.x -in pw.inp   Done                     12/26/2018 19:45:19
00027 suncat0273 pw.x -in pw.inp   Done                     12/26/2018 19:45:19
00028 suncat0273 pw.x -in pw.inp   Done                     12/26/2018 19:45:19
00029 suncat0273 pw.x -in pw.inp   Done                     12/26/2018 19:45:19
00030 suncat0273 pw.x -in pw.inp   Done                     12/26/2018 19:45:19
00031 suncat0273 pw.x -in pw.inp   Done                     12/26/2018 19:45:19
00032 suncat0230 pw.x -in pw.inp   Done                     12/26/2018 19:45:19
00033 suncat0230 pw.x -in pw.inp   Done                     12/26/2018 19:45:19
00034 suncat0230 pw.x -in pw.inp   Done                     12/26/2018 19:45:19
00035 suncat0230 pw.x -in pw.inp   Done                     12/26/2018 19:45:19
00036 suncat0230 pw.x -in pw.inp   Done                     12/26/2018 19:45:19
00037 suncat0230 pw.x -in pw.inp   Done                     12/26/2018 19:45:19
00038 suncat0230 pw.x -in pw.inp   Done                     12/26/2018 19:45:19
00039 suncat0230 pw.x -in pw.inp   Done                     12/26/2018 19:45:19
00040 suncat0229 pw.x -in pw.inp   Done                     12/26/2018 19:45:19
00041 suncat0229 pw.x -in pw.inp   Done                     12/26/2018 19:45:19
00042 suncat0229 pw.x -in pw.inp   Done                     12/26/2018 19:45:19
00043 suncat0229 pw.x -in pw.inp   Done                     12/26/2018 19:45:19
00044 suncat0229 pw.x -in pw.inp   Done                     12/26/2018 19:45:19
00045 suncat0229 pw.x -in pw.inp   Done                     12/26/2018 19:45:19
00046 suncat0229 pw.x -in pw.inp   Done                     12/26/2018 19:45:19
00047 suncat0229 pw.x -in pw.inp   Done                     12/26/2018 19:45:19
00048 suncat0205 pw.x -in pw.inp   Done                     12/26/2018 19:45:19
00049 suncat0205 pw.x -in pw.inp   Done                     12/26/2018 19:45:19
00050 suncat0205 pw.x -in pw.inp   Done                     12/26/2018 19:45:19
00051 suncat0205 pw.x -in pw.inp   Done                     12/26/2018 19:45:19
00052 suncat0205 pw.x -in pw.inp   Done                     12/26/2018 19:45:19
00053 suncat0205 pw.x -in pw.inp   Done                     12/26/2018 19:45:19
00054 suncat0205 pw.x -in pw.inp   Done                     12/26/2018 19:45:19
00055 suncat0205 pw.x -in pw.inp   Done                     12/26/2018 19:45:19
00056 suncat0204 pw.x -in pw.inp   Done                     12/26/2018 19:45:19
00057 suncat0204 pw.x -in pw.inp   Done                     12/26/2018 19:45:19
00058 suncat0204 pw.x -in pw.inp   Done                     12/26/2018 19:45:19
00059 suncat0204 pw.x -in pw.inp   Done                     12/26/2018 19:45:19
00060 suncat0204 pw.x -in pw.inp   Done                     12/26/2018 19:45:19
00061 suncat0204 pw.x -in pw.inp   Done                     12/26/2018 19:45:19
00062 suncat0204 pw.x -in pw.inp   Done                     12/26/2018 19:45:19
00063 suncat0204 pw.x -in pw.inp   Done                     12/26/2018 19:45:19