     Program PWSCF v.5.1rc2 (svn rev. 11289) starts on 19Dec2018 at 20:35:43

     Current dimensions of program PWSCF are:
     Max number of different atomic species (ntypx) = 10
     Max number of k-points (npk) =  40000
     Max angular momentum in pseudopotentials (lmaxx) =  3
     Presently stress not available with electric field

     IMPORTANT: XC functional enforced from input :
     Exchange-correlation      = BEEF-VDW ( 1  4 27 13 2)
     Any further DFT definition will be discarded
     Please, verify this is what you really want

     Subspace diagonalization in iterative solution of the eigenvalue problem:
     a serial algorithm will be used

     bravais-lattice index     =            0
     lattice parameter (alat)  =       1.8897  a.u.
     unit-cell volume          =    6064.9261 (a.u.)^3
     number of atoms/cell      =           12
     number of atomic types    =            2
     number of electrons       =       165.00
     number of Kohn-Sham states=          112
     kinetic-energy cutoff     =      36.7493  Ry
     charge density cutoff     =     367.4932  Ry
     convergence threshold     =      1.0E-06
     mixing beta               =       0.1000
     number of iterations used =           10  plain     mixing
     Exchange-correlation      = BEEF-VDW ( 1  4 27 13 2)
     nstep                     =           50

     celldm(1)=   1.889726  celldm(2)=   0.000000  celldm(3)=   0.000000
     celldm(4)=   0.000000  celldm(5)=   0.000000  celldm(6)=   0.000000

     crystal axes: (cart. coord. in units of alat)
               a(1) = (   6.412679   0.000000   0.000000 )
               a(2) = (  -3.206339   5.553543   0.000000 )
               a(3) = (   0.000000   0.000000  25.235930 )

     reciprocal axes: (cart. coord. in units 2 pi/alat)
               b(1) = (  0.155941  0.090033  0.000000 )
               b(2) = (  0.000000  0.180065  0.000000 )
               b(3) = (  0.000000  0.000000  0.039626 )

     PseudoPot. # 1 for Cd read from file:
     /afs/slac.stanford.edu/u/if/mamunm/psp/gbrv1.5pbe/Cd.UPF
     MD5 check sum: 17164a7926edb8e0dc231208abae86a6
     Pseudo is Ultrasoft + core correction, Zval = 12.0
     Generated by new atomic code, or converted to UPF format
     Using radial grid of  889 points,  6 beta functions with:
                l(1) =   0
                l(2) =   0
                l(3) =   1
                l(4) =   1
                l(5) =   2
                l(6) =   2
     Q(r) pseudized with  6 coefficients,  rinner =    1.000   1.000   1.000
                                                       1.000   1.000

     PseudoPot. # 2 for Ga read from file:
     /afs/slac.stanford.edu/u/if/mamunm/psp/gbrv1.5pbe/Ga.UPF
     MD5 check sum: ccd671392a58a050fbb373893b4fcd66
     Pseudo is Ultrasoft + core correction, Zval = 19.0
     Generated by new atomic code, or converted to UPF format
     Using radial grid of  871 points,  6 beta functions with:
                l(1) =   0
                l(2) =   0
                l(3) =   1
                l(4) =   1
                l(5) =   2
                l(6) =   2
     Q(r) pseudized with  8 coefficients,  rinner =    1.250   1.250   1.250
                                                       1.250   1.250

     vdW kernel table read from file vdW_kernel_table
     MD5 check sum: 095c7af220d748ca6e76c0b4c6cfb241

     atomic species   valence    mass     pseudopotential
        Cd1           12.00   112.41400     Cd( 1.00)
        Ga1           19.00    69.72300     Ga( 1.00)

     No symmetry found

   Cartesian axes

     site n.     atom                  positions (alat units)
         1           Cd1 tau(   1) = (   0.0000000   0.0000000  10.0000000  )
         2           Cd1 tau(   2) = (  -1.6031697   2.7767713  10.0000000  )
         3           Cd1 tau(   3) = (   1.6031697   2.7767713  10.0000000  )
         4           Ga1 tau(   4) = (   3.2063393   0.0000000  10.0000000  )
         5           Cd1 tau(   5) = (   3.2063393   1.8511809  12.6179651  )
         6           Cd1 tau(   6) = (   1.6031697   4.6279522  12.6179651  )
         7           Cd1 tau(   7) = (  -1.6031697   4.6279522  12.6179651  )
         8           Ga1 tau(   8) = (   0.0000000   1.8511809  12.6179651  )
         9           Cd1 tau(   9) = (  -0.0000000   3.7023618  15.2359302  )
        10           Cd1 tau(  10) = (   1.6031697   0.9255904  15.2359302  )
        11           Cd1 tau(  11) = (   4.8095090   0.9255904  15.2359302  )
        12           Ga1 tau(  12) = (   3.2063393   3.7023618  15.2359302  )

     number of k points=    20  Fermi-Dirac smearing, width (Ry)=  0.0110
                       cart. coord. in units 2pi/alat
        k(    1) = (   0.0000000   0.0000000   0.0000000), wk =   0.0555556
        k(    2) = (   0.0000000   0.0300109   0.0000000), wk =   0.1111111
        k(    3) = (   0.0000000   0.0600217   0.0000000), wk =   0.1111111
        k(    4) = (   0.0000000  -0.0900326   0.0000000), wk =   0.0555556
        k(    5) = (   0.0259902   0.0150054   0.0000000), wk =   0.1111111
        k(    6) = (   0.0259902   0.0450163   0.0000000), wk =   0.1111111
        k(    7) = (   0.0259902   0.0750272   0.0000000), wk =   0.1111111
        k(    8) = (   0.0259902  -0.0750272   0.0000000), wk =   0.1111111
        k(    9) = (   0.0259902  -0.0450163   0.0000000), wk =   0.1111111
        k(   10) = (   0.0259902  -0.0150054   0.0000000), wk =   0.1111111
        k(   11) = (   0.0519804   0.0300109   0.0000000), wk =   0.1111111
        k(   12) = (   0.0519804   0.0600217   0.0000000), wk =   0.1111111
        k(   13) = (   0.0519804   0.0900326   0.0000000), wk =   0.1111111
        k(   14) = (   0.0519804  -0.0600217   0.0000000), wk =   0.1111111
        k(   15) = (   0.0519804  -0.0300109   0.0000000), wk =   0.1111111
        k(   16) = (   0.0519804   0.0000000   0.0000000), wk =   0.1111111
        k(   17) = (  -0.0779705  -0.0450163   0.0000000), wk =   0.0555556
        k(   18) = (  -0.0779705  -0.0150054   0.0000000), wk =   0.1111111
        k(   19) = (  -0.0779705   0.0150054   0.0000000), wk =   0.1111111
        k(   20) = (  -0.0779705  -0.1350489   0.0000000), wk =   0.0555556

     Largest allocated arrays     est. size (Mb)     dimensions
     Largest temporary arrays     est. size (Mb)     dimensions

     Initial potential from superposition of free atoms
     Check: negative starting charge=   -0.197879

     starting charge  157.49963, renormalised to  165.00000

     negative rho (up, down):  2.073E-01 0.000E+00

     *
     * You are using vdW-DF for exchange-correlation in this calculation.
     * Please cite the following three references that made this development
     * possible:
     *
     *   M. Dion, H. Rydberg, E. Schroder, D. C. Langreth, and
     *   B. I. Lundqvist, Phys. Rev. Lett. 92, 246401 (2004).
     *
     *   T. Thonhauser, V. R. Cooper, S. Li, A. Puzder, P. Hyldgaard, and
     *   D. C. Langreth, Phys. Rev. B 76, 125112 (2007).
     *
     *   G. Roman-Perez and J. M. Soler, Phys. Rev. Lett. 103, 096102 (2009).
     *
     *
     * If you are using vdW-DF2, please also cite:
     *
     *   K. Lee, E. D. Murray, L. Kong, B. I. Lundqvist, and
     *   D. C. Langreth, Phys. Rev. B 82, 081101(R) (2010).
     *
     *
     * If you are calculating the stress with vdW-DF, please also cite:
     *
     *   R. Sabatini, E. Kucukbenli, B. Kolb, T. Thonhauser, and
     *   S. de Gironcoli, J. Phys.: Condens. Matter 24, 424209 (2012).
     *

     Carrying out vdW-DF run using the following parameters:

     Nqs =      20    Nr_points =    1024   r_max =   100.000
     q_mesh =
               0.00001000     0.04494208     0.09755937     0.15916263
               0.23128650     0.31572767     0.41458969     0.53033537
               0.66584808     0.82450364     1.01025438     1.22772762
               1.48234092     1.78043706     2.12944203     2.53805004
               3.01644009     3.57652955     4.23227104     5.00000000

     Gradients computed in reciprocal space

     Adding external electric field

     Computed dipole along edir(3) :
        Dipole               -0.0000 Ry au,         -0.0000 Debye
        Dipole field         -0.0000 Ry au

        Potential amp.        0.0000 Ry
        Total length         46.4968 bohr

     Starting wfc are  117 randomized atomic wfcs

     Self-consistent Calculation

     iteration #  1     ecut=    36.75 Ry     beta=0.10
     Davidson diagonalization with overlap
     ethr =  1.00E-02,  avg # of iterations =  7.8

[...]

     total energy              =   -2294.00041620 Ry
     Harris-Foulkes estimate   =   -2299.38084553 Ry
     estimated scf accuracy    <      29.82627545 Ry

[...]

     End of self-consistent calculation

          k = 0.0000 0.0000 0.0000 ( 22899 PWs)   bands (ev):

   -94.7025 -94.6968 -94.6967 -94.6647 -94.6647 -94.6482 -94.6482 -94.6480
   -94.6480 -15.0327 -15.0286 -15.0285 -15.0232 -15.0229 -14.9837 -14.9826
   -14.9754 -14.9753 -14.9741 -14.9740 -14.9693 -14.9692 -14.9687 -14.9687
    -9.3139  -9.2811  -9.1961  -9.1705  -9.1705  -9.1320  -9.0932  -9.0090
    -9.0090  -8.9743  -8.9743  -8.9669  -8.9669  -8.9084  -8.8871  -8.8734
    -8.8734  -8.8148  -8.7338  -8.7338  -8.6835  -8.6479  -8.6095  -8.6094
    -8.5498  -8.5498  -8.5347  -8.5347  -8.5077  -8.4954  -8.4954  -8.4467
    -8.4467  -8.4168  -8.4168  -8.3766  -8.3766  -8.3214  -8.3214  -8.3092
    -8.2335  -8.2192  -8.2192  -8.1424  -8.1340  -8.0598  -6.6114  -4.7364
    -3.0855  -2.9788  -2.2106  -2.2106  -1.9871  -1.9871  -1.9208  -1.2800
    -1.1044  -1.1044  -0.8444  -0.3593  -0.3593   0.4225   0.6838   1.1280
     1.1280   1.5489   1.5489   2.0346   3.3225   3.5657   3.7603   4.0143
     4.6205   4.6205   4.6662   4.7492   4.7492   4.9633   6.0910   6.0910
     6.2034   6.4755   6.7946   7.0644   7.0645   7.1384   7.1385   7.2656

[...]

          k =-0.0780-0.0450 0.0000 ( 22820 PWs)   bands (ev):

[...]

     the Fermi energy is     0.1633 ev

!    total energy              =   -2294.51119726 Ry
     Harris-Foulkes estimate   =   -2294.51119993 Ry
     estimated scf accuracy    <       0.00000043 Ry

     The total energy is the sum of the following terms:

     one-electron contribution =  -11869.09509829 Ry
     hartree contribution      =    6003.89073821 Ry
     xc contribution           =    -516.06172979 Ry
     ewald contribution        =    4086.78255584 Ry
     electric field correction =       0.00000000 Ry
     smearing contrib. (-TS)   =      -0.02766324 Ry

     convergence has been achieved in  15 iterations

 BEEF-vdW xc energy contributions
           1 :   -454.841228589007
           2 :    414.928334077545
           3 :   -347.822390914526
           4 :    272.909851891544
           5 :   -207.762832375682
           6 :    161.675262505181
           7 :   -134.065277983947
           8 :    117.744555590704
           9 :   -104.528827380180
          10 :    89.8016037973081
          11 :   -73.8115082589828
          12 :    59.7429465156505
          13 :   -50.4788908153444
          14 :    46.3687586957666
          15 :   -45.2179446234899
[...]
     /afs/slac.stanford.edu/u/if/mamunm/psp/gbrv1.5pbe/Cd.UPF
     MD5 check sum: 17164a7926edb8e0dc231208abae86a6
     Pseudo is Ultrasoft + core correction, Zval = 12.0
     Generated by new atomic code, or converted to UPF format
     Using radial grid of  889 points,  6 beta functions with:
                l(1) =   0
                l(2) =   0
                l(3) =   1
                l(4) =   1
                l(5) =   2
                l(6) =   2
     Q(r) pseudized with  6 coefficients,  rinner =    1.000   1.000   1.000
                                                       1.000   1.000

     PseudoPot. # 2 for Ga read from file:
     /afs/slac.stanford.edu/u/if/mamunm/psp/gbrv1.5pbe/Ga.UPF
     MD5 check sum: ccd671392a58a050fbb373893b4fcd66
     Pseudo is Ultrasoft + core correction, Zval = 19.0
     Generated by new atomic code, or converted to UPF format
     Using radial grid of  871 points,  6 beta functions with:
                l(1) =   0
                l(2) =   0
                l(3) =   1
                l(4) =   1
                l(5) =   2
                l(6) =   2
     Q(r) pseudized with  8 coefficients,  rinner =    1.250   1.250   1.250
                                                       1.250   1.250

     vdW kernel table read from file vdW_kernel_table
     MD5 check sum: 095c7af220d748ca6e76c0b4c6cfb241

     atomic species   valence    mass     pseudopotential
        Cd1           12.00   112.41400     Cd( 1.00)
        Ga1           19.00    69.72300     Ga( 1.00)

     No symmetry found

   Cartesian axes

     site n.     atom                  positions (alat units)
         1           Cd1 tau(   1) = (   0.0000000   0.0000000  10.0000000  )
         2           Cd1 tau(   2) = (  -1.6031697   2.7767713  10.0000000  )
         3           Cd1 tau(   3) = (   1.6031697   2.7767713  10.0000000  )
         4           Ga1 tau(   4) = (   3.2063393   0.0000000  10.0000000  )
         5           Cd1 tau(   5) = (   3.2063393   1.8511809  12.6179651  )
         6           Cd1 tau(   6) = (   1.6031697   4.6279522  12.6179651  )
         7           Cd1 tau(   7) = (  -1.6031697   4.6279522  12.6179651  )
         8           Ga1 tau(   8) = (   0.0000000   1.8511809  12.6179651  )
         9           Cd1 tau(   9) = (   0.0000045   3.7055082  15.3820943  )
        10           Cd1 tau(  10) = (   1.6058683   0.9238808  15.3819707  )
        11           Cd1 tau(  11) = (   4.8067554   0.9239916  15.3817849  )
        12           Ga1 tau(  12) = (   3.2064645   3.7024941  15.2212598  )

     number of k points=    20  Fermi-Dirac smearing, width (Ry)=  0.0110
                       cart. coord. in units 2pi/alat
        k(    1) = (   0.0000000   0.0000000   0.0000000), wk =   0.0555556
        k(    2) = (   0.0000000   0.0300109   0.0000000), wk =   0.1111111
        k(    3) = (   0.0000000   0.0600217   0.0000000), wk =   0.1111111
        k(    4) = (   0.0000000  -0.0900326   0.0000000), wk =   0.0555556
        k(    5) = (   0.0259902   0.0150054   0.0000000), wk =   0.1111111
        k(    6) = (   0.0259902   0.0450163   0.0000000), wk =   0.1111111
        k(    7) = (   0.0259902   0.0750272   0.0000000), wk =   0.1111111
        k(    8) = (   0.0259902  -0.0750272   0.0000000), wk =   0.1111111
        k(    9) = (   0.0259902  -0.0450163   0.0000000), wk =   0.1111111
        k(   10) = (   0.0259902  -0.0150054   0.0000000), wk =   0.1111111
        k(   11) = (   0.0519804   0.0300109   0.0000000), wk =   0.1111111
        k(   12) = (   0.0519804   0.0600217   0.0000000), wk =   0.1111111
        k(   13) = (   0.0519804   0.0900326   0.0000000), wk =   0.1111111
        k(   14) = (   0.0519804  -0.0600217   0.0000000), wk =   0.1111111
        k(   15) = (   0.0519804  -0.0300109   0.0000000), wk =   0.1111111
        k(   16) = (   0.0519804   0.0000000   0.0000000), wk =   0.1111111
        k(   17) = (  -0.0779705  -0.0450163   0.0000000), wk =   0.0555556
        k(   18) = (  -0.0779705  -0.0150054   0.0000000), wk =   0.1111111
        k(   19) = (  -0.0779705   0.0150054   0.0000000), wk =   0.1111111
        k(   20) = (  -0.0779705  -0.1350489   0.0000000), wk =   0.0555556

     Largest allocated arrays     est. size (Mb)     dimensions
     Largest temporary arrays     est. size (Mb)     dimensions

     Initial potential from superposition of free atoms
     Check: negative starting charge=   -0.198045

     starting charge  157.49963, renormalised to  165.00000

[...]

     *
     * You are using vdW-DF for exchange-correlation in this calculation.
     * Please cite the following three references that made this development
     * possible:
     *
     *   M. Dion, H. Rydberg, E. Schroder, D. C. Langreth, and
     *   B. I. Lundqvist, Phys. Rev. Lett. 92, 246401 (2004).
     *
     *   T. Thonhauser, V. R. Cooper, S. Li, A. Puzder, P. Hyldgaard, and
     *   D. C. Langreth, Phys. Rev. B 76, 125112 (2007).
     *
     *   G. Roman-Perez and J. M. Soler, Phys. Rev. Lett. 103, 096102 (2009).
     *
     *
     * If you are using vdW-DF2, please also cite:
     *
     *   K. Lee, E. D. Murray, L. Kong, B. I. Lundqvist, and
     *   D. C. Langreth, Phys. Rev. B 82, 081101(R) (2010).
     *
     *
     * If you are calculating the stress with vdW-DF, please also cite:
     *
     *   R. Sabatini, E. Kucukbenli, B. Kolb, T. Thonhauser, and
     *   S. de Gironcoli, J. Phys.: Condens. Matter 24, 424209 (2012).
     *

     Carrying out vdW-DF run using the following parameters:

     Nqs =      20    Nr_points =    1024   r_max =   100.000
     q_mesh =
               0.00001000     0.04494208     0.09755937     0.15916263
               0.23128650     0.31572767     0.41458969     0.53033537
               0.66584808     0.82450364     1.01025438     1.22772762
               1.48234092     1.78043706     2.12944203     2.53805004
               3.01644009     3.57652955     4.23227104     5.00000000

     Gradients computed in reciprocal space

[...]

     Starting wfc are  117 randomized atomic wfcs

     Self-consistent Calculation

[...]

     total energy              =   -2294.51511289 Ry
     Harris-Foulkes estimate   =   -2294.51511576 Ry
     estimated scf accuracy    <       0.00000150 Ry

     iteration # 14     ecut=    36.75 Ry     beta=0.10
     Davidson diagonalization with overlap
     ethr =  9.10E-10,  avg # of iterations =  5.2

[...]

     negative rho (up, down):  2.032E-01 0.000E+00

     Adding external electric field

     Computed dipole along edir(3) :
        Dipole                0.0074 Ry au,          0.0187 Debye
        Dipole field          0.0000 Ry au

        Potential amp.       -0.0014 Ry
        Total length         46.4968 bohr

     End of self-consistent calculation

[...]

          k = 0.0520 0.0000 0.0000 ( 22820 PWs)   bands (ev):

[...]

          k =-0.0780-0.1350 0.0000 ( 22820 PWs)   bands (ev):

   -94.6920 -94.6852 -94.6850 -94.6606 -94.6434 -94.6432 -94.6396 -94.6258
   -94.6256 -15.0180 -15.0132 -15.0132 -15.0085 -15.0073 -14.9777 -14.9700
   -14.9699 -14.9628 -14.9610 -14.9570 -14.9507 -14.9506 -14.9455 -14.9438
    -9.1156  -9.0419  -9.0337  -8.9689  -8.9545  -8.9245  -8.9043  -8.9028
    -8.8772  -8.8683  -8.8573  -8.8524  -8.8459  -8.7886  -8.7425  -8.7389
    -8.6900  -8.6853  -8.6577  -8.6552  -8.6309  -8.6258  -8.6127  -8.6010
    -8.5951  -8.5892  -8.5790  -8.5572  -8.5477  -8.5418  -8.5305  -8.5199
    -8.5186  -8.5164  -8.5005  -8.4851  -8.4754  -8.4450  -8.4417  -8.4174
    -8.3859  -8.3756  -8.3162  -8.2355  -8.1805  -6.8105  -6.5518  -5.6738
    -4.9092  -4.1085  -3.2769  -3.2755  -2.7562  -2.2344  -1.9798  -1.0648
    -0.0344   0.4058   0.4080   1.3752   1.6103   1.7316   2.0410   2.2023
     2.4594   2.9541   3.0262   3.2109   3.2553   3.4789   3.9286   3.9937
     4.0466   4.4773   4.4996   4.8035   5.1148   5.1331   5.2652   5.2657
     5.3029   5.3336   5.5121   5.7612   5.7955   6.0180   6.0871   6.1968

     the Fermi energy is     0.1745 ev

!    total energy              =   -2294.51511011 Ry
     Harris-Foulkes estimate   =   -2294.51511404 Ry
     estimated scf accuracy    <       0.00000071 Ry

     The total energy is the sum of the following terms:

     one-electron contribution =  -11728.32785618 Ry
     hartree contribution      =    5933.65741367 Ry
     xc contribution           =    -516.01678170 Ry
     ewald contribution        =    4016.19966912 Ry
     electric field correction =       0.00000011 Ry
     smearing contrib. (-TS)   =      -0.02755513 Ry

     convergence has been achieved in  14 iterations

 BEEF-vdW xc energy contributions
           1 :   -454.823588749848
           2 :    414.862449209700
           3 :   -347.702271562632
           4 :    272.779623358415
           5 :   -207.684393835329
           6 :    161.681968759801
           7 :   -134.137479466358
           8 :    117.824864094024
           9 :   -104.564262715215
          10 :    89.7802936399974
          11 :   -73.7670329144335
          12 :    59.7249246869426
          13 :   -50.5137994222579
          14 :    46.4413231938597
          15 :   -45.2861922935434
          16 :    44.0758478602068
          17 :   -41.0807113492215
          18 :    36.6280795031601
          19 :   -32.3905560988133
          20 :    29.9004962429468
          21 :   -29.4447799703719
          22 :    30.0352554308551
          23 :   -30.2864785504063
          24 :    29.4228522711920
          25 :   -27.6805161468926
          26 :    25.9262504288201
          27 :   -24.9072706848156
          28 :    24.7366677340148
          29 :   -24.9421890500598
          30 :    24.9348365151433
          31 :   -38.7090156892887
          32 :   -27.6668667294101

     Forces acting on atoms (Ry/au):

     negative rho (up, down):  2.032E-01 0.000E+00
     atom    1 type  1   force =    -0.00000329    0.00044878   -0.00659427
     atom    2 type  1   force =     0.00038233   -0.00022727   -0.00662634
     atom    3 type  1   force =    -0.00039885   -0.00022336   -0.00661652
     atom    4 type  2   force =    -0.00000966    0.00001286    0.00053297
     atom    5 type  1   force =    -0.00000472   -0.00222607    0.00428996
     atom    6 type  1   force =    -0.00193255    0.00110063    0.00429385
     atom    7 type  1   force =     0.00193873    0.00112017    0.00429164
     atom    8 type  2   force =     0.00001092    0.00001538    0.00372884
     atom    9 type  1   force =     0.00001821   -0.00036641    0.00115589
     atom   10 type  1   force =    -0.00031262    0.00017641    0.00116189
     atom   11 type  1   force =     0.00031675    0.00018000    0.00114878
     atom   12 type  2   force =    -0.00000525   -0.00001112   -0.00076669

     Total force =     0.014871     Total SCF correction =     0.002314
     SCF correction compared to forces is large: reduce conv_thr to get better values

     entering subroutine stress ...

     negative rho (up, down):  2.032E-01 0.000E+00
          total   stress  (Ry/bohr**3)                   (kbar)     P=   -6.31
  -0.00006247   0.00000000   0.00000000         -9.19      0.00      0.00
   0.00000000  -0.00006230   0.00000000          0.00     -9.16      0.00
   0.00000000   0.00000000  -0.00000387          0.00      0.00     -0.57

 !ASE

     Writing output data file calc.save

     General routines

     Parallel routines

   This run was terminated on:  21:31:22  19Dec2018

   JOB DONE.
Job  /afs/slac/g/suncat/bin/suncat-tsmpirun -x LD_LIBRARY_PATH -wdir /scratch/qe773426_WxfeU pw.x -in pw.inp

TID   HOST_NAME   COMMAND_LINE            STATUS            TERMINATION_TIME
00000 suncat0167 pw.x -in pw.inp   Done                     12/19/2018 21:31:22
00001 suncat0167 pw.x -in pw.inp   Done                     12/19/2018 21:31:22
00002 suncat0167 pw.x -in pw.inp   Done                     12/19/2018 21:31:22
00003 suncat0167 pw.x -in pw.inp   Done                     12/19/2018 21:31:22
00004 suncat0167 pw.x -in pw.inp   Done                     12/19/2018 21:31:22
00005 suncat0167 pw.x -in pw.inp   Done                     12/19/2018 21:31:22
00006 suncat0167 pw.x -in pw.inp   Done                     12/19/2018 21:31:22
00007 suncat0167 pw.x -in pw.inp   Done                     12/19/2018 21:31:22
00008 suncat0166 pw.x -in pw.inp   Done                     12/19/2018 21:31:22
00009 suncat0166 pw.x -in pw.inp   Done                     12/19/2018 21:31:22
00010 suncat0166 pw.x -in pw.inp   Done                     12/19/2018 21:31:22
00011 suncat0166 pw.x -in pw.inp   Done                     12/19/2018 21:31:22
00012 suncat0166 pw.x -in pw.inp   Done                     12/19/2018 21:31:22
00013 suncat0166 pw.x -in pw.inp   Done                     12/19/2018 21:31:22
00014 suncat0166 pw.x -in pw.inp   Done                     12/19/2018 21:31:22
00015 suncat0166 pw.x -in pw.inp   Done                     12/19/2018 21:31:22
00016 suncat0165 pw.x -in pw.inp   Done                     12/19/2018 21:31:22
00017 suncat0165 pw.x -in pw.inp   Done                     12/19/2018 21:31:22
00018 suncat0165 pw.x -in pw.inp   Done                     12/19/2018 21:31:22
00019 suncat0165 pw.x -in pw.inp   Done                     12/19/2018 21:31:22
00020 suncat0165 pw.x -in pw.inp   Done                     12/19/2018 21:31:22
00021 suncat0165 pw.x -in pw.inp   Done                     12/19/2018 21:31:22
00022 suncat0165 pw.x -in pw.inp   Done                     12/19/2018 21:31:22
00023 suncat0165 pw.x -in pw.inp   Done                     12/19/2018 21:31:22
00024 suncat0164 pw.x -in pw.inp   Done                     12/19/2018 21:31:22
00025 suncat0164 pw.x -in pw.inp   Done                     12/19/2018 21:31:22
00026 suncat0164 pw.x -in pw.inp   Done                     12/19/2018 21:31:22
00027 suncat0164 pw.x -in pw.inp   Done                     12/19/2018 21:31:22
00028 suncat0164 pw.x -in pw.inp   Done                     12/19/2018 21:31:22
00029 suncat0164 pw.x -in pw.inp   Done                     12/19/2018 21:31:22
00030 suncat0164 pw.x -in pw.inp   Done                     12/19/2018 21:31:22
00031 suncat0164 pw.x -in pw.inp   Done                     12/19/2018 21:31:22
00032 suncat0163 pw.x -in pw.inp   Done                     12/19/2018 21:31:22
00033 suncat0163 pw.x -in pw.inp   Done                     12/19/2018 21:31:22
00034 suncat0163 pw.x -in pw.inp   Done                     12/19/2018 21:31:22
00035 suncat0163 pw.x -in pw.inp   Done                     12/19/2018 21:31:22
00036 suncat0163 pw.x -in pw.inp   Done                     12/19/2018 21:31:22
00037 suncat0163 pw.x -in pw.inp   Done                     12/19/2018 21:31:22
00038 suncat0163 pw.x -in pw.inp   Done                     12/19/2018 21:31:22
00039 suncat0163 pw.x -in pw.inp   Done                     12/19/2018 21:31:22
00040 suncat0162 pw.x -in pw.inp   Done                     12/19/2018 21:31:22
00041 suncat0162 pw.x -in pw.inp   Done                     12/19/2018 21:31:22
00042 suncat0162 pw.x -in pw.inp   Done                     12/19/2018 21:31:22
00043 suncat0162 pw.x -in pw.inp   Done                     12/19/2018 21:31:22
00044 suncat0162 pw.x -in pw.inp   Done                     12/19/2018 21:31:22
00045 suncat0162 pw.x -in pw.inp   Done                     12/19/2018 21:31:22
00046 suncat0162 pw.x -in pw.inp   Done                     12/19/2018 21:31:22
00047 suncat0162 pw.x -in pw.inp   Done                     12/19/2018 21:31:22
00048 suncat0161 pw.x -in pw.inp   Done                     12/19/2018 21:31:22
00049 suncat0161 pw.x -in pw.inp   Done                     12/19/2018 21:31:22
00050 suncat0161 pw.x -in pw.inp   Done                     12/19/2018 21:31:22
00051 suncat0161 pw.x -in pw.inp   Done                     12/19/2018 21:31:22
00052 suncat0161 pw.x -in pw.inp   Done                     12/19/2018 21:31:22
00053 suncat0161 pw.x -in pw.inp   Done                     12/19/2018 21:31:22
00054 suncat0161 pw.x -in pw.inp   Done                     12/19/2018 21:31:22
00055 suncat0161 pw.x -in pw.inp   Done                     12/19/2018 21:31:22
00056 suncat0159 pw.x -in pw.inp   Done                     12/19/2018 21:31:22
00057 suncat0159 pw.x -in pw.inp   Done                     12/19/2018 21:31:22
00058 suncat0159 pw.x -in pw.inp   Done                     12/19/2018 21:31:22
00059 suncat0159 pw.x -in pw.inp   Done                     12/19/2018 21:31:22
00060 suncat0159 pw.x -in pw.inp   Done                     12/19/2018 21:31:22
00061 suncat0159 pw.x -in pw.inp   Done                     12/19/2018 21:31:22
00062 suncat0159 pw.x -in pw.inp   Done                     12/19/2018 21:31:22
00063 suncat0159 pw.x -in pw.inp   Done                     12/19/2018 21:31:22