     Program PWSCF v.5.1rc2 (svn rev. 11289) starts on 25Dec2018 at 12:34: 8

     Current dimensions of program PWSCF are:
     Max number of different atomic species (ntypx) = 10
     Max number of k-points (npk) =  40000
     Max angular momentum in pseudopotentials (lmaxx) =  3
     Presently stress not available with electric field

     IMPORTANT: XC functional enforced from input :
     Exchange-correlation      = BEEF-VDW ( 1  4 27 13 2)
     Any further DFT definition will be discarded
     Please, verify this is what you really want

     Subspace diagonalization in iterative solution of the eigenvalue problem:
     a serial algorithm will be used

     bravais-lattice index     =            0
     lattice parameter (alat)  =       1.8897  a.u.
     unit-cell volume          =    3915.3575 (a.u.)^3
     number of atoms/cell      =           12
     number of atomic types    =            2
     number of electrons       =       171.00
     number of Kohn-Sham states=          115
     kinetic-energy cutoff     =      36.7493  Ry
     charge density cutoff     =     367.4932  Ry
     convergence threshold     =      1.0E-06
     mixing beta               =       0.1000
     number of iterations used =           10  plain     mixing
     Exchange-correlation      = BEEF-VDW ( 1  4 27 13 2)
     nstep                     =           50

     celldm(1)=   1.889726  celldm(2)=   0.000000  celldm(3)=   0.000000
     celldm(4)=   0.000000  celldm(5)=   0.000000  celldm(6)=   0.000000

     crystal axes: (cart. coord. in units of alat)
               a(1) = (   5.251993   0.000000   0.000000 )
               a(2) = (  -2.625996   4.548359   0.000000 )
               a(3) = (   0.000000   0.000000  24.288234 )

     reciprocal axes: (cart. coord. in units 2 pi/alat)
               b(1) = (  0.190404  0.109930  0.000000 )
               b(2) = (  0.000000  0.219860  0.000000 )
               b(3) = (  0.000000  0.000000  0.041172 )

     PseudoPot. # 1 for Cr read from file:
     /afs/slac.stanford.edu/u/if/mamunm/psp/gbrv1.5pbe/Cr.UPF
     MD5 check sum: 0d52af634a40206e4dee301ad30da4bf
     Pseudo is Ultrasoft + core correction, Zval = 14.0
     Generated by new atomic code, or converted to UPF format
     Using radial grid of  857 points,  6 beta functions with:
                l(1) =   0
                l(2) =   0
                l(3) =   1
                l(4) =   1
                l(5) =   2
                l(6) =   2
     Q(r) pseudized with  8 coefficients,  rinner =    0.950   0.950   0.950
                                                       0.950   0.950

     PseudoPot. # 2 for Re read from file:
     /afs/slac.stanford.edu/u/if/mamunm/psp/gbrv1.5pbe/Re.UPF
     MD5 check sum: 85f993410f3e006da9d71c142b4ad953
     Pseudo is Ultrasoft + core correction, Zval = 15.0
     Generated by new atomic code, or converted to UPF format
     Using radial grid of  981 points,  8 beta functions with:
                l(1) =   0
                l(2) =   0
                l(3) =   1
                l(4) =   1
                l(5) =   2
                l(6) =   2
                l(7) =   3
                l(8) =   3
     Q(r) pseudized with  8 coefficients,  rinner =    1.150   1.150   1.150
                                                       1.150   1.150   1.150
                                                       1.150

     vdW kernel table read from file vdW_kernel_table
     MD5 check sum: 095c7af220d748ca6e76c0b4c6cfb241

     atomic species   valence    mass     pseudopotential
        Cr1           14.00    51.99610     Cr( 1.00)
        Re1           15.00   186.20700     Re( 1.00)

     No symmetry found

   Cartesian axes

     site n.     atom                  positions (alat units)
         1           Cr1 tau(   1) = (   0.0000000   0.0000000  10.0000000  )
         2           Cr1 tau(   2) = (  -1.3129982   2.2741796  10.0000000  )
         3           Cr1 tau(   3) = (   1.3129982   2.2741796  10.0000000  )
         4           Re1 tau(   4) = (   2.6259964   0.0000000  10.0000000  )
         5           Cr1 tau(   5) = (   2.6259964   1.5161197  12.1441171  )
         6           Cr1 tau(   6) = (   1.3129982   3.7902993  12.1441171  )
         7           Cr1 tau(   7) = (  -1.3129982   3.7902993  12.1441171  )
         8           Re1 tau(   8) = (   0.0000000   1.5161197  12.1441171  )
         9           Cr1 tau(   9) = (  -0.0000000   3.0322395  14.2882342  )
        10           Cr1 tau(  10) = (   1.3129982   0.7580599  14.2882342  )
        11           Cr1 tau(  11) = (   3.9389946   0.7580599  14.2882342  )
        12           Re1 tau(  12) = (   2.6259964   3.0322395  14.2882342  )

     number of k points=    20  Fermi-Dirac smearing, width (Ry)=  0.0110
                       cart. coord. in units 2pi/alat
        k(    1) = (   0.0000000   0.0000000   0.0000000), wk =   0.0555556
        k(    2) = (   0.0000000   0.0366433   0.0000000), wk =   0.1111111
        k(    3) = (   0.0000000   0.0732865   0.0000000), wk =   0.1111111
        k(    4) = (   0.0000000  -0.1099298   0.0000000), wk =   0.0555556
        k(    5) = (   0.0317340   0.0183216   0.0000000), wk =   0.1111111
        k(    6) = (   0.0317340   0.0549649   0.0000000), wk =   0.1111111
        k(    7) = (   0.0317340   0.0916081   0.0000000), wk =   0.1111111
        k(    8) = (   0.0317340  -0.0916081   0.0000000), wk =   0.1111111
        k(    9) = (   0.0317340  -0.0549649   0.0000000), wk =   0.1111111
        k(   10) = (   0.0317340  -0.0183216   0.0000000), wk =   0.1111111
        k(   11) = (   0.0634680   0.0366433   0.0000000), wk =   0.1111111
        k(   12) = (   0.0634680   0.0732865   0.0000000), wk =   0.1111111
        k(   13) = (   0.0634680   0.1099298   0.0000000), wk =   0.1111111
        k(   14) = (   0.0634680  -0.0732865   0.0000000), wk =   0.1111111
        k(   15) = (   0.0634680  -0.0366433   0.0000000), wk =   0.1111111
        k(   16) = (   0.0634680   0.0000000   0.0000000), wk =   0.1111111
        k(   17) = (  -0.0952020  -0.0549649   0.0000000), wk =   0.0555556
        k(   18) = (  -0.0952020  -0.0183216   0.0000000), wk =   0.1111111
        k(   19) = (  -0.0952020   0.0183216   0.0000000), wk =   0.1111111
        k(   20) = (  -0.0952020  -0.1648946   0.0000000), wk =   0.0555556

     Largest allocated arrays     est. size (Mb)     dimensions
     Largest temporary arrays     est. size (Mb)     dimensions

     Check: negative/imaginary core charge=   -0.000003    0.000000

     Initial potential from superposition of free atoms
     Check: negative starting charge=   -0.394917

     starting charge  160.49973, renormalised to  171.00000

     negative rho (up, down):  4.208E-01 0.000E+00

     *
     * You are using vdW-DF for exchange-correlation in this calculation.
     * Please cite the following three references that made this development
     * possible:
     *
     *   M. Dion, H. Rydberg, E. Schroder, D. C. Langreth, and
     *   B. I. Lundqvist, Phys. Rev. Lett. 92, 246401 (2004).
     *
     *   T. Thonhauser, V. R. Cooper, S. Li, A. Puzder, P. Hyldgaard, and
     *   D. C. Langreth, Phys. Rev. B 76, 125112 (2007).
     *
     *   G. Roman-Perez and J. M. Soler, Phys. Rev. Lett. 103, 096102 (2009).
     *
     *
     * If you are using vdW-DF2, please also cite:
     *
     *   K. Lee, E. D. Murray, L. Kong, B. I. Lundqvist, and
     *   D. C. Langreth, Phys. Rev. B 82, 081101(R) (2010).
     *
     *
     * If you are calculating the stress with vdW-DF, please also cite:
     *
     *   R. Sabatini, E. Kucukbenli, B. Kolb, T. Thonhauser, and
     *   S. de Gironcoli, J. Phys.: Condens. Matter 24, 424209 (2012).
     *

     Carrying out vdW-DF run using the following parameters:

     Nqs =      20    Nr_points =    1024   r_max =   100.000
     q_mesh =
               0.00001000     0.04494208     0.09755937     0.15916263
               0.23128650     0.31572767     0.41458969     0.53033537
               0.66584808     0.82450364     1.01025438     1.22772762
               1.48234092     1.78043706     2.12944203     2.53805004
               3.01644009     3.57652955     4.23227104     5.00000000

     Gradients computed in reciprocal space

     Adding external electric field

     Computed dipole along edir(3) :
        Dipole                0.0000 Ry au,          0.0000 Debye
        Dipole field          0.0000 Ry au

        Potential amp.       -0.0000 Ry
        Total length         44.7507 bohr

     Starting wfc are  129 randomized atomic wfcs

     Self-consistent Calculation

     iteration #  1     ecut=    36.75 Ry     beta=0.10
     Davidson diagonalization with overlap
     ethr =  1.00E-02,  avg # of iterations =  5.4

[...]

     total energy              =   -2164.18408286 Ry
     Harris-Foulkes estimate   =   -2167.17073713 Ry
     estimated scf accuracy    <      18.29367187 Ry

[...]

     End of self-consistent calculation

          k = 0.0000 0.0000 0.0000 ( 14789 PWs)   bands (ev):

   -78.7651 -78.5884 -78.5882 -70.2073 -70.1380 -70.1377 -70.1041 -70.0952
   -70.0413 -70.0413 -70.0391 -70.0390 -41.7633 -41.7429 -41.7427 -41.6997
   -41.6289 -41.6289 -41.6112 -41.5694 -41.5294 -41.5294 -41.4937 -41.4372
   -41.4371 -41.4171 -41.4170 -41.3764 -41.3216 -41.3131 -41.3130 -41.2684
   -41.2682 -41.2209 -41.2030 -41.1315 -41.1314 -41.1293 -41.1293 -40.3979
   -40.3669 -40.3669 -40.3427 -40.2774 -40.1655 -40.1655 -40.1535 -40.1535
    -5.8722  -4.0943  -3.1393  -3.0565  -3.0565  -2.6443  -2.6442  -2.3526
    -2.0333  -2.0333  -2.0001  -1.9903  -1.9903  -1.8211  -1.2963  -1.0002
    -1.0002  -0.3556   0.0756   0.1369   0.1370   0.4338   0.6103   0.9251
     0.9251   0.9869   1.1388   1.1533   1.1533   1.1760   1.1761   1.2678
     1.2743   1.2743   1.3406   1.3406   2.0391   2.0842   2.0843   2.0901
     2.2800   2.4066   2.4066   2.6511   2.6511   3.1203   3.1203   3.1812
     3.1812   3.2855   3.4652   3.5763   3.5763   3.7073   3.7096   3.7857
     3.7857   3.8835   3.9237   3.9938   3.9938   4.3956   4.3957   4.5883
     4.5883   4.7646   4.7647

[...]

          k =-0.0952-0.0550 0.0000 ( 14722 PWs)   bands (ev):

[...]

     the Fermi energy is     1.5108 ev

!    total energy              =   -2162.59587913 Ry
     Harris-Foulkes estimate   =   -2162.59588318 Ry
     estimated scf accuracy    <       0.00000095 Ry

     The total energy is the sum of the following terms:

     one-electron contribution =  -18901.43627120 Ry
     hartree contribution      =    9439.53678406 Ry
     xc contribution           =    -371.45778510 Ry
     ewald contribution        =    7670.88296431 Ry
     electric field correction =       0.00000000 Ry
     smearing contrib. (-TS)   =      -0.12157120 Ry

     convergence has been achieved in  24 iterations

 BEEF-vdW xc energy contributions
           1 :   -325.454688758486
           2 :    297.242146963896
           3 :   -248.852588105849
           4 :    192.845018341569
           5 :   -141.312278071495
           6 :    101.842242902055
           7 :   -76.0562442306788
           8 :    60.8747205022404
           9 :   -51.3634197957763
[...]
     Using radial grid of  857 points,  6 beta functions with:
                l(1) =   0
                l(2) =   0
                l(3) =   1
                l(4) =   1
                l(5) =   2
                l(6) =   2
     Q(r) pseudized with  8 coefficients,  rinner =    0.950   0.950   0.950
                                                       0.950   0.950

     PseudoPot. # 2 for Re read from file:
     /afs/slac.stanford.edu/u/if/mamunm/psp/gbrv1.5pbe/Re.UPF
     MD5 check sum: 85f993410f3e006da9d71c142b4ad953
     Pseudo is Ultrasoft + core correction, Zval = 15.0
     Generated by new atomic code, or converted to UPF format
     Using radial grid of  981 points,  8 beta functions with:
                l(1) =   0
                l(2) =   0
                l(3) =   1
                l(4) =   1
                l(5) =   2
                l(6) =   2
                l(7) =   3
                l(8) =   3
     Q(r) pseudized with  8 coefficients,  rinner =    1.150   1.150   1.150
                                                       1.150   1.150   1.150
                                                       1.150

     vdW kernel table read from file vdW_kernel_table
     MD5 check sum: 095c7af220d748ca6e76c0b4c6cfb241

     atomic species   valence    mass     pseudopotential
        Cr1           14.00    51.99610     Cr( 1.00)
        Re1           15.00   186.20700     Re( 1.00)

     No symmetry found

   Cartesian axes

     site n.     atom                  positions (alat units)
         1           Cr1 tau(   1) = (   0.0000000   0.0000000  10.0000000  )
         2           Cr1 tau(   2) = (  -1.3129982   2.2741796  10.0000000  )
         3           Cr1 tau(   3) = (   1.3129982   2.2741796  10.0000000  )
         4           Re1 tau(   4) = (   2.6259964   0.0000000  10.0000000  )
         5           Cr1 tau(   5) = (   2.6259964   1.5161197  12.1441171  )
         6           Cr1 tau(   6) = (   1.3129982   3.7902993  12.1441171  )
         7           Cr1 tau(   7) = (  -1.3129982   3.7902993  12.1441171  )
         8           Re1 tau(   8) = (   0.0000000   1.5161197  12.1441171  )
         9           Cr1 tau(   9) = (  -0.0000055   3.0543149  14.2577702  )
        10           Cr1 tau(  10) = (   1.3320323   0.7469166  14.2577107  )
        11           Cr1 tau(  11) = (   3.9199730   0.7469346  14.2577419  )
        12           Re1 tau(  12) = (   2.6260578   3.0320329  14.2144349  )

     number of k points=    20  Fermi-Dirac smearing, width (Ry)=  0.0110
                       cart. coord. in units 2pi/alat
        k(    1) = (   0.0000000   0.0000000   0.0000000), wk =   0.0555556
        k(    2) = (   0.0000000   0.0366433   0.0000000), wk =   0.1111111
        k(    3) = (   0.0000000   0.0732865   0.0000000), wk =   0.1111111
        k(    4) = (   0.0000000  -0.1099298   0.0000000), wk =   0.0555556
        k(    5) = (   0.0317340   0.0183216   0.0000000), wk =   0.1111111
        k(    6) = (   0.0317340   0.0549649   0.0000000), wk =   0.1111111
        k(    7) = (   0.0317340   0.0916081   0.0000000), wk =   0.1111111
        k(    8) = (   0.0317340  -0.0916081   0.0000000), wk =   0.1111111
        k(    9) = (   0.0317340  -0.0549649   0.0000000), wk =   0.1111111
        k(   10) = (   0.0317340  -0.0183216   0.0000000), wk =   0.1111111
        k(   11) = (   0.0634680   0.0366433   0.0000000), wk =   0.1111111
        k(   12) = (   0.0634680   0.0732865   0.0000000), wk =   0.1111111
        k(   13) = (   0.0634680   0.1099298   0.0000000), wk =   0.1111111
        k(   14) = (   0.0634680  -0.0732865   0.0000000), wk =   0.1111111
        k(   15) = (   0.0634680  -0.0366433   0.0000000), wk =   0.1111111
        k(   16) = (   0.0634680   0.0000000   0.0000000), wk =   0.1111111
        k(   17) = (  -0.0952020  -0.0549649   0.0000000), wk =   0.0555556
        k(   18) = (  -0.0952020  -0.0183216   0.0000000), wk =   0.1111111
        k(   19) = (  -0.0952020   0.0183216   0.0000000), wk =   0.1111111
        k(   20) = (  -0.0952020  -0.1648946   0.0000000), wk =   0.0555556

     Largest allocated arrays     est. size (Mb)     dimensions
     Largest temporary arrays     est. size (Mb)     dimensions

     Check: negative/imaginary core charge=   -0.000003    0.000000

     Initial potential from superposition of free atoms
     Check: negative starting charge=   -0.397436

     starting charge  160.49973, renormalised to  171.00000

[...]

     *
     * You are using vdW-DF for exchange-correlation in this calculation.
     * Please cite the following three references that made this development
     * possible:
     *
     *   M. Dion, H. Rydberg, E. Schroder, D. C. Langreth, and
     *   B. I. Lundqvist, Phys. Rev. Lett. 92, 246401 (2004).
     *
     *   T. Thonhauser, V. R. Cooper, S. Li, A. Puzder, P. Hyldgaard, and
     *   D. C. Langreth, Phys. Rev. B 76, 125112 (2007).
     *
     *   G. Roman-Perez and J. M. Soler, Phys. Rev. Lett. 103, 096102 (2009).
     *
     *
     * If you are using vdW-DF2, please also cite:
     *
     *   K. Lee, E. D. Murray, L. Kong, B. I. Lundqvist, and
     *   D. C. Langreth, Phys. Rev. B 82, 081101(R) (2010).
     *
     *
     * If you are calculating the stress with vdW-DF, please also cite:
     *
     *   R. Sabatini, E. Kucukbenli, B. Kolb, T. Thonhauser, and
     *   S. de Gironcoli, J. Phys.: Condens. Matter 24, 424209 (2012).
     *

     Carrying out vdW-DF run using the following parameters:

     Nqs =      20    Nr_points =    1024   r_max =   100.000
     q_mesh =
               0.00001000     0.04494208     0.09755937     0.15916263
               0.23128650     0.31572767     0.41458969     0.53033537
               0.66584808     0.82450364     1.01025438     1.22772762
               1.48234092     1.78043706     2.12944203     2.53805004
               3.01644009     3.57652955     4.23227104     5.00000000

     Gradients computed in reciprocal space

[...]

     Starting wfc are  129 randomized atomic wfcs

     Self-consistent Calculation

[...]

     total energy              =   -2162.59819512 Ry
     Harris-Foulkes estimate   =   -2162.59819563 Ry
     estimated scf accuracy    <       0.00000135 Ry

     iteration # 25     ecut=    36.75 Ry     beta=0.10
     Davidson diagonalization with overlap
     ethr =  7.89E-10,  avg # of iterations =  2.0

[...]

     negative rho (up, down):  4.121E-01 0.000E+00

     Adding external electric field

     Computed dipole along edir(3) :
        Dipole                0.0190 Ry au,          0.0484 Debye
        Dipole field          0.0001 Ry au

        Potential amp.       -0.0055 Ry
        Total length         44.7507 bohr

     End of self-consistent calculation

[...]

          k = 0.0635 0.0000 0.0000 ( 14745 PWs)   bands (ev):

[...]

          k =-0.0952-0.1649 0.0000 ( 14722 PWs)   bands (ev):

   -78.7410 -78.5711 -78.5322 -70.1428 -70.1210 -70.0956 -70.0614 -70.0433
   -70.0275 -70.0230 -70.0076 -69.9879 -41.6483 -41.6021 -41.5946 -41.5914
   -41.5411 -41.5334 -41.5055 -41.4871 -41.4741 -41.4538 -41.4410 -41.3780
   -41.3743 -41.3567 -41.3322 -41.3293 -41.3273 -41.3011 -41.2975 -41.2702
   -41.2590 -41.2516 -41.2487 -41.2193 -41.1972 -41.1223 -41.0934 -40.4491
   -40.3731 -40.3629 -40.3006 -40.2614 -40.2225 -40.2087 -40.1731 -40.1399
    -4.2284  -3.7901  -2.7931  -2.3027  -2.2864  -2.1652  -1.8565  -1.6190
    -1.5678  -1.4632  -1.3306  -1.1275  -1.0573  -0.9752  -0.8104  -0.5593
    -0.5340  -0.4983  -0.4302  -0.1816  -0.0138   0.0510   0.0869   0.2961
     0.3765   0.4237   0.5208   0.7071   0.7513   0.7610   0.8304   0.8922
     1.0482   1.0592   1.1059   1.1630   1.1937   1.2017   1.5090   1.5310
     1.9516   2.0156   2.0471   2.0906   2.1958   2.2004   2.3556   2.5134
     2.6032   2.6047   2.7538   2.7814   2.7908   2.7948   2.8826   3.0664
     3.1978   3.2781   3.4797   3.6308   3.6838   4.0357   4.0900   4.5657
     4.5991   4.7515   5.3685

     the Fermi energy is     1.5316 ev

!    total energy              =   -2162.59819105 Ry
     Harris-Foulkes estimate   =   -2162.59819480 Ry
     estimated scf accuracy    <       0.00000062 Ry

     The total energy is the sum of the following terms:

     one-electron contribution =  -19012.60450905 Ry
     hartree contribution      =    9495.32725521 Ry
     xc contribution           =    -371.55592089 Ry
     ewald contribution        =    7726.35623711 Ry
     electric field correction =       0.00000116 Ry
     smearing contrib. (-TS)   =      -0.12125459 Ry

     convergence has been achieved in  25 iterations

 BEEF-vdW xc energy contributions
           1 :   -325.554297783589
           2 :    297.373499412521
           3 :   -249.021520929615
           4 :    193.022789817412
           5 :   -141.450393014454
           6 :    101.903161896572
           7 :   -76.0402127514910
           8 :    60.8234426445728
           9 :   -51.3355814241311
          10 :    43.5253827629646
          11 :   -35.6495529262206
          12 :    28.1027957606343
          13 :   -22.1993113993550
          14 :    18.8427402725673
          15 :   -17.8420309846474
          16 :    18.0956609701256
          17 :   -18.3330535227670
          18 :    17.8362039818098
          19 :   -16.6887730203364
          20 :    15.4724282419483
          21 :   -14.7040816979380
          22 :    14.4373873086507
          23 :   -14.2844928515701
          24 :    13.7825333961702
          25 :   -12.7932835209165
          26 :    11.6308526325805
          27 :   -10.8377363437273
          28 :    10.7860776976381
          29 :   -11.3945493490884
          30 :    12.1558710647203
          31 :   -29.8444421409580
          32 :   -21.7196896374020

     Forces acting on atoms (Ry/au):

     negative rho (up, down):  4.121E-01 0.000E+00
     atom    1 type  1   force =    -0.00000011   -0.00595980    0.00742950
     atom    2 type  1   force =    -0.00516643    0.00298351    0.00743467
     atom    3 type  1   force =     0.00516531    0.00298317    0.00743658
     atom    4 type  2   force =    -0.00000306    0.00006964    0.01970923
     atom    5 type  1   force =     0.00000173   -0.00310151   -0.01270152
     atom    6 type  1   force =    -0.00268743    0.00155710   -0.01268771
     atom    7 type  1   force =     0.00268327    0.00155351   -0.01270303
     atom    8 type  2   force =     0.00000175   -0.00000098   -0.00257387
     atom    9 type  1   force =     0.00001562   -0.00009530   -0.00083168
     atom   10 type  1   force =    -0.00008351    0.00005164   -0.00081779
     atom   11 type  1   force =     0.00008739    0.00003600   -0.00082295
     atom   12 type  2   force =    -0.00001453   -0.00007696    0.00112856

     Total force =     0.034401     Total SCF correction =     0.004634
     SCF correction compared to forces is large: reduce conv_thr to get better values

     entering subroutine stress ...

     negative rho (up, down):  4.121E-01 0.000E+00
          total   stress  (Ry/bohr**3)                   (kbar)     P=  -29.44
  -0.00026986   0.00000000   0.00000000        -39.70      0.00      0.00
   0.00000000  -0.00026983  -0.00000006          0.00    -39.69     -0.01
   0.00000000  -0.00000006  -0.00006063          0.00     -0.01     -8.92

 !ASE

     Writing output data file calc.save

     General routines

     Parallel routines

   This run was terminated on:  13:51:46  25Dec2018

   JOB DONE.
Job  /afs/slac/g/suncat/bin/suncat-tsmpirun -x LD_LIBRARY_PATH -wdir /scratch/qe109527_o1pYy pw.x -in pw.inp

TID   HOST_NAME   COMMAND_LINE            STATUS            TERMINATION_TIME
00000 suncat0070 pw.x -in pw.inp   Done                     12/25/2018 13:51:46
00001 suncat0070 pw.x -in pw.inp   Done                     12/25/2018 13:51:46
00002 suncat0070 pw.x -in pw.inp   Done                     12/25/2018 13:51:46
00003 suncat0070 pw.x -in pw.inp   Done                     12/25/2018 13:51:46
00004 suncat0070 pw.x -in pw.inp   Done                     12/25/2018 13:51:46
00005 suncat0070 pw.x -in pw.inp   Done                     12/25/2018 13:51:46
00006 suncat0070 pw.x -in pw.inp   Done                     12/25/2018 13:51:46
00007 suncat0070 pw.x -in pw.inp   Done                     12/25/2018 13:51:46
00008 suncat0039 pw.x -in pw.inp   Done                     12/25/2018 13:51:46
00009 suncat0039 pw.x -in pw.inp   Done                     12/25/2018 13:51:46
00010 suncat0039 pw.x -in pw.inp   Done                     12/25/2018 13:51:46
00011 suncat0039 pw.x -in pw.inp   Done                     12/25/2018 13:51:46
00012 suncat0039 pw.x -in pw.inp   Done                     12/25/2018 13:51:46
00013 suncat0039 pw.x -in pw.inp   Done                     12/25/2018 13:51:46
00014 suncat0039 pw.x -in pw.inp   Done                     12/25/2018 13:51:46
00015 suncat0039 pw.x -in pw.inp   Done                     12/25/2018 13:51:46
00016 suncat0008 pw.x -in pw.inp   Done                     12/25/2018 13:51:46
00017 suncat0008 pw.x -in pw.inp   Done                     12/25/2018 13:51:46
00018 suncat0008 pw.x -in pw.inp   Done                     12/25/2018 13:51:46
00019 suncat0008 pw.x -in pw.inp   Done                     12/25/2018 13:51:46
00020 suncat0008 pw.x -in pw.inp   Done                     12/25/2018 13:51:46
00021 suncat0008 pw.x -in pw.inp   Done                     12/25/2018 13:51:46
00022 suncat0008 pw.x -in pw.inp   Done                     12/25/2018 13:51:46
00023 suncat0008 pw.x -in pw.inp   Done                     12/25/2018 13:51:46
00024 suncat0184 pw.x -in pw.inp   Done                     12/25/2018 13:51:46
00025 suncat0184 pw.x -in pw.inp   Done                     12/25/2018 13:51:46
00026 suncat0184 pw.x -in pw.inp   Done                     12/25/2018 13:51:46
00027 suncat0184 pw.x -in pw.inp   Done                     12/25/2018 13:51:46
00028 suncat0184 pw.x -in pw.inp   Done                     12/25/2018 13:51:46
00029 suncat0184 pw.x -in pw.inp   Done                     12/25/2018 13:51:46
00030 suncat0184 pw.x -in pw.inp   Done                     12/25/2018 13:51:46
00031 suncat0184 pw.x -in pw.inp   Done                     12/25/2018 13:51:46
00032 suncat0256 pw.x -in pw.inp   Done                     12/25/2018 13:51:46
00033 suncat0256 pw.x -in pw.inp   Done                     12/25/2018 13:51:46
00034 suncat0256 pw.x -in pw.inp   Done                     12/25/2018 13:51:46
00035 suncat0256 pw.x -in pw.inp   Done                     12/25/2018 13:51:46
00036 suncat0256 pw.x -in pw.inp   Done                     12/25/2018 13:51:46
00037 suncat0256 pw.x -in pw.inp   Done                     12/25/2018 13:51:46
00038 suncat0256 pw.x -in pw.inp   Done                     12/25/2018 13:51:46
00039 suncat0256 pw.x -in pw.inp   Done                     12/25/2018 13:51:46
00040 suncat0255 pw.x -in pw.inp   Done                     12/25/2018 13:51:46
00041 suncat0255 pw.x -in pw.inp   Done                     12/25/2018 13:51:46
00042 suncat0255 pw.x -in pw.inp   Done                     12/25/2018 13:51:46
00043 suncat0255 pw.x -in pw.inp   Done                     12/25/2018 13:51:46
00044 suncat0255 pw.x -in pw.inp   Done                     12/25/2018 13:51:46
00045 suncat0255 pw.x -in pw.inp   Done                     12/25/2018 13:51:46
00046 suncat0255 pw.x -in pw.inp   Done                     12/25/2018 13:51:46
00047 suncat0255 pw.x -in pw.inp   Done                     12/25/2018 13:51:46
00048 suncat0222 pw.x -in pw.inp   Done                     12/25/2018 13:51:46
00049 suncat0222 pw.x -in pw.inp   Done                     12/25/2018 13:51:46
00050 suncat0222 pw.x -in pw.inp   Done                     12/25/2018 13:51:46
00051 suncat0222 pw.x -in pw.inp   Done                     12/25/2018 13:51:46
00052 suncat0222 pw.x -in pw.inp   Done                     12/25/2018 13:51:46
00053 suncat0222 pw.x -in pw.inp   Done                     12/25/2018 13:51:46
00054 suncat0222 pw.x -in pw.inp   Done                     12/25/2018 13:51:46
00055 suncat0222 pw.x -in pw.inp   Done                     12/25/2018 13:51:46
00056 suncat0221 pw.x -in pw.inp   Done                     12/25/2018 13:51:46
00057 suncat0221 pw.x -in pw.inp   Done                     12/25/2018 13:51:46
00058 suncat0221 pw.x -in pw.inp   Done                     12/25/2018 13:51:46
00059 suncat0221 pw.x -in pw.inp   Done                     12/25/2018 13:51:46
00060 suncat0221 pw.x -in pw.inp   Done                     12/25/2018 13:51:46
00061 suncat0221 pw.x -in pw.inp   Done                     12/25/2018 13:51:46
00062 suncat0221 pw.x -in pw.inp   Done                     12/25/2018 13:51:46
00063 suncat0221 pw.x -in pw.inp   Done                     12/25/2018 13:51:46