     Program PWSCF v.5.1rc2 (svn rev. 11289) starts on 26Dec2018 at  6: 6:12

     Current dimensions of program PWSCF are:
     Max number of different atomic species (ntypx) = 10
     Max number of k-points (npk) =  40000
     Max angular momentum in pseudopotentials (lmaxx) =  3
     Presently stress not available with electric field

     IMPORTANT: XC functional enforced from input :
     Exchange-correlation      = BEEF-VDW ( 1  4 27 13 2)
     Any further DFT definition will be discarded
     Please, verify this is what you really want

     Subspace diagonalization in iterative solution of the eigenvalue problem:
     a serial algorithm will be used

     bravais-lattice index     =            0
     lattice parameter (alat)  =       1.8897  a.u.
     unit-cell volume          =    5371.0057 (a.u.)^3
     number of atoms/cell      =           12
     number of atomic types    =            2
     number of electrons       =       153.00
     number of Kohn-Sham states=          106
     kinetic-energy cutoff     =      36.7493  Ry
     charge density cutoff     =     367.4932  Ry
     convergence threshold     =      1.0E-06
     mixing beta               =       0.1000
     number of iterations used =           10  plain     mixing
     Exchange-correlation      = BEEF-VDW ( 1  4 27 13 2)
     nstep                     =           50

     celldm(1)=   1.889726  celldm(2)=   0.000000  celldm(3)=   0.000000
     celldm(4)=   0.000000  celldm(5)=   0.000000  celldm(6)=   0.000000

     crystal axes: (cart. coord. in units of alat)
               a(1) = (   6.068561   0.000000   0.000000 )
               a(2) = (  -3.034281   5.255528   0.000000 )
               a(3) = (   0.000000   0.000000  24.954960 )

     reciprocal axes: (cart. coord. in units 2 pi/alat)
               b(1) = (  0.164784  0.095138  0.000000 )
               b(2) = (  0.000000  0.190276  0.000000 )
               b(3) = (  0.000000  0.000000  0.040072 )

     PseudoPot. # 1 for Hf read from file:
     /afs/slac.stanford.edu/u/if/mamunm/psp/gbrv1.5pbe/Hf.UPF
     MD5 check sum: 8ee9378dfe14276e333edf04c5e4aa26
     Pseudo is Ultrasoft + core correction, Zval = 12.0
     Generated by new atomic code, or converted to UPF format
     Using radial grid of  921 points,  8 beta functions with:
                l(1) =   0
                l(2) =   0
                l(3) =   0
                l(4) =   1
                l(5) =   1
                l(6) =   2
                l(7) =   2
                l(8) =   3
     Q(r) pseudized with  6 coefficients,  rinner =    1.200   1.200   1.200
                                                       1.200   1.200   1.200
                                                       1.200

     PseudoPot. # 2 for Ir read from file:
     /afs/slac.stanford.edu/u/if/mamunm/psp/gbrv1.5pbe/Ir.UPF
     MD5 check sum: 8836f839c3459d2b385c504ce6d91f2c
     Pseudo is Ultrasoft + core correction, Zval = 15.0
     Generated by new atomic code, or converted to UPF format
     Using radial grid of  983 points,  7 beta functions with:
                l(1) =   0
                l(2) =   0
                l(3) =   1
                l(4) =   1
                l(5) =   1
                l(6) =   2
                l(7) =   2
     Q(r) pseudized with  8 coefficients,  rinner =    1.400   1.400   1.400
                                                       1.400   1.400

     vdW kernel table read from file vdW_kernel_table
     MD5 check sum: 095c7af220d748ca6e76c0b4c6cfb241

     atomic species   valence    mass     pseudopotential
        Hf1           12.00   178.49000     Hf( 1.00)
        Ir1           15.00   192.21700     Ir( 1.00)

     No symmetry found

   Cartesian axes

     site n.     atom                  positions (alat units)
         1           Hf1 tau(   1) = (   0.0000000   0.0000000  10.0000000  )
         2           Hf1 tau(   2) = (  -1.5171404   2.6277642  10.0000000  )
         3           Hf1 tau(   3) = (   1.5171404   2.6277642  10.0000000  )
         4           Ir1 tau(   4) = (   3.0342807   0.0000000  10.0000000  )
         5           Hf1 tau(   5) = (   3.0342807   1.7518428  12.4774798  )
         6           Hf1 tau(   6) = (   1.5171404   4.3796070  12.4774798  )
         7           Hf1 tau(   7) = (  -1.5171404   4.3796070  12.4774798  )
         8           Ir1 tau(   8) = (   0.0000000   1.7518428  12.4774798  )
         9           Hf1 tau(   9) = (  -0.0000000   3.5036856  14.9549597  )
        10           Hf1 tau(  10) = (   1.5171404   0.8759214  14.9549597  )
        11           Hf1 tau(  11) = (   4.5514211   0.8759214  14.9549597  )
        12           Ir1 tau(  12) = (   3.0342807   3.5036856  14.9549597  )

     number of k points=    20  Fermi-Dirac smearing, width (Ry)=  0.0110
                       cart. coord. in units 2pi/alat
        k(    1) = (   0.0000000   0.0000000   0.0000000), wk =   0.0555556
        k(    2) = (   0.0000000   0.0317126   0.0000000), wk =   0.1111111
        k(    3) = (   0.0000000   0.0634253   0.0000000), wk =   0.1111111
        k(    4) = (   0.0000000  -0.0951379   0.0000000), wk =   0.0555556
        k(    5) = (   0.0274639   0.0158563   0.0000000), wk =   0.1111111
        k(    6) = (   0.0274639   0.0475690   0.0000000), wk =   0.1111111
        k(    7) = (   0.0274639   0.0792816   0.0000000), wk =   0.1111111
        k(    8) = (   0.0274639  -0.0792816   0.0000000), wk =   0.1111111
        k(    9) = (   0.0274639  -0.0475690   0.0000000), wk =   0.1111111
        k(   10) = (   0.0274639  -0.0158563   0.0000000), wk =   0.1111111
        k(   11) = (   0.0549279   0.0317126   0.0000000), wk =   0.1111111
        k(   12) = (   0.0549279   0.0634253   0.0000000), wk =   0.1111111
        k(   13) = (   0.0549279   0.0951379   0.0000000), wk =   0.1111111
        k(   14) = (   0.0549279  -0.0634253   0.0000000), wk =   0.1111111
        k(   15) = (   0.0549279  -0.0317126   0.0000000), wk =   0.1111111
        k(   16) = (   0.0549279   0.0000000   0.0000000), wk =   0.1111111
        k(   17) = (  -0.0823918  -0.0475690   0.0000000), wk =   0.0555556
        k(   18) = (  -0.0823918  -0.0158563   0.0000000), wk =   0.1111111
        k(   19) = (  -0.0823918   0.0158563   0.0000000), wk =   0.1111111
        k(   20) = (  -0.0823918  -0.1427069   0.0000000), wk =   0.0555556

     Largest allocated arrays     est. size (Mb)     dimensions
     Largest temporary arrays     est. size (Mb)     dimensions

     Check: negative/imaginary core charge=   -0.000003    0.000000

     Initial potential from superposition of free atoms
     Check: negative starting charge=   -2.053196

     starting charge  133.49989, renormalised to  153.00000

     negative rho (up, down):  2.353E+00 0.000E+00

     *
     * You are using vdW-DF for exchange-correlation in this calculation.
     * Please cite the following three references that made this development
     * possible:
     *
     *   M. Dion, H. Rydberg, E. Schroder, D. C. Langreth, and
     *   B. I. Lundqvist, Phys. Rev. Lett. 92, 246401 (2004).
     *
     *   T. Thonhauser, V. R. Cooper, S. Li, A. Puzder, P. Hyldgaard, and
     *   D. C. Langreth, Phys. Rev. B 76, 125112 (2007).
     *
     *   G. Roman-Perez and J. M. Soler, Phys. Rev. Lett. 103, 096102 (2009).
     *
     *
     * If you are using vdW-DF2, please also cite:
     *
     *   K. Lee, E. D. Murray, L. Kong, B. I. Lundqvist, and
     *   D. C. Langreth, Phys. Rev. B 82, 081101(R) (2010).
     *
     *
     * If you are calculating the stress with vdW-DF, please also cite:
     *
     *   R. Sabatini, E. Kucukbenli, B. Kolb, T. Thonhauser, and
     *   S. de Gironcoli, J. Phys.: Condens. Matter 24, 424209 (2012).
     *

     Carrying out vdW-DF run using the following parameters:

     Nqs =      20    Nr_points =    1024   r_max =   100.000
     q_mesh =
               0.00001000     0.04494208     0.09755937     0.15916263
               0.23128650     0.31572767     0.41458969     0.53033537
               0.66584808     0.82450364     1.01025438     1.22772762
               1.48234092     1.78043706     2.12944203     2.53805004
               3.01644009     3.57652955     4.23227104     5.00000000

     Gradients computed in reciprocal space

     Adding external electric field

     Computed dipole along edir(3) :
        Dipole                0.0000 Ry au,          0.0000 Debye
        Dipole field          0.0000 Ry au

        Potential amp.       -0.0000 Ry
        Total length         45.9791 bohr

     Starting wfc are  153 randomized atomic wfcs

     Self-consistent Calculation

     iteration #  1     ecut=    36.75 Ry     beta=0.10
     Davidson diagonalization with overlap
     ethr =  1.00E-02,  avg # of iterations =  7.7

[...]

     total energy              =   -1968.24663884 Ry
     Harris-Foulkes estimate   =   -2018.89971352 Ry
     estimated scf accuracy    <     285.21629129 Ry

[...]

     End of self-consistent calculation

          k = 0.0000 0.0000 0.0000 ( 20167 PWs)   bands (ev):

   -60.6964 -60.6948 -60.6447 -60.6447 -60.6441 -60.6441 -60.3397 -60.2893
   -60.2893 -47.0387 -47.0387 -47.0143 -46.6928 -46.6928 -46.6924 -46.6924
   -46.6538 -46.6535 -29.6352 -29.5918 -29.4880 -29.4099 -29.4099 -29.3604
   -29.3604 -29.3488 -29.3488 -29.3466 -29.3163 -29.2487 -29.2487 -28.9935
   -28.9935 -28.9920 -28.9684 -28.8094 -28.8094 -28.7970 -28.7970 -28.7767
   -28.7492 -28.7492 -28.6415 -28.5359 -28.5359  -5.2903  -3.7944  -2.8229
    -2.1879  -2.1879  -2.1513  -2.0758  -2.0758  -1.7475  -1.5155  -1.5155
    -1.3441  -1.3441  -1.2361  -1.1647  -0.4721  -0.4721  -0.0334  -0.0334
    -0.0242   0.5889   0.5909   1.4184   1.6209   1.6209   1.7578   1.7578
     1.8514   1.9028   2.0712   2.0712   2.3508   2.4218   2.4218   2.5902
     2.5902   2.7425   2.8728   2.8728   3.2347   3.2347   3.5462   3.5481
     3.5845   3.5845   3.6359   3.6359   4.0517   5.1815   5.3490   5.3491
     5.3667   5.4433   5.6949   5.8887   5.8887   6.0791   6.0792   6.0830
     6.3220   6.3223

[...]

          k =-0.0824-0.0476 0.0000 ( 20260 PWs)   bands (ev):

[...]

     the Fermi energy is     1.8728 ev

!    total energy              =   -1995.15084468 Ry
     Harris-Foulkes estimate   =   -1995.18478187 Ry
     estimated scf accuracy    <       0.00000077 Ry

     The total energy is the sum of the following terms:

     one-electron contribution =  -10546.65782632 Ry
     hartree contribution      =    5270.05302895 Ry
     xc contribution           =    -852.08554060 Ry
     ewald contribution        =    4133.64218288 Ry
     electric field correction =       0.00000003 Ry
     smearing contrib. (-TS)   =      -0.10268961 Ry

     convergence has been achieved in  21 iterations

 BEEF-vdW xc energy contributions
           1 :   -766.742591839212
           2 :    712.851766918303
           3 :   -616.995785061452
           4 :    498.589782204081
           5 :   -378.158015351675
           6 :    271.666594824693
           7 :   -187.689214387744
           8 :    127.702348890311
           9 :   -88.4552620890480
          10 :    64.7280592795032
          11 :   -51.2941691085962
[...]
     Pseudo is Ultrasoft + core correction, Zval = 12.0
     Generated by new atomic code, or converted to UPF format
     Using radial grid of  921 points,  8 beta functions with:
                l(1) =   0
                l(2) =   0
                l(3) =   0
                l(4) =   1
                l(5) =   1
                l(6) =   2
                l(7) =   2
                l(8) =   3
     Q(r) pseudized with  6 coefficients,  rinner =    1.200   1.200   1.200
                                                       1.200   1.200   1.200
                                                       1.200

     PseudoPot. # 2 for Ir read from file:
     /afs/slac.stanford.edu/u/if/mamunm/psp/gbrv1.5pbe/Ir.UPF
     MD5 check sum: 8836f839c3459d2b385c504ce6d91f2c
     Pseudo is Ultrasoft + core correction, Zval = 15.0
     Generated by new atomic code, or converted to UPF format
     Using radial grid of  983 points,  7 beta functions with:
                l(1) =   0
                l(2) =   0
                l(3) =   1
                l(4) =   1
                l(5) =   1
                l(6) =   2
                l(7) =   2
     Q(r) pseudized with  8 coefficients,  rinner =    1.400   1.400   1.400
                                                       1.400   1.400

     vdW kernel table read from file vdW_kernel_table
     MD5 check sum: 095c7af220d748ca6e76c0b4c6cfb241

     atomic species   valence    mass     pseudopotential
        Hf1           12.00   178.49000     Hf( 1.00)
        Ir1           15.00   192.21700     Ir( 1.00)

     No symmetry found

   Cartesian axes

     site n.     atom                  positions (alat units)
         1           Hf1 tau(   1) = (   0.0000000   0.0000000  10.0000000  )
         2           Hf1 tau(   2) = (  -1.5171404   2.6277642  10.0000000  )
         3           Hf1 tau(   3) = (   1.5171404   2.6277642  10.0000000  )
         4           Ir1 tau(   4) = (   3.0342807   0.0000000  10.0000000  )
         5           Hf1 tau(   5) = (   3.0342807   1.7518428  12.4774798  )
         6           Hf1 tau(   6) = (   1.5171404   4.3796070  12.4774798  )
         7           Hf1 tau(   7) = (  -1.5171404   4.3796070  12.4774798  )
         8           Ir1 tau(   8) = (   0.0000000   1.7518428  12.4774798  )
         9           Hf1 tau(   9) = (  -0.0000166   3.4560279  14.9483121  )
        10           Hf1 tau(  10) = (   1.4758798   0.8997360  14.9482864  )
        11           Hf1 tau(  11) = (   4.5927203   0.8997750  14.9483554  )
        12           Ir1 tau(  12) = (   3.0342713   3.5036828  14.6099150  )

     number of k points=    20  Fermi-Dirac smearing, width (Ry)=  0.0110
                       cart. coord. in units 2pi/alat
        k(    1) = (   0.0000000   0.0000000   0.0000000), wk =   0.0555556
        k(    2) = (   0.0000000   0.0317126   0.0000000), wk =   0.1111111
        k(    3) = (   0.0000000   0.0634253   0.0000000), wk =   0.1111111
        k(    4) = (   0.0000000  -0.0951379   0.0000000), wk =   0.0555556
        k(    5) = (   0.0274639   0.0158563   0.0000000), wk =   0.1111111
        k(    6) = (   0.0274639   0.0475690   0.0000000), wk =   0.1111111
        k(    7) = (   0.0274639   0.0792816   0.0000000), wk =   0.1111111
        k(    8) = (   0.0274639  -0.0792816   0.0000000), wk =   0.1111111
        k(    9) = (   0.0274639  -0.0475690   0.0000000), wk =   0.1111111
        k(   10) = (   0.0274639  -0.0158563   0.0000000), wk =   0.1111111
        k(   11) = (   0.0549279   0.0317126   0.0000000), wk =   0.1111111
        k(   12) = (   0.0549279   0.0634253   0.0000000), wk =   0.1111111
        k(   13) = (   0.0549279   0.0951379   0.0000000), wk =   0.1111111
        k(   14) = (   0.0549279  -0.0634253   0.0000000), wk =   0.1111111
        k(   15) = (   0.0549279  -0.0317126   0.0000000), wk =   0.1111111
        k(   16) = (   0.0549279   0.0000000   0.0000000), wk =   0.1111111
        k(   17) = (  -0.0823918  -0.0475690   0.0000000), wk =   0.0555556
        k(   18) = (  -0.0823918  -0.0158563   0.0000000), wk =   0.1111111
        k(   19) = (  -0.0823918   0.0158563   0.0000000), wk =   0.1111111
        k(   20) = (  -0.0823918  -0.1427069   0.0000000), wk =   0.0555556

     Largest allocated arrays     est. size (Mb)     dimensions
     Largest temporary arrays     est. size (Mb)     dimensions

     Check: negative/imaginary core charge=   -0.000003    0.000000

     Initial potential from superposition of free atoms
     Check: negative starting charge=   -2.055164

     starting charge  133.49989, renormalised to  153.00000

[...]

     *
     * You are using vdW-DF for exchange-correlation in this calculation.
     * Please cite the following three references that made this development
     * possible:
     *
     *   M. Dion, H. Rydberg, E. Schroder, D. C. Langreth, and
     *   B. I. Lundqvist, Phys. Rev. Lett. 92, 246401 (2004).
     *
     *   T. Thonhauser, V. R. Cooper, S. Li, A. Puzder, P. Hyldgaard, and
     *   D. C. Langreth, Phys. Rev. B 76, 125112 (2007).
     *
     *   G. Roman-Perez and J. M. Soler, Phys. Rev. Lett. 103, 096102 (2009).
     *
     *
     * If you are using vdW-DF2, please also cite:
     *
     *   K. Lee, E. D. Murray, L. Kong, B. I. Lundqvist, and
     *   D. C. Langreth, Phys. Rev. B 82, 081101(R) (2010).
     *
     *
     * If you are calculating the stress with vdW-DF, please also cite:
     *
     *   R. Sabatini, E. Kucukbenli, B. Kolb, T. Thonhauser, and
     *   S. de Gironcoli, J. Phys.: Condens. Matter 24, 424209 (2012).
     *

     Carrying out vdW-DF run using the following parameters:

     Nqs =      20    Nr_points =    1024   r_max =   100.000
     q_mesh =
               0.00001000     0.04494208     0.09755937     0.15916263
               0.23128650     0.31572767     0.41458969     0.53033537
               0.66584808     0.82450364     1.01025438     1.22772762
               1.48234092     1.78043706     2.12944203     2.53805004
               3.01644009     3.57652955     4.23227104     5.00000000

     Gradients computed in reciprocal space

[...]

     Starting wfc are  153 randomized atomic wfcs

     Self-consistent Calculation

[...]

     total energy              =   -1995.20842960 Ry
     Harris-Foulkes estimate   =   -1995.20842719 Ry
     estimated scf accuracy    <       0.00000179 Ry

     iteration # 27     ecut=    36.75 Ry     beta=0.10
     Davidson diagonalization with overlap
     ethr =  1.17E-09,  avg # of iterations =  2.0

[...]

     negative rho (up, down):  1.987E+00 0.000E+00

     Adding external electric field

     Computed dipole along edir(3) :
        Dipole                0.0637 Ry au,          0.1619 Debye
        Dipole field          0.0001 Ry au

        Potential amp.       -0.0137 Ry
        Total length         45.9791 bohr

     End of self-consistent calculation

[...]

          k = 0.0549 0.0000 0.0000 ( 20217 PWs)   bands (ev):

[...]

          k =-0.0824-0.1427 0.0000 ( 20260 PWs)   bands (ev):

   -60.6157 -60.5914 -60.5849 -60.5765 -60.5678 -60.5507 -60.2372 -60.2203
   -60.2032 -46.9355 -46.9352 -46.9171 -46.8708 -46.8210 -46.8207 -46.6269
   -46.6266 -46.6087 -29.4144 -29.3708 -29.3606 -29.3082 -29.2829 -29.2473
   -29.2095 -29.2086 -29.1910 -29.1648 -29.1268 -29.1095 -29.0898 -29.0631
   -29.0451 -29.0425 -29.0155 -28.8513 -28.7879 -28.7692 -28.7533 -28.7472
   -28.6840 -28.6711 -28.6611 -28.6408 -28.4914  -3.6232  -3.5155  -2.3005
    -2.1093  -1.6633  -1.5291  -1.4466  -1.4376  -1.3048  -0.9528  -0.9528
    -0.8643  -0.6943  -0.6661  -0.5999  -0.4694  -0.3309  -0.2174  -0.1486
    -0.0155   0.1432   0.2550   0.3576   0.7903   0.9515   1.2070   1.3840
     1.4422   1.4828   1.5348   1.6769   1.7175   1.8443   1.9354   2.1019
     2.2402   2.4300   2.4634   2.8173   2.8564   2.9103   3.4087   3.4593
     3.5584   3.7384   3.7996   3.8866   3.8972   4.1167   4.6752   4.8585
     4.9155   4.9689   5.0662   5.3753   5.4944   5.5976   5.6697   5.7883
     5.8393   6.2284

     the Fermi energy is     1.9587 ev

!    total energy              =   -1995.20843755 Ry
     Harris-Foulkes estimate   =   -1995.20842969 Ry
     estimated scf accuracy    <       0.00000081 Ry

     The total energy is the sum of the following terms:

     one-electron contribution =  -10703.78681535 Ry
     hartree contribution      =    5348.93931345 Ry
     xc contribution           =    -852.27950331 Ry
     ewald contribution        =    4212.01800285 Ry
     electric field correction =       0.00000949 Ry
     smearing contrib. (-TS)   =      -0.09944467 Ry

     convergence has been achieved in  27 iterations

 BEEF-vdW xc energy contributions
           1 :   -768.014567438716
           2 :    714.187191147484
           3 :   -618.408268579479
           4 :    500.026309736982
           5 :   -379.522629604126
           6 :    272.870928083914
           7 :   -188.701538791021
           8 :    128.567497803784
           9 :   -89.2719624653485
          10 :    65.5965864560829
          11 :   -52.2668660065433
          12 :    44.7922487449407
          13 :   -39.5681661609794
          14 :    33.8068694053368
          15 :   -25.6829137414030
          16 :    14.6445573140554
          17 :   -1.59642274657847
          18 :   -11.3704445386124
          19 :    21.7383893047515
          20 :   -27.5421266576459
          21 :    28.1074827463922
          22 :   -24.2198264231131
          23 :    17.6916836870845
          24 :   -10.6264776048679
          25 :    4.76605655381400
          26 :   -1.18150666049974
          27 :   0.294570481483561
          28 :   -2.03964303310386
          29 :    5.96441795328519
          30 :   -11.2227654814699
          31 :   -56.9757809162345
          32 :   -41.3325343975143

     Forces acting on atoms (Ry/au):

     negative rho (up, down):  1.987E+00 0.000E+00
     atom    1 type  1   force =     0.00000047    0.02759847   -0.00731994
     atom    2 type  1   force =     0.02390135   -0.01379858   -0.00732147
     atom    3 type  1   force =    -0.02390158   -0.01379971   -0.00732154
     atom    4 type  2   force =     0.00000063    0.00000039    0.04893881
     atom    5 type  1   force =     0.00000321   -0.00387303   -0.00473299
     atom    6 type  1   force =    -0.00335341    0.00193971   -0.00473032
     atom    7 type  1   force =     0.00335123    0.00193529   -0.00474108
     atom    8 type  2   force =    -0.00000028    0.00000055   -0.01150823
     atom    9 type  1   force =     0.00000625   -0.00002260   -0.00035804
     atom   10 type  1   force =    -0.00002357    0.00001595   -0.00035493
     atom   11 type  1   force =     0.00001375    0.00000451   -0.00036716
     atom   12 type  2   force =     0.00000194   -0.00000096   -0.00018312

     Total force =     0.071316     Total SCF correction =     0.002271

     entering subroutine stress ...

     negative rho (up, down):  1.987E+00 0.000E+00
          total   stress  (Ry/bohr**3)                   (kbar)     P=  -17.16
  -0.00014693   0.00000000  -0.00000000        -21.61      0.00     -0.00
   0.00000000  -0.00014693  -0.00000000          0.00    -21.61     -0.00
  -0.00000000  -0.00000000  -0.00005604         -0.00     -0.00     -8.24

 !ASE

     Writing output data file calc.save

     General routines

     Parallel routines

   This run was terminated on:   8:53:35  26Dec2018

   JOB DONE.
Job  /afs/slac/g/suncat/bin/suncat-tsmpirun -x LD_LIBRARY_PATH -wdir /scratch/qe109743_YEOkR pw.x -in pw.inp

TID   HOST_NAME   COMMAND_LINE            STATUS            TERMINATION_TIME
00000 suncat0097 pw.x -in pw.inp   Done                     12/26/2018 08:53:35
00001 suncat0097 pw.x -in pw.inp   Done                     12/26/2018 08:53:35
00002 suncat0097 pw.x -in pw.inp   Done                     12/26/2018 08:53:35
00003 suncat0097 pw.x -in pw.inp   Done                     12/26/2018 08:53:35
00004 suncat0097 pw.x -in pw.inp   Done                     12/26/2018 08:53:35
00005 suncat0097 pw.x -in pw.inp   Done                     12/26/2018 08:53:35
00006 suncat0097 pw.x -in pw.inp   Done                     12/26/2018 08:53:35
00007 suncat0097 pw.x -in pw.inp   Done                     12/26/2018 08:53:35
00008 suncat0096 pw.x -in pw.inp   Done                     12/26/2018 08:53:35
00009 suncat0096 pw.x -in pw.inp   Done                     12/26/2018 08:53:35
00010 suncat0096 pw.x -in pw.inp   Done                     12/26/2018 08:53:35
00011 suncat0096 pw.x -in pw.inp   Done                     12/26/2018 08:53:35
00012 suncat0096 pw.x -in pw.inp   Done                     12/26/2018 08:53:35
00013 suncat0096 pw.x -in pw.inp   Done                     12/26/2018 08:53:35
00014 suncat0096 pw.x -in pw.inp   Done                     12/26/2018 08:53:35
00015 suncat0096 pw.x -in pw.inp   Done                     12/26/2018 08:53:35
00016 suncat0095 pw.x -in pw.inp   Done                     12/26/2018 08:53:35
00017 suncat0095 pw.x -in pw.inp   Done                     12/26/2018 08:53:35
00018 suncat0095 pw.x -in pw.inp   Done                     12/26/2018 08:53:35
00019 suncat0095 pw.x -in pw.inp   Done                     12/26/2018 08:53:35
00020 suncat0095 pw.x -in pw.inp   Done                     12/26/2018 08:53:35
00021 suncat0095 pw.x -in pw.inp   Done                     12/26/2018 08:53:35
00022 suncat0095 pw.x -in pw.inp   Done                     12/26/2018 08:53:35
00023 suncat0095 pw.x -in pw.inp   Done                     12/26/2018 08:53:35
00024 suncat0064 pw.x -in pw.inp   Done                     12/26/2018 08:53:35
00025 suncat0064 pw.x -in pw.inp   Done                     12/26/2018 08:53:35
00026 suncat0064 pw.x -in pw.inp   Done                     12/26/2018 08:53:35
00027 suncat0064 pw.x -in pw.inp   Done                     12/26/2018 08:53:35
00028 suncat0064 pw.x -in pw.inp   Done                     12/26/2018 08:53:35
00029 suncat0064 pw.x -in pw.inp   Done                     12/26/2018 08:53:35
00030 suncat0064 pw.x -in pw.inp   Done                     12/26/2018 08:53:35
00031 suncat0064 pw.x -in pw.inp   Done                     12/26/2018 08:53:35
00032 suncat0063 pw.x -in pw.inp   Done                     12/26/2018 08:53:35
00033 suncat0063 pw.x -in pw.inp   Done                     12/26/2018 08:53:35
00034 suncat0063 pw.x -in pw.inp   Done                     12/26/2018 08:53:35
00035 suncat0063 pw.x -in pw.inp   Done                     12/26/2018 08:53:35
00036 suncat0063 pw.x -in pw.inp   Done                     12/26/2018 08:53:35
00037 suncat0063 pw.x -in pw.inp   Done                     12/26/2018 08:53:35
00038 suncat0063 pw.x -in pw.inp   Done                     12/26/2018 08:53:35
00039 suncat0063 pw.x -in pw.inp   Done                     12/26/2018 08:53:35
00040 suncat0061 pw.x -in pw.inp   Done                     12/26/2018 08:53:35
00041 suncat0061 pw.x -in pw.inp   Done                     12/26/2018 08:53:35
00042 suncat0061 pw.x -in pw.inp   Done                     12/26/2018 08:53:35
00043 suncat0061 pw.x -in pw.inp   Done                     12/26/2018 08:53:35
00044 suncat0061 pw.x -in pw.inp   Done                     12/26/2018 08:53:35
00045 suncat0061 pw.x -in pw.inp   Done                     12/26/2018 08:53:35
00046 suncat0061 pw.x -in pw.inp   Done                     12/26/2018 08:53:35
00047 suncat0061 pw.x -in pw.inp   Done                     12/26/2018 08:53:35
00048 suncat0053 pw.x -in pw.inp   Done                     12/26/2018 08:53:35
00049 suncat0053 pw.x -in pw.inp   Done                     12/26/2018 08:53:35
00050 suncat0053 pw.x -in pw.inp   Done                     12/26/2018 08:53:35
00051 suncat0053 pw.x -in pw.inp   Done                     12/26/2018 08:53:35
00052 suncat0053 pw.x -in pw.inp   Done                     12/26/2018 08:53:35
00053 suncat0053 pw.x -in pw.inp   Done                     12/26/2018 08:53:35
00054 suncat0053 pw.x -in pw.inp   Done                     12/26/2018 08:53:35
00055 suncat0053 pw.x -in pw.inp   Done                     12/26/2018 08:53:35
00056 suncat0052 pw.x -in pw.inp   Done                     12/26/2018 08:53:35
00057 suncat0052 pw.x -in pw.inp   Done                     12/26/2018 08:53:35
00058 suncat0052 pw.x -in pw.inp   Done                     12/26/2018 08:53:35
00059 suncat0052 pw.x -in pw.inp   Done                     12/26/2018 08:53:35
00060 suncat0052 pw.x -in pw.inp   Done                     12/26/2018 08:53:35
00061 suncat0052 pw.x -in pw.inp   Done                     12/26/2018 08:53:35
00062 suncat0052 pw.x -in pw.inp   Done                     12/26/2018 08:53:35
00063 suncat0052 pw.x -in pw.inp   Done                     12/26/2018 08:53:35