     Program PWSCF v.5.1rc2 (svn rev. 11289) starts on 30Dec2018 at  5: 3:15

     Current dimensions of program PWSCF are:
     Max number of different atomic species (ntypx) = 10
     Max number of k-points (npk) =  40000
     Max angular momentum in pseudopotentials (lmaxx) =  3
     Presently stress not available with electric field

     IMPORTANT: XC functional enforced from input :
     Exchange-correlation      = BEEF-VDW ( 1  4 27 13 2)
     Any further DFT definition will be discarded
     Please, verify this is what you really want

     Subspace diagonalization in iterative solution of the eigenvalue problem:
     a serial algorithm will be used

     bravais-lattice index     =            0
     lattice parameter (alat)  =       1.8897  a.u.
     unit-cell volume          =    5247.5341 (a.u.)^3
     number of atoms/cell      =           12
     number of atomic types    =            2
     number of electrons       =       228.00
     number of Kohn-Sham states=          144
     kinetic-energy cutoff     =      36.7493  Ry
     charge density cutoff     =     367.4932  Ry
     convergence threshold     =      1.0E-06
     mixing beta               =       0.1000
     number of iterations used =           10  plain     mixing
     Exchange-correlation      = BEEF-VDW ( 1  4 27 13 2)
     nstep                     =           50

     celldm(1)=   1.889726  celldm(2)=   0.000000  celldm(3)=   0.000000
     celldm(4)=   0.000000  celldm(5)=   0.000000  celldm(6)=   0.000000

     crystal axes: (cart. coord. in units of alat)
               a(1) = (   6.004681   0.000000   0.000000 )
               a(2) = (  -3.002340   5.200206   0.000000 )
               a(3) = (   0.000000   0.000000  24.902801 )

     reciprocal axes: (cart. coord. in units 2 pi/alat)
               b(1) = (  0.166537  0.096150  0.000000 )
               b(2) = (  0.000000  0.192300  0.000000 )
               b(3) = (  0.000000  0.000000  0.040156 )

     PseudoPot. # 1 for Ga read from file:
     /afs/slac.stanford.edu/u/if/mamunm/psp/gbrv1.5pbe/Ga.UPF
     MD5 check sum: ccd671392a58a050fbb373893b4fcd66
     Pseudo is Ultrasoft + core correction, Zval = 19.0
     Generated by new atomic code, or converted to UPF format
     Using radial grid of  871 points,  6 beta functions with:
                l(1) =   0
                l(2) =   0
                l(3) =   1
                l(4) =   1
                l(5) =   2
                l(6) =   2
     Q(r) pseudized with  8 coefficients,  rinner =    1.250   1.250   1.250
                                                       1.250   1.250

     PseudoPot. # 2 for Ag read from file:
     /afs/slac.stanford.edu/u/if/mamunm/psp/gbrv1.5pbe/Ag.UPF
     MD5 check sum: d66d668201baa78d5eb5b04ef7011058
     Pseudo is Ultrasoft + core correction, Zval = 19.0
     Generated by new atomic code, or converted to UPF format
     Using radial grid of  887 points,  6 beta functions with:
                l(1) =   0
                l(2) =   0
                l(3) =   1
                l(4) =   1
                l(5) =   2
                l(6) =   2
     Q(r) pseudized with  6 coefficients,  rinner =    1.300   1.300   1.300
                                                       1.300   1.300

     vdW kernel table read from file vdW_kernel_table
     MD5 check sum: 095c7af220d748ca6e76c0b4c6cfb241

     atomic species   valence    mass     pseudopotential
        Ga1           19.00    69.72300     Ga( 1.00)
        Ag1           19.00   107.86820     Ag( 1.00)

     No symmetry found

   Cartesian axes

     site n.     atom                  positions (alat units)
         1           Ga1 tau(   1) = (   0.0000000   0.0000000  10.0000000  )
         2           Ga1 tau(   2) = (  -1.5011702   2.6001030  10.0000000  )
         3           Ga1 tau(   3) = (   1.5011702   2.6001030  10.0000000  )
         4           Ag1 tau(   4) = (   3.0023403   0.0000000  10.0000000  )
         5           Ga1 tau(   5) = (   3.0023403   1.7334020  12.4514006  )
         6           Ga1 tau(   6) = (   1.5011702   4.3335050  12.4514006  )
         7           Ga1 tau(   7) = (  -1.5011702   4.3335050  12.4514006  )
         8           Ag1 tau(   8) = (   0.0000000   1.7334020  12.4514006  )
         9           Ga1 tau(   9) = (  -0.0000000   3.4668040  14.9028012  )
        10           Ga1 tau(  10) = (   1.5011702   0.8667010  14.9028012  )
        11           Ga1 tau(  11) = (   4.5035105   0.8667010  14.9028012  )
        12           Ag1 tau(  12) = (   3.0023403   3.4668040  14.9028012  )

     number of k points=    20  Fermi-Dirac smearing, width (Ry)=  0.0110
                       cart. coord. in units 2pi/alat
        k(    1) = (   0.0000000   0.0000000   0.0000000), wk =   0.0555556
        k(    2) = (   0.0000000   0.0320500   0.0000000), wk =   0.1111111
        k(    3) = (   0.0000000   0.0641000   0.0000000), wk =   0.1111111
        k(    4) = (   0.0000000  -0.0961500   0.0000000), wk =   0.0555556
        k(    5) = (   0.0277561   0.0160250   0.0000000), wk =   0.1111111
        k(    6) = (   0.0277561   0.0480750   0.0000000), wk =   0.1111111
        k(    7) = (   0.0277561   0.0801250   0.0000000), wk =   0.1111111
        k(    8) = (   0.0277561  -0.0801250   0.0000000), wk =   0.1111111
        k(    9) = (   0.0277561  -0.0480750   0.0000000), wk =   0.1111111
        k(   10) = (   0.0277561  -0.0160250   0.0000000), wk =   0.1111111
        k(   11) = (   0.0555122   0.0320500   0.0000000), wk =   0.1111111
        k(   12) = (   0.0555122   0.0641000   0.0000000), wk =   0.1111111
        k(   13) = (   0.0555122   0.0961500   0.0000000), wk =   0.1111111
        k(   14) = (   0.0555122  -0.0641000   0.0000000), wk =   0.1111111
        k(   15) = (   0.0555122  -0.0320500   0.0000000), wk =   0.1111111
        k(   16) = (   0.0555122   0.0000000   0.0000000), wk =   0.1111111
        k(   17) = (  -0.0832684  -0.0480750   0.0000000), wk =   0.0555556
        k(   18) = (  -0.0832684  -0.0160250   0.0000000), wk =   0.1111111
        k(   19) = (  -0.0832684   0.0160250   0.0000000), wk =   0.1111111
        k(   20) = (  -0.0832684  -0.1442251   0.0000000), wk =   0.0555556

     Largest allocated arrays     est. size (Mb)     dimensions
     Largest temporary arrays     est. size (Mb)     dimensions

     Initial potential from superposition of free atoms
     Check: negative starting charge=   -0.001688

     starting charge  217.49985, renormalised to  228.00000

     negative rho (up, down):  1.770E-03 0.000E+00

     *
     * You are using vdW-DF for exchange-correlation in this calculation.
     * Please cite the following three references that made this development
     * possible:
     *
     *   M. Dion, H. Rydberg, E. Schroder, D. C. Langreth, and
     *   B. I. Lundqvist, Phys. Rev. Lett. 92, 246401 (2004).
     *
     *   T. Thonhauser, V. R. Cooper, S. Li, A. Puzder, P. Hyldgaard, and
     *   D. C. Langreth, Phys. Rev. B 76, 125112 (2007).
     *
     *   G. Roman-Perez and J. M. Soler, Phys. Rev. Lett. 103, 096102 (2009).
     *
     *
     * If you are using vdW-DF2, please also cite:
     *
     *   K. Lee, E. D. Murray, L. Kong, B. I. Lundqvist, and
     *   D. C. Langreth, Phys. Rev. B 82, 081101(R) (2010).
     *
     *
     * If you are calculating the stress with vdW-DF, please also cite:
     *
     *   R. Sabatini, E. Kucukbenli, B. Kolb, T. Thonhauser, and
     *   S. de Gironcoli, J. Phys.: Condens. Matter 24, 424209 (2012).
     *

     Carrying out vdW-DF run using the following parameters:

     Nqs =      20    Nr_points =    1024   r_max =   100.000
     q_mesh =
               0.00001000     0.04494208     0.09755937     0.15916263
               0.23128650     0.31572767     0.41458969     0.53033537
               0.66584808     0.82450364     1.01025438     1.22772762
               1.48234092     1.78043706     2.12944203     2.53805004
               3.01644009     3.57652955     4.23227104     5.00000000

     Gradients computed in reciprocal space

     Adding external electric field

     Computed dipole along edir(3) :
        Dipole               -0.0000 Ry au,         -0.0000 Debye
        Dipole field         -0.0000 Ry au

        Potential amp.        0.0000 Ry
        Total length         45.8830 bohr

     Starting wfc are  147 randomized atomic wfcs

     Self-consistent Calculation

     iteration #  1     ecut=    36.75 Ry     beta=0.10
     Davidson diagonalization with overlap
     ethr =  1.00E-02,  avg # of iterations =  7.2

[...]

     total energy              =   -4633.22248963 Ry
     Harris-Foulkes estimate   =   -4655.11987568 Ry
     estimated scf accuracy    <     122.97200220 Ry

[...]

     End of self-consistent calculation

          k = 0.0000 0.0000 0.0000 ( 19543 PWs)   bands (ev):

   -94.3025 -94.3024 -94.3023 -94.3023 -94.3022 -94.3022 -94.2882 -94.2882
   -94.2867 -94.2867 -94.2867 -94.2867 -94.2838 -94.2826 -94.2826 -94.2812
   -94.2812 -94.2811 -94.2811 -94.2805 -94.2805 -94.2732 -94.2728 -94.2727
   -94.2718 -94.2718 -94.2712 -92.0181 -91.7699 -91.7698 -55.5209 -55.4996
   -55.4996 -55.2740 -55.2740 -55.2739 -55.2739 -55.2437 -55.2436 -14.7765
   -14.7575 -14.7575 -14.7549 -14.7528 -14.7311 -14.7155 -14.7155 -14.7083
   -14.6976 -14.6976 -14.6838 -14.6810 -14.6810 -14.6785 -14.6785 -14.6566
   -14.6531 -14.6421 -14.6421 -14.6122 -14.6002 -14.5906 -14.5906 -14.5873
   -14.5873 -14.5835 -14.5723 -14.5723 -14.5715 -14.5715 -14.5683 -14.5683
   -14.5455 -14.5455 -14.5366 -14.5366 -14.5091 -14.5091 -14.5068 -14.4830
   -14.4830 -14.4741 -14.4705 -14.4602  -9.3006  -7.8652  -6.2061  -5.5115
    -5.5115  -4.8801  -4.8801  -4.7936  -4.7936  -4.2617  -4.1894  -4.1894
    -4.1644  -4.1227  -4.1227  -3.9726  -3.9726  -3.5039  -2.8427  -2.8427
    -2.7410  -2.7410  -2.6932  -2.0163  -1.6826  -1.6826  -1.5543  -1.4359
    -1.4359  -1.3357   0.0943   0.1767   0.1767   0.5766   0.5766   1.9001
     1.9855   2.6226   3.7844   4.0589   4.0589   4.1269   4.1269   4.2430
     4.7919   5.0687   5.3712   5.6598   5.9629   6.6696   6.6696   6.8431
     7.0553   7.4114   7.6201   7.6201   7.8225   8.1123   8.1123   8.2662

[...]

          k =-0.0833-0.0481 0.0000 ( 19772 PWs)   bands (ev):

[...]

     the Fermi energy is     0.4737 ev

!    total energy              =   -4639.21408396 Ry
     Harris-Foulkes estimate   =   -4639.21408197 Ry
     estimated scf accuracy    <       0.00000021 Ry

     The total energy is the sum of the following terms:

     one-electron contribution =  -27140.09065642 Ry
     hartree contribution      =   13570.16985195 Ry
     xc contribution           =    -537.58917655 Ry
     ewald contribution        =    9468.32310742 Ry
     electric field correction =       0.00000000 Ry
     smearing contrib. (-TS)   =      -0.02721036 Ry

     convergence has been achieved in  18 iterations

 BEEF-vdW xc energy contributions
           1 :   -477.618022258437
           2 :    433.517514230743
           3 :   -359.561479524035
           4 :    277.335804551588
           5 :   -206.127168728324
           6 :    155.680420487835
           7 :   -124.661794885669
[...]
                l(1) =   0
                l(2) =   0
                l(3) =   1
                l(4) =   1
                l(5) =   2
                l(6) =   2
     Q(r) pseudized with  8 coefficients,  rinner =    1.250   1.250   1.250
                                                       1.250   1.250

     PseudoPot. # 2 for Ag read from file:
     /afs/slac.stanford.edu/u/if/mamunm/psp/gbrv1.5pbe/Ag.UPF
     MD5 check sum: d66d668201baa78d5eb5b04ef7011058
     Pseudo is Ultrasoft + core correction, Zval = 19.0
     Generated by new atomic code, or converted to UPF format
     Using radial grid of  887 points,  6 beta functions with:
                l(1) =   0
                l(2) =   0
                l(3) =   1
                l(4) =   1
                l(5) =   2
                l(6) =   2
     Q(r) pseudized with  6 coefficients,  rinner =    1.300   1.300   1.300
                                                       1.300   1.300

     vdW kernel table read from file vdW_kernel_table
     MD5 check sum: 095c7af220d748ca6e76c0b4c6cfb241

     atomic species   valence    mass     pseudopotential
        Ga1           19.00    69.72300     Ga( 1.00)
        Ag1           19.00   107.86820     Ag( 1.00)

     No symmetry found

   Cartesian axes

     site n.     atom                  positions (alat units)
         1           Ga1 tau(   1) = (   0.0000000   0.0000000  10.0000000  )
         2           Ga1 tau(   2) = (  -1.5011702   2.6001030  10.0000000  )
         3           Ga1 tau(   3) = (   1.5011702   2.6001030  10.0000000  )
         4           Ag1 tau(   4) = (   3.0023403   0.0000000  10.0000000  )
         5           Ga1 tau(   5) = (   3.0023403   1.7334020  12.4514006  )
         6           Ga1 tau(   6) = (   1.5011702   4.3335050  12.4514006  )
         7           Ga1 tau(   7) = (  -1.5011702   4.3335050  12.4514006  )
         8           Ag1 tau(   8) = (   0.0000000   1.7334020  12.4514006  )
         9           Ga1 tau(   9) = (   0.0000065   3.4438262  14.9261830  )
        10           Ga1 tau(  10) = (   1.4812607   0.8781841  14.9261713  )
        11           Ga1 tau(  11) = (   4.5234235   0.8781974  14.9261624  )
        12           Ag1 tau(  12) = (   3.0023365   3.4668008  14.9097903  )

     number of k points=    20  Fermi-Dirac smearing, width (Ry)=  0.0110
                       cart. coord. in units 2pi/alat
        k(    1) = (   0.0000000   0.0000000   0.0000000), wk =   0.0555556
        k(    2) = (   0.0000000   0.0320500   0.0000000), wk =   0.1111111
        k(    3) = (   0.0000000   0.0641000   0.0000000), wk =   0.1111111
        k(    4) = (   0.0000000  -0.0961500   0.0000000), wk =   0.0555556
        k(    5) = (   0.0277561   0.0160250   0.0000000), wk =   0.1111111
        k(    6) = (   0.0277561   0.0480750   0.0000000), wk =   0.1111111
        k(    7) = (   0.0277561   0.0801250   0.0000000), wk =   0.1111111
        k(    8) = (   0.0277561  -0.0801250   0.0000000), wk =   0.1111111
        k(    9) = (   0.0277561  -0.0480750   0.0000000), wk =   0.1111111
        k(   10) = (   0.0277561  -0.0160250   0.0000000), wk =   0.1111111
        k(   11) = (   0.0555122   0.0320500   0.0000000), wk =   0.1111111
        k(   12) = (   0.0555122   0.0641000   0.0000000), wk =   0.1111111
        k(   13) = (   0.0555122   0.0961500   0.0000000), wk =   0.1111111
        k(   14) = (   0.0555122  -0.0641000   0.0000000), wk =   0.1111111
        k(   15) = (   0.0555122  -0.0320500   0.0000000), wk =   0.1111111
        k(   16) = (   0.0555122   0.0000000   0.0000000), wk =   0.1111111
        k(   17) = (  -0.0832684  -0.0480750   0.0000000), wk =   0.0555556
        k(   18) = (  -0.0832684  -0.0160250   0.0000000), wk =   0.1111111
        k(   19) = (  -0.0832684   0.0160250   0.0000000), wk =   0.1111111
        k(   20) = (  -0.0832684  -0.1442251   0.0000000), wk =   0.0555556

     Largest allocated arrays     est. size (Mb)     dimensions
     Largest temporary arrays     est. size (Mb)     dimensions

     Initial potential from superposition of free atoms
     Check: negative starting charge=   -0.001673

     starting charge  217.49985, renormalised to  228.00000

[...]

     *
     * You are using vdW-DF for exchange-correlation in this calculation.
     * Please cite the following three references that made this development
     * possible:
     *
     *   M. Dion, H. Rydberg, E. Schroder, D. C. Langreth, and
     *   B. I. Lundqvist, Phys. Rev. Lett. 92, 246401 (2004).
     *
     *   T. Thonhauser, V. R. Cooper, S. Li, A. Puzder, P. Hyldgaard, and
     *   D. C. Langreth, Phys. Rev. B 76, 125112 (2007).
     *
     *   G. Roman-Perez and J. M. Soler, Phys. Rev. Lett. 103, 096102 (2009).
     *
     *
     * If you are using vdW-DF2, please also cite:
     *
     *   K. Lee, E. D. Murray, L. Kong, B. I. Lundqvist, and
     *   D. C. Langreth, Phys. Rev. B 82, 081101(R) (2010).
     *
     *
     * If you are calculating the stress with vdW-DF, please also cite:
     *
     *   R. Sabatini, E. Kucukbenli, B. Kolb, T. Thonhauser, and
     *   S. de Gironcoli, J. Phys.: Condens. Matter 24, 424209 (2012).
     *

     Carrying out vdW-DF run using the following parameters:

     Nqs =      20    Nr_points =    1024   r_max =   100.000
     q_mesh =
               0.00001000     0.04494208     0.09755937     0.15916263
               0.23128650     0.31572767     0.41458969     0.53033537
               0.66584808     0.82450364     1.01025438     1.22772762
               1.48234092     1.78043706     2.12944203     2.53805004
               3.01644009     3.57652955     4.23227104     5.00000000

     Gradients computed in reciprocal space

[...]

     Starting wfc are  147 randomized atomic wfcs

     Self-consistent Calculation

[...]

     total energy              =   -4639.23731402 Ry
     Harris-Foulkes estimate   =   -4639.23731495 Ry
     estimated scf accuracy    <       0.00000271 Ry

     iteration # 15     ecut=    36.75 Ry     beta=0.10
     Davidson diagonalization with overlap
     ethr =  1.19E-09,  avg # of iterations =  2.0

[...]

     negative rho (up, down):  1.366E-03 0.000E+00

     Adding external electric field

     Computed dipole along edir(3) :
        Dipole                0.0050 Ry au,          0.0126 Debye
        Dipole field          0.0000 Ry au

        Potential amp.       -0.0011 Ry
        Total length         45.8830 bohr

     End of self-consistent calculation

[...]

          k = 0.0555 0.0000 0.0000 ( 19741 PWs)   bands (ev):

[...]

          k =-0.0833-0.1442 0.0000 ( 19772 PWs)   bands (ev):

   -94.3086 -94.3085 -94.3084 -94.3007 -94.3006 -94.3006 -94.2939 -94.2933
   -94.2928 -94.2869 -94.2867 -94.2865 -94.2861 -94.2856 -94.2851 -94.2805
   -94.2801 -94.2798 -94.2796 -94.2794 -94.2793 -94.2706 -94.2704 -94.2702
   -94.2689 -94.2687 -94.2685 -92.0109 -91.7665 -91.7657 -55.5137 -55.4917
   -55.4916 -55.2710 -55.2709 -55.2702 -55.2701 -55.2395 -55.2392 -14.7480
   -14.7291 -14.7166 -14.7075 -14.7045 -14.6872 -14.6848 -14.6807 -14.6725
   -14.6695 -14.6640 -14.6621 -14.6547 -14.6475 -14.6411 -14.6353 -14.6343
   -14.6289 -14.6281 -14.6207 -14.6180 -14.6171 -14.6144 -14.6123 -14.6092
   -14.6080 -14.5944 -14.5940 -14.5892 -14.5885 -14.5860 -14.5790 -14.5732
   -14.5673 -14.5626 -14.5599 -14.5586 -14.5580 -14.5520 -14.5459 -14.5397
   -14.5349 -14.5092 -14.4996 -14.4733  -8.0451  -7.8280  -6.5863  -6.5335
    -5.6872  -5.4485  -5.0317  -4.9304  -4.5934  -4.4900  -4.3414  -4.3020
    -4.2445  -4.2443  -4.2210  -4.1075  -4.0997  -3.9968  -3.8990  -3.8415
    -3.2032  -3.1975  -3.1189  -2.5091  -1.8457  -1.7650  -0.3611   0.2183
     0.5030   1.0936   1.5093   1.5236   1.6226   2.1217   2.6425   2.7396
     2.7994   3.0349   3.3312   3.5959   3.7602   4.0332   4.1488   4.5323
     4.9773   4.9827   5.1239   5.4280   5.5017   5.5469   5.9105   5.9248
     6.0685   6.3276   6.3767   6.5398   6.5841   6.8164   7.1000   7.3284

     the Fermi energy is     0.4734 ev

!    total energy              =   -4639.23731723 Ry
     Harris-Foulkes estimate   =   -4639.23731456 Ry
     estimated scf accuracy    <       0.00000053 Ry

     The total energy is the sum of the following terms:

     one-electron contribution =  -27074.12821804 Ry
     hartree contribution      =   13537.27959478 Ry
     xc contribution           =    -537.60602628 Ry
     ewald contribution        =    9435.24462130 Ry
     electric field correction =       0.00000006 Ry
     smearing contrib. (-TS)   =      -0.02728903 Ry

     convergence has been achieved in  15 iterations

 BEEF-vdW xc energy contributions
           1 :   -478.295016662747
           2 :    434.185911194151
           3 :   -360.218590138414
           4 :    277.986745520679
           5 :   -206.781534647016
           6 :    156.346032332258
           7 :   -125.340003172966
           8 :    105.401438728789
           9 :   -87.7156517589899
          10 :    68.0508792071366
          11 :   -47.7515254945222
          12 :    30.9861554260410
          13 :   -20.7858267122747
          14 :    16.7101261746634
          15 :   -15.4210335815646
          16 :    13.2689519570092
          17 :   -8.75810379508482
          18 :    3.14717366197726
          19 :    1.00054835677690
          20 :   -2.01931711677355
          21 :   0.403776243018285
          22 :    1.68703207417889
          23 :   -2.13786399721238
          24 :   0.413001950633770
          25 :    2.20520381347444
          26 :   -3.74765696925181
          27 :    3.11137859243240
          28 :  -0.848449260850657
          29 :   -1.34101744350050
          30 :    1.94045706887698
          31 :   -37.2161687386028
          32 :   -25.6645336708131

     Forces acting on atoms (Ry/au):

     negative rho (up, down):  1.366E-03 0.000E+00
     atom    1 type  1   force =     0.00000039    0.00216436   -0.00278537
     atom    2 type  1   force =     0.00187443   -0.00108202   -0.00278383
     atom    3 type  1   force =    -0.00187637   -0.00108364   -0.00278390
     atom    4 type  2   force =     0.00000024   -0.00000008   -0.00106143
     atom    5 type  1   force =    -0.00000034   -0.00045214    0.00187534
     atom    6 type  1   force =    -0.00039341    0.00022406    0.00187462
     atom    7 type  1   force =     0.00039421    0.00022614    0.00187306
     atom    8 type  2   force =     0.00000032    0.00000045    0.00060310
     atom    9 type  1   force =     0.00000014    0.00127805    0.00096717
     atom   10 type  1   force =     0.00110693   -0.00063788    0.00096778
     atom   11 type  1   force =    -0.00110688   -0.00063681    0.00096897
     atom   12 type  2   force =     0.00000035   -0.00000049    0.00028447

     Total force =     0.007600     Total SCF correction =     0.004450
     SCF correction compared to forces is large: reduce conv_thr to get better values

     entering subroutine stress ...

     negative rho (up, down):  1.366E-03 0.000E+00
          total   stress  (Ry/bohr**3)                   (kbar)     P=   -4.00
  -0.00004857  -0.00000000  -0.00000000         -7.15     -0.00     -0.00
  -0.00000000  -0.00004857  -0.00000000         -0.00     -7.15     -0.00
  -0.00000000  -0.00000000   0.00001553         -0.00     -0.00      2.28

 !ASE

     Writing output data file calc.save

     General routines

     Parallel routines

   This run was terminated on:   4: 1:25  31Dec2018

   JOB DONE.
Job  /afs/slac/g/suncat/bin/suncat-tsmpirun -x LD_LIBRARY_PATH -wdir /scratch/qe648439_7lLsD pw.x -in pw.inp

TID   HOST_NAME   COMMAND_LINE            STATUS            TERMINATION_TIME
00000 suncat0042 pw.x -in pw.inp   Done                     12/31/2018 04:01:25
00001 suncat0042 pw.x -in pw.inp   Done                     12/31/2018 04:01:25
00002 suncat0042 pw.x -in pw.inp   Done                     12/31/2018 04:01:25
00003 suncat0042 pw.x -in pw.inp   Done                     12/31/2018 04:01:25
00004 suncat0042 pw.x -in pw.inp   Done                     12/31/2018 04:01:25
00005 suncat0042 pw.x -in pw.inp   Done                     12/31/2018 04:01:25
00006 suncat0042 pw.x -in pw.inp   Done                     12/31/2018 04:01:25
00007 suncat0042 pw.x -in pw.inp   Done                     12/31/2018 04:01:25
00008 suncat0034 pw.x -in pw.inp   Done                     12/31/2018 04:01:25
00009 suncat0034 pw.x -in pw.inp   Done                     12/31/2018 04:01:25
00010 suncat0034 pw.x -in pw.inp   Done                     12/31/2018 04:01:25
00011 suncat0034 pw.x -in pw.inp   Done                     12/31/2018 04:01:25
00012 suncat0034 pw.x -in pw.inp   Done                     12/31/2018 04:01:25
00013 suncat0034 pw.x -in pw.inp   Done                     12/31/2018 04:01:25
00014 suncat0034 pw.x -in pw.inp   Done                     12/31/2018 04:01:25
00015 suncat0034 pw.x -in pw.inp   Done                     12/31/2018 04:01:25
00016 suncat0152 pw.x -in pw.inp   Done                     12/31/2018 04:01:25
00017 suncat0152 pw.x -in pw.inp   Done                     12/31/2018 04:01:25
00018 suncat0152 pw.x -in pw.inp   Done                     12/31/2018 04:01:25
00019 suncat0152 pw.x -in pw.inp   Done                     12/31/2018 04:01:25
00020 suncat0152 pw.x -in pw.inp   Done                     12/31/2018 04:01:25
00021 suncat0152 pw.x -in pw.inp   Done                     12/31/2018 04:01:25
00022 suncat0152 pw.x -in pw.inp   Done                     12/31/2018 04:01:25
00023 suncat0152 pw.x -in pw.inp   Done                     12/31/2018 04:01:25
00024 suncat0150 pw.x -in pw.inp   Done                     12/31/2018 04:01:25
00025 suncat0150 pw.x -in pw.inp   Done                     12/31/2018 04:01:25
00026 suncat0150 pw.x -in pw.inp   Done                     12/31/2018 04:01:25
00027 suncat0150 pw.x -in pw.inp   Done                     12/31/2018 04:01:25
00028 suncat0150 pw.x -in pw.inp   Done                     12/31/2018 04:01:25
00029 suncat0150 pw.x -in pw.inp   Done                     12/31/2018 04:01:25
00030 suncat0150 pw.x -in pw.inp   Done                     12/31/2018 04:01:25
00031 suncat0150 pw.x -in pw.inp   Done                     12/31/2018 04:01:25
00032 suncat0274 pw.x -in pw.inp   Done                     12/31/2018 04:01:25
00033 suncat0274 pw.x -in pw.inp   Done                     12/31/2018 04:01:25
00034 suncat0274 pw.x -in pw.inp   Done                     12/31/2018 04:01:25
00035 suncat0274 pw.x -in pw.inp   Done                     12/31/2018 04:01:25
00036 suncat0274 pw.x -in pw.inp   Done                     12/31/2018 04:01:25
00037 suncat0274 pw.x -in pw.inp   Done                     12/31/2018 04:01:25
00038 suncat0274 pw.x -in pw.inp   Done                     12/31/2018 04:01:25
00039 suncat0274 pw.x -in pw.inp   Done                     12/31/2018 04:01:25
00040 suncat0273 pw.x -in pw.inp   Done                     12/31/2018 04:01:25
00041 suncat0273 pw.x -in pw.inp   Done                     12/31/2018 04:01:25
00042 suncat0273 pw.x -in pw.inp   Done                     12/31/2018 04:01:25
00043 suncat0273 pw.x -in pw.inp   Done                     12/31/2018 04:01:25
00044 suncat0273 pw.x -in pw.inp   Done                     12/31/2018 04:01:25
00045 suncat0273 pw.x -in pw.inp   Done                     12/31/2018 04:01:25
00046 suncat0273 pw.x -in pw.inp   Done                     12/31/2018 04:01:25
00047 suncat0273 pw.x -in pw.inp   Done                     12/31/2018 04:01:25
00048 suncat0230 pw.x -in pw.inp   Done                     12/31/2018 04:01:25
00049 suncat0230 pw.x -in pw.inp   Done                     12/31/2018 04:01:25
00050 suncat0230 pw.x -in pw.inp   Done                     12/31/2018 04:01:25
00051 suncat0230 pw.x -in pw.inp   Done                     12/31/2018 04:01:25
00052 suncat0230 pw.x -in pw.inp   Done                     12/31/2018 04:01:25
00053 suncat0230 pw.x -in pw.inp   Done                     12/31/2018 04:01:25
00054 suncat0230 pw.x -in pw.inp   Done                     12/31/2018 04:01:25
00055 suncat0230 pw.x -in pw.inp   Done                     12/31/2018 04:01:25
00056 suncat0229 pw.x -in pw.inp   Done                     12/31/2018 04:01:25
00057 suncat0229 pw.x -in pw.inp   Done                     12/31/2018 04:01:25
00058 suncat0229 pw.x -in pw.inp   Done                     12/31/2018 04:01:25
00059 suncat0229 pw.x -in pw.inp   Done                     12/31/2018 04:01:25
00060 suncat0229 pw.x -in pw.inp   Done                     12/31/2018 04:01:25
00061 suncat0229 pw.x -in pw.inp   Done                     12/31/2018 04:01:25
00062 suncat0229 pw.x -in pw.inp   Done                     12/31/2018 04:01:25
00063 suncat0229 pw.x -in pw.inp   Done                     12/31/2018 04:01:25