     Program PWSCF v.5.1rc2 (svn rev. 11289) starts on 24Dec2018 at 23:10:24

     Current dimensions of program PWSCF are:
     Max number of different atomic species (ntypx) = 10
     Max number of k-points (npk) =  40000
     Max angular momentum in pseudopotentials (lmaxx) =  3
     Presently stress not available with electric field

     IMPORTANT: XC functional enforced from input :
     Exchange-correlation      = BEEF-VDW ( 1  4 27 13 2)
     Any further DFT definition will be discarded
     Please, verify this is what you really want

     Subspace diagonalization in iterative solution of the eigenvalue problem:
     a serial algorithm will be used

     Found symmetry operation: I + ( -0.5000  0.5000  0.0000)
     This is a supercell, fractional translations are disabled

     bravais-lattice index     =            0
     lattice parameter (alat)  =       1.8897  a.u.
     unit-cell volume          =    6768.4248 (a.u.)^3
     number of atoms/cell      =           12
     number of atomic types    =            2
     number of electrons       =       144.00
     number of Kohn-Sham states=          102
     kinetic-energy cutoff     =      36.7493  Ry
     charge density cutoff     =     367.4932  Ry
     convergence threshold     =      1.0E-06
     mixing beta               =       0.1000
     number of iterations used =           10  plain     mixing
     Exchange-correlation      = BEEF-VDW ( 1  4 27 13 2)
     nstep                     =           50

     celldm(1)=   1.889726  celldm(2)=   0.000000  celldm(3)=   0.000000
     celldm(4)=   0.000000  celldm(5)=   0.000000  celldm(6)=   0.000000

     crystal axes: (cart. coord. in units of alat)
               a(1) = (   6.586363   0.000000   0.000000 )
               a(2) = (   2.755859   5.982092   0.000000 )
               a(3) = (   0.000000   0.000000  25.456124 )

     reciprocal axes: (cart. coord. in units 2 pi/alat)
               b(1) = (  0.151829 -0.069945  0.000000 )
               b(2) = (  0.000000  0.167166  0.000000 )
               b(3) = (  0.000000  0.000000  0.039283 )

     PseudoPot. # 1 for In read from file:
     /afs/slac.stanford.edu/u/if/mamunm/psp/gbrv1.5pbe/In.UPF
     MD5 check sum: 90777abd96fbb83f2e67db2a40c566b9
     Pseudo is Ultrasoft + core correction, Zval = 13.0
     Generated by new atomic code, or converted to UPF format
     Using radial grid of  889 points,  6 beta functions with:
                l(1) =   0
                l(2) =   0
                l(3) =   1
                l(4) =   1
                l(5) =   2
                l(6) =   2
     Q(r) pseudized with  6 coefficients,  rinner =    1.400   1.400   1.400
                                                       1.400   1.400

     PseudoPot. # 2 for Y  read from file:
     /afs/slac.stanford.edu/u/if/mamunm/psp/gbrv1.5pbe/Y.UPF
     MD5 check sum: d034151ed7554c50b6e82763ed42c788
     Pseudo is Ultrasoft + core correction, Zval = 11.0
     Generated by new atomic code, or converted to UPF format
     Using radial grid of  885 points,  6 beta functions with:
                l(1) =   0
                l(2) =   0
                l(3) =   1
                l(4) =   1
                l(5) =   2
                l(6) =   2
     Q(r) pseudized with  8 coefficients,  rinner =    1.200   1.200   1.200
                                                       1.200   1.200

     vdW kernel table read from file vdW_kernel_table
     MD5 check sum: 095c7af220d748ca6e76c0b4c6cfb241

     atomic species   valence    mass     pseudopotential
        In1           13.00   114.81800     In( 1.00)
        Y1            11.00    88.90584     Y ( 1.00)

     No symmetry found

   Cartesian axes

     site n.     atom                  positions (alat units)
         1           In1 tau(   1) = (   0.0000000   0.0000000  10.0000000  )
         2           In1 tau(   2) = (   4.6711111   2.9910458  10.0000000  )
         3           Y1  tau(   3) = (   3.2931816   0.0000000  10.0000000  )
         4           Y1  tau(   4) = (   1.3779296   2.9910458  10.0000000  )
         5           In1 tau(   5) = (   6.5863632   4.2174364  12.7280618  )
         6           In1 tau(   6) = (   1.9152520   1.2263906  12.7280618  )
         7           Y1  tau(   7) = (   3.2931816   4.2174364  12.7280618  )
         8           Y1  tau(   8) = (   5.2084336   1.2263906  12.7280618  )
         9           In1 tau(   9) = (   3.8305041   2.4527811  15.4561237  )
        10           In1 tau(  10) = (   8.5016152   5.4438269  15.4561237  )
        11           Y1  tau(  11) = (   7.1236857   2.4527811  15.4561237  )
        12           Y1  tau(  12) = (   5.2084336   5.4438269  15.4561237  )

     number of k points=    20  Fermi-Dirac smearing, width (Ry)=  0.0110
                       cart. coord. in units 2pi/alat
        k(    1) = (   0.0000000   0.0000000   0.0000000), wk =   0.0555556
        k(    2) = (   0.0000000   0.0278609   0.0000000), wk =   0.1111111
        k(    3) = (   0.0000000   0.0557219   0.0000000), wk =   0.1111111
        k(    4) = (   0.0000000  -0.0835828   0.0000000), wk =   0.0555556
        k(    5) = (   0.0253048  -0.0116575   0.0000000), wk =   0.1111111
        k(    6) = (   0.0253048   0.0162034   0.0000000), wk =   0.1111111
        k(    7) = (   0.0253048   0.0440643   0.0000000), wk =   0.1111111
        k(    8) = (   0.0253048  -0.0952403   0.0000000), wk =   0.1111111
        k(    9) = (   0.0253048  -0.0673794   0.0000000), wk =   0.1111111
        k(   10) = (   0.0253048  -0.0395185   0.0000000), wk =   0.1111111
        k(   11) = (   0.0506096  -0.0233151   0.0000000), wk =   0.1111111
        k(   12) = (   0.0506096   0.0045458   0.0000000), wk =   0.1111111
        k(   13) = (   0.0506096   0.0324068   0.0000000), wk =   0.1111111
        k(   14) = (   0.0506096  -0.1068979   0.0000000), wk =   0.1111111
        k(   15) = (   0.0506096  -0.0790370   0.0000000), wk =   0.1111111
        k(   16) = (   0.0506096  -0.0511760   0.0000000), wk =   0.1111111
        k(   17) = (  -0.0759144   0.0349726   0.0000000), wk =   0.0555556
        k(   18) = (  -0.0759144   0.0628336   0.0000000), wk =   0.1111111
        k(   19) = (  -0.0759144   0.0906945   0.0000000), wk =   0.1111111
        k(   20) = (  -0.0759144  -0.0486102   0.0000000), wk =   0.0555556

     Largest allocated arrays     est. size (Mb)     dimensions
     Largest temporary arrays     est. size (Mb)     dimensions

     Initial potential from superposition of free atoms
     Check: negative starting charge=   -0.000452

     starting charge  134.97318, renormalised to  144.00000

     negative rho (up, down):  4.819E-04 0.000E+00

     *
     * You are using vdW-DF for exchange-correlation in this calculation.
     * Please cite the following three references that made this development
     * possible:
     *
     *   M. Dion, H. Rydberg, E. Schroder, D. C. Langreth, and
     *   B. I. Lundqvist, Phys. Rev. Lett. 92, 246401 (2004).
     *
     *   T. Thonhauser, V. R. Cooper, S. Li, A. Puzder, P. Hyldgaard, and
     *   D. C. Langreth, Phys. Rev. B 76, 125112 (2007).
     *
     *   G. Roman-Perez and J. M. Soler, Phys. Rev. Lett. 103, 096102 (2009).
     *
     *
     * If you are using vdW-DF2, please also cite:
     *
     *   K. Lee, E. D. Murray, L. Kong, B. I. Lundqvist, and
     *   D. C. Langreth, Phys. Rev. B 82, 081101(R) (2010).
     *
     *
     * If you are calculating the stress with vdW-DF, please also cite:
     *
     *   R. Sabatini, E. Kucukbenli, B. Kolb, T. Thonhauser, and
     *   S. de Gironcoli, J. Phys.: Condens. Matter 24, 424209 (2012).
     *

     Carrying out vdW-DF run using the following parameters:

     Nqs =      20    Nr_points =    1024   r_max =   100.000
     q_mesh =
               0.00001000     0.04494208     0.09755937     0.15916263
               0.23128650     0.31572767     0.41458969     0.53033537
               0.66584808     0.82450364     1.01025438     1.22772762
               1.48234092     1.78043706     2.12944203     2.53805004
               3.01644009     3.57652955     4.23227104     5.00000000

     Gradients computed in reciprocal space

     Adding external electric field

     Computed dipole along edir(3) :
        Dipole                0.0000 Ry au,          0.0000 Debye
        Dipole field          0.0000 Ry au

        Potential amp.       -0.0000 Ry
        Total length         46.9025 bohr

     Starting wfc are  132 randomized atomic wfcs

     Self-consistent Calculation

     iteration #  1     ecut=    36.75 Ry     beta=0.10
     Davidson diagonalization with overlap
     ethr =  1.00E-02,  avg # of iterations =  5.6

[...]

     total energy              =   -1372.79422306 Ry
     Harris-Foulkes estimate   =   -1373.96675144 Ry
     estimated scf accuracy    <       7.38247687 Ry

[...]

     End of self-consistent calculation

          k = 0.0000 0.0000 0.0000 ( 25309 PWs)   bands (ev):

   -42.6572 -42.6569 -42.6344 -42.6341 -42.2020 -42.1782 -22.6993 -22.6898
   -22.6672 -22.6548 -22.6469 -22.6460 -22.5818 -22.5693 -22.5491 -22.5357
   -22.3406 -22.3404 -22.3093 -22.1718 -22.1533 -22.1332 -22.1166 -21.9888
   -13.6333 -13.6145 -13.5835 -13.5595 -13.5482 -13.5459 -13.5412 -13.5365
   -13.5315 -13.5165 -13.5137 -13.5084 -13.5068 -13.5007 -13.4897 -13.4492
   -13.4470 -13.4454 -13.4447 -13.4403 -13.4364 -13.4360 -13.4275 -13.4244
   -13.4221 -13.4185 -13.3873 -13.3809 -13.3465 -13.3383  -6.4192  -5.2797
    -4.3679  -3.9706  -3.3479  -3.1674  -1.1332  -0.8655  -0.5711  -0.5482
    -0.3648  -0.1711  -0.0485   0.0965   0.4723   0.7015   0.9100   1.0170
     1.0590   1.2687   1.2980   1.3624   1.4423   1.7793   1.7871   1.8679
     2.4275   2.6077   2.6643   2.7056   2.9196   3.2250   3.3592   3.4472
     3.6149   3.7274   3.7774   3.8563   3.9281   3.9445   3.9996   4.0176
     4.0992   4.2531   4.4371   4.6018   4.6165   4.8832

[...]

          k =-0.0759 0.0350 0.0000 ( 25472 PWs)   bands (ev):

[...]

     the Fermi energy is     0.9306 ev

!    total energy              =   -1371.12789939 Ry
     Harris-Foulkes estimate   =   -1371.12789317 Ry
     estimated scf accuracy    <       0.00000019 Ry

     The total energy is the sum of the following terms:

     one-electron contribution =   -7436.44159832 Ry
     hartree contribution      =    3755.25866143 Ry
     xc contribution           =    -404.47489149 Ry
     ewald contribution        =    2714.59586209 Ry
     electric field correction =       0.00000000 Ry
     smearing contrib. (-TS)   =      -0.06593309 Ry

     convergence has been achieved in  16 iterations

 BEEF-vdW xc energy contributions
           1 :   -353.846343701146
           2 :    321.394401347890
           3 :   -265.920098400524
           4 :    201.868525982820
           5 :   -142.679143575954
           6 :    96.3530119057591
           7 :   -64.3637420774016
           8 :    43.5901156685609
           9 :   -29.5777014114859
          10 :    19.2045850502160
          11 :   -11.5842634665953
          12 :    7.21691935796815
          13 :   -6.39700906824430
          14 :    8.13051748521229
[...]
     MD5 check sum: 90777abd96fbb83f2e67db2a40c566b9
     Pseudo is Ultrasoft + core correction, Zval = 13.0
     Generated by new atomic code, or converted to UPF format
     Using radial grid of  889 points,  6 beta functions with:
                l(1) =   0
                l(2) =   0
                l(3) =   1
                l(4) =   1
                l(5) =   2
                l(6) =   2
     Q(r) pseudized with  6 coefficients,  rinner =    1.400   1.400   1.400
                                                       1.400   1.400

     PseudoPot. # 2 for Y  read from file:
     /afs/slac.stanford.edu/u/if/mamunm/psp/gbrv1.5pbe/Y.UPF
     MD5 check sum: d034151ed7554c50b6e82763ed42c788
     Pseudo is Ultrasoft + core correction, Zval = 11.0
     Generated by new atomic code, or converted to UPF format
     Using radial grid of  885 points,  6 beta functions with:
                l(1) =   0
                l(2) =   0
                l(3) =   1
                l(4) =   1
                l(5) =   2
                l(6) =   2
     Q(r) pseudized with  8 coefficients,  rinner =    1.200   1.200   1.200
                                                       1.200   1.200

     vdW kernel table read from file vdW_kernel_table
     MD5 check sum: 095c7af220d748ca6e76c0b4c6cfb241

     atomic species   valence    mass     pseudopotential
        In1           13.00   114.81800     In( 1.00)
        Y1            11.00    88.90584     Y ( 1.00)

     No symmetry found

   Cartesian axes

     site n.     atom                  positions (alat units)
         1           In1 tau(   1) = (   0.0000000   0.0000000  10.0000000  )
         2           In1 tau(   2) = (   4.6711111   2.9910458  10.0000000  )
         3           Y1  tau(   3) = (   3.2931816   0.0000000  10.0000000  )
         4           Y1  tau(   4) = (   1.3779296   2.9910458  10.0000000  )
         5           In1 tau(   5) = (   6.5863632   4.2174364  12.7280618  )
         6           In1 tau(   6) = (   1.9152520   1.2263906  12.7280618  )
         7           Y1  tau(   7) = (   3.2931816   4.2174364  12.7280618  )
         8           Y1  tau(   8) = (   5.2084336   1.2263906  12.7280618  )
         9           In1 tau(   9) = (   3.7702281   2.4142222  15.5866900  )
        10           In1 tau(  10) = (   8.4421359   5.4057022  15.5866449  )
        11           Y1  tau(  11) = (   7.1130115   2.4458652  15.4235055  )
        12           Y1  tau(  12) = (   5.1977322   5.4370497  15.4235206  )

     number of k points=    20  Fermi-Dirac smearing, width (Ry)=  0.0110
                       cart. coord. in units 2pi/alat
        k(    1) = (   0.0000000   0.0000000   0.0000000), wk =   0.0555556
        k(    2) = (   0.0000000   0.0278609   0.0000000), wk =   0.1111111
        k(    3) = (   0.0000000   0.0557219   0.0000000), wk =   0.1111111
        k(    4) = (   0.0000000  -0.0835828   0.0000000), wk =   0.0555556
        k(    5) = (   0.0253048  -0.0116575   0.0000000), wk =   0.1111111
        k(    6) = (   0.0253048   0.0162034   0.0000000), wk =   0.1111111
        k(    7) = (   0.0253048   0.0440643   0.0000000), wk =   0.1111111
        k(    8) = (   0.0253048  -0.0952403   0.0000000), wk =   0.1111111
        k(    9) = (   0.0253048  -0.0673794   0.0000000), wk =   0.1111111
        k(   10) = (   0.0253048  -0.0395185   0.0000000), wk =   0.1111111
        k(   11) = (   0.0506096  -0.0233151   0.0000000), wk =   0.1111111
        k(   12) = (   0.0506096   0.0045458   0.0000000), wk =   0.1111111
        k(   13) = (   0.0506096   0.0324068   0.0000000), wk =   0.1111111
        k(   14) = (   0.0506096  -0.1068979   0.0000000), wk =   0.1111111
        k(   15) = (   0.0506096  -0.0790370   0.0000000), wk =   0.1111111
        k(   16) = (   0.0506096  -0.0511760   0.0000000), wk =   0.1111111
        k(   17) = (  -0.0759144   0.0349726   0.0000000), wk =   0.0555556
        k(   18) = (  -0.0759144   0.0628336   0.0000000), wk =   0.1111111
        k(   19) = (  -0.0759144   0.0906945   0.0000000), wk =   0.1111111
        k(   20) = (  -0.0759144  -0.0486102   0.0000000), wk =   0.0555556

     Largest allocated arrays     est. size (Mb)     dimensions
     Largest temporary arrays     est. size (Mb)     dimensions

     Initial potential from superposition of free atoms
     Check: negative starting charge=   -0.000450

     starting charge  134.97318, renormalised to  144.00000

[...]

     *
     * You are using vdW-DF for exchange-correlation in this calculation.
     * Please cite the following three references that made this development
     * possible:
     *
     *   M. Dion, H. Rydberg, E. Schroder, D. C. Langreth, and
     *   B. I. Lundqvist, Phys. Rev. Lett. 92, 246401 (2004).
     *
     *   T. Thonhauser, V. R. Cooper, S. Li, A. Puzder, P. Hyldgaard, and
     *   D. C. Langreth, Phys. Rev. B 76, 125112 (2007).
     *
     *   G. Roman-Perez and J. M. Soler, Phys. Rev. Lett. 103, 096102 (2009).
     *
     *
     * If you are using vdW-DF2, please also cite:
     *
     *   K. Lee, E. D. Murray, L. Kong, B. I. Lundqvist, and
     *   D. C. Langreth, Phys. Rev. B 82, 081101(R) (2010).
     *
     *
     * If you are calculating the stress with vdW-DF, please also cite:
     *
     *   R. Sabatini, E. Kucukbenli, B. Kolb, T. Thonhauser, and
     *   S. de Gironcoli, J. Phys.: Condens. Matter 24, 424209 (2012).
     *

     Carrying out vdW-DF run using the following parameters:

     Nqs =      20    Nr_points =    1024   r_max =   100.000
     q_mesh =
               0.00001000     0.04494208     0.09755937     0.15916263
               0.23128650     0.31572767     0.41458969     0.53033537
               0.66584808     0.82450364     1.01025438     1.22772762
               1.48234092     1.78043706     2.12944203     2.53805004
               3.01644009     3.57652955     4.23227104     5.00000000

     Gradients computed in reciprocal space

[...]

     Starting wfc are  132 randomized atomic wfcs

     Self-consistent Calculation

[...]

     iteration #  7     ecut=    36.75 Ry     beta=0.10
     Davidson diagonalization with overlap
     c_bands:  2 eigenvalues not converged
     ethr =  3.37E-05,  avg # of iterations =  5.5

[...]

     total energy              =   -1371.13168900 Ry
     Harris-Foulkes estimate   =   -1371.13168770 Ry
     estimated scf accuracy    <       0.00000119 Ry

     iteration # 17     ecut=    36.75 Ry     beta=0.10
     Davidson diagonalization with overlap
     ethr =  8.28E-10,  avg # of iterations =  2.5

[...]

     negative rho (up, down):  6.674E-04 0.000E+00

     Adding external electric field

     Computed dipole along edir(3) :
        Dipole               -0.0391 Ry au,         -0.0995 Debye
        Dipole field         -0.0001 Ry au

        Potential amp.        0.0068 Ry
        Total length         46.9025 bohr

     End of self-consistent calculation

[...]

          k = 0.0506-0.0512 0.0000 ( 25493 PWs)   bands (ev):

[...]

          k =-0.0759-0.0486 0.0000 ( 25540 PWs)   bands (ev):

   -42.6877 -42.6651 -42.6466 -42.6239 -42.2803 -42.2567 -22.7295 -22.6929
   -22.6821 -22.6802 -22.6474 -22.6469 -22.6173 -22.5763 -22.5762 -22.5363
   -22.3835 -22.3721 -22.3385 -22.2421 -22.2199 -22.2037 -22.1881 -22.0648
   -13.6474 -13.6168 -13.5817 -13.5753 -13.5565 -13.5543 -13.5527 -13.5519
   -13.5486 -13.5319 -13.5195 -13.5128 -13.5089 -13.5081 -13.4851 -13.4693
   -13.4691 -13.4665 -13.4520 -13.4470 -13.4461 -13.4443 -13.4418 -13.4390
   -13.4359 -13.4239 -13.4160 -13.3981 -13.3716 -13.3512  -5.3897  -5.0599
    -4.3743  -3.9467  -3.2007  -2.5790  -2.3041  -2.0077  -1.7743  -1.2268
    -1.2022  -1.0176  -0.9578  -0.2374  -0.1420   0.2809   0.3602   0.5181
     0.8826   1.1712   1.4946   1.5252   1.9100   2.1455   2.1515   2.2955
     2.4385   2.5062   2.6692   2.7088   2.8199   3.2148   3.2433   3.4271
     3.7310   3.7453   3.9379   4.1060   4.1361   4.1431   4.2117   4.6508
     4.6508   4.6576   5.0184   5.2357   5.3507   5.5922

     the Fermi energy is     0.8960 ev

!    total energy              =   -1371.13169458 Ry
     Harris-Foulkes estimate   =   -1371.13168922 Ry
     estimated scf accuracy    <       0.00000022 Ry

     The total energy is the sum of the following terms:

     one-electron contribution =   -7377.65499762 Ry
     hartree contribution      =    3725.72941398 Ry
     xc contribution           =    -404.44499572 Ry
     ewald contribution        =    2685.30419751 Ry
     electric field correction =       0.00000284 Ry
     smearing contrib. (-TS)   =      -0.06531557 Ry

     convergence has been achieved in  17 iterations

 BEEF-vdW xc energy contributions
           1 :   -353.814472804599
           2 :    321.343167215068
           3 :   -265.849736926038
           4 :    201.801513810885
           5 :   -142.644806354752
           6 :    96.3649413970492
           7 :   -64.4063484466185
           8 :    43.6272004324571
           9 :   -29.5788904461770
          10 :    19.1685501510566
          11 :   -11.5385664500062
          12 :    7.19405777315831
          13 :   -6.40766102644272
          14 :    8.15668540220236
          15 :   -10.2572788603467
          16 :    10.4302066096846
          17 :   -7.46679519895116
          18 :    1.74626346723574
          19 :    5.10860028422292
          20 :   -11.1212829336208
          21 :    14.8474363377638
          22 :   -15.8312544315937
          23 :    14.5252841280728
          24 :   -11.8687017414089
          25 :    8.82520986695954
          26 :   -6.09465450523840
          27 :    4.04115686992230
          28 :   -2.76295713857394
          29 :    2.19981177459067
          30 :   -2.21170193951457
          31 :   -32.7748129778444
          32 :   -23.2575917939465

     Forces acting on atoms (Ry/au):

     negative rho (up, down):  6.674E-04 0.000E+00
     atom    1 type  1   force =     0.00785349    0.00503382   -0.00950146
     atom    2 type  1   force =     0.00786078    0.00502886   -0.00950909
     atom    3 type  2   force =    -0.00371170   -0.00237798    0.00267656
     atom    4 type  2   force =    -0.00370794   -0.00237382    0.00267664
     atom    5 type  1   force =    -0.00053526   -0.00034900   -0.00071109
     atom    6 type  1   force =    -0.00061680   -0.00038846   -0.00071778
     atom    7 type  2   force =    -0.00175675   -0.00113129    0.00680589
     atom    8 type  2   force =    -0.00177051   -0.00112768    0.00680332
     atom    9 type  1   force =    -0.00110378   -0.00071045   -0.00036756
     atom   10 type  1   force =    -0.00112238   -0.00071461   -0.00035985
     atom   11 type  2   force =    -0.00070869   -0.00041625    0.00110556
     atom   12 type  2   force =    -0.00068046   -0.00047313    0.00109883

     Total force =     0.022778     Total SCF correction =     0.001734

     entering subroutine stress ...

     negative rho (up, down):  6.674E-04 0.000E+00
          total   stress  (Ry/bohr**3)                   (kbar)     P=   -4.60
  -0.00005833  -0.00001688  -0.00000864         -8.58     -2.48     -1.27
  -0.00001688  -0.00004278  -0.00000553         -2.48     -6.29     -0.81
  -0.00000864  -0.00000553   0.00000729         -1.27     -0.81      1.07

 !ASE

     Writing output data file calc.save

     General routines

     Parallel routines

   This run was terminated on:   0:44:30  25Dec2018

   JOB DONE.
Job  /afs/slac/g/suncat/bin/suncat-tsmpirun -x LD_LIBRARY_PATH -wdir /scratch/qe109036_5dZQu pw.x -in pw.inp

TID   HOST_NAME   COMMAND_LINE            STATUS            TERMINATION_TIME
00000 suncat0196 pw.x -in pw.inp   Done                     12/25/2018 00:44:30
00001 suncat0196 pw.x -in pw.inp   Done                     12/25/2018 00:44:30
00002 suncat0196 pw.x -in pw.inp   Done                     12/25/2018 00:44:30
00003 suncat0196 pw.x -in pw.inp   Done                     12/25/2018 00:44:30
00004 suncat0196 pw.x -in pw.inp   Done                     12/25/2018 00:44:30
00005 suncat0196 pw.x -in pw.inp   Done                     12/25/2018 00:44:30
00006 suncat0196 pw.x -in pw.inp   Done                     12/25/2018 00:44:30
00007 suncat0196 pw.x -in pw.inp   Done                     12/25/2018 00:44:30
00008 suncat0194 pw.x -in pw.inp   Done                     12/25/2018 00:44:30
00009 suncat0194 pw.x -in pw.inp   Done                     12/25/2018 00:44:30
00010 suncat0194 pw.x -in pw.inp   Done                     12/25/2018 00:44:30
00011 suncat0194 pw.x -in pw.inp   Done                     12/25/2018 00:44:30
00012 suncat0194 pw.x -in pw.inp   Done                     12/25/2018 00:44:30
00013 suncat0194 pw.x -in pw.inp   Done                     12/25/2018 00:44:30
00014 suncat0194 pw.x -in pw.inp   Done                     12/25/2018 00:44:30
00015 suncat0194 pw.x -in pw.inp   Done                     12/25/2018 00:44:30
00016 suncat0167 pw.x -in pw.inp   Done                     12/25/2018 00:44:30
00017 suncat0167 pw.x -in pw.inp   Done                     12/25/2018 00:44:30
00018 suncat0167 pw.x -in pw.inp   Done                     12/25/2018 00:44:30
00019 suncat0167 pw.x -in pw.inp   Done                     12/25/2018 00:44:30
00020 suncat0167 pw.x -in pw.inp   Done                     12/25/2018 00:44:30
00021 suncat0167 pw.x -in pw.inp   Done                     12/25/2018 00:44:30
00022 suncat0167 pw.x -in pw.inp   Done                     12/25/2018 00:44:30
00023 suncat0167 pw.x -in pw.inp   Done                     12/25/2018 00:44:30
00024 suncat0166 pw.x -in pw.inp   Done                     12/25/2018 00:44:30
00025 suncat0166 pw.x -in pw.inp   Done                     12/25/2018 00:44:30
00026 suncat0166 pw.x -in pw.inp   Done                     12/25/2018 00:44:30
00027 suncat0166 pw.x -in pw.inp   Done                     12/25/2018 00:44:30
00028 suncat0166 pw.x -in pw.inp   Done                     12/25/2018 00:44:30
00029 suncat0166 pw.x -in pw.inp   Done                     12/25/2018 00:44:30
00030 suncat0166 pw.x -in pw.inp   Done                     12/25/2018 00:44:30
00031 suncat0166 pw.x -in pw.inp   Done                     12/25/2018 00:44:30
00032 suncat0165 pw.x -in pw.inp   Done                     12/25/2018 00:44:30
00033 suncat0165 pw.x -in pw.inp   Done                     12/25/2018 00:44:30
00034 suncat0165 pw.x -in pw.inp   Done                     12/25/2018 00:44:30
00035 suncat0165 pw.x -in pw.inp   Done                     12/25/2018 00:44:30
00036 suncat0165 pw.x -in pw.inp   Done                     12/25/2018 00:44:30
00037 suncat0165 pw.x -in pw.inp   Done                     12/25/2018 00:44:30
00038 suncat0165 pw.x -in pw.inp   Done                     12/25/2018 00:44:30
00039 suncat0165 pw.x -in pw.inp   Done                     12/25/2018 00:44:30
00040 suncat0164 pw.x -in pw.inp   Done                     12/25/2018 00:44:30
00041 suncat0164 pw.x -in pw.inp   Done                     12/25/2018 00:44:30
00042 suncat0164 pw.x -in pw.inp   Done                     12/25/2018 00:44:30
00043 suncat0164 pw.x -in pw.inp   Done                     12/25/2018 00:44:30
00044 suncat0164 pw.x -in pw.inp   Done                     12/25/2018 00:44:30
00045 suncat0164 pw.x -in pw.inp   Done                     12/25/2018 00:44:30
00046 suncat0164 pw.x -in pw.inp   Done                     12/25/2018 00:44:30
00047 suncat0164 pw.x -in pw.inp   Done                     12/25/2018 00:44:30
00048 suncat0149 pw.x -in pw.inp   Done                     12/25/2018 00:44:30
00049 suncat0149 pw.x -in pw.inp   Done                     12/25/2018 00:44:30
00050 suncat0149 pw.x -in pw.inp   Done                     12/25/2018 00:44:30
00051 suncat0149 pw.x -in pw.inp   Done                     12/25/2018 00:44:30
00052 suncat0149 pw.x -in pw.inp   Done                     12/25/2018 00:44:30
00053 suncat0149 pw.x -in pw.inp   Done                     12/25/2018 00:44:30
00054 suncat0149 pw.x -in pw.inp   Done                     12/25/2018 00:44:30
00055 suncat0149 pw.x -in pw.inp   Done                     12/25/2018 00:44:30
00056 suncat0148 pw.x -in pw.inp   Done                     12/25/2018 00:44:30
00057 suncat0148 pw.x -in pw.inp   Done                     12/25/2018 00:44:30
00058 suncat0148 pw.x -in pw.inp   Done                     12/25/2018 00:44:30
00059 suncat0148 pw.x -in pw.inp   Done                     12/25/2018 00:44:30
00060 suncat0148 pw.x -in pw.inp   Done                     12/25/2018 00:44:30
00061 suncat0148 pw.x -in pw.inp   Done                     12/25/2018 00:44:30
00062 suncat0148 pw.x -in pw.inp   Done                     12/25/2018 00:44:30
00063 suncat0148 pw.x -in pw.inp   Done                     12/25/2018 00:44:30