     Program PWSCF v.5.1rc2 (svn rev. 11289) starts on 19Dec2018 at  9:48:40

     Current dimensions of program PWSCF are:
     Max number of different atomic species (ntypx) = 10
     Max number of k-points (npk) =  40000
     Max angular momentum in pseudopotentials (lmaxx) =  3
     Presently stress not available with electric field

     IMPORTANT: XC functional enforced from input :
     Exchange-correlation      = BEEF-VDW ( 1  4 27 13 2)
     Any further DFT definition will be discarded
     Please, verify this is what you really want

     Subspace diagonalization in iterative solution of the eigenvalue problem:
     a serial algorithm will be used

     Found symmetry operation: I + (  0.5000  0.0000  0.0000)
     This is a supercell, fractional translations are disabled

     bravais-lattice index     =            0
     lattice parameter (alat)  =       1.8897  a.u.
     unit-cell volume          =    4255.7260 (a.u.)^3
     number of atoms/cell      =           12
     number of atomic types    =            2
     number of electrons       =       174.00
     number of Kohn-Sham states=          117
     kinetic-energy cutoff     =      36.7493  Ry
     charge density cutoff     =     367.4932  Ry
     convergence threshold     =      1.0E-06
     mixing beta               =       0.1000
     number of iterations used =           10  plain     mixing
     Exchange-correlation      = BEEF-VDW ( 1  4 27 13 2)
     nstep                     =           50

     celldm(1)=   1.889726  celldm(2)=   0.000000  celldm(3)=   0.000000
     celldm(4)=   0.000000  celldm(5)=   0.000000  celldm(6)=   0.000000

     crystal axes: (cart. coord. in units of alat)
               a(1) = (   5.417548   0.000000   0.000000 )
               a(2) = (  -2.708774   4.760034   0.000000 )
               a(3) = (   0.000000   0.000000  24.454805 )

     reciprocal axes: (cart. coord. in units 2 pi/alat)
               b(1) = (  0.184585  0.105041  0.000000 )
               b(2) = (  0.000000  0.210083  0.000000 )
               b(3) = (  0.000000  0.000000  0.040892 )

     PseudoPot. # 1 for V  read from file:
     /afs/slac.stanford.edu/u/if/mamunm/psp/gbrv1.5pbe/V.UPF
     MD5 check sum: 22b79981416ebb76fdaf5b1b8640f6fb
     Pseudo is Ultrasoft + core correction, Zval = 13.0
     Generated by new atomic code, or converted to UPF format
     Using radial grid of  853 points,  6 beta functions with:
                l(1) =   0
                l(2) =   0
                l(3) =   1
                l(4) =   1
                l(5) =   2
                l(6) =   2
     Q(r) pseudized with  8 coefficients,  rinner =    1.100   1.100   1.100
                                                       1.100   1.100

     PseudoPot. # 2 for Pt read from file:
     /afs/slac.stanford.edu/u/if/mamunm/psp/gbrv1.5pbe/Pt.UPF
     MD5 check sum: f09d6de1a584b5a045c4fc126da2d0c4
     Pseudo is Ultrasoft + core correction, Zval = 16.0
     Generated by new atomic code, or converted to UPF format
     Using radial grid of  985 points,  6 beta functions with:
                l(1) =   0
                l(2) =   0
                l(3) =   1
                l(4) =   1
                l(5) =   2
                l(6) =   2
     Q(r) pseudized with  8 coefficients,  rinner =    1.300   1.300   1.300
                                                       1.300   1.300

     vdW kernel table read from file vdW_kernel_table
     MD5 check sum: 095c7af220d748ca6e76c0b4c6cfb241

     atomic species   valence    mass     pseudopotential
        V1            13.00    50.94150     V ( 1.00)
        Pt1           16.00   195.08400     Pt( 1.00)

     No symmetry found

   Cartesian axes

     site n.     atom                  positions (alat units)
         1           V1  tau(   1) = (   0.0000000   0.0000000  10.0000000  )
         2           V1  tau(   2) = (   2.7087742   0.0000000  10.0000000  )
         3           Pt1 tau(   3) = (   1.3543871   2.3800170  10.0000000  )
         4           Pt1 tau(   4) = (  -1.3543871   2.3800170  10.0000000  )
         5           V1  tau(   5) = (   2.7087742   1.5414716  12.2274027  )
         6           V1  tau(   6) = (  -0.0000000   1.5414716  12.2274027  )
         7           Pt1 tau(   7) = (  -1.3543871   3.9214886  12.2274027  )
         8           Pt1 tau(   8) = (   1.3543871   3.9214886  12.2274027  )
         9           V1  tau(   9) = (   0.0000000   3.0829433  14.4548053  )
        10           V1  tau(  10) = (   2.7087742   3.0829433  14.4548053  )
        11           Pt1 tau(  11) = (   4.0631612   0.7029262  14.4548053  )
        12           Pt1 tau(  12) = (   1.3543871   0.7029262  14.4548053  )

     number of k points=    20  Fermi-Dirac smearing, width (Ry)=  0.0110
                       cart. coord. in units 2pi/alat
        k(    1) = (   0.0000000   0.0000000   0.0000000), wk =   0.0555556
        k(    2) = (   0.0000000   0.0350138   0.0000000), wk =   0.1111111
        k(    3) = (   0.0000000   0.0700275   0.0000000), wk =   0.1111111
        k(    4) = (   0.0000000  -0.1050413   0.0000000), wk =   0.0555556
        k(    5) = (   0.0307642   0.0175069   0.0000000), wk =   0.1111111
        k(    6) = (   0.0307642   0.0525206   0.0000000), wk =   0.1111111
        k(    7) = (   0.0307642   0.0875344   0.0000000), wk =   0.1111111
        k(    8) = (   0.0307642  -0.0875344   0.0000000), wk =   0.1111111
        k(    9) = (   0.0307642  -0.0525206   0.0000000), wk =   0.1111111
        k(   10) = (   0.0307642  -0.0175069   0.0000000), wk =   0.1111111
        k(   11) = (   0.0615284   0.0350138   0.0000000), wk =   0.1111111
        k(   12) = (   0.0615284   0.0700275   0.0000000), wk =   0.1111111
        k(   13) = (   0.0615284   0.1050413   0.0000000), wk =   0.1111111
        k(   14) = (   0.0615284  -0.0700275   0.0000000), wk =   0.1111111
        k(   15) = (   0.0615284  -0.0350138   0.0000000), wk =   0.1111111
        k(   16) = (   0.0615284  -0.0000000   0.0000000), wk =   0.1111111
        k(   17) = (  -0.0922927  -0.0525206   0.0000000), wk =   0.0555556
        k(   18) = (  -0.0922927  -0.0175069   0.0000000), wk =   0.1111111
        k(   19) = (  -0.0922927   0.0175069   0.0000000), wk =   0.1111111
        k(   20) = (  -0.0922927  -0.1575619   0.0000000), wk =   0.0555556

     Largest allocated arrays     est. size (Mb)     dimensions
     Largest temporary arrays     est. size (Mb)     dimensions

     Check: negative/imaginary core charge=   -0.000001    0.000000

     Initial potential from superposition of free atoms
     Check: negative starting charge=   -1.106569

     starting charge  170.99257, renormalised to  174.00000

     negative rho (up, down):  1.126E+00 0.000E+00

     *
     * You are using vdW-DF for exchange-correlation in this calculation.
     * Please cite the following three references that made this development
     * possible:
     *
     *   M. Dion, H. Rydberg, E. Schroder, D. C. Langreth, and
     *   B. I. Lundqvist, Phys. Rev. Lett. 92, 246401 (2004).
     *
     *   T. Thonhauser, V. R. Cooper, S. Li, A. Puzder, P. Hyldgaard, and
     *   D. C. Langreth, Phys. Rev. B 76, 125112 (2007).
     *
     *   G. Roman-Perez and J. M. Soler, Phys. Rev. Lett. 103, 096102 (2009).
     *
     *
     * If you are using vdW-DF2, please also cite:
     *
     *   K. Lee, E. D. Murray, L. Kong, B. I. Lundqvist, and
     *   D. C. Langreth, Phys. Rev. B 82, 081101(R) (2010).
     *
     *
     * If you are calculating the stress with vdW-DF, please also cite:
     *
     *   R. Sabatini, E. Kucukbenli, B. Kolb, T. Thonhauser, and
     *   S. de Gironcoli, J. Phys.: Condens. Matter 24, 424209 (2012).
     *

     Carrying out vdW-DF run using the following parameters:

     Nqs =      20    Nr_points =    1024   r_max =   100.000
     q_mesh =
               0.00001000     0.04494208     0.09755937     0.15916263
               0.23128650     0.31572767     0.41458969     0.53033537
               0.66584808     0.82450364     1.01025438     1.22772762
               1.48234092     1.78043706     2.12944203     2.53805004
               3.01644009     3.57652955     4.23227104     5.00000000

     Gradients computed in reciprocal space

     Adding external electric field

     Computed dipole along edir(3) :
        Dipole                0.0000 Ry au,          0.0000 Debye
        Dipole field          0.0000 Ry au

        Potential amp.       -0.0000 Ry
        Total length         45.0576 bohr

     Starting wfc are  132 randomized atomic wfcs

     Self-consistent Calculation

     iteration #  1     ecut=    36.75 Ry     beta=0.10
     Davidson diagonalization with overlap
     ethr =  1.00E-02,  avg # of iterations =  5.8

[...]

     total energy              =   -2148.04160996 Ry
     Harris-Foulkes estimate   =   -2151.05202564 Ry
     estimated scf accuracy    <      17.56183931 Ry

[...]

     iteration # 19     ecut=    36.75 Ry     beta=0.10
     Davidson diagonalization with overlap
     c_bands:  2 eigenvalues not converged
     ethr =  5.24E-09,  avg # of iterations =  1.9

[...]

     End of self-consistent calculation

          k = 0.0000 0.0000 0.0000 ( 15921 PWs)   bands (ev):

   -62.8707 -62.8526 -62.8348 -62.8202 -62.8033 -62.7858 -51.9006 -51.7349
   -51.7062 -51.7047 -51.6750 -51.5909 -51.3289 -51.3287 -51.2298 -51.2245
   -51.1991 -51.1938 -51.0744 -51.0591 -51.0457 -51.0304 -51.0202 -51.0200
   -36.8384 -36.8049 -36.7762 -36.7690 -36.7609 -36.7327 -36.7273 -36.7015
   -36.6763 -36.6724 -36.6578 -36.6567 -36.6156 -36.4426 -36.4399 -36.4042
   -36.2820 -36.2807  -6.4754  -4.8137  -4.4685  -4.3815  -3.9952  -3.9849
    -3.7409  -3.7195  -3.6530  -3.3370  -3.2767  -3.2391  -3.1454  -2.9639
    -2.5256  -2.4428  -2.0051  -1.7703  -1.6325  -1.5914  -1.4888  -1.4759
    -1.0281  -1.0115  -0.8921  -0.8242  -0.6715  -0.3084  -0.2999   0.3611
     0.6163   0.7107   0.7332   0.7983   0.9345   1.1884   1.2417   1.2948
     1.3567   1.4039   1.7271   1.9547   2.0189   2.1076   2.1766   2.3802
     2.4156   2.4517   2.7797   2.8563   3.0151   3.1220   3.1577   3.1818
     3.2443   3.2740   3.2771   3.3253   3.3307   3.4802   3.5314   3.6714
     3.8382   3.8815   3.9082   4.0489   4.2093   4.9745   5.1875   5.2176
     5.2620   5.2964   5.4776   5.8529   6.0869

[...]

          k =-0.0923-0.0525 0.0000 ( 16012 PWs)   bands (ev):

[...]

     the Fermi energy is     1.7945 ev

!    total energy              =   -2148.96236525 Ry
     Harris-Foulkes estimate   =   -2148.96236063 Ry
     estimated scf accuracy    <       0.00000046 Ry

     The total energy is the sum of the following terms:

     one-electron contribution =  -17697.06549077 Ry
     hartree contribution      =    8859.32094315 Ry
     xc contribution           =    -473.79626724 Ry
     ewald contribution        =    7162.66723317 Ry
     electric field correction =       0.00000000 Ry
     smearing contrib. (-TS)   =      -0.08878356 Ry

     convergence has been achieved in  21 iterations

 BEEF-vdW xc energy contributions
           1 :   -418.508752604817
           2 :    386.229138750567
           3 :   -329.765586724331
[...]

[...]

   This run was terminated on:  10: 8:33  19Dec2018

[...]

     Program PWSCF v.5.1rc2 (svn rev. 11289) starts on 19Dec2018 at 10: 8:39

[...]

     Found symmetry operation: I + (  0.5000  0.0000  0.0000)
     This is a supercell, fractional translations are disabled

[...]

     Program PWSCF v.5.1rc2 (svn rev. 11289) starts on 19Dec2018 at 10:18:46

     Current dimensions of program PWSCF are:
     Max number of different atomic species (ntypx) = 10
     Max number of k-points (npk) =  40000
     Max angular momentum in pseudopotentials (lmaxx) =  3
     Presently stress not available with electric field

     IMPORTANT: XC functional enforced from input :
     Exchange-correlation      = BEEF-VDW ( 1  4 27 13 2)
     Any further DFT definition will be discarded
     Please, verify this is what you really want

     Subspace diagonalization in iterative solution of the eigenvalue problem:
     a serial algorithm will be used

     bravais-lattice index     =            0
     lattice parameter (alat)  =       1.8897  a.u.
     unit-cell volume          =    4255.7260 (a.u.)^3
     number of atoms/cell      =           12
     number of atomic types    =            2
     number of electrons       =       174.00
     number of Kohn-Sham states=          117
     kinetic-energy cutoff     =      36.7493  Ry
     charge density cutoff     =     367.4932  Ry
     convergence threshold     =      1.0E-06
     mixing beta               =       0.1000
     number of iterations used =           10  plain     mixing
     Exchange-correlation      = BEEF-VDW ( 1  4 27 13 2)
     nstep                     =           50

     celldm(1)=   1.889726  celldm(2)=   0.000000  celldm(3)=   0.000000
     celldm(4)=   0.000000  celldm(5)=   0.000000  celldm(6)=   0.000000

     crystal axes: (cart. coord. in units of alat)
               a(1) = (   5.417548   0.000000   0.000000 )
               a(2) = (  -2.708774   4.760034   0.000000 )
               a(3) = (   0.000000   0.000000  24.454805 )

     reciprocal axes: (cart. coord. in units 2 pi/alat)
               b(1) = (  0.184585  0.105041  0.000000 )
               b(2) = (  0.000000  0.210083  0.000000 )
               b(3) = (  0.000000  0.000000  0.040892 )

     PseudoPot. # 1 for V  read from file:
     /afs/slac.stanford.edu/u/if/mamunm/psp/gbrv1.5pbe/V.UPF
     MD5 check sum: 22b79981416ebb76fdaf5b1b8640f6fb
     Pseudo is Ultrasoft + core correction, Zval = 13.0
     Generated by new atomic code, or converted to UPF format
     Using radial grid of  853 points,  6 beta functions with:
                l(1) =   0
                l(2) =   0
                l(3) =   1
                l(4) =   1
                l(5) =   2
                l(6) =   2
     Q(r) pseudized with  8 coefficients,  rinner =    1.100   1.100   1.100
                                                       1.100   1.100

     PseudoPot. # 2 for Pt read from file:
     /afs/slac.stanford.edu/u/if/mamunm/psp/gbrv1.5pbe/Pt.UPF
     MD5 check sum: f09d6de1a584b5a045c4fc126da2d0c4
     Pseudo is Ultrasoft + core correction, Zval = 16.0
     Generated by new atomic code, or converted to UPF format
     Using radial grid of  985 points,  6 beta functions with:
                l(1) =   0
                l(2) =   0
                l(3) =   1
                l(4) =   1
                l(5) =   2
                l(6) =   2
     Q(r) pseudized with  8 coefficients,  rinner =    1.300   1.300   1.300
                                                       1.300   1.300

     vdW kernel table read from file vdW_kernel_table
     MD5 check sum: 095c7af220d748ca6e76c0b4c6cfb241

     atomic species   valence    mass     pseudopotential
        V1            13.00    50.94150     V ( 1.00)
        Pt1           16.00   195.08400     Pt( 1.00)

     No symmetry found

   Cartesian axes

     site n.     atom                  positions (alat units)
         1           V1  tau(   1) = (   0.0000000   0.0000000  10.0000000  )
         2           V1  tau(   2) = (   2.7087742   0.0000000  10.0000000  )
         3           Pt1 tau(   3) = (   1.3543871   2.3800170  10.0000000  )
         4           Pt1 tau(   4) = (  -1.3543871   2.3800170  10.0000000  )
         5           V1  tau(   5) = (   2.7087742   1.5414716  12.2274027  )
         6           V1  tau(   6) = (  -0.0000000   1.5414716  12.2274027  )
         7           Pt1 tau(   7) = (  -1.3543871   3.9214886  12.2274027  )
         8           Pt1 tau(   8) = (   1.3543871   3.9214886  12.2274027  )
         9           V1  tau(   9) = (  -0.0000000   3.1507941  14.3521920  )
        10           V1  tau(  10) = (   2.7087742   3.1508233  14.3521791  )
        11           Pt1 tau(  11) = (   4.0632572   0.8787669  14.4264858  )
        12           Pt1 tau(  12) = (   1.3542907   0.8787671  14.4264858  )

     number of k points=    20  Fermi-Dirac smearing, width (Ry)=  0.0110
                       cart. coord. in units 2pi/alat
        k(    1) = (   0.0000000   0.0000000   0.0000000), wk =   0.0555556
        k(    2) = (   0.0000000   0.0350138   0.0000000), wk =   0.1111111
        k(    3) = (   0.0000000   0.0700275   0.0000000), wk =   0.1111111
        k(    4) = (   0.0000000  -0.1050413   0.0000000), wk =   0.0555556
        k(    5) = (   0.0307642   0.0175069   0.0000000), wk =   0.1111111
        k(    6) = (   0.0307642   0.0525206   0.0000000), wk =   0.1111111
        k(    7) = (   0.0307642   0.0875344   0.0000000), wk =   0.1111111
        k(    8) = (   0.0307642  -0.0875344   0.0000000), wk =   0.1111111
        k(    9) = (   0.0307642  -0.0525206   0.0000000), wk =   0.1111111
        k(   10) = (   0.0307642  -0.0175069   0.0000000), wk =   0.1111111
        k(   11) = (   0.0615284   0.0350138   0.0000000), wk =   0.1111111
        k(   12) = (   0.0615284   0.0700275   0.0000000), wk =   0.1111111
        k(   13) = (   0.0615284   0.1050413   0.0000000), wk =   0.1111111
        k(   14) = (   0.0615284  -0.0700275   0.0000000), wk =   0.1111111
        k(   15) = (   0.0615284  -0.0350138   0.0000000), wk =   0.1111111
        k(   16) = (   0.0615284  -0.0000000   0.0000000), wk =   0.1111111
        k(   17) = (  -0.0922927  -0.0525206   0.0000000), wk =   0.0555556
        k(   18) = (  -0.0922927  -0.0175069   0.0000000), wk =   0.1111111
        k(   19) = (  -0.0922927   0.0175069   0.0000000), wk =   0.1111111
        k(   20) = (  -0.0922927  -0.1575619   0.0000000), wk =   0.0555556

     Largest allocated arrays     est. size (Mb)     dimensions
     Largest temporary arrays     est. size (Mb)     dimensions

     Check: negative/imaginary core charge=   -0.000001    0.000000

     Initial potential from superposition of free atoms
     Check: negative starting charge=   -1.106163

     starting charge  170.99257, renormalised to  174.00000

[...]

     *
     * You are using vdW-DF for exchange-correlation in this calculation.
     * Please cite the following three references that made this development
     * possible:
     *
     *   M. Dion, H. Rydberg, E. Schroder, D. C. Langreth, and
     *   B. I. Lundqvist, Phys. Rev. Lett. 92, 246401 (2004).
     *
     *   T. Thonhauser, V. R. Cooper, S. Li, A. Puzder, P. Hyldgaard, and
     *   D. C. Langreth, Phys. Rev. B 76, 125112 (2007).
     *
     *   G. Roman-Perez and J. M. Soler, Phys. Rev. Lett. 103, 096102 (2009).
     *
     *
     * If you are using vdW-DF2, please also cite:
     *
     *   K. Lee, E. D. Murray, L. Kong, B. I. Lundqvist, and
     *   D. C. Langreth, Phys. Rev. B 82, 081101(R) (2010).
     *
     *
     * If you are calculating the stress with vdW-DF, please also cite:
     *
     *   R. Sabatini, E. Kucukbenli, B. Kolb, T. Thonhauser, and
     *   S. de Gironcoli, J. Phys.: Condens. Matter 24, 424209 (2012).
     *

     Carrying out vdW-DF run using the following parameters:

     Nqs =      20    Nr_points =    1024   r_max =   100.000
     q_mesh =
               0.00001000     0.04494208     0.09755937     0.15916263
               0.23128650     0.31572767     0.41458969     0.53033537
               0.66584808     0.82450364     1.01025438     1.22772762
               1.48234092     1.78043706     2.12944203     2.53805004
               3.01644009     3.57652955     4.23227104     5.00000000

     Gradients computed in reciprocal space

[...]

     Starting wfc are  132 randomized atomic wfcs

     Self-consistent Calculation

[...]

     iteration # 11     ecut=    36.75 Ry     beta=0.10
     Davidson diagonalization with overlap
     c_bands:  1 eigenvalues not converged
     ethr =  1.24E-05,  avg # of iterations =  3.2

[...]

     total energy              =   -2148.97748809 Ry
     Harris-Foulkes estimate   =   -2148.97748709 Ry
     estimated scf accuracy    <       0.00000107 Ry

     iteration # 22     ecut=    36.75 Ry     beta=0.10
     Davidson diagonalization with overlap
     ethr =  6.14E-10,  avg # of iterations =  2.0

[...]

     negative rho (up, down):  1.059E+00 0.000E+00

     Adding external electric field

     Computed dipole along edir(3) :
        Dipole               -0.0050 Ry au,         -0.0127 Debye
        Dipole field         -0.0000 Ry au

        Potential amp.        0.0013 Ry
        Total length         45.0576 bohr

     End of self-consistent calculation

[...]

          k = 0.0615-0.0000 0.0000 ( 16012 PWs)   bands (ev):

[...]

          k =-0.0923-0.1576 0.0000 ( 16012 PWs)   bands (ev):

   -62.8525 -62.8525 -62.8286 -62.8285 -62.8072 -62.8071 -51.8468 -51.8468
   -51.8185 -51.8185 -51.7485 -51.7485 -51.2600 -51.2599 -51.2473 -51.2470
   -51.2122 -51.2122 -51.1772 -51.1772 -51.1155 -51.1155 -51.0499 -51.0499
   -36.7941 -36.7940 -36.7589 -36.7589 -36.7469 -36.7468 -36.6904 -36.6904
   -36.6614 -36.6614 -36.6452 -36.6451 -36.4840 -36.4839 -36.4815 -36.4815
   -36.4237 -36.4236  -4.7418  -4.7417  -3.5967  -3.5966  -3.2291  -3.2290
    -3.1861  -3.1861  -2.8574  -2.8573  -2.7684  -2.7683  -2.5345  -2.5343
    -2.2691  -2.2689  -1.9301  -1.9297  -1.7999  -1.7998  -1.6042  -1.6041
    -1.5005  -1.5002  -1.4689  -1.4685  -1.2886  -1.2882  -1.2025  -1.2025
    -0.9176  -0.9175  -0.6270  -0.6269   0.5624   0.5624   0.9261   0.9262
     1.0712   1.0712   1.2778   1.2778   1.6007   1.6008   1.8718   1.8718
     2.1839   2.1840   2.2201   2.2202   2.3215   2.3216   2.3664   2.3665
     2.5308   2.5308   2.8742   2.8742   2.9960   2.9961   3.4055   3.4055
     3.6086   3.6086   4.2241   4.2242   5.0115   5.0116   5.5284   5.5284
     6.2164   6.2165   7.1899   7.1899   7.4929

     the Fermi energy is     1.7882 ev

!    total energy              =   -2148.97749127 Ry
     Harris-Foulkes estimate   =   -2148.97748822 Ry
     estimated scf accuracy    <       0.00000030 Ry

     The total energy is the sum of the following terms:

     one-electron contribution =  -17851.92145429 Ry
     hartree contribution      =    8936.57785276 Ry
     xc contribution           =    -473.91867392 Ry
     ewald contribution        =    7240.37041051 Ry
     electric field correction =       0.00000007 Ry
     smearing contrib. (-TS)   =      -0.08562640 Ry

     convergence has been achieved in  22 iterations

 BEEF-vdW xc energy contributions
           1 :   -418.635519963215
           2 :    386.403096695769
           3 :   -329.993499757366
           4 :    262.153014635685
           5 :   -195.641324201412
           6 :    139.424651469825
           7 :   -97.1353656680546
           8 :    67.8143426874418
           9 :   -48.0032670071585
          10 :    33.9388350042155
          11 :   -22.9657097087250
          12 :    13.8820002695783
          13 :   -6.50927456195200
          14 :    1.02677638519253
          15 :    2.47179892237625
          16 :   -4.08118178634777
          17 :    4.00797919288937
          18 :   -2.54679955338941
          19 :   0.166950338624304
          20 :    2.41405357331519
          21 :   -4.33970514880917
          22 :    4.92318270644205
          23 :   -3.99133134090329
          24 :    2.02448464012429
          25 :   3.553613263085253E-002
          26 :   -1.23916562564796
          27 :    1.09981456001140
          28 :   0.181036233104464
          29 :   -1.86131671686928
          30 :    3.08283574345398
          31 :   -36.5251547177005
          32 :   -26.8574577020649

     Forces acting on atoms (Ry/au):

     negative rho (up, down):  1.059E+00 0.000E+00
     atom    1 type  1   force =    -0.00000002    0.01660844    0.01922775
     atom    2 type  1   force =    -0.00000000    0.01660921    0.01923101
     atom    3 type  2   force =     0.00000011   -0.03600328   -0.00479095
     atom    4 type  2   force =    -0.00000017   -0.03600333   -0.00479089
     atom    5 type  1   force =    -0.00000001    0.00722823   -0.01190184
     atom    6 type  1   force =    -0.00000001    0.00723050   -0.01191692
     atom    7 type  2   force =     0.00000403    0.01177924   -0.00439985
     atom    8 type  2   force =    -0.00000397    0.01177913   -0.00439952
     atom    9 type  1   force =    -0.00000001   -0.00037374    0.00056389
     atom   10 type  1   force =    -0.00000000   -0.00040717    0.00056551
     atom   11 type  2   force =    -0.00009056    0.00077639    0.00130590
     atom   12 type  2   force =     0.00009062    0.00077637    0.00130591

     Total force =     0.068115     Total SCF correction =     0.002174

     entering subroutine stress ...

     negative rho (up, down):  1.059E+00 0.000E+00
          total   stress  (Ry/bohr**3)                   (kbar)     P=  -13.77
  -0.00006920  -0.00000000  -0.00000000        -10.18     -0.00     -0.00
  -0.00000000  -0.00017377   0.00003916         -0.00    -25.56      5.76
  -0.00000000   0.00003916  -0.00003780         -0.00      5.76     -5.56

 !ASE

     Writing output data file calc.save

     General routines

     Parallel routines

   This run was terminated on:  10:23:45  19Dec2018

   JOB DONE.
Job  /afs/slac/g/suncat/bin/suncat-tsmpirun -x LD_LIBRARY_PATH -wdir /scratch/qe530768_cYxbQ pw.x -in pw.inp

TID   HOST_NAME   COMMAND_LINE            STATUS            TERMINATION_TIME
00000 suncat2058 pw.x -in pw.inp   Done                     12/19/2018 10:23:45
00001 suncat2058 pw.x -in pw.inp   Done                     12/19/2018 10:23:45
00002 suncat2058 pw.x -in pw.inp   Done                     12/19/2018 10:23:45
00003 suncat2058 pw.x -in pw.inp   Done                     12/19/2018 10:23:45
00004 suncat2058 pw.x -in pw.inp   Done                     12/19/2018 10:23:45
00005 suncat2058 pw.x -in pw.inp   Done                     12/19/2018 10:23:45
00006 suncat2058 pw.x -in pw.inp   Done                     12/19/2018 10:23:45
00007 suncat2058 pw.x -in pw.inp   Done                     12/19/2018 10:23:45
00008 suncat2058 pw.x -in pw.inp   Done                     12/19/2018 10:23:45
00009 suncat2058 pw.x -in pw.inp   Done                     12/19/2018 10:23:45
00010 suncat2058 pw.x -in pw.inp   Done                     12/19/2018 10:23:45
00011 suncat2058 pw.x -in pw.inp   Done                     12/19/2018 10:23:45
00012 suncat2058 pw.x -in pw.inp   Done                     12/19/2018 10:23:45
00013 suncat2058 pw.x -in pw.inp   Done                     12/19/2018 10:23:45
00014 suncat2058 pw.x -in pw.inp   Done                     12/19/2018 10:23:45
00015 suncat2058 pw.x -in pw.inp   Done                     12/19/2018 10:23:45
00016 suncat2057 pw.x -in pw.inp   Done                     12/19/2018 10:23:45
00017 suncat2057 pw.x -in pw.inp   Done                     12/19/2018 10:23:45
00018 suncat2057 pw.x -in pw.inp   Done                     12/19/2018 10:23:45
00019 suncat2057 pw.x -in pw.inp   Done                     12/19/2018 10:23:45
00020 suncat2057 pw.x -in pw.inp   Done                     12/19/2018 10:23:45
00021 suncat2057 pw.x -in pw.inp   Done                     12/19/2018 10:23:45
00022 suncat2057 pw.x -in pw.inp   Done                     12/19/2018 10:23:45
00023 suncat2057 pw.x -in pw.inp   Done                     12/19/2018 10:23:45
00024 suncat2057 pw.x -in pw.inp   Done                     12/19/2018 10:23:45
00025 suncat2057 pw.x -in pw.inp   Done                     12/19/2018 10:23:45
00026 suncat2057 pw.x -in pw.inp   Done                     12/19/2018 10:23:45
00027 suncat2057 pw.x -in pw.inp   Done                     12/19/2018 10:23:45
00028 suncat2057 pw.x -in pw.inp   Done                     12/19/2018 10:23:45
00029 suncat2057 pw.x -in pw.inp   Done                     12/19/2018 10:23:45
00030 suncat2057 pw.x -in pw.inp   Done                     12/19/2018 10:23:45
00031 suncat2057 pw.x -in pw.inp   Done                     12/19/2018 10:23:45