     Program PWSCF v.5.1rc2 (svn rev. 11289) starts on 26Dec2018 at 15:31:48

     Current dimensions of program PWSCF are:
     Max number of different atomic species (ntypx) = 10
     Max number of k-points (npk) =  40000
     Max angular momentum in pseudopotentials (lmaxx) =  3
     Presently stress not available with electric field

     IMPORTANT: XC functional enforced from input :
     Exchange-correlation      = BEEF-VDW ( 1  4 27 13 2)
     Any further DFT definition will be discarded
     Please, verify this is what you really want

     Subspace diagonalization in iterative solution of the eigenvalue problem:
     a serial algorithm will be used

     bravais-lattice index     =            0
     lattice parameter (alat)  =       1.8897  a.u.
     unit-cell volume          =    4764.9208 (a.u.)^3
     number of atoms/cell      =           12
     number of atomic types    =            2
     number of electrons       =       177.00
     number of Kohn-Sham states=          118
     kinetic-energy cutoff     =      36.7493  Ry
     charge density cutoff     =     367.4932  Ry
     convergence threshold     =      1.0E-06
     mixing beta               =       0.1000
     number of iterations used =           10  plain     mixing
     Exchange-correlation      = BEEF-VDW ( 1  4 27 13 2)
     nstep                     =           50

     celldm(1)=   1.889726  celldm(2)=   0.000000  celldm(3)=   0.000000
     celldm(4)=   0.000000  celldm(5)=   0.000000  celldm(6)=   0.000000

     crystal axes: (cart. coord. in units of alat)
               a(1) = (   5.746291   0.000000   0.000000 )
               a(2) = (  -2.873145   4.976434   0.000000 )
               a(3) = (   0.000000   0.000000  24.691827 )

     reciprocal axes: (cart. coord. in units 2 pi/alat)
               b(1) = (  0.174025  0.100474  0.000000 )
               b(2) = (  0.000000  0.200947  0.000000 )
               b(3) = (  0.000000  0.000000  0.040499 )

     PseudoPot. # 1 for Ir read from file:
     /afs/slac.stanford.edu/u/if/mamunm/psp/gbrv1.5pbe/Ir.UPF
     MD5 check sum: 8836f839c3459d2b385c504ce6d91f2c
     Pseudo is Ultrasoft + core correction, Zval = 15.0
     Generated by new atomic code, or converted to UPF format
     Using radial grid of  983 points,  7 beta functions with:
                l(1) =   0
                l(2) =   0
                l(3) =   1
                l(4) =   1
                l(5) =   1
                l(6) =   2
                l(7) =   2
     Q(r) pseudized with  8 coefficients,  rinner =    1.400   1.400   1.400
                                                       1.400   1.400

     PseudoPot. # 2 for Pb read from file:
     /afs/slac.stanford.edu/u/if/mamunm/psp/gbrv1.5pbe/Pb.UPF
     MD5 check sum: 3d1c1779aa92214d1e8f3a7db79003e2
     Pseudo is Ultrasoft + core correction, Zval = 14.0
     Generated by new atomic code, or converted to UPF format
     Using radial grid of  899 points,  6 beta functions with:
                l(1) =   0
                l(2) =   0
                l(3) =   1
                l(4) =   1
                l(5) =   2
                l(6) =   2
     Q(r) pseudized with  6 coefficients,  rinner =    1.000   1.000   1.000
                                                       1.000   1.000

     vdW kernel table read from file vdW_kernel_table
     MD5 check sum: 095c7af220d748ca6e76c0b4c6cfb241

     atomic species   valence    mass     pseudopotential
        Ir1           15.00   192.21700     Ir( 1.00)
        Pb1           14.00   207.20000     Pb( 1.00)

     No symmetry found

   Cartesian axes

     site n.     atom                  positions (alat units)
         1           Ir1 tau(   1) = (   0.0000000   0.0000000  10.0000000  )
         2           Ir1 tau(   2) = (  -1.4365727   2.4882170  10.0000000  )
         3           Ir1 tau(   3) = (   1.4365727   2.4882170  10.0000000  )
         4           Pb1 tau(   4) = (   2.8731455   0.0000000  10.0000000  )
         5           Ir1 tau(   5) = (   2.8731455   1.6588113  12.3459135  )
         6           Ir1 tau(   6) = (   1.4365727   4.1470283  12.3459135  )
         7           Ir1 tau(   7) = (  -1.4365727   4.1470283  12.3459135  )
         8           Pb1 tau(   8) = (   0.0000000   1.6588113  12.3459135  )
         9           Ir1 tau(   9) = (  -0.0000000   3.3176226  14.6918269  )
        10           Ir1 tau(  10) = (   1.4365727   0.8294057  14.6918269  )
        11           Ir1 tau(  11) = (   4.3097182   0.8294057  14.6918269  )
        12           Pb1 tau(  12) = (   2.8731455   3.3176226  14.6918269  )

     number of k points=    20  Fermi-Dirac smearing, width (Ry)=  0.0110
                       cart. coord. in units 2pi/alat
        k(    1) = (   0.0000000   0.0000000   0.0000000), wk =   0.0555556
        k(    2) = (   0.0000000   0.0334912   0.0000000), wk =   0.1111111
        k(    3) = (   0.0000000   0.0669824   0.0000000), wk =   0.1111111
        k(    4) = (   0.0000000  -0.1004736   0.0000000), wk =   0.0555556
        k(    5) = (   0.0290042   0.0167456   0.0000000), wk =   0.1111111
        k(    6) = (   0.0290042   0.0502368   0.0000000), wk =   0.1111111
        k(    7) = (   0.0290042   0.0837280   0.0000000), wk =   0.1111111
        k(    8) = (   0.0290042  -0.0837280   0.0000000), wk =   0.1111111
        k(    9) = (   0.0290042  -0.0502368   0.0000000), wk =   0.1111111
        k(   10) = (   0.0290042  -0.0167456   0.0000000), wk =   0.1111111
        k(   11) = (   0.0580084   0.0334912   0.0000000), wk =   0.1111111
        k(   12) = (   0.0580084   0.0669824   0.0000000), wk =   0.1111111
        k(   13) = (   0.0580084   0.1004736   0.0000000), wk =   0.1111111
        k(   14) = (   0.0580084  -0.0669824   0.0000000), wk =   0.1111111
        k(   15) = (   0.0580084  -0.0334912   0.0000000), wk =   0.1111111
        k(   16) = (   0.0580084   0.0000000   0.0000000), wk =   0.1111111
        k(   17) = (  -0.0870126  -0.0502368   0.0000000), wk =   0.0555556
        k(   18) = (  -0.0870126  -0.0167456   0.0000000), wk =   0.1111111
        k(   19) = (  -0.0870126   0.0167456   0.0000000), wk =   0.1111111
        k(   20) = (  -0.0870126  -0.1507103   0.0000000), wk =   0.0555556

     Largest allocated arrays     est. size (Mb)     dimensions
     Largest temporary arrays     est. size (Mb)     dimensions

     Initial potential from superposition of free atoms
     Check: negative starting charge=   -3.326760

     starting charge  172.49266, renormalised to  177.00000

     negative rho (up, down):  3.414E+00 0.000E+00

     *
     * You are using vdW-DF for exchange-correlation in this calculation.
     * Please cite the following three references that made this development
     * possible:
     *
     *   M. Dion, H. Rydberg, E. Schroder, D. C. Langreth, and
     *   B. I. Lundqvist, Phys. Rev. Lett. 92, 246401 (2004).
     *
     *   T. Thonhauser, V. R. Cooper, S. Li, A. Puzder, P. Hyldgaard, and
     *   D. C. Langreth, Phys. Rev. B 76, 125112 (2007).
     *
     *   G. Roman-Perez and J. M. Soler, Phys. Rev. Lett. 103, 096102 (2009).
     *
     *
     * If you are using vdW-DF2, please also cite:
     *
     *   K. Lee, E. D. Murray, L. Kong, B. I. Lundqvist, and
     *   D. C. Langreth, Phys. Rev. B 82, 081101(R) (2010).
     *
     *
     * If you are calculating the stress with vdW-DF, please also cite:
     *
     *   R. Sabatini, E. Kucukbenli, B. Kolb, T. Thonhauser, and
     *   S. de Gironcoli, J. Phys.: Condens. Matter 24, 424209 (2012).
     *

     Carrying out vdW-DF run using the following parameters:

     Nqs =      20    Nr_points =    1024   r_max =   100.000
     q_mesh =
               0.00001000     0.04494208     0.09755937     0.15916263
               0.23128650     0.31572767     0.41458969     0.53033537
               0.66584808     0.82450364     1.01025438     1.22772762
               1.48234092     1.78043706     2.12944203     2.53805004
               3.01644009     3.57652955     4.23227104     5.00000000

     Gradients computed in reciprocal space

     Adding external electric field

     Computed dipole along edir(3) :
        Dipole                0.0000 Ry au,          0.0000 Debye
        Dipole field          0.0000 Ry au

        Potential amp.       -0.0000 Ry
        Total length         45.4943 bohr

     Starting wfc are  135 randomized atomic wfcs

     Self-consistent Calculation

     iteration #  1     ecut=    36.75 Ry     beta=0.10
     Davidson diagonalization with overlap
     ethr =  1.00E-02,  avg # of iterations =  7.7

[...]

     total energy              =   -2148.20871975 Ry
     Harris-Foulkes estimate   =   -2149.21931001 Ry
     estimated scf accuracy    <       6.81050378 Ry

[...]

     End of self-consistent calculation

          k = 0.0000 0.0000 0.0000 ( 17983 PWs)   bands (ev):

   -46.9887 -46.9234 -46.9234 -46.8966 -46.8820 -46.8820 -46.7745 -46.6679
   -46.6659 -46.6659 -46.6589 -46.5124 -46.5124 -46.5006 -46.5005 -46.4242
   -46.4017 -46.3982 -46.3982 -46.3868 -46.3867 -46.3496 -46.3496 -46.3468
   -46.3468 -46.3459 -46.3429 -15.1957 -15.1957 -15.1718 -15.1375 -15.1375
   -14.8280 -14.8086 -14.7880 -14.7880 -14.7747 -14.7747 -14.7532 -14.7532
   -14.7465 -14.7465  -9.0337  -7.5114  -7.2787  -3.6979  -3.3873  -3.2236
    -2.5861  -2.5861  -2.1233  -2.0671  -2.0671  -1.9745  -1.9745  -1.8481
    -1.8481  -1.6721  -1.1009  -1.1009  -0.7369  -0.6284  -0.6284  -0.6056
    -0.1618  -0.0520  -0.0520   0.2136   0.2136   0.3028   0.9395   0.9395
     1.0206   1.0956   1.1825   1.1825   1.3279   1.3279   1.3492   1.4579
     1.4579   1.7693   1.7693   1.8131   1.8131   2.0386   2.0386   2.2760
     2.5041   2.6132   2.6436   2.6436   3.1280   3.1349   3.4926   3.5099
     3.5104   3.5105   3.5450   3.8371   3.8372   4.3347   5.5350   6.2873
     6.4408   6.8361   7.1756   7.1756   7.3497   7.3497   7.7005   7.9422
     7.9422   8.2598   8.9062   8.9359  10.0376  10.1646

[...]

          k =-0.0870-0.0502 0.0000 ( 17892 PWs)   bands (ev):

[...]

     the Fermi energy is     2.1240 ev

!    total energy              =   -2147.54497301 Ry
     Harris-Foulkes estimate   =   -2147.54496806 Ry
     estimated scf accuracy    <       0.00000074 Ry

     The total energy is the sum of the following terms:

     one-electron contribution =  -15945.55545311 Ry
     hartree contribution      =    8016.59173317 Ry
     xc contribution           =    -664.09639266 Ry
     ewald contribution        =    6445.59983932 Ry
     electric field correction =       0.00000000 Ry
     smearing contrib. (-TS)   =      -0.08469972 Ry

     convergence has been achieved in  16 iterations

 BEEF-vdW xc energy contributions
           1 :   -589.029290848850
           2 :    547.767939645869
           3 :   -474.273210817901
           4 :    383.445564170809
           5 :   -291.405399279699
           6 :    211.103562273083
           7 :   -149.531238080889
           8 :    107.191823773968
           9 :   -79.6975793448547
          10 :    60.6065752152119
          11 :   -44.2795724874215
          12 :    27.7054280985186
          13 :   -10.8297553060704
[...]
     /afs/slac.stanford.edu/u/if/mamunm/psp/gbrv1.5pbe/Ir.UPF
     MD5 check sum: 8836f839c3459d2b385c504ce6d91f2c
     Pseudo is Ultrasoft + core correction, Zval = 15.0
     Generated by new atomic code, or converted to UPF format
     Using radial grid of  983 points,  7 beta functions with:
                l(1) =   0
                l(2) =   0
                l(3) =   1
                l(4) =   1
                l(5) =   1
                l(6) =   2
                l(7) =   2
     Q(r) pseudized with  8 coefficients,  rinner =    1.400   1.400   1.400
                                                       1.400   1.400

     PseudoPot. # 2 for Pb read from file:
     /afs/slac.stanford.edu/u/if/mamunm/psp/gbrv1.5pbe/Pb.UPF
     MD5 check sum: 3d1c1779aa92214d1e8f3a7db79003e2
     Pseudo is Ultrasoft + core correction, Zval = 14.0
     Generated by new atomic code, or converted to UPF format
     Using radial grid of  899 points,  6 beta functions with:
                l(1) =   0
                l(2) =   0
                l(3) =   1
                l(4) =   1
                l(5) =   2
                l(6) =   2
     Q(r) pseudized with  6 coefficients,  rinner =    1.000   1.000   1.000
                                                       1.000   1.000

     vdW kernel table read from file vdW_kernel_table
     MD5 check sum: 095c7af220d748ca6e76c0b4c6cfb241

     atomic species   valence    mass     pseudopotential
        Ir1           15.00   192.21700     Ir( 1.00)
        Pb1           14.00   207.20000     Pb( 1.00)

     No symmetry found

   Cartesian axes

     site n.     atom                  positions (alat units)
         1           Ir1 tau(   1) = (   0.0000000   0.0000000  10.0000000  )
         2           Ir1 tau(   2) = (  -1.4365727   2.4882170  10.0000000  )
         3           Ir1 tau(   3) = (   1.4365727   2.4882170  10.0000000  )
         4           Pb1 tau(   4) = (   2.8731455   0.0000000  10.0000000  )
         5           Ir1 tau(   5) = (   2.8731455   1.6588113  12.3459135  )
         6           Ir1 tau(   6) = (   1.4365727   4.1470283  12.3459135  )
         7           Ir1 tau(   7) = (  -1.4365727   4.1470283  12.3459135  )
         8           Pb1 tau(   8) = (   0.0000000   1.6588113  12.3459135  )
         9           Ir1 tau(   9) = (   0.0000127   3.3781958  14.5124766  )
        10           Ir1 tau(  10) = (   1.4890342   0.7991249  14.5124793  )
        11           Ir1 tau(  11) = (   4.2572619   0.7991163  14.5124693  )
        12           Pb1 tau(  12) = (   2.8731684   3.3176345  15.1287005  )

     number of k points=    20  Fermi-Dirac smearing, width (Ry)=  0.0110
                       cart. coord. in units 2pi/alat
        k(    1) = (   0.0000000   0.0000000   0.0000000), wk =   0.0555556
        k(    2) = (   0.0000000   0.0334912   0.0000000), wk =   0.1111111
        k(    3) = (   0.0000000   0.0669824   0.0000000), wk =   0.1111111
        k(    4) = (   0.0000000  -0.1004736   0.0000000), wk =   0.0555556
        k(    5) = (   0.0290042   0.0167456   0.0000000), wk =   0.1111111
        k(    6) = (   0.0290042   0.0502368   0.0000000), wk =   0.1111111
        k(    7) = (   0.0290042   0.0837280   0.0000000), wk =   0.1111111
        k(    8) = (   0.0290042  -0.0837280   0.0000000), wk =   0.1111111
        k(    9) = (   0.0290042  -0.0502368   0.0000000), wk =   0.1111111
        k(   10) = (   0.0290042  -0.0167456   0.0000000), wk =   0.1111111
        k(   11) = (   0.0580084   0.0334912   0.0000000), wk =   0.1111111
        k(   12) = (   0.0580084   0.0669824   0.0000000), wk =   0.1111111
        k(   13) = (   0.0580084   0.1004736   0.0000000), wk =   0.1111111
        k(   14) = (   0.0580084  -0.0669824   0.0000000), wk =   0.1111111
        k(   15) = (   0.0580084  -0.0334912   0.0000000), wk =   0.1111111
        k(   16) = (   0.0580084   0.0000000   0.0000000), wk =   0.1111111
        k(   17) = (  -0.0870126  -0.0502368   0.0000000), wk =   0.0555556
        k(   18) = (  -0.0870126  -0.0167456   0.0000000), wk =   0.1111111
        k(   19) = (  -0.0870126   0.0167456   0.0000000), wk =   0.1111111
        k(   20) = (  -0.0870126  -0.1507103   0.0000000), wk =   0.0555556

     Largest allocated arrays     est. size (Mb)     dimensions
     Largest temporary arrays     est. size (Mb)     dimensions

     Initial potential from superposition of free atoms
     Check: negative starting charge=   -3.323988

     starting charge  172.49266, renormalised to  177.00000

[...]

     *
     * You are using vdW-DF for exchange-correlation in this calculation.
     * Please cite the following three references that made this development
     * possible:
     *
     *   M. Dion, H. Rydberg, E. Schroder, D. C. Langreth, and
     *   B. I. Lundqvist, Phys. Rev. Lett. 92, 246401 (2004).
     *
     *   T. Thonhauser, V. R. Cooper, S. Li, A. Puzder, P. Hyldgaard, and
     *   D. C. Langreth, Phys. Rev. B 76, 125112 (2007).
     *
     *   G. Roman-Perez and J. M. Soler, Phys. Rev. Lett. 103, 096102 (2009).
     *
     *
     * If you are using vdW-DF2, please also cite:
     *
     *   K. Lee, E. D. Murray, L. Kong, B. I. Lundqvist, and
     *   D. C. Langreth, Phys. Rev. B 82, 081101(R) (2010).
     *
     *
     * If you are calculating the stress with vdW-DF, please also cite:
     *
     *   R. Sabatini, E. Kucukbenli, B. Kolb, T. Thonhauser, and
     *   S. de Gironcoli, J. Phys.: Condens. Matter 24, 424209 (2012).
     *

     Carrying out vdW-DF run using the following parameters:

     Nqs =      20    Nr_points =    1024   r_max =   100.000
     q_mesh =
               0.00001000     0.04494208     0.09755937     0.15916263
               0.23128650     0.31572767     0.41458969     0.53033537
               0.66584808     0.82450364     1.01025438     1.22772762
               1.48234092     1.78043706     2.12944203     2.53805004
               3.01644009     3.57652955     4.23227104     5.00000000

     Gradients computed in reciprocal space

[...]

     Starting wfc are  135 randomized atomic wfcs

     Self-consistent Calculation

[...]

     total energy              =   -2147.60807208 Ry
     Harris-Foulkes estimate   =   -2147.60805577 Ry
     estimated scf accuracy    <       0.00002971 Ry

     iteration # 17     ecut=    36.75 Ry     beta=0.10
     Davidson diagonalization with overlap
     ethr =  9.11E-09,  avg # of iterations =  3.5

[...]

     negative rho (up, down):  3.027E+00 0.000E+00

     Adding external electric field

     Computed dipole along edir(3) :
        Dipole                0.1468 Ry au,          0.3731 Debye
        Dipole field          0.0004 Ry au

        Potential amp.       -0.0352 Ry
        Total length         45.4943 bohr

     End of self-consistent calculation

[...]

          k = 0.0580 0.0000 0.0000 ( 17931 PWs)   bands (ev):

[...]

          k =-0.0870-0.1507 0.0000 ( 17892 PWs)   bands (ev):

   -46.8528 -46.8114 -46.7828 -46.7572 -46.7146 -46.6806 -46.6436 -46.5870
   -46.5561 -46.4992 -46.4448 -46.3984 -46.3743 -46.3660 -46.3576 -46.3529
   -46.3479 -46.3381 -46.2899 -46.2754 -46.2187 -46.2080 -46.1843 -46.1753
   -46.1652 -46.1583 -46.1200 -15.0165 -14.9948 -14.9757 -14.9539 -14.9527
   -14.7579 -14.7152 -14.7093 -14.6599 -14.6469 -14.5918 -14.5491 -14.5479
   -14.5303 -14.5122  -7.8505  -6.9736  -6.4485  -4.3468  -3.4700  -3.3861
    -3.0528  -2.5727  -1.9256  -1.8450  -1.8294  -1.7519  -1.6521  -1.6421
    -1.5355  -1.2970  -1.1497  -1.0406  -1.0187  -0.8210  -0.6926  -0.6801
    -0.3177  -0.2578  -0.1811  -0.1330   0.0797   0.1626   0.2879   0.3482
     0.3629   0.4815   0.5785   0.9112   1.0501   1.0744   1.1235   1.2165
     1.2867   1.4661   1.4752   1.4978   1.6039   1.7185   1.7713   1.9136
     2.2382   2.4517   2.5306   2.7250   2.8700   3.3962   3.6782   3.8696
     4.4526   4.6106   4.6511   5.3665   5.6532   6.6506   6.9572   7.1738
     7.4908   7.6766   7.8128   8.0321   8.0694   8.2050   8.2575   8.4899
     8.5822   8.7692   9.1500   9.2225   9.4798   9.6929

     the Fermi energy is     2.3345 ev

!    total energy              =   -2147.60809011 Ry
     Harris-Foulkes estimate   =   -2147.60807188 Ry
     estimated scf accuracy    <       0.00000074 Ry

     The total energy is the sum of the following terms:

     one-electron contribution =  -16003.72376872 Ry
     hartree contribution      =    8046.50211077 Ry
     xc contribution           =    -664.15488019 Ry
     ewald contribution        =    6473.84803068 Ry
     electric field correction =       0.00005684 Ry
     smearing contrib. (-TS)   =      -0.07963950 Ry

     convergence has been achieved in  17 iterations

 BEEF-vdW xc energy contributions
           1 :   -589.488908843255
           2 :    548.253859401624
           3 :   -474.792101933638
           4 :    383.974896335196
           5 :   -291.896996584139
           6 :    211.500519645872
           7 :   -149.793606812546
           8 :    107.320928042325
           9 :   -79.7468794184338
          10 :    60.6706258794547
          11 :   -44.4610739329241
          12 :    28.0708947062822
          13 :   -11.3739261278004
          14 :   -3.76881879026587
          15 :    15.0426820342075
          16 :   -21.0508740555647
          17 :    21.9847955208955
          18 :   -19.4530833333706
          19 :    15.7034565274340
          20 :   -12.6913182911052
          21 :    11.4246128806626
          22 :   -11.8127875325970
          23 :    12.9860258312101
          24 :   -13.8643476548142
          25 :    13.6917924376592
          26 :   -12.3206302735337
          27 :    10.1738643295405
          28 :   -7.96534981827858
          29 :    6.34359186232405
          30 :   -5.62838876882654
          31 :   -49.4220335766689
          32 :   -36.8248076362621

     Forces acting on atoms (Ry/au):

     negative rho (up, down):  3.027E+00 0.000E+00
     atom    1 type  1   force =    -0.00000074   -0.01717360    0.04388307
     atom    2 type  1   force =    -0.01486977    0.00858651    0.04388463
     atom    3 type  1   force =     0.01487008    0.00858602    0.04388440
     atom    4 type  2   force =    -0.00000601    0.00000450   -0.06098104
     atom    5 type  1   force =     0.00000014    0.02676673   -0.01064881
     atom    6 type  1   force =     0.02318302   -0.01338474   -0.01065283
     atom    7 type  1   force =    -0.02318040   -0.01338424   -0.01064965
     atom    8 type  2   force =    -0.00000080    0.00000166   -0.03833683
     atom    9 type  1   force =     0.00000212    0.00005146   -0.00021847
     atom   10 type  1   force =     0.00004678   -0.00002493   -0.00021870
     atom   11 type  1   force =    -0.00004512   -0.00002590   -0.00021615
     atom   12 type  2   force =     0.00000070   -0.00000347    0.00027039

     Total force =     0.119752     Total SCF correction =     0.004156

     entering subroutine stress ...

     negative rho (up, down):  3.027E+00 0.000E+00
          total   stress  (Ry/bohr**3)                   (kbar)     P=  -22.23
  -0.00017835   0.00000000  -0.00000000        -26.24      0.00     -0.00
   0.00000000  -0.00017835  -0.00000000          0.00    -26.24     -0.00
  -0.00000000  -0.00000000  -0.00009666         -0.00     -0.00    -14.22

 !ASE

     Writing output data file calc.save

     General routines

     Parallel routines

   This run was terminated on:  17:41:24  26Dec2018

   JOB DONE.
Job  /afs/slac/g/suncat/bin/suncat-tsmpirun -x LD_LIBRARY_PATH -wdir /scratch/qe109952_ItxHJ pw.x -in pw.inp

TID   HOST_NAME   COMMAND_LINE            STATUS            TERMINATION_TIME
00000 suncat0138 pw.x -in pw.inp   Done                     12/26/2018 17:41:24
00001 suncat0138 pw.x -in pw.inp   Done                     12/26/2018 17:41:24
00002 suncat0138 pw.x -in pw.inp   Done                     12/26/2018 17:41:24
00003 suncat0138 pw.x -in pw.inp   Done                     12/26/2018 17:41:24
00004 suncat0138 pw.x -in pw.inp   Done                     12/26/2018 17:41:24
00005 suncat0138 pw.x -in pw.inp   Done                     12/26/2018 17:41:24
00006 suncat0138 pw.x -in pw.inp   Done                     12/26/2018 17:41:24
00007 suncat0138 pw.x -in pw.inp   Done                     12/26/2018 17:41:24
00008 suncat0113 pw.x -in pw.inp   Done                     12/26/2018 17:41:24
00009 suncat0113 pw.x -in pw.inp   Done                     12/26/2018 17:41:24
00010 suncat0113 pw.x -in pw.inp   Done                     12/26/2018 17:41:24
00011 suncat0113 pw.x -in pw.inp   Done                     12/26/2018 17:41:24
00012 suncat0113 pw.x -in pw.inp   Done                     12/26/2018 17:41:24
00013 suncat0113 pw.x -in pw.inp   Done                     12/26/2018 17:41:24
00014 suncat0113 pw.x -in pw.inp   Done                     12/26/2018 17:41:24
00015 suncat0113 pw.x -in pw.inp   Done                     12/26/2018 17:41:24
00016 suncat0110 pw.x -in pw.inp   Done                     12/26/2018 17:41:24
00017 suncat0110 pw.x -in pw.inp   Done                     12/26/2018 17:41:24
00018 suncat0110 pw.x -in pw.inp   Done                     12/26/2018 17:41:24
00019 suncat0110 pw.x -in pw.inp   Done                     12/26/2018 17:41:24
00020 suncat0110 pw.x -in pw.inp   Done                     12/26/2018 17:41:24
00021 suncat0110 pw.x -in pw.inp   Done                     12/26/2018 17:41:24
00022 suncat0110 pw.x -in pw.inp   Done                     12/26/2018 17:41:24
00023 suncat0110 pw.x -in pw.inp   Done                     12/26/2018 17:41:24
00024 suncat0109 pw.x -in pw.inp   Done                     12/26/2018 17:41:24
00025 suncat0109 pw.x -in pw.inp   Done                     12/26/2018 17:41:24
00026 suncat0109 pw.x -in pw.inp   Done                     12/26/2018 17:41:24
00027 suncat0109 pw.x -in pw.inp   Done                     12/26/2018 17:41:24
00028 suncat0109 pw.x -in pw.inp   Done                     12/26/2018 17:41:24
00029 suncat0109 pw.x -in pw.inp   Done                     12/26/2018 17:41:24
00030 suncat0109 pw.x -in pw.inp   Done                     12/26/2018 17:41:24
00031 suncat0109 pw.x -in pw.inp   Done                     12/26/2018 17:41:24
00032 suncat0262 pw.x -in pw.inp   Done                     12/26/2018 17:41:24
00033 suncat0262 pw.x -in pw.inp   Done                     12/26/2018 17:41:24
00034 suncat0262 pw.x -in pw.inp   Done                     12/26/2018 17:41:24
00035 suncat0262 pw.x -in pw.inp   Done                     12/26/2018 17:41:24
00036 suncat0262 pw.x -in pw.inp   Done                     12/26/2018 17:41:24
00037 suncat0262 pw.x -in pw.inp   Done                     12/26/2018 17:41:24
00038 suncat0262 pw.x -in pw.inp   Done                     12/26/2018 17:41:24
00039 suncat0262 pw.x -in pw.inp   Done                     12/26/2018 17:41:24
00040 suncat0258 pw.x -in pw.inp   Done                     12/26/2018 17:41:24
00041 suncat0258 pw.x -in pw.inp   Done                     12/26/2018 17:41:24
00042 suncat0258 pw.x -in pw.inp   Done                     12/26/2018 17:41:24
00043 suncat0258 pw.x -in pw.inp   Done                     12/26/2018 17:41:24
00044 suncat0258 pw.x -in pw.inp   Done                     12/26/2018 17:41:24
00045 suncat0258 pw.x -in pw.inp   Done                     12/26/2018 17:41:24
00046 suncat0258 pw.x -in pw.inp   Done                     12/26/2018 17:41:24
00047 suncat0258 pw.x -in pw.inp   Done                     12/26/2018 17:41:24
00048 suncat0257 pw.x -in pw.inp   Done                     12/26/2018 17:41:24
00049 suncat0257 pw.x -in pw.inp   Done                     12/26/2018 17:41:24
00050 suncat0257 pw.x -in pw.inp   Done                     12/26/2018 17:41:24
00051 suncat0257 pw.x -in pw.inp   Done                     12/26/2018 17:41:24
00052 suncat0257 pw.x -in pw.inp   Done                     12/26/2018 17:41:24
00053 suncat0257 pw.x -in pw.inp   Done                     12/26/2018 17:41:24
00054 suncat0257 pw.x -in pw.inp   Done                     12/26/2018 17:41:24
00055 suncat0257 pw.x -in pw.inp   Done                     12/26/2018 17:41:24
00056 suncat0251 pw.x -in pw.inp   Done                     12/26/2018 17:41:24
00057 suncat0251 pw.x -in pw.inp   Done                     12/26/2018 17:41:24
00058 suncat0251 pw.x -in pw.inp   Done                     12/26/2018 17:41:24
00059 suncat0251 pw.x -in pw.inp   Done                     12/26/2018 17:41:24
00060 suncat0251 pw.x -in pw.inp   Done                     12/26/2018 17:41:24
00061 suncat0251 pw.x -in pw.inp   Done                     12/26/2018 17:41:24
00062 suncat0251 pw.x -in pw.inp   Done                     12/26/2018 17:41:24
00063 suncat0251 pw.x -in pw.inp   Done                     12/26/2018 17:41:24