     Program PWSCF v.5.1rc2 (svn rev. 11289) starts on 18Dec2018 at 19:32:13

     Current dimensions of program PWSCF are:
     Max number of different atomic species (ntypx) = 10
     Max number of k-points (npk) =  40000
     Max angular momentum in pseudopotentials (lmaxx) =  3
     Presently stress not available with electric field

     IMPORTANT: XC functional enforced from input :
     Exchange-correlation      = BEEF-VDW ( 1  4 27 13 2)
     Any further DFT definition will be discarded
     Please, verify this is what you really want

     Subspace diagonalization in iterative solution of the eigenvalue problem:
     a serial algorithm will be used

     Found symmetry operation: I + (  0.5000 -0.5000  0.0000)
     This is a supercell, fractional translations are disabled

     bravais-lattice index     =            0
     lattice parameter (alat)  =       1.8897  a.u.
     unit-cell volume          =    6747.9779 (a.u.)^3
     number of atoms/cell      =           12
     number of atomic types    =            2
     number of electrons       =       138.00
     number of Kohn-Sham states=           99
     kinetic-energy cutoff     =      36.7493  Ry
     charge density cutoff     =     367.4932  Ry
     convergence threshold     =      1.0E-06
     mixing beta               =       0.1000
     number of iterations used =           10  plain     mixing
     Exchange-correlation      = BEEF-VDW ( 1  4 27 13 2)
     nstep                     =           50

     celldm(1)=   1.889726  celldm(2)=   0.000000  celldm(3)=   0.000000
     celldm(4)=   0.000000  celldm(5)=   0.000000  celldm(6)=   0.000000

     crystal axes: (cart. coord. in units of alat)
               a(1) = (   6.499115   0.000000   0.000000 )
               a(2) = (   2.321753   6.070252   0.000000 )
               a(3) = (   0.000000   0.000000  25.346388 )

     reciprocal axes: (cart. coord. in units 2 pi/alat)
               b(1) = (  0.153867 -0.058851  0.000000 )
               b(2) = (  0.000000  0.164738  0.000000 )
               b(3) = (  0.000000  0.000000  0.039453 )

     PseudoPot. # 1 for Cd read from file:
     /afs/slac.stanford.edu/u/if/mamunm/psp/gbrv1.5pbe/Cd.UPF
     MD5 check sum: 17164a7926edb8e0dc231208abae86a6
     Pseudo is Ultrasoft + core correction, Zval = 12.0
     Generated by new atomic code, or converted to UPF format
     Using radial grid of  889 points,  6 beta functions with:
                l(1) =   0
                l(2) =   0
                l(3) =   1
                l(4) =   1
                l(5) =   2
                l(6) =   2
     Q(r) pseudized with  6 coefficients,  rinner =    1.000   1.000   1.000
                                                       1.000   1.000

     PseudoPot. # 2 for Y  read from file:
     /afs/slac.stanford.edu/u/if/mamunm/psp/gbrv1.5pbe/Y.UPF
     MD5 check sum: d034151ed7554c50b6e82763ed42c788
     Pseudo is Ultrasoft + core correction, Zval = 11.0
     Generated by new atomic code, or converted to UPF format
     Using radial grid of  885 points,  6 beta functions with:
                l(1) =   0
                l(2) =   0
                l(3) =   1
                l(4) =   1
                l(5) =   2
                l(6) =   2
     Q(r) pseudized with  8 coefficients,  rinner =    1.200   1.200   1.200
                                                       1.200   1.200

     vdW kernel table read from file vdW_kernel_table
     MD5 check sum: 095c7af220d748ca6e76c0b4c6cfb241

     atomic species   valence    mass     pseudopotential
        Cd1           12.00   112.41400     Cd( 1.00)
        Y1            11.00    88.90584     Y ( 1.00)

     No symmetry found

   Cartesian axes

     site n.     atom                  positions (alat units)
         1           Cd1 tau(   1) = (   0.0000000   0.0000000  10.0000000  )
         2           Cd1 tau(   2) = (   4.4104339   3.0351261  10.0000000  )
         3           Y1  tau(   3) = (   3.2495576   0.0000000  10.0000000  )
         4           Y1  tau(   4) = (   1.1608764   3.0351261  10.0000000  )
         5           Cd1 tau(   5) = (   6.4991151   4.4724928  12.6731942  )
         6           Cd1 tau(   6) = (   2.0886812   1.4373667  12.6731942  )
         7           Y1  tau(   7) = (   3.2495576   4.4724928  12.6731942  )
         8           Y1  tau(   8) = (   5.3382388   1.4373667  12.6731942  )
         9           Cd1 tau(   9) = (   4.1773624   2.8747334  15.3463885  )
        10           Cd1 tau(  10) = (   8.5877963   5.9098595  15.3463885  )
        11           Y1  tau(  11) = (   7.4269200   2.8747334  15.3463885  )
        12           Y1  tau(  12) = (   5.3382388   5.9098595  15.3463885  )

     number of k points=    20  Fermi-Dirac smearing, width (Ry)=  0.0110
                       cart. coord. in units 2pi/alat
        k(    1) = (   0.0000000   0.0000000   0.0000000), wk =   0.0555556
        k(    2) = (   0.0000000   0.0274563   0.0000000), wk =   0.1111111
        k(    3) = (   0.0000000   0.0549126   0.0000000), wk =   0.1111111
        k(    4) = (   0.0000000  -0.0823689   0.0000000), wk =   0.0555556
        k(    5) = (   0.0256445  -0.0098085   0.0000000), wk =   0.1111111
        k(    6) = (   0.0256445   0.0176478   0.0000000), wk =   0.1111111
        k(    7) = (   0.0256445   0.0451041   0.0000000), wk =   0.1111111
        k(    8) = (   0.0256445  -0.0921774   0.0000000), wk =   0.1111111
        k(    9) = (   0.0256445  -0.0647211   0.0000000), wk =   0.1111111
        k(   10) = (   0.0256445  -0.0372648   0.0000000), wk =   0.1111111
        k(   11) = (   0.0512890  -0.0196171   0.0000000), wk =   0.1111111
        k(   12) = (   0.0512890   0.0078392   0.0000000), wk =   0.1111111
        k(   13) = (   0.0512890   0.0352955   0.0000000), wk =   0.1111111
        k(   14) = (   0.0512890  -0.1019860   0.0000000), wk =   0.1111111
        k(   15) = (   0.0512890  -0.0745297   0.0000000), wk =   0.1111111
        k(   16) = (   0.0512890  -0.0470734   0.0000000), wk =   0.1111111
        k(   17) = (  -0.0769336   0.0294256   0.0000000), wk =   0.0555556
        k(   18) = (  -0.0769336   0.0568819   0.0000000), wk =   0.1111111
        k(   19) = (  -0.0769336   0.0843382   0.0000000), wk =   0.1111111
        k(   20) = (  -0.0769336  -0.0529433   0.0000000), wk =   0.0555556

     Largest allocated arrays     est. size (Mb)     dimensions
     Largest temporary arrays     est. size (Mb)     dimensions

     Initial potential from superposition of free atoms
     Check: negative starting charge=   -0.127998

     starting charge  134.97294, renormalised to  138.00000

     negative rho (up, down):  1.309E-01 0.000E+00

     *
     * You are using vdW-DF for exchange-correlation in this calculation.
     * Please cite the following three references that made this development
     * possible:
     *
     *   M. Dion, H. Rydberg, E. Schroder, D. C. Langreth, and
     *   B. I. Lundqvist, Phys. Rev. Lett. 92, 246401 (2004).
     *
     *   T. Thonhauser, V. R. Cooper, S. Li, A. Puzder, P. Hyldgaard, and
     *   D. C. Langreth, Phys. Rev. B 76, 125112 (2007).
     *
     *   G. Roman-Perez and J. M. Soler, Phys. Rev. Lett. 103, 096102 (2009).
     *
     *
     * If you are using vdW-DF2, please also cite:
     *
     *   K. Lee, E. D. Murray, L. Kong, B. I. Lundqvist, and
     *   D. C. Langreth, Phys. Rev. B 82, 081101(R) (2010).
     *
     *
     * If you are calculating the stress with vdW-DF, please also cite:
     *
     *   R. Sabatini, E. Kucukbenli, B. Kolb, T. Thonhauser, and
     *   S. de Gironcoli, J. Phys.: Condens. Matter 24, 424209 (2012).
     *

     Carrying out vdW-DF run using the following parameters:

     Nqs =      20    Nr_points =    1024   r_max =   100.000
     q_mesh =
               0.00001000     0.04494208     0.09755937     0.15916263
               0.23128650     0.31572767     0.41458969     0.53033537
               0.66584808     0.82450364     1.01025438     1.22772762
               1.48234092     1.78043706     2.12944203     2.53805004
               3.01644009     3.57652955     4.23227104     5.00000000

     Gradients computed in reciprocal space

     Adding external electric field

     Computed dipole along edir(3) :
        Dipole               -0.0000 Ry au,         -0.0000 Debye
        Dipole field         -0.0000 Ry au

        Potential amp.        0.0000 Ry
        Total length         46.7003 bohr

     Starting wfc are  132 randomized atomic wfcs

     Self-consistent Calculation

     iteration #  1     ecut=    36.75 Ry     beta=0.10
     Davidson diagonalization with overlap
     ethr =  1.00E-02,  avg # of iterations =  2.0

     Threshold (ethr) on eigenvalues was too large:
     Diagonalizing with lowered threshold

     Davidson diagonalization with overlap
     ethr =  7.28E-04,  avg # of iterations =  2.4

[...]

     total energy              =   -1258.89342388 Ry
     Harris-Foulkes estimate   =   -1259.06075364 Ry
     estimated scf accuracy    <       1.06467888 Ry

[...]

     End of self-consistent calculation

          k = 0.0000 0.0000 0.0000 ( 25383 PWs)   bands (ev):

   -42.8973 -42.8971 -42.8828 -42.8828 -42.5622 -42.5474 -22.9071 -22.9017
   -22.8884 -22.8771 -22.8383 -22.8372 -22.8160 -22.8061 -22.7997 -22.7855
   -22.6232 -22.6230 -22.6090 -22.5138 -22.4829 -22.4805 -22.4571 -22.3839
    -8.0023  -7.9890  -7.9889  -7.9716  -7.9663  -7.9450  -7.9356  -7.8948
    -7.8827  -7.8800  -7.8576  -7.8539  -7.8510  -7.8482  -7.8480  -7.8418
    -7.8314  -7.8207  -7.8132  -7.7958  -7.7941  -7.7815  -7.7790  -7.7771
    -7.7323  -7.7170  -7.6328  -7.6322  -7.5915  -7.5607  -5.3703  -4.0967
    -2.8793  -2.5641  -2.2338  -2.2118  -0.3852  -0.2603  -0.1034   0.2963
     0.4440   0.4848   0.6992   0.7282   0.7732   0.8459   1.3177   1.3914
     1.4050   1.5461   1.5838   1.6587   1.6752   1.8856   2.2759   2.2855
     2.3536   2.9462   2.9490   2.9666   3.1841   3.1857   3.3009   3.4948
     3.5398   3.7367   3.8740   3.8928   3.9686   3.9722   3.9859   4.2068
     4.7108   4.7394   4.7467

[...]

          k =-0.0769 0.0294 0.0000 ( 25368 PWs)   bands (ev):

[...]

     the Fermi energy is     0.8530 ev

!    total energy              =   -1258.85770467 Ry
     Harris-Foulkes estimate   =   -1258.85772758 Ry
     estimated scf accuracy    <       0.00000100 Ry

     The total energy is the sum of the following terms:

     one-electron contribution =   -6809.53708283 Ry
     hartree contribution      =    3447.21352822 Ry
     xc contribution           =    -414.15087706 Ry
     ewald contribution        =    2517.69368993 Ry
     electric field correction =       0.00000000 Ry
     smearing contrib. (-TS)   =      -0.07696293 Ry

     convergence has been achieved in  15 iterations

 BEEF-vdW xc energy contributions
           1 :   -362.337959931870
           2 :    329.114394187419
           3 :   -272.398795168668
           4 :    207.146962375321
           5 :   -147.339366812058
           6 :    101.379781776667
           7 :   -70.9163046828976
           8 :    52.7750343408324
           9 :   -42.2551874055879
          10 :    35.8289852605677
[...]

[...]

     Program PWSCF v.5.1rc2 (svn rev. 11289) starts on 18Dec2018 at 20: 4: 3

[...]

   This run was terminated on:  21: 6: 0  18Dec2018

[...]

     Program PWSCF v.5.1rc2 (svn rev. 11289) starts on 18Dec2018 at 21: 6: 6

[...]

   This run was terminated on:  21:21: 8  18Dec2018

[...]

     Program PWSCF v.5.1rc2 (svn rev. 11289) starts on 18Dec2018 at 21:51:45

[...]

   This run was terminated on:  22: 8: 3  18Dec2018

[...]

     Program PWSCF v.5.1rc2 (svn rev. 11289) starts on 18Dec2018 at 22: 8:10

     Current dimensions of program PWSCF are:
     Max number of different atomic species (ntypx) = 10
     Max number of k-points (npk) =  40000
     Max angular momentum in pseudopotentials (lmaxx) =  3
     Presently stress not available with electric field

     IMPORTANT: XC functional enforced from input :
     Exchange-correlation      = BEEF-VDW ( 1  4 27 13 2)
     Any further DFT definition will be discarded
     Please, verify this is what you really want

     Subspace diagonalization in iterative solution of the eigenvalue problem:
     a serial algorithm will be used

     bravais-lattice index     =            0
     lattice parameter (alat)  =       1.8897  a.u.
     unit-cell volume          =    6747.9779 (a.u.)^3
     number of atoms/cell      =           12
     number of atomic types    =            2
     number of electrons       =       138.00
     number of Kohn-Sham states=           99
     kinetic-energy cutoff     =      36.7493  Ry
     charge density cutoff     =     367.4932  Ry
     convergence threshold     =      1.0E-06
     mixing beta               =       0.1000
     number of iterations used =           10  plain     mixing
     Exchange-correlation      = BEEF-VDW ( 1  4 27 13 2)
     nstep                     =           50

     celldm(1)=   1.889726  celldm(2)=   0.000000  celldm(3)=   0.000000
     celldm(4)=   0.000000  celldm(5)=   0.000000  celldm(6)=   0.000000

     crystal axes: (cart. coord. in units of alat)
               a(1) = (   6.499115   0.000000   0.000000 )
               a(2) = (   2.321753   6.070252   0.000000 )
               a(3) = (   0.000000   0.000000  25.346388 )

     reciprocal axes: (cart. coord. in units 2 pi/alat)
               b(1) = (  0.153867 -0.058851  0.000000 )
               b(2) = (  0.000000  0.164738  0.000000 )
               b(3) = (  0.000000  0.000000  0.039453 )

     PseudoPot. # 1 for Cd read from file:
     /afs/slac.stanford.edu/u/if/mamunm/psp/gbrv1.5pbe/Cd.UPF
     MD5 check sum: 17164a7926edb8e0dc231208abae86a6
     Pseudo is Ultrasoft + core correction, Zval = 12.0
     Generated by new atomic code, or converted to UPF format
     Using radial grid of  889 points,  6 beta functions with:
                l(1) =   0
                l(2) =   0
                l(3) =   1
                l(4) =   1
                l(5) =   2
                l(6) =   2
     Q(r) pseudized with  6 coefficients,  rinner =    1.000   1.000   1.000
                                                       1.000   1.000

     PseudoPot. # 2 for Y  read from file:
     /afs/slac.stanford.edu/u/if/mamunm/psp/gbrv1.5pbe/Y.UPF
     MD5 check sum: d034151ed7554c50b6e82763ed42c788
     Pseudo is Ultrasoft + core correction, Zval = 11.0
     Generated by new atomic code, or converted to UPF format
     Using radial grid of  885 points,  6 beta functions with:
                l(1) =   0
                l(2) =   0
                l(3) =   1
                l(4) =   1
                l(5) =   2
                l(6) =   2
     Q(r) pseudized with  8 coefficients,  rinner =    1.200   1.200   1.200
                                                       1.200   1.200

     vdW kernel table read from file vdW_kernel_table
     MD5 check sum: 095c7af220d748ca6e76c0b4c6cfb241

     atomic species   valence    mass     pseudopotential
        Cd1           12.00   112.41400     Cd( 1.00)
        Y1            11.00    88.90584     Y ( 1.00)

     No symmetry found

   Cartesian axes

     site n.     atom                  positions (alat units)
         1           Cd1 tau(   1) = (   0.0000000   0.0000000  10.0000000  )
         2           Cd1 tau(   2) = (   4.4104339   3.0351261  10.0000000  )
         3           Y1  tau(   3) = (   3.2495576   0.0000000  10.0000000  )
         4           Y1  tau(   4) = (   1.1608764   3.0351261  10.0000000  )
         5           Cd1 tau(   5) = (   6.4991151   4.4724928  12.6731942  )
         6           Cd1 tau(   6) = (   2.0886812   1.4373667  12.6731942  )
         7           Y1  tau(   7) = (   3.2495576   4.4724928  12.6731942  )
         8           Y1  tau(   8) = (   5.3382388   1.4373667  12.6731942  )
         9           Cd1 tau(   9) = (   4.2994729   2.9581318  15.3803524  )
        10           Cd1 tau(  10) = (   8.7090759   5.9939746  15.3804706  )
        11           Y1  tau(  11) = (   7.5419934   2.9545441  15.3132812  )
        12           Y1  tau(  12) = (   5.4532745   5.9884291  15.3132674  )

     number of k points=    20  Fermi-Dirac smearing, width (Ry)=  0.0110
                       cart. coord. in units 2pi/alat
        k(    1) = (   0.0000000   0.0000000   0.0000000), wk =   0.0555556
        k(    2) = (   0.0000000   0.0274563   0.0000000), wk =   0.1111111
        k(    3) = (   0.0000000   0.0549126   0.0000000), wk =   0.1111111
        k(    4) = (   0.0000000  -0.0823689   0.0000000), wk =   0.0555556
        k(    5) = (   0.0256445  -0.0098085   0.0000000), wk =   0.1111111
        k(    6) = (   0.0256445   0.0176478   0.0000000), wk =   0.1111111
        k(    7) = (   0.0256445   0.0451041   0.0000000), wk =   0.1111111
        k(    8) = (   0.0256445  -0.0921774   0.0000000), wk =   0.1111111
        k(    9) = (   0.0256445  -0.0647211   0.0000000), wk =   0.1111111
        k(   10) = (   0.0256445  -0.0372648   0.0000000), wk =   0.1111111
        k(   11) = (   0.0512890  -0.0196171   0.0000000), wk =   0.1111111
        k(   12) = (   0.0512890   0.0078392   0.0000000), wk =   0.1111111
        k(   13) = (   0.0512890   0.0352955   0.0000000), wk =   0.1111111
        k(   14) = (   0.0512890  -0.1019860   0.0000000), wk =   0.1111111
        k(   15) = (   0.0512890  -0.0745297   0.0000000), wk =   0.1111111
        k(   16) = (   0.0512890  -0.0470734   0.0000000), wk =   0.1111111
        k(   17) = (  -0.0769336   0.0294256   0.0000000), wk =   0.0555556
        k(   18) = (  -0.0769336   0.0568819   0.0000000), wk =   0.1111111
        k(   19) = (  -0.0769336   0.0843382   0.0000000), wk =   0.1111111
        k(   20) = (  -0.0769336  -0.0529433   0.0000000), wk =   0.0555556

     Largest allocated arrays     est. size (Mb)     dimensions
     Largest temporary arrays     est. size (Mb)     dimensions

     Initial potential from superposition of free atoms
     Check: negative starting charge=   -0.129864

     starting charge  134.97294, renormalised to  138.00000

[...]

     *
     * You are using vdW-DF for exchange-correlation in this calculation.
     * Please cite the following three references that made this development
     * possible:
     *
     *   M. Dion, H. Rydberg, E. Schroder, D. C. Langreth, and
     *   B. I. Lundqvist, Phys. Rev. Lett. 92, 246401 (2004).
     *
     *   T. Thonhauser, V. R. Cooper, S. Li, A. Puzder, P. Hyldgaard, and
     *   D. C. Langreth, Phys. Rev. B 76, 125112 (2007).
     *
     *   G. Roman-Perez and J. M. Soler, Phys. Rev. Lett. 103, 096102 (2009).
     *
     *
     * If you are using vdW-DF2, please also cite:
     *
     *   K. Lee, E. D. Murray, L. Kong, B. I. Lundqvist, and
     *   D. C. Langreth, Phys. Rev. B 82, 081101(R) (2010).
     *
     *
     * If you are calculating the stress with vdW-DF, please also cite:
     *
     *   R. Sabatini, E. Kucukbenli, B. Kolb, T. Thonhauser, and
     *   S. de Gironcoli, J. Phys.: Condens. Matter 24, 424209 (2012).
     *

     Carrying out vdW-DF run using the following parameters:

     Nqs =      20    Nr_points =    1024   r_max =   100.000
     q_mesh =
               0.00001000     0.04494208     0.09755937     0.15916263
               0.23128650     0.31572767     0.41458969     0.53033537
               0.66584808     0.82450364     1.01025438     1.22772762
               1.48234092     1.78043706     2.12944203     2.53805004
               3.01644009     3.57652955     4.23227104     5.00000000

     Gradients computed in reciprocal space

[...]

     Starting wfc are  132 randomized atomic wfcs

     Self-consistent Calculation

[...]

     Threshold (ethr) on eigenvalues was too large:
     Diagonalizing with lowered threshold

     Davidson diagonalization with overlap
     ethr =  6.95E-04,  avg # of iterations =  2.4

[...]

     total energy              =   -1258.85905497 Ry
     Harris-Foulkes estimate   =   -1258.85905977 Ry
     estimated scf accuracy    <       0.00000117 Ry

     iteration # 16     ecut=    36.75 Ry     beta=0.10
     Davidson diagonalization with overlap
     ethr =  8.47E-10,  avg # of iterations =  3.0

[...]

     negative rho (up, down):  1.354E-01 0.000E+00

     Adding external electric field

     Computed dipole along edir(3) :
        Dipole               -0.0174 Ry au,         -0.0442 Debye
        Dipole field         -0.0000 Ry au

        Potential amp.        0.0030 Ry
        Total length         46.7003 bohr

     End of self-consistent calculation

[...]

          k = 0.0513-0.0471 0.0000 ( 25350 PWs)   bands (ev):

[...]

          k =-0.0769-0.0529 0.0000 ( 25462 PWs)   bands (ev):

   -42.9104 -42.8963 -42.8862 -42.8721 -42.5856 -42.5707 -22.9231 -22.8965
   -22.8931 -22.8696 -22.8540 -22.8372 -22.8341 -22.8120 -22.8038 -22.7823
   -22.6369 -22.6328 -22.6163 -22.5248 -22.5084 -22.5081 -22.4828 -22.4082
    -7.9616  -7.9479  -7.9348  -7.9340  -7.9279  -7.9070  -7.9006  -7.8973
    -7.8912  -7.8649  -7.8623  -7.8367  -7.8339  -7.8324  -7.8170  -7.8166
    -7.8074  -7.7993  -7.7933  -7.7868  -7.7819  -7.7777  -7.7719  -7.7681
    -7.7540  -7.7255  -7.7060  -7.6476  -7.6351  -7.5726  -3.9295  -3.8527
    -2.9671  -2.7512  -2.1255  -2.0911  -1.8758  -1.0505  -0.6772  -0.6032
    -0.5256  -0.5200  -0.5136   0.2637   0.3449   0.6760   0.9383   0.9885
     1.3712   1.3762   1.7320   1.8013   1.9782   2.1637   2.1842   2.3984
     2.4534   2.5107   2.5750   2.6549   2.9370   2.9787   3.2505   3.6619
     3.8040   3.9457   4.0522   4.1108   4.1478   4.4272   4.6487   4.8119
     4.9050   4.9523   5.0948

     the Fermi energy is     0.8379 ev

!    total energy              =   -1258.85903774 Ry
     Harris-Foulkes estimate   =   -1258.85905516 Ry
     estimated scf accuracy    <       0.00000017 Ry

     The total energy is the sum of the following terms:

     one-electron contribution =   -6807.42847924 Ry
     hartree contribution      =    3446.07594993 Ry
     xc contribution           =    -414.15493555 Ry
     ewald contribution        =    2516.72525390 Ry
     electric field correction =       0.00000056 Ry
     smearing contrib. (-TS)   =      -0.07682735 Ry

     convergence has been achieved in  16 iterations

 BEEF-vdW xc energy contributions
           1 :   -362.341753532052
           2 :    329.118085058192
           3 :   -272.402117372699
           4 :    207.149693828531
           5 :   -147.342091933296
           6 :    101.383531211031
           7 :   -70.9208685302339
           8 :    52.7781894817495
           9 :   -42.2546783952753
          10 :    35.8252531210111
          11 :   -32.0986048994013
          12 :    31.0817370115244
          13 :   -32.7348769368679
          14 :    35.9935019129127
          15 :   -38.8708294421350
          16 :    39.3933701541650
          17 :   -36.6066028114449
          18 :    30.9890594866274
          19 :   -24.1153384846626
          20 :    17.8687939575735
          21 :   -13.6678622579968
          22 :    12.0424057031314
          23 :   -12.6485339662278
          24 :    14.5966236086084
          25 :   -16.8808097073069
          26 :    18.7278609278515
          27 :   -19.7694096186088
          28 :    20.0203852970071
          29 :   -19.7124974470382
          30 :    19.0839483912589
          31 :   -33.4029152763289
          32 :   -23.7309968415883

     Forces acting on atoms (Ry/au):

     negative rho (up, down):  1.354E-01 0.000E+00
     atom    1 type  1   force =     0.00003567    0.00001857   -0.00161982
     atom    2 type  1   force =     0.00003107    0.00002553   -0.00161420
     atom    3 type  2   force =    -0.00221630   -0.00152387    0.00330653
     atom    4 type  2   force =    -0.00221589   -0.00152468    0.00330858
     atom    5 type  1   force =    -0.00012969   -0.00007971   -0.00229601
     atom    6 type  1   force =    -0.00016325   -0.00012440   -0.00225157
     atom    7 type  2   force =     0.00196644    0.00138720    0.00152526
     atom    8 type  2   force =     0.00200218    0.00134602    0.00151015
     atom    9 type  1   force =    -0.00043765   -0.00028158   -0.00032395
     atom   10 type  1   force =    -0.00033159   -0.00024554   -0.00033939
     atom   11 type  2   force =     0.00077813    0.00041934   -0.00060455
     atom   12 type  2   force =     0.00068088    0.00058312   -0.00060102

     Total force =     0.008437     Total SCF correction =     0.001081
     SCF correction compared to forces is large: reduce conv_thr to get better values

     entering subroutine stress ...

     negative rho (up, down):  1.354E-01 0.000E+00
          total   stress  (Ry/bohr**3)                   (kbar)     P=   -4.07
  -0.00003622  -0.00000578   0.00000387         -5.33     -0.85      0.57
  -0.00000578  -0.00003180   0.00000266         -0.85     -4.68      0.39
   0.00000387   0.00000266  -0.00001497          0.57      0.39     -2.20

 !ASE

     Writing output data file calc.save

     General routines

     Parallel routines

   This run was terminated on:  22:24:14  18Dec2018

   JOB DONE.
Job  /afs/slac/g/suncat/bin/suncat-tsmpirun -x LD_LIBRARY_PATH -wdir /scratch/qe529662_APFZd pw.x -in pw.inp

TID   HOST_NAME   COMMAND_LINE            STATUS            TERMINATION_TIME
00000 suncat0276 pw.x -in pw.inp   Done                     12/18/2018 22:24:14
00001 suncat0276 pw.x -in pw.inp   Done                     12/18/2018 22:24:14
00002 suncat0276 pw.x -in pw.inp   Done                     12/18/2018 22:24:14
00003 suncat0276 pw.x -in pw.inp   Done                     12/18/2018 22:24:14
00004 suncat0276 pw.x -in pw.inp   Done                     12/18/2018 22:24:14
00005 suncat0276 pw.x -in pw.inp   Done                     12/18/2018 22:24:14
00006 suncat0276 pw.x -in pw.inp   Done                     12/18/2018 22:24:14
00007 suncat0276 pw.x -in pw.inp   Done                     12/18/2018 22:24:14
00008 suncat0274 pw.x -in pw.inp   Done                     12/18/2018 22:24:14
00009 suncat0274 pw.x -in pw.inp   Done                     12/18/2018 22:24:14
00010 suncat0274 pw.x -in pw.inp   Done                     12/18/2018 22:24:14
00011 suncat0274 pw.x -in pw.inp   Done                     12/18/2018 22:24:14
00012 suncat0274 pw.x -in pw.inp   Done                     12/18/2018 22:24:14
00013 suncat0274 pw.x -in pw.inp   Done                     12/18/2018 22:24:14
00014 suncat0274 pw.x -in pw.inp   Done                     12/18/2018 22:24:14
00015 suncat0274 pw.x -in pw.inp   Done                     12/18/2018 22:24:14
00016 suncat0273 pw.x -in pw.inp   Done                     12/18/2018 22:24:14
00017 suncat0273 pw.x -in pw.inp   Done                     12/18/2018 22:24:14
00018 suncat0273 pw.x -in pw.inp   Done                     12/18/2018 22:24:14
00019 suncat0273 pw.x -in pw.inp   Done                     12/18/2018 22:24:14
00020 suncat0273 pw.x -in pw.inp   Done                     12/18/2018 22:24:14
00021 suncat0273 pw.x -in pw.inp   Done                     12/18/2018 22:24:14
00022 suncat0273 pw.x -in pw.inp   Done                     12/18/2018 22:24:14
00023 suncat0273 pw.x -in pw.inp   Done                     12/18/2018 22:24:14
00024 suncat0272 pw.x -in pw.inp   Done                     12/18/2018 22:24:14
00025 suncat0272 pw.x -in pw.inp   Done                     12/18/2018 22:24:14
00026 suncat0272 pw.x -in pw.inp   Done                     12/18/2018 22:24:14
00027 suncat0272 pw.x -in pw.inp   Done                     12/18/2018 22:24:14
00028 suncat0272 pw.x -in pw.inp   Done                     12/18/2018 22:24:14
00029 suncat0272 pw.x -in pw.inp   Done                     12/18/2018 22:24:14
00030 suncat0272 pw.x -in pw.inp   Done                     12/18/2018 22:24:14
00031 suncat0272 pw.x -in pw.inp   Done                     12/18/2018 22:24:14