     Program PWSCF v.5.1rc2 (svn rev. 11289) starts on 27Dec2018 at  9:51:32

     Current dimensions of program PWSCF are:
     Max number of different atomic species (ntypx) = 10
     Max number of k-points (npk) =  40000
     Max angular momentum in pseudopotentials (lmaxx) =  3
     Presently stress not available with electric field

     IMPORTANT: XC functional enforced from input :
     Exchange-correlation      = BEEF-VDW ( 1  4 27 13 2)
     Any further DFT definition will be discarded
     Please, verify this is what you really want

     Subspace diagonalization in iterative solution of the eigenvalue problem:
     a serial algorithm will be used

     Generating pointlists ...
     new r_m :   0.4125 (alat units)  0.7795 (a.u.) for type    1
     new r_m :   0.4125 (alat units)  0.7795 (a.u.) for type    2

     bravais-lattice index     =            0
     lattice parameter (alat)  =       1.8897  a.u.
     unit-cell volume          =    3713.8511 (a.u.)^3
     number of atoms/cell      =           12
     number of atomic types    =            2
     number of electrons       =       198.00
     number of Kohn-Sham states=          129
     kinetic-energy cutoff     =      36.7493  Ry
     charge density cutoff     =     367.4932  Ry
     convergence threshold     =      1.0E-06
     mixing beta               =       0.1000
     number of iterations used =           10  plain     mixing
     Exchange-correlation      = BEEF-VDW ( 1  4 27 13 2)
     nstep                     =           50

     celldm(1)=   1.889726  celldm(2)=   0.000000  celldm(3)=   0.000000
     celldm(4)=   0.000000  celldm(5)=   0.000000  celldm(6)=   0.000000

     crystal axes: (cart. coord. in units of alat)
               a(1) = (   5.125932   0.000000   0.000000 )
               a(2) = (  -2.562966   4.439187   0.000000 )
               a(3) = (   0.000000   0.000000  24.185306 )

     reciprocal axes: (cart. coord. in units 2 pi/alat)
               b(1) = (  0.195086  0.112633  0.000000 )
               b(2) = (  0.000000  0.225266  0.000000 )
               b(3) = (  0.000000  0.000000  0.041347 )

     PseudoPot. # 1 for Ni read from file:
     /afs/slac.stanford.edu/u/if/mamunm/psp/gbrv1.5pbe/Ni.UPF
     MD5 check sum: 1ee80287db30b12d2bc1f57a5b5d6409
     Pseudo is Ultrasoft + core correction, Zval = 18.0
     Generated by new atomic code, or converted to UPF format
     Using radial grid of  865 points,  6 beta functions with:
                l(1) =   0
                l(2) =   0
                l(3) =   1
                l(4) =   1
                l(5) =   2
                l(6) =   2
     Q(r) pseudized with 10 coefficients,  rinner =    0.980   0.980   0.980
                                                       0.980   0.980

     PseudoPot. # 2 for Ti read from file:
     /afs/slac.stanford.edu/u/if/mamunm/psp/gbrv1.5pbe/Ti.UPF
     MD5 check sum: 88a00a6731bd790ddea75d31a80cb452
     Pseudo is Ultrasoft + core correction, Zval = 12.0
     Generated by new atomic code, or converted to UPF format
     Using radial grid of  851 points,  6 beta functions with:
                l(1) =   0
                l(2) =   0
                l(3) =   1
                l(4) =   1
                l(5) =   2
                l(6) =   2
     Q(r) pseudized with  6 coefficients,  rinner =    1.000   1.000   1.000
                                                       1.000   1.000

     vdW kernel table read from file vdW_kernel_table
     MD5 check sum: 095c7af220d748ca6e76c0b4c6cfb241

     atomic species   valence    mass     pseudopotential
        Ni1           18.00    58.69340     Ni( 1.00)
        Ti1           12.00    47.86700     Ti( 1.00)

     Starting magnetic structure
     atomic species   magnetization
        Ni1          0.111
        Ti1          0.167

     No symmetry found

   Cartesian axes

     site n.     atom                  positions (alat units)
         1           Ni1 tau(   1) = (   0.0000000   0.0000000  10.0000000  )
         2           Ni1 tau(   2) = (  -1.2814830   2.2195936  10.0000000  )
         3           Ni1 tau(   3) = (   1.2814830   2.2195936  10.0000000  )
         4           Ti1 tau(   4) = (   2.5629660   0.0000000  10.0000000  )
         5           Ni1 tau(   5) = (   2.5629660   1.4797291  12.0926530  )
         6           Ni1 tau(   6) = (   1.2814830   3.6993227  12.0926530  )
         7           Ni1 tau(   7) = (  -1.2814830   3.6993227  12.0926530  )
         8           Ti1 tau(   8) = (   0.0000000   1.4797291  12.0926530  )
         9           Ni1 tau(   9) = (  -0.0000000   2.9594582  14.1853059  )
        10           Ni1 tau(  10) = (   1.2814830   0.7398645  14.1853059  )
        11           Ni1 tau(  11) = (   3.8444490   0.7398645  14.1853059  )
        12           Ti1 tau(  12) = (   2.5629660   2.9594582  14.1853059  )

     number of k points=    40  Fermi-Dirac smearing, width (Ry)=  0.0110
                       cart. coord. in units 2pi/alat
        k(    1) = (   0.0000000   0.0000000   0.0000000), wk =   0.0277778
        k(    2) = (   0.0000000   0.0375444   0.0000000), wk =   0.0555556
        k(    3) = (   0.0000000   0.0750888   0.0000000), wk =   0.0555556
        k(    4) = (   0.0000000  -0.1126332   0.0000000), wk =   0.0277778
        k(    5) = (   0.0325144   0.0187722   0.0000000), wk =   0.0555556
        k(    6) = (   0.0325144   0.0563166   0.0000000), wk =   0.0555556
        k(    7) = (   0.0325144   0.0938610   0.0000000), wk =   0.0555556
        k(    8) = (   0.0325144  -0.0938610   0.0000000), wk =   0.0555556
        k(    9) = (   0.0325144  -0.0563166   0.0000000), wk =   0.0555556
        k(   10) = (   0.0325144  -0.0187722   0.0000000), wk =   0.0555556
        k(   11) = (   0.0650288   0.0375444   0.0000000), wk =   0.0555556
        k(   12) = (   0.0650288   0.0750888   0.0000000), wk =   0.0555556
        k(   13) = (   0.0650288   0.1126332   0.0000000), wk =   0.0555556
        k(   14) = (   0.0650288  -0.0750888   0.0000000), wk =   0.0555556
        k(   15) = (   0.0650288  -0.0375444   0.0000000), wk =   0.0555556
        k(   16) = (   0.0650288   0.0000000   0.0000000), wk =   0.0555556
        k(   17) = (  -0.0975432  -0.0563166   0.0000000), wk =   0.0277778
        k(   18) = (  -0.0975432  -0.0187722   0.0000000), wk =   0.0555556
        k(   19) = (  -0.0975432   0.0187722   0.0000000), wk =   0.0555556
        k(   20) = (  -0.0975432  -0.1689498   0.0000000), wk =   0.0277778
        k(   21) = (   0.0000000   0.0000000   0.0000000), wk =   0.0277778
        k(   22) = (   0.0000000   0.0375444   0.0000000), wk =   0.0555556
        k(   23) = (   0.0000000   0.0750888   0.0000000), wk =   0.0555556
        k(   24) = (   0.0000000  -0.1126332   0.0000000), wk =   0.0277778
        k(   25) = (   0.0325144   0.0187722   0.0000000), wk =   0.0555556
        k(   26) = (   0.0325144   0.0563166   0.0000000), wk =   0.0555556
        k(   27) = (   0.0325144   0.0938610   0.0000000), wk =   0.0555556
        k(   28) = (   0.0325144  -0.0938610   0.0000000), wk =   0.0555556
        k(   29) = (   0.0325144  -0.0563166   0.0000000), wk =   0.0555556
        k(   30) = (   0.0325144  -0.0187722   0.0000000), wk =   0.0555556
        k(   31) = (   0.0650288   0.0375444   0.0000000), wk =   0.0555556
        k(   32) = (   0.0650288   0.0750888   0.0000000), wk =   0.0555556
        k(   33) = (   0.0650288   0.1126332   0.0000000), wk =   0.0555556
        k(   34) = (   0.0650288  -0.0750888   0.0000000), wk =   0.0555556
        k(   35) = (   0.0650288  -0.0375444   0.0000000), wk =   0.0555556
        k(   36) = (   0.0650288   0.0000000   0.0000000), wk =   0.0555556
        k(   37) = (  -0.0975432  -0.0563166   0.0000000), wk =   0.0277778
        k(   38) = (  -0.0975432  -0.0187722   0.0000000), wk =   0.0555556
        k(   39) = (  -0.0975432   0.0187722   0.0000000), wk =   0.0555556
        k(   40) = (  -0.0975432  -0.1689498   0.0000000), wk =   0.0277778

     Largest allocated arrays     est. size (Mb)     dimensions
     Largest temporary arrays     est. size (Mb)     dimensions

     Check: negative/imaginary core charge=   -0.000004    0.000000

     Initial potential from superposition of free atoms
     Check: negative starting charge=(component1):   -0.001954
     Check: negative starting charge=(component2):   -0.001421

     starting charge  176.99987, renormalised to  198.00000

     negative rho (up, down):  2.186E-03 1.590E-03

     *
     * You are using vdW-DF for exchange-correlation in this calculation.
     * Please cite the following three references that made this development
     * possible:
     *
     *   M. Dion, H. Rydberg, E. Schroder, D. C. Langreth, and
     *   B. I. Lundqvist, Phys. Rev. Lett. 92, 246401 (2004).
     *
     *   T. Thonhauser, V. R. Cooper, S. Li, A. Puzder, P. Hyldgaard, and
     *   D. C. Langreth, Phys. Rev. B 76, 125112 (2007).
     *
     *   G. Roman-Perez and J. M. Soler, Phys. Rev. Lett. 103, 096102 (2009).
     *
     *
     * If you are using vdW-DF2, please also cite:
     *
     *   K. Lee, E. D. Murray, L. Kong, B. I. Lundqvist, and
     *   D. C. Langreth, Phys. Rev. B 82, 081101(R) (2010).
     *
     *
     * If you are calculating the stress with vdW-DF, please also cite:
     *
     *   R. Sabatini, E. Kucukbenli, B. Kolb, T. Thonhauser, and
     *   S. de Gironcoli, J. Phys.: Condens. Matter 24, 424209 (2012).
     *

     Carrying out vdW-DF run using the following parameters:

     Nqs =      20    Nr_points =    1024   r_max =   100.000
     q_mesh =
               0.00001000     0.04494208     0.09755937     0.15916263
               0.23128650     0.31572767     0.41458969     0.53033537
               0.66584808     0.82450364     1.01025438     1.22772762
               1.48234092     1.78043706     2.12944203     2.53805004
               3.01644009     3.57652955     4.23227104     5.00000000

     Gradients computed in reciprocal space

     Adding external electric field

     Computed dipole along edir(3) :
        Dipole                0.0000 Ry au,          0.0000 Debye
        Dipole field          0.0000 Ry au

        Potential amp.       -0.0000 Ry
        Total length         44.5610 bohr

[...]

     Starting wfc are  147 randomized atomic wfcs

     Self-consistent Calculation

     iteration #  1     ecut=    36.75 Ry     beta=0.10
     Davidson diagonalization with overlap
     ethr =  1.00E-02,  avg # of iterations =  7.9

[...]

     Magnetic moment per site:
     atom:    1    charge:    9.9108    magn:    1.0508    constr:    0.0000
     atom:    2    charge:    9.9108    magn:    1.0508    constr:    0.0000
     atom:    3    charge:    9.9108    magn:    1.0508    constr:    0.0000
     atom:    4    charge:    3.4907    magn:    0.5291    constr:    0.0000
     atom:    5    charge:    9.9112    magn:    1.0508    constr:    0.0000
     atom:    6    charge:    9.9112    magn:    1.0508    constr:    0.0000
     atom:    7    charge:    9.9112    magn:    1.0508    constr:    0.0000
     atom:    8    charge:    3.4916    magn:    0.5280    constr:    0.0000
[...]
        k(    4) = (   0.0000000  -0.1126332   0.0000000), wk =   0.0277778
        k(    5) = (   0.0325144   0.0187722   0.0000000), wk =   0.0555556
        k(    6) = (   0.0325144   0.0563166   0.0000000), wk =   0.0555556
        k(    7) = (   0.0325144   0.0938610   0.0000000), wk =   0.0555556
        k(    8) = (   0.0325144  -0.0938610   0.0000000), wk =   0.0555556
        k(    9) = (   0.0325144  -0.0563166   0.0000000), wk =   0.0555556
        k(   10) = (   0.0325144  -0.0187722   0.0000000), wk =   0.0555556
        k(   11) = (   0.0650288   0.0375444   0.0000000), wk =   0.0555556
        k(   12) = (   0.0650288   0.0750888   0.0000000), wk =   0.0555556
        k(   13) = (   0.0650288   0.1126332   0.0000000), wk =   0.0555556
        k(   14) = (   0.0650288  -0.0750888   0.0000000), wk =   0.0555556
        k(   15) = (   0.0650288  -0.0375444   0.0000000), wk =   0.0555556
        k(   16) = (   0.0650288   0.0000000   0.0000000), wk =   0.0555556
        k(   17) = (  -0.0975432  -0.0563166   0.0000000), wk =   0.0277778
        k(   18) = (  -0.0975432  -0.0187722   0.0000000), wk =   0.0555556
        k(   19) = (  -0.0975432   0.0187722   0.0000000), wk =   0.0555556
        k(   20) = (  -0.0975432  -0.1689498   0.0000000), wk =   0.0277778
        k(   21) = (   0.0000000   0.0000000   0.0000000), wk =   0.0277778
        k(   22) = (   0.0000000   0.0375444   0.0000000), wk =   0.0555556
        k(   23) = (   0.0000000   0.0750888   0.0000000), wk =   0.0555556
        k(   24) = (   0.0000000  -0.1126332   0.0000000), wk =   0.0277778
        k(   25) = (   0.0325144   0.0187722   0.0000000), wk =   0.0555556
        k(   26) = (   0.0325144   0.0563166   0.0000000), wk =   0.0555556
        k(   27) = (   0.0325144   0.0938610   0.0000000), wk =   0.0555556
        k(   28) = (   0.0325144  -0.0938610   0.0000000), wk =   0.0555556
        k(   29) = (   0.0325144  -0.0563166   0.0000000), wk =   0.0555556
        k(   30) = (   0.0325144  -0.0187722   0.0000000), wk =   0.0555556
        k(   31) = (   0.0650288   0.0375444   0.0000000), wk =   0.0555556
        k(   32) = (   0.0650288   0.0750888   0.0000000), wk =   0.0555556
        k(   33) = (   0.0650288   0.1126332   0.0000000), wk =   0.0555556
        k(   34) = (   0.0650288  -0.0750888   0.0000000), wk =   0.0555556
        k(   35) = (   0.0650288  -0.0375444   0.0000000), wk =   0.0555556
        k(   36) = (   0.0650288   0.0000000   0.0000000), wk =   0.0555556
        k(   37) = (  -0.0975432  -0.0563166   0.0000000), wk =   0.0277778
        k(   38) = (  -0.0975432  -0.0187722   0.0000000), wk =   0.0555556
        k(   39) = (  -0.0975432   0.0187722   0.0000000), wk =   0.0555556
        k(   40) = (  -0.0975432  -0.1689498   0.0000000), wk =   0.0277778

     Largest allocated arrays     est. size (Mb)     dimensions
     Largest temporary arrays     est. size (Mb)     dimensions

     Check: negative/imaginary core charge=   -0.000004    0.000000

     Initial potential from superposition of free atoms
     Check: negative starting charge=(component1):   -0.002124
     Check: negative starting charge=(component2):   -0.001543

     starting charge  176.99987, renormalised to  198.00000

[...]

     *
     * You are using vdW-DF for exchange-correlation in this calculation.
     * Please cite the following three references that made this development
     * possible:
     *
     *   M. Dion, H. Rydberg, E. Schroder, D. C. Langreth, and
     *   B. I. Lundqvist, Phys. Rev. Lett. 92, 246401 (2004).
     *
     *   T. Thonhauser, V. R. Cooper, S. Li, A. Puzder, P. Hyldgaard, and
     *   D. C. Langreth, Phys. Rev. B 76, 125112 (2007).
     *
     *   G. Roman-Perez and J. M. Soler, Phys. Rev. Lett. 103, 096102 (2009).
     *
     *
     * If you are using vdW-DF2, please also cite:
     *
     *   K. Lee, E. D. Murray, L. Kong, B. I. Lundqvist, and
     *   D. C. Langreth, Phys. Rev. B 82, 081101(R) (2010).
     *
     *
     * If you are calculating the stress with vdW-DF, please also cite:
     *
     *   R. Sabatini, E. Kucukbenli, B. Kolb, T. Thonhauser, and
     *   S. de Gironcoli, J. Phys.: Condens. Matter 24, 424209 (2012).
     *

     Carrying out vdW-DF run using the following parameters:

     Nqs =      20    Nr_points =    1024   r_max =   100.000
     q_mesh =
               0.00001000     0.04494208     0.09755937     0.15916263
               0.23128650     0.31572767     0.41458969     0.53033537
               0.66584808     0.82450364     1.01025438     1.22772762
               1.48234092     1.78043706     2.12944203     2.53805004
               3.01644009     3.57652955     4.23227104     5.00000000

     Gradients computed in reciprocal space

[...]

     Starting wfc are  147 randomized atomic wfcs

     Self-consistent Calculation

[...]

     total energy              =   -3459.72962120 Ry
     Harris-Foulkes estimate   =   -3459.72961875 Ry
     estimated scf accuracy    <       0.00000118 Ry

[...]

     iteration # 42     ecut=    36.75 Ry     beta=0.10
     Davidson diagonalization with overlap
     ethr =  5.94E-10,  avg # of iterations =  2.0

[...]

     negative rho (up, down):  1.872E-03 1.871E-03

[...]

     Adding external electric field

     Computed dipole along edir(3) :
        Dipole                0.0057 Ry au,          0.0145 Debye
        Dipole field          0.0000 Ry au

        Potential amp.       -0.0017 Ry
        Total length         44.5610 bohr

     Magnetic moment per site:
     atom:    1    charge:    9.3534    magn:   -0.0001    constr:    0.0000
     atom:    2    charge:    9.3534    magn:   -0.0003    constr:    0.0000
     atom:    3    charge:    9.3534    magn:   -0.0001    constr:    0.0000
     atom:    4    charge:    3.1274    magn:   -0.0008    constr:    0.0000
     atom:    5    charge:    9.3477    magn:   -0.0009    constr:    0.0000
     atom:    6    charge:    9.3477    magn:   -0.0009    constr:    0.0000
     atom:    7    charge:    9.3477    magn:   -0.0009    constr:    0.0000
     atom:    8    charge:    3.1239    magn:    0.0007    constr:    0.0000
     atom:    9    charge:    9.3462    magn:   -0.0002    constr:    0.0000
     atom:   10    charge:    9.3462    magn:   -0.0002    constr:    0.0000
     atom:   11    charge:    9.3463    magn:   -0.0002    constr:    0.0000
     atom:   12    charge:    3.1197    magn:   -0.0005    constr:    0.0000

     End of self-consistent calculation

 ------ SPIN UP ------------

[...]

 ------ SPIN DOWN ----------

[...]

          k = 0.0650 0.0000 0.0000 ( 14007 PWs)   bands (ev):

[...]

          k =-0.0975-0.1689 0.0000 ( 13966 PWs)   bands (ev):

  -102.5586-102.5550-102.5511-102.2359-102.2317-102.2282-102.2086-102.2051
  -102.2011 -63.0637 -63.0436 -63.0273 -62.9449 -62.9308 -62.9175 -62.8514
   -62.8374 -62.8175 -62.7624 -62.7490 -62.7453 -62.7361 -62.7303 -62.7191
   -62.6098 -62.5797 -62.5767 -62.5530 -62.5485 -62.5188 -62.5173 -62.5108
   -62.5028 -62.4844 -62.4798 -62.4731 -56.6830 -56.6666 -56.4766 -33.0081
   -32.9900 -32.8484 -32.8443 -32.8372 -32.8328 -32.7433 -32.7378 -32.6365
    -4.8801  -4.7256  -3.2562  -3.2457  -2.7357  -2.5722  -2.5337  -2.5134
    -2.3270  -2.2090  -2.0588  -1.9779  -1.8479  -1.8073  -1.7827  -1.6452
    -1.5840  -1.5712  -1.4984  -1.4038  -1.2776  -1.1848  -1.1298  -0.9995
    -0.9835  -0.9487  -0.9146  -0.8850  -0.8385  -0.8337  -0.7883  -0.7744
    -0.7524  -0.6720  -0.6473  -0.5890  -0.5176  -0.4110  -0.3481  -0.3175
    -0.2971  -0.2038  -0.1544  -0.0883  -0.0351   0.0764   0.1642   0.2132
     0.4548   0.4563   0.4796   0.5769   1.2119   1.2760   1.6040   1.7048
     1.7237   1.8133   1.8362   1.9270   1.9789   2.1123   2.4708   2.5479
     2.8304   2.8494   3.4596   3.9945   4.5550   4.8583   4.9980   5.2304
     6.1309   6.3142   6.6508   6.6792   7.1525   7.1885   7.3614   7.3722
     8.4079

     the Fermi energy is     0.8404 ev

!    total energy              =   -3459.72962966 Ry
     Harris-Foulkes estimate   =   -3459.72962144 Ry
     estimated scf accuracy    <       0.00000078 Ry

     The total energy is the sum of the following terms:

     one-electron contribution =  -28185.35833689 Ry
     hartree contribution      =   14097.83316892 Ry
     xc contribution           =    -387.21687420 Ry
     ewald contribution        =   11015.06635736 Ry
     electric field correction =       0.00000011 Ry
     smearing contrib. (-TS)   =      -0.05394496 Ry

     total magnetization       =    -0.01 Bohr mag/cell
     absolute magnetization    =     0.02 Bohr mag/cell

     convergence has been achieved in  42 iterations

 BEEF-vdW xc energy contributions
           1 :   -340.008461111304
           2 :    307.739695992804
           3 :   -253.534688597354
           4 :    193.175446993321
           5 :   -141.045700959197
           6 :    104.837652158134
           7 :   -84.1649369323259
           8 :    73.0771025248148
           9 :   -64.5382103616782
          10 :    54.2331948168656
          11 :   -41.9144841815601
          12 :    30.1208190909390
          13 :   -21.6090203528694
          14 :    17.2993223616583
          15 :   -15.8962442955035
          16 :    15.0660785673704
          17 :   -13.1016621784921
          18 :    9.87679577490724
          19 :   -6.59206155787035
          20 :    4.67441113562103
          21 :   -4.70184235630359
          22 :    6.06140150150929
          23 :   -7.47717523164869
          24 :    7.93121525771136
          25 :   -7.30550525862543
          26 :    6.32931230673739
          27 :   -5.95240799695119
          28 :    6.63333310047358
          29 :   -8.04627630651521
          30 :    9.35777154511845
          31 :   -29.3121426894704
          32 :   -20.5766684537240

     Forces acting on atoms (Ry/au):

     negative rho (up, down):  1.872E-03 1.871E-03
     atom    1 type  1   force =     0.00000870    0.00557675    0.00765558
     atom    2 type  1   force =     0.00481914   -0.00279124    0.00769775
     atom    3 type  1   force =    -0.00481966   -0.00280136    0.00767944
     atom    4 type  2   force =    -0.00000181    0.00000323    0.00485542
     atom    5 type  1   force =    -0.00000148    0.00012248   -0.00522821
     atom    6 type  1   force =     0.00010194   -0.00006040   -0.00523860
     atom    7 type  1   force =    -0.00010634   -0.00006212   -0.00523873
     atom    8 type  2   force =     0.00000107    0.00000090   -0.00864247
     atom    9 type  1   force =     0.00001569    0.00054261   -0.00091070
     atom   10 type  1   force =     0.00049255   -0.00024816   -0.00094240
     atom   11 type  1   force =    -0.00050267   -0.00027158   -0.00092195
     atom   12 type  2   force =    -0.00000712   -0.00001111   -0.00076512

     Total force =     0.021322     Total SCF correction =     0.001948

     entering subroutine stress ...

     negative rho (up, down):  1.872E-03 1.871E-03
          total   stress  (Ry/bohr**3)                   (kbar)     P=  -60.77
  -0.00043819   0.00000000   0.00000000        -64.46      0.00      0.00
   0.00000000  -0.00043820  -0.00000000          0.00    -64.46     -0.00
   0.00000000  -0.00000000  -0.00036302          0.00     -0.00    -53.40

 !ASE

     Writing output data file calc.save

     General routines

     Parallel routines

   This run was terminated on:  18:56: 0  27Dec2018

   JOB DONE.
Job  /afs/slac/g/suncat/bin/suncat-tsmpirun -x LD_LIBRARY_PATH -wdir /scratch/qe110291_vdmYc pw.x -in pw.inp

TID   HOST_NAME   COMMAND_LINE            STATUS            TERMINATION_TIME
00000 suncat0152 pw.x -in pw.inp   Done                     12/27/2018 18:56:00
00001 suncat0152 pw.x -in pw.inp   Done                     12/27/2018 18:56:00
00002 suncat0152 pw.x -in pw.inp   Done                     12/27/2018 18:56:00
00003 suncat0152 pw.x -in pw.inp   Done                     12/27/2018 18:56:00
00004 suncat0152 pw.x -in pw.inp   Done                     12/27/2018 18:56:00
00005 suncat0152 pw.x -in pw.inp   Done                     12/27/2018 18:56:00
00006 suncat0152 pw.x -in pw.inp   Done                     12/27/2018 18:56:00
00007 suncat0152 pw.x -in pw.inp   Done                     12/27/2018 18:56:00
00008 suncat0150 pw.x -in pw.inp   Done                     12/27/2018 18:56:00
00009 suncat0150 pw.x -in pw.inp   Done                     12/27/2018 18:56:00
00010 suncat0150 pw.x -in pw.inp   Done                     12/27/2018 18:56:00
00011 suncat0150 pw.x -in pw.inp   Done                     12/27/2018 18:56:00
00012 suncat0150 pw.x -in pw.inp   Done                     12/27/2018 18:56:00
00013 suncat0150 pw.x -in pw.inp   Done                     12/27/2018 18:56:00
00014 suncat0150 pw.x -in pw.inp   Done                     12/27/2018 18:56:00
00015 suncat0150 pw.x -in pw.inp   Done                     12/27/2018 18:56:00
00016 suncat0248 pw.x -in pw.inp   Done                     12/27/2018 18:56:00
00017 suncat0248 pw.x -in pw.inp   Done                     12/27/2018 18:56:00
00018 suncat0248 pw.x -in pw.inp   Done                     12/27/2018 18:56:00
00019 suncat0248 pw.x -in pw.inp   Done                     12/27/2018 18:56:00
00020 suncat0248 pw.x -in pw.inp   Done                     12/27/2018 18:56:00
00021 suncat0248 pw.x -in pw.inp   Done                     12/27/2018 18:56:00
00022 suncat0248 pw.x -in pw.inp   Done                     12/27/2018 18:56:00
00023 suncat0248 pw.x -in pw.inp   Done                     12/27/2018 18:56:00
00024 suncat0247 pw.x -in pw.inp   Done                     12/27/2018 18:56:00
00025 suncat0247 pw.x -in pw.inp   Done                     12/27/2018 18:56:00
00026 suncat0247 pw.x -in pw.inp   Done                     12/27/2018 18:56:00
00027 suncat0247 pw.x -in pw.inp   Done                     12/27/2018 18:56:00
00028 suncat0247 pw.x -in pw.inp   Done                     12/27/2018 18:56:00
00029 suncat0247 pw.x -in pw.inp   Done                     12/27/2018 18:56:00
00030 suncat0247 pw.x -in pw.inp   Done                     12/27/2018 18:56:00
00031 suncat0247 pw.x -in pw.inp   Done                     12/27/2018 18:56:00
00032 suncat0246 pw.x -in pw.inp   Done                     12/27/2018 18:56:00
00033 suncat0246 pw.x -in pw.inp   Done                     12/27/2018 18:56:00
00034 suncat0246 pw.x -in pw.inp   Done                     12/27/2018 18:56:00
00035 suncat0246 pw.x -in pw.inp   Done                     12/27/2018 18:56:00
00036 suncat0246 pw.x -in pw.inp   Done                     12/27/2018 18:56:00
00037 suncat0246 pw.x -in pw.inp   Done                     12/27/2018 18:56:00
00038 suncat0246 pw.x -in pw.inp   Done                     12/27/2018 18:56:00
00039 suncat0246 pw.x -in pw.inp   Done                     12/27/2018 18:56:00
00040 suncat0245 pw.x -in pw.inp   Done                     12/27/2018 18:56:00
00041 suncat0245 pw.x -in pw.inp   Done                     12/27/2018 18:56:00
00042 suncat0245 pw.x -in pw.inp   Done                     12/27/2018 18:56:00
00043 suncat0245 pw.x -in pw.inp   Done                     12/27/2018 18:56:00
00044 suncat0245 pw.x -in pw.inp   Done                     12/27/2018 18:56:00
00045 suncat0245 pw.x -in pw.inp   Done                     12/27/2018 18:56:00
00046 suncat0245 pw.x -in pw.inp   Done                     12/27/2018 18:56:00
00047 suncat0245 pw.x -in pw.inp   Done                     12/27/2018 18:56:00
00048 suncat0214 pw.x -in pw.inp   Done                     12/27/2018 18:56:00
00049 suncat0214 pw.x -in pw.inp   Done                     12/27/2018 18:56:00
00050 suncat0214 pw.x -in pw.inp   Done                     12/27/2018 18:56:00
00051 suncat0214 pw.x -in pw.inp   Done                     12/27/2018 18:56:00
00052 suncat0214 pw.x -in pw.inp   Done                     12/27/2018 18:56:00
00053 suncat0214 pw.x -in pw.inp   Done                     12/27/2018 18:56:00
00054 suncat0214 pw.x -in pw.inp   Done                     12/27/2018 18:56:00
00055 suncat0214 pw.x -in pw.inp   Done                     12/27/2018 18:56:00
00056 suncat0213 pw.x -in pw.inp   Done                     12/27/2018 18:56:00
00057 suncat0213 pw.x -in pw.inp   Done                     12/27/2018 18:56:00
00058 suncat0213 pw.x -in pw.inp   Done                     12/27/2018 18:56:00
00059 suncat0213 pw.x -in pw.inp   Done                     12/27/2018 18:56:00
00060 suncat0213 pw.x -in pw.inp   Done                     12/27/2018 18:56:00
00061 suncat0213 pw.x -in pw.inp   Done                     12/27/2018 18:56:00
00062 suncat0213 pw.x -in pw.inp   Done                     12/27/2018 18:56:00
00063 suncat0213 pw.x -in pw.inp   Done                     12/27/2018 18:56:00