     Program PWSCF v.5.1rc2 (svn rev. 11289) starts on  1Jan2019 at 22: 6:30

     Current dimensions of program PWSCF are:
     Max number of different atomic species (ntypx) = 10
     Max number of k-points (npk) =  40000
     Max angular momentum in pseudopotentials (lmaxx) =  3
     Presently stress not available with electric field

     IMPORTANT: XC functional enforced from input :
     Exchange-correlation      = BEEF-VDW ( 1  4 27 13 2)
     Any further DFT definition will be discarded
     Please, verify this is what you really want

     Subspace diagonalization in iterative solution of the eigenvalue problem:
     a serial algorithm will be used

     bravais-lattice index     =            0
     lattice parameter (alat)  =       1.8897  a.u.
     unit-cell volume          =    5164.7662 (a.u.)^3
     number of atoms/cell      =           12
     number of atomic types    =            2
     number of electrons       =       144.00
     number of Kohn-Sham states=          102
     kinetic-energy cutoff     =      36.7493  Ry
     charge density cutoff     =     367.4932  Ry
     convergence threshold     =      1.0E-06
     mixing beta               =       0.1000
     number of iterations used =           10  plain     mixing
     Exchange-correlation      = BEEF-VDW ( 1  4 27 13 2)
     nstep                     =           50

     celldm(1)=   1.889726  celldm(2)=   0.000000  celldm(3)=   0.000000
     celldm(4)=   0.000000  celldm(5)=   0.000000  celldm(6)=   0.000000

     crystal axes: (cart. coord. in units of alat)
               a(1) = (   5.961371   0.000000   0.000000 )
               a(2) = (  -2.980686   5.162699   0.000000 )
               a(3) = (   0.000000   0.000000  24.867439 )

     reciprocal axes: (cart. coord. in units 2 pi/alat)
               b(1) = (  0.167747  0.096849  0.000000 )
               b(2) = (  0.000000  0.193697  0.000000 )
               b(3) = (  0.000000  0.000000  0.040213 )

     PseudoPot. # 1 for Ti read from file:
     /afs/slac.stanford.edu/u/if/mamunm/psp/gbrv1.5pbe/Ti.UPF
     MD5 check sum: 88a00a6731bd790ddea75d31a80cb452
     Pseudo is Ultrasoft + core correction, Zval = 12.0
     Generated by new atomic code, or converted to UPF format
     Using radial grid of  851 points,  6 beta functions with:
                l(1) =   0
                l(2) =   0
                l(3) =   1
                l(4) =   1
                l(5) =   2
                l(6) =   2
     Q(r) pseudized with  6 coefficients,  rinner =    1.000   1.000   1.000
                                                       1.000   1.000

     PseudoPot. # 2 for Hf read from file:
     /afs/slac.stanford.edu/u/if/mamunm/psp/gbrv1.5pbe/Hf.UPF
     MD5 check sum: 8ee9378dfe14276e333edf04c5e4aa26
     Pseudo is Ultrasoft + core correction, Zval = 12.0
     Generated by new atomic code, or converted to UPF format
     Using radial grid of  921 points,  8 beta functions with:
                l(1) =   0
                l(2) =   0
                l(3) =   0
                l(4) =   1
                l(5) =   1
                l(6) =   2
                l(7) =   2
                l(8) =   3
     Q(r) pseudized with  6 coefficients,  rinner =    1.200   1.200   1.200
                                                       1.200   1.200   1.200
                                                       1.200

     vdW kernel table read from file vdW_kernel_table
     MD5 check sum: 095c7af220d748ca6e76c0b4c6cfb241

     atomic species   valence    mass     pseudopotential
        Ti1           12.00    47.86700     Ti( 1.00)
        Hf1           12.00   178.49000     Hf( 1.00)

     No symmetry found

   Cartesian axes

     site n.     atom                  positions (alat units)
         1           Ti1 tau(   1) = (   0.0000000   0.0000000  10.0000000  )
         2           Ti1 tau(   2) = (  -1.4903429   2.5813496  10.0000000  )
         3           Ti1 tau(   3) = (   1.4903429   2.5813496  10.0000000  )
         4           Hf1 tau(   4) = (   2.9806857   0.0000000  10.0000000  )
         5           Ti1 tau(   5) = (   2.9806857   1.7208997  12.4337197  )
         6           Ti1 tau(   6) = (   1.4903429   4.3022493  12.4337197  )
         7           Ti1 tau(   7) = (  -1.4903429   4.3022493  12.4337197  )
         8           Hf1 tau(   8) = (   0.0000000   1.7208997  12.4337197  )
         9           Ti1 tau(   9) = (  -0.0000000   3.4417994  14.8674394  )
        10           Ti1 tau(  10) = (   1.4903429   0.8604499  14.8674394  )
        11           Ti1 tau(  11) = (   4.4710286   0.8604499  14.8674394  )
        12           Hf1 tau(  12) = (   2.9806857   3.4417994  14.8674394  )

     number of k points=    20  Fermi-Dirac smearing, width (Ry)=  0.0110
                       cart. coord. in units 2pi/alat
        k(    1) = (   0.0000000   0.0000000   0.0000000), wk =   0.0555556
        k(    2) = (   0.0000000   0.0322829   0.0000000), wk =   0.1111111
        k(    3) = (   0.0000000   0.0645657   0.0000000), wk =   0.1111111
        k(    4) = (   0.0000000  -0.0968486   0.0000000), wk =   0.0555556
        k(    5) = (   0.0279578   0.0161414   0.0000000), wk =   0.1111111
        k(    6) = (   0.0279578   0.0484243   0.0000000), wk =   0.1111111
        k(    7) = (   0.0279578   0.0807071   0.0000000), wk =   0.1111111
        k(    8) = (   0.0279578  -0.0807071   0.0000000), wk =   0.1111111
        k(    9) = (   0.0279578  -0.0484243   0.0000000), wk =   0.1111111
        k(   10) = (   0.0279578  -0.0161414   0.0000000), wk =   0.1111111
        k(   11) = (   0.0559155   0.0322829   0.0000000), wk =   0.1111111
        k(   12) = (   0.0559155   0.0645657   0.0000000), wk =   0.1111111
        k(   13) = (   0.0559155   0.0968486   0.0000000), wk =   0.1111111
        k(   14) = (   0.0559155  -0.0645657   0.0000000), wk =   0.1111111
        k(   15) = (   0.0559155  -0.0322829   0.0000000), wk =   0.1111111
        k(   16) = (   0.0559155   0.0000000   0.0000000), wk =   0.1111111
        k(   17) = (  -0.0838733  -0.0484243   0.0000000), wk =   0.0555556
        k(   18) = (  -0.0838733  -0.0161414   0.0000000), wk =   0.1111111
        k(   19) = (  -0.0838733   0.0161414   0.0000000), wk =   0.1111111
        k(   20) = (  -0.0838733  -0.1452728   0.0000000), wk =   0.0555556

     Largest allocated arrays     est. size (Mb)     dimensions
     Largest temporary arrays     est. size (Mb)     dimensions

     Check: negative/imaginary core charge=   -0.000005    0.000000

     Initial potential from superposition of free atoms
     Check: negative starting charge=   -0.328059

     starting charge  128.99960, renormalised to  144.00000

     negative rho (up, down):  3.662E-01 0.000E+00

     *
     * You are using vdW-DF for exchange-correlation in this calculation.
     * Please cite the following three references that made this development
     * possible:
     *
     *   M. Dion, H. Rydberg, E. Schroder, D. C. Langreth, and
     *   B. I. Lundqvist, Phys. Rev. Lett. 92, 246401 (2004).
     *
     *   T. Thonhauser, V. R. Cooper, S. Li, A. Puzder, P. Hyldgaard, and
     *   D. C. Langreth, Phys. Rev. B 76, 125112 (2007).
     *
     *   G. Roman-Perez and J. M. Soler, Phys. Rev. Lett. 103, 096102 (2009).
     *
     *
     * If you are using vdW-DF2, please also cite:
     *
     *   K. Lee, E. D. Murray, L. Kong, B. I. Lundqvist, and
     *   D. C. Langreth, Phys. Rev. B 82, 081101(R) (2010).
     *
     *
     * If you are calculating the stress with vdW-DF, please also cite:
     *
     *   R. Sabatini, E. Kucukbenli, B. Kolb, T. Thonhauser, and
     *   S. de Gironcoli, J. Phys.: Condens. Matter 24, 424209 (2012).
     *

     Carrying out vdW-DF run using the following parameters:

     Nqs =      20    Nr_points =    1024   r_max =   100.000
     q_mesh =
               0.00001000     0.04494208     0.09755937     0.15916263
               0.23128650     0.31572767     0.41458969     0.53033537
               0.66584808     0.82450364     1.01025438     1.22772762
               1.48234092     1.78043706     2.12944203     2.53805004
               3.01644009     3.57652955     4.23227104     5.00000000

     Gradients computed in reciprocal space

     Adding external electric field

     Computed dipole along edir(3) :
        Dipole                0.0000 Ry au,          0.0000 Debye
        Dipole field          0.0000 Ry au

        Potential amp.       -0.0000 Ry
        Total length         45.8178 bohr

     Starting wfc are  129 randomized atomic wfcs

     Self-consistent Calculation

     iteration #  1     ecut=    36.75 Ry     beta=0.10
     Davidson diagonalization with overlap
     ethr =  1.00E-02,  avg # of iterations =  9.4

[...]

     total energy              =   -1563.15093192 Ry
     Harris-Foulkes estimate   =   -1566.07161870 Ry
     estimated scf accuracy    <      18.02598344 Ry

[...]

     End of self-consistent calculation

          k = 0.0000 0.0000 0.0000 ( 19411 PWs)   bands (ev):

   -61.4511 -61.4509 -60.9987 -56.2096 -56.2074 -56.1642 -56.1641 -56.1636
   -56.1635 -56.0310 -55.9892 -55.9892 -32.6091 -32.5916 -32.5430 -32.5239
   -32.5239 -32.4958 -32.4958 -32.4852 -32.4851 -32.4686 -32.4249 -32.4248
   -32.4087 -32.3037 -32.2942 -32.2909 -32.2908 -32.2382 -32.2381 -32.2316
   -32.2316 -32.2069 -32.1849 -32.1848 -32.1224 -32.0586 -32.0585 -30.0409
   -30.0173 -29.9429 -29.9429 -29.9373 -29.9373 -29.5611 -29.5333 -29.5333
    -4.9180  -3.6167  -2.3281  -1.6239  -1.6238  -1.5018  -1.4925  -1.4925
    -1.2425  -1.0511  -1.0511  -0.8892  -0.6799  -0.6799  -0.6166  -0.0812
    -0.0812   0.1051   0.8069   0.8122   1.0851   1.0851   1.1355   1.2699
     1.3882   1.3961   1.3961   1.4246   1.6976   1.6977   1.7898   1.8779
     1.8779   1.8932   1.8932   1.9142   1.9143   1.9417   2.0550   2.0550
     2.4657   2.4942   2.4942   2.5599   2.7963   2.7963   3.1516   3.1516
     3.2993   3.2993   3.5955   3.9250   3.9250   3.9773

[...]

          k =-0.0839-0.0484 0.0000 ( 19460 PWs)   bands (ev):

[...]

     the Fermi energy is     0.8683 ev

!    total energy              =   -1560.49001334 Ry
     Harris-Foulkes estimate   =   -1560.49318398 Ry
     estimated scf accuracy    <       0.00000052 Ry

     The total energy is the sum of the following terms:

     one-electron contribution =   -9996.26176006 Ry
     hartree contribution      =    4982.33442014 Ry
     xc contribution           =    -400.40563815 Ry
     ewald contribution        =    3853.98396677 Ry
     electric field correction =       0.00000000 Ry
     smearing contrib. (-TS)   =      -0.14100204 Ry

     convergence has been achieved in  23 iterations

 BEEF-vdW xc energy contributions
           1 :   -354.216559935816
           2 :    324.048384522822
           3 :   -272.605255372182
           4 :    213.354390727576
           5 :   -158.525436309953
           6 :    114.912793565630
           7 :   -83.1896194399404
           8 :    60.2289674210393
           9 :   -42.4025434043014
          10 :    27.7398285307024
          11 :   -16.1049644167092
          12 :    7.94923197025753
[...]
     Using radial grid of  851 points,  6 beta functions with:
                l(1) =   0
                l(2) =   0
                l(3) =   1
                l(4) =   1
                l(5) =   2
                l(6) =   2
     Q(r) pseudized with  6 coefficients,  rinner =    1.000   1.000   1.000
                                                       1.000   1.000

     PseudoPot. # 2 for Hf read from file:
     /afs/slac.stanford.edu/u/if/mamunm/psp/gbrv1.5pbe/Hf.UPF
     MD5 check sum: 8ee9378dfe14276e333edf04c5e4aa26
     Pseudo is Ultrasoft + core correction, Zval = 12.0
     Generated by new atomic code, or converted to UPF format
     Using radial grid of  921 points,  8 beta functions with:
                l(1) =   0
                l(2) =   0
                l(3) =   0
                l(4) =   1
                l(5) =   1
                l(6) =   2
                l(7) =   2
                l(8) =   3
     Q(r) pseudized with  6 coefficients,  rinner =    1.200   1.200   1.200
                                                       1.200   1.200   1.200
                                                       1.200

     vdW kernel table read from file vdW_kernel_table
     MD5 check sum: 095c7af220d748ca6e76c0b4c6cfb241

     atomic species   valence    mass     pseudopotential
        Ti1           12.00    47.86700     Ti( 1.00)
        Hf1           12.00   178.49000     Hf( 1.00)

     No symmetry found

   Cartesian axes

     site n.     atom                  positions (alat units)
         1           Ti1 tau(   1) = (   0.0000000   0.0000000  10.0000000  )
         2           Ti1 tau(   2) = (  -1.4903429   2.5813496  10.0000000  )
         3           Ti1 tau(   3) = (   1.4903429   2.5813496  10.0000000  )
         4           Hf1 tau(   4) = (   2.9806857   0.0000000  10.0000000  )
         5           Ti1 tau(   5) = (   2.9806857   1.7208997  12.4337197  )
         6           Ti1 tau(   6) = (   1.4903429   4.3022493  12.4337197  )
         7           Ti1 tau(   7) = (  -1.4903429   4.3022493  12.4337197  )
         8           Hf1 tau(   8) = (   0.0000000   1.7208997  12.4337197  )
         9           Ti1 tau(   9) = (  -0.0000186   3.5318984  14.7076090  )
        10           Ti1 tau(  10) = (   1.5683611   0.8153974  14.7076182  )
        11           Ti1 tau(  11) = (   4.3930038   0.8154171  14.7076168  )
        12           Hf1 tau(  12) = (   2.9806623   3.4418029  14.7764210  )

     number of k points=    20  Fermi-Dirac smearing, width (Ry)=  0.0110
                       cart. coord. in units 2pi/alat
        k(    1) = (   0.0000000   0.0000000   0.0000000), wk =   0.0555556
        k(    2) = (   0.0000000   0.0322829   0.0000000), wk =   0.1111111
        k(    3) = (   0.0000000   0.0645657   0.0000000), wk =   0.1111111
        k(    4) = (   0.0000000  -0.0968486   0.0000000), wk =   0.0555556
        k(    5) = (   0.0279578   0.0161414   0.0000000), wk =   0.1111111
        k(    6) = (   0.0279578   0.0484243   0.0000000), wk =   0.1111111
        k(    7) = (   0.0279578   0.0807071   0.0000000), wk =   0.1111111
        k(    8) = (   0.0279578  -0.0807071   0.0000000), wk =   0.1111111
        k(    9) = (   0.0279578  -0.0484243   0.0000000), wk =   0.1111111
        k(   10) = (   0.0279578  -0.0161414   0.0000000), wk =   0.1111111
        k(   11) = (   0.0559155   0.0322829   0.0000000), wk =   0.1111111
        k(   12) = (   0.0559155   0.0645657   0.0000000), wk =   0.1111111
        k(   13) = (   0.0559155   0.0968486   0.0000000), wk =   0.1111111
        k(   14) = (   0.0559155  -0.0645657   0.0000000), wk =   0.1111111
        k(   15) = (   0.0559155  -0.0322829   0.0000000), wk =   0.1111111
        k(   16) = (   0.0559155   0.0000000   0.0000000), wk =   0.1111111
        k(   17) = (  -0.0838733  -0.0484243   0.0000000), wk =   0.0555556
        k(   18) = (  -0.0838733  -0.0161414   0.0000000), wk =   0.1111111
        k(   19) = (  -0.0838733   0.0161414   0.0000000), wk =   0.1111111
        k(   20) = (  -0.0838733  -0.1452728   0.0000000), wk =   0.0555556

     Largest allocated arrays     est. size (Mb)     dimensions
     Largest temporary arrays     est. size (Mb)     dimensions

     Check: negative/imaginary core charge=   -0.000005    0.000000

     Initial potential from superposition of free atoms
     Check: negative starting charge=   -0.329356

     starting charge  128.99960, renormalised to  144.00000

[...]

     *
     * You are using vdW-DF for exchange-correlation in this calculation.
     * Please cite the following three references that made this development
     * possible:
     *
     *   M. Dion, H. Rydberg, E. Schroder, D. C. Langreth, and
     *   B. I. Lundqvist, Phys. Rev. Lett. 92, 246401 (2004).
     *
     *   T. Thonhauser, V. R. Cooper, S. Li, A. Puzder, P. Hyldgaard, and
     *   D. C. Langreth, Phys. Rev. B 76, 125112 (2007).
     *
     *   G. Roman-Perez and J. M. Soler, Phys. Rev. Lett. 103, 096102 (2009).
     *
     *
     * If you are using vdW-DF2, please also cite:
     *
     *   K. Lee, E. D. Murray, L. Kong, B. I. Lundqvist, and
     *   D. C. Langreth, Phys. Rev. B 82, 081101(R) (2010).
     *
     *
     * If you are calculating the stress with vdW-DF, please also cite:
     *
     *   R. Sabatini, E. Kucukbenli, B. Kolb, T. Thonhauser, and
     *   S. de Gironcoli, J. Phys.: Condens. Matter 24, 424209 (2012).
     *

     Carrying out vdW-DF run using the following parameters:

     Nqs =      20    Nr_points =    1024   r_max =   100.000
     q_mesh =
               0.00001000     0.04494208     0.09755937     0.15916263
               0.23128650     0.31572767     0.41458969     0.53033537
               0.66584808     0.82450364     1.01025438     1.22772762
               1.48234092     1.78043706     2.12944203     2.53805004
               3.01644009     3.57652955     4.23227104     5.00000000

     Gradients computed in reciprocal space

[...]

     Starting wfc are  129 randomized atomic wfcs

     Self-consistent Calculation

[...]

     iteration # 13     ecut=    36.75 Ry     beta=0.10
     Davidson diagonalization with overlap
     c_bands:  1 eigenvalues not converged
     ethr =  4.58E-06,  avg # of iterations = 10.5

[...]

     total energy              =   -1560.51587383 Ry
     Harris-Foulkes estimate   =   -1560.51587313 Ry
     estimated scf accuracy    <       0.00000168 Ry

     iteration # 23     ecut=    36.75 Ry     beta=0.10
     Davidson diagonalization with overlap
     ethr =  1.17E-09,  avg # of iterations =  2.1

[...]

     negative rho (up, down):  3.433E-01 0.000E+00

     Adding external electric field

     Computed dipole along edir(3) :
        Dipole                0.0133 Ry au,          0.0337 Debye
        Dipole field          0.0000 Ry au

        Potential amp.       -0.0030 Ry
        Total length         45.8178 bohr

     End of self-consistent calculation

[...]

          k = 0.0559 0.0000 0.0000 ( 19417 PWs)   bands (ev):

[...]

          k =-0.0839-0.1453 0.0000 ( 19460 PWs)   bands (ev):

   -61.4450 -61.4355 -60.9525 -56.1836 -56.1686 -56.1538 -56.1097 -56.0735
   -56.0633 -55.9352 -55.9218 -55.9083 -32.5244 -32.5047 -32.4896 -32.4607
   -32.4475 -32.4340 -32.4211 -32.4061 -32.3938 -32.3911 -32.3839 -32.3733
   -32.3709 -32.3576 -32.2720 -32.2635 -32.2403 -32.2322 -32.1559 -32.1484
   -32.1311 -32.1159 -32.1102 -32.0923 -32.0754 -32.0732 -31.9925 -30.0310
   -30.0187 -29.9674 -29.9650 -29.9478 -29.9404 -29.5411 -29.5219 -29.5003
    -3.4786  -3.2809  -2.3145  -1.9580  -1.3724  -1.1230  -0.9899  -0.9720
    -0.8929  -0.7955  -0.2227  -0.1514  -0.0975  -0.0419   0.0244   0.0781
     0.3257   0.3305   0.3587   0.4072   0.4222   0.4827   0.6313   0.7128
     0.7159   0.7372   0.8488   0.8882   0.9086   1.0395   1.1716   1.2806
     1.4042   1.5348   1.6190   1.7428   1.8106   1.8538   2.0831   2.1695
     2.3195   2.5139   2.5459   2.6010   2.7193   2.7591   2.7852   2.8122
     2.8427   3.0609   3.1092   3.2030   3.3048   3.5883

     the Fermi energy is     0.8689 ev

!    total energy              =   -1560.51587718 Ry
     Harris-Foulkes estimate   =   -1560.51587397 Ry
     estimated scf accuracy    <       0.00000033 Ry

     The total energy is the sum of the following terms:

     one-electron contribution =  -10198.76557094 Ry
     hartree contribution      =    5083.83496040 Ry
     xc contribution           =    -400.63587523 Ry
     ewald contribution        =    3955.18279581 Ry
     electric field correction =       0.00000043 Ry
     smearing contrib. (-TS)   =      -0.13218765 Ry

     convergence has been achieved in  23 iterations

 BEEF-vdW xc energy contributions
           1 :   -354.854095155541
           2 :    324.754328319858
           3 :   -273.365982818203
           4 :    214.068058828992
           5 :   -159.078697465222
           6 :    115.275021193613
           7 :   -83.4455762406931
           8 :    60.5227438965919
           9 :   -42.8367331307609
          10 :    28.3049855827482
          11 :   -16.6894613041495
          12 :    8.42263428835304
          13 :   -3.27451151787477
          14 :  -0.115126087341935
          15 :    3.60876027353902
          16 :   -8.44368234458818
          17 :    14.4632446711126
          18 :   -20.2511283734622
          19 :    24.0326124072086
          20 :   -24.7119163789401
          21 :    22.3779125646557
          22 :   -18.0566768229154
          23 :    13.0079909701017
          24 :   -8.11166152039010
          25 :    3.70364689208697
          26 :   0.165560075833241
          27 :   -3.38051495930154
          28 :    5.63996013564309
          29 :   -6.64915317138497
          30 :    6.43150411626794
          31 :   -30.4044964691278
          32 :   -21.7723035094047

     Forces acting on atoms (Ry/au):

     negative rho (up, down):  3.433E-01 0.000E+00
     atom    1 type  1   force =    -0.00000049   -0.00560005    0.01261869
     atom    2 type  1   force =    -0.00485059    0.00280041    0.01261924
     atom    3 type  1   force =     0.00484924    0.00280027    0.01262223
     atom    4 type  2   force =     0.00000026    0.00000186    0.00738742
     atom    5 type  1   force =     0.00000106   -0.00004217   -0.01317282
     atom    6 type  1   force =    -0.00003722    0.00002326   -0.01317316
     atom    7 type  1   force =     0.00003316    0.00002009   -0.01317588
     atom    8 type  2   force =     0.00000539    0.00000095   -0.00958514
     atom    9 type  1   force =     0.00000062    0.00124013    0.00119057
     atom   10 type  1   force =     0.00107220   -0.00061952    0.00118835
     atom   11 type  1   force =    -0.00107516   -0.00062194    0.00118960
     atom   12 type  2   force =     0.00000154   -0.00000327    0.00029089

     Total force =     0.035326     Total SCF correction =     0.000844

     entering subroutine stress ...

     negative rho (up, down):  3.433E-01 0.000E+00
          total   stress  (Ry/bohr**3)                   (kbar)     P=   -7.53
  -0.00005394   0.00000000   0.00000000         -7.94      0.00      0.00
   0.00000000  -0.00005395   0.00000000          0.00     -7.94      0.00
   0.00000000   0.00000000  -0.00004566          0.00      0.00     -6.72

 !ASE

     Writing output data file calc.save

     General routines

     Parallel routines

   This run was terminated on:  23:49:55   1Jan2019

   JOB DONE.
Job  /afs/slac/g/suncat/bin/suncat-tsmpirun -x LD_LIBRARY_PATH -wdir /scratch/qe649195_bppt2 pw.x -in pw.inp

TID   HOST_NAME   COMMAND_LINE            STATUS            TERMINATION_TIME
00000 suncat0058 pw.x -in pw.inp   Done                     01/01/2019 23:49:55
00001 suncat0058 pw.x -in pw.inp   Done                     01/01/2019 23:49:55
00002 suncat0058 pw.x -in pw.inp   Done                     01/01/2019 23:49:55
00003 suncat0058 pw.x -in pw.inp   Done                     01/01/2019 23:49:55
00004 suncat0058 pw.x -in pw.inp   Done                     01/01/2019 23:49:55
00005 suncat0058 pw.x -in pw.inp   Done                     01/01/2019 23:49:55
00006 suncat0058 pw.x -in pw.inp   Done                     01/01/2019 23:49:55
00007 suncat0058 pw.x -in pw.inp   Done                     01/01/2019 23:49:55
00008 suncat0056 pw.x -in pw.inp   Done                     01/01/2019 23:49:55
00009 suncat0056 pw.x -in pw.inp   Done                     01/01/2019 23:49:55
00010 suncat0056 pw.x -in pw.inp   Done                     01/01/2019 23:49:55
00011 suncat0056 pw.x -in pw.inp   Done                     01/01/2019 23:49:55
00012 suncat0056 pw.x -in pw.inp   Done                     01/01/2019 23:49:55
00013 suncat0056 pw.x -in pw.inp   Done                     01/01/2019 23:49:55
00014 suncat0056 pw.x -in pw.inp   Done                     01/01/2019 23:49:55
00015 suncat0056 pw.x -in pw.inp   Done                     01/01/2019 23:49:55
00016 suncat0054 pw.x -in pw.inp   Done                     01/01/2019 23:49:55
00017 suncat0054 pw.x -in pw.inp   Done                     01/01/2019 23:49:55
00018 suncat0054 pw.x -in pw.inp   Done                     01/01/2019 23:49:55
00019 suncat0054 pw.x -in pw.inp   Done                     01/01/2019 23:49:55
00020 suncat0054 pw.x -in pw.inp   Done                     01/01/2019 23:49:55
00021 suncat0054 pw.x -in pw.inp   Done                     01/01/2019 23:49:55
00022 suncat0054 pw.x -in pw.inp   Done                     01/01/2019 23:49:55
00023 suncat0054 pw.x -in pw.inp   Done                     01/01/2019 23:49:55
00024 suncat0052 pw.x -in pw.inp   Done                     01/01/2019 23:49:55
00025 suncat0052 pw.x -in pw.inp   Done                     01/01/2019 23:49:55
00026 suncat0052 pw.x -in pw.inp   Done                     01/01/2019 23:49:55
00027 suncat0052 pw.x -in pw.inp   Done                     01/01/2019 23:49:55
00028 suncat0052 pw.x -in pw.inp   Done                     01/01/2019 23:49:55
00029 suncat0052 pw.x -in pw.inp   Done                     01/01/2019 23:49:55
00030 suncat0052 pw.x -in pw.inp   Done                     01/01/2019 23:49:55
00031 suncat0052 pw.x -in pw.inp   Done                     01/01/2019 23:49:55
00032 suncat0048 pw.x -in pw.inp   Done                     01/01/2019 23:49:55
00033 suncat0048 pw.x -in pw.inp   Done                     01/01/2019 23:49:55
00034 suncat0048 pw.x -in pw.inp   Done                     01/01/2019 23:49:55
00035 suncat0048 pw.x -in pw.inp   Done                     01/01/2019 23:49:55
00036 suncat0048 pw.x -in pw.inp   Done                     01/01/2019 23:49:55
00037 suncat0048 pw.x -in pw.inp   Done                     01/01/2019 23:49:55
00038 suncat0048 pw.x -in pw.inp   Done                     01/01/2019 23:49:55
00039 suncat0048 pw.x -in pw.inp   Done                     01/01/2019 23:49:55
00040 suncat0047 pw.x -in pw.inp   Done                     01/01/2019 23:49:55
00041 suncat0047 pw.x -in pw.inp   Done                     01/01/2019 23:49:55
00042 suncat0047 pw.x -in pw.inp   Done                     01/01/2019 23:49:55
00043 suncat0047 pw.x -in pw.inp   Done                     01/01/2019 23:49:55
00044 suncat0047 pw.x -in pw.inp   Done                     01/01/2019 23:49:55
00045 suncat0047 pw.x -in pw.inp   Done                     01/01/2019 23:49:55
00046 suncat0047 pw.x -in pw.inp   Done                     01/01/2019 23:49:55
00047 suncat0047 pw.x -in pw.inp   Done                     01/01/2019 23:49:55
00048 suncat0121 pw.x -in pw.inp   Done                     01/01/2019 23:49:55
00049 suncat0121 pw.x -in pw.inp   Done                     01/01/2019 23:49:55
00050 suncat0121 pw.x -in pw.inp   Done                     01/01/2019 23:49:55
00051 suncat0121 pw.x -in pw.inp   Done                     01/01/2019 23:49:55
00052 suncat0121 pw.x -in pw.inp   Done                     01/01/2019 23:49:55
00053 suncat0121 pw.x -in pw.inp   Done                     01/01/2019 23:49:55
00054 suncat0121 pw.x -in pw.inp   Done                     01/01/2019 23:49:55
00055 suncat0121 pw.x -in pw.inp   Done                     01/01/2019 23:49:55
00056 suncat0115 pw.x -in pw.inp   Done                     01/01/2019 23:49:55
00057 suncat0115 pw.x -in pw.inp   Done                     01/01/2019 23:49:55
00058 suncat0115 pw.x -in pw.inp   Done                     01/01/2019 23:49:55
00059 suncat0115 pw.x -in pw.inp   Done                     01/01/2019 23:49:55
00060 suncat0115 pw.x -in pw.inp   Done                     01/01/2019 23:49:55
00061 suncat0115 pw.x -in pw.inp   Done                     01/01/2019 23:49:55
00062 suncat0115 pw.x -in pw.inp   Done                     01/01/2019 23:49:55
00063 suncat0115 pw.x -in pw.inp   Done                     01/01/2019 23:49:55