     Program PWSCF v.5.1rc2 (svn rev. 11289) starts on 26Dec2018 at  8:57:26

     Current dimensions of program PWSCF are:
     Max number of different atomic species (ntypx) = 10
     Max number of k-points (npk) =  40000
     Max angular momentum in pseudopotentials (lmaxx) =  3
     Presently stress not available with electric field

     IMPORTANT: XC functional enforced from input :
     Exchange-correlation      = BEEF-VDW ( 1  4 27 13 2)
     Any further DFT definition will be discarded
     Please, verify this is what you really want

     Subspace diagonalization in iterative solution of the eigenvalue problem:
     a serial algorithm will be used

     bravais-lattice index     =            0
     lattice parameter (alat)  =       1.8897  a.u.
     unit-cell volume          =    7031.4965 (a.u.)^3
     number of atoms/cell      =           12
     number of atomic types    =            2
     number of electrons       =       141.00
     number of Kohn-Sham states=          100
     kinetic-energy cutoff     =      36.7493  Ry
     charge density cutoff     =     367.4932  Ry
     convergence threshold     =      1.0E-06
     mixing beta               =       0.1000
     number of iterations used =           10  plain     mixing
     Exchange-correlation      = BEEF-VDW ( 1  4 27 13 2)
     nstep                     =           50

     celldm(1)=   1.889726  celldm(2)=   0.000000  celldm(3)=   0.000000
     celldm(4)=   0.000000  celldm(5)=   0.000000  celldm(6)=   0.000000

     crystal axes: (cart. coord. in units of alat)
               a(1) = (   6.855819   0.000000   0.000000 )
               a(2) = (  -3.427910   5.937313   0.000000 )
               a(3) = (   0.000000   0.000000  25.597753 )

     reciprocal axes: (cart. coord. in units 2 pi/alat)
               b(1) = (  0.145861  0.084213  0.000000 )
               b(2) = (  0.000000  0.168426  0.000000 )
               b(3) = (  0.000000  0.000000  0.039066 )

     PseudoPot. # 1 for Hg read from file:
     /afs/slac.stanford.edu/u/if/mamunm/psp/gbrv1.5pbe/Hg.UPF
     MD5 check sum: 8f42caffe07f7fd9c0a564347f8c5498
     Pseudo is Ultrasoft + core correction, Zval = 12.0
     Generated by new atomic code, or converted to UPF format
     Using radial grid of  985 points,  6 beta functions with:
                l(1) =   0
                l(2) =   0
                l(3) =   1
                l(4) =   1
                l(5) =   2
                l(6) =   2
     Q(r) pseudized with  8 coefficients,  rinner =    2.000   2.000   2.000
                                                       2.000   2.000

     PseudoPot. # 2 for La read from file:
     /afs/slac.stanford.edu/u/if/mamunm/psp/gbrv1.5pbe/La.UPF
     MD5 check sum: 5937b0c7494ba0601a847275249473aa
     Pseudo is Ultrasoft + core correction, Zval = 11.0
     Generated by new atomic code, or converted to UPF format
     Using radial grid of  995 points,  8 beta functions with:
                l(1) =   0
                l(2) =   0
                l(3) =   1
                l(4) =   1
                l(5) =   2
                l(6) =   2
                l(7) =   3
                l(8) =   3
     Q(r) pseudized with  8 coefficients,  rinner =    1.700   1.700   1.700
                                                       1.700   1.700   1.700
                                                       1.700

     vdW kernel table read from file vdW_kernel_table
     MD5 check sum: 095c7af220d748ca6e76c0b4c6cfb241

     atomic species   valence    mass     pseudopotential
        Hg1           12.00   200.59200     Hg( 1.00)
        La1           11.00   138.90547     La( 1.00)

     No symmetry found

   Cartesian axes

     site n.     atom                  positions (alat units)
         1           Hg1 tau(   1) = (   0.0000000   0.0000000  10.0000000  )
         2           Hg1 tau(   2) = (  -1.7139548   2.9686567  10.0000000  )
         3           Hg1 tau(   3) = (   1.7139548   2.9686567  10.0000000  )
         4           La1 tau(   4) = (   3.4279095   0.0000000  10.0000000  )
         5           Hg1 tau(   5) = (   3.4279095   1.9791045  12.7988764  )
         6           Hg1 tau(   6) = (   1.7139548   4.9477612  12.7988764  )
         7           Hg1 tau(   7) = (  -1.7139548   4.9477612  12.7988764  )
         8           La1 tau(   8) = (   0.0000000   1.9791045  12.7988764  )
         9           Hg1 tau(   9) = (  -0.0000000   3.9582090  15.5977528  )
        10           Hg1 tau(  10) = (   1.7139548   0.9895522  15.5977528  )
        11           Hg1 tau(  11) = (   5.1418643   0.9895522  15.5977528  )
        12           La1 tau(  12) = (   3.4279095   3.9582090  15.5977528  )

     number of k points=    20  Fermi-Dirac smearing, width (Ry)=  0.0110
                       cart. coord. in units 2pi/alat
        k(    1) = (   0.0000000   0.0000000   0.0000000), wk =   0.0555556
        k(    2) = (   0.0000000   0.0280711   0.0000000), wk =   0.1111111
        k(    3) = (   0.0000000   0.0561421   0.0000000), wk =   0.1111111
        k(    4) = (   0.0000000  -0.0842132   0.0000000), wk =   0.0555556
        k(    5) = (   0.0243102   0.0140355   0.0000000), wk =   0.1111111
        k(    6) = (   0.0243102   0.0421066   0.0000000), wk =   0.1111111
        k(    7) = (   0.0243102   0.0701776   0.0000000), wk =   0.1111111
        k(    8) = (   0.0243102  -0.0701776   0.0000000), wk =   0.1111111
        k(    9) = (   0.0243102  -0.0421066   0.0000000), wk =   0.1111111
        k(   10) = (   0.0243102  -0.0140355   0.0000000), wk =   0.1111111
        k(   11) = (   0.0486205   0.0280711   0.0000000), wk =   0.1111111
        k(   12) = (   0.0486205   0.0561421   0.0000000), wk =   0.1111111
        k(   13) = (   0.0486205   0.0842132   0.0000000), wk =   0.1111111
        k(   14) = (   0.0486205  -0.0561421   0.0000000), wk =   0.1111111
        k(   15) = (   0.0486205  -0.0280711   0.0000000), wk =   0.1111111
        k(   16) = (   0.0486205   0.0000000   0.0000000), wk =   0.1111111
        k(   17) = (  -0.0729307  -0.0421066   0.0000000), wk =   0.0555556
        k(   18) = (  -0.0729307  -0.0140355   0.0000000), wk =   0.1111111
        k(   19) = (  -0.0729307   0.0140355   0.0000000), wk =   0.1111111
        k(   20) = (  -0.0729307  -0.1263198   0.0000000), wk =   0.0555556

     Largest allocated arrays     est. size (Mb)     dimensions
     Largest temporary arrays     est. size (Mb)     dimensions

     Initial potential from superposition of free atoms
     Check: negative starting charge=   -0.214387

     starting charge  140.90327, renormalised to  141.00000

     negative rho (up, down):  2.145E-01 0.000E+00

     *
     * You are using vdW-DF for exchange-correlation in this calculation.
     * Please cite the following three references that made this development
     * possible:
     *
     *   M. Dion, H. Rydberg, E. Schroder, D. C. Langreth, and
     *   B. I. Lundqvist, Phys. Rev. Lett. 92, 246401 (2004).
     *
     *   T. Thonhauser, V. R. Cooper, S. Li, A. Puzder, P. Hyldgaard, and
     *   D. C. Langreth, Phys. Rev. B 76, 125112 (2007).
     *
     *   G. Roman-Perez and J. M. Soler, Phys. Rev. Lett. 103, 096102 (2009).
     *
     *
     * If you are using vdW-DF2, please also cite:
     *
     *   K. Lee, E. D. Murray, L. Kong, B. I. Lundqvist, and
     *   D. C. Langreth, Phys. Rev. B 82, 081101(R) (2010).
     *
     *
     * If you are calculating the stress with vdW-DF, please also cite:
     *
     *   R. Sabatini, E. Kucukbenli, B. Kolb, T. Thonhauser, and
     *   S. de Gironcoli, J. Phys.: Condens. Matter 24, 424209 (2012).
     *

     Carrying out vdW-DF run using the following parameters:

     Nqs =      20    Nr_points =    1024   r_max =   100.000
     q_mesh =
               0.00001000     0.04494208     0.09755937     0.15916263
               0.23128650     0.31572767     0.41458969     0.53033537
               0.66584808     0.82450364     1.01025438     1.22772762
               1.48234092     1.78043706     2.12944203     2.53805004
               3.01644009     3.57652955     4.23227104     5.00000000

     Gradients computed in reciprocal space

     Adding external electric field

     Computed dipole along edir(3) :
        Dipole               -0.0000 Ry au,         -0.0000 Debye
        Dipole field         -0.0000 Ry au

        Potential amp.        0.0000 Ry
        Total length         47.1634 bohr

     Starting wfc are  141 randomized atomic wfcs

     Self-consistent Calculation

     iteration #  1     ecut=    36.75 Ry     beta=0.10
     Davidson diagonalization with overlap
     ethr =  1.00E-02,  avg # of iterations =  2.0

[...]

     total energy              =   -1293.00689844 Ry
     Harris-Foulkes estimate   =   -1294.62423822 Ry
     estimated scf accuracy    <       8.81070819 Ry

[...]

     End of self-consistent calculation

          k = 0.0000 0.0000 0.0000 ( 26529 PWs)   bands (ev):

   -32.7838 -32.7836 -32.5382 -16.4062 -16.3950 -16.3111 -16.3111 -16.3093
   -16.3093 -16.1715 -16.0975 -16.0975  -6.4285  -6.4076  -6.4076  -6.3685
    -6.3604  -6.3258  -6.3171  -6.2963  -6.2963  -6.2943  -6.2943  -6.2818
    -6.2818  -6.1833  -6.0761  -6.0674  -6.0674  -6.0218  -5.9947  -5.9947
    -5.9810  -5.8489  -5.8489  -5.8316  -5.8316  -5.8264  -5.7955  -5.7955
    -5.7844  -5.7196  -5.6911  -5.6910  -5.5914  -5.5914  -5.5685  -5.5685
    -5.5189  -5.5189  -5.4267  -5.4006  -5.4006  -5.2780  -5.2744  -5.2730
    -5.2730  -5.2046  -4.6830  -3.1423  -2.1403  -2.1403  -1.7171  -1.7171
    -1.0495  -1.0495   0.1097   0.4752   0.8284   1.1863   1.2001   1.2001
     1.7860   1.8726   1.8726   1.9075   1.9075   2.1153   2.1153   2.1567
     2.1804   2.1830   2.1830   2.1940   2.2019   2.3203   2.3203   2.3632
     2.3841   2.3955   2.3955   2.4213   2.5123   2.5201   2.5201   2.5691
     2.5691   2.6151   2.8334   2.8334

[...]

          k =-0.0729-0.0421 0.0000 ( 26398 PWs)   bands (ev):

[...]

     the Fermi energy is     1.2606 ev

!    total energy              =   -1294.25365642 Ry
     Harris-Foulkes estimate   =   -1294.25366433 Ry
     estimated scf accuracy    <       0.00000054 Ry

     The total energy is the sum of the following terms:

     one-electron contribution =   -6639.49410573 Ry
     hartree contribution      =    3391.41682846 Ry
     xc contribution           =    -515.90562391 Ry
     ewald contribution        =    2469.80362246 Ry
     electric field correction =       0.00000000 Ry
     smearing contrib. (-TS)   =      -0.07437771 Ry

     convergence has been achieved in  17 iterations

 BEEF-vdW xc energy contributions
           1 :   -453.687524596250
           2 :    417.128538916747
           3 :   -353.411086203318
           4 :    277.453290803319
           5 :   -204.256048423366
           6 :    144.455612408645
           7 :   -102.317033981175
           8 :    76.2971722151205
           9 :   -61.3968100501463
          10 :    52.0213244485375
          11 :   -44.1080393315787
          12 :    35.8550269872954
          13 :   -27.2179801409645
          14 :    18.8808177327295
          15 :   -11.4238102439840
[...]

     PseudoPot. # 1 for Hg read from file:
     /afs/slac.stanford.edu/u/if/mamunm/psp/gbrv1.5pbe/Hg.UPF
     MD5 check sum: 8f42caffe07f7fd9c0a564347f8c5498
     Pseudo is Ultrasoft + core correction, Zval = 12.0
     Generated by new atomic code, or converted to UPF format
     Using radial grid of  985 points,  6 beta functions with:
                l(1) =   0
                l(2) =   0
                l(3) =   1
                l(4) =   1
                l(5) =   2
                l(6) =   2
     Q(r) pseudized with  8 coefficients,  rinner =    2.000   2.000   2.000
                                                       2.000   2.000

     PseudoPot. # 2 for La read from file:
     /afs/slac.stanford.edu/u/if/mamunm/psp/gbrv1.5pbe/La.UPF
     MD5 check sum: 5937b0c7494ba0601a847275249473aa
     Pseudo is Ultrasoft + core correction, Zval = 11.0
     Generated by new atomic code, or converted to UPF format
     Using radial grid of  995 points,  8 beta functions with:
                l(1) =   0
                l(2) =   0
                l(3) =   1
                l(4) =   1
                l(5) =   2
                l(6) =   2
                l(7) =   3
                l(8) =   3
     Q(r) pseudized with  8 coefficients,  rinner =    1.700   1.700   1.700
                                                       1.700   1.700   1.700
                                                       1.700

     vdW kernel table read from file vdW_kernel_table
     MD5 check sum: 095c7af220d748ca6e76c0b4c6cfb241

     atomic species   valence    mass     pseudopotential
        Hg1           12.00   200.59200     Hg( 1.00)
        La1           11.00   138.90547     La( 1.00)

     No symmetry found

   Cartesian axes

     site n.     atom                  positions (alat units)
         1           Hg1 tau(   1) = (   0.0000000   0.0000000  10.0000000  )
         2           Hg1 tau(   2) = (  -1.7139548   2.9686567  10.0000000  )
         3           Hg1 tau(   3) = (   1.7139548   2.9686567  10.0000000  )
         4           La1 tau(   4) = (   3.4279095   0.0000000  10.0000000  )
         5           Hg1 tau(   5) = (   3.4279095   1.9791045  12.7988764  )
         6           Hg1 tau(   6) = (   1.7139548   4.9477612  12.7988764  )
         7           Hg1 tau(   7) = (  -1.7139548   4.9477612  12.7988764  )
         8           La1 tau(   8) = (   0.0000000   1.9791045  12.7988764  )
         9           Hg1 tau(   9) = (   0.0000062   4.0214010  15.6020976  )
        10           Hg1 tau(  10) = (   1.7686942   0.9579599  15.6020937  )
        11           Hg1 tau(  11) = (   5.0871293   0.9579538  15.6020917  )
        12           La1 tau(  12) = (   3.4279104   3.9582113  15.4508441  )

     number of k points=    20  Fermi-Dirac smearing, width (Ry)=  0.0110
                       cart. coord. in units 2pi/alat
        k(    1) = (   0.0000000   0.0000000   0.0000000), wk =   0.0555556
        k(    2) = (   0.0000000   0.0280711   0.0000000), wk =   0.1111111
        k(    3) = (   0.0000000   0.0561421   0.0000000), wk =   0.1111111
        k(    4) = (   0.0000000  -0.0842132   0.0000000), wk =   0.0555556
        k(    5) = (   0.0243102   0.0140355   0.0000000), wk =   0.1111111
        k(    6) = (   0.0243102   0.0421066   0.0000000), wk =   0.1111111
        k(    7) = (   0.0243102   0.0701776   0.0000000), wk =   0.1111111
        k(    8) = (   0.0243102  -0.0701776   0.0000000), wk =   0.1111111
        k(    9) = (   0.0243102  -0.0421066   0.0000000), wk =   0.1111111
        k(   10) = (   0.0243102  -0.0140355   0.0000000), wk =   0.1111111
        k(   11) = (   0.0486205   0.0280711   0.0000000), wk =   0.1111111
        k(   12) = (   0.0486205   0.0561421   0.0000000), wk =   0.1111111
        k(   13) = (   0.0486205   0.0842132   0.0000000), wk =   0.1111111
        k(   14) = (   0.0486205  -0.0561421   0.0000000), wk =   0.1111111
        k(   15) = (   0.0486205  -0.0280711   0.0000000), wk =   0.1111111
        k(   16) = (   0.0486205   0.0000000   0.0000000), wk =   0.1111111
        k(   17) = (  -0.0729307  -0.0421066   0.0000000), wk =   0.0555556
        k(   18) = (  -0.0729307  -0.0140355   0.0000000), wk =   0.1111111
        k(   19) = (  -0.0729307   0.0140355   0.0000000), wk =   0.1111111
        k(   20) = (  -0.0729307  -0.1263198   0.0000000), wk =   0.0555556

     Largest allocated arrays     est. size (Mb)     dimensions
     Largest temporary arrays     est. size (Mb)     dimensions

     Initial potential from superposition of free atoms
     Check: negative starting charge=   -0.214307

     starting charge  140.90327, renormalised to  141.00000

[...]

     *
     * You are using vdW-DF for exchange-correlation in this calculation.
     * Please cite the following three references that made this development
     * possible:
     *
     *   M. Dion, H. Rydberg, E. Schroder, D. C. Langreth, and
     *   B. I. Lundqvist, Phys. Rev. Lett. 92, 246401 (2004).
     *
     *   T. Thonhauser, V. R. Cooper, S. Li, A. Puzder, P. Hyldgaard, and
     *   D. C. Langreth, Phys. Rev. B 76, 125112 (2007).
     *
     *   G. Roman-Perez and J. M. Soler, Phys. Rev. Lett. 103, 096102 (2009).
     *
     *
     * If you are using vdW-DF2, please also cite:
     *
     *   K. Lee, E. D. Murray, L. Kong, B. I. Lundqvist, and
     *   D. C. Langreth, Phys. Rev. B 82, 081101(R) (2010).
     *
     *
     * If you are calculating the stress with vdW-DF, please also cite:
     *
     *   R. Sabatini, E. Kucukbenli, B. Kolb, T. Thonhauser, and
     *   S. de Gironcoli, J. Phys.: Condens. Matter 24, 424209 (2012).
     *

     Carrying out vdW-DF run using the following parameters:

     Nqs =      20    Nr_points =    1024   r_max =   100.000
     q_mesh =
               0.00001000     0.04494208     0.09755937     0.15916263
               0.23128650     0.31572767     0.41458969     0.53033537
               0.66584808     0.82450364     1.01025438     1.22772762
               1.48234092     1.78043706     2.12944203     2.53805004
               3.01644009     3.57652955     4.23227104     5.00000000

     Gradients computed in reciprocal space

[...]

     Starting wfc are  141 randomized atomic wfcs

     Self-consistent Calculation

[...]

     total energy              =   -1294.25582610 Ry
     Harris-Foulkes estimate   =   -1294.25582742 Ry
     estimated scf accuracy    <       0.00000317 Ry

     iteration # 17     ecut=    36.75 Ry     beta=0.10
     Davidson diagonalization with overlap
     ethr =  2.25E-09,  avg # of iterations =  3.5

[...]

     negative rho (up, down):  1.346E-01 0.000E+00

     Adding external electric field

     Computed dipole along edir(3) :
        Dipole               -0.0522 Ry au,         -0.1328 Debye
        Dipole field         -0.0001 Ry au

        Potential amp.        0.0088 Ry
        Total length         47.1634 bohr

     End of self-consistent calculation

[...]

          k = 0.0486 0.0000 0.0000 ( 26485 PWs)   bands (ev):

[...]

          k =-0.0729-0.1263 0.0000 ( 26398 PWs)   bands (ev):

   -32.8149 -32.7410 -32.5640 -16.4356 -16.3788 -16.3625 -16.3498 -16.3057
   -16.2907 -16.1867 -16.1393 -16.1256  -6.3694  -6.3466  -6.2961  -6.2589
    -6.2400  -6.2287  -6.2016  -6.1906  -6.1592  -6.1531  -6.1420  -6.1167
    -6.0748  -6.0658  -6.0384  -6.0241  -6.0190  -5.9894  -5.9473  -5.9327
    -5.9183  -5.9075  -5.8995  -5.8970  -5.8532  -5.8359  -5.8271  -5.8262
    -5.8185  -5.7950  -5.7648  -5.7316  -5.7267  -5.7193  -5.7141  -5.6910
    -5.6780  -5.6706  -5.6583  -5.6414  -5.6278  -5.5562  -5.4597  -5.3891
    -5.2884  -4.7881  -4.6397  -3.8058  -3.4723  -2.7520  -2.3748  -2.2596
    -1.7460  -0.7645  -0.3167   0.1481   0.7556   1.1356   1.2822   1.3233
     1.4664   1.4802   1.8852   2.0546   2.1233   2.1363   2.1719   2.1857
     2.1978   2.1989   2.2028   2.2288   2.2345   2.2435   2.2616   2.2831
     2.3127   2.3247   2.3788   2.4131   2.4475   2.4496   2.4878   2.5035
     2.5305   2.5410   2.8093   3.4124

     the Fermi energy is     1.2313 ev

!    total energy              =   -1294.25581916 Ry
     Harris-Foulkes estimate   =   -1294.25582605 Ry
     estimated scf accuracy    <       0.00000053 Ry

     The total energy is the sum of the following terms:

     one-electron contribution =   -6669.38025026 Ry
     hartree contribution      =    3406.18460723 Ry
     xc contribution           =    -515.93057548 Ry
     ewald contribution        =    2484.94463894 Ry
     electric field correction =       0.00000488 Ry
     smearing contrib. (-TS)   =      -0.07424447 Ry

     convergence has been achieved in  17 iterations

 BEEF-vdW xc energy contributions
           1 :   -453.715600421477
           2 :    417.177413049801
           3 :   -353.485214179899
           4 :    277.532438204713
           5 :   -204.304994060336
           6 :    144.447211736426
           7 :   -102.251733567486
           8 :    76.2060621268430
           9 :   -61.3256779286820
          10 :    52.0040895293408
          11 :   -44.1464233920212
          12 :    35.9186619782167
          13 :   -27.2644209044589
          14 :    18.8818051530110
          15 :   -11.3814671995663
          16 :    4.97829592137873
          17 :   0.353717877111876
          18 :   -4.58590561880709
          19 :    7.50078604156965
          20 :   -8.82438468799899
          21 :    8.50620292626775
          22 :   -6.93198126974170
          23 :    4.90432749551883
          24 :   -3.37433250620791
          25 :    3.05154552620866
          26 :   -4.09436561316397
          27 :    6.04136234540948
          28 :   -8.02335664465943
          29 :    9.15737341225622
          30 :   -8.94318023385949
          31 :   -41.0636918984761
          32 :   -29.9059521657113

     Forces acting on atoms (Ry/au):

     negative rho (up, down):  1.346E-01 0.000E+00
     atom    1 type  1   force =    -0.00000128   -0.00489175    0.00007674
     atom    2 type  1   force =    -0.00423629    0.00244590    0.00007723
     atom    3 type  1   force =     0.00423559    0.00244568    0.00007594
     atom    4 type  2   force =     0.00000044    0.00000025    0.00913736
     atom    5 type  1   force =     0.00000085   -0.00300356   -0.00459622
     atom    6 type  1   force =    -0.00260092    0.00150239   -0.00459693
     atom    7 type  1   force =     0.00260207    0.00150208   -0.00459650
     atom    8 type  2   force =     0.00000009   -0.00000038    0.00353122
     atom    9 type  1   force =    -0.00000070   -0.00116114   -0.00013546
     atom   10 type  1   force =    -0.00100607    0.00057924   -0.00013645
     atom   11 type  1   force =     0.00100624    0.00058091   -0.00013547
     atom   12 type  2   force =    -0.00000002    0.00000039    0.00129853

     Total force =     0.016248     Total SCF correction =     0.001541

     entering subroutine stress ...

     negative rho (up, down):  1.346E-01 0.000E+00
          total   stress  (Ry/bohr**3)                   (kbar)     P=   -1.05
  -0.00000738  -0.00000000   0.00000000         -1.09     -0.00      0.00
  -0.00000000  -0.00000738   0.00000000         -0.00     -1.09      0.00
   0.00000000   0.00000000  -0.00000657          0.00      0.00     -0.97

 !ASE

     Writing output data file calc.save

     General routines

     Parallel routines

   This run was terminated on:   9:58:13  26Dec2018

   JOB DONE.
Job  /afs/slac/g/suncat/bin/suncat-tsmpirun -x LD_LIBRARY_PATH -wdir /scratch/qe109809_QKdD0 pw.x -in pw.inp

TID   HOST_NAME   COMMAND_LINE            STATUS            TERMINATION_TIME
00000 suncat0079 pw.x -in pw.inp   Done                     12/26/2018 09:58:13
00001 suncat0079 pw.x -in pw.inp   Done                     12/26/2018 09:58:13
00002 suncat0079 pw.x -in pw.inp   Done                     12/26/2018 09:58:13
00003 suncat0079 pw.x -in pw.inp   Done                     12/26/2018 09:58:13
00004 suncat0079 pw.x -in pw.inp   Done                     12/26/2018 09:58:13
00005 suncat0079 pw.x -in pw.inp   Done                     12/26/2018 09:58:13
00006 suncat0079 pw.x -in pw.inp   Done                     12/26/2018 09:58:13
00007 suncat0079 pw.x -in pw.inp   Done                     12/26/2018 09:58:13
00008 suncat0054 pw.x -in pw.inp   Done                     12/26/2018 09:58:13
00009 suncat0054 pw.x -in pw.inp   Done                     12/26/2018 09:58:13
00010 suncat0054 pw.x -in pw.inp   Done                     12/26/2018 09:58:13
00011 suncat0054 pw.x -in pw.inp   Done                     12/26/2018 09:58:13
00012 suncat0054 pw.x -in pw.inp   Done                     12/26/2018 09:58:13
00013 suncat0054 pw.x -in pw.inp   Done                     12/26/2018 09:58:13
00014 suncat0054 pw.x -in pw.inp   Done                     12/26/2018 09:58:13
00015 suncat0054 pw.x -in pw.inp   Done                     12/26/2018 09:58:13
00016 suncat0007 pw.x -in pw.inp   Done                     12/26/2018 09:58:13
00017 suncat0007 pw.x -in pw.inp   Done                     12/26/2018 09:58:13
00018 suncat0007 pw.x -in pw.inp   Done                     12/26/2018 09:58:13
00019 suncat0007 pw.x -in pw.inp   Done                     12/26/2018 09:58:13
00020 suncat0007 pw.x -in pw.inp   Done                     12/26/2018 09:58:13
00021 suncat0007 pw.x -in pw.inp   Done                     12/26/2018 09:58:13
00022 suncat0007 pw.x -in pw.inp   Done                     12/26/2018 09:58:13
00023 suncat0007 pw.x -in pw.inp   Done                     12/26/2018 09:58:13
00024 suncat0006 pw.x -in pw.inp   Done                     12/26/2018 09:58:13
00025 suncat0006 pw.x -in pw.inp   Done                     12/26/2018 09:58:13
00026 suncat0006 pw.x -in pw.inp   Done                     12/26/2018 09:58:13
00027 suncat0006 pw.x -in pw.inp   Done                     12/26/2018 09:58:13
00028 suncat0006 pw.x -in pw.inp   Done                     12/26/2018 09:58:13
00029 suncat0006 pw.x -in pw.inp   Done                     12/26/2018 09:58:13
00030 suncat0006 pw.x -in pw.inp   Done                     12/26/2018 09:58:13
00031 suncat0006 pw.x -in pw.inp   Done                     12/26/2018 09:58:13
00032 suncat0005 pw.x -in pw.inp   Done                     12/26/2018 09:58:13
00033 suncat0005 pw.x -in pw.inp   Done                     12/26/2018 09:58:13
00034 suncat0005 pw.x -in pw.inp   Done                     12/26/2018 09:58:13
00035 suncat0005 pw.x -in pw.inp   Done                     12/26/2018 09:58:13
00036 suncat0005 pw.x -in pw.inp   Done                     12/26/2018 09:58:13
00037 suncat0005 pw.x -in pw.inp   Done                     12/26/2018 09:58:13
00038 suncat0005 pw.x -in pw.inp   Done                     12/26/2018 09:58:13
00039 suncat0005 pw.x -in pw.inp   Done                     12/26/2018 09:58:13
00040 suncat0262 pw.x -in pw.inp   Done                     12/26/2018 09:58:13
00041 suncat0262 pw.x -in pw.inp   Done                     12/26/2018 09:58:13
00042 suncat0262 pw.x -in pw.inp   Done                     12/26/2018 09:58:13
00043 suncat0262 pw.x -in pw.inp   Done                     12/26/2018 09:58:13
00044 suncat0262 pw.x -in pw.inp   Done                     12/26/2018 09:58:13
00045 suncat0262 pw.x -in pw.inp   Done                     12/26/2018 09:58:13
00046 suncat0262 pw.x -in pw.inp   Done                     12/26/2018 09:58:13
00047 suncat0262 pw.x -in pw.inp   Done                     12/26/2018 09:58:13
00048 suncat0258 pw.x -in pw.inp   Done                     12/26/2018 09:58:13
00049 suncat0258 pw.x -in pw.inp   Done                     12/26/2018 09:58:13
00050 suncat0258 pw.x -in pw.inp   Done                     12/26/2018 09:58:13
00051 suncat0258 pw.x -in pw.inp   Done                     12/26/2018 09:58:13
00052 suncat0258 pw.x -in pw.inp   Done                     12/26/2018 09:58:13
00053 suncat0258 pw.x -in pw.inp   Done                     12/26/2018 09:58:13
00054 suncat0258 pw.x -in pw.inp   Done                     12/26/2018 09:58:13
00055 suncat0258 pw.x -in pw.inp   Done                     12/26/2018 09:58:13
00056 suncat0257 pw.x -in pw.inp   Done                     12/26/2018 09:58:13
00057 suncat0257 pw.x -in pw.inp   Done                     12/26/2018 09:58:13
00058 suncat0257 pw.x -in pw.inp   Done                     12/26/2018 09:58:13
00059 suncat0257 pw.x -in pw.inp   Done                     12/26/2018 09:58:13
00060 suncat0257 pw.x -in pw.inp   Done                     12/26/2018 09:58:13
00061 suncat0257 pw.x -in pw.inp   Done                     12/26/2018 09:58:13
00062 suncat0257 pw.x -in pw.inp   Done                     12/26/2018 09:58:13
00063 suncat0257 pw.x -in pw.inp   Done                     12/26/2018 09:58:13