     Program PWSCF v.5.1rc2 (svn rev. 11289) starts on 26Dec2018 at 17:46:22

     Current dimensions of program PWSCF are:
     Max number of different atomic species (ntypx) = 10
     Max number of k-points (npk) =  40000
     Max angular momentum in pseudopotentials (lmaxx) =  3
     Presently stress not available with electric field

     IMPORTANT: XC functional enforced from input :
     Exchange-correlation      = BEEF-VDW ( 1  4 27 13 2)
     Any further DFT definition will be discarded
     Please, verify this is what you really want

     Subspace diagonalization in iterative solution of the eigenvalue problem:
     a serial algorithm will be used

     bravais-lattice index     =            0
     lattice parameter (alat)  =       1.8897  a.u.
     unit-cell volume          =    7004.2521 (a.u.)^3
     number of atoms/cell      =           12
     number of atomic types    =            2
     number of electrons       =       144.00
     number of Kohn-Sham states=          102
     kinetic-energy cutoff     =      36.7493  Ry
     charge density cutoff     =     367.4932  Ry
     convergence threshold     =      1.0E-06
     mixing beta               =       0.1000
     number of iterations used =           10  plain     mixing
     Exchange-correlation      = BEEF-VDW ( 1  4 27 13 2)
     nstep                     =           50

     celldm(1)=   1.889726  celldm(2)=   0.000000  celldm(3)=   0.000000
     celldm(4)=   0.000000  celldm(5)=   0.000000  celldm(6)=   0.000000

     crystal axes: (cart. coord. in units of alat)
               a(1) = (   6.843833   0.000000   0.000000 )
               a(2) = (  -3.421916   5.926933   0.000000 )
               a(3) = (   0.000000   0.000000  25.587966 )

     reciprocal axes: (cart. coord. in units 2 pi/alat)
               b(1) = (  0.146117  0.084361  0.000000 )
               b(2) = (  0.000000  0.168721  0.000000 )
               b(3) = (  0.000000  0.000000  0.039081 )

     PseudoPot. # 1 for La read from file:
     /afs/slac.stanford.edu/u/if/mamunm/psp/gbrv1.5pbe/La.UPF
     MD5 check sum: 5937b0c7494ba0601a847275249473aa
     Pseudo is Ultrasoft + core correction, Zval = 11.0
     Generated by new atomic code, or converted to UPF format
     Using radial grid of  995 points,  8 beta functions with:
                l(1) =   0
                l(2) =   0
                l(3) =   1
                l(4) =   1
                l(5) =   2
                l(6) =   2
                l(7) =   3
                l(8) =   3
     Q(r) pseudized with  8 coefficients,  rinner =    1.700   1.700   1.700
                                                       1.700   1.700   1.700
                                                       1.700

     PseudoPot. # 2 for Tc read from file:
     /afs/slac.stanford.edu/u/if/mamunm/psp/gbrv1.5pbe/Tc.UPF
     MD5 check sum: 9eb49e5b028550b2339a02317eb7b844
     Pseudo is Ultrasoft + core correction, Zval = 15.0
     Generated by new atomic code, or converted to UPF format
     Using radial grid of  965 points,  6 beta functions with:
                l(1) =   0
                l(2) =   0
                l(3) =   1
                l(4) =   1
                l(5) =   2
                l(6) =   2
     Q(r) pseudized with  8 coefficients,  rinner =    1.300   1.300   1.300
                                                       1.300   1.300

     vdW kernel table read from file vdW_kernel_table
     MD5 check sum: 095c7af220d748ca6e76c0b4c6cfb241

     atomic species   valence    mass     pseudopotential
        La1           11.00   138.90547     La( 1.00)
        Tc1           15.00    97.90721     Tc( 1.00)

     No symmetry found

   Cartesian axes

     site n.     atom                  positions (alat units)
         1           La1 tau(   1) = (   0.0000000   0.0000000  10.0000000  )
         2           La1 tau(   2) = (  -1.7109582   2.9634665  10.0000000  )
         3           La1 tau(   3) = (   1.7109582   2.9634665  10.0000000  )
         4           Tc1 tau(   4) = (   3.4219164   0.0000000  10.0000000  )
         5           La1 tau(   5) = (   3.4219164   1.9756443  12.7939830  )
         6           La1 tau(   6) = (   1.7109582   4.9391108  12.7939830  )
         7           La1 tau(   7) = (  -1.7109582   4.9391108  12.7939830  )
         8           Tc1 tau(   8) = (   0.0000000   1.9756443  12.7939830  )
         9           La1 tau(   9) = (  -0.0000000   3.9512887  15.5879660  )
        10           La1 tau(  10) = (   1.7109582   0.9878222  15.5879660  )
        11           La1 tau(  11) = (   5.1328745   0.9878222  15.5879660  )
        12           Tc1 tau(  12) = (   3.4219164   3.9512887  15.5879660  )

     number of k points=    20  Fermi-Dirac smearing, width (Ry)=  0.0110
                       cart. coord. in units 2pi/alat
        k(    1) = (   0.0000000   0.0000000   0.0000000), wk =   0.0555556
        k(    2) = (   0.0000000   0.0281202   0.0000000), wk =   0.1111111
        k(    3) = (   0.0000000   0.0562404   0.0000000), wk =   0.1111111
        k(    4) = (   0.0000000  -0.0843607   0.0000000), wk =   0.0555556
        k(    5) = (   0.0243528   0.0140601   0.0000000), wk =   0.1111111
        k(    6) = (   0.0243528   0.0421803   0.0000000), wk =   0.1111111
        k(    7) = (   0.0243528   0.0703006   0.0000000), wk =   0.1111111
        k(    8) = (   0.0243528  -0.0703006   0.0000000), wk =   0.1111111
        k(    9) = (   0.0243528  -0.0421803   0.0000000), wk =   0.1111111
        k(   10) = (   0.0243528  -0.0140601   0.0000000), wk =   0.1111111
        k(   11) = (   0.0487057   0.0281202   0.0000000), wk =   0.1111111
        k(   12) = (   0.0487057   0.0562404   0.0000000), wk =   0.1111111
        k(   13) = (   0.0487057   0.0843607   0.0000000), wk =   0.1111111
        k(   14) = (   0.0487057  -0.0562404   0.0000000), wk =   0.1111111
        k(   15) = (   0.0487057  -0.0281202   0.0000000), wk =   0.1111111
        k(   16) = (   0.0487057   0.0000000   0.0000000), wk =   0.1111111
        k(   17) = (  -0.0730585  -0.0421803   0.0000000), wk =   0.0555556
        k(   18) = (  -0.0730585  -0.0140601   0.0000000), wk =   0.1111111
        k(   19) = (  -0.0730585   0.0140601   0.0000000), wk =   0.1111111
        k(   20) = (  -0.0730585  -0.1265410   0.0000000), wk =   0.0555556

     Largest allocated arrays     est. size (Mb)     dimensions
     Largest temporary arrays     est. size (Mb)     dimensions

     Check: negative/imaginary core charge=   -0.000007    0.000000

     Initial potential from superposition of free atoms
     Check: negative starting charge=   -0.996937

     starting charge  140.71130, renormalised to  144.00000

     negative rho (up, down):  1.020E+00 0.000E+00

     *
     * You are using vdW-DF for exchange-correlation in this calculation.
     * Please cite the following three references that made this development
     * possible:
     *
     *   M. Dion, H. Rydberg, E. Schroder, D. C. Langreth, and
     *   B. I. Lundqvist, Phys. Rev. Lett. 92, 246401 (2004).
     *
     *   T. Thonhauser, V. R. Cooper, S. Li, A. Puzder, P. Hyldgaard, and
     *   D. C. Langreth, Phys. Rev. B 76, 125112 (2007).
     *
     *   G. Roman-Perez and J. M. Soler, Phys. Rev. Lett. 103, 096102 (2009).
     *
     *
     * If you are using vdW-DF2, please also cite:
     *
     *   K. Lee, E. D. Murray, L. Kong, B. I. Lundqvist, and
     *   D. C. Langreth, Phys. Rev. B 82, 081101(R) (2010).
     *
     *
     * If you are calculating the stress with vdW-DF, please also cite:
     *
     *   R. Sabatini, E. Kucukbenli, B. Kolb, T. Thonhauser, and
     *   S. de Gironcoli, J. Phys.: Condens. Matter 24, 424209 (2012).
     *

     Carrying out vdW-DF run using the following parameters:

     Nqs =      20    Nr_points =    1024   r_max =   100.000
     q_mesh =
               0.00001000     0.04494208     0.09755937     0.15916263
               0.23128650     0.31572767     0.41458969     0.53033537
               0.66584808     0.82450364     1.01025438     1.22772762
               1.48234092     1.78043706     2.12944203     2.53805004
               3.01644009     3.57652955     4.23227104     5.00000000

     Gradients computed in reciprocal space

     Adding external electric field

     Computed dipole along edir(3) :
        Dipole               -0.0000 Ry au,         -0.0000 Debye
        Dipole field         -0.0000 Ry au

        Potential amp.        0.0000 Ry
        Total length         47.1454 bohr

     Starting wfc are  219 randomized atomic wfcs

     Self-consistent Calculation

     iteration #  1     ecut=    36.75 Ry     beta=0.10
     Davidson diagonalization with overlap
     ethr =  1.00E-02,  avg # of iterations =  2.0

[...]

     total energy              =   -1461.22339822 Ry
     Harris-Foulkes estimate   =   -1462.67253866 Ry
     estimated scf accuracy    <       8.20019219 Ry

[...]

     iteration #  8     ecut=    36.75 Ry     beta=0.10
     Davidson diagonalization with overlap
     c_bands:  1 eigenvalues not converged
     ethr =  7.54E-05,  avg # of iterations = 14.2

[...]

     End of self-consistent calculation

          k = 0.0000 0.0000 0.0000 ( 26373 PWs)   bands (ev):

   -64.0324 -63.8719 -63.8718 -36.0364 -36.0364 -36.0312 -35.9004 -35.9004
   -35.9002 -35.9002 -35.8741 -35.8739 -30.9938 -30.9620 -30.7157 -30.7157
   -30.7080 -30.7080 -30.5256 -30.2923 -30.2923 -15.7845 -15.6101 -15.3046
   -15.0765 -15.0765 -14.9259 -14.9061 -14.9061 -14.8769 -14.8769 -14.6741
   -14.3929 -14.3928 -14.1171 -14.1171 -13.9767 -13.8794 -13.7616 -13.7327
   -13.7327 -13.6814 -13.6814 -13.6272 -13.6272 -13.4163 -13.2941 -13.2940
    -1.0706  -0.5500  -0.3155  -0.3031   0.1301   0.1302   0.3592   0.4070
     0.5148   0.5148   0.5322   0.6025   0.6025   0.6600   0.6600   1.2873
     1.4394   1.4394   1.7767   1.7767   1.8643   2.0064   2.2858   2.6821
     2.7401   2.8051   2.8051   2.9630   2.9630   3.0853   3.0853   3.3739
     3.3739   3.5150   3.5150   3.5673   3.6054   3.6878   3.7406   3.7479
     3.7480   3.7517   3.7970   3.7971   3.8004   3.9075   3.9075   3.9253
     3.9884   4.0165   4.0169   4.0530   4.0628   4.0630

[...]

          k =-0.0731-0.0422 0.0000 ( 26334 PWs)   bands (ev):

[...]

     the Fermi energy is     2.2385 ev

!    total energy              =   -1461.70577954 Ry
     Harris-Foulkes estimate   =   -1461.70577449 Ry
     estimated scf accuracy    <       0.00000080 Ry

     The total energy is the sum of the following terms:

     one-electron contribution =   -6996.31827460 Ry
     hartree contribution      =    3509.65431220 Ry
     xc contribution           =    -556.47092503 Ry
     ewald contribution        =    2581.53733927 Ry
     electric field correction =       0.00000000 Ry
     smearing contrib. (-TS)   =      -0.10823138 Ry

     convergence has been achieved in  22 iterations

 BEEF-vdW xc energy contributions
           1 :   -492.242041436744
           2 :    452.887993042963
           3 :   -383.034778736940
           4 :    297.222130291526
           5 :   -211.165320296745
           6 :    137.494221879870
           7 :   -83.2395710852960
[...]
     Using radial grid of  995 points,  8 beta functions with:
                l(1) =   0
                l(2) =   0
                l(3) =   1
                l(4) =   1
                l(5) =   2
                l(6) =   2
                l(7) =   3
                l(8) =   3
     Q(r) pseudized with  8 coefficients,  rinner =    1.700   1.700   1.700
                                                       1.700   1.700   1.700
                                                       1.700

     PseudoPot. # 2 for Tc read from file:
     /afs/slac.stanford.edu/u/if/mamunm/psp/gbrv1.5pbe/Tc.UPF
     MD5 check sum: 9eb49e5b028550b2339a02317eb7b844
     Pseudo is Ultrasoft + core correction, Zval = 15.0
     Generated by new atomic code, or converted to UPF format
     Using radial grid of  965 points,  6 beta functions with:
                l(1) =   0
                l(2) =   0
                l(3) =   1
                l(4) =   1
                l(5) =   2
                l(6) =   2
     Q(r) pseudized with  8 coefficients,  rinner =    1.300   1.300   1.300
                                                       1.300   1.300

     vdW kernel table read from file vdW_kernel_table
     MD5 check sum: 095c7af220d748ca6e76c0b4c6cfb241

     atomic species   valence    mass     pseudopotential
        La1           11.00   138.90547     La( 1.00)
        Tc1           15.00    97.90721     Tc( 1.00)

     No symmetry found

   Cartesian axes

     site n.     atom                  positions (alat units)
         1           La1 tau(   1) = (   0.0000000   0.0000000  10.0000000  )
         2           La1 tau(   2) = (  -1.7109582   2.9634665  10.0000000  )
         3           La1 tau(   3) = (   1.7109582   2.9634665  10.0000000  )
         4           Tc1 tau(   4) = (   3.4219164   0.0000000  10.0000000  )
         5           La1 tau(   5) = (   3.4219164   1.9756443  12.7939830  )
         6           La1 tau(   6) = (   1.7109582   4.9391108  12.7939830  )
         7           La1 tau(   7) = (  -1.7109582   4.9391108  12.7939830  )
         8           Tc1 tau(   8) = (   0.0000000   1.9756443  12.7939830  )
         9           La1 tau(   9) = (  -0.0000370   3.8355711  15.5985453  )
        10           La1 tau(  10) = (   1.6107742   1.0457163  15.5986218  )
        11           La1 tau(  11) = (   5.2330813   1.0456356  15.5986420  )
        12           Tc1 tau(  12) = (   3.4219141   3.9512973  14.9796773  )

     number of k points=    20  Fermi-Dirac smearing, width (Ry)=  0.0110
                       cart. coord. in units 2pi/alat
        k(    1) = (   0.0000000   0.0000000   0.0000000), wk =   0.0555556
        k(    2) = (   0.0000000   0.0281202   0.0000000), wk =   0.1111111
        k(    3) = (   0.0000000   0.0562404   0.0000000), wk =   0.1111111
        k(    4) = (   0.0000000  -0.0843607   0.0000000), wk =   0.0555556
        k(    5) = (   0.0243528   0.0140601   0.0000000), wk =   0.1111111
        k(    6) = (   0.0243528   0.0421803   0.0000000), wk =   0.1111111
        k(    7) = (   0.0243528   0.0703006   0.0000000), wk =   0.1111111
        k(    8) = (   0.0243528  -0.0703006   0.0000000), wk =   0.1111111
        k(    9) = (   0.0243528  -0.0421803   0.0000000), wk =   0.1111111
        k(   10) = (   0.0243528  -0.0140601   0.0000000), wk =   0.1111111
        k(   11) = (   0.0487057   0.0281202   0.0000000), wk =   0.1111111
        k(   12) = (   0.0487057   0.0562404   0.0000000), wk =   0.1111111
        k(   13) = (   0.0487057   0.0843607   0.0000000), wk =   0.1111111
        k(   14) = (   0.0487057  -0.0562404   0.0000000), wk =   0.1111111
        k(   15) = (   0.0487057  -0.0281202   0.0000000), wk =   0.1111111
        k(   16) = (   0.0487057   0.0000000   0.0000000), wk =   0.1111111
        k(   17) = (  -0.0730585  -0.0421803   0.0000000), wk =   0.0555556
        k(   18) = (  -0.0730585  -0.0140601   0.0000000), wk =   0.1111111
        k(   19) = (  -0.0730585   0.0140601   0.0000000), wk =   0.1111111
        k(   20) = (  -0.0730585  -0.1265410   0.0000000), wk =   0.0555556

     Largest allocated arrays     est. size (Mb)     dimensions
     Largest temporary arrays     est. size (Mb)     dimensions

     Check: negative/imaginary core charge=   -0.000007    0.000000

     Initial potential from superposition of free atoms
     Check: negative starting charge=   -0.997035

     starting charge  140.71130, renormalised to  144.00000

[...]

     *
     * You are using vdW-DF for exchange-correlation in this calculation.
     * Please cite the following three references that made this development
     * possible:
     *
     *   M. Dion, H. Rydberg, E. Schroder, D. C. Langreth, and
     *   B. I. Lundqvist, Phys. Rev. Lett. 92, 246401 (2004).
     *
     *   T. Thonhauser, V. R. Cooper, S. Li, A. Puzder, P. Hyldgaard, and
     *   D. C. Langreth, Phys. Rev. B 76, 125112 (2007).
     *
     *   G. Roman-Perez and J. M. Soler, Phys. Rev. Lett. 103, 096102 (2009).
     *
     *
     * If you are using vdW-DF2, please also cite:
     *
     *   K. Lee, E. D. Murray, L. Kong, B. I. Lundqvist, and
     *   D. C. Langreth, Phys. Rev. B 82, 081101(R) (2010).
     *
     *
     * If you are calculating the stress with vdW-DF, please also cite:
     *
     *   R. Sabatini, E. Kucukbenli, B. Kolb, T. Thonhauser, and
     *   S. de Gironcoli, J. Phys.: Condens. Matter 24, 424209 (2012).
     *

     Carrying out vdW-DF run using the following parameters:

     Nqs =      20    Nr_points =    1024   r_max =   100.000
     q_mesh =
               0.00001000     0.04494208     0.09755937     0.15916263
               0.23128650     0.31572767     0.41458969     0.53033537
               0.66584808     0.82450364     1.01025438     1.22772762
               1.48234092     1.78043706     2.12944203     2.53805004
               3.01644009     3.57652955     4.23227104     5.00000000

     Gradients computed in reciprocal space

[...]

     Starting wfc are  219 randomized atomic wfcs

     Self-consistent Calculation

[...]

     iteration # 15     ecut=    36.75 Ry     beta=0.10
     Davidson diagonalization with overlap
     c_bands:  1 eigenvalues not converged
     ethr =  1.73E-06,  avg # of iterations = 12.1

[...]

     total energy              =   -1461.74441958 Ry
     Harris-Foulkes estimate   =   -1461.74441882 Ry
     estimated scf accuracy    <       0.00000207 Ry

     iteration # 24     ecut=    36.75 Ry     beta=0.10
     Davidson diagonalization with overlap
     ethr =  1.18E-09,  avg # of iterations =  2.0

[...]

     negative rho (up, down):  7.553E-01 0.000E+00

     Adding external electric field

     Computed dipole along edir(3) :
        Dipole                0.1229 Ry au,          0.3125 Debye
        Dipole field          0.0002 Ry au

        Potential amp.       -0.0208 Ry
        Total length         47.1454 bohr

     End of self-consistent calculation

[...]

          k = 0.0487 0.0000 0.0000 ( 26373 PWs)   bands (ev):

[...]

          k =-0.0731-0.1265 0.0000 ( 26334 PWs)   bands (ev):

   -63.9345 -63.7844 -63.7503 -35.9520 -35.9349 -35.9347 -35.8174 -35.8172
   -35.8085 -35.8083 -35.7842 -35.7819 -30.9206 -30.8123 -30.7465 -30.7248
   -30.6773 -30.6362 -30.2083 -30.1327 -30.0476 -15.3767 -15.2081 -15.0370
   -14.8618 -14.7855 -14.6782 -14.6541 -14.6326 -14.5163 -14.4963 -14.4802
   -14.4119 -14.3903 -14.3888 -14.2901 -14.2238 -14.1926 -13.9451 -13.7735
   -13.7482 -13.6847 -13.6568 -13.5840 -13.5456 -13.5113 -13.4568 -13.1286
     0.1476   0.2243   0.6213   0.6494   0.7769   0.8437   0.8940   0.9957
     1.0169   1.0818   1.1560   1.3210   1.3734   1.4334   1.5121   1.5150
     1.5631   1.7291   1.8075   1.8912   1.9467   1.9485   1.9840   2.1232
     2.2126   2.4254   2.6025   2.6388   2.7337   2.7900   2.9124   2.9903
     3.0802   3.1152   3.2083   3.2624   3.3844   3.4573   3.4667   3.5095
     3.5269   3.6686   3.7129   3.7574   3.8523   3.8891   3.9129   3.9205
     3.9798   3.9871   4.0203   4.0220   4.0740   4.1007

     the Fermi energy is     2.3134 ev

!    total energy              =   -1461.74442287 Ry
     Harris-Foulkes estimate   =   -1461.74442011 Ry
     estimated scf accuracy    <       0.00000018 Ry

     The total energy is the sum of the following terms:

     one-electron contribution =   -7174.25566600 Ry
     hartree contribution      =    3599.18285399 Ry
     xc contribution           =    -556.69004520 Ry
     ewald contribution        =    2670.12395890 Ry
     electric field correction =       0.00002711 Ry
     smearing contrib. (-TS)   =      -0.10555166 Ry

     convergence has been achieved in  24 iterations

 BEEF-vdW xc energy contributions
           1 :   -492.465633845877
           2 :    453.184154519384
           3 :   -383.420136622083
           4 :    297.634478816972
           5 :   -211.481519121460
           6 :    137.589769678512
           7 :   -83.0622909568190
           8 :    49.0138712968497
           9 :   -31.8594257631360
          10 :    25.5402475398767
          11 :   -23.8696163023872
          12 :    22.2325971563145
          13 :   -18.3019404223314
          14 :    11.8245981243247
          15 :   -3.90184027664782
          16 :   -3.82603737981617
          17 :    9.80923527559230
          18 :   -12.9875938776722
          19 :    12.9837238444649
          20 :   -10.1566134998944
          21 :    5.52290422755277
          22 :  -0.548099042506578
          23 :   -3.20758277345692
          24 :    4.52766864976275
          25 :   -2.93869598618687
          26 :   -1.10657459222307
          27 :    6.36530646517133
          28 :   -11.2407697243217
          29 :    14.3497045833655
          30 :   -14.9996375085461
          31 :   -42.6100920393455
          32 :   -30.7107306756881

     Forces acting on atoms (Ry/au):

     negative rho (up, down):  7.553E-01 0.000E+00
     atom    1 type  1   force =    -0.00000008    0.02544438   -0.01243433
     atom    2 type  1   force =     0.02203305   -0.01272216   -0.01243317
     atom    3 type  1   force =    -0.02203411   -0.01272035   -0.01243429
     atom    4 type  2   force =     0.00000027   -0.00000091    0.04526259
     atom    5 type  1   force =     0.00000189   -0.01222849   -0.00361843
     atom    6 type  1   force =    -0.01058781    0.00611557   -0.00362132
     atom    7 type  1   force =     0.01058690    0.00611647   -0.00362069
     atom    8 type  2   force =    -0.00000038   -0.00000067    0.00191938
     atom    9 type  1   force =    -0.00000210   -0.00050924    0.00002463
     atom   10 type  1   force =    -0.00043928    0.00025465    0.00002409
     atom   11 type  1   force =     0.00044091    0.00025091    0.00002243
     atom   12 type  2   force =     0.00000073   -0.00000018    0.00090911

     Total force =     0.070340     Total SCF correction =     0.000874

     entering subroutine stress ...

     negative rho (up, down):  7.553E-01 0.000E+00
          total   stress  (Ry/bohr**3)                   (kbar)     P=   -3.93
  -0.00003590  -0.00000000  -0.00000000         -5.28     -0.00     -0.00
  -0.00000000  -0.00003590  -0.00000000         -0.00     -5.28     -0.00
  -0.00000000  -0.00000000  -0.00000839         -0.00     -0.00     -1.23

 !ASE

     Writing output data file calc.save

     General routines

     Parallel routines

   This run was terminated on:  22: 3:11  26Dec2018

   JOB DONE.
Job  /afs/slac/g/suncat/bin/suncat-tsmpirun -x LD_LIBRARY_PATH -wdir /scratch/qe110033_3XoEW pw.x -in pw.inp

TID   HOST_NAME   COMMAND_LINE            STATUS            TERMINATION_TIME
00000 suncat0079 pw.x -in pw.inp   Done                     12/26/2018 22:03:11
00001 suncat0079 pw.x -in pw.inp   Done                     12/26/2018 22:03:11
00002 suncat0079 pw.x -in pw.inp   Done                     12/26/2018 22:03:11
00003 suncat0079 pw.x -in pw.inp   Done                     12/26/2018 22:03:11
00004 suncat0079 pw.x -in pw.inp   Done                     12/26/2018 22:03:11
00005 suncat0079 pw.x -in pw.inp   Done                     12/26/2018 22:03:11
00006 suncat0079 pw.x -in pw.inp   Done                     12/26/2018 22:03:11
00007 suncat0079 pw.x -in pw.inp   Done                     12/26/2018 22:03:11
00008 suncat0064 pw.x -in pw.inp   Done                     12/26/2018 22:03:11
00009 suncat0064 pw.x -in pw.inp   Done                     12/26/2018 22:03:11
00010 suncat0064 pw.x -in pw.inp   Done                     12/26/2018 22:03:11
00011 suncat0064 pw.x -in pw.inp   Done                     12/26/2018 22:03:11
00012 suncat0064 pw.x -in pw.inp   Done                     12/26/2018 22:03:11
00013 suncat0064 pw.x -in pw.inp   Done                     12/26/2018 22:03:11
00014 suncat0064 pw.x -in pw.inp   Done                     12/26/2018 22:03:11
00015 suncat0064 pw.x -in pw.inp   Done                     12/26/2018 22:03:11
00016 suncat0063 pw.x -in pw.inp   Done                     12/26/2018 22:03:11
00017 suncat0063 pw.x -in pw.inp   Done                     12/26/2018 22:03:11
00018 suncat0063 pw.x -in pw.inp   Done                     12/26/2018 22:03:11
00019 suncat0063 pw.x -in pw.inp   Done                     12/26/2018 22:03:11
00020 suncat0063 pw.x -in pw.inp   Done                     12/26/2018 22:03:11
00021 suncat0063 pw.x -in pw.inp   Done                     12/26/2018 22:03:11
00022 suncat0063 pw.x -in pw.inp   Done                     12/26/2018 22:03:11
00023 suncat0063 pw.x -in pw.inp   Done                     12/26/2018 22:03:11
00024 suncat0061 pw.x -in pw.inp   Done                     12/26/2018 22:03:11
00025 suncat0061 pw.x -in pw.inp   Done                     12/26/2018 22:03:11
00026 suncat0061 pw.x -in pw.inp   Done                     12/26/2018 22:03:11
00027 suncat0061 pw.x -in pw.inp   Done                     12/26/2018 22:03:11
00028 suncat0061 pw.x -in pw.inp   Done                     12/26/2018 22:03:11
00029 suncat0061 pw.x -in pw.inp   Done                     12/26/2018 22:03:11
00030 suncat0061 pw.x -in pw.inp   Done                     12/26/2018 22:03:11
00031 suncat0061 pw.x -in pw.inp   Done                     12/26/2018 22:03:11
00032 suncat0054 pw.x -in pw.inp   Done                     12/26/2018 22:03:11
00033 suncat0054 pw.x -in pw.inp   Done                     12/26/2018 22:03:11
00034 suncat0054 pw.x -in pw.inp   Done                     12/26/2018 22:03:11
00035 suncat0054 pw.x -in pw.inp   Done                     12/26/2018 22:03:11
00036 suncat0054 pw.x -in pw.inp   Done                     12/26/2018 22:03:11
00037 suncat0054 pw.x -in pw.inp   Done                     12/26/2018 22:03:11
00038 suncat0054 pw.x -in pw.inp   Done                     12/26/2018 22:03:11
00039 suncat0054 pw.x -in pw.inp   Done                     12/26/2018 22:03:11
00040 suncat0053 pw.x -in pw.inp   Done                     12/26/2018 22:03:11
00041 suncat0053 pw.x -in pw.inp   Done                     12/26/2018 22:03:11
00042 suncat0053 pw.x -in pw.inp   Done                     12/26/2018 22:03:11
00043 suncat0053 pw.x -in pw.inp   Done                     12/26/2018 22:03:11
00044 suncat0053 pw.x -in pw.inp   Done                     12/26/2018 22:03:11
00045 suncat0053 pw.x -in pw.inp   Done                     12/26/2018 22:03:11
00046 suncat0053 pw.x -in pw.inp   Done                     12/26/2018 22:03:11
00047 suncat0053 pw.x -in pw.inp   Done                     12/26/2018 22:03:11
00048 suncat0052 pw.x -in pw.inp   Done                     12/26/2018 22:03:11
00049 suncat0052 pw.x -in pw.inp   Done                     12/26/2018 22:03:11
00050 suncat0052 pw.x -in pw.inp   Done                     12/26/2018 22:03:11
00051 suncat0052 pw.x -in pw.inp   Done                     12/26/2018 22:03:11
00052 suncat0052 pw.x -in pw.inp   Done                     12/26/2018 22:03:11
00053 suncat0052 pw.x -in pw.inp   Done                     12/26/2018 22:03:11
00054 suncat0052 pw.x -in pw.inp   Done                     12/26/2018 22:03:11
00055 suncat0052 pw.x -in pw.inp   Done                     12/26/2018 22:03:11
00056 suncat0028 pw.x -in pw.inp   Done                     12/26/2018 22:03:11
00057 suncat0028 pw.x -in pw.inp   Done                     12/26/2018 22:03:11
00058 suncat0028 pw.x -in pw.inp   Done                     12/26/2018 22:03:11
00059 suncat0028 pw.x -in pw.inp   Done                     12/26/2018 22:03:11
00060 suncat0028 pw.x -in pw.inp   Done                     12/26/2018 22:03:11
00061 suncat0028 pw.x -in pw.inp   Done                     12/26/2018 22:03:11
00062 suncat0028 pw.x -in pw.inp   Done                     12/26/2018 22:03:11
00063 suncat0028 pw.x -in pw.inp   Done                     12/26/2018 22:03:11