     Program PWSCF v.5.1rc2 (svn rev. 11289) starts on 31Dec2018 at 16:28:31

     Current dimensions of program PWSCF are:
     Max number of different atomic species (ntypx) = 10
     Max number of k-points (npk) =  40000
     Max angular momentum in pseudopotentials (lmaxx) =  3
     Presently stress not available with electric field

     IMPORTANT: XC functional enforced from input :
     Exchange-correlation      = BEEF-VDW ( 1  4 27 13 2)
     Any further DFT definition will be discarded
     Please, verify this is what you really want

     Subspace diagonalization in iterative solution of the eigenvalue problem:
     a serial algorithm will be used

     bravais-lattice index     =            0
     lattice parameter (alat)  =       1.8897  a.u.
     unit-cell volume          =    4632.4181 (a.u.)^3
     number of atoms/cell      =           12
     number of atomic types    =            2
     number of electrons       =       183.00
     number of Kohn-Sham states=          121
     kinetic-energy cutoff     =      36.7493  Ry
     charge density cutoff     =     367.4932  Ry
     convergence threshold     =      1.0E-06
     mixing beta               =       0.1000
     number of iterations used =           10  plain     mixing
     Exchange-correlation      = BEEF-VDW ( 1  4 27 13 2)
     nstep                     =           50

     celldm(1)=   1.889726  celldm(2)=   0.000000  celldm(3)=   0.000000
     celldm(4)=   0.000000  celldm(5)=   0.000000  celldm(6)=   0.000000

     crystal axes: (cart. coord. in units of alat)
               a(1) = (   5.672735   0.000000   0.000000 )
               a(2) = (  -2.836367   4.912732   0.000000 )
               a(3) = (   0.000000   0.000000  24.631768 )

     reciprocal axes: (cart. coord. in units 2 pi/alat)
               b(1) = (  0.176282  0.101776  0.000000 )
               b(2) = (  0.000000  0.203553  0.000000 )
               b(3) = (  0.000000  0.000000  0.040598 )

     PseudoPot. # 1 for Pt read from file:
     /afs/slac.stanford.edu/u/if/mamunm/psp/gbrv1.5pbe/Pt.UPF
     MD5 check sum: f09d6de1a584b5a045c4fc126da2d0c4
     Pseudo is Ultrasoft + core correction, Zval = 16.0
     Generated by new atomic code, or converted to UPF format
     Using radial grid of  985 points,  6 beta functions with:
                l(1) =   0
                l(2) =   0
                l(3) =   1
                l(4) =   1
                l(5) =   2
                l(6) =   2
     Q(r) pseudized with  8 coefficients,  rinner =    1.300   1.300   1.300
                                                       1.300   1.300

     PseudoPot. # 2 for Nb read from file:
     /afs/slac.stanford.edu/u/if/mamunm/psp/gbrv1.5pbe/Nb.UPF
     MD5 check sum: 573aab8a2fa660278ed4a62cd769473f
     Pseudo is Ultrasoft + core correction, Zval = 13.0
     Generated by new atomic code, or converted to UPF format
     Using radial grid of  887 points,  6 beta functions with:
                l(1) =   0
                l(2) =   0
                l(3) =   1
                l(4) =   1
                l(5) =   2
                l(6) =   2
     Q(r) pseudized with  6 coefficients,  rinner =    1.000   1.000   1.000
                                                       1.000   1.000

     vdW kernel table read from file vdW_kernel_table
     MD5 check sum: 095c7af220d748ca6e76c0b4c6cfb241

     atomic species   valence    mass     pseudopotential
        Pt1           16.00   195.08400     Pt( 1.00)
        Nb1           13.00    92.90637     Nb( 1.00)

     No symmetry found

   Cartesian axes

     site n.     atom                  positions (alat units)
         1           Pt1 tau(   1) = (   0.0000000   0.0000000  10.0000000  )
         2           Pt1 tau(   2) = (  -1.4181836   2.4563661  10.0000000  )
         3           Pt1 tau(   3) = (   1.4181836   2.4563661  10.0000000  )
         4           Nb1 tau(   4) = (   2.8363673   0.0000000  10.0000000  )
         5           Pt1 tau(   5) = (   2.8363673   1.6375774  12.3158842  )
         6           Pt1 tau(   6) = (   1.4181836   4.0939436  12.3158842  )
         7           Pt1 tau(   7) = (  -1.4181836   4.0939436  12.3158842  )
         8           Nb1 tau(   8) = (   0.0000000   1.6375774  12.3158842  )
         9           Pt1 tau(   9) = (  -0.0000000   3.2751548  14.6317684  )
        10           Pt1 tau(  10) = (   1.4181836   0.8187887  14.6317684  )
        11           Pt1 tau(  11) = (   4.2545509   0.8187887  14.6317684  )
        12           Nb1 tau(  12) = (   2.8363673   3.2751548  14.6317684  )

     number of k points=    20  Fermi-Dirac smearing, width (Ry)=  0.0110
                       cart. coord. in units 2pi/alat
        k(    1) = (   0.0000000   0.0000000   0.0000000), wk =   0.0555556
        k(    2) = (   0.0000000   0.0339255   0.0000000), wk =   0.1111111
        k(    3) = (   0.0000000   0.0678509   0.0000000), wk =   0.1111111
        k(    4) = (   0.0000000  -0.1017764   0.0000000), wk =   0.0555556
        k(    5) = (   0.0293803   0.0169627   0.0000000), wk =   0.1111111
        k(    6) = (   0.0293803   0.0508882   0.0000000), wk =   0.1111111
        k(    7) = (   0.0293803   0.0848136   0.0000000), wk =   0.1111111
        k(    8) = (   0.0293803  -0.0848136   0.0000000), wk =   0.1111111
        k(    9) = (   0.0293803  -0.0508882   0.0000000), wk =   0.1111111
        k(   10) = (   0.0293803  -0.0169627   0.0000000), wk =   0.1111111
        k(   11) = (   0.0587606   0.0339255   0.0000000), wk =   0.1111111
        k(   12) = (   0.0587606   0.0678509   0.0000000), wk =   0.1111111
        k(   13) = (   0.0587606   0.1017764   0.0000000), wk =   0.1111111
        k(   14) = (   0.0587606  -0.0678509   0.0000000), wk =   0.1111111
        k(   15) = (   0.0587606  -0.0339255   0.0000000), wk =   0.1111111
        k(   16) = (   0.0587606  -0.0000000   0.0000000), wk =   0.1111111
        k(   17) = (  -0.0881409  -0.0508882   0.0000000), wk =   0.0555556
        k(   18) = (  -0.0881409  -0.0169627   0.0000000), wk =   0.1111111
        k(   19) = (  -0.0881409   0.0169627   0.0000000), wk =   0.1111111
        k(   20) = (  -0.0881409  -0.1526645   0.0000000), wk =   0.0555556

     Largest allocated arrays     est. size (Mb)     dimensions
     Largest temporary arrays     est. size (Mb)     dimensions

     Check: negative/imaginary core charge=   -0.000001    0.000000

     Initial potential from superposition of free atoms
     Check: negative starting charge=   -1.630612

     starting charge  178.49170, renormalised to  183.00000

     negative rho (up, down):  1.672E+00 0.000E+00

     *
     * You are using vdW-DF for exchange-correlation in this calculation.
     * Please cite the following three references that made this development
     * possible:
     *
     *   M. Dion, H. Rydberg, E. Schroder, D. C. Langreth, and
     *   B. I. Lundqvist, Phys. Rev. Lett. 92, 246401 (2004).
     *
     *   T. Thonhauser, V. R. Cooper, S. Li, A. Puzder, P. Hyldgaard, and
     *   D. C. Langreth, Phys. Rev. B 76, 125112 (2007).
     *
     *   G. Roman-Perez and J. M. Soler, Phys. Rev. Lett. 103, 096102 (2009).
     *
     *
     * If you are using vdW-DF2, please also cite:
     *
     *   K. Lee, E. D. Murray, L. Kong, B. I. Lundqvist, and
     *   D. C. Langreth, Phys. Rev. B 82, 081101(R) (2010).
     *
     *
     * If you are calculating the stress with vdW-DF, please also cite:
     *
     *   R. Sabatini, E. Kucukbenli, B. Kolb, T. Thonhauser, and
     *   S. de Gironcoli, J. Phys.: Condens. Matter 24, 424209 (2012).
     *

     Carrying out vdW-DF run using the following parameters:

     Nqs =      20    Nr_points =    1024   r_max =   100.000
     q_mesh =
               0.00001000     0.04494208     0.09755937     0.15916263
               0.23128650     0.31572767     0.41458969     0.53033537
               0.66584808     0.82450364     1.01025438     1.22772762
               1.48234092     1.78043706     2.12944203     2.53805004
               3.01644009     3.57652955     4.23227104     5.00000000

     Gradients computed in reciprocal space

     Adding external electric field

     Computed dipole along edir(3) :
        Dipole               -0.0000 Ry au,         -0.0000 Debye
        Dipole field         -0.0000 Ry au

        Potential amp.        0.0000 Ry
        Total length         45.3836 bohr

     Starting wfc are  147 randomized atomic wfcs

     Self-consistent Calculation

     iteration #  1     ecut=    36.75 Ry     beta=0.10
     Davidson diagonalization with overlap
     ethr =  1.00E-02,  avg # of iterations =  7.8

[...]

     total energy              =   -2267.85741874 Ry
     Harris-Foulkes estimate   =   -2269.29782649 Ry
     estimated scf accuracy    <       9.40100686 Ry

[...]

     End of self-consistent calculation

          k = 0.0000 0.0000 0.0000 ( 17507 PWs)   bands (ev):

   -54.3346 -54.2031 -54.2011 -51.2905 -51.1843 -51.1843 -51.1009 -51.1009
   -51.0680 -51.0448 -50.9701 -50.9701 -50.7779 -50.7778 -50.7646 -50.7646
   -50.7410 -50.7400 -50.6711 -50.6687 -50.5200 -50.5199 -50.5195 -50.5195
   -50.4855 -50.4708 -50.4526 -50.4526 -50.4451 -50.4451 -30.3148 -30.3148
   -30.2427 -30.2357 -30.2166 -30.1063 -30.1063 -30.1033 -30.1033  -6.3447
    -4.6487  -4.4421  -4.1732  -4.1732  -3.9025  -3.8868  -3.8868  -3.6789
    -3.4231  -3.4231  -3.3225  -3.2122  -3.2122  -3.0634  -1.9755  -1.8860
    -1.8860  -1.7471  -1.7470  -1.4692  -1.2247  -1.2167  -1.1467  -1.1467
    -1.0680  -0.8893  -0.8893  -0.5872  -0.5872  -0.4936  -0.4935  -0.4465
    -0.4465   0.2414   0.6363   0.6363   0.6672   0.6672   0.7652   0.7652
     0.9612   1.0201   1.3251   1.5635   1.5635   1.7098   2.0457   2.1337
     2.1858   2.6558   2.6558   2.6887   3.1300   3.1300   3.3643   3.3643
     3.4148   3.4436   3.4436   3.5298   3.6244   3.6244   3.8381   3.8381
     4.2352   4.2352   5.3155   5.3155   5.4844   5.5200   5.5200   5.9708
     6.4061   6.6519   7.0174   7.9330   8.0391   8.0391   8.0684   8.0684
     8.7216

[...]

          k =-0.0881-0.0509 0.0000 ( 17428 PWs)   bands (ev):

[...]

     the Fermi energy is     2.1047 ev

!    total energy              =   -2267.14247935 Ry
     Harris-Foulkes estimate   =   -2267.14244374 Ry
     estimated scf accuracy    <       0.00000090 Ry

     The total energy is the sum of the following terms:

     one-electron contribution =  -17678.18829581 Ry
     hartree contribution      =    8862.97666089 Ry
     xc contribution           =    -584.42604731 Ry
     ewald contribution        =    7132.54778575 Ry
     electric field correction =       0.00000000 Ry
     smearing contrib. (-TS)   =      -0.05258286 Ry

     convergence has been achieved in  16 iterations

 BEEF-vdW xc energy contributions
           1 :   -518.219034480231
           2 :    481.414588894611
           3 :   -415.681460328614
           4 :    333.969346765032
           5 :   -250.285113889724
           6 :    175.962471274078
           7 :   -117.396693015505
           8 :    75.6540993899494
           9 :   -47.7547571001392
          10 :    28.8795377683867
          11 :   -14.5808512865586
[...]
     Pseudo is Ultrasoft + core correction, Zval = 16.0
     Generated by new atomic code, or converted to UPF format
     Using radial grid of  985 points,  6 beta functions with:
                l(1) =   0
                l(2) =   0
                l(3) =   1
                l(4) =   1
                l(5) =   2
                l(6) =   2
     Q(r) pseudized with  8 coefficients,  rinner =    1.300   1.300   1.300
                                                       1.300   1.300

     PseudoPot. # 2 for Nb read from file:
     /afs/slac.stanford.edu/u/if/mamunm/psp/gbrv1.5pbe/Nb.UPF
     MD5 check sum: 573aab8a2fa660278ed4a62cd769473f
     Pseudo is Ultrasoft + core correction, Zval = 13.0
     Generated by new atomic code, or converted to UPF format
     Using radial grid of  887 points,  6 beta functions with:
                l(1) =   0
                l(2) =   0
                l(3) =   1
                l(4) =   1
                l(5) =   2
                l(6) =   2
     Q(r) pseudized with  6 coefficients,  rinner =    1.000   1.000   1.000
                                                       1.000   1.000

     vdW kernel table read from file vdW_kernel_table
     MD5 check sum: 095c7af220d748ca6e76c0b4c6cfb241

     atomic species   valence    mass     pseudopotential
        Pt1           16.00   195.08400     Pt( 1.00)
        Nb1           13.00    92.90637     Nb( 1.00)

     No symmetry found

   Cartesian axes

     site n.     atom                  positions (alat units)
         1           Pt1 tau(   1) = (   0.0000000   0.0000000  10.0000000  )
         2           Pt1 tau(   2) = (  -1.4181836   2.4563661  10.0000000  )
         3           Pt1 tau(   3) = (   1.4181836   2.4563661  10.0000000  )
         4           Nb1 tau(   4) = (   2.8363673   0.0000000  10.0000000  )
         5           Pt1 tau(   5) = (   2.8363673   1.6375774  12.3158842  )
         6           Pt1 tau(   6) = (   1.4181836   4.0939436  12.3158842  )
         7           Pt1 tau(   7) = (  -1.4181836   4.0939436  12.3158842  )
         8           Nb1 tau(   8) = (   0.0000000   1.6375774  12.3158842  )
         9           Pt1 tau(   9) = (   0.0000000   3.2394184  14.6018889  )
        10           Pt1 tau(  10) = (   1.3872363   0.8366568  14.6018887  )
        11           Pt1 tau(  11) = (   4.2854996   0.8366564  14.6018888  )
        12           Nb1 tau(  12) = (   2.8363673   3.2751556  14.5508540  )

     number of k points=    20  Fermi-Dirac smearing, width (Ry)=  0.0110
                       cart. coord. in units 2pi/alat
        k(    1) = (   0.0000000   0.0000000   0.0000000), wk =   0.0555556
        k(    2) = (   0.0000000   0.0339255   0.0000000), wk =   0.1111111
        k(    3) = (   0.0000000   0.0678509   0.0000000), wk =   0.1111111
        k(    4) = (   0.0000000  -0.1017764   0.0000000), wk =   0.0555556
        k(    5) = (   0.0293803   0.0169627   0.0000000), wk =   0.1111111
        k(    6) = (   0.0293803   0.0508882   0.0000000), wk =   0.1111111
        k(    7) = (   0.0293803   0.0848136   0.0000000), wk =   0.1111111
        k(    8) = (   0.0293803  -0.0848136   0.0000000), wk =   0.1111111
        k(    9) = (   0.0293803  -0.0508882   0.0000000), wk =   0.1111111
        k(   10) = (   0.0293803  -0.0169627   0.0000000), wk =   0.1111111
        k(   11) = (   0.0587606   0.0339255   0.0000000), wk =   0.1111111
        k(   12) = (   0.0587606   0.0678509   0.0000000), wk =   0.1111111
        k(   13) = (   0.0587606   0.1017764   0.0000000), wk =   0.1111111
        k(   14) = (   0.0587606  -0.0678509   0.0000000), wk =   0.1111111
        k(   15) = (   0.0587606  -0.0339255   0.0000000), wk =   0.1111111
        k(   16) = (   0.0587606  -0.0000000   0.0000000), wk =   0.1111111
        k(   17) = (  -0.0881409  -0.0508882   0.0000000), wk =   0.0555556
        k(   18) = (  -0.0881409  -0.0169627   0.0000000), wk =   0.1111111
        k(   19) = (  -0.0881409   0.0169627   0.0000000), wk =   0.1111111
        k(   20) = (  -0.0881409  -0.1526645   0.0000000), wk =   0.0555556

     Largest allocated arrays     est. size (Mb)     dimensions
     Largest temporary arrays     est. size (Mb)     dimensions

     Check: negative/imaginary core charge=   -0.000001    0.000000

     Initial potential from superposition of free atoms
     Check: negative starting charge=   -1.640536

     starting charge  178.49170, renormalised to  183.00000

[...]

     *
     * You are using vdW-DF for exchange-correlation in this calculation.
     * Please cite the following three references that made this development
     * possible:
     *
     *   M. Dion, H. Rydberg, E. Schroder, D. C. Langreth, and
     *   B. I. Lundqvist, Phys. Rev. Lett. 92, 246401 (2004).
     *
     *   T. Thonhauser, V. R. Cooper, S. Li, A. Puzder, P. Hyldgaard, and
     *   D. C. Langreth, Phys. Rev. B 76, 125112 (2007).
     *
     *   G. Roman-Perez and J. M. Soler, Phys. Rev. Lett. 103, 096102 (2009).
     *
     *
     * If you are using vdW-DF2, please also cite:
     *
     *   K. Lee, E. D. Murray, L. Kong, B. I. Lundqvist, and
     *   D. C. Langreth, Phys. Rev. B 82, 081101(R) (2010).
     *
     *
     * If you are calculating the stress with vdW-DF, please also cite:
     *
     *   R. Sabatini, E. Kucukbenli, B. Kolb, T. Thonhauser, and
     *   S. de Gironcoli, J. Phys.: Condens. Matter 24, 424209 (2012).
     *

     Carrying out vdW-DF run using the following parameters:

     Nqs =      20    Nr_points =    1024   r_max =   100.000
     q_mesh =
               0.00001000     0.04494208     0.09755937     0.15916263
               0.23128650     0.31572767     0.41458969     0.53033537
               0.66584808     0.82450364     1.01025438     1.22772762
               1.48234092     1.78043706     2.12944203     2.53805004
               3.01644009     3.57652955     4.23227104     5.00000000

     Gradients computed in reciprocal space

[...]

     Starting wfc are  147 randomized atomic wfcs

     Self-consistent Calculation

[...]

     total energy              =   -2267.16008801 Ry
     Harris-Foulkes estimate   =   -2267.16008322 Ry
     estimated scf accuracy    <       0.00000107 Ry

     iteration # 18     ecut=    36.75 Ry     beta=0.10
     Davidson diagonalization with overlap
     ethr =  5.83E-10,  avg # of iterations =  2.0

[...]

     negative rho (up, down):  1.576E+00 0.000E+00

     Adding external electric field

     Computed dipole along edir(3) :
        Dipole                0.0085 Ry au,          0.0215 Debye
        Dipole field          0.0000 Ry au

        Potential amp.       -0.0021 Ry
        Total length         45.3836 bohr

     End of self-consistent calculation

[...]

          k = 0.0588-0.0000 0.0000 ( 17441 PWs)   bands (ev):

[...]

          k =-0.0881-0.1527 0.0000 ( 17428 PWs)   bands (ev):

   -54.3218 -54.1988 -54.1847 -51.2887 -51.2274 -51.1936 -51.1670 -51.1455
   -51.1143 -51.0831 -51.0601 -51.0102 -50.8034 -50.7697 -50.7532 -50.7334
   -50.7157 -50.7144 -50.6928 -50.6440 -50.6363 -50.5878 -50.5713 -50.5227
   -50.5135 -50.5091 -50.4977 -50.4579 -50.4486 -50.4371 -30.3210 -30.3100
   -30.2365 -30.2205 -30.2151 -30.1223 -30.1132 -30.1004 -30.0910  -4.8696
    -4.5871  -3.5425  -3.4293  -3.3428  -3.2721  -3.1912  -3.1415  -2.9959
    -2.8750  -2.8486  -2.6062  -2.5814  -2.3422  -2.3042  -2.1968  -2.1902
    -2.1545  -1.9850  -1.8330  -1.4727  -1.4536  -1.3421  -1.1871  -1.1548
    -1.1373  -1.0504  -0.9661  -0.9237  -0.8953  -0.8566  -0.7908  -0.7673
    -0.7112  -0.6839  -0.5278  -0.4023  -0.3375  -0.2506  -0.1258  -0.0380
     0.0778   0.3294   0.3855   0.4161   0.7042   0.8406   0.9338   1.0964
     1.1376   1.4289   1.7999   1.9181   2.0916   2.2588   2.4061   2.4755
     2.5501   2.8414   2.8871   3.1416   3.2298   3.3163   3.9488   4.0748
     4.1673   4.6347   5.1056   6.0905   6.3897   6.5400   6.8368   7.0458
     7.6052   7.8539   7.8849   8.4227   8.4594   8.4815   8.4944   9.1078
     9.6349

     the Fermi energy is     2.1218 ev

!    total energy              =   -2267.16010601 Ry
     Harris-Foulkes estimate   =   -2267.16008807 Ry
     estimated scf accuracy    <       0.00000013 Ry

     The total energy is the sum of the following terms:

     one-electron contribution =  -17781.40545629 Ry
     hartree contribution      =    8914.46614811 Ry
     xc contribution           =    -584.52807798 Ry
     ewald contribution        =    7184.35920168 Ry
     electric field correction =       0.00000019 Ry
     smearing contrib. (-TS)   =      -0.05192171 Ry

     convergence has been achieved in  18 iterations

 BEEF-vdW xc energy contributions
           1 :   -518.722372295908
           2 :    481.956097738456
           3 :   -416.274787975960
           4 :    334.592609651457
           5 :   -250.889354725513
           6 :    176.495955530787
           7 :   -117.831422461151
           8 :    76.0015897772270
           9 :   -48.0628732574486
          10 :    29.2103698788796
          11 :   -14.9815246152275
          12 :    2.68311613474680
          13 :    8.29109993394184
          14 :   -17.1039605254738
          15 :    22.5610908761317
          16 :   -24.0764212615852
          17 :    22.1219768246087
          18 :   -18.0835464156921
          19 :    13.6996520799386
          20 :   -10.4128903202612
          21 :    8.92299372373475
          22 :   -9.09666158577113
          23 :    10.2020625403871
          24 :   -11.3172612118302
          25 :    11.7182401740803
          26 :   -11.1101743353362
          27 :    9.64947100046572
          28 :   -7.79697844766099
          29 :    6.08774699644709
          30 :   -4.91861427218510
          31 :   -44.0861312036324
          32 :   -32.7223167131887

     Forces acting on atoms (Ry/au):

     negative rho (up, down):  1.576E+00 0.000E+00
     atom    1 type  1   force =    -0.00000011    0.01893661    0.00407351
     atom    2 type  1   force =     0.01639968   -0.00946853    0.00407367
     atom    3 type  1   force =    -0.01639940   -0.00946809    0.00407366
     atom    4 type  2   force =    -0.00000001   -0.00000001    0.01103710
     atom    5 type  1   force =    -0.00000023   -0.00266696   -0.00457103
     atom    6 type  1   force =    -0.00230974    0.00133321   -0.00457133
     atom    7 type  1   force =     0.00230991    0.00133368   -0.00457109
     atom    8 type  2   force =    -0.00000005   -0.00000000   -0.00902332
     atom    9 type  1   force =     0.00000002   -0.00007897   -0.00025554
     atom   10 type  1   force =    -0.00006854    0.00003953   -0.00025533
     atom   11 type  1   force =     0.00006836    0.00003962   -0.00025545
     atom   12 type  2   force =     0.00000012   -0.00000009    0.00024515

     Total force =     0.037591     Total SCF correction =     0.001853

     entering subroutine stress ...

     negative rho (up, down):  1.576E+00 0.000E+00
          total   stress  (Ry/bohr**3)                   (kbar)     P=  -24.54
  -0.00023287  -0.00000000  -0.00000000        -34.26     -0.00     -0.00
  -0.00000000  -0.00023287   0.00000000         -0.00    -34.26      0.00
  -0.00000000   0.00000000  -0.00003463         -0.00      0.00     -5.09

 !ASE

     Writing output data file calc.save

     General routines

     Parallel routines

   This run was terminated on:  17:31:37  31Dec2018

   JOB DONE.
Job  /afs/slac/g/suncat/bin/suncat-tsmpirun -x LD_LIBRARY_PATH -wdir /scratch/qe648813_m3Hf8 pw.x -in pw.inp

TID   HOST_NAME   COMMAND_LINE            STATUS            TERMINATION_TIME
00000 suncat0068 pw.x -in pw.inp   Done                     12/31/2018 17:31:37
00001 suncat0068 pw.x -in pw.inp   Done                     12/31/2018 17:31:37
00002 suncat0068 pw.x -in pw.inp   Done                     12/31/2018 17:31:37
00003 suncat0068 pw.x -in pw.inp   Done                     12/31/2018 17:31:37
00004 suncat0068 pw.x -in pw.inp   Done                     12/31/2018 17:31:37
00005 suncat0068 pw.x -in pw.inp   Done                     12/31/2018 17:31:37
00006 suncat0068 pw.x -in pw.inp   Done                     12/31/2018 17:31:37
00007 suncat0068 pw.x -in pw.inp   Done                     12/31/2018 17:31:37
00008 suncat0059 pw.x -in pw.inp   Done                     12/31/2018 17:31:37
00009 suncat0059 pw.x -in pw.inp   Done                     12/31/2018 17:31:37
00010 suncat0059 pw.x -in pw.inp   Done                     12/31/2018 17:31:37
00011 suncat0059 pw.x -in pw.inp   Done                     12/31/2018 17:31:37
00012 suncat0059 pw.x -in pw.inp   Done                     12/31/2018 17:31:37
00013 suncat0059 pw.x -in pw.inp   Done                     12/31/2018 17:31:37
00014 suncat0059 pw.x -in pw.inp   Done                     12/31/2018 17:31:37
00015 suncat0059 pw.x -in pw.inp   Done                     12/31/2018 17:31:37
00016 suncat0031 pw.x -in pw.inp   Done                     12/31/2018 17:31:37
00017 suncat0031 pw.x -in pw.inp   Done                     12/31/2018 17:31:37
00018 suncat0031 pw.x -in pw.inp   Done                     12/31/2018 17:31:37
00019 suncat0031 pw.x -in pw.inp   Done                     12/31/2018 17:31:37
00020 suncat0031 pw.x -in pw.inp   Done                     12/31/2018 17:31:37
00021 suncat0031 pw.x -in pw.inp   Done                     12/31/2018 17:31:37
00022 suncat0031 pw.x -in pw.inp   Done                     12/31/2018 17:31:37
00023 suncat0031 pw.x -in pw.inp   Done                     12/31/2018 17:31:37
00024 suncat0030 pw.x -in pw.inp   Done                     12/31/2018 17:31:37
00025 suncat0030 pw.x -in pw.inp   Done                     12/31/2018 17:31:37
00026 suncat0030 pw.x -in pw.inp   Done                     12/31/2018 17:31:37
00027 suncat0030 pw.x -in pw.inp   Done                     12/31/2018 17:31:37
00028 suncat0030 pw.x -in pw.inp   Done                     12/31/2018 17:31:37
00029 suncat0030 pw.x -in pw.inp   Done                     12/31/2018 17:31:37
00030 suncat0030 pw.x -in pw.inp   Done                     12/31/2018 17:31:37
00031 suncat0030 pw.x -in pw.inp   Done                     12/31/2018 17:31:37
00032 suncat0280 pw.x -in pw.inp   Done                     12/31/2018 17:31:37
00033 suncat0280 pw.x -in pw.inp   Done                     12/31/2018 17:31:37
00034 suncat0280 pw.x -in pw.inp   Done                     12/31/2018 17:31:37
00035 suncat0280 pw.x -in pw.inp   Done                     12/31/2018 17:31:37
00036 suncat0280 pw.x -in pw.inp   Done                     12/31/2018 17:31:37
00037 suncat0280 pw.x -in pw.inp   Done                     12/31/2018 17:31:37
00038 suncat0280 pw.x -in pw.inp   Done                     12/31/2018 17:31:37
00039 suncat0280 pw.x -in pw.inp   Done                     12/31/2018 17:31:37
00040 suncat0279 pw.x -in pw.inp   Done                     12/31/2018 17:31:37
00041 suncat0279 pw.x -in pw.inp   Done                     12/31/2018 17:31:37
00042 suncat0279 pw.x -in pw.inp   Done                     12/31/2018 17:31:37
00043 suncat0279 pw.x -in pw.inp   Done                     12/31/2018 17:31:37
00044 suncat0279 pw.x -in pw.inp   Done                     12/31/2018 17:31:37
00045 suncat0279 pw.x -in pw.inp   Done                     12/31/2018 17:31:37
00046 suncat0279 pw.x -in pw.inp   Done                     12/31/2018 17:31:37
00047 suncat0279 pw.x -in pw.inp   Done                     12/31/2018 17:31:37
00048 suncat0278 pw.x -in pw.inp   Done                     12/31/2018 17:31:37
00049 suncat0278 pw.x -in pw.inp   Done                     12/31/2018 17:31:37
00050 suncat0278 pw.x -in pw.inp   Done                     12/31/2018 17:31:37
00051 suncat0278 pw.x -in pw.inp   Done                     12/31/2018 17:31:37
00052 suncat0278 pw.x -in pw.inp   Done                     12/31/2018 17:31:37
00053 suncat0278 pw.x -in pw.inp   Done                     12/31/2018 17:31:37
00054 suncat0278 pw.x -in pw.inp   Done                     12/31/2018 17:31:37
00055 suncat0278 pw.x -in pw.inp   Done                     12/31/2018 17:31:37
00056 suncat0099 pw.x -in pw.inp   Done                     12/31/2018 17:31:37
00057 suncat0099 pw.x -in pw.inp   Done                     12/31/2018 17:31:37
00058 suncat0099 pw.x -in pw.inp   Done                     12/31/2018 17:31:37
00059 suncat0099 pw.x -in pw.inp   Done                     12/31/2018 17:31:37
00060 suncat0099 pw.x -in pw.inp   Done                     12/31/2018 17:31:37
00061 suncat0099 pw.x -in pw.inp   Done                     12/31/2018 17:31:37
00062 suncat0099 pw.x -in pw.inp   Done                     12/31/2018 17:31:37
00063 suncat0099 pw.x -in pw.inp   Done                     12/31/2018 17:31:37