     Program PWSCF v.5.1rc2 (svn rev. 11289) starts on  1Jan2019 at 17:48:10

     Current dimensions of program PWSCF are:
     Max number of different atomic species (ntypx) = 10
     Max number of k-points (npk) =  40000
     Max angular momentum in pseudopotentials (lmaxx) =  3
     Presently stress not available with electric field

     IMPORTANT: XC functional enforced from input :
     Exchange-correlation      = BEEF-VDW ( 1  4 27 13 2)
     Any further DFT definition will be discarded
     Please, verify this is what you really want

     Subspace diagonalization in iterative solution of the eigenvalue problem:
     a serial algorithm will be used

     bravais-lattice index     =            0
     lattice parameter (alat)  =       1.8897  a.u.
     unit-cell volume          =    4983.3311 (a.u.)^3
     number of atoms/cell      =           12
     number of atomic types    =            2
     number of electrons       =       162.00
     number of Kohn-Sham states=          111
     kinetic-energy cutoff     =      36.7493  Ry
     charge density cutoff     =     367.4932  Ry
     convergence threshold     =      1.0E-06
     mixing beta               =       0.1000
     number of iterations used =           10  plain     mixing
     Exchange-correlation      = BEEF-VDW ( 1  4 27 13 2)
     nstep                     =           50

     celldm(1)=   1.889726  celldm(2)=   0.000000  celldm(3)=   0.000000
     celldm(4)=   0.000000  celldm(5)=   0.000000  celldm(6)=   0.000000

     crystal axes: (cart. coord. in units of alat)
               a(1) = (   5.865011   0.000000   0.000000 )
               a(2) = (  -2.932506   5.079249   0.000000 )
               a(3) = (   0.000000   0.000000  24.788762 )

     reciprocal axes: (cart. coord. in units 2 pi/alat)
               b(1) = (  0.170503  0.098440  0.000000 )
               b(2) = (  0.000000  0.196880  0.000000 )
               b(3) = (  0.000000  0.000000  0.040341 )

     PseudoPot. # 1 for Ta read from file:
     /afs/slac.stanford.edu/u/if/mamunm/psp/gbrv1.5pbe/Ta.UPF
     MD5 check sum: f8bbe9446314a3b8ea5d9f3e3836c939
     Pseudo is Ultrasoft + core correction, Zval = 13.0
     Generated by new atomic code, or converted to UPF format
     Using radial grid of  921 points,  7 beta functions with:
                l(1) =   0
                l(2) =   0
                l(3) =   1
                l(4) =   1
                l(5) =   2
                l(6) =   2
                l(7) =   3
     Q(r) pseudized with  6 coefficients,  rinner =    1.300   1.300   1.300
                                                       1.300   1.300   1.300
                                                       1.300

     PseudoPot. # 2 for Re read from file:
     /afs/slac.stanford.edu/u/if/mamunm/psp/gbrv1.5pbe/Re.UPF
     MD5 check sum: 85f993410f3e006da9d71c142b4ad953
     Pseudo is Ultrasoft + core correction, Zval = 15.0
     Generated by new atomic code, or converted to UPF format
     Using radial grid of  981 points,  8 beta functions with:
                l(1) =   0
                l(2) =   0
                l(3) =   1
                l(4) =   1
                l(5) =   2
                l(6) =   2
                l(7) =   3
                l(8) =   3
     Q(r) pseudized with  8 coefficients,  rinner =    1.150   1.150   1.150
                                                       1.150   1.150   1.150
                                                       1.150

     vdW kernel table read from file vdW_kernel_table
     MD5 check sum: 095c7af220d748ca6e76c0b4c6cfb241

     atomic species   valence    mass     pseudopotential
        Ta1           13.00   180.94788     Ta( 1.00)
        Re1           15.00   186.20700     Re( 1.00)

     No symmetry found

   Cartesian axes

     site n.     atom                  positions (alat units)
         1           Ta1 tau(   1) = (   0.0000000   0.0000000  10.0000000  )
         2           Ta1 tau(   2) = (  -1.4662528   2.5396243  10.0000000  )
         3           Ta1 tau(   3) = (   1.4662528   2.5396243  10.0000000  )
         4           Re1 tau(   4) = (   2.9325056   0.0000000  10.0000000  )
         5           Ta1 tau(   5) = (   2.9325056   1.6930829  12.3943808  )
         6           Ta1 tau(   6) = (   1.4662528   4.2327072  12.3943808  )
         7           Ta1 tau(   7) = (  -1.4662528   4.2327072  12.3943808  )
         8           Re1 tau(   8) = (   0.0000000   1.6930829  12.3943808  )
         9           Ta1 tau(   9) = (  -0.0000000   3.3861657  14.7887615  )
        10           Ta1 tau(  10) = (   1.4662528   0.8465414  14.7887615  )
        11           Ta1 tau(  11) = (   4.3987583   0.8465414  14.7887615  )
        12           Re1 tau(  12) = (   2.9325056   3.3861657  14.7887615  )

     number of k points=    20  Fermi-Dirac smearing, width (Ry)=  0.0110
                       cart. coord. in units 2pi/alat
        k(    1) = (   0.0000000   0.0000000   0.0000000), wk =   0.0555556
        k(    2) = (   0.0000000   0.0328133   0.0000000), wk =   0.1111111
        k(    3) = (   0.0000000   0.0656265   0.0000000), wk =   0.1111111
        k(    4) = (   0.0000000  -0.0984398   0.0000000), wk =   0.0555556
        k(    5) = (   0.0284171   0.0164066   0.0000000), wk =   0.1111111
        k(    6) = (   0.0284171   0.0492199   0.0000000), wk =   0.1111111
        k(    7) = (   0.0284171   0.0820331   0.0000000), wk =   0.1111111
        k(    8) = (   0.0284171  -0.0820331   0.0000000), wk =   0.1111111
        k(    9) = (   0.0284171  -0.0492199   0.0000000), wk =   0.1111111
        k(   10) = (   0.0284171  -0.0164066   0.0000000), wk =   0.1111111
        k(   11) = (   0.0568342   0.0328133   0.0000000), wk =   0.1111111
        k(   12) = (   0.0568342   0.0656265   0.0000000), wk =   0.1111111
        k(   13) = (   0.0568342   0.0984398   0.0000000), wk =   0.1111111
        k(   14) = (   0.0568342  -0.0656265   0.0000000), wk =   0.1111111
        k(   15) = (   0.0568342  -0.0328133   0.0000000), wk =   0.1111111
        k(   16) = (   0.0568342   0.0000000   0.0000000), wk =   0.1111111
        k(   17) = (  -0.0852513  -0.0492199   0.0000000), wk =   0.0555556
        k(   18) = (  -0.0852513  -0.0164066   0.0000000), wk =   0.1111111
        k(   19) = (  -0.0852513   0.0164066   0.0000000), wk =   0.1111111
        k(   20) = (  -0.0852513  -0.1476596   0.0000000), wk =   0.0555556

     Largest allocated arrays     est. size (Mb)     dimensions
     Largest temporary arrays     est. size (Mb)     dimensions

     Initial potential from superposition of free atoms
     Check: negative starting charge=   -1.225160

     starting charge  160.48986, renormalised to  162.00000

     negative rho (up, down):  1.237E+00 0.000E+00

     *
     * You are using vdW-DF for exchange-correlation in this calculation.
     * Please cite the following three references that made this development
     * possible:
     *
     *   M. Dion, H. Rydberg, E. Schroder, D. C. Langreth, and
     *   B. I. Lundqvist, Phys. Rev. Lett. 92, 246401 (2004).
     *
     *   T. Thonhauser, V. R. Cooper, S. Li, A. Puzder, P. Hyldgaard, and
     *   D. C. Langreth, Phys. Rev. B 76, 125112 (2007).
     *
     *   G. Roman-Perez and J. M. Soler, Phys. Rev. Lett. 103, 096102 (2009).
     *
     *
     * If you are using vdW-DF2, please also cite:
     *
     *   K. Lee, E. D. Murray, L. Kong, B. I. Lundqvist, and
     *   D. C. Langreth, Phys. Rev. B 82, 081101(R) (2010).
     *
     *
     * If you are calculating the stress with vdW-DF, please also cite:
     *
     *   R. Sabatini, E. Kucukbenli, B. Kolb, T. Thonhauser, and
     *   S. de Gironcoli, J. Phys.: Condens. Matter 24, 424209 (2012).
     *

     Carrying out vdW-DF run using the following parameters:

     Nqs =      20    Nr_points =    1024   r_max =   100.000
     q_mesh =
               0.00001000     0.04494208     0.09755937     0.15916263
               0.23128650     0.31572767     0.41458969     0.53033537
               0.66584808     0.82450364     1.01025438     1.22772762
               1.48234092     1.78043706     2.12944203     2.53805004
               3.01644009     3.57652955     4.23227104     5.00000000

     Gradients computed in reciprocal space

     Adding external electric field

     Computed dipole along edir(3) :
        Dipole               -0.0000 Ry au,         -0.0000 Debye
        Dipole field         -0.0000 Ry au

        Potential amp.        0.0000 Ry
        Total length         45.6729 bohr

     Starting wfc are  156 randomized atomic wfcs

     Self-consistent Calculation

     iteration #  1     ecut=    36.75 Ry     beta=0.10
     Davidson diagonalization with overlap
     ethr =  1.00E-02,  avg # of iterations =  2.0

[...]

     total energy              =   -1864.71720984 Ry
     Harris-Foulkes estimate   =   -1865.72898922 Ry
     estimated scf accuracy    <       5.88565151 Ry

[...]

     End of self-consistent calculation

          k = 0.0000 0.0000 0.0000 ( 18859 PWs)   bands (ev):

   -78.0913 -77.8501 -77.8501 -66.1810 -66.1739 -66.1238 -66.1238 -66.1220
   -66.1219 -66.0879 -66.0405 -66.0404 -39.7740 -39.7740 -39.7526 -39.5721
   -39.5677 -39.5082 -39.5082 -39.5070 -39.5070 -32.9998 -32.8741 -32.8334
   -32.7612 -32.7612 -32.7580 -32.6877 -32.6877 -32.6308 -32.5984 -32.5984
   -32.5338 -32.5338 -32.4345 -32.4345 -32.3092 -32.2363 -32.2201 -32.2200
   -32.2200 -32.1269 -32.0867 -32.0867 -32.0849 -32.0848 -32.0663 -32.0663
    -5.5971  -3.9157  -2.9777  -2.3651  -2.3224  -2.3224  -2.1267  -2.1267
    -2.1098  -1.3973  -1.3973  -1.3586  -1.2869  -1.2869  -1.2661  -0.0333
    -0.0333   0.1815   0.9605   1.0286   1.0286   1.1792   1.5827   1.7842
     1.8280   2.0539   2.0539   2.0850   2.0850   2.2760   2.2760   2.3387
     2.3387   2.5784   2.5784   2.6290   2.8855   2.9630   3.1191   3.1191
     3.7731   3.7731   3.9386   3.9490   3.9490   4.5361   4.5362   4.6702
     4.6903   5.3556   5.3557   5.5100   5.5100   6.1883   6.2351   6.3459
     6.3459   6.3800   6.4391   6.4392   6.6323   6.6323   6.9684

[...]

          k =-0.0853-0.0492 0.0000 ( 18704 PWs)   bands (ev):

[...]

     the Fermi energy is     2.1467 ev

!    total energy              =   -1865.12232161 Ry
     Harris-Foulkes estimate   =   -1865.12232320 Ry
     estimated scf accuracy    <       0.00000071 Ry

     The total energy is the sum of the following terms:

     one-electron contribution =  -12789.50222218 Ry
     hartree contribution      =    6377.43495210 Ry
     xc contribution           =    -554.19476523 Ry
     ewald contribution        =    5101.24420128 Ry
     electric field correction =       0.00000001 Ry
     smearing contrib. (-TS)   =      -0.10448758 Ry

     convergence has been achieved in  15 iterations

 BEEF-vdW xc energy contributions
           1 :   -489.098205135068
           2 :    452.441227460044
           3 :   -387.879601482132
           4 :    309.557742509413
           5 :   -232.087066059085
           6 :    166.205900633999
           7 :   -116.585569328330
           8 :    82.2465609809863
           9 :   -58.8802079581784
[...]
     Generated by new atomic code, or converted to UPF format
     Using radial grid of  921 points,  7 beta functions with:
                l(1) =   0
                l(2) =   0
                l(3) =   1
                l(4) =   1
                l(5) =   2
                l(6) =   2
                l(7) =   3
     Q(r) pseudized with  6 coefficients,  rinner =    1.300   1.300   1.300
                                                       1.300   1.300   1.300
                                                       1.300

     PseudoPot. # 2 for Re read from file:
     /afs/slac.stanford.edu/u/if/mamunm/psp/gbrv1.5pbe/Re.UPF
     MD5 check sum: 85f993410f3e006da9d71c142b4ad953
     Pseudo is Ultrasoft + core correction, Zval = 15.0
     Generated by new atomic code, or converted to UPF format
     Using radial grid of  981 points,  8 beta functions with:
                l(1) =   0
                l(2) =   0
                l(3) =   1
                l(4) =   1
                l(5) =   2
                l(6) =   2
                l(7) =   3
                l(8) =   3
     Q(r) pseudized with  8 coefficients,  rinner =    1.150   1.150   1.150
                                                       1.150   1.150   1.150
                                                       1.150

     vdW kernel table read from file vdW_kernel_table
     MD5 check sum: 095c7af220d748ca6e76c0b4c6cfb241

     atomic species   valence    mass     pseudopotential
        Ta1           13.00   180.94788     Ta( 1.00)
        Re1           15.00   186.20700     Re( 1.00)

     No symmetry found

   Cartesian axes

     site n.     atom                  positions (alat units)
         1           Ta1 tau(   1) = (   0.0000000   0.0000000  10.0000000  )
         2           Ta1 tau(   2) = (  -1.4662528   2.5396243  10.0000000  )
         3           Ta1 tau(   3) = (   1.4662528   2.5396243  10.0000000  )
         4           Re1 tau(   4) = (   2.9325056   0.0000000  10.0000000  )
         5           Ta1 tau(   5) = (   2.9325056   1.6930829  12.3943808  )
         6           Ta1 tau(   6) = (   1.4662528   4.2327072  12.3943808  )
         7           Ta1 tau(   7) = (  -1.4662528   4.2327072  12.3943808  )
         8           Re1 tau(   8) = (   0.0000000   1.6930829  12.3943808  )
         9           Ta1 tau(   9) = (   0.0000001   3.3516677  14.8340358  )
        10           Ta1 tau(  10) = (   1.4363695   0.8637890  14.8340293  )
        11           Ta1 tau(  11) = (   4.4286416   0.8637932  14.8340244  )
        12           Re1 tau(  12) = (   2.9325123   3.3861548  14.6366987  )

     number of k points=    20  Fermi-Dirac smearing, width (Ry)=  0.0110
                       cart. coord. in units 2pi/alat
        k(    1) = (   0.0000000   0.0000000   0.0000000), wk =   0.0555556
        k(    2) = (   0.0000000   0.0328133   0.0000000), wk =   0.1111111
        k(    3) = (   0.0000000   0.0656265   0.0000000), wk =   0.1111111
        k(    4) = (   0.0000000  -0.0984398   0.0000000), wk =   0.0555556
        k(    5) = (   0.0284171   0.0164066   0.0000000), wk =   0.1111111
        k(    6) = (   0.0284171   0.0492199   0.0000000), wk =   0.1111111
        k(    7) = (   0.0284171   0.0820331   0.0000000), wk =   0.1111111
        k(    8) = (   0.0284171  -0.0820331   0.0000000), wk =   0.1111111
        k(    9) = (   0.0284171  -0.0492199   0.0000000), wk =   0.1111111
        k(   10) = (   0.0284171  -0.0164066   0.0000000), wk =   0.1111111
        k(   11) = (   0.0568342   0.0328133   0.0000000), wk =   0.1111111
        k(   12) = (   0.0568342   0.0656265   0.0000000), wk =   0.1111111
        k(   13) = (   0.0568342   0.0984398   0.0000000), wk =   0.1111111
        k(   14) = (   0.0568342  -0.0656265   0.0000000), wk =   0.1111111
        k(   15) = (   0.0568342  -0.0328133   0.0000000), wk =   0.1111111
        k(   16) = (   0.0568342   0.0000000   0.0000000), wk =   0.1111111
        k(   17) = (  -0.0852513  -0.0492199   0.0000000), wk =   0.0555556
        k(   18) = (  -0.0852513  -0.0164066   0.0000000), wk =   0.1111111
        k(   19) = (  -0.0852513   0.0164066   0.0000000), wk =   0.1111111
        k(   20) = (  -0.0852513  -0.1476596   0.0000000), wk =   0.0555556

     Largest allocated arrays     est. size (Mb)     dimensions
     Largest temporary arrays     est. size (Mb)     dimensions

     Initial potential from superposition of free atoms
     Check: negative starting charge=   -1.227625

     starting charge  160.48986, renormalised to  162.00000

[...]

     *
     * You are using vdW-DF for exchange-correlation in this calculation.
     * Please cite the following three references that made this development
     * possible:
     *
     *   M. Dion, H. Rydberg, E. Schroder, D. C. Langreth, and
     *   B. I. Lundqvist, Phys. Rev. Lett. 92, 246401 (2004).
     *
     *   T. Thonhauser, V. R. Cooper, S. Li, A. Puzder, P. Hyldgaard, and
     *   D. C. Langreth, Phys. Rev. B 76, 125112 (2007).
     *
     *   G. Roman-Perez and J. M. Soler, Phys. Rev. Lett. 103, 096102 (2009).
     *
     *
     * If you are using vdW-DF2, please also cite:
     *
     *   K. Lee, E. D. Murray, L. Kong, B. I. Lundqvist, and
     *   D. C. Langreth, Phys. Rev. B 82, 081101(R) (2010).
     *
     *
     * If you are calculating the stress with vdW-DF, please also cite:
     *
     *   R. Sabatini, E. Kucukbenli, B. Kolb, T. Thonhauser, and
     *   S. de Gironcoli, J. Phys.: Condens. Matter 24, 424209 (2012).
     *

     Carrying out vdW-DF run using the following parameters:

     Nqs =      20    Nr_points =    1024   r_max =   100.000
     q_mesh =
               0.00001000     0.04494208     0.09755937     0.15916263
               0.23128650     0.31572767     0.41458969     0.53033537
               0.66584808     0.82450364     1.01025438     1.22772762
               1.48234092     1.78043706     2.12944203     2.53805004
               3.01644009     3.57652955     4.23227104     5.00000000

     Gradients computed in reciprocal space

[...]

     Starting wfc are  156 randomized atomic wfcs

     Self-consistent Calculation

[...]

     total energy              =   -1865.14043217 Ry
     Harris-Foulkes estimate   =   -1865.14043216 Ry
     estimated scf accuracy    <       0.00000166 Ry

     iteration # 16     ecut=    36.75 Ry     beta=0.10
     Davidson diagonalization with overlap
     ethr =  1.02E-09,  avg # of iterations =  2.7

[...]

     negative rho (up, down):  1.282E+00 0.000E+00

     Adding external electric field

     Computed dipole along edir(3) :
        Dipole                0.0265 Ry au,          0.0674 Debye
        Dipole field          0.0001 Ry au

        Potential amp.       -0.0061 Ry
        Total length         45.6729 bohr

     End of self-consistent calculation

[...]

          k = 0.0568 0.0000 0.0000 ( 18741 PWs)   bands (ev):

[...]

          k =-0.0853-0.1477 0.0000 ( 18704 PWs)   bands (ev):

   -78.0649 -77.8107 -77.7991 -66.1497 -66.1284 -66.1172 -66.1113 -66.0994
   -66.0809 -66.0316 -66.0164 -65.9997 -39.7427 -39.7385 -39.7257 -39.5361
   -39.5162 -39.4790 -39.4749 -39.4634 -39.4591 -32.7943 -32.7613 -32.7030
   -32.6717 -32.6326 -32.6209 -32.5843 -32.5841 -32.5401 -32.4858 -32.4847
   -32.4566 -32.4243 -32.3946 -32.3853 -32.3782 -32.3637 -32.3512 -32.3173
   -32.2849 -32.2798 -32.1960 -32.1596 -32.1535 -32.0900 -32.0649 -32.0469
    -3.7403  -3.6771  -2.2651  -2.2034  -1.5097  -1.4077  -1.3009  -1.2786
    -1.2451  -1.0795  -0.4786  -0.3263  -0.2649  -0.1172  -0.0086   0.0541
     0.2166   0.3745   0.4202   0.4993   0.6001   0.7927   0.8398   1.0399
     1.0804   1.1902   1.3313   1.4953   1.4981   1.5004   1.7126   1.7959
     1.8074   2.0082   2.0369   2.1909   2.3007   2.3545   2.9280   2.9976
     3.0546   3.3771   3.5190   3.6051   3.6651   3.8976   4.0076   4.1194
     4.2874   4.3740   4.4184   4.6616   4.7354   4.8106   5.0873   5.2271
     5.4314   5.5464   5.5796   5.9365   6.1329   6.3665   6.6277

     the Fermi energy is     2.1850 ev

!    total energy              =   -1865.14043310 Ry
     Harris-Foulkes estimate   =   -1865.14043177 Ry
     estimated scf accuracy    <       0.00000093 Ry

     The total energy is the sum of the following terms:

     one-electron contribution =  -12805.56925079 Ry
     hartree contribution      =    6385.62978947 Ry
     xc contribution           =    -554.21753524 Ry
     ewald contribution        =    5109.11957128 Ry
     electric field correction =       0.00000177 Ry
     smearing contrib. (-TS)   =      -0.10300958 Ry

     convergence has been achieved in  16 iterations

 BEEF-vdW xc energy contributions
           1 :   -489.463059813392
           2 :    452.811222467113
           3 :   -388.257616980539
           4 :    309.942338056325
           5 :   -232.470053045708
           6 :    166.572378406066
           7 :   -116.920304297670
           8 :    82.5445199511710
           9 :   -59.1533432596693
          10 :    41.9603267098680
          11 :   -27.7214713982854
          12 :    15.3470791519551
          13 :   -5.26733439148529
          14 :   -1.74285507279114
          15 :    5.51795673756988
          16 :   -6.79838866304294
          17 :    6.88045953010055
          18 :   -6.96438067635677
          19 :    7.63001850759838
          20 :   -8.72039947010467
          21 :    9.64211575069021
          22 :   -9.85574117809472
          23 :    9.24527024232350
          24 :   -8.16482066743129
          25 :    7.17991023647357
          26 :   -6.70517648242333
          27 :    6.77627239988135
          28 :   -7.08006835501169
          29 :    7.19182153771555
          30 :   -6.84853461460966
          31 :   -42.7334426929988
          32 :   -31.6949636068298

     Forces acting on atoms (Ry/au):

     negative rho (up, down):  1.282E+00 0.000E+00
     atom    1 type  1   force =    -0.00000036    0.01909570   -0.00878881
     atom    2 type  1   force =     0.01653861   -0.00954740   -0.00878996
     atom    3 type  1   force =    -0.01653980   -0.00954638   -0.00878843
     atom    4 type  2   force =    -0.00000034   -0.00000406    0.02290576
     atom    5 type  1   force =    -0.00000195   -0.00880110    0.00077448
     atom    6 type  1   force =    -0.00762275    0.00440019    0.00077630
     atom    7 type  1   force =     0.00762336    0.00440170    0.00077352
     atom    8 type  2   force =     0.00000088    0.00000065    0.00520786
     atom    9 type  1   force =     0.00000366   -0.00021182   -0.00083426
     atom   10 type  1   force =    -0.00018350    0.00010735   -0.00083162
     atom   11 type  1   force =     0.00018435    0.00010341   -0.00083102
     atom   12 type  2   force =    -0.00000216    0.00000177   -0.00157382

     Total force =     0.046005     Total SCF correction =     0.004360

     entering subroutine stress ...

     negative rho (up, down):  1.282E+00 0.000E+00
          total   stress  (Ry/bohr**3)                   (kbar)     P=  -38.79
  -0.00037299  -0.00000000   0.00000000        -54.87     -0.00      0.00
  -0.00000000  -0.00037299  -0.00000000         -0.00    -54.87     -0.00
   0.00000000  -0.00000000  -0.00004520          0.00     -0.00     -6.65

 !ASE

     Writing output data file calc.save

     General routines

     Parallel routines

   This run was terminated on:  18:50:57   1Jan2019

   JOB DONE.
Job  /afs/slac/g/suncat/bin/suncat-tsmpirun -x LD_LIBRARY_PATH -wdir /scratch/qe649124_XZJiI pw.x -in pw.inp

TID   HOST_NAME   COMMAND_LINE            STATUS            TERMINATION_TIME
00000 suncat0154 pw.x -in pw.inp   Done                     01/01/2019 18:50:57
00001 suncat0154 pw.x -in pw.inp   Done                     01/01/2019 18:50:57
00002 suncat0154 pw.x -in pw.inp   Done                     01/01/2019 18:50:57
00003 suncat0154 pw.x -in pw.inp   Done                     01/01/2019 18:50:57
00004 suncat0154 pw.x -in pw.inp   Done                     01/01/2019 18:50:57
00005 suncat0154 pw.x -in pw.inp   Done                     01/01/2019 18:50:57
00006 suncat0154 pw.x -in pw.inp   Done                     01/01/2019 18:50:57
00007 suncat0154 pw.x -in pw.inp   Done                     01/01/2019 18:50:57
00008 suncat0143 pw.x -in pw.inp   Done                     01/01/2019 18:50:57
00009 suncat0143 pw.x -in pw.inp   Done                     01/01/2019 18:50:57
00010 suncat0143 pw.x -in pw.inp   Done                     01/01/2019 18:50:57
00011 suncat0143 pw.x -in pw.inp   Done                     01/01/2019 18:50:57
00012 suncat0143 pw.x -in pw.inp   Done                     01/01/2019 18:50:57
00013 suncat0143 pw.x -in pw.inp   Done                     01/01/2019 18:50:57
00014 suncat0143 pw.x -in pw.inp   Done                     01/01/2019 18:50:57
00015 suncat0143 pw.x -in pw.inp   Done                     01/01/2019 18:50:57
00016 suncat0108 pw.x -in pw.inp   Done                     01/01/2019 18:50:57
00017 suncat0108 pw.x -in pw.inp   Done                     01/01/2019 18:50:57
00018 suncat0108 pw.x -in pw.inp   Done                     01/01/2019 18:50:57
00019 suncat0108 pw.x -in pw.inp   Done                     01/01/2019 18:50:57
00020 suncat0108 pw.x -in pw.inp   Done                     01/01/2019 18:50:57
00021 suncat0108 pw.x -in pw.inp   Done                     01/01/2019 18:50:57
00022 suncat0108 pw.x -in pw.inp   Done                     01/01/2019 18:50:57
00023 suncat0108 pw.x -in pw.inp   Done                     01/01/2019 18:50:57
00024 suncat0252 pw.x -in pw.inp   Done                     01/01/2019 18:50:57
00025 suncat0252 pw.x -in pw.inp   Done                     01/01/2019 18:50:57
00026 suncat0252 pw.x -in pw.inp   Done                     01/01/2019 18:50:57
00027 suncat0252 pw.x -in pw.inp   Done                     01/01/2019 18:50:57
00028 suncat0252 pw.x -in pw.inp   Done                     01/01/2019 18:50:57
00029 suncat0252 pw.x -in pw.inp   Done                     01/01/2019 18:50:57
00030 suncat0252 pw.x -in pw.inp   Done                     01/01/2019 18:50:57
00031 suncat0252 pw.x -in pw.inp   Done                     01/01/2019 18:50:57
00032 suncat0226 pw.x -in pw.inp   Done                     01/01/2019 18:50:57
00033 suncat0226 pw.x -in pw.inp   Done                     01/01/2019 18:50:57
00034 suncat0226 pw.x -in pw.inp   Done                     01/01/2019 18:50:57
00035 suncat0226 pw.x -in pw.inp   Done                     01/01/2019 18:50:57
00036 suncat0226 pw.x -in pw.inp   Done                     01/01/2019 18:50:57
00037 suncat0226 pw.x -in pw.inp   Done                     01/01/2019 18:50:57
00038 suncat0226 pw.x -in pw.inp   Done                     01/01/2019 18:50:57
00039 suncat0226 pw.x -in pw.inp   Done                     01/01/2019 18:50:57
00040 suncat0225 pw.x -in pw.inp   Done                     01/01/2019 18:50:57
00041 suncat0225 pw.x -in pw.inp   Done                     01/01/2019 18:50:57
00042 suncat0225 pw.x -in pw.inp   Done                     01/01/2019 18:50:57
00043 suncat0225 pw.x -in pw.inp   Done                     01/01/2019 18:50:57
00044 suncat0225 pw.x -in pw.inp   Done                     01/01/2019 18:50:57
00045 suncat0225 pw.x -in pw.inp   Done                     01/01/2019 18:50:57
00046 suncat0225 pw.x -in pw.inp   Done                     01/01/2019 18:50:57
00047 suncat0225 pw.x -in pw.inp   Done                     01/01/2019 18:50:57
00048 suncat0224 pw.x -in pw.inp   Done                     01/01/2019 18:50:57
00049 suncat0224 pw.x -in pw.inp   Done                     01/01/2019 18:50:57
00050 suncat0224 pw.x -in pw.inp   Done                     01/01/2019 18:50:57
00051 suncat0224 pw.x -in pw.inp   Done                     01/01/2019 18:50:57
00052 suncat0224 pw.x -in pw.inp   Done                     01/01/2019 18:50:57
00053 suncat0224 pw.x -in pw.inp   Done                     01/01/2019 18:50:57
00054 suncat0224 pw.x -in pw.inp   Done                     01/01/2019 18:50:57
00055 suncat0224 pw.x -in pw.inp   Done                     01/01/2019 18:50:57
00056 suncat0223 pw.x -in pw.inp   Done                     01/01/2019 18:50:57
00057 suncat0223 pw.x -in pw.inp   Done                     01/01/2019 18:50:57
00058 suncat0223 pw.x -in pw.inp   Done                     01/01/2019 18:50:57
00059 suncat0223 pw.x -in pw.inp   Done                     01/01/2019 18:50:57
00060 suncat0223 pw.x -in pw.inp   Done                     01/01/2019 18:50:57
00061 suncat0223 pw.x -in pw.inp   Done                     01/01/2019 18:50:57
00062 suncat0223 pw.x -in pw.inp   Done                     01/01/2019 18:50:57
00063 suncat0223 pw.x -in pw.inp   Done                     01/01/2019 18:50:57