     Program PWSCF v.5.1rc2 (svn rev. 11289) starts on 30Dec2018 at  8:48:47

     Current dimensions of program PWSCF are:
     Max number of different atomic species (ntypx) = 10
     Max number of k-points (npk) =  40000
     Max angular momentum in pseudopotentials (lmaxx) =  3
     Presently stress not available with electric field

     IMPORTANT: XC functional enforced from input :
     Exchange-correlation      = BEEF-VDW ( 1  4 27 13 2)
     Any further DFT definition will be discarded
     Please, verify this is what you really want

     Subspace diagonalization in iterative solution of the eigenvalue problem:
     a serial algorithm will be used

     bravais-lattice index     =            0
     lattice parameter (alat)  =       1.8897  a.u.
     unit-cell volume          =    6495.3210 (a.u.)^3
     number of atoms/cell      =           12
     number of atomic types    =            2
     number of electrons       =       126.00
     number of Kohn-Sham states=           93
     kinetic-energy cutoff     =      36.7493  Ry
     charge density cutoff     =     367.4932  Ry
     convergence threshold     =      1.0E-06
     mixing beta               =       0.1000
     number of iterations used =           10  plain     mixing
     Exchange-correlation      = BEEF-VDW ( 1  4 27 13 2)
     nstep                     =           50

     celldm(1)=   1.889726  celldm(2)=   0.000000  celldm(3)=   0.000000
     celldm(4)=   0.000000  celldm(5)=   0.000000  celldm(6)=   0.000000

     crystal axes: (cart. coord. in units of alat)
               a(1) = (   6.614730   0.000000   0.000000 )
               a(2) = (  -3.307365   5.728524   0.000000 )
               a(3) = (   0.000000   0.000000  25.400904 )

     reciprocal axes: (cart. coord. in units 2 pi/alat)
               b(1) = (  0.151178  0.087283  0.000000 )
               b(2) = (  0.000000  0.174565  0.000000 )
               b(3) = (  0.000000  0.000000  0.039369 )

     PseudoPot. # 1 for In read from file:
     /afs/slac.stanford.edu/u/if/mamunm/psp/gbrv1.5pbe/In.UPF
     MD5 check sum: 90777abd96fbb83f2e67db2a40c566b9
     Pseudo is Ultrasoft + core correction, Zval = 13.0
     Generated by new atomic code, or converted to UPF format
     Using radial grid of  889 points,  6 beta functions with:
                l(1) =   0
                l(2) =   0
                l(3) =   1
                l(4) =   1
                l(5) =   2
                l(6) =   2
     Q(r) pseudized with  6 coefficients,  rinner =    1.400   1.400   1.400
                                                       1.400   1.400

     PseudoPot. # 2 for Al read from file:
     /afs/slac.stanford.edu/u/if/mamunm/psp/gbrv1.5pbe/Al.UPF
     MD5 check sum: 0a6289f5291fc8f409219462bc851e1f
     Pseudo is Ultrasoft + core correction, Zval =  3.0
     Generated by new atomic code, or converted to UPF format
     Using radial grid of  893 points,  3 beta functions with:
                l(1) =   0
                l(2) =   1
                l(3) =   2
     Q(r) pseudized with  8 coefficients,  rinner =    0.900   0.900   0.900
                                                       0.900   0.900

     vdW kernel table read from file vdW_kernel_table
     MD5 check sum: 095c7af220d748ca6e76c0b4c6cfb241

     atomic species   valence    mass     pseudopotential
        In1           13.00   114.81800     In( 1.00)
        Al1            3.00    26.98154     Al( 1.00)

     No symmetry found

   Cartesian axes

     site n.     atom                  positions (alat units)
         1           In1 tau(   1) = (   0.0000000   0.0000000  10.0000000  )
         2           In1 tau(   2) = (  -1.6536824   2.8642620  10.0000000  )
         3           In1 tau(   3) = (   1.6536824   2.8642620  10.0000000  )
         4           Al1 tau(   4) = (   3.3073649   0.0000000  10.0000000  )
         5           In1 tau(   5) = (   3.3073649   1.9095080  12.7004521  )
         6           In1 tau(   6) = (   1.6536824   4.7737700  12.7004521  )
         7           In1 tau(   7) = (  -1.6536824   4.7737700  12.7004521  )
         8           Al1 tau(   8) = (   0.0000000   1.9095080  12.7004521  )
         9           In1 tau(   9) = (  -0.0000000   3.8190160  15.4009042  )
        10           In1 tau(  10) = (   1.6536824   0.9547540  15.4009042  )
        11           In1 tau(  11) = (   4.9610473   0.9547540  15.4009042  )
        12           Al1 tau(  12) = (   3.3073649   3.8190160  15.4009042  )

     number of k points=    20  Fermi-Dirac smearing, width (Ry)=  0.0110
                       cart. coord. in units 2pi/alat
        k(    1) = (   0.0000000   0.0000000   0.0000000), wk =   0.0555556
        k(    2) = (   0.0000000   0.0290942   0.0000000), wk =   0.1111111
        k(    3) = (   0.0000000   0.0581883   0.0000000), wk =   0.1111111
        k(    4) = (   0.0000000  -0.0872825   0.0000000), wk =   0.0555556
        k(    5) = (   0.0251963   0.0145471   0.0000000), wk =   0.1111111
        k(    6) = (   0.0251963   0.0436413   0.0000000), wk =   0.1111111
        k(    7) = (   0.0251963   0.0727354   0.0000000), wk =   0.1111111
        k(    8) = (   0.0251963  -0.0727354   0.0000000), wk =   0.1111111
        k(    9) = (   0.0251963  -0.0436413   0.0000000), wk =   0.1111111
        k(   10) = (   0.0251963  -0.0145471   0.0000000), wk =   0.1111111
        k(   11) = (   0.0503926   0.0290942   0.0000000), wk =   0.1111111
        k(   12) = (   0.0503926   0.0581883   0.0000000), wk =   0.1111111
        k(   13) = (   0.0503926   0.0872825   0.0000000), wk =   0.1111111
        k(   14) = (   0.0503926  -0.0581883   0.0000000), wk =   0.1111111
        k(   15) = (   0.0503926  -0.0290942   0.0000000), wk =   0.1111111
        k(   16) = (   0.0503926   0.0000000   0.0000000), wk =   0.1111111
        k(   17) = (  -0.0755889  -0.0436413   0.0000000), wk =   0.0555556
        k(   18) = (  -0.0755889  -0.0145471   0.0000000), wk =   0.1111111
        k(   19) = (  -0.0755889   0.0145471   0.0000000), wk =   0.1111111
        k(   20) = (  -0.0755889  -0.1309238   0.0000000), wk =   0.0555556

     Largest allocated arrays     est. size (Mb)     dimensions
     Largest temporary arrays     est. size (Mb)     dimensions

     Initial potential from superposition of free atoms
     Check: negative starting charge=   -0.000193

     starting charge  112.49260, renormalised to  126.00000

     negative rho (up, down):  2.165E-04 0.000E+00

     *
     * You are using vdW-DF for exchange-correlation in this calculation.
     * Please cite the following three references that made this development
     * possible:
     *
     *   M. Dion, H. Rydberg, E. Schroder, D. C. Langreth, and
     *   B. I. Lundqvist, Phys. Rev. Lett. 92, 246401 (2004).
     *
     *   T. Thonhauser, V. R. Cooper, S. Li, A. Puzder, P. Hyldgaard, and
     *   D. C. Langreth, Phys. Rev. B 76, 125112 (2007).
     *
     *   G. Roman-Perez and J. M. Soler, Phys. Rev. Lett. 103, 096102 (2009).
     *
     *
     * If you are using vdW-DF2, please also cite:
     *
     *   K. Lee, E. D. Murray, L. Kong, B. I. Lundqvist, and
     *   D. C. Langreth, Phys. Rev. B 82, 081101(R) (2010).
     *
     *
     * If you are calculating the stress with vdW-DF, please also cite:
     *
     *   R. Sabatini, E. Kucukbenli, B. Kolb, T. Thonhauser, and
     *   S. de Gironcoli, J. Phys.: Condens. Matter 24, 424209 (2012).
     *

     Carrying out vdW-DF run using the following parameters:

     Nqs =      20    Nr_points =    1024   r_max =   100.000
     q_mesh =
               0.00001000     0.04494208     0.09755937     0.15916263
               0.23128650     0.31572767     0.41458969     0.53033537
               0.66584808     0.82450364     1.01025438     1.22772762
               1.48234092     1.78043706     2.12944203     2.53805004
               3.01644009     3.57652955     4.23227104     5.00000000

     Gradients computed in reciprocal space

     Adding external electric field

     Computed dipole along edir(3) :
        Dipole               -0.0000 Ry au,         -0.0000 Debye
        Dipole field         -0.0000 Ry au

        Potential amp.        0.0000 Ry
        Total length         46.8007 bohr

     Starting wfc are   93 randomized atomic wfcs

     Self-consistent Calculation

     iteration #  1     ecut=    36.75 Ry     beta=0.10
     Davidson diagonalization with overlap
     ethr =  1.00E-02,  avg # of iterations =  7.8

[...]

     total energy              =   -1237.91185071 Ry
     Harris-Foulkes estimate   =   -1244.80702094 Ry
     estimated scf accuracy    <      39.41168363 Ry

[...]

     End of self-consistent calculation

          k = 0.0000 0.0000 0.0000 ( 24321 PWs)   bands (ev):

   -15.0100 -14.9870 -14.9870 -14.9780 -14.9670 -14.9377 -14.9123 -14.9123
   -14.8969 -14.8936 -14.8936 -14.8655 -14.8655 -14.8624 -14.8483 -14.8483
   -14.8302 -14.8139 -14.7952 -14.7952 -14.7524 -14.7479 -14.7207 -14.7207
   -14.7136 -14.7136 -14.7113 -14.6982 -14.6982 -14.6960 -14.6960 -14.6933
   -14.6933 -14.6735 -14.6735 -14.6371 -14.6371 -14.6040 -14.6040 -14.5995
   -14.5669 -14.5669 -14.5556 -14.5389 -14.5326  -8.8549  -7.5385  -5.5269
    -4.2801  -4.2801  -3.9443  -3.9443  -3.9035  -3.7415  -2.7629  -2.7629
    -2.4944  -2.4441  -2.4441  -2.4141  -2.0800  -0.8314  -0.8314  -0.7664
    -0.6454  -0.6454  -0.5480   0.7686   2.4878   2.5535   2.6725   2.6725
     2.6892   2.6892   2.7576   3.4850   4.1457   4.3739   4.3739   4.4692
     4.9313   4.9468   5.2055   5.2055   5.6002   5.6002   5.9000   5.9779
     6.1228   6.1228   6.2143   6.2992   6.9881

[...]

          k =-0.0756-0.0436 0.0000 ( 24420 PWs)   bands (ev):

[...]

     the Fermi energy is     0.0194 ev

!    total energy              =   -1233.46183527 Ry
     Harris-Foulkes estimate   =   -1233.46182283 Ry
     estimated scf accuracy    <       0.00000014 Ry

     The total energy is the sum of the following terms:

     one-electron contribution =   -6131.15464719 Ry
     hartree contribution      =    3124.94071989 Ry
     xc contribution           =    -364.88879295 Ry
     ewald contribution        =    2137.67704287 Ry
     electric field correction =       0.00000000 Ry
     smearing contrib. (-TS)   =      -0.03615788 Ry

     convergence has been achieved in  15 iterations

 BEEF-vdW xc energy contributions
           1 :   -318.949229307059
           2 :    290.803065861230
           3 :   -243.531551336893
           4 :    190.746486275915
           5 :   -144.608791147237
           6 :    111.355619176155
           7 :   -90.3194244268158
           8 :    76.3266593011511
           9 :   -63.6581016113144
          10 :    49.2219225766153
          11 :   -33.4570437281646
          12 :    19.0153187583805
          13 :   -8.49611130210252
          14 :    2.74710113806145
          15 :  -0.583329735373525
          16 :  -0.234024109872280
          17 :    1.59896078951243
          18 :   -4.14164569152149
          19 :    7.22010396818740
          20 :   -9.65056922196840
          21 :    10.6070250017211
          22 :   -10.1201183549794
          23 :    8.93528643858264
[...]
               b(1) = (  0.151178  0.087283  0.000000 )
               b(2) = (  0.000000  0.174565  0.000000 )
               b(3) = (  0.000000  0.000000  0.039369 )

     PseudoPot. # 1 for In read from file:
     /afs/slac.stanford.edu/u/if/mamunm/psp/gbrv1.5pbe/In.UPF
     MD5 check sum: 90777abd96fbb83f2e67db2a40c566b9
     Pseudo is Ultrasoft + core correction, Zval = 13.0
     Generated by new atomic code, or converted to UPF format
     Using radial grid of  889 points,  6 beta functions with:
                l(1) =   0
                l(2) =   0
                l(3) =   1
                l(4) =   1
                l(5) =   2
                l(6) =   2
     Q(r) pseudized with  6 coefficients,  rinner =    1.400   1.400   1.400
                                                       1.400   1.400

     PseudoPot. # 2 for Al read from file:
     /afs/slac.stanford.edu/u/if/mamunm/psp/gbrv1.5pbe/Al.UPF
     MD5 check sum: 0a6289f5291fc8f409219462bc851e1f
     Pseudo is Ultrasoft + core correction, Zval =  3.0
     Generated by new atomic code, or converted to UPF format
     Using radial grid of  893 points,  3 beta functions with:
                l(1) =   0
                l(2) =   1
                l(3) =   2
     Q(r) pseudized with  8 coefficients,  rinner =    0.900   0.900   0.900
                                                       0.900   0.900

     vdW kernel table read from file vdW_kernel_table
     MD5 check sum: 095c7af220d748ca6e76c0b4c6cfb241

     atomic species   valence    mass     pseudopotential
        In1           13.00   114.81800     In( 1.00)
        Al1            3.00    26.98154     Al( 1.00)

     No symmetry found

   Cartesian axes

     site n.     atom                  positions (alat units)
         1           In1 tau(   1) = (   0.0000000   0.0000000  10.0000000  )
         2           In1 tau(   2) = (  -1.6536824   2.8642620  10.0000000  )
         3           In1 tau(   3) = (   1.6536824   2.8642620  10.0000000  )
         4           Al1 tau(   4) = (   3.3073649   0.0000000  10.0000000  )
         5           In1 tau(   5) = (   3.3073649   1.9095080  12.7004521  )
         6           In1 tau(   6) = (   1.6536824   4.7737700  12.7004521  )
         7           In1 tau(   7) = (  -1.6536824   4.7737700  12.7004521  )
         8           Al1 tau(   8) = (   0.0000000   1.9095080  12.7004521  )
         9           In1 tau(   9) = (  -0.0000202   3.7958745  15.4589273  )
        10           In1 tau(  10) = (   1.6336283   0.9663548  15.4589182  )
        11           In1 tau(  11) = (   4.9811029   0.9663276  15.4589296  )
        12           Al1 tau(  12) = (   3.3073682   3.8190189  15.1486325  )

     number of k points=    20  Fermi-Dirac smearing, width (Ry)=  0.0110
                       cart. coord. in units 2pi/alat
        k(    1) = (   0.0000000   0.0000000   0.0000000), wk =   0.0555556
        k(    2) = (   0.0000000   0.0290942   0.0000000), wk =   0.1111111
        k(    3) = (   0.0000000   0.0581883   0.0000000), wk =   0.1111111
        k(    4) = (   0.0000000  -0.0872825   0.0000000), wk =   0.0555556
        k(    5) = (   0.0251963   0.0145471   0.0000000), wk =   0.1111111
        k(    6) = (   0.0251963   0.0436413   0.0000000), wk =   0.1111111
        k(    7) = (   0.0251963   0.0727354   0.0000000), wk =   0.1111111
        k(    8) = (   0.0251963  -0.0727354   0.0000000), wk =   0.1111111
        k(    9) = (   0.0251963  -0.0436413   0.0000000), wk =   0.1111111
        k(   10) = (   0.0251963  -0.0145471   0.0000000), wk =   0.1111111
        k(   11) = (   0.0503926   0.0290942   0.0000000), wk =   0.1111111
        k(   12) = (   0.0503926   0.0581883   0.0000000), wk =   0.1111111
        k(   13) = (   0.0503926   0.0872825   0.0000000), wk =   0.1111111
        k(   14) = (   0.0503926  -0.0581883   0.0000000), wk =   0.1111111
        k(   15) = (   0.0503926  -0.0290942   0.0000000), wk =   0.1111111
        k(   16) = (   0.0503926   0.0000000   0.0000000), wk =   0.1111111
        k(   17) = (  -0.0755889  -0.0436413   0.0000000), wk =   0.0555556
        k(   18) = (  -0.0755889  -0.0145471   0.0000000), wk =   0.1111111
        k(   19) = (  -0.0755889   0.0145471   0.0000000), wk =   0.1111111
        k(   20) = (  -0.0755889  -0.1309238   0.0000000), wk =   0.0555556

     Largest allocated arrays     est. size (Mb)     dimensions
     Largest temporary arrays     est. size (Mb)     dimensions

     Initial potential from superposition of free atoms
     Check: negative starting charge=   -0.000201

     starting charge  112.49260, renormalised to  126.00000

[...]

     *
     * You are using vdW-DF for exchange-correlation in this calculation.
     * Please cite the following three references that made this development
     * possible:
     *
     *   M. Dion, H. Rydberg, E. Schroder, D. C. Langreth, and
     *   B. I. Lundqvist, Phys. Rev. Lett. 92, 246401 (2004).
     *
     *   T. Thonhauser, V. R. Cooper, S. Li, A. Puzder, P. Hyldgaard, and
     *   D. C. Langreth, Phys. Rev. B 76, 125112 (2007).
     *
     *   G. Roman-Perez and J. M. Soler, Phys. Rev. Lett. 103, 096102 (2009).
     *
     *
     * If you are using vdW-DF2, please also cite:
     *
     *   K. Lee, E. D. Murray, L. Kong, B. I. Lundqvist, and
     *   D. C. Langreth, Phys. Rev. B 82, 081101(R) (2010).
     *
     *
     * If you are calculating the stress with vdW-DF, please also cite:
     *
     *   R. Sabatini, E. Kucukbenli, B. Kolb, T. Thonhauser, and
     *   S. de Gironcoli, J. Phys.: Condens. Matter 24, 424209 (2012).
     *

     Carrying out vdW-DF run using the following parameters:

     Nqs =      20    Nr_points =    1024   r_max =   100.000
     q_mesh =
               0.00001000     0.04494208     0.09755937     0.15916263
               0.23128650     0.31572767     0.41458969     0.53033537
               0.66584808     0.82450364     1.01025438     1.22772762
               1.48234092     1.78043706     2.12944203     2.53805004
               3.01644009     3.57652955     4.23227104     5.00000000

     Gradients computed in reciprocal space

[...]

     Starting wfc are   93 randomized atomic wfcs

     Self-consistent Calculation

[...]

     total energy              =   -1233.46588968 Ry
     Harris-Foulkes estimate   =   -1233.46588637 Ry
     estimated scf accuracy    <       0.00000588 Ry

     iteration # 15     ecut=    36.75 Ry     beta=0.10
     Davidson diagonalization with overlap
     ethr =  4.67E-09,  avg # of iterations =  2.0

[...]

     negative rho (up, down):  1.060E-03 0.000E+00

     Adding external electric field

     Computed dipole along edir(3) :
        Dipole                0.0070 Ry au,          0.0177 Debye
        Dipole field          0.0000 Ry au

        Potential amp.       -0.0013 Ry
        Total length         46.8007 bohr

     End of self-consistent calculation

[...]

          k = 0.0504 0.0000 0.0000 ( 24474 PWs)   bands (ev):

[...]

          k =-0.0756-0.1309 0.0000 ( 24420 PWs)   bands (ev):

   -14.9768 -14.9326 -14.9244 -14.9076 -14.9002 -14.8814 -14.8750 -14.8703
   -14.8546 -14.8453 -14.8357 -14.8316 -14.8194 -14.8064 -14.7999 -14.7942
   -14.7901 -14.7792 -14.7781 -14.7690 -14.7630 -14.7583 -14.7565 -14.7547
   -14.7489 -14.7470 -14.7403 -14.7353 -14.7292 -14.7244 -14.7220 -14.7201
   -14.7047 -14.6927 -14.6883 -14.6882 -14.6868 -14.6844 -14.6751 -14.6743
   -14.6540 -14.6474 -14.6080 -14.5891 -14.5581  -7.7316  -7.5753  -6.3775
    -6.2738  -5.2403  -5.2149  -4.3862  -4.3126  -3.9883  -3.7732  -2.2224
    -2.0526  -0.8888  -0.8622  -0.4464  -0.3623  -0.1286  -0.0202   0.8624
     0.8628   1.0527   1.0654   1.7313   1.8688   1.9021   1.9634   2.1940
     2.2377   2.9642   2.9879   3.0841   3.1560   3.3508   3.4385   3.8633
     3.8853   3.9667   4.0151   4.5939   4.6201   5.1111   5.2105   5.2759
     5.2796   5.5293   5.5903   5.7265   5.7368

     the Fermi energy is     0.0173 ev

!    total energy              =   -1233.46590313 Ry
     Harris-Foulkes estimate   =   -1233.46589075 Ry
     estimated scf accuracy    <       0.00000044 Ry

     The total energy is the sum of the following terms:

     one-electron contribution =   -6100.81723134 Ry
     hartree contribution      =    3109.77264881 Ry
     xc contribution           =    -364.90081945 Ry
     ewald contribution        =    2122.51572978 Ry
     electric field correction =       0.00000009 Ry
     smearing contrib. (-TS)   =      -0.03623103 Ry

     convergence has been achieved in  15 iterations

 BEEF-vdW xc energy contributions
           1 :   -318.959070181933
           2 :    290.812208351404
           3 :   -243.544165677273
           4 :    190.770766575996
           5 :   -144.650944505202
           6 :    111.413708279807
           7 :   -90.3821644966326
           8 :    76.3782320351598
           9 :   -63.6864171785469
          10 :    49.2249857304230
          11 :   -33.4432455767637
          12 :    18.9972401268114
          13 :   -8.48247051460874
          14 :    2.73825949593322
          15 :  -0.573177651906576
          16 :  -0.251523474351700
          17 :    1.62452032083138
          18 :   -4.17082022339036
          19 :    7.24786027150105
          20 :   -9.67549123095404
          21 :    10.6312555390912
          22 :   -10.1454696572904
          23 :    8.95906501947593
          24 :   -7.94676333753239
          25 :    7.55902860559218
          26 :   -7.65626708481813
          27 :    7.77627732088030
          28 :   -7.56141711097666
          29 :    6.99732065963690
          30 :   -6.32008118033849
          31 :   -29.5394506837541
          32 :   -21.4068467087459

     Forces acting on atoms (Ry/au):

     negative rho (up, down):  1.060E-03 0.000E+00
     atom    1 type  1   force =     0.00000010    0.00444315   -0.00293802
     atom    2 type  1   force =     0.00384718   -0.00222107   -0.00293788
     atom    3 type  1   force =    -0.00384893   -0.00222415   -0.00293906
     atom    4 type  2   force =    -0.00000026    0.00000005    0.01258988
     atom    5 type  1   force =     0.00000033   -0.00520079   -0.00102771
     atom    6 type  1   force =    -0.00450463    0.00259920   -0.00102538
     atom    7 type  1   force =     0.00450502    0.00260250   -0.00102818
     atom    8 type  2   force =    -0.00000033    0.00000012    0.00049418
     atom    9 type  1   force =     0.00000102    0.00026664   -0.00018612
     atom   10 type  1   force =     0.00023188   -0.00013272   -0.00018809
     atom   11 type  1   force =    -0.00023100   -0.00013302   -0.00018709
     atom   12 type  2   force =    -0.00000039    0.00000010   -0.00062654

     Total force =     0.018136     Total SCF correction =     0.003956
     SCF correction compared to forces is large: reduce conv_thr to get better values

     entering subroutine stress ...

     negative rho (up, down):  1.060E-03 0.000E+00
          total   stress  (Ry/bohr**3)                   (kbar)     P=   -3.75
  -0.00003526   0.00000000  -0.00000000         -5.19      0.00     -0.00
   0.00000000  -0.00003526   0.00000000          0.00     -5.19      0.00
  -0.00000000   0.00000000  -0.00000592         -0.00      0.00     -0.87

 !ASE

     Writing output data file calc.save

     General routines

     Parallel routines

   This run was terminated on:  10:14:11  30Dec2018

   JOB DONE.
Job  /afs/slac/g/suncat/bin/suncat-tsmpirun -x LD_LIBRARY_PATH -wdir /scratch/qe648492_oJo05 pw.x -in pw.inp

TID   HOST_NAME   COMMAND_LINE            STATUS            TERMINATION_TIME
00000 suncat0053 pw.x -in pw.inp   Done                     12/30/2018 10:14:11
00001 suncat0053 pw.x -in pw.inp   Done                     12/30/2018 10:14:11
00002 suncat0053 pw.x -in pw.inp   Done                     12/30/2018 10:14:11
00003 suncat0053 pw.x -in pw.inp   Done                     12/30/2018 10:14:11
00004 suncat0053 pw.x -in pw.inp   Done                     12/30/2018 10:14:11
00005 suncat0053 pw.x -in pw.inp   Done                     12/30/2018 10:14:11
00006 suncat0053 pw.x -in pw.inp   Done                     12/30/2018 10:14:11
00007 suncat0053 pw.x -in pw.inp   Done                     12/30/2018 10:14:11
00008 suncat0040 pw.x -in pw.inp   Done                     12/30/2018 10:14:11
00009 suncat0040 pw.x -in pw.inp   Done                     12/30/2018 10:14:11
00010 suncat0040 pw.x -in pw.inp   Done                     12/30/2018 10:14:11
00011 suncat0040 pw.x -in pw.inp   Done                     12/30/2018 10:14:11
00012 suncat0040 pw.x -in pw.inp   Done                     12/30/2018 10:14:11
00013 suncat0040 pw.x -in pw.inp   Done                     12/30/2018 10:14:11
00014 suncat0040 pw.x -in pw.inp   Done                     12/30/2018 10:14:11
00015 suncat0040 pw.x -in pw.inp   Done                     12/30/2018 10:14:11
00016 suncat0195 pw.x -in pw.inp   Done                     12/30/2018 10:14:11
00017 suncat0195 pw.x -in pw.inp   Done                     12/30/2018 10:14:11
00018 suncat0195 pw.x -in pw.inp   Done                     12/30/2018 10:14:11
00019 suncat0195 pw.x -in pw.inp   Done                     12/30/2018 10:14:11
00020 suncat0195 pw.x -in pw.inp   Done                     12/30/2018 10:14:11
00021 suncat0195 pw.x -in pw.inp   Done                     12/30/2018 10:14:11
00022 suncat0195 pw.x -in pw.inp   Done                     12/30/2018 10:14:11
00023 suncat0195 pw.x -in pw.inp   Done                     12/30/2018 10:14:11
00024 suncat0003 pw.x -in pw.inp   Done                     12/30/2018 10:14:11
00025 suncat0003 pw.x -in pw.inp   Done                     12/30/2018 10:14:11
00026 suncat0003 pw.x -in pw.inp   Done                     12/30/2018 10:14:11
00027 suncat0003 pw.x -in pw.inp   Done                     12/30/2018 10:14:11
00028 suncat0003 pw.x -in pw.inp   Done                     12/30/2018 10:14:11
00029 suncat0003 pw.x -in pw.inp   Done                     12/30/2018 10:14:11
00030 suncat0003 pw.x -in pw.inp   Done                     12/30/2018 10:14:11
00031 suncat0003 pw.x -in pw.inp   Done                     12/30/2018 10:14:11
00032 suncat0002 pw.x -in pw.inp   Done                     12/30/2018 10:14:11
00033 suncat0002 pw.x -in pw.inp   Done                     12/30/2018 10:14:11
00034 suncat0002 pw.x -in pw.inp   Done                     12/30/2018 10:14:11
00035 suncat0002 pw.x -in pw.inp   Done                     12/30/2018 10:14:11
00036 suncat0002 pw.x -in pw.inp   Done                     12/30/2018 10:14:11
00037 suncat0002 pw.x -in pw.inp   Done                     12/30/2018 10:14:11
00038 suncat0002 pw.x -in pw.inp   Done                     12/30/2018 10:14:11
00039 suncat0002 pw.x -in pw.inp   Done                     12/30/2018 10:14:11
00040 suncat0179 pw.x -in pw.inp   Done                     12/30/2018 10:14:11
00041 suncat0179 pw.x -in pw.inp   Done                     12/30/2018 10:14:11
00042 suncat0179 pw.x -in pw.inp   Done                     12/30/2018 10:14:11
00043 suncat0179 pw.x -in pw.inp   Done                     12/30/2018 10:14:11
00044 suncat0179 pw.x -in pw.inp   Done                     12/30/2018 10:14:11
00045 suncat0179 pw.x -in pw.inp   Done                     12/30/2018 10:14:11
00046 suncat0179 pw.x -in pw.inp   Done                     12/30/2018 10:14:11
00047 suncat0179 pw.x -in pw.inp   Done                     12/30/2018 10:14:11
00048 suncat0283 pw.x -in pw.inp   Done                     12/30/2018 10:14:11
00049 suncat0283 pw.x -in pw.inp   Done                     12/30/2018 10:14:11
00050 suncat0283 pw.x -in pw.inp   Done                     12/30/2018 10:14:11
00051 suncat0283 pw.x -in pw.inp   Done                     12/30/2018 10:14:11
00052 suncat0283 pw.x -in pw.inp   Done                     12/30/2018 10:14:11
00053 suncat0283 pw.x -in pw.inp   Done                     12/30/2018 10:14:11
00054 suncat0283 pw.x -in pw.inp   Done                     12/30/2018 10:14:11
00055 suncat0283 pw.x -in pw.inp   Done                     12/30/2018 10:14:11
00056 suncat0282 pw.x -in pw.inp   Done                     12/30/2018 10:14:11
00057 suncat0282 pw.x -in pw.inp   Done                     12/30/2018 10:14:11
00058 suncat0282 pw.x -in pw.inp   Done                     12/30/2018 10:14:11
00059 suncat0282 pw.x -in pw.inp   Done                     12/30/2018 10:14:11
00060 suncat0282 pw.x -in pw.inp   Done                     12/30/2018 10:14:11
00061 suncat0282 pw.x -in pw.inp   Done                     12/30/2018 10:14:11
00062 suncat0282 pw.x -in pw.inp   Done                     12/30/2018 10:14:11
00063 suncat0282 pw.x -in pw.inp   Done                     12/30/2018 10:14:11