     Program PWSCF v.5.1rc2 (svn rev. 11289) starts on 26Dec2018 at 11:49:12

     Current dimensions of program PWSCF are:
     Max number of different atomic species (ntypx) = 10
     Max number of k-points (npk) =  40000
     Max angular momentum in pseudopotentials (lmaxx) =  3
     Presently stress not available with electric field

     IMPORTANT: XC functional enforced from input :
     Exchange-correlation      = BEEF-VDW ( 1  4 27 13 2)
     Any further DFT definition will be discarded
     Please, verify this is what you really want

     Subspace diagonalization in iterative solution of the eigenvalue problem:
     a serial algorithm will be used

     bravais-lattice index     =            0
     lattice parameter (alat)  =       1.8897  a.u.
     unit-cell volume          =    6979.4415 (a.u.)^3
     number of atoms/cell      =           12
     number of atomic types    =            2
     number of electrons       =       150.00
     number of Kohn-Sham states=          105
     kinetic-energy cutoff     =      36.7493  Ry
     charge density cutoff     =     367.4932  Ry
     convergence threshold     =      1.0E-06
     mixing beta               =       0.1000
     number of iterations used =           10  plain     mixing
     Exchange-correlation      = BEEF-VDW ( 1  4 27 13 2)
     nstep                     =           50

     celldm(1)=   1.889726  celldm(2)=   0.000000  celldm(3)=   0.000000
     celldm(4)=   0.000000  celldm(5)=   0.000000  celldm(6)=   0.000000

     crystal axes: (cart. coord. in units of alat)
               a(1) = (   6.832893   0.000000   0.000000 )
               a(2) = (  -3.416447   5.917459   0.000000 )
               a(3) = (   0.000000   0.000000  25.579034 )

     reciprocal axes: (cart. coord. in units 2 pi/alat)
               b(1) = (  0.146351  0.084496  0.000000 )
               b(2) = (  0.000000  0.168991  0.000000 )
               b(3) = (  0.000000  0.000000  0.039095 )

     PseudoPot. # 1 for In read from file:
     /afs/slac.stanford.edu/u/if/mamunm/psp/gbrv1.5pbe/In.UPF
     MD5 check sum: 90777abd96fbb83f2e67db2a40c566b9
     Pseudo is Ultrasoft + core correction, Zval = 13.0
     Generated by new atomic code, or converted to UPF format
     Using radial grid of  889 points,  6 beta functions with:
                l(1) =   0
                l(2) =   0
                l(3) =   1
                l(4) =   1
                l(5) =   2
                l(6) =   2
     Q(r) pseudized with  6 coefficients,  rinner =    1.400   1.400   1.400
                                                       1.400   1.400

     PseudoPot. # 2 for La read from file:
     /afs/slac.stanford.edu/u/if/mamunm/psp/gbrv1.5pbe/La.UPF
     MD5 check sum: 5937b0c7494ba0601a847275249473aa
     Pseudo is Ultrasoft + core correction, Zval = 11.0
     Generated by new atomic code, or converted to UPF format
     Using radial grid of  995 points,  8 beta functions with:
                l(1) =   0
                l(2) =   0
                l(3) =   1
                l(4) =   1
                l(5) =   2
                l(6) =   2
                l(7) =   3
                l(8) =   3
     Q(r) pseudized with  8 coefficients,  rinner =    1.700   1.700   1.700
                                                       1.700   1.700   1.700
                                                       1.700

     vdW kernel table read from file vdW_kernel_table
     MD5 check sum: 095c7af220d748ca6e76c0b4c6cfb241

     atomic species   valence    mass     pseudopotential
        In1           13.00   114.81800     In( 1.00)
        La1           11.00   138.90547     La( 1.00)

     No symmetry found

   Cartesian axes

     site n.     atom                  positions (alat units)
         1           In1 tau(   1) = (   0.0000000   0.0000000  10.0000000  )
         2           In1 tau(   2) = (  -1.7082234   2.9587297  10.0000000  )
         3           In1 tau(   3) = (   1.7082234   2.9587297  10.0000000  )
         4           La1 tau(   4) = (   3.4164467   0.0000000  10.0000000  )
         5           In1 tau(   5) = (   3.4164467   1.9724864  12.7895171  )
         6           In1 tau(   6) = (   1.7082234   4.9312161  12.7895171  )
         7           In1 tau(   7) = (  -1.7082234   4.9312161  12.7895171  )
         8           La1 tau(   8) = (   0.0000000   1.9724864  12.7895171  )
         9           In1 tau(   9) = (  -0.0000000   3.9449729  15.5790342  )
        10           In1 tau(  10) = (   1.7082234   0.9862432  15.5790342  )
        11           In1 tau(  11) = (   5.1246701   0.9862432  15.5790342  )
        12           La1 tau(  12) = (   3.4164467   3.9449729  15.5790342  )

     number of k points=    20  Fermi-Dirac smearing, width (Ry)=  0.0110
                       cart. coord. in units 2pi/alat
        k(    1) = (   0.0000000   0.0000000   0.0000000), wk =   0.0555556
        k(    2) = (   0.0000000   0.0281652   0.0000000), wk =   0.1111111
        k(    3) = (   0.0000000   0.0563305   0.0000000), wk =   0.1111111
        k(    4) = (   0.0000000  -0.0844957   0.0000000), wk =   0.0555556
        k(    5) = (   0.0243918   0.0140826   0.0000000), wk =   0.1111111
        k(    6) = (   0.0243918   0.0422479   0.0000000), wk =   0.1111111
        k(    7) = (   0.0243918   0.0704131   0.0000000), wk =   0.1111111
        k(    8) = (   0.0243918  -0.0704131   0.0000000), wk =   0.1111111
        k(    9) = (   0.0243918  -0.0422479   0.0000000), wk =   0.1111111
        k(   10) = (   0.0243918  -0.0140826   0.0000000), wk =   0.1111111
        k(   11) = (   0.0487836   0.0281652   0.0000000), wk =   0.1111111
        k(   12) = (   0.0487836   0.0563305   0.0000000), wk =   0.1111111
        k(   13) = (   0.0487836   0.0844957   0.0000000), wk =   0.1111111
        k(   14) = (   0.0487836  -0.0563305   0.0000000), wk =   0.1111111
        k(   15) = (   0.0487836  -0.0281652   0.0000000), wk =   0.1111111
        k(   16) = (   0.0487836   0.0000000   0.0000000), wk =   0.1111111
        k(   17) = (  -0.0731754  -0.0422479   0.0000000), wk =   0.0555556
        k(   18) = (  -0.0731754  -0.0140826   0.0000000), wk =   0.1111111
        k(   19) = (  -0.0731754   0.0140826   0.0000000), wk =   0.1111111
        k(   20) = (  -0.0731754  -0.1267436   0.0000000), wk =   0.0555556

     Largest allocated arrays     est. size (Mb)     dimensions
     Largest temporary arrays     est. size (Mb)     dimensions

     Initial potential from superposition of free atoms
     Check: negative starting charge=   -0.214977

     starting charge  136.40379, renormalised to  150.00000

     negative rho (up, down):  2.364E-01 0.000E+00

     *
     * You are using vdW-DF for exchange-correlation in this calculation.
     * Please cite the following three references that made this development
     * possible:
     *
     *   M. Dion, H. Rydberg, E. Schroder, D. C. Langreth, and
     *   B. I. Lundqvist, Phys. Rev. Lett. 92, 246401 (2004).
     *
     *   T. Thonhauser, V. R. Cooper, S. Li, A. Puzder, P. Hyldgaard, and
     *   D. C. Langreth, Phys. Rev. B 76, 125112 (2007).
     *
     *   G. Roman-Perez and J. M. Soler, Phys. Rev. Lett. 103, 096102 (2009).
     *
     *
     * If you are using vdW-DF2, please also cite:
     *
     *   K. Lee, E. D. Murray, L. Kong, B. I. Lundqvist, and
     *   D. C. Langreth, Phys. Rev. B 82, 081101(R) (2010).
     *
     *
     * If you are calculating the stress with vdW-DF, please also cite:
     *
     *   R. Sabatini, E. Kucukbenli, B. Kolb, T. Thonhauser, and
     *   S. de Gironcoli, J. Phys.: Condens. Matter 24, 424209 (2012).
     *

     Carrying out vdW-DF run using the following parameters:

     Nqs =      20    Nr_points =    1024   r_max =   100.000
     q_mesh =
               0.00001000     0.04494208     0.09755937     0.15916263
               0.23128650     0.31572767     0.41458969     0.53033537
               0.66584808     0.82450364     1.01025438     1.22772762
               1.48234092     1.78043706     2.12944203     2.53805004
               3.01644009     3.57652955     4.23227104     5.00000000

     Gradients computed in reciprocal space

     Adding external electric field

     Computed dipole along edir(3) :
        Dipole               -0.0000 Ry au,         -0.0000 Debye
        Dipole field         -0.0000 Ry au

        Potential amp.        0.0000 Ry
        Total length         47.1289 bohr

     Starting wfc are  141 randomized atomic wfcs

     Self-consistent Calculation

     iteration #  1     ecut=    36.75 Ry     beta=0.10
     Davidson diagonalization with overlap
     ethr =  1.00E-02,  avg # of iterations =  4.9

[...]

     total energy              =   -1529.11956821 Ry
     Harris-Foulkes estimate   =   -1532.83489301 Ry
     estimated scf accuracy    <      21.94521029 Ry

[...]

     End of self-consistent calculation

          k = 0.0000 0.0000 0.0000 ( 26301 PWs)   bands (ev):

   -32.4148 -32.4146 -32.1497 -16.1046 -16.0765 -15.9888 -15.9888 -15.9822
   -15.9822 -15.8754 -15.7894 -15.7894 -13.8242 -13.8117 -13.7959 -13.7959
   -13.7843 -13.7622 -13.7622 -13.7284 -13.7180 -13.7133 -13.7092 -13.7092
   -13.7074 -13.7074 -13.6719 -13.6718 -13.6718 -13.6645 -13.6509 -13.6509
   -13.6240 -13.6240 -13.6197 -13.6196 -13.6072 -13.6072 -13.6041 -13.6015
   -13.5987 -13.5987 -13.5793 -13.5565 -13.5565 -13.5555 -13.5555 -13.5245
   -13.5245 -13.4831 -13.4831 -13.4702 -13.4613 -13.4527 -13.4318 -13.4318
   -13.4020  -6.7847  -5.6892  -4.3973  -3.5428  -3.5428  -2.8710  -2.8710
    -2.2034  -2.2034  -1.4997  -0.9731  -0.5188  -0.0471  -0.0471  -0.0463
     0.8350   0.8350   0.8595   0.8983   0.8983   1.7686   1.7686   1.8604
     1.8604   2.2657   2.2779   2.3332   2.4090   2.4738   2.4738   2.4767
     2.4767   2.5264   2.5505   2.5505   2.5600   2.5647   2.5647   2.5961
     2.6046   2.6737   2.6737   2.8095   2.9157   2.9226   2.9226   3.0555
     3.6382

[...]

          k =-0.0732-0.0422 0.0000 ( 26222 PWs)   bands (ev):

[...]

     the Fermi energy is     0.9809 ev

!    total energy              =   -1525.32980900 Ry
     Harris-Foulkes estimate   =   -1525.32980736 Ry
     estimated scf accuracy    <       0.00000032 Ry

     The total energy is the sum of the following terms:

     one-electron contribution =   -7812.86476793 Ry
     hartree contribution      =    3970.21048714 Ry
     xc contribution           =    -504.28827638 Ry
     ewald contribution        =    2821.66706315 Ry
     electric field correction =       0.00000004 Ry
     smearing contrib. (-TS)   =      -0.05431502 Ry

     convergence has been achieved in  18 iterations

 BEEF-vdW xc energy contributions
           1 :   -443.404605140460
           2 :    406.236376916955
           3 :   -342.545231933573
           4 :    268.876409786451
           5 :   -201.004498053855
           6 :    148.620566239435
           7 :   -113.481773289353
           8 :    91.1942450271528
           9 :   -75.1488651620712
          10 :    60.3224758525064
          11 :   -45.1070947209685
          12 :    30.7052888017326
          13 :   -19.0816781698853
          14 :    11.0644881897589
[...]
     /afs/slac.stanford.edu/u/if/mamunm/psp/gbrv1.5pbe/In.UPF
     MD5 check sum: 90777abd96fbb83f2e67db2a40c566b9
     Pseudo is Ultrasoft + core correction, Zval = 13.0
     Generated by new atomic code, or converted to UPF format
     Using radial grid of  889 points,  6 beta functions with:
                l(1) =   0
                l(2) =   0
                l(3) =   1
                l(4) =   1
                l(5) =   2
                l(6) =   2
     Q(r) pseudized with  6 coefficients,  rinner =    1.400   1.400   1.400
                                                       1.400   1.400

     PseudoPot. # 2 for La read from file:
     /afs/slac.stanford.edu/u/if/mamunm/psp/gbrv1.5pbe/La.UPF
     MD5 check sum: 5937b0c7494ba0601a847275249473aa
     Pseudo is Ultrasoft + core correction, Zval = 11.0
     Generated by new atomic code, or converted to UPF format
     Using radial grid of  995 points,  8 beta functions with:
                l(1) =   0
                l(2) =   0
                l(3) =   1
                l(4) =   1
                l(5) =   2
                l(6) =   2
                l(7) =   3
                l(8) =   3
     Q(r) pseudized with  8 coefficients,  rinner =    1.700   1.700   1.700
                                                       1.700   1.700   1.700
                                                       1.700

     vdW kernel table read from file vdW_kernel_table
     MD5 check sum: 095c7af220d748ca6e76c0b4c6cfb241

     atomic species   valence    mass     pseudopotential
        In1           13.00   114.81800     In( 1.00)
        La1           11.00   138.90547     La( 1.00)

     No symmetry found

   Cartesian axes

     site n.     atom                  positions (alat units)
         1           In1 tau(   1) = (   0.0000000   0.0000000  10.0000000  )
         2           In1 tau(   2) = (  -1.7082234   2.9587297  10.0000000  )
         3           In1 tau(   3) = (   1.7082234   2.9587297  10.0000000  )
         4           La1 tau(   4) = (   3.4164467   0.0000000  10.0000000  )
         5           In1 tau(   5) = (   3.4164467   1.9724864  12.7895171  )
         6           In1 tau(   6) = (   1.7082234   4.9312161  12.7895171  )
         7           In1 tau(   7) = (  -1.7082234   4.9312161  12.7895171  )
         8           La1 tau(   8) = (   0.0000000   1.9724864  12.7895171  )
         9           In1 tau(   9) = (   0.0000149   4.0396178  15.6055716  )
        10           In1 tau(  10) = (   1.7901905   0.9389290  15.6055761  )
        11           In1 tau(  11) = (   5.0426962   0.9389120  15.6055748  )
        12           La1 tau(  12) = (   3.4164520   3.9449753  15.5378865  )

     number of k points=    20  Fermi-Dirac smearing, width (Ry)=  0.0110
                       cart. coord. in units 2pi/alat
        k(    1) = (   0.0000000   0.0000000   0.0000000), wk =   0.0555556
        k(    2) = (   0.0000000   0.0281652   0.0000000), wk =   0.1111111
        k(    3) = (   0.0000000   0.0563305   0.0000000), wk =   0.1111111
        k(    4) = (   0.0000000  -0.0844957   0.0000000), wk =   0.0555556
        k(    5) = (   0.0243918   0.0140826   0.0000000), wk =   0.1111111
        k(    6) = (   0.0243918   0.0422479   0.0000000), wk =   0.1111111
        k(    7) = (   0.0243918   0.0704131   0.0000000), wk =   0.1111111
        k(    8) = (   0.0243918  -0.0704131   0.0000000), wk =   0.1111111
        k(    9) = (   0.0243918  -0.0422479   0.0000000), wk =   0.1111111
        k(   10) = (   0.0243918  -0.0140826   0.0000000), wk =   0.1111111
        k(   11) = (   0.0487836   0.0281652   0.0000000), wk =   0.1111111
        k(   12) = (   0.0487836   0.0563305   0.0000000), wk =   0.1111111
        k(   13) = (   0.0487836   0.0844957   0.0000000), wk =   0.1111111
        k(   14) = (   0.0487836  -0.0563305   0.0000000), wk =   0.1111111
        k(   15) = (   0.0487836  -0.0281652   0.0000000), wk =   0.1111111
        k(   16) = (   0.0487836   0.0000000   0.0000000), wk =   0.1111111
        k(   17) = (  -0.0731754  -0.0422479   0.0000000), wk =   0.0555556
        k(   18) = (  -0.0731754  -0.0140826   0.0000000), wk =   0.1111111
        k(   19) = (  -0.0731754   0.0140826   0.0000000), wk =   0.1111111
        k(   20) = (  -0.0731754  -0.1267436   0.0000000), wk =   0.0555556

     Largest allocated arrays     est. size (Mb)     dimensions
     Largest temporary arrays     est. size (Mb)     dimensions

     Initial potential from superposition of free atoms
     Check: negative starting charge=   -0.215027

     starting charge  136.40379, renormalised to  150.00000

[...]

     *
     * You are using vdW-DF for exchange-correlation in this calculation.
     * Please cite the following three references that made this development
     * possible:
     *
     *   M. Dion, H. Rydberg, E. Schroder, D. C. Langreth, and
     *   B. I. Lundqvist, Phys. Rev. Lett. 92, 246401 (2004).
     *
     *   T. Thonhauser, V. R. Cooper, S. Li, A. Puzder, P. Hyldgaard, and
     *   D. C. Langreth, Phys. Rev. B 76, 125112 (2007).
     *
     *   G. Roman-Perez and J. M. Soler, Phys. Rev. Lett. 103, 096102 (2009).
     *
     *
     * If you are using vdW-DF2, please also cite:
     *
     *   K. Lee, E. D. Murray, L. Kong, B. I. Lundqvist, and
     *   D. C. Langreth, Phys. Rev. B 82, 081101(R) (2010).
     *
     *
     * If you are calculating the stress with vdW-DF, please also cite:
     *
     *   R. Sabatini, E. Kucukbenli, B. Kolb, T. Thonhauser, and
     *   S. de Gironcoli, J. Phys.: Condens. Matter 24, 424209 (2012).
     *

     Carrying out vdW-DF run using the following parameters:

     Nqs =      20    Nr_points =    1024   r_max =   100.000
     q_mesh =
               0.00001000     0.04494208     0.09755937     0.15916263
               0.23128650     0.31572767     0.41458969     0.53033537
               0.66584808     0.82450364     1.01025438     1.22772762
               1.48234092     1.78043706     2.12944203     2.53805004
               3.01644009     3.57652955     4.23227104     5.00000000

     Gradients computed in reciprocal space

[...]

     Starting wfc are  141 randomized atomic wfcs

     Self-consistent Calculation

[...]

     total energy              =   -1525.33343400 Ry
     Harris-Foulkes estimate   =   -1525.33343396 Ry
     estimated scf accuracy    <       0.00000125 Ry

     iteration # 20     ecut=    36.75 Ry     beta=0.10
     Davidson diagonalization with overlap
     ethr =  8.34E-10,  avg # of iterations =  3.1

[...]

     negative rho (up, down):  1.470E-01 0.000E+00

     Adding external electric field

     Computed dipole along edir(3) :
        Dipole                0.0032 Ry au,          0.0081 Debye
        Dipole field          0.0000 Ry au

        Potential amp.       -0.0005 Ry
        Total length         47.1289 bohr

     End of self-consistent calculation

[...]

          k = 0.0488 0.0000 0.0000 ( 26261 PWs)   bands (ev):

[...]

          k =-0.0732-0.1267 0.0000 ( 26222 PWs)   bands (ev):

   -32.4120 -32.3738 -32.1864 -16.0912 -16.0635 -16.0321 -16.0038 -15.9990
   -15.9668 -15.8903 -15.8669 -15.8331 -13.7962 -13.7829 -13.7513 -13.7367
   -13.7259 -13.7149 -13.7116 -13.7015 -13.6980 -13.6902 -13.6880 -13.6774
   -13.6703 -13.6620 -13.6619 -13.6541 -13.6524 -13.6426 -13.6366 -13.6356
   -13.6297 -13.6295 -13.6280 -13.6202 -13.6140 -13.6044 -13.6002 -13.5957
   -13.5885 -13.5869 -13.5727 -13.5557 -13.5526 -13.5491 -13.5425 -13.5271
   -13.5248 -13.5239 -13.5185 -13.5111 -13.5016 -13.5000 -13.4744 -13.4674
   -13.4176  -5.7942  -5.5773  -4.7132  -4.3925  -3.7338  -3.5456  -3.3453
    -2.8191  -1.6159  -1.3358  -0.9649  -0.4750   0.1411   0.2604   0.3669
     0.5626   0.5862   0.9748   1.3858   1.5660   1.7476   1.9450   2.1756
     2.1906   2.2459   2.2971   2.3414   2.3826   2.4057   2.4299   2.4301
     2.4392   2.4843   2.4898   2.5014   2.5634   2.5784   2.5889   2.5999
     2.6523   2.6945   2.7141   2.7316   2.9462   3.1243   3.2190   3.4268
     3.4329

     the Fermi energy is     0.9738 ev

!    total energy              =   -1525.33343569 Ry
     Harris-Foulkes estimate   =   -1525.33343420 Ry
     estimated scf accuracy    <       0.00000011 Ry

     The total energy is the sum of the following terms:

     one-electron contribution =   -7801.84711676 Ry
     hartree contribution      =    3964.69771292 Ry
     xc contribution           =    -504.28504955 Ry
     ewald contribution        =    2816.15447853 Ry
     electric field correction =       0.00000002 Ry
     smearing contrib. (-TS)   =      -0.05346084 Ry

     convergence has been achieved in  20 iterations

 BEEF-vdW xc energy contributions
           1 :   -443.402069093100
           2 :    406.234238857739
           3 :   -342.544267077027
           4 :    268.877043397971
           5 :   -201.005366233185
           6 :    148.618049978307
           7 :   -113.471241678172
           8 :    91.1734103861662
           9 :   -75.1205967744481
          10 :    60.2941450522906
          11 :   -45.0864641237263
          12 :    30.6956489974886
          13 :   -19.0793777014938
          14 :    11.0615358130595
          15 :   -5.74477579018213
          16 :    1.31752425963668
          17 :    3.56716053495092
          18 :   -8.89993216131620
          19 :    13.4702050398949
          20 :   -15.8473848779764
          21 :    15.4413199292185
          22 :   -12.9377158979142
          23 :    9.88988494626653
          24 :   -7.81668869615396
          25 :    7.41926291946135
          26 :   -8.37108650064170
          27 :    9.70867321734534
          28 :   -10.4833464843241
          29 :    10.2447817255941
          30 :   -9.12778162612369
          31 :   -39.3887173907366
          32 :   -28.5244077666982

     Forces acting on atoms (Ry/au):

     negative rho (up, down):  1.470E-01 0.000E+00
     atom    1 type  1   force =     0.00000033   -0.01212421   -0.00324035
     atom    2 type  1   force =    -0.01049894    0.00606186   -0.00323891
     atom    3 type  1   force =     0.01049914    0.00606167   -0.00323985
     atom    4 type  2   force =    -0.00000043   -0.00000006    0.00411196
     atom    5 type  1   force =     0.00000012   -0.00086930   -0.00193448
     atom    6 type  1   force =    -0.00075275    0.00043456   -0.00193428
     atom    7 type  1   force =     0.00075362    0.00043446   -0.00193380
     atom    8 type  2   force =    -0.00000059   -0.00000021    0.01128103
     atom    9 type  1   force =    -0.00000170   -0.00086567    0.00021343
     atom   10 type  1   force =    -0.00074939    0.00043251    0.00021200
     atom   11 type  1   force =     0.00074981    0.00043418    0.00021369
     atom   12 type  2   force =     0.00000081    0.00000020   -0.00051044

     Total force =     0.025154     Total SCF correction =     0.000608

     entering subroutine stress ...

     negative rho (up, down):  1.470E-01 0.000E+00
          total   stress  (Ry/bohr**3)                   (kbar)     P=   -2.99
  -0.00003057   0.00000000   0.00000000         -4.50      0.00      0.00
   0.00000000  -0.00003057   0.00000000          0.00     -4.50      0.00
   0.00000000   0.00000000   0.00000026          0.00      0.00      0.04

 !ASE

     Writing output data file calc.save

     General routines

     Parallel routines

   This run was terminated on:  12:53: 1  26Dec2018

   JOB DONE.
Job  /afs/slac/g/suncat/bin/suncat-tsmpirun -x LD_LIBRARY_PATH -wdir /scratch/qe109875_cBhqt pw.x -in pw.inp

TID   HOST_NAME   COMMAND_LINE            STATUS            TERMINATION_TIME
00000 suncat0042 pw.x -in pw.inp   Done                     12/26/2018 12:53:01
00001 suncat0042 pw.x -in pw.inp   Done                     12/26/2018 12:53:01
00002 suncat0042 pw.x -in pw.inp   Done                     12/26/2018 12:53:01
00003 suncat0042 pw.x -in pw.inp   Done                     12/26/2018 12:53:01
00004 suncat0042 pw.x -in pw.inp   Done                     12/26/2018 12:53:01
00005 suncat0042 pw.x -in pw.inp   Done                     12/26/2018 12:53:01
00006 suncat0042 pw.x -in pw.inp   Done                     12/26/2018 12:53:01
00007 suncat0042 pw.x -in pw.inp   Done                     12/26/2018 12:53:01
00008 suncat0020 pw.x -in pw.inp   Done                     12/26/2018 12:53:01
00009 suncat0020 pw.x -in pw.inp   Done                     12/26/2018 12:53:01
00010 suncat0020 pw.x -in pw.inp   Done                     12/26/2018 12:53:01
00011 suncat0020 pw.x -in pw.inp   Done                     12/26/2018 12:53:01
00012 suncat0020 pw.x -in pw.inp   Done                     12/26/2018 12:53:01
00013 suncat0020 pw.x -in pw.inp   Done                     12/26/2018 12:53:01
00014 suncat0020 pw.x -in pw.inp   Done                     12/26/2018 12:53:01
00015 suncat0020 pw.x -in pw.inp   Done                     12/26/2018 12:53:01
00016 suncat0196 pw.x -in pw.inp   Done                     12/26/2018 12:53:01
00017 suncat0196 pw.x -in pw.inp   Done                     12/26/2018 12:53:01
00018 suncat0196 pw.x -in pw.inp   Done                     12/26/2018 12:53:01
00019 suncat0196 pw.x -in pw.inp   Done                     12/26/2018 12:53:01
00020 suncat0196 pw.x -in pw.inp   Done                     12/26/2018 12:53:01
00021 suncat0196 pw.x -in pw.inp   Done                     12/26/2018 12:53:01
00022 suncat0196 pw.x -in pw.inp   Done                     12/26/2018 12:53:01
00023 suncat0196 pw.x -in pw.inp   Done                     12/26/2018 12:53:01
00024 suncat0194 pw.x -in pw.inp   Done                     12/26/2018 12:53:01
00025 suncat0194 pw.x -in pw.inp   Done                     12/26/2018 12:53:01
00026 suncat0194 pw.x -in pw.inp   Done                     12/26/2018 12:53:01
00027 suncat0194 pw.x -in pw.inp   Done                     12/26/2018 12:53:01
00028 suncat0194 pw.x -in pw.inp   Done                     12/26/2018 12:53:01
00029 suncat0194 pw.x -in pw.inp   Done                     12/26/2018 12:53:01
00030 suncat0194 pw.x -in pw.inp   Done                     12/26/2018 12:53:01
00031 suncat0194 pw.x -in pw.inp   Done                     12/26/2018 12:53:01
00032 suncat0121 pw.x -in pw.inp   Done                     12/26/2018 12:53:01
00033 suncat0121 pw.x -in pw.inp   Done                     12/26/2018 12:53:01
00034 suncat0121 pw.x -in pw.inp   Done                     12/26/2018 12:53:01
00035 suncat0121 pw.x -in pw.inp   Done                     12/26/2018 12:53:01
00036 suncat0121 pw.x -in pw.inp   Done                     12/26/2018 12:53:01
00037 suncat0121 pw.x -in pw.inp   Done                     12/26/2018 12:53:01
00038 suncat0121 pw.x -in pw.inp   Done                     12/26/2018 12:53:01
00039 suncat0121 pw.x -in pw.inp   Done                     12/26/2018 12:53:01
00040 suncat0115 pw.x -in pw.inp   Done                     12/26/2018 12:53:01
00041 suncat0115 pw.x -in pw.inp   Done                     12/26/2018 12:53:01
00042 suncat0115 pw.x -in pw.inp   Done                     12/26/2018 12:53:01
00043 suncat0115 pw.x -in pw.inp   Done                     12/26/2018 12:53:01
00044 suncat0115 pw.x -in pw.inp   Done                     12/26/2018 12:53:01
00045 suncat0115 pw.x -in pw.inp   Done                     12/26/2018 12:53:01
00046 suncat0115 pw.x -in pw.inp   Done                     12/26/2018 12:53:01
00047 suncat0115 pw.x -in pw.inp   Done                     12/26/2018 12:53:01
00048 suncat0228 pw.x -in pw.inp   Done                     12/26/2018 12:53:01
00049 suncat0228 pw.x -in pw.inp   Done                     12/26/2018 12:53:01
00050 suncat0228 pw.x -in pw.inp   Done                     12/26/2018 12:53:01
00051 suncat0228 pw.x -in pw.inp   Done                     12/26/2018 12:53:01
00052 suncat0228 pw.x -in pw.inp   Done                     12/26/2018 12:53:01
00053 suncat0228 pw.x -in pw.inp   Done                     12/26/2018 12:53:01
00054 suncat0228 pw.x -in pw.inp   Done                     12/26/2018 12:53:01
00055 suncat0228 pw.x -in pw.inp   Done                     12/26/2018 12:53:01
00056 suncat0227 pw.x -in pw.inp   Done                     12/26/2018 12:53:01
00057 suncat0227 pw.x -in pw.inp   Done                     12/26/2018 12:53:01
00058 suncat0227 pw.x -in pw.inp   Done                     12/26/2018 12:53:01
00059 suncat0227 pw.x -in pw.inp   Done                     12/26/2018 12:53:01
00060 suncat0227 pw.x -in pw.inp   Done                     12/26/2018 12:53:01
00061 suncat0227 pw.x -in pw.inp   Done                     12/26/2018 12:53:01
00062 suncat0227 pw.x -in pw.inp   Done                     12/26/2018 12:53:01
00063 suncat0227 pw.x -in pw.inp   Done                     12/26/2018 12:53:01