     Program PWSCF v.5.1rc2 (svn rev. 11289) starts on 31Dec2018 at  8:39:21

     Current dimensions of program PWSCF are:
     Max number of different atomic species (ntypx) = 10
     Max number of k-points (npk) =  40000
     Max angular momentum in pseudopotentials (lmaxx) =  3
     Presently stress not available with electric field

     IMPORTANT: XC functional enforced from input :
     Exchange-correlation      = BEEF-VDW ( 1  4 27 13 2)
     Any further DFT definition will be discarded
     Please, verify this is what you really want

     Subspace diagonalization in iterative solution of the eigenvalue problem:
     a serial algorithm will be used

     bravais-lattice index     =            0
     lattice parameter (alat)  =       1.8897  a.u.
     unit-cell volume          =    6914.2343 (a.u.)^3
     number of atoms/cell      =           12
     number of atomic types    =            2
     number of electrons       =       183.00
     number of Kohn-Sham states=          121
     kinetic-energy cutoff     =      36.7493  Ry
     charge density cutoff     =     367.4932  Ry
     convergence threshold     =      1.0E-06
     mixing beta               =       0.1000
     number of iterations used =           10  plain     mixing
     Exchange-correlation      = BEEF-VDW ( 1  4 27 13 2)
     nstep                     =           50

     celldm(1)=   1.889726  celldm(2)=   0.000000  celldm(3)=   0.000000
     celldm(4)=   0.000000  celldm(5)=   0.000000  celldm(6)=   0.000000

     crystal axes: (cart. coord. in units of alat)
               a(1) = (   6.804034   0.000000   0.000000 )
               a(2) = (  -3.402017   5.892466   0.000000 )
               a(3) = (   0.000000   0.000000  25.555471 )

     reciprocal axes: (cart. coord. in units 2 pi/alat)
               b(1) = (  0.146972  0.084854  0.000000 )
               b(2) = (  0.000000  0.169708  0.000000 )
               b(3) = (  0.000000  0.000000  0.039131 )

     PseudoPot. # 1 for Pb read from file:
     /afs/slac.stanford.edu/u/if/mamunm/psp/gbrv1.5pbe/Pb.UPF
     MD5 check sum: 3d1c1779aa92214d1e8f3a7db79003e2
     Pseudo is Ultrasoft + core correction, Zval = 14.0
     Generated by new atomic code, or converted to UPF format
     Using radial grid of  899 points,  6 beta functions with:
                l(1) =   0
                l(2) =   0
                l(3) =   1
                l(4) =   1
                l(5) =   2
                l(6) =   2
     Q(r) pseudized with  6 coefficients,  rinner =    1.000   1.000   1.000
                                                       1.000   1.000

     PseudoPot. # 2 for Cu read from file:
     /afs/slac.stanford.edu/u/if/mamunm/psp/gbrv1.5pbe/Cu.UPF
     MD5 check sum: 6e991ff952a84172a2a52a1c1e996048
     Pseudo is Ultrasoft + core correction, Zval = 19.0
     Generated by new atomic code, or converted to UPF format
     Using radial grid of  867 points,  6 beta functions with:
                l(1) =   0
                l(2) =   0
                l(3) =   1
                l(4) =   1
                l(5) =   2
                l(6) =   2
     Q(r) pseudized with  8 coefficients,  rinner =    1.150   1.150   1.150
                                                       1.150   1.150

     vdW kernel table read from file vdW_kernel_table
     MD5 check sum: 095c7af220d748ca6e76c0b4c6cfb241

     atomic species   valence    mass     pseudopotential
        Pb1           14.00   207.20000     Pb( 1.00)
        Cu1           19.00    63.54600     Cu( 1.00)

     No symmetry found

   Cartesian axes

     site n.     atom                  positions (alat units)
         1           Pb1 tau(   1) = (   0.0000000   0.0000000  10.0000000  )
         2           Pb1 tau(   2) = (  -1.7010085   2.9462332  10.0000000  )
         3           Pb1 tau(   3) = (   1.7010085   2.9462332  10.0000000  )
         4           Cu1 tau(   4) = (   3.4020171   0.0000000  10.0000000  )
         5           Pb1 tau(   5) = (   3.4020171   1.9641555  12.7777353  )
         6           Pb1 tau(   6) = (   1.7010085   4.9103887  12.7777353  )
         7           Pb1 tau(   7) = (  -1.7010085   4.9103887  12.7777353  )
         8           Cu1 tau(   8) = (   0.0000000   1.9641555  12.7777353  )
         9           Pb1 tau(   9) = (  -0.0000000   3.9283110  15.5554706  )
        10           Pb1 tau(  10) = (   1.7010085   0.9820777  15.5554706  )
        11           Pb1 tau(  11) = (   5.1030256   0.9820777  15.5554706  )
        12           Cu1 tau(  12) = (   3.4020171   3.9283110  15.5554706  )

     number of k points=    20  Fermi-Dirac smearing, width (Ry)=  0.0110
                       cart. coord. in units 2pi/alat
        k(    1) = (   0.0000000   0.0000000   0.0000000), wk =   0.0555556
        k(    2) = (   0.0000000   0.0282847   0.0000000), wk =   0.1111111
        k(    3) = (   0.0000000   0.0565694   0.0000000), wk =   0.1111111
        k(    4) = (   0.0000000  -0.0848541   0.0000000), wk =   0.0555556
        k(    5) = (   0.0244953   0.0141424   0.0000000), wk =   0.1111111
        k(    6) = (   0.0244953   0.0424271   0.0000000), wk =   0.1111111
        k(    7) = (   0.0244953   0.0707118   0.0000000), wk =   0.1111111
        k(    8) = (   0.0244953  -0.0707118   0.0000000), wk =   0.1111111
        k(    9) = (   0.0244953  -0.0424271   0.0000000), wk =   0.1111111
        k(   10) = (   0.0244953  -0.0141424   0.0000000), wk =   0.1111111
        k(   11) = (   0.0489905   0.0282847   0.0000000), wk =   0.1111111
        k(   12) = (   0.0489905   0.0565694   0.0000000), wk =   0.1111111
        k(   13) = (   0.0489905   0.0848541   0.0000000), wk =   0.1111111
        k(   14) = (   0.0489905  -0.0565694   0.0000000), wk =   0.1111111
        k(   15) = (   0.0489905  -0.0282847   0.0000000), wk =   0.1111111
        k(   16) = (   0.0489905   0.0000000   0.0000000), wk =   0.1111111
        k(   17) = (  -0.0734858  -0.0424271   0.0000000), wk =   0.0555556
        k(   18) = (  -0.0734858  -0.0141424   0.0000000), wk =   0.1111111
        k(   19) = (  -0.0734858   0.0141424   0.0000000), wk =   0.1111111
        k(   20) = (  -0.0734858  -0.1272812   0.0000000), wk =   0.0555556

     Largest allocated arrays     est. size (Mb)     dimensions
     Largest temporary arrays     est. size (Mb)     dimensions

     Check: negative/imaginary core charge=   -0.000001    0.000000

     Initial potential from superposition of free atoms
     Check: negative starting charge=   -0.148265

     starting charge  179.97883, renormalised to  183.00000

     negative rho (up, down):  1.508E-01 0.000E+00

     *
     * You are using vdW-DF for exchange-correlation in this calculation.
     * Please cite the following three references that made this development
     * possible:
     *
     *   M. Dion, H. Rydberg, E. Schroder, D. C. Langreth, and
     *   B. I. Lundqvist, Phys. Rev. Lett. 92, 246401 (2004).
     *
     *   T. Thonhauser, V. R. Cooper, S. Li, A. Puzder, P. Hyldgaard, and
     *   D. C. Langreth, Phys. Rev. B 76, 125112 (2007).
     *
     *   G. Roman-Perez and J. M. Soler, Phys. Rev. Lett. 103, 096102 (2009).
     *
     *
     * If you are using vdW-DF2, please also cite:
     *
     *   K. Lee, E. D. Murray, L. Kong, B. I. Lundqvist, and
     *   D. C. Langreth, Phys. Rev. B 82, 081101(R) (2010).
     *
     *
     * If you are calculating the stress with vdW-DF, please also cite:
     *
     *   R. Sabatini, E. Kucukbenli, B. Kolb, T. Thonhauser, and
     *   S. de Gironcoli, J. Phys.: Condens. Matter 24, 424209 (2012).
     *

     Carrying out vdW-DF run using the following parameters:

     Nqs =      20    Nr_points =    1024   r_max =   100.000
     q_mesh =
               0.00001000     0.04494208     0.09755937     0.15916263
               0.23128650     0.31572767     0.41458969     0.53033537
               0.66584808     0.82450364     1.01025438     1.22772762
               1.48234092     1.78043706     2.12944203     2.53805004
               3.01644009     3.57652955     4.23227104     5.00000000

     Gradients computed in reciprocal space

     Adding external electric field

     Computed dipole along edir(3) :
        Dipole               -0.0000 Ry au,         -0.0000 Debye
        Dipole field         -0.0000 Ry au

        Potential amp.        0.0000 Ry
        Total length         47.0855 bohr

     Starting wfc are  120 randomized atomic wfcs +    1 random wfc

     Self-consistent Calculation

     iteration #  1     ecut=    36.75 Ry     beta=0.10
     Davidson diagonalization with overlap
     ethr =  1.00E-02,  avg # of iterations =  7.8

[...]

     total energy              =   -2709.23872103 Ry
     Harris-Foulkes estimate   =   -2710.29229784 Ry
     estimated scf accuracy    <       5.80008321 Ry

[...]

     End of self-consistent calculation

          k = 0.0000 0.0000 0.0000 ( 26109 PWs)   bands (ev):

  -111.3786-111.0792-111.0792 -68.8002 -68.7886 -68.7886 -68.5138 -68.5138
   -68.5138 -68.5138 -68.4742 -68.4742 -16.8416 -16.8308 -16.8075 -16.8075
   -16.7830 -16.7830 -16.7727 -16.7208 -16.7073 -16.7073 -16.6988 -16.6872
   -16.6833 -16.6833 -16.6651 -16.6651 -16.6650 -16.6551 -16.6222 -16.6222
   -16.5921 -16.5847 -16.5847 -16.5793 -16.5793 -16.5738 -16.5738 -16.5382
   -16.5382 -16.5310 -16.5093 -16.5093 -16.5043 -16.4474 -16.4473 -16.4292
   -16.4292 -16.4277 -16.4211 -16.4059 -16.4059 -16.3838 -16.3448 -16.3448
   -16.2957 -10.1718  -9.2104  -7.9039  -7.1205  -7.1205  -6.6579  -6.6579
    -5.9703  -5.9703  -3.1015  -2.6689  -2.2712  -1.9533  -1.9533  -1.7654
    -1.6068  -1.6068  -1.4703  -1.4703  -1.4444  -1.2327  -1.2327  -1.2324
    -1.2321  -1.2321  -1.2267  -1.2267  -1.2132  -1.2132  -1.1460  -1.0173
    -1.0173  -0.7405  -0.5807  -0.5807   0.4311   0.5767   1.4742   2.3454
     2.3454   2.5649   2.5649   3.2432   3.8938   3.9081   4.0177   4.4999
     4.6847   4.6847   4.9474   5.0306   5.0306   5.1061   5.2344   5.9277
     5.9277   6.0003   6.5517   6.6854   6.6922   6.7532   6.8097   6.8097
     6.9458

[...]

          k =-0.0735-0.0424 0.0000 ( 25962 PWs)   bands (ev):

[...]

     the Fermi energy is     0.7067 ev

!    total energy              =   -2708.79425131 Ry
     Harris-Foulkes estimate   =   -2708.79429046 Ry
     estimated scf accuracy    <       0.00000015 Ry

     The total energy is the sum of the following terms:

     one-electron contribution =  -12599.03771212 Ry
     hartree contribution      =    6355.04042346 Ry
     xc contribution           =    -707.55173970 Ry
     ewald contribution        =    4242.78758777 Ry
     electric field correction =       0.00000000 Ry
     smearing contrib. (-TS)   =      -0.03281072 Ry

     convergence has been achieved in  18 iterations

 BEEF-vdW xc energy contributions
           1 :   -630.127361825205
           2 :    582.599250727701
           3 :   -499.838342024057
           4 :    401.263387047260
           5 :   -306.032378366065
           6 :    226.939432724223
           7 :   -167.933867664781
           8 :    125.634658602371
           9 :   -93.3754060660638
          10 :    65.4091614896557
[...]
     Generated by new atomic code, or converted to UPF format
     Using radial grid of  899 points,  6 beta functions with:
                l(1) =   0
                l(2) =   0
                l(3) =   1
                l(4) =   1
                l(5) =   2
                l(6) =   2
     Q(r) pseudized with  6 coefficients,  rinner =    1.000   1.000   1.000
                                                       1.000   1.000

     PseudoPot. # 2 for Cu read from file:
     /afs/slac.stanford.edu/u/if/mamunm/psp/gbrv1.5pbe/Cu.UPF
     MD5 check sum: 6e991ff952a84172a2a52a1c1e996048
     Pseudo is Ultrasoft + core correction, Zval = 19.0
     Generated by new atomic code, or converted to UPF format
     Using radial grid of  867 points,  6 beta functions with:
                l(1) =   0
                l(2) =   0
                l(3) =   1
                l(4) =   1
                l(5) =   2
                l(6) =   2
     Q(r) pseudized with  8 coefficients,  rinner =    1.150   1.150   1.150
                                                       1.150   1.150

     vdW kernel table read from file vdW_kernel_table
     MD5 check sum: 095c7af220d748ca6e76c0b4c6cfb241

     atomic species   valence    mass     pseudopotential
        Pb1           14.00   207.20000     Pb( 1.00)
        Cu1           19.00    63.54600     Cu( 1.00)

     No symmetry found

   Cartesian axes

     site n.     atom                  positions (alat units)
         1           Pb1 tau(   1) = (   0.0000000   0.0000000  10.0000000  )
         2           Pb1 tau(   2) = (  -1.7010085   2.9462332  10.0000000  )
         3           Pb1 tau(   3) = (   1.7010085   2.9462332  10.0000000  )
         4           Cu1 tau(   4) = (   3.4020171   0.0000000  10.0000000  )
         5           Pb1 tau(   5) = (   3.4020171   1.9641555  12.7777353  )
         6           Pb1 tau(   6) = (   1.7010085   4.9103887  12.7777353  )
         7           Pb1 tau(   7) = (  -1.7010085   4.9103887  12.7777353  )
         8           Cu1 tau(   8) = (   0.0000000   1.9641555  12.7777353  )
         9           Pb1 tau(   9) = (  -0.0000171   3.8799893  15.5340008  )
        10           Pb1 tau(  10) = (   1.6591535   1.0062166  15.5339999  )
        11           Pb1 tau(  11) = (   5.1448447   1.0062221  15.5340481  )
        12           Cu1 tau(  12) = (   3.4020440   3.9283443  14.9416058  )

     number of k points=    20  Fermi-Dirac smearing, width (Ry)=  0.0110
                       cart. coord. in units 2pi/alat
        k(    1) = (   0.0000000   0.0000000   0.0000000), wk =   0.0555556
        k(    2) = (   0.0000000   0.0282847   0.0000000), wk =   0.1111111
        k(    3) = (   0.0000000   0.0565694   0.0000000), wk =   0.1111111
        k(    4) = (   0.0000000  -0.0848541   0.0000000), wk =   0.0555556
        k(    5) = (   0.0244953   0.0141424   0.0000000), wk =   0.1111111
        k(    6) = (   0.0244953   0.0424271   0.0000000), wk =   0.1111111
        k(    7) = (   0.0244953   0.0707118   0.0000000), wk =   0.1111111
        k(    8) = (   0.0244953  -0.0707118   0.0000000), wk =   0.1111111
        k(    9) = (   0.0244953  -0.0424271   0.0000000), wk =   0.1111111
        k(   10) = (   0.0244953  -0.0141424   0.0000000), wk =   0.1111111
        k(   11) = (   0.0489905   0.0282847   0.0000000), wk =   0.1111111
        k(   12) = (   0.0489905   0.0565694   0.0000000), wk =   0.1111111
        k(   13) = (   0.0489905   0.0848541   0.0000000), wk =   0.1111111
        k(   14) = (   0.0489905  -0.0565694   0.0000000), wk =   0.1111111
        k(   15) = (   0.0489905  -0.0282847   0.0000000), wk =   0.1111111
        k(   16) = (   0.0489905   0.0000000   0.0000000), wk =   0.1111111
        k(   17) = (  -0.0734858  -0.0424271   0.0000000), wk =   0.0555556
        k(   18) = (  -0.0734858  -0.0141424   0.0000000), wk =   0.1111111
        k(   19) = (  -0.0734858   0.0141424   0.0000000), wk =   0.1111111
        k(   20) = (  -0.0734858  -0.1272812   0.0000000), wk =   0.0555556

     Largest allocated arrays     est. size (Mb)     dimensions
     Largest temporary arrays     est. size (Mb)     dimensions

     Check: negative/imaginary core charge=   -0.000001    0.000000

     Initial potential from superposition of free atoms
     Check: negative starting charge=   -0.148252

     starting charge  179.97883, renormalised to  183.00000

[...]

     *
     * You are using vdW-DF for exchange-correlation in this calculation.
     * Please cite the following three references that made this development
     * possible:
     *
     *   M. Dion, H. Rydberg, E. Schroder, D. C. Langreth, and
     *   B. I. Lundqvist, Phys. Rev. Lett. 92, 246401 (2004).
     *
     *   T. Thonhauser, V. R. Cooper, S. Li, A. Puzder, P. Hyldgaard, and
     *   D. C. Langreth, Phys. Rev. B 76, 125112 (2007).
     *
     *   G. Roman-Perez and J. M. Soler, Phys. Rev. Lett. 103, 096102 (2009).
     *
     *
     * If you are using vdW-DF2, please also cite:
     *
     *   K. Lee, E. D. Murray, L. Kong, B. I. Lundqvist, and
     *   D. C. Langreth, Phys. Rev. B 82, 081101(R) (2010).
     *
     *
     * If you are calculating the stress with vdW-DF, please also cite:
     *
     *   R. Sabatini, E. Kucukbenli, B. Kolb, T. Thonhauser, and
     *   S. de Gironcoli, J. Phys.: Condens. Matter 24, 424209 (2012).
     *

     Carrying out vdW-DF run using the following parameters:

     Nqs =      20    Nr_points =    1024   r_max =   100.000
     q_mesh =
               0.00001000     0.04494208     0.09755937     0.15916263
               0.23128650     0.31572767     0.41458969     0.53033537
               0.66584808     0.82450364     1.01025438     1.22772762
               1.48234092     1.78043706     2.12944203     2.53805004
               3.01644009     3.57652955     4.23227104     5.00000000

     Gradients computed in reciprocal space

[...]

     Starting wfc are  120 randomized atomic wfcs +    1 random wfc

     Self-consistent Calculation

[...]

     total energy              =   -2708.80976505 Ry
     Harris-Foulkes estimate   =   -2708.80973467 Ry
     estimated scf accuracy    <       0.00000608 Ry

     iteration # 17     ecut=    36.75 Ry     beta=0.10
     Davidson diagonalization with overlap
     ethr =  3.32E-09,  avg # of iterations =  4.0

[...]

     negative rho (up, down):  1.596E-01 0.000E+00

     Adding external electric field

     Computed dipole along edir(3) :
        Dipole                0.0350 Ry au,          0.0890 Debye
        Dipole field          0.0001 Ry au

        Potential amp.       -0.0060 Ry
        Total length         47.0855 bohr

     End of self-consistent calculation

[...]

          k = 0.0490 0.0000 0.0000 ( 26007 PWs)   bands (ev):

[...]

          k =-0.0735-0.1273 0.0000 ( 25962 PWs)   bands (ev):

  -111.4859-111.3504-111.0286 -68.9186 -68.8934 -68.8934 -68.7767 -68.7576
   -68.7576 -68.4638 -68.4638 -68.4235 -16.7781 -16.7646 -16.7078 -16.6964
   -16.6733 -16.6658 -16.6655 -16.6576 -16.6562 -16.6475 -16.6473 -16.6238
   -16.6192 -16.6188 -16.6155 -16.6120 -16.6056 -16.6037 -16.6016 -16.5979
   -16.5966 -16.5931 -16.5818 -16.5758 -16.5660 -16.5583 -16.5507 -16.5296
   -16.5232 -16.5064 -16.4720 -16.4693 -16.4606 -16.4564 -16.4559 -16.4428
   -16.4249 -16.4185 -16.4107 -16.4087 -16.4032 -16.3881 -16.3702 -16.3547
   -16.2911  -9.3630  -9.0947  -8.3523  -7.9291  -7.4555  -7.3243  -6.9574
    -6.6739  -5.8188  -3.0945  -2.5946  -2.0144  -1.8247  -1.7786  -1.7677
    -1.7163  -1.6427  -1.6058  -1.5766  -1.5400  -1.4632  -1.3954  -1.3474
    -1.2202  -1.2065  -1.1841  -1.1184  -0.4905  -0.3528  -0.2890   0.0171
     0.0852   0.1315   0.7541   0.8191   1.1003   1.3163   1.7124   1.8373
     1.9526   2.1693   2.4466   2.5144   3.0371   3.3382   3.3427   3.7309
     3.8038   4.0851   4.3300   4.6558   4.8727   4.9858   5.1057   5.1932
     5.3225   5.4403   5.5889   5.6219   5.7452   5.8995   5.9784   6.2210
     6.2424

     the Fermi energy is     0.7454 ev

!    total energy              =   -2708.80975473 Ry
     Harris-Foulkes estimate   =   -2708.80976577 Ry
     estimated scf accuracy    <       0.00000075 Ry

     The total energy is the sum of the following terms:

     one-electron contribution =  -12926.52748340 Ry
     hartree contribution      =    6518.71518821 Ry
     xc contribution           =    -707.61920483 Ry
     ewald contribution        =    4406.65326341 Ry
     electric field correction =       0.00000223 Ry
     smearing contrib. (-TS)   =      -0.03152034 Ry

     convergence has been achieved in  17 iterations

 BEEF-vdW xc energy contributions
           1 :   -630.206529589371
           2 :    582.746384774317
           3 :   -500.060827220012
           4 :    401.492800130456
           5 :   -306.168853394052
           6 :    226.923585940337
           7 :   -167.792391043169
           8 :    125.465734145978
           9 :   -93.2853375924198
          10 :    65.4463017907158
          11 :   -39.4419869055795
          12 :    16.0604346721999
          13 :    2.37648163407096
          14 :   -14.1274677113175
          15 :    19.2798521246631
          16 :   -19.6952577792678
          17 :    18.0073161855508
          18 :   -16.4177558462241
          19 :    15.9347309413658
          20 :   -16.3174307065702
          21 :    16.5981607939420
          22 :   -15.8287767049202
          23 :    13.6694391049360
          24 :   -10.5757975880082
          25 :    7.54919584338995
          26 :   -5.61149917244529
          27 :    5.27710459188995
          28 :   -6.29143273231011
          29 :    7.77223628545050
          30 :   -8.68388344116511
          31 :   -50.2555836676203
          32 :   -36.3348245632241

     Forces acting on atoms (Ry/au):

     negative rho (up, down):  1.596E-01 0.000E+00
     atom    1 type  1   force =    -0.00000027    0.00843567   -0.00027411
     atom    2 type  1   force =     0.00730452   -0.00421797   -0.00027458
     atom    3 type  1   force =    -0.00730491   -0.00421803   -0.00027331
     atom    4 type  2   force =    -0.00000014    0.00000021    0.01339538
     atom    5 type  1   force =     0.00000034   -0.00560485   -0.00272826
     atom    6 type  1   force =    -0.00485432    0.00280309   -0.00272883
     atom    7 type  1   force =     0.00485489    0.00280288   -0.00273210
     atom    8 type  2   force =     0.00000010   -0.00000050    0.00072913
     atom    9 type  1   force =    -0.00000041   -0.00020209   -0.00187762
     atom   10 type  1   force =    -0.00017479    0.00010045   -0.00187553
     atom   11 type  1   force =     0.00017430    0.00010073   -0.00188061
     atom   12 type  2   force =     0.00000070    0.00000043    0.00052044

     Total force =     0.022831     Total SCF correction =     0.002478
     SCF correction compared to forces is large: reduce conv_thr to get better values

     entering subroutine stress ...

     negative rho (up, down):  1.596E-01 0.000E+00
          total   stress  (Ry/bohr**3)                   (kbar)     P=   -6.18
  -0.00004805   0.00000000  -0.00000000         -7.07      0.00     -0.00
   0.00000000  -0.00004806  -0.00000000          0.00     -7.07     -0.00
  -0.00000000  -0.00000000  -0.00002991         -0.00     -0.00     -4.40

 !ASE

     Writing output data file calc.save

     General routines

     Parallel routines

   This run was terminated on:  11: 2:34  31Dec2018

   JOB DONE.
Job  /afs/slac/g/suncat/bin/suncat-tsmpirun -x LD_LIBRARY_PATH -wdir /scratch/qe648721_UZKAL pw.x -in pw.inp

TID   HOST_NAME   COMMAND_LINE            STATUS            TERMINATION_TIME
00000 suncat0068 pw.x -in pw.inp   Done                     12/31/2018 11:02:34
00001 suncat0068 pw.x -in pw.inp   Done                     12/31/2018 11:02:34
00002 suncat0068 pw.x -in pw.inp   Done                     12/31/2018 11:02:34
00003 suncat0068 pw.x -in pw.inp   Done                     12/31/2018 11:02:34
00004 suncat0068 pw.x -in pw.inp   Done                     12/31/2018 11:02:34
00005 suncat0068 pw.x -in pw.inp   Done                     12/31/2018 11:02:34
00006 suncat0068 pw.x -in pw.inp   Done                     12/31/2018 11:02:34
00007 suncat0068 pw.x -in pw.inp   Done                     12/31/2018 11:02:34
00008 suncat0059 pw.x -in pw.inp   Done                     12/31/2018 11:02:34
00009 suncat0059 pw.x -in pw.inp   Done                     12/31/2018 11:02:34
00010 suncat0059 pw.x -in pw.inp   Done                     12/31/2018 11:02:34
00011 suncat0059 pw.x -in pw.inp   Done                     12/31/2018 11:02:34
00012 suncat0059 pw.x -in pw.inp   Done                     12/31/2018 11:02:34
00013 suncat0059 pw.x -in pw.inp   Done                     12/31/2018 11:02:34
00014 suncat0059 pw.x -in pw.inp   Done                     12/31/2018 11:02:34
00015 suncat0059 pw.x -in pw.inp   Done                     12/31/2018 11:02:34
00016 suncat0031 pw.x -in pw.inp   Done                     12/31/2018 11:02:34
00017 suncat0031 pw.x -in pw.inp   Done                     12/31/2018 11:02:34
00018 suncat0031 pw.x -in pw.inp   Done                     12/31/2018 11:02:34
00019 suncat0031 pw.x -in pw.inp   Done                     12/31/2018 11:02:34
00020 suncat0031 pw.x -in pw.inp   Done                     12/31/2018 11:02:34
00021 suncat0031 pw.x -in pw.inp   Done                     12/31/2018 11:02:34
00022 suncat0031 pw.x -in pw.inp   Done                     12/31/2018 11:02:34
00023 suncat0031 pw.x -in pw.inp   Done                     12/31/2018 11:02:34
00024 suncat0030 pw.x -in pw.inp   Done                     12/31/2018 11:02:34
00025 suncat0030 pw.x -in pw.inp   Done                     12/31/2018 11:02:34
00026 suncat0030 pw.x -in pw.inp   Done                     12/31/2018 11:02:34
00027 suncat0030 pw.x -in pw.inp   Done                     12/31/2018 11:02:34
00028 suncat0030 pw.x -in pw.inp   Done                     12/31/2018 11:02:34
00029 suncat0030 pw.x -in pw.inp   Done                     12/31/2018 11:02:34
00030 suncat0030 pw.x -in pw.inp   Done                     12/31/2018 11:02:34
00031 suncat0030 pw.x -in pw.inp   Done                     12/31/2018 11:02:34
00032 suncat0280 pw.x -in pw.inp   Done                     12/31/2018 11:02:34
00033 suncat0280 pw.x -in pw.inp   Done                     12/31/2018 11:02:34
00034 suncat0280 pw.x -in pw.inp   Done                     12/31/2018 11:02:34
00035 suncat0280 pw.x -in pw.inp   Done                     12/31/2018 11:02:34
00036 suncat0280 pw.x -in pw.inp   Done                     12/31/2018 11:02:34
00037 suncat0280 pw.x -in pw.inp   Done                     12/31/2018 11:02:34
00038 suncat0280 pw.x -in pw.inp   Done                     12/31/2018 11:02:34
00039 suncat0280 pw.x -in pw.inp   Done                     12/31/2018 11:02:34
00040 suncat0279 pw.x -in pw.inp   Done                     12/31/2018 11:02:34
00041 suncat0279 pw.x -in pw.inp   Done                     12/31/2018 11:02:34
00042 suncat0279 pw.x -in pw.inp   Done                     12/31/2018 11:02:34
00043 suncat0279 pw.x -in pw.inp   Done                     12/31/2018 11:02:34
00044 suncat0279 pw.x -in pw.inp   Done                     12/31/2018 11:02:34
00045 suncat0279 pw.x -in pw.inp   Done                     12/31/2018 11:02:34
00046 suncat0279 pw.x -in pw.inp   Done                     12/31/2018 11:02:34
00047 suncat0279 pw.x -in pw.inp   Done                     12/31/2018 11:02:34
00048 suncat0278 pw.x -in pw.inp   Done                     12/31/2018 11:02:34
00049 suncat0278 pw.x -in pw.inp   Done                     12/31/2018 11:02:34
00050 suncat0278 pw.x -in pw.inp   Done                     12/31/2018 11:02:34
00051 suncat0278 pw.x -in pw.inp   Done                     12/31/2018 11:02:34
00052 suncat0278 pw.x -in pw.inp   Done                     12/31/2018 11:02:34
00053 suncat0278 pw.x -in pw.inp   Done                     12/31/2018 11:02:34
00054 suncat0278 pw.x -in pw.inp   Done                     12/31/2018 11:02:34
00055 suncat0278 pw.x -in pw.inp   Done                     12/31/2018 11:02:34
00056 suncat0099 pw.x -in pw.inp   Done                     12/31/2018 11:02:34
00057 suncat0099 pw.x -in pw.inp   Done                     12/31/2018 11:02:34
00058 suncat0099 pw.x -in pw.inp   Done                     12/31/2018 11:02:34
00059 suncat0099 pw.x -in pw.inp   Done                     12/31/2018 11:02:34
00060 suncat0099 pw.x -in pw.inp   Done                     12/31/2018 11:02:34
00061 suncat0099 pw.x -in pw.inp   Done                     12/31/2018 11:02:34
00062 suncat0099 pw.x -in pw.inp   Done                     12/31/2018 11:02:34
00063 suncat0099 pw.x -in pw.inp   Done                     12/31/2018 11:02:34