     Program PWSCF v.5.1rc2 (svn rev. 11289) starts on 30Dec2018 at 11:27:14

     Current dimensions of program PWSCF are:
     Max number of different atomic species (ntypx) = 10
     Max number of k-points (npk) =  40000
     Max angular momentum in pseudopotentials (lmaxx) =  3
     Presently stress not available with electric field

     IMPORTANT: XC functional enforced from input :
     Exchange-correlation      = BEEF-VDW ( 1  4 27 13 2)
     Any further DFT definition will be discarded
     Please, verify this is what you really want

     Subspace diagonalization in iterative solution of the eigenvalue problem:
     a serial algorithm will be used

     bravais-lattice index     =            0
     lattice parameter (alat)  =       1.8897  a.u.
     unit-cell volume          =    7732.4526 (a.u.)^3
     number of atoms/cell      =           12
     number of atomic types    =            2
     number of electrons       =       156.00
     number of Kohn-Sham states=          108
     kinetic-energy cutoff     =      36.7493  Ry
     charge density cutoff     =     367.4932  Ry
     convergence threshold     =      1.0E-06
     mixing beta               =       0.1000
     number of iterations used =           10  plain     mixing
     Exchange-correlation      = BEEF-VDW ( 1  4 27 13 2)
     nstep                     =           50

     celldm(1)=   1.889726  celldm(2)=   0.000000  celldm(3)=   0.000000
     celldm(4)=   0.000000  celldm(5)=   0.000000  celldm(6)=   0.000000

     crystal axes: (cart. coord. in units of alat)
               a(1) = (   7.155326   0.000000   0.000000 )
               a(2) = (  -3.577663   6.196694   0.000000 )
               a(3) = (   0.000000   0.000000  25.842299 )

     reciprocal axes: (cart. coord. in units 2 pi/alat)
               b(1) = (  0.139756  0.080688  0.000000 )
               b(2) = (  0.000000  0.161376  0.000000 )
               b(3) = (  0.000000  0.000000  0.038696 )

     PseudoPot. # 1 for La read from file:
     /afs/slac.stanford.edu/u/if/mamunm/psp/gbrv1.5pbe/La.UPF
     MD5 check sum: 5937b0c7494ba0601a847275249473aa
     Pseudo is Ultrasoft + core correction, Zval = 11.0
     Generated by new atomic code, or converted to UPF format
     Using radial grid of  995 points,  8 beta functions with:
                l(1) =   0
                l(2) =   0
                l(3) =   1
                l(4) =   1
                l(5) =   2
                l(6) =   2
                l(7) =   3
                l(8) =   3
     Q(r) pseudized with  8 coefficients,  rinner =    1.700   1.700   1.700
                                                       1.700   1.700   1.700
                                                       1.700

     PseudoPot. # 2 for Ag read from file:
     /afs/slac.stanford.edu/u/if/mamunm/psp/gbrv1.5pbe/Ag.UPF
     MD5 check sum: d66d668201baa78d5eb5b04ef7011058
     Pseudo is Ultrasoft + core correction, Zval = 19.0
     Generated by new atomic code, or converted to UPF format
     Using radial grid of  887 points,  6 beta functions with:
                l(1) =   0
                l(2) =   0
                l(3) =   1
                l(4) =   1
                l(5) =   2
                l(6) =   2
     Q(r) pseudized with  6 coefficients,  rinner =    1.300   1.300   1.300
                                                       1.300   1.300

     vdW kernel table read from file vdW_kernel_table
     MD5 check sum: 095c7af220d748ca6e76c0b4c6cfb241

     atomic species   valence    mass     pseudopotential
        La1           11.00   138.90547     La( 1.00)
        Ag1           19.00   107.86820     Ag( 1.00)

     No symmetry found

   Cartesian axes

     site n.     atom                  positions (alat units)
         1           La1 tau(   1) = (   0.0000000   0.0000000  10.0000000  )
         2           La1 tau(   2) = (  -1.7888316   3.0983471  10.0000000  )
         3           La1 tau(   3) = (   1.7888316   3.0983471  10.0000000  )
         4           Ag1 tau(   4) = (   3.5776631   0.0000000  10.0000000  )
         5           La1 tau(   5) = (   3.5776631   2.0655648  12.9211497  )
         6           La1 tau(   6) = (   1.7888316   5.1639119  12.9211497  )
         7           La1 tau(   7) = (  -1.7888316   5.1639119  12.9211497  )
         8           Ag1 tau(   8) = (   0.0000000   2.0655648  12.9211497  )
         9           La1 tau(   9) = (  -0.0000000   4.1311295  15.8422994  )
        10           La1 tau(  10) = (   1.7888316   1.0327824  15.8422994  )
        11           La1 tau(  11) = (   5.3664947   1.0327824  15.8422994  )
        12           Ag1 tau(  12) = (   3.5776631   4.1311295  15.8422994  )

     number of k points=    20  Fermi-Dirac smearing, width (Ry)=  0.0110
                       cart. coord. in units 2pi/alat
        k(    1) = (   0.0000000   0.0000000   0.0000000), wk =   0.0555556
        k(    2) = (   0.0000000   0.0268961   0.0000000), wk =   0.1111111
        k(    3) = (   0.0000000   0.0537921   0.0000000), wk =   0.1111111
        k(    4) = (   0.0000000  -0.0806882   0.0000000), wk =   0.0555556
        k(    5) = (   0.0232927   0.0134480   0.0000000), wk =   0.1111111
        k(    6) = (   0.0232927   0.0403441   0.0000000), wk =   0.1111111
        k(    7) = (   0.0232927   0.0672402   0.0000000), wk =   0.1111111
        k(    8) = (   0.0232927  -0.0672402   0.0000000), wk =   0.1111111
        k(    9) = (   0.0232927  -0.0403441   0.0000000), wk =   0.1111111
        k(   10) = (   0.0232927  -0.0134480   0.0000000), wk =   0.1111111
        k(   11) = (   0.0465853   0.0268961   0.0000000), wk =   0.1111111
        k(   12) = (   0.0465853   0.0537921   0.0000000), wk =   0.1111111
        k(   13) = (   0.0465853   0.0806882   0.0000000), wk =   0.1111111
        k(   14) = (   0.0465853  -0.0537921   0.0000000), wk =   0.1111111
        k(   15) = (   0.0465853  -0.0268961   0.0000000), wk =   0.1111111
        k(   16) = (   0.0465853   0.0000000   0.0000000), wk =   0.1111111
        k(   17) = (  -0.0698780  -0.0403441   0.0000000), wk =   0.0555556
        k(   18) = (  -0.0698780  -0.0134480   0.0000000), wk =   0.1111111
        k(   19) = (  -0.0698780   0.0134480   0.0000000), wk =   0.1111111
        k(   20) = (  -0.0698780  -0.1210323   0.0000000), wk =   0.0555556

     Largest allocated arrays     est. size (Mb)     dimensions
     Largest temporary arrays     est. size (Mb)     dimensions

     Initial potential from superposition of free atoms
     Check: negative starting charge=   -0.632309

     starting charge  154.21124, renormalised to  156.00000

     negative rho (up, down):  6.396E-01 0.000E+00

     *
     * You are using vdW-DF for exchange-correlation in this calculation.
     * Please cite the following three references that made this development
     * possible:
     *
     *   M. Dion, H. Rydberg, E. Schroder, D. C. Langreth, and
     *   B. I. Lundqvist, Phys. Rev. Lett. 92, 246401 (2004).
     *
     *   T. Thonhauser, V. R. Cooper, S. Li, A. Puzder, P. Hyldgaard, and
     *   D. C. Langreth, Phys. Rev. B 76, 125112 (2007).
     *
     *   G. Roman-Perez and J. M. Soler, Phys. Rev. Lett. 103, 096102 (2009).
     *
     *
     * If you are using vdW-DF2, please also cite:
     *
     *   K. Lee, E. D. Murray, L. Kong, B. I. Lundqvist, and
     *   D. C. Langreth, Phys. Rev. B 82, 081101(R) (2010).
     *
     *
     * If you are calculating the stress with vdW-DF, please also cite:
     *
     *   R. Sabatini, E. Kucukbenli, B. Kolb, T. Thonhauser, and
     *   S. de Gironcoli, J. Phys.: Condens. Matter 24, 424209 (2012).
     *

     Carrying out vdW-DF run using the following parameters:

     Nqs =      20    Nr_points =    1024   r_max =   100.000
     q_mesh =
               0.00001000     0.04494208     0.09755937     0.15916263
               0.23128650     0.31572767     0.41458969     0.53033537
               0.66584808     0.82450364     1.01025438     1.22772762
               1.48234092     1.78043706     2.12944203     2.53805004
               3.01644009     3.57652955     4.23227104     5.00000000

     Gradients computed in reciprocal space

     Adding external electric field

     Computed dipole along edir(3) :
        Dipole                0.0000 Ry au,          0.0000 Debye
        Dipole field          0.0000 Ry au

        Potential amp.       -0.0000 Ry
        Total length         47.6140 bohr

     Starting wfc are  219 randomized atomic wfcs

     Self-consistent Calculation

     iteration #  1     ecut=    36.75 Ry     beta=0.10
     Davidson diagonalization with overlap
     ethr =  1.00E-02,  avg # of iterations =  1.6

[...]

     total energy              =   -1825.22320655 Ry
     Harris-Foulkes estimate   =   -1827.23048077 Ry
     estimated scf accuracy    <      11.19254399 Ry

[...]

     iteration #  8     ecut=    36.75 Ry     beta=0.10
     Davidson diagonalization with overlap
     c_bands:  1 eigenvalues not converged
     c_bands:  1 eigenvalues not converged
     c_bands:  1 eigenvalues not converged
     c_bands:  1 eigenvalues not converged
     ethr =  5.17E-05,  avg # of iterations = 17.3

[...]

     End of self-consistent calculation

          k = 0.0000 0.0000 0.0000 ( 29045 PWs)   bands (ev):

   -90.0812 -90.0450 -90.0448 -53.5503 -53.5503 -53.5499 -53.5306 -53.5306
   -53.5304 -53.5304 -53.5075 -53.5073 -31.5310 -31.5189 -31.3680 -31.3680
   -31.3652 -31.3652 -31.1061 -30.9588 -30.9588 -15.8519 -15.7548 -15.5413
   -15.4395 -15.4395 -15.3256 -15.3255 -15.3227 -15.3120 -15.3119 -15.2131
   -15.0248 -15.0248 -14.7605 -14.7604 -14.7063 -14.6560 -14.4635 -14.4310
   -14.4310 -14.4240 -14.4240 -14.3975 -14.3975 -14.2269 -14.0895 -14.0895
    -2.4475  -2.4475  -2.3929  -2.3929  -2.3860  -2.3860  -2.3743  -2.3634
    -2.3634  -2.3599  -2.3269  -2.2413  -2.2413  -2.2250  -2.2250  -1.7440
    -1.0526  -0.8709  -0.2748   0.2424   0.7110   1.1177   1.1782   1.4316
     1.4316   1.5622   1.5622   1.7448   1.7449   1.7611   1.7611   2.0957
     2.1636   2.4006   2.4006   2.7873   2.7873   2.7909   2.9547   2.9568
     3.0668   3.0668   3.0861   3.1232   3.1328   3.1594   3.1597   3.1825
     3.1826   3.2346   3.2347   3.2406   3.2535   3.2816   3.2991   3.2992
     3.3224   3.3226   3.3334   3.3856

[...]

          k =-0.0699-0.0403 0.0000 ( 29080 PWs)   bands (ev):

[...]

     the Fermi energy is     1.9193 ev

!    total energy              =   -1826.06825837 Ry
     Harris-Foulkes estimate   =   -1826.08056920 Ry
     estimated scf accuracy    <       0.00000040 Ry

     The total energy is the sum of the following terms:

     one-electron contribution =   -7824.06418268 Ry
     hartree contribution      =    3919.39066083 Ry
     xc contribution           =    -546.57058638 Ry
     ewald contribution        =    2625.29980484 Ry
     electric field correction =       0.00000000 Ry
     smearing contrib. (-TS)   =      -0.12395498 Ry

     convergence has been achieved in  19 iterations

 BEEF-vdW xc energy contributions
           1 :   -482.300676181343
           2 :    442.600290956088
           3 :   -373.015802950579
[...]
                l(1) =   0
                l(2) =   0
                l(3) =   1
                l(4) =   1
                l(5) =   2
                l(6) =   2
                l(7) =   3
                l(8) =   3
     Q(r) pseudized with  8 coefficients,  rinner =    1.700   1.700   1.700
                                                       1.700   1.700   1.700
                                                       1.700

     PseudoPot. # 2 for Ag read from file:
     /afs/slac.stanford.edu/u/if/mamunm/psp/gbrv1.5pbe/Ag.UPF
     MD5 check sum: d66d668201baa78d5eb5b04ef7011058
     Pseudo is Ultrasoft + core correction, Zval = 19.0
     Generated by new atomic code, or converted to UPF format
     Using radial grid of  887 points,  6 beta functions with:
                l(1) =   0
                l(2) =   0
                l(3) =   1
                l(4) =   1
                l(5) =   2
                l(6) =   2
     Q(r) pseudized with  6 coefficients,  rinner =    1.300   1.300   1.300
                                                       1.300   1.300

     vdW kernel table read from file vdW_kernel_table
     MD5 check sum: 095c7af220d748ca6e76c0b4c6cfb241

     atomic species   valence    mass     pseudopotential
        La1           11.00   138.90547     La( 1.00)
        Ag1           19.00   107.86820     Ag( 1.00)

     No symmetry found

   Cartesian axes

     site n.     atom                  positions (alat units)
         1           La1 tau(   1) = (   0.0000000   0.0000000  10.0000000  )
         2           La1 tau(   2) = (  -1.7888316   3.0983471  10.0000000  )
         3           La1 tau(   3) = (   1.7888316   3.0983471  10.0000000  )
         4           Ag1 tau(   4) = (   3.5776631   0.0000000  10.0000000  )
         5           La1 tau(   5) = (   3.5776631   2.0655648  12.9211497  )
         6           La1 tau(   6) = (   1.7888316   5.1639119  12.9211497  )
         7           La1 tau(   7) = (  -1.7888316   5.1639119  12.9211497  )
         8           Ag1 tau(   8) = (   0.0000000   2.0655648  12.9211497  )
         9           La1 tau(   9) = (  -0.0000200   4.0688356  15.8630198  )
        10           La1 tau(  10) = (   1.7348863   1.0638999  15.8628946  )
        11           La1 tau(  11) = (   5.4204308   1.0639241  15.8629616  )
        12           Ag1 tau(  12) = (   3.5776258   4.1311168  15.5826462  )

     number of k points=    20  Fermi-Dirac smearing, width (Ry)=  0.0110
                       cart. coord. in units 2pi/alat
        k(    1) = (   0.0000000   0.0000000   0.0000000), wk =   0.0555556
        k(    2) = (   0.0000000   0.0268961   0.0000000), wk =   0.1111111
        k(    3) = (   0.0000000   0.0537921   0.0000000), wk =   0.1111111
        k(    4) = (   0.0000000  -0.0806882   0.0000000), wk =   0.0555556
        k(    5) = (   0.0232927   0.0134480   0.0000000), wk =   0.1111111
        k(    6) = (   0.0232927   0.0403441   0.0000000), wk =   0.1111111
        k(    7) = (   0.0232927   0.0672402   0.0000000), wk =   0.1111111
        k(    8) = (   0.0232927  -0.0672402   0.0000000), wk =   0.1111111
        k(    9) = (   0.0232927  -0.0403441   0.0000000), wk =   0.1111111
        k(   10) = (   0.0232927  -0.0134480   0.0000000), wk =   0.1111111
        k(   11) = (   0.0465853   0.0268961   0.0000000), wk =   0.1111111
        k(   12) = (   0.0465853   0.0537921   0.0000000), wk =   0.1111111
        k(   13) = (   0.0465853   0.0806882   0.0000000), wk =   0.1111111
        k(   14) = (   0.0465853  -0.0537921   0.0000000), wk =   0.1111111
        k(   15) = (   0.0465853  -0.0268961   0.0000000), wk =   0.1111111
        k(   16) = (   0.0465853   0.0000000   0.0000000), wk =   0.1111111
        k(   17) = (  -0.0698780  -0.0403441   0.0000000), wk =   0.0555556
        k(   18) = (  -0.0698780  -0.0134480   0.0000000), wk =   0.1111111
        k(   19) = (  -0.0698780   0.0134480   0.0000000), wk =   0.1111111
        k(   20) = (  -0.0698780  -0.1210323   0.0000000), wk =   0.0555556

     Largest allocated arrays     est. size (Mb)     dimensions
     Largest temporary arrays     est. size (Mb)     dimensions

     Initial potential from superposition of free atoms
     Check: negative starting charge=   -0.631199

     starting charge  154.21124, renormalised to  156.00000

[...]

     *
     * You are using vdW-DF for exchange-correlation in this calculation.
     * Please cite the following three references that made this development
     * possible:
     *
     *   M. Dion, H. Rydberg, E. Schroder, D. C. Langreth, and
     *   B. I. Lundqvist, Phys. Rev. Lett. 92, 246401 (2004).
     *
     *   T. Thonhauser, V. R. Cooper, S. Li, A. Puzder, P. Hyldgaard, and
     *   D. C. Langreth, Phys. Rev. B 76, 125112 (2007).
     *
     *   G. Roman-Perez and J. M. Soler, Phys. Rev. Lett. 103, 096102 (2009).
     *
     *
     * If you are using vdW-DF2, please also cite:
     *
     *   K. Lee, E. D. Murray, L. Kong, B. I. Lundqvist, and
     *   D. C. Langreth, Phys. Rev. B 82, 081101(R) (2010).
     *
     *
     * If you are calculating the stress with vdW-DF, please also cite:
     *
     *   R. Sabatini, E. Kucukbenli, B. Kolb, T. Thonhauser, and
     *   S. de Gironcoli, J. Phys.: Condens. Matter 24, 424209 (2012).
     *

     Carrying out vdW-DF run using the following parameters:

     Nqs =      20    Nr_points =    1024   r_max =   100.000
     q_mesh =
               0.00001000     0.04494208     0.09755937     0.15916263
               0.23128650     0.31572767     0.41458969     0.53033537
               0.66584808     0.82450364     1.01025438     1.22772762
               1.48234092     1.78043706     2.12944203     2.53805004
               3.01644009     3.57652955     4.23227104     5.00000000

     Gradients computed in reciprocal space

[...]

     Starting wfc are  219 randomized atomic wfcs

     Self-consistent Calculation

[...]

     iteration #  8     ecut=    36.75 Ry     beta=0.10
     Davidson diagonalization with overlap
     c_bands:  1 eigenvalues not converged
     ethr =  1.81E-05,  avg # of iterations = 15.6

[...]

     total energy              =   -1826.08691115 Ry
     Harris-Foulkes estimate   =   -1826.08691394 Ry
     estimated scf accuracy    <       0.00000125 Ry

     iteration # 19     ecut=    36.75 Ry     beta=0.10
     Davidson diagonalization with overlap
     ethr =  7.99E-10,  avg # of iterations =  4.2

[...]

     negative rho (up, down):  4.288E-01 0.000E+00

     Adding external electric field

     Computed dipole along edir(3) :
        Dipole                0.0387 Ry au,          0.0984 Debye
        Dipole field          0.0001 Ry au

        Potential amp.       -0.0060 Ry
        Total length         47.6140 bohr

     End of self-consistent calculation

[...]

          k = 0.0466 0.0000 0.0000 ( 29109 PWs)   bands (ev):

[...]

          k =-0.0699-0.1210 0.0000 ( 29080 PWs)   bands (ev):

   -90.1369 -90.0556 -90.0251 -53.6201 -53.6089 -53.6088 -53.5244 -53.5243
   -53.5224 -53.5096 -53.5095 -53.4893 -31.4635 -31.4460 -31.3971 -31.3899
   -31.3449 -31.3398 -31.0301 -30.9825 -30.9313 -15.5643 -15.4978 -15.4248
   -15.2910 -15.2565 -15.1901 -15.1544 -15.1110 -15.0834 -15.0824 -15.0600
   -15.0180 -15.0122 -14.9771 -14.9399 -14.9118 -14.9045 -14.6642 -14.5686
   -14.5465 -14.5085 -14.4516 -14.4116 -14.3941 -14.3733 -14.3371 -14.1021
    -2.4354  -2.3914  -2.3832  -2.3664  -2.3602  -2.3397  -2.3238  -2.2859
    -2.2757  -2.2596  -2.2513  -2.2499  -2.2309  -2.2164  -2.1916  -0.6569
    -0.6083  -0.2066   0.4747   0.6184   0.7585   1.0312   1.3501   1.4986
     1.5317   1.6339   1.6864   1.7215   1.8620   2.0198   2.0815   2.1181
     2.2463   2.2819   2.3102   2.4797   2.4994   2.5082   2.6726   2.6977
     2.7198   2.8411   2.9438   2.9931   3.0082   3.0730   3.0739   3.1757
     3.1885   3.2019   3.2692   3.2742   3.2828   3.2882   3.3102   3.3237
     3.3448   3.3715   3.3884   3.4019

     the Fermi energy is     1.9471 ev

!    total energy              =   -1826.08689282 Ry
     Harris-Foulkes estimate   =   -1826.08691098 Ry
     estimated scf accuracy    <       0.00000076 Ry

     The total energy is the sum of the following terms:

     one-electron contribution =   -7908.98292177 Ry
     hartree contribution      =    3961.89463159 Ry
     xc contribution           =    -546.59102823 Ry
     ewald contribution        =    2667.71639038 Ry
     electric field correction =       0.00000244 Ry
     smearing contrib. (-TS)   =      -0.12396723 Ry

     convergence has been achieved in  19 iterations

 BEEF-vdW xc energy contributions
           1 :   -482.685759526282
           2 :    443.005842870456
           3 :   -373.441889848400
           4 :    289.816858223006
           5 :   -208.512478795399
           6 :    141.739840972455
           7 :   -95.1818775083119
           8 :    68.2418956029084
           9 :   -56.1105021406105
          10 :    52.4411599660657
          11 :   -51.5733867300099
          12 :    49.6994918042205
          13 :   -44.9855895292550
          14 :    37.1066882031152
          15 :   -26.7365059885677
          16 :    15.2299817235116
          17 :   -4.39218753859677
          18 :   -3.88876182335071
          19 :    8.19386061906300
          20 :   -8.12443926345736
          21 :    4.55457996435121
          22 :   0.611252514712760
          23 :   -5.13712310734797
          24 :    7.31848448549709
          25 :   -6.60715459059861
          26 :    3.70107137592549
          27 :  -8.603791109203485E-002
          28 :   -2.70672601815352
          29 :    3.74931915980073
          30 :   -2.99716134054870
          31 :   -42.0741186085684
          32 :   -30.2553504465666

     Forces acting on atoms (Ry/au):

     negative rho (up, down):  4.288E-01 0.000E+00
     atom    1 type  1   force =    -0.00000206    0.00872922   -0.00255300
     atom    2 type  1   force =     0.00756029   -0.00436475   -0.00255866
     atom    3 type  1   force =    -0.00756041   -0.00436188   -0.00255231
     atom    4 type  2   force =    -0.00000116   -0.00000016    0.01568728
     atom    5 type  1   force =     0.00000099   -0.00295010   -0.00184899
     atom    6 type  1   force =    -0.00255413    0.00147466   -0.00184702
     atom    7 type  1   force =     0.00255423    0.00147372   -0.00184795
     atom    8 type  2   force =    -0.00000308    0.00000216   -0.00016045
     atom    9 type  1   force =     0.00000241   -0.00021393   -0.00043737
     atom   10 type  1   force =    -0.00018999    0.00011086   -0.00043213
     atom   11 type  1   force =     0.00018767    0.00010367   -0.00043866
     atom   12 type  2   force =     0.00000523   -0.00000347   -0.00101074

     Total force =     0.023073     Total SCF correction =     0.004550
     SCF correction compared to forces is large: reduce conv_thr to get better values

     entering subroutine stress ...

     negative rho (up, down):  4.288E-01 0.000E+00
          total   stress  (Ry/bohr**3)                   (kbar)     P=   -2.81
  -0.00002285  -0.00000000   0.00000000         -3.36     -0.00      0.00
  -0.00000000  -0.00002284   0.00000000         -0.00     -3.36      0.00
   0.00000000   0.00000000  -0.00001167          0.00      0.00     -1.72

 !ASE

     Writing output data file calc.save

     General routines

     Parallel routines

   This run was terminated on:  13:50:46  30Dec2018

   JOB DONE.
Job  /afs/slac/g/suncat/bin/suncat-tsmpirun -x LD_LIBRARY_PATH -wdir /scratch/qe648538_pc3t3 pw.x -in pw.inp

TID   HOST_NAME   COMMAND_LINE            STATUS            TERMINATION_TIME
00000 suncat0062 pw.x -in pw.inp   Done                     12/30/2018 13:50:46
00001 suncat0062 pw.x -in pw.inp   Done                     12/30/2018 13:50:46
00002 suncat0062 pw.x -in pw.inp   Done                     12/30/2018 13:50:46
00003 suncat0062 pw.x -in pw.inp   Done                     12/30/2018 13:50:46
00004 suncat0062 pw.x -in pw.inp   Done                     12/30/2018 13:50:46
00005 suncat0062 pw.x -in pw.inp   Done                     12/30/2018 13:50:46
00006 suncat0062 pw.x -in pw.inp   Done                     12/30/2018 13:50:46
00007 suncat0062 pw.x -in pw.inp   Done                     12/30/2018 13:50:46
00008 suncat0061 pw.x -in pw.inp   Done                     12/30/2018 13:50:46
00009 suncat0061 pw.x -in pw.inp   Done                     12/30/2018 13:50:46
00010 suncat0061 pw.x -in pw.inp   Done                     12/30/2018 13:50:46
00011 suncat0061 pw.x -in pw.inp   Done                     12/30/2018 13:50:46
00012 suncat0061 pw.x -in pw.inp   Done                     12/30/2018 13:50:46
00013 suncat0061 pw.x -in pw.inp   Done                     12/30/2018 13:50:46
00014 suncat0061 pw.x -in pw.inp   Done                     12/30/2018 13:50:46
00015 suncat0061 pw.x -in pw.inp   Done                     12/30/2018 13:50:46
00016 suncat0057 pw.x -in pw.inp   Done                     12/30/2018 13:50:46
00017 suncat0057 pw.x -in pw.inp   Done                     12/30/2018 13:50:46
00018 suncat0057 pw.x -in pw.inp   Done                     12/30/2018 13:50:46
00019 suncat0057 pw.x -in pw.inp   Done                     12/30/2018 13:50:46
00020 suncat0057 pw.x -in pw.inp   Done                     12/30/2018 13:50:46
00021 suncat0057 pw.x -in pw.inp   Done                     12/30/2018 13:50:46
00022 suncat0057 pw.x -in pw.inp   Done                     12/30/2018 13:50:46
00023 suncat0057 pw.x -in pw.inp   Done                     12/30/2018 13:50:46
00024 suncat0165 pw.x -in pw.inp   Done                     12/30/2018 13:50:46
00025 suncat0165 pw.x -in pw.inp   Done                     12/30/2018 13:50:46
00026 suncat0165 pw.x -in pw.inp   Done                     12/30/2018 13:50:46
00027 suncat0165 pw.x -in pw.inp   Done                     12/30/2018 13:50:46
00028 suncat0165 pw.x -in pw.inp   Done                     12/30/2018 13:50:46
00029 suncat0165 pw.x -in pw.inp   Done                     12/30/2018 13:50:46
00030 suncat0165 pw.x -in pw.inp   Done                     12/30/2018 13:50:46
00031 suncat0165 pw.x -in pw.inp   Done                     12/30/2018 13:50:46
00032 suncat0106 pw.x -in pw.inp   Done                     12/30/2018 13:50:46
00033 suncat0106 pw.x -in pw.inp   Done                     12/30/2018 13:50:46
00034 suncat0106 pw.x -in pw.inp   Done                     12/30/2018 13:50:46
00035 suncat0106 pw.x -in pw.inp   Done                     12/30/2018 13:50:46
00036 suncat0106 pw.x -in pw.inp   Done                     12/30/2018 13:50:46
00037 suncat0106 pw.x -in pw.inp   Done                     12/30/2018 13:50:46
00038 suncat0106 pw.x -in pw.inp   Done                     12/30/2018 13:50:46
00039 suncat0106 pw.x -in pw.inp   Done                     12/30/2018 13:50:46
00040 suncat0105 pw.x -in pw.inp   Done                     12/30/2018 13:50:46
00041 suncat0105 pw.x -in pw.inp   Done                     12/30/2018 13:50:46
00042 suncat0105 pw.x -in pw.inp   Done                     12/30/2018 13:50:46
00043 suncat0105 pw.x -in pw.inp   Done                     12/30/2018 13:50:46
00044 suncat0105 pw.x -in pw.inp   Done                     12/30/2018 13:50:46
00045 suncat0105 pw.x -in pw.inp   Done                     12/30/2018 13:50:46
00046 suncat0105 pw.x -in pw.inp   Done                     12/30/2018 13:50:46
00047 suncat0105 pw.x -in pw.inp   Done                     12/30/2018 13:50:46
00048 suncat0277 pw.x -in pw.inp   Done                     12/30/2018 13:50:46
00049 suncat0277 pw.x -in pw.inp   Done                     12/30/2018 13:50:46
00050 suncat0277 pw.x -in pw.inp   Done                     12/30/2018 13:50:46
00051 suncat0277 pw.x -in pw.inp   Done                     12/30/2018 13:50:46
00052 suncat0277 pw.x -in pw.inp   Done                     12/30/2018 13:50:46
00053 suncat0277 pw.x -in pw.inp   Done                     12/30/2018 13:50:46
00054 suncat0277 pw.x -in pw.inp   Done                     12/30/2018 13:50:46
00055 suncat0277 pw.x -in pw.inp   Done                     12/30/2018 13:50:46
00056 suncat0276 pw.x -in pw.inp   Done                     12/30/2018 13:50:46
00057 suncat0276 pw.x -in pw.inp   Done                     12/30/2018 13:50:46
00058 suncat0276 pw.x -in pw.inp   Done                     12/30/2018 13:50:46
00059 suncat0276 pw.x -in pw.inp   Done                     12/30/2018 13:50:46
00060 suncat0276 pw.x -in pw.inp   Done                     12/30/2018 13:50:46
00061 suncat0276 pw.x -in pw.inp   Done                     12/30/2018 13:50:46
00062 suncat0276 pw.x -in pw.inp   Done                     12/30/2018 13:50:46
00063 suncat0276 pw.x -in pw.inp   Done                     12/30/2018 13:50:46