     Program PWSCF v.5.1rc2 (svn rev. 11289) starts on  2Jan2019 at 17:58:52

     Current dimensions of program PWSCF are:
     Max number of different atomic species (ntypx) = 10
     Max number of k-points (npk) =  40000
     Max angular momentum in pseudopotentials (lmaxx) =  3
     Presently stress not available with electric field

     IMPORTANT: XC functional enforced from input :
     Exchange-correlation      = BEEF-VDW ( 1  4 27 13 2)
     Any further DFT definition will be discarded
     Please, verify this is what you really want

     Subspace diagonalization in iterative solution of the eigenvalue problem:
     a serial algorithm will be used

     bravais-lattice index     =            0
     lattice parameter (alat)  =       1.8897  a.u.
     unit-cell volume          =    5240.8623 (a.u.)^3
     number of atoms/cell      =           12
     number of atomic types    =            2
     number of electrons       =       222.00
     number of Kohn-Sham states=          141
     kinetic-energy cutoff     =      36.7493  Ry
     charge density cutoff     =     367.4932  Ry
     convergence threshold     =      1.0E-06
     mixing beta               =       0.1000
     number of iterations used =           10  plain     mixing
     Exchange-correlation      = BEEF-VDW ( 1  4 27 13 2)
     nstep                     =           50

     celldm(1)=   1.889726  celldm(2)=   0.000000  celldm(3)=   0.000000
     celldm(4)=   0.000000  celldm(5)=   0.000000  celldm(6)=   0.000000

     crystal axes: (cart. coord. in units of alat)
               a(1) = (   6.001204   0.000000   0.000000 )
               a(2) = (  -3.000602   5.197195   0.000000 )
               a(3) = (   0.000000   0.000000  24.899963 )

     reciprocal axes: (cart. coord. in units 2 pi/alat)
               b(1) = (  0.166633  0.096206  0.000000 )
               b(2) = (  0.000000  0.192411  0.000000 )
               b(3) = (  0.000000  0.000000  0.040161 )

     PseudoPot. # 1 for Zn read from file:
     /afs/slac.stanford.edu/u/if/mamunm/psp/gbrv1.5pbe/Zn.UPF
     MD5 check sum: df62231357ef9e81f77b2b3087fa5675
     Pseudo is Ultrasoft, Zval = 20.0
     Generated by new atomic code, or converted to UPF format
     Using radial grid of  943 points,  6 beta functions with:
                l(1) =   0
                l(2) =   0
                l(3) =   1
                l(4) =   1
                l(5) =   2
                l(6) =   2
     Q(r) pseudized with  8 coefficients,  rinner =    1.100   1.100   1.100
                                                       1.100   1.100

     PseudoPot. # 2 for Sn read from file:
     /afs/slac.stanford.edu/u/if/mamunm/psp/gbrv1.5pbe/Sn.UPF
     MD5 check sum: 469debedee59599fedebd795477fea03
     Pseudo is Ultrasoft + core correction, Zval = 14.0
     Generated by new atomic code, or converted to UPF format
     Using radial grid of  891 points,  6 beta functions with:
                l(1) =   0
                l(2) =   0
                l(3) =   1
                l(4) =   1
                l(5) =   2
                l(6) =   2
     Q(r) pseudized with  8 coefficients,  rinner =    1.350   1.350   1.350
                                                       1.350   1.350

     vdW kernel table read from file vdW_kernel_table
     MD5 check sum: 095c7af220d748ca6e76c0b4c6cfb241

     atomic species   valence    mass     pseudopotential
        Zn1           20.00    65.38000     Zn( 1.00)
        Sn1           14.00   118.71000     Sn( 1.00)

     No symmetry found

   Cartesian axes

     site n.     atom                  positions (alat units)
         1           Zn1 tau(   1) = (   0.0000000   0.0000000  10.0000000  )
         2           Zn1 tau(   2) = (  -1.5003011   2.5985977  10.0000000  )
         3           Zn1 tau(   3) = (   1.5003011   2.5985977  10.0000000  )
         4           Sn1 tau(   4) = (   3.0006021   0.0000000  10.0000000  )
         5           Zn1 tau(   5) = (   3.0006021   1.7323985  12.4499814  )
         6           Zn1 tau(   6) = (   1.5003011   4.3309961  12.4499814  )
         7           Zn1 tau(   7) = (  -1.5003011   4.3309961  12.4499814  )
         8           Sn1 tau(   8) = (   0.0000000   1.7323985  12.4499814  )
         9           Zn1 tau(   9) = (  -0.0000000   3.4647969  14.8999628  )
        10           Zn1 tau(  10) = (   1.5003011   0.8661992  14.8999628  )
        11           Zn1 tau(  11) = (   4.5009032   0.8661992  14.8999628  )
        12           Sn1 tau(  12) = (   3.0006021   3.4647969  14.8999628  )

     number of k points=    20  Fermi-Dirac smearing, width (Ry)=  0.0110
                       cart. coord. in units 2pi/alat
        k(    1) = (   0.0000000   0.0000000   0.0000000), wk =   0.0555556
        k(    2) = (   0.0000000   0.0320686   0.0000000), wk =   0.1111111
        k(    3) = (   0.0000000   0.0641372   0.0000000), wk =   0.1111111
        k(    4) = (   0.0000000  -0.0962057   0.0000000), wk =   0.0555556
        k(    5) = (   0.0277722   0.0160343   0.0000000), wk =   0.1111111
        k(    6) = (   0.0277722   0.0481029   0.0000000), wk =   0.1111111
        k(    7) = (   0.0277722   0.0801714   0.0000000), wk =   0.1111111
        k(    8) = (   0.0277722  -0.0801714   0.0000000), wk =   0.1111111
        k(    9) = (   0.0277722  -0.0481029   0.0000000), wk =   0.1111111
        k(   10) = (   0.0277722  -0.0160343   0.0000000), wk =   0.1111111
        k(   11) = (   0.0555444   0.0320686   0.0000000), wk =   0.1111111
        k(   12) = (   0.0555444   0.0641372   0.0000000), wk =   0.1111111
        k(   13) = (   0.0555444   0.0962057   0.0000000), wk =   0.1111111
        k(   14) = (   0.0555444  -0.0641372   0.0000000), wk =   0.1111111
        k(   15) = (   0.0555444  -0.0320686   0.0000000), wk =   0.1111111
        k(   16) = (   0.0555444   0.0000000   0.0000000), wk =   0.1111111
        k(   17) = (  -0.0833166  -0.0481029   0.0000000), wk =   0.0555556
        k(   18) = (  -0.0833166  -0.0160343   0.0000000), wk =   0.1111111
        k(   19) = (  -0.0833166   0.0160343   0.0000000), wk =   0.1111111
        k(   20) = (  -0.0833166  -0.1443086   0.0000000), wk =   0.0555556

     Largest allocated arrays     est. size (Mb)     dimensions
     Largest temporary arrays     est. size (Mb)     dimensions

     Initial potential from superposition of free atoms
     Check: negative starting charge=   -0.001019

     starting charge  218.99860, renormalised to  222.00000

     negative rho (up, down):  1.033E-03 0.000E+00

     *
     * You are using vdW-DF for exchange-correlation in this calculation.
     * Please cite the following three references that made this development
     * possible:
     *
     *   M. Dion, H. Rydberg, E. Schroder, D. C. Langreth, and
     *   B. I. Lundqvist, Phys. Rev. Lett. 92, 246401 (2004).
     *
     *   T. Thonhauser, V. R. Cooper, S. Li, A. Puzder, P. Hyldgaard, and
     *   D. C. Langreth, Phys. Rev. B 76, 125112 (2007).
     *
     *   G. Roman-Perez and J. M. Soler, Phys. Rev. Lett. 103, 096102 (2009).
     *
     *
     * If you are using vdW-DF2, please also cite:
     *
     *   K. Lee, E. D. Murray, L. Kong, B. I. Lundqvist, and
     *   D. C. Langreth, Phys. Rev. B 82, 081101(R) (2010).
     *
     *
     * If you are calculating the stress with vdW-DF, please also cite:
     *
     *   R. Sabatini, E. Kucukbenli, B. Kolb, T. Thonhauser, and
     *   S. de Gironcoli, J. Phys.: Condens. Matter 24, 424209 (2012).
     *

     Carrying out vdW-DF run using the following parameters:

     Nqs =      20    Nr_points =    1024   r_max =   100.000
     q_mesh =
               0.00001000     0.04494208     0.09755937     0.15916263
               0.23128650     0.31572767     0.41458969     0.53033537
               0.66584808     0.82450364     1.01025438     1.22772762
               1.48234092     1.78043706     2.12944203     2.53805004
               3.01644009     3.57652955     4.23227104     5.00000000

     Gradients computed in reciprocal space

     Adding external electric field

     Computed dipole along edir(3) :
        Dipole               -0.0000 Ry au,         -0.0000 Debye
        Dipole field         -0.0000 Ry au

        Potential amp.        0.0000 Ry
        Total length         45.8778 bohr

     Starting wfc are  144 randomized atomic wfcs

     Self-consistent Calculation

     iteration #  1     ecut=    36.75 Ry     beta=0.10
     Davidson diagonalization with overlap
     ethr =  1.00E-02,  avg # of iterations =  7.8

[...]

     total energy              =   -4647.18068986 Ry
     Harris-Foulkes estimate   =   -4648.93912717 Ry
     estimated scf accuracy    <      10.02615418 Ry

[...]

     End of self-consistent calculation

          k = 0.0000 0.0000 0.0000 ( 19543 PWs)   bands (ev):

  -126.1799-126.1798-126.1782-126.0616-126.0616-126.0613-126.0613-126.0613
  -126.0613 -80.3657 -80.3649 -80.3629 -80.3628 -80.3622 -80.3608 -80.3548
   -80.3510 -80.3499 -80.2485 -80.2485 -80.2480 -80.2480 -80.2478 -80.2478
   -80.2465 -80.2464 -80.2464 -80.2464 -80.2445 -80.2444 -80.2362 -80.2360
   -80.2317 -80.2317 -80.2317 -80.2316 -21.5372 -21.5350 -21.5350 -21.5346
   -21.5346 -21.5311 -21.5292 -21.5231 -21.5231 -21.5221 -21.5221 -21.5204
   -21.5204 -21.5146 -21.5146  -9.5754  -8.3499  -8.0939  -7.4620  -7.3918
    -7.3506  -7.3500  -7.3231  -7.2844  -7.2727  -7.2721  -7.2624  -7.2622
    -7.1829  -7.1829  -7.1425  -7.1212  -7.1211  -7.0944  -7.0412  -7.0411
    -7.0275  -7.0081  -7.0074  -6.9833  -6.9502  -6.9495  -6.9087  -6.9087
    -6.8772  -6.8772  -6.8659  -6.8205  -6.8153  -6.8153  -6.8112  -6.8111
    -6.8068  -6.8068  -6.7769  -6.7767  -6.7733  -6.7375  -6.6952  -6.6952
    -6.6351  -6.6316  -5.4051  -3.4867  -3.4484  -3.0965  -3.0964  -2.7206
    -2.7205  -1.9950  -1.9147  -1.8132  -1.8131  -1.0256  -0.8875  -0.8875
     0.4241   0.7454   0.8435   0.8436   1.2148   1.2150   1.9317   3.5048
     3.6962   3.9822   4.2713   4.6950   4.6951   4.8238   4.8239   4.9049
     5.1663   6.6632   6.8400   6.8400   6.8683   7.0966   7.4177   7.4203
     7.4203   7.9181   7.9181   8.1597   8.5672

[...]

          k =-0.0833-0.0481 0.0000 ( 19732 PWs)   bands (ev):

[...]

     the Fermi energy is     0.4014 ev

!    total energy              =   -4646.93577147 Ry
     Harris-Foulkes estimate   =   -4646.93576944 Ry
     estimated scf accuracy    <       0.00000012 Ry

     The total energy is the sum of the following terms:

     one-electron contribution =  -26183.67947667 Ry
     hartree contribution      =   13091.50074966 Ry
     xc contribution           =    -523.99776835 Ry
     ewald contribution        =    8969.26944690 Ry
     electric field correction =       0.00000000 Ry
     smearing contrib. (-TS)   =      -0.02872301 Ry

     convergence has been achieved in  15 iterations

 BEEF-vdW xc energy contributions
           1 :   -463.799247458160
           2 :    421.256613230094
           3 :   -349.789070628930
           4 :    270.046192787381
           5 :   -200.516672275502
           6 :    150.636809769972
           7 :   -119.348480142700
           8 :    98.9660755793948
[...]
                l(1) =   0
                l(2) =   0
                l(3) =   1
                l(4) =   1
                l(5) =   2
                l(6) =   2
     Q(r) pseudized with  8 coefficients,  rinner =    1.100   1.100   1.100
                                                       1.100   1.100

     PseudoPot. # 2 for Sn read from file:
     /afs/slac.stanford.edu/u/if/mamunm/psp/gbrv1.5pbe/Sn.UPF
     MD5 check sum: 469debedee59599fedebd795477fea03
     Pseudo is Ultrasoft + core correction, Zval = 14.0
     Generated by new atomic code, or converted to UPF format
     Using radial grid of  891 points,  6 beta functions with:
                l(1) =   0
                l(2) =   0
                l(3) =   1
                l(4) =   1
                l(5) =   2
                l(6) =   2
     Q(r) pseudized with  8 coefficients,  rinner =    1.350   1.350   1.350
                                                       1.350   1.350

     vdW kernel table read from file vdW_kernel_table
     MD5 check sum: 095c7af220d748ca6e76c0b4c6cfb241

     atomic species   valence    mass     pseudopotential
        Zn1           20.00    65.38000     Zn( 1.00)
        Sn1           14.00   118.71000     Sn( 1.00)

     No symmetry found

   Cartesian axes

     site n.     atom                  positions (alat units)
         1           Zn1 tau(   1) = (   0.0000000   0.0000000  10.0000000  )
         2           Zn1 tau(   2) = (  -1.5003011   2.5985977  10.0000000  )
         3           Zn1 tau(   3) = (   1.5003011   2.5985977  10.0000000  )
         4           Sn1 tau(   4) = (   3.0006021   0.0000000  10.0000000  )
         5           Zn1 tau(   5) = (   3.0006021   1.7323985  12.4499814  )
         6           Zn1 tau(   6) = (   1.5003011   4.3309961  12.4499814  )
         7           Zn1 tau(   7) = (  -1.5003011   4.3309961  12.4499814  )
         8           Sn1 tau(   8) = (   0.0000000   1.7323985  12.4499814  )
         9           Zn1 tau(   9) = (   0.0011763   3.5497420  14.8523870  )
        10           Zn1 tau(  10) = (   1.5744423   0.8247455  14.8523821  )
        11           Zn1 tau(  11) = (   4.4274829   0.8238068  14.8520109  )
        12           Sn1 tau(  12) = (   2.9987566   3.4636932  15.1858975  )

     number of k points=    20  Fermi-Dirac smearing, width (Ry)=  0.0110
                       cart. coord. in units 2pi/alat
        k(    1) = (   0.0000000   0.0000000   0.0000000), wk =   0.0555556
        k(    2) = (   0.0000000   0.0320686   0.0000000), wk =   0.1111111
        k(    3) = (   0.0000000   0.0641372   0.0000000), wk =   0.1111111
        k(    4) = (   0.0000000  -0.0962057   0.0000000), wk =   0.0555556
        k(    5) = (   0.0277722   0.0160343   0.0000000), wk =   0.1111111
        k(    6) = (   0.0277722   0.0481029   0.0000000), wk =   0.1111111
        k(    7) = (   0.0277722   0.0801714   0.0000000), wk =   0.1111111
        k(    8) = (   0.0277722  -0.0801714   0.0000000), wk =   0.1111111
        k(    9) = (   0.0277722  -0.0481029   0.0000000), wk =   0.1111111
        k(   10) = (   0.0277722  -0.0160343   0.0000000), wk =   0.1111111
        k(   11) = (   0.0555444   0.0320686   0.0000000), wk =   0.1111111
        k(   12) = (   0.0555444   0.0641372   0.0000000), wk =   0.1111111
        k(   13) = (   0.0555444   0.0962057   0.0000000), wk =   0.1111111
        k(   14) = (   0.0555444  -0.0641372   0.0000000), wk =   0.1111111
        k(   15) = (   0.0555444  -0.0320686   0.0000000), wk =   0.1111111
        k(   16) = (   0.0555444   0.0000000   0.0000000), wk =   0.1111111
        k(   17) = (  -0.0833166  -0.0481029   0.0000000), wk =   0.0555556
        k(   18) = (  -0.0833166  -0.0160343   0.0000000), wk =   0.1111111
        k(   19) = (  -0.0833166   0.0160343   0.0000000), wk =   0.1111111
        k(   20) = (  -0.0833166  -0.1443086   0.0000000), wk =   0.0555556

     Largest allocated arrays     est. size (Mb)     dimensions
     Largest temporary arrays     est. size (Mb)     dimensions

     Initial potential from superposition of free atoms
     Check: negative starting charge=   -0.001033

     starting charge  218.99860, renormalised to  222.00000

[...]

     *
     * You are using vdW-DF for exchange-correlation in this calculation.
     * Please cite the following three references that made this development
     * possible:
     *
     *   M. Dion, H. Rydberg, E. Schroder, D. C. Langreth, and
     *   B. I. Lundqvist, Phys. Rev. Lett. 92, 246401 (2004).
     *
     *   T. Thonhauser, V. R. Cooper, S. Li, A. Puzder, P. Hyldgaard, and
     *   D. C. Langreth, Phys. Rev. B 76, 125112 (2007).
     *
     *   G. Roman-Perez and J. M. Soler, Phys. Rev. Lett. 103, 096102 (2009).
     *
     *
     * If you are using vdW-DF2, please also cite:
     *
     *   K. Lee, E. D. Murray, L. Kong, B. I. Lundqvist, and
     *   D. C. Langreth, Phys. Rev. B 82, 081101(R) (2010).
     *
     *
     * If you are calculating the stress with vdW-DF, please also cite:
     *
     *   R. Sabatini, E. Kucukbenli, B. Kolb, T. Thonhauser, and
     *   S. de Gironcoli, J. Phys.: Condens. Matter 24, 424209 (2012).
     *

     Carrying out vdW-DF run using the following parameters:

     Nqs =      20    Nr_points =    1024   r_max =   100.000
     q_mesh =
               0.00001000     0.04494208     0.09755937     0.15916263
               0.23128650     0.31572767     0.41458969     0.53033537
               0.66584808     0.82450364     1.01025438     1.22772762
               1.48234092     1.78043706     2.12944203     2.53805004
               3.01644009     3.57652955     4.23227104     5.00000000

     Gradients computed in reciprocal space

[...]

     Starting wfc are  144 randomized atomic wfcs

     Self-consistent Calculation

[...]

     total energy              =   -4646.95902789 Ry
     Harris-Foulkes estimate   =   -4646.95902659 Ry
     estimated scf accuracy    <       0.00000104 Ry

     iteration # 15     ecut=    36.75 Ry     beta=0.10
     Davidson diagonalization with overlap
     ethr =  4.70E-10,  avg # of iterations =  2.0

[...]

     negative rho (up, down):  9.361E-04 0.000E+00

     Adding external electric field

     Computed dipole along edir(3) :
        Dipole                0.0110 Ry au,          0.0281 Debye
        Dipole field          0.0000 Ry au

        Potential amp.       -0.0024 Ry
        Total length         45.8778 bohr

     End of self-consistent calculation

[...]

          k = 0.0555 0.0000 0.0000 ( 19713 PWs)   bands (ev):

[...]

          k =-0.0833-0.1443 0.0000 ( 19732 PWs)   bands (ev):

  -126.1346-126.1346-126.1341-126.0759-126.0756-126.0755-126.0522-126.0522
  -126.0520 -80.3214 -80.3209 -80.3201 -80.3154 -80.3153 -80.3148 -80.3082
   -80.3070 -80.3053 -80.2603 -80.2598 -80.2597 -80.2592 -80.2589 -80.2573
   -80.2531 -80.2493 -80.2486 -80.2396 -80.2395 -80.2392 -80.2364 -80.2358
   -80.2352 -80.2259 -80.2246 -80.2231 -21.5420 -21.5291 -21.5284 -21.5240
   -21.5219 -21.5216 -21.5159 -21.5159 -21.5085 -21.5074 -21.4910 -21.4865
   -21.4861 -21.4835 -21.4822  -8.5358  -8.1088  -7.6989  -7.3845  -7.3164
    -7.3019  -7.2625  -7.2543  -7.2228  -7.2042  -7.1849  -7.1823  -7.1756
    -7.1553  -7.1544  -7.1259  -7.1168  -7.0893  -7.0611  -7.0213  -7.0110
    -7.0058  -6.9965  -6.9853  -6.9660  -6.9620  -6.9513  -6.9350  -6.9286
    -6.9216  -6.9178  -6.9065  -6.8974  -6.8945  -6.8841  -6.8773  -6.8623
    -6.8528  -6.8329  -6.8236  -6.8226  -6.8115  -6.8019  -6.7914  -6.7510
    -6.7000  -6.6673  -6.3869  -5.6982  -4.6913  -4.1446  -4.0463  -3.0829
    -2.7156  -2.5485  -1.2987  -0.6685  -0.0157   0.1383   1.3130   1.3395
     1.4222   1.6624   1.8042   2.7450   2.9166   2.9440   3.1718   3.3165
     3.5994   3.7298   4.1460   4.2502   4.8371   4.8555   4.9300   5.2064
     5.3523   5.4500   5.4704   5.5540   5.6514   6.0406   6.0505   6.1785
     6.2371   6.3996   6.5493   6.5735   7.4247

     the Fermi energy is     0.4104 ev

!    total energy              =   -4646.95903047 Ry
     Harris-Foulkes estimate   =   -4646.95902803 Ry
     estimated scf accuracy    <       0.00000024 Ry

     The total energy is the sum of the following terms:

     one-electron contribution =  -26131.23950397 Ry
     hartree contribution      =   13065.41207487 Ry
     xc contribution           =    -523.97683335 Ry
     ewald contribution        =    8942.87246682 Ry
     electric field correction =       0.00000029 Ry
     smearing contrib. (-TS)   =      -0.02723513 Ry

     convergence has been achieved in  15 iterations

 BEEF-vdW xc energy contributions
           1 :   -464.300698364878
           2 :    421.734429702456
           3 :   -350.238631829205
           4 :    270.486516081320
           5 :   -200.978466472151
           6 :    151.142648276032
           7 :   -119.898279363546
           8 :    99.5374319716076
           9 :   -81.9257187230651
          10 :    63.1728156588570
          11 :   -44.4675508044025
          12 :    29.4702655390147
          13 :   -20.7048649610484
          14 :    17.5503908258370
          15 :   -16.8859019591178
          16 :    15.4462890396143
          17 :   -11.9333582003690
          18 :    7.42069895196806
          19 :   -4.03544517893971
          20 :    3.12406724762729
          21 :   -4.29978307310120
          22 :    5.92527228804573
          23 :   -6.46254020313671
          24 :    5.56153157344613
          25 :   -4.10981172577607
          26 :    3.34557113357130
          27 :   -3.83357959125630
          28 :    5.10465581361598
          29 :   -6.15188028166637
          30 :    6.28974250391673
          31 :   -37.0122862028330
          32 :   -25.6619985787619

     Forces acting on atoms (Ry/au):

     negative rho (up, down):  9.361E-04 0.000E+00
     atom    1 type  1   force =    -0.00000197   -0.00669510   -0.00109667
     atom    2 type  1   force =    -0.00579949    0.00334579   -0.00109650
     atom    3 type  1   force =     0.00579687    0.00334665   -0.00108795
     atom    4 type  2   force =     0.00000772    0.00000470   -0.01366206
     atom    5 type  1   force =     0.00000337    0.00548189    0.00478831
     atom    6 type  1   force =     0.00474899   -0.00273777    0.00478893
     atom    7 type  1   force =    -0.00472477   -0.00272790    0.00486015
     atom    8 type  2   force =    -0.00001240   -0.00000719    0.00582613
     atom    9 type  1   force =    -0.00021891    0.00128823   -0.00076371
     atom   10 type  1   force =     0.00100516   -0.00083484   -0.00076361
     atom   11 type  1   force =    -0.00106373   -0.00061624   -0.00073721
     atom   12 type  2   force =     0.00025915    0.00015179   -0.00105581

     Total force =     0.022931     Total SCF correction =     0.002832
     SCF correction compared to forces is large: reduce conv_thr to get better values

     entering subroutine stress ...

     negative rho (up, down):  9.361E-04 0.000E+00
          total   stress  (Ry/bohr**3)                   (kbar)     P=  -11.13
  -0.00010284   0.00000003   0.00000002        -15.13      0.00      0.00
   0.00000003  -0.00010288   0.00000001          0.00    -15.13      0.00
   0.00000002   0.00000001  -0.00002130          0.00      0.00     -3.13

 !ASE

     Writing output data file calc.save

     General routines

     Parallel routines

   This run was terminated on:  20:50:17   2Jan2019

   JOB DONE.
Job  /afs/slac/g/suncat/bin/suncat-tsmpirun -x LD_LIBRARY_PATH -wdir /scratch/qe649510_oS6Jj pw.x -in pw.inp

TID   HOST_NAME   COMMAND_LINE            STATUS            TERMINATION_TIME
00000 suncat0188 pw.x -in pw.inp   Done                     01/02/2019 20:50:17
00001 suncat0188 pw.x -in pw.inp   Done                     01/02/2019 20:50:17
00002 suncat0188 pw.x -in pw.inp   Done                     01/02/2019 20:50:17
00003 suncat0188 pw.x -in pw.inp   Done                     01/02/2019 20:50:17
00004 suncat0188 pw.x -in pw.inp   Done                     01/02/2019 20:50:17
00005 suncat0188 pw.x -in pw.inp   Done                     01/02/2019 20:50:17
00006 suncat0188 pw.x -in pw.inp   Done                     01/02/2019 20:50:17
00007 suncat0188 pw.x -in pw.inp   Done                     01/02/2019 20:50:17
00008 suncat0129 pw.x -in pw.inp   Done                     01/02/2019 20:50:17
00009 suncat0129 pw.x -in pw.inp   Done                     01/02/2019 20:50:17
00010 suncat0129 pw.x -in pw.inp   Done                     01/02/2019 20:50:17
00011 suncat0129 pw.x -in pw.inp   Done                     01/02/2019 20:50:17
00012 suncat0129 pw.x -in pw.inp   Done                     01/02/2019 20:50:17
00013 suncat0129 pw.x -in pw.inp   Done                     01/02/2019 20:50:17
00014 suncat0129 pw.x -in pw.inp   Done                     01/02/2019 20:50:17
00015 suncat0129 pw.x -in pw.inp   Done                     01/02/2019 20:50:17
00016 suncat0116 pw.x -in pw.inp   Done                     01/02/2019 20:50:17
00017 suncat0116 pw.x -in pw.inp   Done                     01/02/2019 20:50:17
00018 suncat0116 pw.x -in pw.inp   Done                     01/02/2019 20:50:17
00019 suncat0116 pw.x -in pw.inp   Done                     01/02/2019 20:50:17
00020 suncat0116 pw.x -in pw.inp   Done                     01/02/2019 20:50:17
00021 suncat0116 pw.x -in pw.inp   Done                     01/02/2019 20:50:17
00022 suncat0116 pw.x -in pw.inp   Done                     01/02/2019 20:50:17
00023 suncat0116 pw.x -in pw.inp   Done                     01/02/2019 20:50:17
00024 suncat0114 pw.x -in pw.inp   Done                     01/02/2019 20:50:17
00025 suncat0114 pw.x -in pw.inp   Done                     01/02/2019 20:50:17
00026 suncat0114 pw.x -in pw.inp   Done                     01/02/2019 20:50:17
00027 suncat0114 pw.x -in pw.inp   Done                     01/02/2019 20:50:17
00028 suncat0114 pw.x -in pw.inp   Done                     01/02/2019 20:50:17
00029 suncat0114 pw.x -in pw.inp   Done                     01/02/2019 20:50:17
00030 suncat0114 pw.x -in pw.inp   Done                     01/02/2019 20:50:17
00031 suncat0114 pw.x -in pw.inp   Done                     01/02/2019 20:50:17
00032 suncat0264 pw.x -in pw.inp   Done                     01/02/2019 20:50:17
00033 suncat0264 pw.x -in pw.inp   Done                     01/02/2019 20:50:17
00034 suncat0264 pw.x -in pw.inp   Done                     01/02/2019 20:50:17
00035 suncat0264 pw.x -in pw.inp   Done                     01/02/2019 20:50:17
00036 suncat0264 pw.x -in pw.inp   Done                     01/02/2019 20:50:17
00037 suncat0264 pw.x -in pw.inp   Done                     01/02/2019 20:50:17
00038 suncat0264 pw.x -in pw.inp   Done                     01/02/2019 20:50:17
00039 suncat0264 pw.x -in pw.inp   Done                     01/02/2019 20:50:17
00040 suncat0260 pw.x -in pw.inp   Done                     01/02/2019 20:50:17
00041 suncat0260 pw.x -in pw.inp   Done                     01/02/2019 20:50:17
00042 suncat0260 pw.x -in pw.inp   Done                     01/02/2019 20:50:17
00043 suncat0260 pw.x -in pw.inp   Done                     01/02/2019 20:50:17
00044 suncat0260 pw.x -in pw.inp   Done                     01/02/2019 20:50:17
00045 suncat0260 pw.x -in pw.inp   Done                     01/02/2019 20:50:17
00046 suncat0260 pw.x -in pw.inp   Done                     01/02/2019 20:50:17
00047 suncat0260 pw.x -in pw.inp   Done                     01/02/2019 20:50:17
00048 suncat0249 pw.x -in pw.inp   Done                     01/02/2019 20:50:17
00049 suncat0249 pw.x -in pw.inp   Done                     01/02/2019 20:50:17
00050 suncat0249 pw.x -in pw.inp   Done                     01/02/2019 20:50:17
00051 suncat0249 pw.x -in pw.inp   Done                     01/02/2019 20:50:17
00052 suncat0249 pw.x -in pw.inp   Done                     01/02/2019 20:50:17
00053 suncat0249 pw.x -in pw.inp   Done                     01/02/2019 20:50:17
00054 suncat0249 pw.x -in pw.inp   Done                     01/02/2019 20:50:17
00055 suncat0249 pw.x -in pw.inp   Done                     01/02/2019 20:50:17
00056 suncat0231 pw.x -in pw.inp   Done                     01/02/2019 20:50:17
00057 suncat0231 pw.x -in pw.inp   Done                     01/02/2019 20:50:17
00058 suncat0231 pw.x -in pw.inp   Done                     01/02/2019 20:50:17
00059 suncat0231 pw.x -in pw.inp   Done                     01/02/2019 20:50:17
00060 suncat0231 pw.x -in pw.inp   Done                     01/02/2019 20:50:17
00061 suncat0231 pw.x -in pw.inp   Done                     01/02/2019 20:50:17
00062 suncat0231 pw.x -in pw.inp   Done                     01/02/2019 20:50:17
00063 suncat0231 pw.x -in pw.inp   Done                     01/02/2019 20:50:17