     Program PWSCF v.5.1rc2 (svn rev. 11289) starts on 31Dec2018 at 11:30:39

     Current dimensions of program PWSCF are:
     Max number of different atomic species (ntypx) = 10
     Max number of k-points (npk) =  40000
     Max angular momentum in pseudopotentials (lmaxx) =  3
     Presently stress not available with electric field

     IMPORTANT: XC functional enforced from input :
     Exchange-correlation      = BEEF-VDW ( 1  4 27 13 2)
     Any further DFT definition will be discarded
     Please, verify this is what you really want

     Subspace diagonalization in iterative solution of the eigenvalue problem:
     a serial algorithm will be used

     bravais-lattice index     =            0
     lattice parameter (alat)  =       1.8897  a.u.
     unit-cell volume          =    4335.1641 (a.u.)^3
     number of atoms/cell      =           12
     number of atomic types    =            2
     number of electrons       =       186.00
     number of Kohn-Sham states=          123
     kinetic-energy cutoff     =      36.7493  Ry
     charge density cutoff     =     367.4932  Ry
     convergence threshold     =      1.0E-06
     mixing beta               =       0.1000
     number of iterations used =           10  plain     mixing
     Exchange-correlation      = BEEF-VDW ( 1  4 27 13 2)
     nstep                     =           50

     celldm(1)=   1.889726  celldm(2)=   0.000000  celldm(3)=   0.000000
     celldm(4)=   0.000000  celldm(5)=   0.000000  celldm(6)=   0.000000

     crystal axes: (cart. coord. in units of alat)
               a(1) = (   5.503198   0.000000   0.000000 )
               a(2) = (  -2.751599   4.765909   0.000000 )
               a(3) = (   0.000000   0.000000  24.493342 )

     reciprocal axes: (cart. coord. in units 2 pi/alat)
               b(1) = (  0.181713  0.104912  0.000000 )
               b(2) = (  0.000000  0.209824  0.000000 )
               b(3) = (  0.000000  0.000000  0.040827 )

     PseudoPot. # 1 for Pd read from file:
     /afs/slac.stanford.edu/u/if/mamunm/psp/gbrv1.5pbe/Pd.UPF
     MD5 check sum: 2d733d2bc2cbfd217af676df1668a4bc
     Pseudo is Ultrasoft + core correction, Zval = 16.0
     Generated by new atomic code, or converted to UPF format
     Using radial grid of  887 points,  6 beta functions with:
                l(1) =   0
                l(2) =   0
                l(3) =   1
                l(4) =   1
                l(5) =   2
                l(6) =   2
     Q(r) pseudized with  8 coefficients,  rinner =    1.130   1.130   1.130
                                                       1.130   1.130

     PseudoPot. # 2 for Cr read from file:
     /afs/slac.stanford.edu/u/if/mamunm/psp/gbrv1.5pbe/Cr.UPF
     MD5 check sum: 0d52af634a40206e4dee301ad30da4bf
     Pseudo is Ultrasoft + core correction, Zval = 14.0
     Generated by new atomic code, or converted to UPF format
     Using radial grid of  857 points,  6 beta functions with:
                l(1) =   0
                l(2) =   0
                l(3) =   1
                l(4) =   1
                l(5) =   2
                l(6) =   2
     Q(r) pseudized with  8 coefficients,  rinner =    0.950   0.950   0.950
                                                       0.950   0.950

     vdW kernel table read from file vdW_kernel_table
     MD5 check sum: 095c7af220d748ca6e76c0b4c6cfb241

     atomic species   valence    mass     pseudopotential
        Pd1           16.00   106.42000     Pd( 1.00)
        Cr1           14.00    51.99610     Cr( 1.00)

     No symmetry found

   Cartesian axes

     site n.     atom                  positions (alat units)
         1           Pd1 tau(   1) = (   0.0000000   0.0000000  10.0000000  )
         2           Pd1 tau(   2) = (  -1.3757995   2.3829546  10.0000000  )
         3           Pd1 tau(   3) = (   1.3757995   2.3829546  10.0000000  )
         4           Cr1 tau(   4) = (   2.7515989   0.0000000  10.0000000  )
         5           Pd1 tau(   5) = (   2.7515989   1.5886364  12.2466711  )
         6           Pd1 tau(   6) = (   1.3757995   3.9715910  12.2466711  )
         7           Pd1 tau(   7) = (  -1.3757995   3.9715910  12.2466711  )
         8           Cr1 tau(   8) = (   0.0000000   1.5886364  12.2466711  )
         9           Pd1 tau(   9) = (  -0.0000000   3.1772728  14.4933423  )
        10           Pd1 tau(  10) = (   1.3757995   0.7943182  14.4933423  )
        11           Pd1 tau(  11) = (   4.1273984   0.7943182  14.4933423  )
        12           Cr1 tau(  12) = (   2.7515989   3.1772728  14.4933423  )

     number of k points=    20  Fermi-Dirac smearing, width (Ry)=  0.0110
                       cart. coord. in units 2pi/alat
        k(    1) = (   0.0000000   0.0000000   0.0000000), wk =   0.0555556
        k(    2) = (   0.0000000   0.0349706   0.0000000), wk =   0.1111111
        k(    3) = (   0.0000000   0.0699412   0.0000000), wk =   0.1111111
        k(    4) = (   0.0000000  -0.1049118   0.0000000), wk =   0.0555556
        k(    5) = (   0.0302854   0.0174853   0.0000000), wk =   0.1111111
        k(    6) = (   0.0302854   0.0524559   0.0000000), wk =   0.1111111
        k(    7) = (   0.0302854   0.0874265   0.0000000), wk =   0.1111111
        k(    8) = (   0.0302854  -0.0874265   0.0000000), wk =   0.1111111
        k(    9) = (   0.0302854  -0.0524559   0.0000000), wk =   0.1111111
        k(   10) = (   0.0302854  -0.0174853   0.0000000), wk =   0.1111111
        k(   11) = (   0.0605708   0.0349706   0.0000000), wk =   0.1111111
        k(   12) = (   0.0605708   0.0699412   0.0000000), wk =   0.1111111
        k(   13) = (   0.0605708   0.1049118   0.0000000), wk =   0.1111111
        k(   14) = (   0.0605708  -0.0699412   0.0000000), wk =   0.1111111
        k(   15) = (   0.0605708  -0.0349706   0.0000000), wk =   0.1111111
        k(   16) = (   0.0605708   0.0000000   0.0000000), wk =   0.1111111
        k(   17) = (  -0.0908563  -0.0524559   0.0000000), wk =   0.0555556
        k(   18) = (  -0.0908563  -0.0174853   0.0000000), wk =   0.1111111
        k(   19) = (  -0.0908563   0.0174853   0.0000000), wk =   0.1111111
        k(   20) = (  -0.0908563  -0.1573677   0.0000000), wk =   0.0555556

     Largest allocated arrays     est. size (Mb)     dimensions
     Largest temporary arrays     est. size (Mb)     dimensions

     Check: negative/imaginary core charge=   -0.000001    0.000000

     Initial potential from superposition of free atoms
     Check: negative starting charge=   -0.687595

     starting charge  178.49989, renormalised to  186.00000

     negative rho (up, down):  7.165E-01 0.000E+00

     *
     * You are using vdW-DF for exchange-correlation in this calculation.
     * Please cite the following three references that made this development
     * possible:
     *
     *   M. Dion, H. Rydberg, E. Schroder, D. C. Langreth, and
     *   B. I. Lundqvist, Phys. Rev. Lett. 92, 246401 (2004).
     *
     *   T. Thonhauser, V. R. Cooper, S. Li, A. Puzder, P. Hyldgaard, and
     *   D. C. Langreth, Phys. Rev. B 76, 125112 (2007).
     *
     *   G. Roman-Perez and J. M. Soler, Phys. Rev. Lett. 103, 096102 (2009).
     *
     *
     * If you are using vdW-DF2, please also cite:
     *
     *   K. Lee, E. D. Murray, L. Kong, B. I. Lundqvist, and
     *   D. C. Langreth, Phys. Rev. B 82, 081101(R) (2010).
     *
     *
     * If you are calculating the stress with vdW-DF, please also cite:
     *
     *   R. Sabatini, E. Kucukbenli, B. Kolb, T. Thonhauser, and
     *   S. de Gironcoli, J. Phys.: Condens. Matter 24, 424209 (2012).
     *

     Carrying out vdW-DF run using the following parameters:

     Nqs =      20    Nr_points =    1024   r_max =   100.000
     q_mesh =
               0.00001000     0.04494208     0.09755937     0.15916263
               0.23128650     0.31572767     0.41458969     0.53033537
               0.66584808     0.82450364     1.01025438     1.22772762
               1.48234092     1.78043706     2.12944203     2.53805004
               3.01644009     3.57652955     4.23227104     5.00000000

     Gradients computed in reciprocal space

     Adding external electric field

     Computed dipole along edir(3) :
        Dipole               -0.0000 Ry au,         -0.0000 Debye
        Dipole field         -0.0000 Ry au

        Potential amp.        0.0000 Ry
        Total length         45.1286 bohr

     Starting wfc are  138 randomized atomic wfcs

     Self-consistent Calculation

     iteration #  1     ecut=    36.75 Ry     beta=0.10
     Davidson diagonalization with overlap
     ethr =  1.00E-02,  avg # of iterations =  7.3

[...]

     total energy              =   -2317.99090065 Ry
     Harris-Foulkes estimate   =   -2336.10476910 Ry
     estimated scf accuracy    <     102.18013404 Ry

[...]

     End of self-consistent calculation

          k = 0.0000 0.0000 0.0000 ( 16211 PWs)   bands (ev):

   -71.0314 -70.8181 -70.8181 -49.3423 -49.2625 -49.2625 -49.1849 -49.1849
   -49.1764 -49.1214 -49.0347 -49.0347 -48.9821 -48.9821 -48.9727 -48.9694
   -48.9480 -48.9480 -48.8585 -48.8543 -48.7311 -48.7311 -48.7280 -48.7280
   -48.7194 -48.6935 -48.6675 -48.6675 -48.6578 -48.6578 -42.3326 -42.2964
   -42.2964 -42.1109 -42.1109 -42.1103 -42.1103 -42.1065 -42.1040  -5.2926
    -3.9542  -3.8872  -3.8733  -3.6958  -3.5749  -3.5749  -3.3276  -3.3276
    -3.3102  -3.2851  -3.2449  -3.2449  -2.9230  -2.9230  -2.3548  -2.0151
    -2.0151  -1.9547  -1.9547  -1.6435  -1.5172  -1.4817  -1.3008  -1.2919
    -1.2919  -1.1563  -1.1563  -0.9632  -0.9632  -0.8339  -0.8339  -0.7257
    -0.7257  -0.3575  -0.0272  -0.0272  -0.0051  -0.0051   0.1026   0.1026
     0.5212   0.6557   0.6946   0.7284   0.7284   0.8631   1.1272   1.1555
     1.1755   1.3211   1.3211   1.5227   1.5227   1.7036   1.7036   1.7786
     1.8238   1.8238   2.0018   2.0018   2.1023   2.1023   2.1967   2.8815
     2.8815   3.2721   4.3402   4.3402   4.6550   4.6550   4.6847   4.7876
     5.4908   5.7541   6.1515   7.0921   7.9186   8.0335   8.0335   8.1356
     8.1684   8.1684   8.1895

[...]

          k =-0.0909-0.0525 0.0000 ( 16280 PWs)   bands (ev):

[...]

     the Fermi energy is     1.2108 ev

!    total energy              =   -2326.70261753 Ry
     Harris-Foulkes estimate   =   -2326.70262422 Ry
     estimated scf accuracy    <       0.00000050 Ry

     The total energy is the sum of the following terms:

     one-electron contribution =  -20005.20677231 Ry
     hartree contribution      =   10035.20000614 Ry
     xc contribution           =    -362.15644943 Ry
     ewald contribution        =    8005.58750156 Ry
     electric field correction =       0.00000003 Ry
     smearing contrib. (-TS)   =      -0.12690351 Ry

     convergence has been achieved in  24 iterations

 BEEF-vdW xc energy contributions
           1 :   -315.060577038920
           2 :    287.198563238894
           3 :   -239.842645922522
           4 :    186.008526275730
           5 :   -138.126638015376
           6 :    103.823396074994
           7 :   -84.3623006088105
           8 :    75.9118621589477
           9 :   -72.5372970083135
          10 :    69.2433912995868
[...]
     Generated by new atomic code, or converted to UPF format
     Using radial grid of  887 points,  6 beta functions with:
                l(1) =   0
                l(2) =   0
                l(3) =   1
                l(4) =   1
                l(5) =   2
                l(6) =   2
     Q(r) pseudized with  8 coefficients,  rinner =    1.130   1.130   1.130
                                                       1.130   1.130

     PseudoPot. # 2 for Cr read from file:
     /afs/slac.stanford.edu/u/if/mamunm/psp/gbrv1.5pbe/Cr.UPF
     MD5 check sum: 0d52af634a40206e4dee301ad30da4bf
     Pseudo is Ultrasoft + core correction, Zval = 14.0
     Generated by new atomic code, or converted to UPF format
     Using radial grid of  857 points,  6 beta functions with:
                l(1) =   0
                l(2) =   0
                l(3) =   1
                l(4) =   1
                l(5) =   2
                l(6) =   2
     Q(r) pseudized with  8 coefficients,  rinner =    0.950   0.950   0.950
                                                       0.950   0.950

     vdW kernel table read from file vdW_kernel_table
     MD5 check sum: 095c7af220d748ca6e76c0b4c6cfb241

     atomic species   valence    mass     pseudopotential
        Pd1           16.00   106.42000     Pd( 1.00)
        Cr1           14.00    51.99610     Cr( 1.00)

     No symmetry found

   Cartesian axes

     site n.     atom                  positions (alat units)
         1           Pd1 tau(   1) = (   0.0000000   0.0000000  10.0000000  )
         2           Pd1 tau(   2) = (  -1.3757995   2.3829546  10.0000000  )
         3           Pd1 tau(   3) = (   1.3757995   2.3829546  10.0000000  )
         4           Cr1 tau(   4) = (   2.7515989   0.0000000  10.0000000  )
         5           Pd1 tau(   5) = (   2.7515989   1.5886364  12.2466711  )
         6           Pd1 tau(   6) = (   1.3757995   3.9715910  12.2466711  )
         7           Pd1 tau(   7) = (  -1.3757995   3.9715910  12.2466711  )
         8           Cr1 tau(   8) = (   0.0000000   1.5886364  12.2466711  )
         9           Pd1 tau(   9) = (   0.0000005   3.1490596  14.5080447  )
        10           Pd1 tau(  10) = (   1.3513656   0.8084247  14.5080446  )
        11           Pd1 tau(  11) = (   4.1518321   0.8084245  14.5080452  )
        12           Cr1 tau(  12) = (   2.7515992   3.1772731  14.2932864  )

     number of k points=    20  Fermi-Dirac smearing, width (Ry)=  0.0110
                       cart. coord. in units 2pi/alat
        k(    1) = (   0.0000000   0.0000000   0.0000000), wk =   0.0555556
        k(    2) = (   0.0000000   0.0349706   0.0000000), wk =   0.1111111
        k(    3) = (   0.0000000   0.0699412   0.0000000), wk =   0.1111111
        k(    4) = (   0.0000000  -0.1049118   0.0000000), wk =   0.0555556
        k(    5) = (   0.0302854   0.0174853   0.0000000), wk =   0.1111111
        k(    6) = (   0.0302854   0.0524559   0.0000000), wk =   0.1111111
        k(    7) = (   0.0302854   0.0874265   0.0000000), wk =   0.1111111
        k(    8) = (   0.0302854  -0.0874265   0.0000000), wk =   0.1111111
        k(    9) = (   0.0302854  -0.0524559   0.0000000), wk =   0.1111111
        k(   10) = (   0.0302854  -0.0174853   0.0000000), wk =   0.1111111
        k(   11) = (   0.0605708   0.0349706   0.0000000), wk =   0.1111111
        k(   12) = (   0.0605708   0.0699412   0.0000000), wk =   0.1111111
        k(   13) = (   0.0605708   0.1049118   0.0000000), wk =   0.1111111
        k(   14) = (   0.0605708  -0.0699412   0.0000000), wk =   0.1111111
        k(   15) = (   0.0605708  -0.0349706   0.0000000), wk =   0.1111111
        k(   16) = (   0.0605708   0.0000000   0.0000000), wk =   0.1111111
        k(   17) = (  -0.0908563  -0.0524559   0.0000000), wk =   0.0555556
        k(   18) = (  -0.0908563  -0.0174853   0.0000000), wk =   0.1111111
        k(   19) = (  -0.0908563   0.0174853   0.0000000), wk =   0.1111111
        k(   20) = (  -0.0908563  -0.1573677   0.0000000), wk =   0.0555556

     Largest allocated arrays     est. size (Mb)     dimensions
     Largest temporary arrays     est. size (Mb)     dimensions

     Check: negative/imaginary core charge=   -0.000001    0.000000

     Initial potential from superposition of free atoms
     Check: negative starting charge=   -0.686522

     starting charge  178.49989, renormalised to  186.00000

[...]

     *
     * You are using vdW-DF for exchange-correlation in this calculation.
     * Please cite the following three references that made this development
     * possible:
     *
     *   M. Dion, H. Rydberg, E. Schroder, D. C. Langreth, and
     *   B. I. Lundqvist, Phys. Rev. Lett. 92, 246401 (2004).
     *
     *   T. Thonhauser, V. R. Cooper, S. Li, A. Puzder, P. Hyldgaard, and
     *   D. C. Langreth, Phys. Rev. B 76, 125112 (2007).
     *
     *   G. Roman-Perez and J. M. Soler, Phys. Rev. Lett. 103, 096102 (2009).
     *
     *
     * If you are using vdW-DF2, please also cite:
     *
     *   K. Lee, E. D. Murray, L. Kong, B. I. Lundqvist, and
     *   D. C. Langreth, Phys. Rev. B 82, 081101(R) (2010).
     *
     *
     * If you are calculating the stress with vdW-DF, please also cite:
     *
     *   R. Sabatini, E. Kucukbenli, B. Kolb, T. Thonhauser, and
     *   S. de Gironcoli, J. Phys.: Condens. Matter 24, 424209 (2012).
     *

     Carrying out vdW-DF run using the following parameters:

     Nqs =      20    Nr_points =    1024   r_max =   100.000
     q_mesh =
               0.00001000     0.04494208     0.09755937     0.15916263
               0.23128650     0.31572767     0.41458969     0.53033537
               0.66584808     0.82450364     1.01025438     1.22772762
               1.48234092     1.78043706     2.12944203     2.53805004
               3.01644009     3.57652955     4.23227104     5.00000000

     Gradients computed in reciprocal space

[...]

     Starting wfc are  138 randomized atomic wfcs

     Self-consistent Calculation

[...]

     total energy              =   -2326.71131798 Ry
     Harris-Foulkes estimate   =   -2326.71131935 Ry
     estimated scf accuracy    <       0.00000201 Ry

     iteration # 23     ecut=    36.75 Ry     beta=0.10
     Davidson diagonalization with overlap
     ethr =  1.08E-09,  avg # of iterations =  2.0

[...]

     negative rho (up, down):  7.180E-01 0.000E+00

     Adding external electric field

     Computed dipole along edir(3) :
        Dipole               -0.0049 Ry au,         -0.0124 Debye
        Dipole field         -0.0000 Ry au

        Potential amp.        0.0013 Ry
        Total length         45.1286 bohr

     End of self-consistent calculation

[...]

          k = 0.0606 0.0000 0.0000 ( 16334 PWs)   bands (ev):

[...]

          k =-0.0909-0.1574 0.0000 ( 16280 PWs)   bands (ev):

   -71.0415 -70.8861 -70.8128 -49.4293 -49.3705 -49.3383 -49.3093 -49.2774
   -49.2466 -49.2208 -49.1876 -49.1180 -48.9902 -48.9637 -48.9401 -48.9180
   -48.9148 -48.8929 -48.8809 -48.8777 -48.8356 -48.8020 -48.7566 -48.7269
   -48.7165 -48.7063 -48.6870 -48.6838 -48.6694 -48.6542 -42.3461 -42.3100
   -42.3076 -42.1969 -42.1718 -42.1695 -42.1160 -42.1135 -42.0903  -3.9919
    -3.8225  -3.3494  -3.2452  -3.2028  -3.0588  -2.9936  -2.9483  -2.8925
    -2.8490  -2.6818  -2.6600  -2.4711  -2.4556  -2.4062  -2.3131  -2.2213
    -2.2164  -2.0919  -1.9795  -1.6182  -1.5944  -1.4774  -1.4362  -1.4204
    -1.3720  -1.3230  -1.2923  -1.1689  -1.1666  -1.1640  -1.1233  -1.0628
    -1.0358  -1.0035  -0.9649  -0.7847  -0.7181  -0.6810  -0.5678  -0.5627
    -0.4179  -0.2719  -0.2308   0.0488   0.1036   0.1980   0.2985   0.5760
     0.6207   0.6352   0.8618   1.0070   1.0284   1.1311   1.1518   1.2003
     1.2099   1.3703   1.5132   1.5937   1.6014   1.6988   1.9808   3.1965
     3.3555   3.4007   3.8173   4.4501   4.6480   5.3850   5.4883   6.5360
     6.5594   7.0462   7.0710   7.6064   7.6175   7.7402   7.7519   8.8311
     8.8334   8.8626   8.9495

     the Fermi energy is     1.1961 ev

!    total energy              =   -2326.71131020 Ry
     Harris-Foulkes estimate   =   -2326.71131838 Ry
     estimated scf accuracy    <       0.00000099 Ry

     The total energy is the sum of the following terms:

     one-electron contribution =  -20097.02463165 Ry
     hartree contribution      =   10080.87335428 Ry
     xc contribution           =    -362.21378663 Ry
     ewald contribution        =    8051.77790700 Ry
     electric field correction =       0.00000007 Ry
     smearing contrib. (-TS)   =      -0.12415327 Ry

     convergence has been achieved in  23 iterations

 BEEF-vdW xc energy contributions
           1 :   -315.120231772411
           2 :    287.282224182557
           3 :   -239.955843932640
           4 :    186.130281042498
           5 :   -138.220127192220
           6 :    103.859706926857
           7 :   -84.3396480597197
           8 :    75.8566764752313
           9 :   -72.4879895355975
          10 :    69.2286865708409
          11 :   -63.7565185091536
          12 :    56.4639764609106
          13 :   -49.2215365012072
          14 :    43.8173580682731
          15 :   -40.9319599434151
          16 :    40.0037378191055
          17 :   -39.7967530388724
          18 :    39.1716880976662
          19 :   -37.6036677857834
          20 :    35.2517523444515
          21 :   -32.6789965041232
          22 :    30.4667877718008
          23 :   -28.9396778757130
          24 :    28.0809794559844
          25 :   -27.6091126456341
          26 :    27.1389524378811
          27 :   -26.3584181400895
          28 :    25.1582904876581
          29 :   -23.6684073220028
          30 :    22.1801924103616
          31 :   -30.7233106250056
          32 :   -22.6002194315835

     Forces acting on atoms (Ry/au):

     negative rho (up, down):  7.180E-01 0.000E+00
     atom    1 type  1   force =    -0.00000013    0.01923672   -0.00565207
     atom    2 type  1   force =     0.01665952   -0.00961860   -0.00565201
     atom    3 type  1   force =    -0.01665951   -0.00961824   -0.00565229
     atom    4 type  2   force =     0.00000002    0.00000005    0.02820225
     atom    5 type  1   force =    -0.00000011   -0.00685413   -0.00319492
     atom    6 type  1   force =    -0.00593604    0.00342710   -0.00319504
     atom    7 type  1   force =     0.00593608    0.00342706   -0.00319503
     atom    8 type  2   force =     0.00000001    0.00000006    0.00028823
     atom    9 type  1   force =     0.00000025   -0.00008767   -0.00078650
     atom   10 type  1   force =    -0.00007560    0.00004389   -0.00078640
     atom   11 type  1   force =     0.00007567    0.00004379   -0.00078636
     atom   12 type  2   force =    -0.00000016   -0.00000002    0.00041013

     Total force =     0.046638     Total SCF correction =     0.005846
     SCF correction compared to forces is large: reduce conv_thr to get better values

     entering subroutine stress ...

     negative rho (up, down):  7.180E-01 0.000E+00
          total   stress  (Ry/bohr**3)                   (kbar)     P=  -11.45
  -0.00010254  -0.00000000   0.00000000        -15.08     -0.00      0.00
  -0.00000000  -0.00010254   0.00000000         -0.00    -15.08      0.00
   0.00000000   0.00000000  -0.00002840          0.00      0.00     -4.18

 !ASE

     Writing output data file calc.save

     General routines

     Parallel routines

   This run was terminated on:  13: 3:57  31Dec2018

   JOB DONE.
Job  /afs/slac/g/suncat/bin/suncat-tsmpirun -x LD_LIBRARY_PATH -wdir /scratch/qe648757_kSYwv pw.x -in pw.inp

TID   HOST_NAME   COMMAND_LINE            STATUS            TERMINATION_TIME
00000 suncat0062 pw.x -in pw.inp   Done                     12/31/2018 13:03:57
00001 suncat0062 pw.x -in pw.inp   Done                     12/31/2018 13:03:57
00002 suncat0062 pw.x -in pw.inp   Done                     12/31/2018 13:03:57
00003 suncat0062 pw.x -in pw.inp   Done                     12/31/2018 13:03:57
00004 suncat0062 pw.x -in pw.inp   Done                     12/31/2018 13:03:57
00005 suncat0062 pw.x -in pw.inp   Done                     12/31/2018 13:03:57
00006 suncat0062 pw.x -in pw.inp   Done                     12/31/2018 13:03:57
00007 suncat0062 pw.x -in pw.inp   Done                     12/31/2018 13:03:57
00008 suncat0061 pw.x -in pw.inp   Done                     12/31/2018 13:03:57
00009 suncat0061 pw.x -in pw.inp   Done                     12/31/2018 13:03:57
00010 suncat0061 pw.x -in pw.inp   Done                     12/31/2018 13:03:57
00011 suncat0061 pw.x -in pw.inp   Done                     12/31/2018 13:03:57
00012 suncat0061 pw.x -in pw.inp   Done                     12/31/2018 13:03:57
00013 suncat0061 pw.x -in pw.inp   Done                     12/31/2018 13:03:57
00014 suncat0061 pw.x -in pw.inp   Done                     12/31/2018 13:03:57
00015 suncat0061 pw.x -in pw.inp   Done                     12/31/2018 13:03:57
00016 suncat0060 pw.x -in pw.inp   Done                     12/31/2018 13:03:57
00017 suncat0060 pw.x -in pw.inp   Done                     12/31/2018 13:03:57
00018 suncat0060 pw.x -in pw.inp   Done                     12/31/2018 13:03:57
00019 suncat0060 pw.x -in pw.inp   Done                     12/31/2018 13:03:57
00020 suncat0060 pw.x -in pw.inp   Done                     12/31/2018 13:03:57
00021 suncat0060 pw.x -in pw.inp   Done                     12/31/2018 13:03:57
00022 suncat0060 pw.x -in pw.inp   Done                     12/31/2018 13:03:57
00023 suncat0060 pw.x -in pw.inp   Done                     12/31/2018 13:03:57
00024 suncat0057 pw.x -in pw.inp   Done                     12/31/2018 13:03:57
00025 suncat0057 pw.x -in pw.inp   Done                     12/31/2018 13:03:57
00026 suncat0057 pw.x -in pw.inp   Done                     12/31/2018 13:03:57
00027 suncat0057 pw.x -in pw.inp   Done                     12/31/2018 13:03:57
00028 suncat0057 pw.x -in pw.inp   Done                     12/31/2018 13:03:57
00029 suncat0057 pw.x -in pw.inp   Done                     12/31/2018 13:03:57
00030 suncat0057 pw.x -in pw.inp   Done                     12/31/2018 13:03:57
00031 suncat0057 pw.x -in pw.inp   Done                     12/31/2018 13:03:57
00032 suncat0016 pw.x -in pw.inp   Done                     12/31/2018 13:03:57
00033 suncat0016 pw.x -in pw.inp   Done                     12/31/2018 13:03:57
00034 suncat0016 pw.x -in pw.inp   Done                     12/31/2018 13:03:57
00035 suncat0016 pw.x -in pw.inp   Done                     12/31/2018 13:03:57
00036 suncat0016 pw.x -in pw.inp   Done                     12/31/2018 13:03:57
00037 suncat0016 pw.x -in pw.inp   Done                     12/31/2018 13:03:57
00038 suncat0016 pw.x -in pw.inp   Done                     12/31/2018 13:03:57
00039 suncat0016 pw.x -in pw.inp   Done                     12/31/2018 13:03:57
00040 suncat0198 pw.x -in pw.inp   Done                     12/31/2018 13:03:57
00041 suncat0198 pw.x -in pw.inp   Done                     12/31/2018 13:03:57
00042 suncat0198 pw.x -in pw.inp   Done                     12/31/2018 13:03:57
00043 suncat0198 pw.x -in pw.inp   Done                     12/31/2018 13:03:57
00044 suncat0198 pw.x -in pw.inp   Done                     12/31/2018 13:03:57
00045 suncat0198 pw.x -in pw.inp   Done                     12/31/2018 13:03:57
00046 suncat0198 pw.x -in pw.inp   Done                     12/31/2018 13:03:57
00047 suncat0198 pw.x -in pw.inp   Done                     12/31/2018 13:03:57
00048 suncat0194 pw.x -in pw.inp   Done                     12/31/2018 13:03:57
00049 suncat0194 pw.x -in pw.inp   Done                     12/31/2018 13:03:57
00050 suncat0194 pw.x -in pw.inp   Done                     12/31/2018 13:03:57
00051 suncat0194 pw.x -in pw.inp   Done                     12/31/2018 13:03:57
00052 suncat0194 pw.x -in pw.inp   Done                     12/31/2018 13:03:57
00053 suncat0194 pw.x -in pw.inp   Done                     12/31/2018 13:03:57
00054 suncat0194 pw.x -in pw.inp   Done                     12/31/2018 13:03:57
00055 suncat0194 pw.x -in pw.inp   Done                     12/31/2018 13:03:57
00056 suncat0193 pw.x -in pw.inp   Done                     12/31/2018 13:03:57
00057 suncat0193 pw.x -in pw.inp   Done                     12/31/2018 13:03:57
00058 suncat0193 pw.x -in pw.inp   Done                     12/31/2018 13:03:57
00059 suncat0193 pw.x -in pw.inp   Done                     12/31/2018 13:03:57
00060 suncat0193 pw.x -in pw.inp   Done                     12/31/2018 13:03:57
00061 suncat0193 pw.x -in pw.inp   Done                     12/31/2018 13:03:57
00062 suncat0193 pw.x -in pw.inp   Done                     12/31/2018 13:03:57
00063 suncat0193 pw.x -in pw.inp   Done                     12/31/2018 13:03:57