     Program PWSCF v.5.1rc2 (svn rev. 11289) starts on 31Dec2018 at 17:10:20

     Current dimensions of program PWSCF are:
     Max number of different atomic species (ntypx) = 10
     Max number of k-points (npk) =  40000
     Max angular momentum in pseudopotentials (lmaxx) =  3
     Presently stress not available with electric field

     IMPORTANT: XC functional enforced from input :
     Exchange-correlation      = BEEF-VDW ( 1  4 27 13 2)
     Any further DFT definition will be discarded
     Please, verify this is what you really want

     Subspace diagonalization in iterative solution of the eigenvalue problem:
     a serial algorithm will be used

     bravais-lattice index     =            0
     lattice parameter (alat)  =       1.8897  a.u.
     unit-cell volume          =    4549.1971 (a.u.)^3
     number of atoms/cell      =           12
     number of atomic types    =            2
     number of electrons       =       192.00
     number of Kohn-Sham states=          126
     kinetic-energy cutoff     =      36.7493  Ry
     charge density cutoff     =     367.4932  Ry
     convergence threshold     =      1.0E-06
     mixing beta               =       0.1000
     number of iterations used =           10  plain     mixing
     Exchange-correlation      = BEEF-VDW ( 1  4 27 13 2)
     nstep                     =           50

     celldm(1)=   1.889726  celldm(2)=   0.000000  celldm(3)=   0.000000
     celldm(4)=   0.000000  celldm(5)=   0.000000  celldm(6)=   0.000000

     crystal axes: (cart. coord. in units of alat)
               a(1) = (   5.625916   0.000000   0.000000 )
               a(2) = (  -2.812958   4.872186   0.000000 )
               a(3) = (   0.000000   0.000000  24.593541 )

     reciprocal axes: (cart. coord. in units 2 pi/alat)
               b(1) = (  0.177749  0.102623  0.000000 )
               b(2) = (  0.000000  0.205247  0.000000 )
               b(3) = (  0.000000  0.000000  0.040661 )

     PseudoPot. # 1 for Pt read from file:
     /afs/slac.stanford.edu/u/if/mamunm/psp/gbrv1.5pbe/Pt.UPF
     MD5 check sum: f09d6de1a584b5a045c4fc126da2d0c4
     Pseudo is Ultrasoft + core correction, Zval = 16.0
     Generated by new atomic code, or converted to UPF format
     Using radial grid of  985 points,  6 beta functions with:
                l(1) =   0
                l(2) =   0
                l(3) =   1
                l(4) =   1
                l(5) =   2
                l(6) =   2
     Q(r) pseudized with  8 coefficients,  rinner =    1.300   1.300   1.300
                                                       1.300   1.300

     PseudoPot. # 2 for Pd read from file:
     /afs/slac.stanford.edu/u/if/mamunm/psp/gbrv1.5pbe/Pd.UPF
     MD5 check sum: 2d733d2bc2cbfd217af676df1668a4bc
     Pseudo is Ultrasoft + core correction, Zval = 16.0
     Generated by new atomic code, or converted to UPF format
     Using radial grid of  887 points,  6 beta functions with:
                l(1) =   0
                l(2) =   0
                l(3) =   1
                l(4) =   1
                l(5) =   2
                l(6) =   2
     Q(r) pseudized with  8 coefficients,  rinner =    1.130   1.130   1.130
                                                       1.130   1.130

     vdW kernel table read from file vdW_kernel_table
     MD5 check sum: 095c7af220d748ca6e76c0b4c6cfb241

     atomic species   valence    mass     pseudopotential
        Pt1           16.00   195.08400     Pt( 1.00)
        Pd1           16.00   106.42000     Pd( 1.00)

     No symmetry found

   Cartesian axes

     site n.     atom                  positions (alat units)
         1           Pt1 tau(   1) = (   0.0000000   0.0000000  10.0000000  )
         2           Pt1 tau(   2) = (  -1.4064789   2.4360930  10.0000000  )
         3           Pt1 tau(   3) = (   1.4064789   2.4360930  10.0000000  )
         4           Pd1 tau(   4) = (   2.8129579   0.0000000  10.0000000  )
         5           Pt1 tau(   5) = (   2.8129579   1.6240620  12.2967705  )
         6           Pt1 tau(   6) = (   1.4064789   4.0601550  12.2967705  )
         7           Pt1 tau(   7) = (  -1.4064789   4.0601550  12.2967705  )
         8           Pd1 tau(   8) = (   0.0000000   1.6240620  12.2967705  )
         9           Pt1 tau(   9) = (  -0.0000000   3.2481240  14.5935410  )
        10           Pt1 tau(  10) = (   1.4064789   0.8120310  14.5935410  )
        11           Pt1 tau(  11) = (   4.2194368   0.8120310  14.5935410  )
        12           Pd1 tau(  12) = (   2.8129579   3.2481240  14.5935410  )

     number of k points=    20  Fermi-Dirac smearing, width (Ry)=  0.0110
                       cart. coord. in units 2pi/alat
        k(    1) = (   0.0000000   0.0000000   0.0000000), wk =   0.0555556
        k(    2) = (   0.0000000   0.0342078   0.0000000), wk =   0.1111111
        k(    3) = (   0.0000000   0.0684156   0.0000000), wk =   0.1111111
        k(    4) = (   0.0000000  -0.1026233   0.0000000), wk =   0.0555556
        k(    5) = (   0.0296248   0.0171039   0.0000000), wk =   0.1111111
        k(    6) = (   0.0296248   0.0513117   0.0000000), wk =   0.1111111
        k(    7) = (   0.0296248   0.0855195   0.0000000), wk =   0.1111111
        k(    8) = (   0.0296248  -0.0855195   0.0000000), wk =   0.1111111
        k(    9) = (   0.0296248  -0.0513117   0.0000000), wk =   0.1111111
        k(   10) = (   0.0296248  -0.0171039   0.0000000), wk =   0.1111111
        k(   11) = (   0.0592496   0.0342078   0.0000000), wk =   0.1111111
        k(   12) = (   0.0592496   0.0684156   0.0000000), wk =   0.1111111
        k(   13) = (   0.0592496   0.1026233   0.0000000), wk =   0.1111111
        k(   14) = (   0.0592496  -0.0684156   0.0000000), wk =   0.1111111
        k(   15) = (   0.0592496  -0.0342078   0.0000000), wk =   0.1111111
        k(   16) = (   0.0592496   0.0000000   0.0000000), wk =   0.1111111
        k(   17) = (  -0.0888744  -0.0513117   0.0000000), wk =   0.0555556
        k(   18) = (  -0.0888744  -0.0171039   0.0000000), wk =   0.1111111
        k(   19) = (  -0.0888744   0.0171039   0.0000000), wk =   0.1111111
        k(   20) = (  -0.0888744  -0.1539350   0.0000000), wk =   0.0555556

     Largest allocated arrays     est. size (Mb)     dimensions
     Largest temporary arrays     est. size (Mb)     dimensions

     Initial potential from superposition of free atoms
     Check: negative starting charge=   -1.859684

     starting charge  185.99988, renormalised to  192.00000

     negative rho (up, down):  1.920E+00 0.000E+00

     *
     * You are using vdW-DF for exchange-correlation in this calculation.
     * Please cite the following three references that made this development
     * possible:
     *
     *   M. Dion, H. Rydberg, E. Schroder, D. C. Langreth, and
     *   B. I. Lundqvist, Phys. Rev. Lett. 92, 246401 (2004).
     *
     *   T. Thonhauser, V. R. Cooper, S. Li, A. Puzder, P. Hyldgaard, and
     *   D. C. Langreth, Phys. Rev. B 76, 125112 (2007).
     *
     *   G. Roman-Perez and J. M. Soler, Phys. Rev. Lett. 103, 096102 (2009).
     *
     *
     * If you are using vdW-DF2, please also cite:
     *
     *   K. Lee, E. D. Murray, L. Kong, B. I. Lundqvist, and
     *   D. C. Langreth, Phys. Rev. B 82, 081101(R) (2010).
     *
     *
     * If you are calculating the stress with vdW-DF, please also cite:
     *
     *   R. Sabatini, E. Kucukbenli, B. Kolb, T. Thonhauser, and
     *   S. de Gironcoli, J. Phys.: Condens. Matter 24, 424209 (2012).
     *

     Carrying out vdW-DF run using the following parameters:

     Nqs =      20    Nr_points =    1024   r_max =   100.000
     q_mesh =
               0.00001000     0.04494208     0.09755937     0.15916263
               0.23128650     0.31572767     0.41458969     0.53033537
               0.66584808     0.82450364     1.01025438     1.22772762
               1.48234092     1.78043706     2.12944203     2.53805004
               3.01644009     3.57652955     4.23227104     5.00000000

     Gradients computed in reciprocal space

     Adding external electric field

     Computed dipole along edir(3) :
        Dipole                0.0000 Ry au,          0.0000 Debye
        Dipole field          0.0000 Ry au

        Potential amp.       -0.0000 Ry
        Total length         45.3132 bohr

     Starting wfc are  144 randomized atomic wfcs

     Self-consistent Calculation

     iteration #  1     ecut=    36.75 Ry     beta=0.10
     Davidson diagonalization with overlap
     ethr =  1.00E-02,  avg # of iterations =  7.5

[...]

     total energy              =   -2510.18450967 Ry
     Harris-Foulkes estimate   =   -2513.97325698 Ry
     estimated scf accuracy    <      23.00848854 Ry

[...]

     End of self-consistent calculation

          k = 0.0000 0.0000 0.0000 ( 17099 PWs)   bands (ev):

   -51.4277 -51.3015 -51.3015 -51.2643 -51.2381 -51.2381 -51.1465 -51.1303
   -51.1303 -51.0928 -51.0841 -50.9700 -50.9700 -50.9560 -50.9559 -50.8245
   -50.8212 -50.8147 -50.8147 -50.8133 -50.8133 -50.6908 -50.6765 -50.6615
   -50.6615 -50.6529 -50.6529 -48.6873 -48.6873 -48.6777 -48.4797 -48.4797
   -48.4788 -48.4788 -48.2376 -48.2342  -6.5447  -4.9510  -4.6230  -4.2530
    -4.2530  -4.2186  -4.0142  -4.0142  -3.9119  -3.6684  -3.6310  -3.6310
    -3.4691  -3.4691  -3.4232  -2.3564  -2.1598  -2.1598  -1.9011  -1.9011
    -1.8721  -1.7038  -1.6155  -1.6155  -1.3574  -1.3574  -1.3405  -1.2936
    -1.1825  -1.1825  -1.1608  -1.1608  -0.6615  -0.6615  -0.4763   0.0957
     0.0957   0.1199   0.1199   0.1591   0.2608   0.3380   0.3380   0.6949
     0.6949   0.9476   1.0967   1.0967   1.1212   1.2456   1.2456   1.3164
     1.3188   1.3188   1.4410   1.4410   1.6783   1.6868   1.6868   1.7600
     1.7600   1.9840   2.0373   2.5446   2.8797   3.1085   3.1085   4.4291
     4.5223   4.5223   4.5496   4.6319   4.6319   6.2011   6.5168   6.7930
     7.1235   7.1235   7.4125   7.4125   7.7585   8.2109   8.4500   8.4500
     8.4626   8.6633   9.4437  10.0993  10.7845  11.1750

[...]

          k =-0.0889-0.0513 0.0000 ( 17144 PWs)   bands (ev):

[...]

     the Fermi energy is     1.3982 ev

!    total energy              =   -2510.44821246 Ry
     Harris-Foulkes estimate   =   -2510.44820064 Ry
     estimated scf accuracy    <       0.00000026 Ry

     The total energy is the sum of the following terms:

     one-electron contribution =  -19924.13078631 Ry
     hartree contribution      =   10001.22368203 Ry
     xc contribution           =    -624.90964713 Ry
     ewald contribution        =    8037.48682124 Ry
     electric field correction =       0.00000001 Ry
     smearing contrib. (-TS)   =      -0.11828230 Ry

     convergence has been achieved in  18 iterations

 BEEF-vdW xc energy contributions
           1 :   -554.184730084253
           2 :    514.356773536602
           3 :   -443.538295829119
           4 :    356.173321111131
           5 :   -267.687080307639
           6 :    190.266312032697
           7 :   -130.374344624573
           8 :    88.4908795610298
           9 :   -60.7937362962972
          10 :    41.8239404653428
          11 :   -26.9722183891066
[...]
     Generated by new atomic code, or converted to UPF format
     Using radial grid of  985 points,  6 beta functions with:
                l(1) =   0
                l(2) =   0
                l(3) =   1
                l(4) =   1
                l(5) =   2
                l(6) =   2
     Q(r) pseudized with  8 coefficients,  rinner =    1.300   1.300   1.300
                                                       1.300   1.300

     PseudoPot. # 2 for Pd read from file:
     /afs/slac.stanford.edu/u/if/mamunm/psp/gbrv1.5pbe/Pd.UPF
     MD5 check sum: 2d733d2bc2cbfd217af676df1668a4bc
     Pseudo is Ultrasoft + core correction, Zval = 16.0
     Generated by new atomic code, or converted to UPF format
     Using radial grid of  887 points,  6 beta functions with:
                l(1) =   0
                l(2) =   0
                l(3) =   1
                l(4) =   1
                l(5) =   2
                l(6) =   2
     Q(r) pseudized with  8 coefficients,  rinner =    1.130   1.130   1.130
                                                       1.130   1.130

     vdW kernel table read from file vdW_kernel_table
     MD5 check sum: 095c7af220d748ca6e76c0b4c6cfb241

     atomic species   valence    mass     pseudopotential
        Pt1           16.00   195.08400     Pt( 1.00)
        Pd1           16.00   106.42000     Pd( 1.00)

     No symmetry found

   Cartesian axes

     site n.     atom                  positions (alat units)
         1           Pt1 tau(   1) = (   0.0000000   0.0000000  10.0000000  )
         2           Pt1 tau(   2) = (  -1.4064789   2.4360930  10.0000000  )
         3           Pt1 tau(   3) = (   1.4064789   2.4360930  10.0000000  )
         4           Pd1 tau(   4) = (   2.8129579   0.0000000  10.0000000  )
         5           Pt1 tau(   5) = (   2.8129579   1.6240620  12.2967705  )
         6           Pt1 tau(   6) = (   1.4064789   4.0601550  12.2967705  )
         7           Pt1 tau(   7) = (  -1.4064789   4.0601550  12.2967705  )
         8           Pd1 tau(   8) = (   0.0000000   1.6240620  12.2967705  )
         9           Pt1 tau(   9) = (   0.0000016   3.2483717  14.5899931  )
        10           Pt1 tau(  10) = (   1.4066927   0.8119073  14.5899959  )
        11           Pt1 tau(  11) = (   4.2192217   0.8119073  14.5899955  )
        12           Pd1 tau(  12) = (   2.8129571   3.2481244  14.6903029  )

     number of k points=    20  Fermi-Dirac smearing, width (Ry)=  0.0110
                       cart. coord. in units 2pi/alat
        k(    1) = (   0.0000000   0.0000000   0.0000000), wk =   0.0555556
        k(    2) = (   0.0000000   0.0342078   0.0000000), wk =   0.1111111
        k(    3) = (   0.0000000   0.0684156   0.0000000), wk =   0.1111111
        k(    4) = (   0.0000000  -0.1026233   0.0000000), wk =   0.0555556
        k(    5) = (   0.0296248   0.0171039   0.0000000), wk =   0.1111111
        k(    6) = (   0.0296248   0.0513117   0.0000000), wk =   0.1111111
        k(    7) = (   0.0296248   0.0855195   0.0000000), wk =   0.1111111
        k(    8) = (   0.0296248  -0.0855195   0.0000000), wk =   0.1111111
        k(    9) = (   0.0296248  -0.0513117   0.0000000), wk =   0.1111111
        k(   10) = (   0.0296248  -0.0171039   0.0000000), wk =   0.1111111
        k(   11) = (   0.0592496   0.0342078   0.0000000), wk =   0.1111111
        k(   12) = (   0.0592496   0.0684156   0.0000000), wk =   0.1111111
        k(   13) = (   0.0592496   0.1026233   0.0000000), wk =   0.1111111
        k(   14) = (   0.0592496  -0.0684156   0.0000000), wk =   0.1111111
        k(   15) = (   0.0592496  -0.0342078   0.0000000), wk =   0.1111111
        k(   16) = (   0.0592496   0.0000000   0.0000000), wk =   0.1111111
        k(   17) = (  -0.0888744  -0.0513117   0.0000000), wk =   0.0555556
        k(   18) = (  -0.0888744  -0.0171039   0.0000000), wk =   0.1111111
        k(   19) = (  -0.0888744   0.0171039   0.0000000), wk =   0.1111111
        k(   20) = (  -0.0888744  -0.1539350   0.0000000), wk =   0.0555556

     Largest allocated arrays     est. size (Mb)     dimensions
     Largest temporary arrays     est. size (Mb)     dimensions

     Initial potential from superposition of free atoms
     Check: negative starting charge=   -1.862079

     starting charge  185.99988, renormalised to  192.00000

[...]

     *
     * You are using vdW-DF for exchange-correlation in this calculation.
     * Please cite the following three references that made this development
     * possible:
     *
     *   M. Dion, H. Rydberg, E. Schroder, D. C. Langreth, and
     *   B. I. Lundqvist, Phys. Rev. Lett. 92, 246401 (2004).
     *
     *   T. Thonhauser, V. R. Cooper, S. Li, A. Puzder, P. Hyldgaard, and
     *   D. C. Langreth, Phys. Rev. B 76, 125112 (2007).
     *
     *   G. Roman-Perez and J. M. Soler, Phys. Rev. Lett. 103, 096102 (2009).
     *
     *
     * If you are using vdW-DF2, please also cite:
     *
     *   K. Lee, E. D. Murray, L. Kong, B. I. Lundqvist, and
     *   D. C. Langreth, Phys. Rev. B 82, 081101(R) (2010).
     *
     *
     * If you are calculating the stress with vdW-DF, please also cite:
     *
     *   R. Sabatini, E. Kucukbenli, B. Kolb, T. Thonhauser, and
     *   S. de Gironcoli, J. Phys.: Condens. Matter 24, 424209 (2012).
     *

     Carrying out vdW-DF run using the following parameters:

     Nqs =      20    Nr_points =    1024   r_max =   100.000
     q_mesh =
               0.00001000     0.04494208     0.09755937     0.15916263
               0.23128650     0.31572767     0.41458969     0.53033537
               0.66584808     0.82450364     1.01025438     1.22772762
               1.48234092     1.78043706     2.12944203     2.53805004
               3.01644009     3.57652955     4.23227104     5.00000000

     Gradients computed in reciprocal space

[...]

     Starting wfc are  144 randomized atomic wfcs

     Self-consistent Calculation

[...]

     total energy              =   -2510.46337152 Ry
     Harris-Foulkes estimate   =   -2510.46336948 Ry
     estimated scf accuracy    <       0.00000179 Ry

     iteration # 17     ecut=    36.75 Ry     beta=0.10
     Davidson diagonalization with overlap
     ethr =  9.31E-10,  avg # of iterations =  2.1

[...]

     negative rho (up, down):  1.811E+00 0.000E+00

     Adding external electric field

     Computed dipole along edir(3) :
        Dipole                0.0074 Ry au,          0.0187 Debye
        Dipole field          0.0000 Ry au

        Potential amp.       -0.0018 Ry
        Total length         45.3132 bohr

     End of self-consistent calculation

[...]

          k = 0.0592 0.0000 0.0000 ( 17100 PWs)   bands (ev):

[...]

          k =-0.0889-0.1539 0.0000 ( 17144 PWs)   bands (ev):

   -51.3518 -51.2782 -51.2424 -51.2345 -51.2066 -51.2053 -51.1914 -51.1863
   -51.1145 -51.0345 -51.0230 -50.9441 -50.9346 -50.9082 -50.9024 -50.9023
   -50.8960 -50.8940 -50.8836 -50.8230 -50.8160 -50.6837 -50.6784 -50.6745
   -50.6658 -50.6619 -50.6563 -48.6945 -48.6906 -48.6776 -48.4757 -48.4717
   -48.4006 -48.3968 -48.2234 -48.1130  -5.0230  -4.7387  -3.7146  -3.6272
    -3.4245  -3.3594  -3.3586  -3.2637  -3.2318  -3.0479  -2.9465  -2.7718
    -2.7695  -2.5732  -2.4657  -2.4321  -2.3102  -2.2468  -2.1122  -2.0907
    -1.9937  -1.9428  -1.6505  -1.6356  -1.3914  -1.3587  -1.3585  -1.2349
    -1.2178  -1.1722  -1.0949  -1.0457  -1.0406  -1.0004  -0.9138  -0.9132
    -0.8448  -0.8310  -0.8021  -0.7355  -0.3995  -0.3661  -0.2134  -0.1647
    -0.1472  -0.1010   0.0289   0.0708   0.1153   0.1399   0.2601   0.3044
     0.5783   0.5887   0.6708   0.7235   0.8764   0.9427   1.1548   1.2179
     1.3159   1.4023   1.4503   1.7289   3.0363   3.2425   3.7094   3.7260
     4.5486   4.5531   5.9398   6.0117   6.4024   6.6915   7.6368   7.6525
     8.2346   8.2466   8.2805   8.2982   9.1632   9.2712   9.4256   9.4521
     9.4842   9.6277   9.6410   9.7857   9.8794  10.1829

     the Fermi energy is     1.3992 ev

!    total energy              =   -2510.46338299 Ry
     Harris-Foulkes estimate   =   -2510.46337151 Ry
     estimated scf accuracy    <       0.00000088 Ry

     The total energy is the sum of the following terms:

     one-electron contribution =  -19862.37661239 Ry
     hartree contribution      =    9970.42134592 Ry
     xc contribution           =    -624.89749039 Ry
     ewald contribution        =    8006.50689795 Ry
     electric field correction =       0.00000015 Ry
     smearing contrib. (-TS)   =      -0.11752423 Ry

     convergence has been achieved in  17 iterations

 BEEF-vdW xc energy contributions
           1 :   -554.557083105039
           2 :    514.710027581723
           3 :   -443.866856744491
           4 :    356.489755097449
           5 :   -268.014969569983
           6 :    190.626509774417
           7 :   -130.773050590705
           8 :    88.9163278726681
           9 :   -61.2229154168077
          10 :    42.2352985649032
          11 :   -27.3571786802763
          12 :    14.2453258277109
          13 :   -2.83730188103129
          14 :   -5.64528867917249
          15 :    10.0116152519482
          16 :   -10.0684769480199
          17 :    6.86612072209766
          18 :   -2.26469615906001
          19 :   -1.84216257828814
          20 :    4.21511061865635
          21 :   -4.57748739838814
          22 :    3.47931719766507
          23 :   -1.86513975023092
          24 :   0.586450765168138
          25 :  -7.989368867094981E-002
          26 :   0.305339906038057
          27 :  -0.906509613328808
          28 :    1.46312578494451
          29 :   -1.70030505792886
          30 :    1.57188752677450
          31 :   -46.6940165061793
          32 :   -34.5076810349061

     Forces acting on atoms (Ry/au):

     negative rho (up, down):  1.811E+00 0.000E+00
     atom    1 type  1   force =     0.00000033   -0.00036009    0.00109149
     atom    2 type  1   force =    -0.00031233    0.00018033    0.00109236
     atom    3 type  1   force =     0.00031211    0.00018019    0.00109161
     atom    4 type  2   force =    -0.00000021    0.00000001   -0.01964887
     atom    5 type  1   force =     0.00000012    0.00486313    0.00528704
     atom    6 type  1   force =     0.00421160   -0.00243171    0.00528692
     atom    7 type  1   force =    -0.00421160   -0.00243145    0.00528705
     atom    8 type  2   force =     0.00000003   -0.00000044   -0.00036227
     atom    9 type  1   force =    -0.00000071    0.00035339   -0.00014640
     atom   10 type  1   force =     0.00030581   -0.00017652   -0.00014616
     atom   11 type  1   force =    -0.00030540   -0.00017668   -0.00014683
     atom   12 type  2   force =     0.00000024   -0.00000017    0.00131404

     Total force =     0.023391     Total SCF correction =     0.005718
     SCF correction compared to forces is large: reduce conv_thr to get better values

     entering subroutine stress ...

     negative rho (up, down):  1.811E+00 0.000E+00
          total   stress  (Ry/bohr**3)                   (kbar)     P=  -17.76
  -0.00018100  -0.00000000   0.00000000        -26.63     -0.00      0.00
  -0.00000000  -0.00018100   0.00000000         -0.00    -26.63      0.00
   0.00000000   0.00000000  -0.00000020          0.00      0.00     -0.03

 !ASE

     Writing output data file calc.save

     General routines

     Parallel routines

   This run was terminated on:  18: 6:20  31Dec2018

   JOB DONE.
Job  /afs/slac/g/suncat/bin/suncat-tsmpirun -x LD_LIBRARY_PATH -wdir /scratch/qe648821_VcFnH pw.x -in pw.inp

TID   HOST_NAME   COMMAND_LINE            STATUS            TERMINATION_TIME
00000 suncat0271 pw.x -in pw.inp   Done                     12/31/2018 18:06:20
00001 suncat0271 pw.x -in pw.inp   Done                     12/31/2018 18:06:20
00002 suncat0271 pw.x -in pw.inp   Done                     12/31/2018 18:06:20
00003 suncat0271 pw.x -in pw.inp   Done                     12/31/2018 18:06:20
00004 suncat0271 pw.x -in pw.inp   Done                     12/31/2018 18:06:20
00005 suncat0271 pw.x -in pw.inp   Done                     12/31/2018 18:06:20
00006 suncat0271 pw.x -in pw.inp   Done                     12/31/2018 18:06:20
00007 suncat0271 pw.x -in pw.inp   Done                     12/31/2018 18:06:20
00008 suncat0266 pw.x -in pw.inp   Done                     12/31/2018 18:06:20
00009 suncat0266 pw.x -in pw.inp   Done                     12/31/2018 18:06:20
00010 suncat0266 pw.x -in pw.inp   Done                     12/31/2018 18:06:20
00011 suncat0266 pw.x -in pw.inp   Done                     12/31/2018 18:06:20
00012 suncat0266 pw.x -in pw.inp   Done                     12/31/2018 18:06:20
00013 suncat0266 pw.x -in pw.inp   Done                     12/31/2018 18:06:20
00014 suncat0266 pw.x -in pw.inp   Done                     12/31/2018 18:06:20
00015 suncat0266 pw.x -in pw.inp   Done                     12/31/2018 18:06:20
00016 suncat0264 pw.x -in pw.inp   Done                     12/31/2018 18:06:20
00017 suncat0264 pw.x -in pw.inp   Done                     12/31/2018 18:06:20
00018 suncat0264 pw.x -in pw.inp   Done                     12/31/2018 18:06:20
00019 suncat0264 pw.x -in pw.inp   Done                     12/31/2018 18:06:20
00020 suncat0264 pw.x -in pw.inp   Done                     12/31/2018 18:06:20
00021 suncat0264 pw.x -in pw.inp   Done                     12/31/2018 18:06:20
00022 suncat0264 pw.x -in pw.inp   Done                     12/31/2018 18:06:20
00023 suncat0264 pw.x -in pw.inp   Done                     12/31/2018 18:06:20
00024 suncat0260 pw.x -in pw.inp   Done                     12/31/2018 18:06:20
00025 suncat0260 pw.x -in pw.inp   Done                     12/31/2018 18:06:20
00026 suncat0260 pw.x -in pw.inp   Done                     12/31/2018 18:06:20
00027 suncat0260 pw.x -in pw.inp   Done                     12/31/2018 18:06:20
00028 suncat0260 pw.x -in pw.inp   Done                     12/31/2018 18:06:20
00029 suncat0260 pw.x -in pw.inp   Done                     12/31/2018 18:06:20
00030 suncat0260 pw.x -in pw.inp   Done                     12/31/2018 18:06:20
00031 suncat0260 pw.x -in pw.inp   Done                     12/31/2018 18:06:20
00032 suncat0241 pw.x -in pw.inp   Done                     12/31/2018 18:06:20
00033 suncat0241 pw.x -in pw.inp   Done                     12/31/2018 18:06:20
00034 suncat0241 pw.x -in pw.inp   Done                     12/31/2018 18:06:20
00035 suncat0241 pw.x -in pw.inp   Done                     12/31/2018 18:06:20
00036 suncat0241 pw.x -in pw.inp   Done                     12/31/2018 18:06:20
00037 suncat0241 pw.x -in pw.inp   Done                     12/31/2018 18:06:20
00038 suncat0241 pw.x -in pw.inp   Done                     12/31/2018 18:06:20
00039 suncat0241 pw.x -in pw.inp   Done                     12/31/2018 18:06:20
00040 suncat0240 pw.x -in pw.inp   Done                     12/31/2018 18:06:20
00041 suncat0240 pw.x -in pw.inp   Done                     12/31/2018 18:06:20
00042 suncat0240 pw.x -in pw.inp   Done                     12/31/2018 18:06:20
00043 suncat0240 pw.x -in pw.inp   Done                     12/31/2018 18:06:20
00044 suncat0240 pw.x -in pw.inp   Done                     12/31/2018 18:06:20
00045 suncat0240 pw.x -in pw.inp   Done                     12/31/2018 18:06:20
00046 suncat0240 pw.x -in pw.inp   Done                     12/31/2018 18:06:20
00047 suncat0240 pw.x -in pw.inp   Done                     12/31/2018 18:06:20
00048 suncat0239 pw.x -in pw.inp   Done                     12/31/2018 18:06:20
00049 suncat0239 pw.x -in pw.inp   Done                     12/31/2018 18:06:20
00050 suncat0239 pw.x -in pw.inp   Done                     12/31/2018 18:06:20
00051 suncat0239 pw.x -in pw.inp   Done                     12/31/2018 18:06:20
00052 suncat0239 pw.x -in pw.inp   Done                     12/31/2018 18:06:20
00053 suncat0239 pw.x -in pw.inp   Done                     12/31/2018 18:06:20
00054 suncat0239 pw.x -in pw.inp   Done                     12/31/2018 18:06:20
00055 suncat0239 pw.x -in pw.inp   Done                     12/31/2018 18:06:20
00056 suncat0098 pw.x -in pw.inp   Done                     12/31/2018 18:06:20
00057 suncat0098 pw.x -in pw.inp   Done                     12/31/2018 18:06:20
00058 suncat0098 pw.x -in pw.inp   Done                     12/31/2018 18:06:20
00059 suncat0098 pw.x -in pw.inp   Done                     12/31/2018 18:06:20
00060 suncat0098 pw.x -in pw.inp   Done                     12/31/2018 18:06:20
00061 suncat0098 pw.x -in pw.inp   Done                     12/31/2018 18:06:20
00062 suncat0098 pw.x -in pw.inp   Done                     12/31/2018 18:06:20
00063 suncat0098 pw.x -in pw.inp   Done                     12/31/2018 18:06:20