     Program PWSCF v.5.1rc2 (svn rev. 11289) starts on  2Jan2019 at  3:19:21

     Current dimensions of program PWSCF are:
     Max number of different atomic species (ntypx) = 10
     Max number of k-points (npk) =  40000
     Max angular momentum in pseudopotentials (lmaxx) =  3
     Presently stress not available with electric field

     IMPORTANT: XC functional enforced from input :
     Exchange-correlation      = BEEF-VDW ( 1  4 27 13 2)
     Any further DFT definition will be discarded
     Please, verify this is what you really want

     Subspace diagonalization in iterative solution of the eigenvalue problem:
     a serial algorithm will be used

     bravais-lattice index     =            0
     lattice parameter (alat)  =       1.8897  a.u.
     unit-cell volume          =    6349.6264 (a.u.)^3
     number of atoms/cell      =           12
     number of atomic types    =            2
     number of electrons       =       156.00
     number of Kohn-Sham states=          108
     kinetic-energy cutoff     =      36.7493  Ry
     charge density cutoff     =     367.4932  Ry
     convergence threshold     =      1.0E-06
     mixing beta               =       0.1000
     number of iterations used =           10  plain     mixing
     Exchange-correlation      = BEEF-VDW ( 1  4 27 13 2)
     nstep                     =           50

     celldm(1)=   1.889726  celldm(2)=   0.000000  celldm(3)=   0.000000
     celldm(4)=   0.000000  celldm(5)=   0.000000  celldm(6)=   0.000000

     crystal axes: (cart. coord. in units of alat)
               a(1) = (   6.547229   0.000000   0.000000 )
               a(2) = (  -3.273615   5.670067   0.000000 )
               a(3) = (   0.000000   0.000000  25.345790 )

     reciprocal axes: (cart. coord. in units 2 pi/alat)
               b(1) = (  0.152736  0.088182  0.000000 )
               b(2) = (  0.000000  0.176365  0.000000 )
               b(3) = (  0.000000  0.000000  0.039454 )

     PseudoPot. # 1 for Tl read from file:
     /afs/slac.stanford.edu/u/if/mamunm/psp/gbrv1.5pbe/Tl.UPF
     MD5 check sum: b76cf1f7e72655a2b2c53cf6385d7059
     Pseudo is Ultrasoft + core correction, Zval = 13.0
     Generated by new atomic code, or converted to UPF format
     Using radial grid of  899 points,  6 beta functions with:
                l(1) =   0
                l(2) =   0
                l(3) =   1
                l(4) =   1
                l(5) =   2
                l(6) =   2
     Q(r) pseudized with  6 coefficients,  rinner =    1.100   1.100   1.100
                                                       1.100   1.100

     PseudoPot. # 2 for Ta read from file:
     /afs/slac.stanford.edu/u/if/mamunm/psp/gbrv1.5pbe/Ta.UPF
     MD5 check sum: f8bbe9446314a3b8ea5d9f3e3836c939
     Pseudo is Ultrasoft + core correction, Zval = 13.0
     Generated by new atomic code, or converted to UPF format
     Using radial grid of  921 points,  7 beta functions with:
                l(1) =   0
                l(2) =   0
                l(3) =   1
                l(4) =   1
                l(5) =   2
                l(6) =   2
                l(7) =   3
     Q(r) pseudized with  6 coefficients,  rinner =    1.300   1.300   1.300
                                                       1.300   1.300   1.300
                                                       1.300

     vdW kernel table read from file vdW_kernel_table
     MD5 check sum: 095c7af220d748ca6e76c0b4c6cfb241

     atomic species   valence    mass     pseudopotential
        Tl1           13.00   204.38000     Tl( 1.00)
        Ta1           13.00   180.94788     Ta( 1.00)

     No symmetry found

   Cartesian axes

     site n.     atom                  positions (alat units)
         1           Tl1 tau(   1) = (   0.0000000   0.0000000  10.0000000  )
         2           Tl1 tau(   2) = (  -1.6368073   2.8350335  10.0000000  )
         3           Tl1 tau(   3) = (   1.6368073   2.8350335  10.0000000  )
         4           Ta1 tau(   4) = (   3.2736147   0.0000000  10.0000000  )
         5           Tl1 tau(   5) = (   3.2736147   1.8900223  12.6728952  )
         6           Tl1 tau(   6) = (   1.6368073   4.7250558  12.6728952  )
         7           Tl1 tau(   7) = (  -1.6368073   4.7250558  12.6728952  )
         8           Ta1 tau(   8) = (   0.0000000   1.8900223  12.6728952  )
         9           Tl1 tau(   9) = (  -0.0000000   3.7800446  15.3457903  )
        10           Tl1 tau(  10) = (   1.6368073   0.9450112  15.3457903  )
        11           Tl1 tau(  11) = (   4.9104220   0.9450112  15.3457903  )
        12           Ta1 tau(  12) = (   3.2736147   3.7800446  15.3457903  )

     number of k points=    20  Fermi-Dirac smearing, width (Ry)=  0.0110
                       cart. coord. in units 2pi/alat
        k(    1) = (   0.0000000   0.0000000   0.0000000), wk =   0.0555556
        k(    2) = (   0.0000000   0.0293941   0.0000000), wk =   0.1111111
        k(    3) = (   0.0000000   0.0587883   0.0000000), wk =   0.1111111
        k(    4) = (   0.0000000  -0.0881824   0.0000000), wk =   0.0555556
        k(    5) = (   0.0254561   0.0146971   0.0000000), wk =   0.1111111
        k(    6) = (   0.0254561   0.0440912   0.0000000), wk =   0.1111111
        k(    7) = (   0.0254561   0.0734853   0.0000000), wk =   0.1111111
        k(    8) = (   0.0254561  -0.0734853   0.0000000), wk =   0.1111111
        k(    9) = (   0.0254561  -0.0440912   0.0000000), wk =   0.1111111
        k(   10) = (   0.0254561  -0.0146971   0.0000000), wk =   0.1111111
        k(   11) = (   0.0509121   0.0293941   0.0000000), wk =   0.1111111
        k(   12) = (   0.0509121   0.0587883   0.0000000), wk =   0.1111111
        k(   13) = (   0.0509121   0.0881824   0.0000000), wk =   0.1111111
        k(   14) = (   0.0509121  -0.0587883   0.0000000), wk =   0.1111111
        k(   15) = (   0.0509121  -0.0293941   0.0000000), wk =   0.1111111
        k(   16) = (   0.0509121   0.0000000   0.0000000), wk =   0.1111111
        k(   17) = (  -0.0763682  -0.0440912   0.0000000), wk =   0.0555556
        k(   18) = (  -0.0763682  -0.0146971   0.0000000), wk =   0.1111111
        k(   19) = (  -0.0763682   0.0146971   0.0000000), wk =   0.1111111
        k(   20) = (  -0.0763682  -0.1322736   0.0000000), wk =   0.0555556

     Largest allocated arrays     est. size (Mb)     dimensions
     Largest temporary arrays     est. size (Mb)     dimensions

     Check: negative/imaginary core charge=   -0.000001    0.000000

     Initial potential from superposition of free atoms
     Check: negative starting charge=   -0.740983

     starting charge  155.95287, renormalised to  156.00000

     negative rho (up, down):  7.412E-01 0.000E+00

     *
     * You are using vdW-DF for exchange-correlation in this calculation.
     * Please cite the following three references that made this development
     * possible:
     *
     *   M. Dion, H. Rydberg, E. Schroder, D. C. Langreth, and
     *   B. I. Lundqvist, Phys. Rev. Lett. 92, 246401 (2004).
     *
     *   T. Thonhauser, V. R. Cooper, S. Li, A. Puzder, P. Hyldgaard, and
     *   D. C. Langreth, Phys. Rev. B 76, 125112 (2007).
     *
     *   G. Roman-Perez and J. M. Soler, Phys. Rev. Lett. 103, 096102 (2009).
     *
     *
     * If you are using vdW-DF2, please also cite:
     *
     *   K. Lee, E. D. Murray, L. Kong, B. I. Lundqvist, and
     *   D. C. Langreth, Phys. Rev. B 82, 081101(R) (2010).
     *
     *
     * If you are calculating the stress with vdW-DF, please also cite:
     *
     *   R. Sabatini, E. Kucukbenli, B. Kolb, T. Thonhauser, and
     *   S. de Gironcoli, J. Phys.: Condens. Matter 24, 424209 (2012).
     *

     Carrying out vdW-DF run using the following parameters:

     Nqs =      20    Nr_points =    1024   r_max =   100.000
     q_mesh =
               0.00001000     0.04494208     0.09755937     0.15916263
               0.23128650     0.31572767     0.41458969     0.53033537
               0.66584808     0.82450364     1.01025438     1.22772762
               1.48234092     1.78043706     2.12944203     2.53805004
               3.01644009     3.57652955     4.23227104     5.00000000

     Gradients computed in reciprocal space

     Adding external electric field

     Computed dipole along edir(3) :
        Dipole                0.0000 Ry au,          0.0000 Debye
        Dipole field          0.0000 Ry au

        Potential amp.       -0.0000 Ry
        Total length         46.6992 bohr

     Starting wfc are  120 randomized atomic wfcs

     Self-consistent Calculation

     iteration #  1     ecut=    36.75 Ry     beta=0.10
     Davidson diagonalization with overlap
     ethr =  1.00E-02,  avg # of iterations =  4.3

     Threshold (ethr) on eigenvalues was too large:
     Diagonalizing with lowered threshold

     Davidson diagonalization with overlap
     ethr =  4.20E-04,  avg # of iterations = 10.2

[...]

     total energy              =   -1750.08853798 Ry
     Harris-Foulkes estimate   =   -1750.20221058 Ry
     estimated scf accuracy    <       0.70305473 Ry

[...]

     End of self-consistent calculation

          k = 0.0000 0.0000 0.0000 ( 23811 PWs)   bands (ev):

   -68.3961 -68.3961 -68.1203 -34.7071 -34.7065 -34.6249 -34.6249 -34.6248
   -34.6248 -34.4297 -34.4297 -34.3417 -11.2373 -11.1335 -11.1264 -11.1262
   -11.0261 -11.0160 -10.9421 -10.9359 -10.9359 -10.8587 -10.8587 -10.8530
   -10.8528 -10.7532 -10.7400 -10.7400 -10.7087 -10.6394 -10.5906 -10.5650
   -10.5650 -10.5619 -10.5615 -10.5420 -10.5417 -10.5385 -10.4032 -10.4032
   -10.3697 -10.3697 -10.3558 -10.3558 -10.3438 -10.3335 -10.3335 -10.2785
   -10.2785 -10.2108 -10.2108 -10.1840 -10.1563 -10.1299 -10.1299 -10.0113
   -10.0097  -8.7261  -7.2615  -5.4394  -4.4509  -4.4507  -3.8098  -3.8098
    -2.9630  -2.9630  -2.0468  -1.4659  -0.9899  -0.8634  -0.8633  -0.3496
     0.4400   0.4730   0.4731   0.5743   0.5743   1.1839   1.1839   1.2438
     1.2438   1.7570   1.8099   2.0131   2.0131   2.0598   2.2096   2.2096
     2.2581   2.2854   2.2854   2.6356   2.7558   2.7558   3.8430   4.5330
     4.8131   5.2303   5.2303   5.5272   5.5272   5.5595   5.6200   5.9381
     6.2053   6.2133   7.2258   7.2258

[...]

          k =-0.0764-0.0441 0.0000 ( 23884 PWs)   bands (ev):

[...]

     the Fermi energy is     1.0673 ev

!    total energy              =   -1750.15480379 Ry
     Harris-Foulkes estimate   =   -1750.15480723 Ry
     estimated scf accuracy    <       0.00000032 Ry

     The total energy is the sum of the following terms:

     one-electron contribution =   -9124.91193712 Ry
     hartree contribution      =    4617.98354124 Ry
     xc contribution           =    -706.44936860 Ry
     ewald contribution        =    3463.28121075 Ry
     electric field correction =       0.00000000 Ry
     smearing contrib. (-TS)   =      -0.05825005 Ry

     convergence has been achieved in  14 iterations

 BEEF-vdW xc energy contributions
           1 :   -628.056534018813
           2 :    582.667220224643
           3 :   -502.802399292353
           4 :    406.001077324046
           5 :   -310.245099965554
           6 :    228.521038057990
[...]
                l(1) =   0
                l(2) =   0
                l(3) =   1
                l(4) =   1
                l(5) =   2
                l(6) =   2
     Q(r) pseudized with  6 coefficients,  rinner =    1.100   1.100   1.100
                                                       1.100   1.100

     PseudoPot. # 2 for Ta read from file:
     /afs/slac.stanford.edu/u/if/mamunm/psp/gbrv1.5pbe/Ta.UPF
     MD5 check sum: f8bbe9446314a3b8ea5d9f3e3836c939
     Pseudo is Ultrasoft + core correction, Zval = 13.0
     Generated by new atomic code, or converted to UPF format
     Using radial grid of  921 points,  7 beta functions with:
                l(1) =   0
                l(2) =   0
                l(3) =   1
                l(4) =   1
                l(5) =   2
                l(6) =   2
                l(7) =   3
     Q(r) pseudized with  6 coefficients,  rinner =    1.300   1.300   1.300
                                                       1.300   1.300   1.300
                                                       1.300

     vdW kernel table read from file vdW_kernel_table
     MD5 check sum: 095c7af220d748ca6e76c0b4c6cfb241

     atomic species   valence    mass     pseudopotential
        Tl1           13.00   204.38000     Tl( 1.00)
        Ta1           13.00   180.94788     Ta( 1.00)

     No symmetry found

   Cartesian axes

     site n.     atom                  positions (alat units)
         1           Tl1 tau(   1) = (   0.0000000   0.0000000  10.0000000  )
         2           Tl1 tau(   2) = (  -1.6368073   2.8350335  10.0000000  )
         3           Tl1 tau(   3) = (   1.6368073   2.8350335  10.0000000  )
         4           Ta1 tau(   4) = (   3.2736147   0.0000000  10.0000000  )
         5           Tl1 tau(   5) = (   3.2736147   1.8900223  12.6728952  )
         6           Tl1 tau(   6) = (   1.6368073   4.7250558  12.6728952  )
         7           Tl1 tau(   7) = (  -1.6368073   4.7250558  12.6728952  )
         8           Ta1 tau(   8) = (   0.0000000   1.8900223  12.6728952  )
         9           Tl1 tau(   9) = (   0.0000019   3.7629791  15.5649188  )
        10           Tl1 tau(  10) = (   1.6219093   0.9537657  15.5636209  )
        11           Tl1 tau(  11) = (   4.9253487   0.9537452  15.5636352  )
        12           Ta1 tau(  12) = (   3.2736004   3.7799964  14.9639717  )

     number of k points=    20  Fermi-Dirac smearing, width (Ry)=  0.0110
                       cart. coord. in units 2pi/alat
        k(    1) = (   0.0000000   0.0000000   0.0000000), wk =   0.0555556
        k(    2) = (   0.0000000   0.0293941   0.0000000), wk =   0.1111111
        k(    3) = (   0.0000000   0.0587883   0.0000000), wk =   0.1111111
        k(    4) = (   0.0000000  -0.0881824   0.0000000), wk =   0.0555556
        k(    5) = (   0.0254561   0.0146971   0.0000000), wk =   0.1111111
        k(    6) = (   0.0254561   0.0440912   0.0000000), wk =   0.1111111
        k(    7) = (   0.0254561   0.0734853   0.0000000), wk =   0.1111111
        k(    8) = (   0.0254561  -0.0734853   0.0000000), wk =   0.1111111
        k(    9) = (   0.0254561  -0.0440912   0.0000000), wk =   0.1111111
        k(   10) = (   0.0254561  -0.0146971   0.0000000), wk =   0.1111111
        k(   11) = (   0.0509121   0.0293941   0.0000000), wk =   0.1111111
        k(   12) = (   0.0509121   0.0587883   0.0000000), wk =   0.1111111
        k(   13) = (   0.0509121   0.0881824   0.0000000), wk =   0.1111111
        k(   14) = (   0.0509121  -0.0587883   0.0000000), wk =   0.1111111
        k(   15) = (   0.0509121  -0.0293941   0.0000000), wk =   0.1111111
        k(   16) = (   0.0509121   0.0000000   0.0000000), wk =   0.1111111
        k(   17) = (  -0.0763682  -0.0440912   0.0000000), wk =   0.0555556
        k(   18) = (  -0.0763682  -0.0146971   0.0000000), wk =   0.1111111
        k(   19) = (  -0.0763682   0.0146971   0.0000000), wk =   0.1111111
        k(   20) = (  -0.0763682  -0.1322736   0.0000000), wk =   0.0555556

     Largest allocated arrays     est. size (Mb)     dimensions
     Largest temporary arrays     est. size (Mb)     dimensions

     Check: negative/imaginary core charge=   -0.000001    0.000000

     Initial potential from superposition of free atoms
     Check: negative starting charge=   -0.740970

     starting charge  155.95287, renormalised to  156.00000

[...]

     *
     * You are using vdW-DF for exchange-correlation in this calculation.
     * Please cite the following three references that made this development
     * possible:
     *
     *   M. Dion, H. Rydberg, E. Schroder, D. C. Langreth, and
     *   B. I. Lundqvist, Phys. Rev. Lett. 92, 246401 (2004).
     *
     *   T. Thonhauser, V. R. Cooper, S. Li, A. Puzder, P. Hyldgaard, and
     *   D. C. Langreth, Phys. Rev. B 76, 125112 (2007).
     *
     *   G. Roman-Perez and J. M. Soler, Phys. Rev. Lett. 103, 096102 (2009).
     *
     *
     * If you are using vdW-DF2, please also cite:
     *
     *   K. Lee, E. D. Murray, L. Kong, B. I. Lundqvist, and
     *   D. C. Langreth, Phys. Rev. B 82, 081101(R) (2010).
     *
     *
     * If you are calculating the stress with vdW-DF, please also cite:
     *
     *   R. Sabatini, E. Kucukbenli, B. Kolb, T. Thonhauser, and
     *   S. de Gironcoli, J. Phys.: Condens. Matter 24, 424209 (2012).
     *

     Carrying out vdW-DF run using the following parameters:

     Nqs =      20    Nr_points =    1024   r_max =   100.000
     q_mesh =
               0.00001000     0.04494208     0.09755937     0.15916263
               0.23128650     0.31572767     0.41458969     0.53033537
               0.66584808     0.82450364     1.01025438     1.22772762
               1.48234092     1.78043706     2.12944203     2.53805004
               3.01644009     3.57652955     4.23227104     5.00000000

     Gradients computed in reciprocal space

[...]

     Starting wfc are  120 randomized atomic wfcs

     Self-consistent Calculation

[...]

     Threshold (ethr) on eigenvalues was too large:
     Diagonalizing with lowered threshold

     Davidson diagonalization with overlap
     ethr =  3.35E-04,  avg # of iterations = 10.0

[...]

     total energy              =   -1750.20135856 Ry
     Harris-Foulkes estimate   =   -1750.20133737 Ry
     estimated scf accuracy    <       0.00000385 Ry

     iteration # 14     ecut=    36.75 Ry     beta=0.10
     Davidson diagonalization with overlap
     ethr =  2.47E-09,  avg # of iterations =  2.8

[...]

     negative rho (up, down):  7.799E-01 0.000E+00

     Adding external electric field

     Computed dipole along edir(3) :
        Dipole                0.0687 Ry au,          0.1747 Debye
        Dipole field          0.0001 Ry au

        Potential amp.       -0.0127 Ry
        Total length         46.6992 bohr

     End of self-consistent calculation

[...]

          k = 0.0509 0.0000 0.0000 ( 23870 PWs)   bands (ev):

[...]

          k =-0.0764-0.1323 0.0000 ( 23884 PWs)   bands (ev):

   -68.3459 -68.2368 -68.1008 -34.6622 -34.5678 -34.5673 -34.5168 -34.5165
   -34.5122 -34.4061 -34.4056 -34.3127 -11.0280 -10.9202 -10.8815 -10.8552
   -10.8407 -10.7932 -10.7687 -10.7429 -10.7373 -10.7131 -10.7129 -10.6790
   -10.6561 -10.6207 -10.6047 -10.5958 -10.5601 -10.5360 -10.5177 -10.4907
   -10.4895 -10.4832 -10.4830 -10.4594 -10.4408 -10.4404 -10.4291 -10.4267
   -10.4111 -10.4035 -10.3954 -10.3870 -10.3778 -10.3751 -10.3553 -10.3472
   -10.3152 -10.3130 -10.3009 -10.2811 -10.2560 -10.2151 -10.1693 -10.1012
   -10.0622  -7.4205  -7.0748  -5.9585  -5.7967  -4.9978  -4.7925  -4.3968
    -3.6977  -2.6368  -2.4083  -1.6862  -0.7083  -0.1365  -0.0538   0.1254
     0.1873   0.2534   0.6365   0.8114   0.9421   1.1378   1.5706   1.7719
     1.8401   1.8554   1.9928   2.1361   2.3233   2.3676   2.5154   2.8327
     2.8977   3.2333   3.5647   3.6325   3.6916   4.1182   4.3763   4.4978
     4.5601   5.1036   5.4240   5.5275   5.6305   5.6582   5.8516   5.9961
     6.1287   6.3930   6.4063   6.6086

     the Fermi energy is     1.1210 ev

!    total energy              =   -1750.20135647 Ry
     Harris-Foulkes estimate   =   -1750.20136037 Ry
     estimated scf accuracy    <       0.00000097 Ry

     The total energy is the sum of the following terms:

     one-electron contribution =   -9025.83718633 Ry
     hartree contribution      =    4568.75217598 Ry
     xc contribution           =    -706.43486542 Ry
     ewald contribution        =    3413.37503166 Ry
     electric field correction =       0.00000935 Ry
     smearing contrib. (-TS)   =      -0.05652171 Ry

     convergence has been achieved in  14 iterations

 BEEF-vdW xc energy contributions
           1 :   -628.191809081164
           2 :    582.770342445291
           3 :   -502.879555076784
           4 :    406.096103552574
           5 :   -310.400959309964
           6 :    228.737240384820
           7 :   -166.374029442237
           8 :    121.587805833413
           9 :   -88.7815454840220
          10 :    62.2283638344454
          11 :   -38.6896186240925
          12 :    17.9770340988696
          13 :   -1.72743802995251
          14 :   -8.52692365809480
          15 :    12.7694238312317
          16 :   -12.7320612012577
          17 :    11.0517902999247
          18 :   -10.0177806157582
          19 :    10.6507308077692
          20 :   -12.5546409956133
          21 :    14.4937089835252
          22 :   -15.2862025582630
          23 :    14.4961341557030
          24 :   -12.5938513559007
          25 :    10.5789503024130
          26 :   -9.35445751293855
          27 :    9.22770659721164
          28 :   -9.79969185795699
          29 :    10.2588637162673
          30 :   -9.88217242513724
          31 :   -51.3940461284270
          32 :   -37.7178101171148

     Forces acting on atoms (Ry/au):

     negative rho (up, down):  7.799E-01 0.000E+00
     atom    1 type  1   force =    -0.00000057    0.01113291   -0.02764362
     atom    2 type  1   force =     0.00965209   -0.00557059   -0.02764639
     atom    3 type  1   force =    -0.00965194   -0.00556949   -0.02764675
     atom    4 type  2   force =    -0.00000082    0.00000750    0.07429836
     atom    5 type  1   force =     0.00000480   -0.01681773    0.00024875
     atom    6 type  1   force =    -0.01459354    0.00841343    0.00029349
     atom    7 type  1   force =     0.01459239    0.00840596    0.00029581
     atom    8 type  2   force =     0.00000302    0.00001688    0.00367006
     atom    9 type  1   force =    -0.00000320   -0.00146252    0.00096440
     atom   10 type  1   force =    -0.00133974    0.00071844    0.00097060
     atom   11 type  1   force =     0.00133807    0.00071932    0.00097150
     atom   12 type  2   force =    -0.00000056    0.00000588    0.00122379

     Total force =     0.095186     Total SCF correction =     0.003356

     entering subroutine stress ...

     negative rho (up, down):  7.799E-01 0.000E+00
          total   stress  (Ry/bohr**3)                   (kbar)     P=  -15.63
  -0.00014041  -0.00000000  -0.00000000        -20.65     -0.00     -0.00
  -0.00000000  -0.00014040   0.00000001         -0.00    -20.65      0.00
  -0.00000000   0.00000001  -0.00003800         -0.00      0.00     -5.59

 !ASE

     Writing output data file calc.save

     General routines

     Parallel routines

   This run was terminated on:   4:39:50   2Jan2019

   JOB DONE.
Job  /afs/slac/g/suncat/bin/suncat-tsmpirun -x LD_LIBRARY_PATH -wdir /scratch/qe649282_0eCri pw.x -in pw.inp

TID   HOST_NAME   COMMAND_LINE            STATUS            TERMINATION_TIME
00000 suncat0068 pw.x -in pw.inp   Done                     01/02/2019 04:39:50
00001 suncat0068 pw.x -in pw.inp   Done                     01/02/2019 04:39:50
00002 suncat0068 pw.x -in pw.inp   Done                     01/02/2019 04:39:50
00003 suncat0068 pw.x -in pw.inp   Done                     01/02/2019 04:39:50
00004 suncat0068 pw.x -in pw.inp   Done                     01/02/2019 04:39:50
00005 suncat0068 pw.x -in pw.inp   Done                     01/02/2019 04:39:50
00006 suncat0068 pw.x -in pw.inp   Done                     01/02/2019 04:39:50
00007 suncat0068 pw.x -in pw.inp   Done                     01/02/2019 04:39:50
00008 suncat0065 pw.x -in pw.inp   Done                     01/02/2019 04:39:50
00009 suncat0065 pw.x -in pw.inp   Done                     01/02/2019 04:39:50
00010 suncat0065 pw.x -in pw.inp   Done                     01/02/2019 04:39:50
00011 suncat0065 pw.x -in pw.inp   Done                     01/02/2019 04:39:50
00012 suncat0065 pw.x -in pw.inp   Done                     01/02/2019 04:39:50
00013 suncat0065 pw.x -in pw.inp   Done                     01/02/2019 04:39:50
00014 suncat0065 pw.x -in pw.inp   Done                     01/02/2019 04:39:50
00015 suncat0065 pw.x -in pw.inp   Done                     01/02/2019 04:39:50
00016 suncat0064 pw.x -in pw.inp   Done                     01/02/2019 04:39:50
00017 suncat0064 pw.x -in pw.inp   Done                     01/02/2019 04:39:50
00018 suncat0064 pw.x -in pw.inp   Done                     01/02/2019 04:39:50
00019 suncat0064 pw.x -in pw.inp   Done                     01/02/2019 04:39:50
00020 suncat0064 pw.x -in pw.inp   Done                     01/02/2019 04:39:50
00021 suncat0064 pw.x -in pw.inp   Done                     01/02/2019 04:39:50
00022 suncat0064 pw.x -in pw.inp   Done                     01/02/2019 04:39:50
00023 suncat0064 pw.x -in pw.inp   Done                     01/02/2019 04:39:50
00024 suncat0059 pw.x -in pw.inp   Done                     01/02/2019 04:39:50
00025 suncat0059 pw.x -in pw.inp   Done                     01/02/2019 04:39:50
00026 suncat0059 pw.x -in pw.inp   Done                     01/02/2019 04:39:50
00027 suncat0059 pw.x -in pw.inp   Done                     01/02/2019 04:39:50
00028 suncat0059 pw.x -in pw.inp   Done                     01/02/2019 04:39:50
00029 suncat0059 pw.x -in pw.inp   Done                     01/02/2019 04:39:50
00030 suncat0059 pw.x -in pw.inp   Done                     01/02/2019 04:39:50
00031 suncat0059 pw.x -in pw.inp   Done                     01/02/2019 04:39:50
00032 suncat0169 pw.x -in pw.inp   Done                     01/02/2019 04:39:50
00033 suncat0169 pw.x -in pw.inp   Done                     01/02/2019 04:39:50
00034 suncat0169 pw.x -in pw.inp   Done                     01/02/2019 04:39:50
00035 suncat0169 pw.x -in pw.inp   Done                     01/02/2019 04:39:50
00036 suncat0169 pw.x -in pw.inp   Done                     01/02/2019 04:39:50
00037 suncat0169 pw.x -in pw.inp   Done                     01/02/2019 04:39:50
00038 suncat0169 pw.x -in pw.inp   Done                     01/02/2019 04:39:50
00039 suncat0169 pw.x -in pw.inp   Done                     01/02/2019 04:39:50
00040 suncat0168 pw.x -in pw.inp   Done                     01/02/2019 04:39:50
00041 suncat0168 pw.x -in pw.inp   Done                     01/02/2019 04:39:50
00042 suncat0168 pw.x -in pw.inp   Done                     01/02/2019 04:39:50
00043 suncat0168 pw.x -in pw.inp   Done                     01/02/2019 04:39:50
00044 suncat0168 pw.x -in pw.inp   Done                     01/02/2019 04:39:50
00045 suncat0168 pw.x -in pw.inp   Done                     01/02/2019 04:39:50
00046 suncat0168 pw.x -in pw.inp   Done                     01/02/2019 04:39:50
00047 suncat0168 pw.x -in pw.inp   Done                     01/02/2019 04:39:50
00048 suncat0156 pw.x -in pw.inp   Done                     01/02/2019 04:39:50
00049 suncat0156 pw.x -in pw.inp   Done                     01/02/2019 04:39:50
00050 suncat0156 pw.x -in pw.inp   Done                     01/02/2019 04:39:50
00051 suncat0156 pw.x -in pw.inp   Done                     01/02/2019 04:39:50
00052 suncat0156 pw.x -in pw.inp   Done                     01/02/2019 04:39:50
00053 suncat0156 pw.x -in pw.inp   Done                     01/02/2019 04:39:50
00054 suncat0156 pw.x -in pw.inp   Done                     01/02/2019 04:39:50
00055 suncat0156 pw.x -in pw.inp   Done                     01/02/2019 04:39:50
00056 suncat0153 pw.x -in pw.inp   Done                     01/02/2019 04:39:50
00057 suncat0153 pw.x -in pw.inp   Done                     01/02/2019 04:39:50
00058 suncat0153 pw.x -in pw.inp   Done                     01/02/2019 04:39:50
00059 suncat0153 pw.x -in pw.inp   Done                     01/02/2019 04:39:50
00060 suncat0153 pw.x -in pw.inp   Done                     01/02/2019 04:39:50
00061 suncat0153 pw.x -in pw.inp   Done                     01/02/2019 04:39:50
00062 suncat0153 pw.x -in pw.inp   Done                     01/02/2019 04:39:50
00063 suncat0153 pw.x -in pw.inp   Done                     01/02/2019 04:39:50