     Program PWSCF v.5.1rc2 (svn rev. 11289) starts on 19Dec2018 at 18:20:24

     Current dimensions of program PWSCF are:
     Max number of different atomic species (ntypx) = 10
     Max number of k-points (npk) =  40000
     Max angular momentum in pseudopotentials (lmaxx) =  3
     Presently stress not available with electric field

     IMPORTANT: XC functional enforced from input :
     Exchange-correlation      = BEEF-VDW ( 1  4 27 13 2)
     Any further DFT definition will be discarded
     Please, verify this is what you really want

     Subspace diagonalization in iterative solution of the eigenvalue problem:
     a serial algorithm will be used

     bravais-lattice index     =            0
     lattice parameter (alat)  =       1.8897  a.u.
     unit-cell volume          =    4581.1162 (a.u.)^3
     number of atoms/cell      =           12
     number of atomic types    =            2
     number of electrons       =        66.00
     number of Kohn-Sham states=           63
     kinetic-energy cutoff     =      36.7493  Ry
     charge density cutoff     =     367.4932  Ry
     convergence threshold     =      1.0E-06
     mixing beta               =       0.1000
     number of iterations used =           10  plain     mixing
     Exchange-correlation      = BEEF-VDW ( 1  4 27 13 2)
     nstep                     =           50

     celldm(1)=   1.889726  celldm(2)=   0.000000  celldm(3)=   0.000000
     celldm(4)=   0.000000  celldm(5)=   0.000000  celldm(6)=   0.000000

     crystal axes: (cart. coord. in units of alat)
               a(1) = (   5.643931   0.000000   0.000000 )
               a(2) = (  -2.821965   4.887787   0.000000 )
               a(3) = (   0.000000   0.000000  24.608250 )

     reciprocal axes: (cart. coord. in units 2 pi/alat)
               b(1) = (  0.177181  0.102296  0.000000 )
               b(2) = (  0.000000  0.204592  0.000000 )
               b(3) = (  0.000000  0.000000  0.040637 )

     PseudoPot. # 1 for Al read from file:
     /afs/slac.stanford.edu/u/if/mamunm/psp/gbrv1.5pbe/Al.UPF
     MD5 check sum: 0a6289f5291fc8f409219462bc851e1f
     Pseudo is Ultrasoft + core correction, Zval =  3.0
     Generated by new atomic code, or converted to UPF format
     Using radial grid of  893 points,  3 beta functions with:
                l(1) =   0
                l(2) =   1
                l(3) =   2
     Q(r) pseudized with  8 coefficients,  rinner =    0.900   0.900   0.900
                                                       0.900   0.900

     PseudoPot. # 2 for Ta read from file:
     /afs/slac.stanford.edu/u/if/mamunm/psp/gbrv1.5pbe/Ta.UPF
     MD5 check sum: f8bbe9446314a3b8ea5d9f3e3836c939
     Pseudo is Ultrasoft + core correction, Zval = 13.0
     Generated by new atomic code, or converted to UPF format
     Using radial grid of  921 points,  7 beta functions with:
                l(1) =   0
                l(2) =   0
                l(3) =   1
                l(4) =   1
                l(5) =   2
                l(6) =   2
                l(7) =   3
     Q(r) pseudized with  6 coefficients,  rinner =    1.300   1.300   1.300
                                                       1.300   1.300   1.300
                                                       1.300

     vdW kernel table read from file vdW_kernel_table
     MD5 check sum: 095c7af220d748ca6e76c0b4c6cfb241

     atomic species   valence    mass     pseudopotential
        Al1            3.00    26.98154     Al( 1.00)
        Ta1           13.00   180.94788     Ta( 1.00)

     No symmetry found

   Cartesian axes

     site n.     atom                  positions (alat units)
         1           Al1 tau(   1) = (   0.0000000   0.0000000  10.0000000  )
         2           Al1 tau(   2) = (  -1.4109827   2.4438937  10.0000000  )
         3           Al1 tau(   3) = (   1.4109827   2.4438937  10.0000000  )
         4           Ta1 tau(   4) = (   2.8219654   0.0000000  10.0000000  )
         5           Al1 tau(   5) = (   2.8219654   1.6292625  12.3041251  )
         6           Al1 tau(   6) = (   1.4109827   4.0731561  12.3041251  )
         7           Al1 tau(   7) = (  -1.4109827   4.0731561  12.3041251  )
         8           Ta1 tau(   8) = (   0.0000000   1.6292625  12.3041251  )
         9           Al1 tau(   9) = (  -0.0000000   3.2585249  14.6082501  )
        10           Al1 tau(  10) = (   1.4109827   0.8146312  14.6082501  )
        11           Al1 tau(  11) = (   4.2329480   0.8146312  14.6082501  )
        12           Ta1 tau(  12) = (   2.8219654   3.2585249  14.6082501  )

     number of k points=    20  Fermi-Dirac smearing, width (Ry)=  0.0110
                       cart. coord. in units 2pi/alat
        k(    1) = (   0.0000000   0.0000000   0.0000000), wk =   0.0555556
        k(    2) = (   0.0000000   0.0340986   0.0000000), wk =   0.1111111
        k(    3) = (   0.0000000   0.0681972   0.0000000), wk =   0.1111111
        k(    4) = (   0.0000000  -0.1022958   0.0000000), wk =   0.0555556
        k(    5) = (   0.0295302   0.0170493   0.0000000), wk =   0.1111111
        k(    6) = (   0.0295302   0.0511479   0.0000000), wk =   0.1111111
        k(    7) = (   0.0295302   0.0852465   0.0000000), wk =   0.1111111
        k(    8) = (   0.0295302  -0.0852465   0.0000000), wk =   0.1111111
        k(    9) = (   0.0295302  -0.0511479   0.0000000), wk =   0.1111111
        k(   10) = (   0.0295302  -0.0170493   0.0000000), wk =   0.1111111
        k(   11) = (   0.0590605   0.0340986   0.0000000), wk =   0.1111111
        k(   12) = (   0.0590605   0.0681972   0.0000000), wk =   0.1111111
        k(   13) = (   0.0590605   0.1022958   0.0000000), wk =   0.1111111
        k(   14) = (   0.0590605  -0.0681972   0.0000000), wk =   0.1111111
        k(   15) = (   0.0590605  -0.0340986   0.0000000), wk =   0.1111111
        k(   16) = (   0.0590605   0.0000000   0.0000000), wk =   0.1111111
        k(   17) = (  -0.0885907  -0.0511479   0.0000000), wk =   0.0555556
        k(   18) = (  -0.0885907  -0.0170493   0.0000000), wk =   0.1111111
        k(   19) = (  -0.0885907   0.0170493   0.0000000), wk =   0.1111111
        k(   20) = (  -0.0885907  -0.1534437   0.0000000), wk =   0.0555556

     Largest allocated arrays     est. size (Mb)     dimensions
     Largest temporary arrays     est. size (Mb)     dimensions

     Initial potential from superposition of free atoms
     Check: negative starting charge=   -0.278065

     starting charge   65.97448, renormalised to   66.00000

     negative rho (up, down):  2.782E-01 0.000E+00

     *
     * You are using vdW-DF for exchange-correlation in this calculation.
     * Please cite the following three references that made this development
     * possible:
     *
     *   M. Dion, H. Rydberg, E. Schroder, D. C. Langreth, and
     *   B. I. Lundqvist, Phys. Rev. Lett. 92, 246401 (2004).
     *
     *   T. Thonhauser, V. R. Cooper, S. Li, A. Puzder, P. Hyldgaard, and
     *   D. C. Langreth, Phys. Rev. B 76, 125112 (2007).
     *
     *   G. Roman-Perez and J. M. Soler, Phys. Rev. Lett. 103, 096102 (2009).
     *
     *
     * If you are using vdW-DF2, please also cite:
     *
     *   K. Lee, E. D. Murray, L. Kong, B. I. Lundqvist, and
     *   D. C. Langreth, Phys. Rev. B 82, 081101(R) (2010).
     *
     *
     * If you are calculating the stress with vdW-DF, please also cite:
     *
     *   R. Sabatini, E. Kucukbenli, B. Kolb, T. Thonhauser, and
     *   S. de Gironcoli, J. Phys.: Condens. Matter 24, 424209 (2012).
     *

     Carrying out vdW-DF run using the following parameters:

     Nqs =      20    Nr_points =    1024   r_max =   100.000
     q_mesh =
               0.00001000     0.04494208     0.09755937     0.15916263
               0.23128650     0.31572767     0.41458969     0.53033537
               0.66584808     0.82450364     1.01025438     1.22772762
               1.48234092     1.78043706     2.12944203     2.53805004
               3.01644009     3.57652955     4.23227104     5.00000000

     Gradients computed in reciprocal space

     Adding external electric field

     Computed dipole along edir(3) :
        Dipole               -0.0000 Ry au,         -0.0000 Debye
        Dipole field         -0.0000 Ry au

        Potential amp.        0.0000 Ry
        Total length         45.3403 bohr

     Starting wfc are   75 randomized atomic wfcs

     Self-consistent Calculation

     iteration #  1     ecut=    36.75 Ry     beta=0.10
     Davidson diagonalization with overlap
     ethr =  1.00E-02,  avg # of iterations =  5.2

[...]

     total energy              =    -491.54505944 Ry
     Harris-Foulkes estimate   =    -491.74395951 Ry
     estimated scf accuracy    <       1.23363466 Ry

[...]

     End of self-consistent calculation

          k = 0.0000 0.0000 0.0000 ( 17303 PWs)   bands (ev):

   -68.7705 -68.7704 -68.5637 -35.2033 -35.2031 -35.0433 -35.0433 -35.0426
   -35.0426 -34.9537 -34.9537 -34.9493 -10.4176  -8.5547  -6.3766  -5.3177
    -5.3177  -4.5401  -4.4535  -4.4535  -3.8309  -3.8304  -3.8304  -2.9432
    -2.7906  -2.7906  -2.2388  -1.4273  -1.0513  -1.0513  -0.7155  -0.7155
    -0.2521  -0.2521   0.0246   0.0246   0.1664   0.7099   0.7371   1.2972
     1.2972   1.6720   1.8833   3.2963   3.2963   3.3164   3.3164   3.3803
     3.6935   4.1857   4.1857   4.2673   4.4640   4.6946   5.2304   5.2304
     5.2617   5.3720   5.7209   6.1029   6.1029   6.5117   6.7728

[...]

          k =-0.0886-0.0511 0.0000 ( 17272 PWs)   bands (ev):

[...]

     the Fermi energy is    -0.1701 ev

!    total energy              =    -491.57157354 Ry
     Harris-Foulkes estimate   =    -491.57157268 Ry
     estimated scf accuracy    <       0.00000056 Ry

     The total energy is the sum of the following terms:

     one-electron contribution =   -2391.22736112 Ry
     hartree contribution      =    1193.57354404 Ry
     xc contribution           =    -170.90104922 Ry
     ewald contribution        =     877.01742064 Ry
     electric field correction =       0.00000000 Ry
     smearing contrib. (-TS)   =      -0.03412787 Ry

     convergence has been achieved in  13 iterations

 BEEF-vdW xc energy contributions
           1 :   -148.055912878215
           2 :    134.637678119876
           3 :   -112.156462202395
           4 :    86.9782628144868
           5 :   -64.5204849295493
           6 :    47.4114752824243
           7 :   -35.4841318737511
           8 :    27.1070317883037
           9 :   -20.6915446608334
          10 :    15.4408815045987
          11 :   -11.2128903958639
          12 :    8.01061512783477
          13 :   -5.67220341175420
          14 :    3.92312706708964
          15 :   -2.56445346897539
          16 :    1.52610347015252
          17 :  -0.755942130442747
          18 :   0.121549993280240
          19 :   0.531496873861045
          20 :   -1.22741770956844
          21 :    1.80041358875053
          22 :   -2.02549410017937
          23 :    1.83666938583599
          24 :   -1.43120876254955
          25 :    1.15415745117917
          26 :   -1.25199562284442
          27 :    1.69554644958066
          28 :   -2.21265137700533
[...]

     crystal axes: (cart. coord. in units of alat)
               a(1) = (   5.643931   0.000000   0.000000 )
               a(2) = (  -2.821965   4.887787   0.000000 )
               a(3) = (   0.000000   0.000000  24.608250 )

     reciprocal axes: (cart. coord. in units 2 pi/alat)
               b(1) = (  0.177181  0.102296  0.000000 )
               b(2) = (  0.000000  0.204592  0.000000 )
               b(3) = (  0.000000  0.000000  0.040637 )

     PseudoPot. # 1 for Al read from file:
     /afs/slac.stanford.edu/u/if/mamunm/psp/gbrv1.5pbe/Al.UPF
     MD5 check sum: 0a6289f5291fc8f409219462bc851e1f
     Pseudo is Ultrasoft + core correction, Zval =  3.0
     Generated by new atomic code, or converted to UPF format
     Using radial grid of  893 points,  3 beta functions with:
                l(1) =   0
                l(2) =   1
                l(3) =   2
     Q(r) pseudized with  8 coefficients,  rinner =    0.900   0.900   0.900
                                                       0.900   0.900

     PseudoPot. # 2 for Ta read from file:
     /afs/slac.stanford.edu/u/if/mamunm/psp/gbrv1.5pbe/Ta.UPF
     MD5 check sum: f8bbe9446314a3b8ea5d9f3e3836c939
     Pseudo is Ultrasoft + core correction, Zval = 13.0
     Generated by new atomic code, or converted to UPF format
     Using radial grid of  921 points,  7 beta functions with:
                l(1) =   0
                l(2) =   0
                l(3) =   1
                l(4) =   1
                l(5) =   2
                l(6) =   2
                l(7) =   3
     Q(r) pseudized with  6 coefficients,  rinner =    1.300   1.300   1.300
                                                       1.300   1.300   1.300
                                                       1.300

     vdW kernel table read from file vdW_kernel_table
     MD5 check sum: 095c7af220d748ca6e76c0b4c6cfb241

     atomic species   valence    mass     pseudopotential
        Al1            3.00    26.98154     Al( 1.00)
        Ta1           13.00   180.94788     Ta( 1.00)

     No symmetry found

   Cartesian axes

     site n.     atom                  positions (alat units)
         1           Al1 tau(   1) = (   0.0000000   0.0000000  10.0000000  )
         2           Al1 tau(   2) = (  -1.4109827   2.4438937  10.0000000  )
         3           Al1 tau(   3) = (   1.4109827   2.4438937  10.0000000  )
         4           Ta1 tau(   4) = (   2.8219654   0.0000000  10.0000000  )
         5           Al1 tau(   5) = (   2.8219654   1.6292625  12.3041251  )
         6           Al1 tau(   6) = (   1.4109827   4.0731561  12.3041251  )
         7           Al1 tau(   7) = (  -1.4109827   4.0731561  12.3041251  )
         8           Ta1 tau(   8) = (   0.0000000   1.6292625  12.3041251  )
         9           Al1 tau(   9) = (   0.0000003   3.2556595  14.7735556  )
        10           Al1 tau(  10) = (   1.4085016   0.8160644  14.7735552  )
        11           Al1 tau(  11) = (   4.2354291   0.8160641  14.7735551  )
        12           Ta1 tau(  12) = (   2.8219652   3.2585233  14.4358762  )

     number of k points=    20  Fermi-Dirac smearing, width (Ry)=  0.0110
                       cart. coord. in units 2pi/alat
        k(    1) = (   0.0000000   0.0000000   0.0000000), wk =   0.0555556
        k(    2) = (   0.0000000   0.0340986   0.0000000), wk =   0.1111111
        k(    3) = (   0.0000000   0.0681972   0.0000000), wk =   0.1111111
        k(    4) = (   0.0000000  -0.1022958   0.0000000), wk =   0.0555556
        k(    5) = (   0.0295302   0.0170493   0.0000000), wk =   0.1111111
        k(    6) = (   0.0295302   0.0511479   0.0000000), wk =   0.1111111
        k(    7) = (   0.0295302   0.0852465   0.0000000), wk =   0.1111111
        k(    8) = (   0.0295302  -0.0852465   0.0000000), wk =   0.1111111
        k(    9) = (   0.0295302  -0.0511479   0.0000000), wk =   0.1111111
        k(   10) = (   0.0295302  -0.0170493   0.0000000), wk =   0.1111111
        k(   11) = (   0.0590605   0.0340986   0.0000000), wk =   0.1111111
        k(   12) = (   0.0590605   0.0681972   0.0000000), wk =   0.1111111
        k(   13) = (   0.0590605   0.1022958   0.0000000), wk =   0.1111111
        k(   14) = (   0.0590605  -0.0681972   0.0000000), wk =   0.1111111
        k(   15) = (   0.0590605  -0.0340986   0.0000000), wk =   0.1111111
        k(   16) = (   0.0590605   0.0000000   0.0000000), wk =   0.1111111
        k(   17) = (  -0.0885907  -0.0511479   0.0000000), wk =   0.0555556
        k(   18) = (  -0.0885907  -0.0170493   0.0000000), wk =   0.1111111
        k(   19) = (  -0.0885907   0.0170493   0.0000000), wk =   0.1111111
        k(   20) = (  -0.0885907  -0.1534437   0.0000000), wk =   0.0555556

     Largest allocated arrays     est. size (Mb)     dimensions
     Largest temporary arrays     est. size (Mb)     dimensions

     Initial potential from superposition of free atoms
     Check: negative starting charge=   -0.278002

     starting charge   65.97448, renormalised to   66.00000

[...]

     *
     * You are using vdW-DF for exchange-correlation in this calculation.
     * Please cite the following three references that made this development
     * possible:
     *
     *   M. Dion, H. Rydberg, E. Schroder, D. C. Langreth, and
     *   B. I. Lundqvist, Phys. Rev. Lett. 92, 246401 (2004).
     *
     *   T. Thonhauser, V. R. Cooper, S. Li, A. Puzder, P. Hyldgaard, and
     *   D. C. Langreth, Phys. Rev. B 76, 125112 (2007).
     *
     *   G. Roman-Perez and J. M. Soler, Phys. Rev. Lett. 103, 096102 (2009).
     *
     *
     * If you are using vdW-DF2, please also cite:
     *
     *   K. Lee, E. D. Murray, L. Kong, B. I. Lundqvist, and
     *   D. C. Langreth, Phys. Rev. B 82, 081101(R) (2010).
     *
     *
     * If you are calculating the stress with vdW-DF, please also cite:
     *
     *   R. Sabatini, E. Kucukbenli, B. Kolb, T. Thonhauser, and
     *   S. de Gironcoli, J. Phys.: Condens. Matter 24, 424209 (2012).
     *

     Carrying out vdW-DF run using the following parameters:

     Nqs =      20    Nr_points =    1024   r_max =   100.000
     q_mesh =
               0.00001000     0.04494208     0.09755937     0.15916263
               0.23128650     0.31572767     0.41458969     0.53033537
               0.66584808     0.82450364     1.01025438     1.22772762
               1.48234092     1.78043706     2.12944203     2.53805004
               3.01644009     3.57652955     4.23227104     5.00000000

     Gradients computed in reciprocal space

[...]

     Starting wfc are   75 randomized atomic wfcs

     Self-consistent Calculation

[...]

     total energy              =    -491.60617444 Ry
     Harris-Foulkes estimate   =    -491.60617394 Ry
     estimated scf accuracy    <       0.00000159 Ry

     iteration # 14     ecut=    36.75 Ry     beta=0.10
     Davidson diagonalization with overlap
     ethr =  2.40E-09,  avg # of iterations =  2.0

[...]

     negative rho (up, down):  2.918E-01 0.000E+00

     Adding external electric field

     Computed dipole along edir(3) :
        Dipole                0.0503 Ry au,          0.1279 Debye
        Dipole field          0.0001 Ry au

        Potential amp.       -0.0125 Ry
        Total length         45.3403 bohr

     End of self-consistent calculation

[...]

          k = 0.0591 0.0000 0.0000 ( 17230 PWs)   bands (ev):

[...]

          k =-0.0886-0.1534 0.0000 ( 17272 PWs)   bands (ev):

   -68.7334 -68.5652 -68.5437 -35.1827 -34.9948 -34.9944 -34.9452 -34.9373
   -34.9355 -34.9252 -34.8752 -34.8751  -8.6933  -8.5250  -7.1030  -6.7675
    -5.9482  -5.4503  -4.8251  -4.4699  -4.1957  -3.7917  -2.7761  -2.5938
    -2.0601  -2.0198  -1.9438  -1.7716  -1.5877  -0.9421  -0.8544  -0.4578
    -0.0326   0.5705   0.7875   1.0589   1.2561   1.2897   1.3669   1.6790
     1.9700   2.0109   2.5807   2.6543   2.6618   2.8658   3.5375   3.5549
     4.1181   4.2232   4.5096   4.7857   4.8639   4.8839   5.0288   5.1263
     5.3532   5.6953   5.7775   6.0425   6.0988   6.2062   6.4221

     the Fermi energy is    -0.1085 ev

!    total energy              =    -491.60617571 Ry
     Harris-Foulkes estimate   =    -491.60617469 Ry
     estimated scf accuracy    <       0.00000047 Ry

     The total energy is the sum of the following terms:

     one-electron contribution =   -2400.03133290 Ry
     hartree contribution      =    1198.09581397 Ry
     xc contribution           =    -170.83882086 Ry
     ewald contribution        =     881.19768348 Ry
     electric field correction =       0.00000695 Ry
     smearing contrib. (-TS)   =      -0.02952635 Ry

     convergence has been achieved in  14 iterations

 BEEF-vdW xc energy contributions
           1 :   -148.075969927423
           2 :    134.644738902111
           3 :   -112.144424189124
           4 :    86.9463609779026
           5 :   -64.4644287242027
           6 :    47.3187255717637
           7 :   -35.3412698234961
           8 :    26.9116735753404
           9 :   -20.4545956258854
          10 :    15.1755832561704
          11 :   -10.9230199054575
          12 :    7.69205156120921
          13 :   -5.32651586620409
          14 :    3.56620121127256
          15 :   -2.21784473954122
          16 :    1.19867506771587
          17 :  -0.436234355988375
          18 :  -0.207873028231717
          19 :   0.870286926338252
          20 :   -1.54965495664379
          21 :    2.07329074039163
          22 :   -2.23774645829107
          23 :    2.00914693719776
          24 :   -1.59853595630602
          25 :    1.33403775993179
          26 :   -1.43045420165629
          27 :    1.84136556587600
          28 :   -2.30711027392564
          29 :    2.55101652526807
          30 :   -2.46776853559624
          31 :   -15.1745523839334
          32 :   -11.2199775497135

     Forces acting on atoms (Ry/au):

     negative rho (up, down):  2.918E-01 0.000E+00
     atom    1 type  1   force =    -0.00000006    0.00088512   -0.03495154
     atom    2 type  1   force =     0.00076652   -0.00044265   -0.03495150
     atom    3 type  1   force =    -0.00076652   -0.00044257   -0.03495152
     atom    4 type  2   force =     0.00000028    0.00000008    0.09793289
     atom    5 type  1   force =    -0.00000001   -0.00868616   -0.00687640
     atom    6 type  1   force =    -0.00752231    0.00434297   -0.00687624
     atom    7 type  1   force =     0.00752232    0.00434297   -0.00687616
     atom    8 type  2   force =    -0.00000007    0.00000000    0.02573518
     atom    9 type  1   force =    -0.00000013   -0.00002372    0.00096299
     atom   10 type  1   force =    -0.00002071    0.00001147    0.00096302
     atom   11 type  1   force =     0.00002074    0.00001157    0.00096302
     atom   12 type  2   force =    -0.00000003    0.00000092   -0.00107374

     Total force =     0.119551     Total SCF correction =     0.000863

     entering subroutine stress ...

     negative rho (up, down):  2.918E-01 0.000E+00
          total   stress  (Ry/bohr**3)                   (kbar)     P=  -18.29
  -0.00018462  -0.00000000  -0.00000000        -27.16     -0.00     -0.00
  -0.00000000  -0.00018462  -0.00000000         -0.00    -27.16     -0.00
  -0.00000000  -0.00000000  -0.00000381         -0.00     -0.00     -0.56

 !ASE

     Writing output data file calc.save

     General routines

     Parallel routines

   This run was terminated on:  18:55:17  19Dec2018

   JOB DONE.
Job  /afs/slac/g/suncat/bin/suncat-tsmpirun -x LD_LIBRARY_PATH -wdir /scratch/qe773304_tCD9A pw.x -in pw.inp

TID   HOST_NAME   COMMAND_LINE            STATUS            TERMINATION_TIME
00000 suncat0013 pw.x -in pw.inp   Done                     12/19/2018 18:55:17
00001 suncat0013 pw.x -in pw.inp   Done                     12/19/2018 18:55:17
00002 suncat0013 pw.x -in pw.inp   Done                     12/19/2018 18:55:17
00003 suncat0013 pw.x -in pw.inp   Done                     12/19/2018 18:55:17
00004 suncat0013 pw.x -in pw.inp   Done                     12/19/2018 18:55:17
00005 suncat0013 pw.x -in pw.inp   Done                     12/19/2018 18:55:17
00006 suncat0013 pw.x -in pw.inp   Done                     12/19/2018 18:55:17
00007 suncat0013 pw.x -in pw.inp   Done                     12/19/2018 18:55:17
00008 suncat0199 pw.x -in pw.inp   Done                     12/19/2018 18:55:17
00009 suncat0199 pw.x -in pw.inp   Done                     12/19/2018 18:55:17
00010 suncat0199 pw.x -in pw.inp   Done                     12/19/2018 18:55:17
00011 suncat0199 pw.x -in pw.inp   Done                     12/19/2018 18:55:17
00012 suncat0199 pw.x -in pw.inp   Done                     12/19/2018 18:55:17
00013 suncat0199 pw.x -in pw.inp   Done                     12/19/2018 18:55:17
00014 suncat0199 pw.x -in pw.inp   Done                     12/19/2018 18:55:17
00015 suncat0199 pw.x -in pw.inp   Done                     12/19/2018 18:55:17
00016 suncat0010 pw.x -in pw.inp   Done                     12/19/2018 18:55:17
00017 suncat0010 pw.x -in pw.inp   Done                     12/19/2018 18:55:17
00018 suncat0010 pw.x -in pw.inp   Done                     12/19/2018 18:55:17
00019 suncat0010 pw.x -in pw.inp   Done                     12/19/2018 18:55:17
00020 suncat0010 pw.x -in pw.inp   Done                     12/19/2018 18:55:17
00021 suncat0010 pw.x -in pw.inp   Done                     12/19/2018 18:55:17
00022 suncat0010 pw.x -in pw.inp   Done                     12/19/2018 18:55:17
00023 suncat0010 pw.x -in pw.inp   Done                     12/19/2018 18:55:17
00024 suncat0198 pw.x -in pw.inp   Done                     12/19/2018 18:55:17
00025 suncat0198 pw.x -in pw.inp   Done                     12/19/2018 18:55:17
00026 suncat0198 pw.x -in pw.inp   Done                     12/19/2018 18:55:17
00027 suncat0198 pw.x -in pw.inp   Done                     12/19/2018 18:55:17
00028 suncat0198 pw.x -in pw.inp   Done                     12/19/2018 18:55:17
00029 suncat0198 pw.x -in pw.inp   Done                     12/19/2018 18:55:17
00030 suncat0198 pw.x -in pw.inp   Done                     12/19/2018 18:55:17
00031 suncat0198 pw.x -in pw.inp   Done                     12/19/2018 18:55:17
00032 suncat0196 pw.x -in pw.inp   Done                     12/19/2018 18:55:17
00033 suncat0196 pw.x -in pw.inp   Done                     12/19/2018 18:55:17
00034 suncat0196 pw.x -in pw.inp   Done                     12/19/2018 18:55:17
00035 suncat0196 pw.x -in pw.inp   Done                     12/19/2018 18:55:17
00036 suncat0196 pw.x -in pw.inp   Done                     12/19/2018 18:55:17
00037 suncat0196 pw.x -in pw.inp   Done                     12/19/2018 18:55:17
00038 suncat0196 pw.x -in pw.inp   Done                     12/19/2018 18:55:17
00039 suncat0196 pw.x -in pw.inp   Done                     12/19/2018 18:55:17
00040 suncat0195 pw.x -in pw.inp   Done                     12/19/2018 18:55:17
00041 suncat0195 pw.x -in pw.inp   Done                     12/19/2018 18:55:17
00042 suncat0195 pw.x -in pw.inp   Done                     12/19/2018 18:55:17
00043 suncat0195 pw.x -in pw.inp   Done                     12/19/2018 18:55:17
00044 suncat0195 pw.x -in pw.inp   Done                     12/19/2018 18:55:17
00045 suncat0195 pw.x -in pw.inp   Done                     12/19/2018 18:55:17
00046 suncat0195 pw.x -in pw.inp   Done                     12/19/2018 18:55:17
00047 suncat0195 pw.x -in pw.inp   Done                     12/19/2018 18:55:17
00048 suncat0194 pw.x -in pw.inp   Done                     12/19/2018 18:55:17
00049 suncat0194 pw.x -in pw.inp   Done                     12/19/2018 18:55:17
00050 suncat0194 pw.x -in pw.inp   Done                     12/19/2018 18:55:17
00051 suncat0194 pw.x -in pw.inp   Done                     12/19/2018 18:55:17
00052 suncat0194 pw.x -in pw.inp   Done                     12/19/2018 18:55:17
00053 suncat0194 pw.x -in pw.inp   Done                     12/19/2018 18:55:17
00054 suncat0194 pw.x -in pw.inp   Done                     12/19/2018 18:55:17
00055 suncat0194 pw.x -in pw.inp   Done                     12/19/2018 18:55:17
00056 suncat0193 pw.x -in pw.inp   Done                     12/19/2018 18:55:17
00057 suncat0193 pw.x -in pw.inp   Done                     12/19/2018 18:55:17
00058 suncat0193 pw.x -in pw.inp   Done                     12/19/2018 18:55:17
00059 suncat0193 pw.x -in pw.inp   Done                     12/19/2018 18:55:17
00060 suncat0193 pw.x -in pw.inp   Done                     12/19/2018 18:55:17
00061 suncat0193 pw.x -in pw.inp   Done                     12/19/2018 18:55:17
00062 suncat0193 pw.x -in pw.inp   Done                     12/19/2018 18:55:17
00063 suncat0193 pw.x -in pw.inp   Done                     12/19/2018 18:55:17