     Program PWSCF v.5.1rc2 (svn rev. 11289) starts on 25Dec2018 at 23:32: 4

     Current dimensions of program PWSCF are:
     Max number of different atomic species (ntypx) = 10
     Max number of k-points (npk) =  40000
     Max angular momentum in pseudopotentials (lmaxx) =  3
     Presently stress not available with electric field

     IMPORTANT: XC functional enforced from input :
     Exchange-correlation      = BEEF-VDW ( 1  4 27 13 2)
     Any further DFT definition will be discarded
     Please, verify this is what you really want

     Subspace diagonalization in iterative solution of the eigenvalue problem:
     a serial algorithm will be used

     bravais-lattice index     =            0
     lattice parameter (alat)  =       1.8897  a.u.
     unit-cell volume          =    4905.4864 (a.u.)^3
     number of atoms/cell      =           12
     number of atomic types    =            2
     number of electrons       =       207.00
     number of Kohn-Sham states=          133
     kinetic-energy cutoff     =      36.7493  Ry
     charge density cutoff     =     367.4932  Ry
     convergence threshold     =      1.0E-06
     mixing beta               =       0.1000
     number of iterations used =           10  plain     mixing
     Exchange-correlation      = BEEF-VDW ( 1  4 27 13 2)
     nstep                     =           50

     celldm(1)=   1.889726  celldm(2)=   0.000000  celldm(3)=   0.000000
     celldm(4)=   0.000000  celldm(5)=   0.000000  celldm(6)=   0.000000

     crystal axes: (cart. coord. in units of alat)
               a(1) = (   5.823048   0.000000   0.000000 )
               a(2) = (  -2.911524   5.042907   0.000000 )
               a(3) = (   0.000000   0.000000  24.754499 )

     reciprocal axes: (cart. coord. in units 2 pi/alat)
               b(1) = (  0.171731  0.099149  0.000000 )
               b(2) = (  0.000000  0.198298  0.000000 )
               b(3) = (  0.000000  0.000000  0.040397 )

     PseudoPot. # 1 for Ga read from file:
     /afs/slac.stanford.edu/u/if/mamunm/psp/gbrv1.5pbe/Ga.UPF
     MD5 check sum: ccd671392a58a050fbb373893b4fcd66
     Pseudo is Ultrasoft + core correction, Zval = 19.0
     Generated by new atomic code, or converted to UPF format
     Using radial grid of  871 points,  6 beta functions with:
                l(1) =   0
                l(2) =   0
                l(3) =   1
                l(4) =   1
                l(5) =   2
                l(6) =   2
     Q(r) pseudized with  8 coefficients,  rinner =    1.250   1.250   1.250
                                                       1.250   1.250

     PseudoPot. # 2 for Hf read from file:
     /afs/slac.stanford.edu/u/if/mamunm/psp/gbrv1.5pbe/Hf.UPF
     MD5 check sum: 8ee9378dfe14276e333edf04c5e4aa26
     Pseudo is Ultrasoft + core correction, Zval = 12.0
     Generated by new atomic code, or converted to UPF format
     Using radial grid of  921 points,  8 beta functions with:
                l(1) =   0
                l(2) =   0
                l(3) =   0
                l(4) =   1
                l(5) =   1
                l(6) =   2
                l(7) =   2
                l(8) =   3
     Q(r) pseudized with  6 coefficients,  rinner =    1.200   1.200   1.200
                                                       1.200   1.200   1.200
                                                       1.200

     vdW kernel table read from file vdW_kernel_table
     MD5 check sum: 095c7af220d748ca6e76c0b4c6cfb241

     atomic species   valence    mass     pseudopotential
        Ga1           19.00    69.72300     Ga( 1.00)
        Hf1           12.00   178.49000     Hf( 1.00)

     No symmetry found

   Cartesian axes

     site n.     atom                  positions (alat units)
         1           Ga1 tau(   1) = (   0.0000000   0.0000000  10.0000000  )
         2           Ga1 tau(   2) = (  -1.4557620   2.5214537  10.0000000  )
         3           Ga1 tau(   3) = (   1.4557620   2.5214537  10.0000000  )
         4           Hf1 tau(   4) = (   2.9115239   0.0000000  10.0000000  )
         5           Ga1 tau(   5) = (   2.9115239   1.6809691  12.3772493  )
         6           Ga1 tau(   6) = (   1.4557620   4.2024228  12.3772493  )
         7           Ga1 tau(   7) = (  -1.4557620   4.2024228  12.3772493  )
         8           Hf1 tau(   8) = (   0.0000000   1.6809691  12.3772493  )
         9           Ga1 tau(   9) = (  -0.0000000   3.3619382  14.7544986  )
        10           Ga1 tau(  10) = (   1.4557620   0.8404846  14.7544986  )
        11           Ga1 tau(  11) = (   4.3672859   0.8404846  14.7544986  )
        12           Hf1 tau(  12) = (   2.9115239   3.3619382  14.7544986  )

     number of k points=    20  Fermi-Dirac smearing, width (Ry)=  0.0110
                       cart. coord. in units 2pi/alat
        k(    1) = (   0.0000000   0.0000000   0.0000000), wk =   0.0555556
        k(    2) = (   0.0000000   0.0330497   0.0000000), wk =   0.1111111
        k(    3) = (   0.0000000   0.0660994   0.0000000), wk =   0.1111111
        k(    4) = (   0.0000000  -0.0991492   0.0000000), wk =   0.0555556
        k(    5) = (   0.0286219   0.0165249   0.0000000), wk =   0.1111111
        k(    6) = (   0.0286219   0.0495746   0.0000000), wk =   0.1111111
        k(    7) = (   0.0286219   0.0826243   0.0000000), wk =   0.1111111
        k(    8) = (   0.0286219  -0.0826243   0.0000000), wk =   0.1111111
        k(    9) = (   0.0286219  -0.0495746   0.0000000), wk =   0.1111111
        k(   10) = (   0.0286219  -0.0165249   0.0000000), wk =   0.1111111
        k(   11) = (   0.0572438   0.0330497   0.0000000), wk =   0.1111111
        k(   12) = (   0.0572438   0.0660994   0.0000000), wk =   0.1111111
        k(   13) = (   0.0572438   0.0991492   0.0000000), wk =   0.1111111
        k(   14) = (   0.0572438  -0.0660994   0.0000000), wk =   0.1111111
        k(   15) = (   0.0572438  -0.0330497   0.0000000), wk =   0.1111111
        k(   16) = (   0.0572438  -0.0000000   0.0000000), wk =   0.1111111
        k(   17) = (  -0.0858657  -0.0495746   0.0000000), wk =   0.0555556
        k(   18) = (  -0.0858657  -0.0165249   0.0000000), wk =   0.1111111
        k(   19) = (  -0.0858657   0.0165249   0.0000000), wk =   0.1111111
        k(   20) = (  -0.0858657  -0.1487237   0.0000000), wk =   0.0555556

     Largest allocated arrays     est. size (Mb)     dimensions
     Largest temporary arrays     est. size (Mb)     dimensions

     Check: negative/imaginary core charge=   -0.000002    0.000000

     Initial potential from superposition of free atoms
     Check: negative starting charge=   -0.323790

     starting charge  191.99999, renormalised to  207.00000

     negative rho (up, down):  3.491E-01 0.000E+00

     *
     * You are using vdW-DF for exchange-correlation in this calculation.
     * Please cite the following three references that made this development
     * possible:
     *
     *   M. Dion, H. Rydberg, E. Schroder, D. C. Langreth, and
     *   B. I. Lundqvist, Phys. Rev. Lett. 92, 246401 (2004).
     *
     *   T. Thonhauser, V. R. Cooper, S. Li, A. Puzder, P. Hyldgaard, and
     *   D. C. Langreth, Phys. Rev. B 76, 125112 (2007).
     *
     *   G. Roman-Perez and J. M. Soler, Phys. Rev. Lett. 103, 096102 (2009).
     *
     *
     * If you are using vdW-DF2, please also cite:
     *
     *   K. Lee, E. D. Murray, L. Kong, B. I. Lundqvist, and
     *   D. C. Langreth, Phys. Rev. B 82, 081101(R) (2010).
     *
     *
     * If you are calculating the stress with vdW-DF, please also cite:
     *
     *   R. Sabatini, E. Kucukbenli, B. Kolb, T. Thonhauser, and
     *   S. de Gironcoli, J. Phys.: Condens. Matter 24, 424209 (2012).
     *

     Carrying out vdW-DF run using the following parameters:

     Nqs =      20    Nr_points =    1024   r_max =   100.000
     q_mesh =
               0.00001000     0.04494208     0.09755937     0.15916263
               0.23128650     0.31572767     0.41458969     0.53033537
               0.66584808     0.82450364     1.01025438     1.22772762
               1.48234092     1.78043706     2.12944203     2.53805004
               3.01644009     3.57652955     4.23227104     5.00000000

     Gradients computed in reciprocal space

     Adding external electric field

     Computed dipole along edir(3) :
        Dipole                0.0000 Ry au,          0.0000 Debye
        Dipole field          0.0000 Ry au

        Potential amp.       -0.0000 Ry
        Total length         45.6097 bohr

     Starting wfc are  147 randomized atomic wfcs

     Self-consistent Calculation

     iteration #  1     ecut=    36.75 Ry     beta=0.10
     Davidson diagonalization with overlap
     ethr =  1.00E-02,  avg # of iterations =  7.8

[...]

     total energy              =   -3969.72390039 Ry
     Harris-Foulkes estimate   =   -4295.09636882 Ry
     estimated scf accuracy    <    1785.83251060 Ry

[...]

     End of self-consistent calculation

          k = 0.0000 0.0000 0.0000 ( 18511 PWs)   bands (ev):

   -93.8320 -93.8302 -93.8302 -93.7844 -93.7844 -93.7833 -93.7765 -93.7756
   -93.7756 -93.6175 -93.6175 -93.6160 -93.6160 -93.6160 -93.6160 -93.5842
   -93.5842 -93.5830 -93.5830 -93.5830 -93.5830 -93.5483 -93.5483 -93.5482
   -93.5482 -93.5472 -93.5471 -62.1544 -62.1535 -61.7819 -30.8058 -30.8043
   -30.5856 -30.5856 -30.5845 -30.5845 -30.3552 -30.3552 -30.3242 -14.3538
   -14.3104 -14.3104 -14.2970 -14.2259 -14.2064 -14.2064 -14.1568 -14.1568
   -14.1242 -14.1204 -14.1191 -14.1034 -14.1034 -14.0944 -14.0944 -14.0533
   -14.0533 -14.0290 -14.0279 -14.0279 -14.0023 -13.9721 -13.9593 -13.9593
   -13.9502 -13.9502 -13.9058 -13.9058 -13.8818 -13.8818 -13.8725 -13.8725
   -13.8668 -13.8668 -13.8594 -13.8557 -13.8557 -13.8388 -13.8388 -13.8209
   -13.8080 -13.8080 -13.7250 -13.7248  -9.6315  -7.8747  -5.8560  -4.7537
    -4.7537  -3.8595  -3.8595  -3.0379  -2.9685  -2.9685  -2.2271  -1.6797
    -1.4531  -1.4531  -0.9596   0.1748   0.3397   0.3397   0.3639   0.3639
     1.5241   1.5241   1.5258   1.5258   2.2819   2.5478   2.9924   3.2217
     3.2217   3.5318   3.7009   3.9989   3.9989   4.2080   4.2080   4.4071
     4.5899   4.9491   5.0273   5.0273   5.8265   5.8457   5.8457   6.0303
     6.1984   6.3519   6.4684   6.6759   6.6759

[...]

          k =-0.0859-0.0496 0.0000 ( 18412 PWs)   bands (ev):

[...]

     the Fermi energy is     0.8826 ev

!    total energy              =   -4231.15705173 Ry
     Harris-Foulkes estimate   =   -4231.18869067 Ry
     estimated scf accuracy    <       0.00000046 Ry

     The total energy is the sum of the following terms:

     one-electron contribution =  -24047.80769212 Ry
     hartree contribution      =   12027.25323012 Ry
     xc contribution           =    -680.05257897 Ry
     ewald contribution        =    8469.48560383 Ry
     electric field correction =       0.00000001 Ry
     smearing contrib. (-TS)   =      -0.03561460 Ry

     convergence has been achieved in  21 iterations

 BEEF-vdW xc energy contributions
           1 :   -609.732215585381
           2 :    558.686945691297
           3 :   -471.447693097195
           4 :    370.864154850159
[...]
                l(2) =   0
                l(3) =   1
                l(4) =   1
                l(5) =   2
                l(6) =   2
     Q(r) pseudized with  8 coefficients,  rinner =    1.250   1.250   1.250
                                                       1.250   1.250

     PseudoPot. # 2 for Hf read from file:
     /afs/slac.stanford.edu/u/if/mamunm/psp/gbrv1.5pbe/Hf.UPF
     MD5 check sum: 8ee9378dfe14276e333edf04c5e4aa26
     Pseudo is Ultrasoft + core correction, Zval = 12.0
     Generated by new atomic code, or converted to UPF format
     Using radial grid of  921 points,  8 beta functions with:
                l(1) =   0
                l(2) =   0
                l(3) =   0
                l(4) =   1
                l(5) =   1
                l(6) =   2
                l(7) =   2
                l(8) =   3
     Q(r) pseudized with  6 coefficients,  rinner =    1.200   1.200   1.200
                                                       1.200   1.200   1.200
                                                       1.200

     vdW kernel table read from file vdW_kernel_table
     MD5 check sum: 095c7af220d748ca6e76c0b4c6cfb241

     atomic species   valence    mass     pseudopotential
        Ga1           19.00    69.72300     Ga( 1.00)
        Hf1           12.00   178.49000     Hf( 1.00)

     No symmetry found

   Cartesian axes

     site n.     atom                  positions (alat units)
         1           Ga1 tau(   1) = (   0.0000000   0.0000000  10.0000000  )
         2           Ga1 tau(   2) = (  -1.4557620   2.5214537  10.0000000  )
         3           Ga1 tau(   3) = (   1.4557620   2.5214537  10.0000000  )
         4           Hf1 tau(   4) = (   2.9115239   0.0000000  10.0000000  )
         5           Ga1 tau(   5) = (   2.9115239   1.6809691  12.3772493  )
         6           Ga1 tau(   6) = (   1.4557620   4.2024228  12.3772493  )
         7           Ga1 tau(   7) = (  -1.4557620   4.2024228  12.3772493  )
         8           Hf1 tau(   8) = (   0.0000000   1.6809691  12.3772493  )
         9           Ga1 tau(   9) = (   0.0000020   3.3878897  14.9806210  )
        10           Ga1 tau(  10) = (   1.4782352   0.8275110  14.9806928  )
        11           Ga1 tau(  11) = (   4.3448205   0.8275168  14.9806712  )
        12           Hf1 tau(  12) = (   2.9115253   3.3619421  14.6013818  )

     number of k points=    20  Fermi-Dirac smearing, width (Ry)=  0.0110
                       cart. coord. in units 2pi/alat
        k(    1) = (   0.0000000   0.0000000   0.0000000), wk =   0.0555556
        k(    2) = (   0.0000000   0.0330497   0.0000000), wk =   0.1111111
        k(    3) = (   0.0000000   0.0660994   0.0000000), wk =   0.1111111
        k(    4) = (   0.0000000  -0.0991492   0.0000000), wk =   0.0555556
        k(    5) = (   0.0286219   0.0165249   0.0000000), wk =   0.1111111
        k(    6) = (   0.0286219   0.0495746   0.0000000), wk =   0.1111111
        k(    7) = (   0.0286219   0.0826243   0.0000000), wk =   0.1111111
        k(    8) = (   0.0286219  -0.0826243   0.0000000), wk =   0.1111111
        k(    9) = (   0.0286219  -0.0495746   0.0000000), wk =   0.1111111
        k(   10) = (   0.0286219  -0.0165249   0.0000000), wk =   0.1111111
        k(   11) = (   0.0572438   0.0330497   0.0000000), wk =   0.1111111
        k(   12) = (   0.0572438   0.0660994   0.0000000), wk =   0.1111111
        k(   13) = (   0.0572438   0.0991492   0.0000000), wk =   0.1111111
        k(   14) = (   0.0572438  -0.0660994   0.0000000), wk =   0.1111111
        k(   15) = (   0.0572438  -0.0330497   0.0000000), wk =   0.1111111
        k(   16) = (   0.0572438  -0.0000000   0.0000000), wk =   0.1111111
        k(   17) = (  -0.0858657  -0.0495746   0.0000000), wk =   0.0555556
        k(   18) = (  -0.0858657  -0.0165249   0.0000000), wk =   0.1111111
        k(   19) = (  -0.0858657   0.0165249   0.0000000), wk =   0.1111111
        k(   20) = (  -0.0858657  -0.1487237   0.0000000), wk =   0.0555556

     Largest allocated arrays     est. size (Mb)     dimensions
     Largest temporary arrays     est. size (Mb)     dimensions

     Check: negative/imaginary core charge=   -0.000002    0.000000

     Initial potential from superposition of free atoms
     Check: negative starting charge=   -0.322581

     starting charge  191.99999, renormalised to  207.00000

[...]

     *
     * You are using vdW-DF for exchange-correlation in this calculation.
     * Please cite the following three references that made this development
     * possible:
     *
     *   M. Dion, H. Rydberg, E. Schroder, D. C. Langreth, and
     *   B. I. Lundqvist, Phys. Rev. Lett. 92, 246401 (2004).
     *
     *   T. Thonhauser, V. R. Cooper, S. Li, A. Puzder, P. Hyldgaard, and
     *   D. C. Langreth, Phys. Rev. B 76, 125112 (2007).
     *
     *   G. Roman-Perez and J. M. Soler, Phys. Rev. Lett. 103, 096102 (2009).
     *
     *
     * If you are using vdW-DF2, please also cite:
     *
     *   K. Lee, E. D. Murray, L. Kong, B. I. Lundqvist, and
     *   D. C. Langreth, Phys. Rev. B 82, 081101(R) (2010).
     *
     *
     * If you are calculating the stress with vdW-DF, please also cite:
     *
     *   R. Sabatini, E. Kucukbenli, B. Kolb, T. Thonhauser, and
     *   S. de Gironcoli, J. Phys.: Condens. Matter 24, 424209 (2012).
     *

     Carrying out vdW-DF run using the following parameters:

     Nqs =      20    Nr_points =    1024   r_max =   100.000
     q_mesh =
               0.00001000     0.04494208     0.09755937     0.15916263
               0.23128650     0.31572767     0.41458969     0.53033537
               0.66584808     0.82450364     1.01025438     1.22772762
               1.48234092     1.78043706     2.12944203     2.53805004
               3.01644009     3.57652955     4.23227104     5.00000000

     Gradients computed in reciprocal space

[...]

     Starting wfc are  147 randomized atomic wfcs

     Self-consistent Calculation

[...]

     total energy              =   -4231.21689167 Ry
     Harris-Foulkes estimate   =   -4231.21689115 Ry
     estimated scf accuracy    <       0.00000231 Ry

     iteration # 22     ecut=    36.75 Ry     beta=0.10
     Davidson diagonalization with overlap
     ethr =  1.12E-09,  avg # of iterations =  2.0

[...]

     negative rho (up, down):  3.395E-01 0.000E+00

     Adding external electric field

     Computed dipole along edir(3) :
        Dipole                0.0057 Ry au,          0.0144 Debye
        Dipole field          0.0000 Ry au

        Potential amp.       -0.0013 Ry
        Total length         45.6097 bohr

     End of self-consistent calculation

[...]

          k = 0.0572-0.0000 0.0000 ( 18461 PWs)   bands (ev):

[...]

          k =-0.0859-0.1487 0.0000 ( 18412 PWs)   bands (ev):

   -93.7749 -93.7744 -93.7737 -93.7284 -93.7281 -93.7278 -93.7178 -93.7175
   -93.7172 -93.6770 -93.6766 -93.6762 -93.6485 -93.6478 -93.6473 -93.6153
   -93.6149 -93.6143 -93.5982 -93.5979 -93.5975 -93.5840 -93.5836 -93.5832
   -93.5474 -93.5471 -93.5468 -62.1272 -61.9418 -61.9241 -30.7764 -30.5731
   -30.5617 -30.5602 -30.4678 -30.4677 -30.4506 -30.4107 -30.4103 -14.2476
   -14.1922 -14.1786 -14.1530 -14.1381 -14.1323 -14.1251 -14.1192 -14.1158
   -14.1102 -14.1102 -14.0937 -14.0769 -14.0512 -14.0489 -14.0425 -14.0347
   -14.0255 -13.9992 -13.9970 -13.9944 -13.9775 -13.9730 -13.9683 -13.9627
   -13.9600 -13.9555 -13.9510 -13.9502 -13.9418 -13.9351 -13.9272 -13.9150
   -13.9119 -13.9082 -13.9067 -13.9012 -13.8971 -13.8907 -13.8891 -13.8604
   -13.8546 -13.8497 -13.8326 -13.7856  -8.0378  -7.7413  -6.3898  -6.1866
    -5.2766  -4.9677  -4.5073  -3.6355  -3.1528  -2.3557  -1.9430  -1.3648
    -0.7744  -0.5874  -0.4761  -0.1507   0.0426   0.4591   0.8205   1.1294
     1.5328   2.1346   2.4217   2.5633   2.7375   3.0082   3.0924   3.1544
     3.2578   3.6055   3.6850   3.7447   3.9421   4.0837   4.2892   4.3593
     4.6215   5.0317   5.3080   5.4591   5.5196   5.8902   5.8923   5.9743
     6.0419   6.0995   6.2965   6.5844   6.6756

     the Fermi energy is     0.8650 ev

!    total energy              =   -4231.21689395 Ry
     Harris-Foulkes estimate   =   -4231.21689174 Ry
     estimated scf accuracy    <       0.00000064 Ry

     The total energy is the sum of the following terms:

     one-electron contribution =  -23557.83225726 Ry
     hartree contribution      =   11782.24713500 Ry
     xc contribution           =    -679.98352670 Ry
     ewald contribution        =    8224.38506658 Ry
     electric field correction =       0.00000008 Ry
     smearing contrib. (-TS)   =      -0.03331165 Ry

     convergence has been achieved in  22 iterations

 BEEF-vdW xc energy contributions
           1 :   -610.568999094737
           2 :    559.468344344924
           3 :   -472.160298191356
           4 :    371.548434026513
           5 :   -278.884000215262
           6 :    206.315070293777
           7 :   -155.004571230960
           8 :    118.716621559075
           9 :   -89.9027341319156
          10 :    64.4292293598983
          11 :   -42.6126987121244
          12 :    26.8595363553713
          13 :   -18.2929613946294
          14 :    14.9659377149803
          15 :   -12.7657528993815
          16 :    8.04783736866318
          17 :   7.852026131138246E-002
          18 :   -9.44860716925348
          19 :    16.5962637318206
          20 :   -19.1953202750586
          21 :    17.4643797801945
          22 :   -13.7102109141454
          23 :    10.5541221688721
          24 :   -9.24402405507283
          25 :    9.21771778212565
          26 :   -9.05166657867517
          27 :    7.89668295147169
          28 :   -6.24326972993231
          29 :    5.47360673055550
          30 :   -6.63598830670674
          31 :   -44.5350953102569
          32 :   -30.9859877740473

     Forces acting on atoms (Ry/au):

     negative rho (up, down):  3.395E-01 0.000E+00
     atom    1 type  1   force =     0.00000156   -0.00705274   -0.02811345
     atom    2 type  1   force =    -0.00610642    0.00352751   -0.02810295
     atom    3 type  1   force =     0.00610588    0.00352644   -0.02810160
     atom    4 type  2   force =     0.00000034    0.00000036    0.06265975
     atom    5 type  1   force =    -0.00000123   -0.01043305   -0.00158408
     atom    6 type  1   force =    -0.00903205    0.00521542   -0.00158090
     atom    7 type  1   force =     0.00903232    0.00521711   -0.00158137
     atom    8 type  2   force =     0.00000006   -0.00000017    0.02518578
     atom    9 type  1   force =     0.00000015   -0.00079358    0.00049925
     atom   10 type  1   force =    -0.00068738    0.00039665    0.00049606
     atom   11 type  1   force =     0.00068735    0.00039670    0.00049522
     atom   12 type  2   force =    -0.00000059   -0.00000064   -0.00027173

     Total force =     0.086118     Total SCF correction =     0.006942

     entering subroutine stress ...

     negative rho (up, down):  3.395E-01 0.000E+00
          total   stress  (Ry/bohr**3)                   (kbar)     P=  -17.95
  -0.00018191  -0.00000000  -0.00000000        -26.76     -0.00     -0.00
  -0.00000000  -0.00018192  -0.00000000         -0.00    -26.76     -0.00
  -0.00000000  -0.00000000  -0.00000227         -0.00     -0.00     -0.33

 !ASE

     Writing output data file calc.save

     General routines

     Parallel routines

   This run was terminated on:   3: 0:16  26Dec2018

   JOB DONE.
Job  /afs/slac/g/suncat/bin/suncat-tsmpirun -x LD_LIBRARY_PATH -wdir /scratch/qe109674_etFDB pw.x -in pw.inp

TID   HOST_NAME   COMMAND_LINE            STATUS            TERMINATION_TIME
00000 suncat0044 pw.x -in pw.inp   Done                     12/26/2018 03:00:16
00001 suncat0044 pw.x -in pw.inp   Done                     12/26/2018 03:00:16
00002 suncat0044 pw.x -in pw.inp   Done                     12/26/2018 03:00:16
00003 suncat0044 pw.x -in pw.inp   Done                     12/26/2018 03:00:16
00004 suncat0044 pw.x -in pw.inp   Done                     12/26/2018 03:00:16
00005 suncat0044 pw.x -in pw.inp   Done                     12/26/2018 03:00:16
00006 suncat0044 pw.x -in pw.inp   Done                     12/26/2018 03:00:16
00007 suncat0044 pw.x -in pw.inp   Done                     12/26/2018 03:00:16
00008 suncat0038 pw.x -in pw.inp   Done                     12/26/2018 03:00:16
00009 suncat0038 pw.x -in pw.inp   Done                     12/26/2018 03:00:16
00010 suncat0038 pw.x -in pw.inp   Done                     12/26/2018 03:00:16
00011 suncat0038 pw.x -in pw.inp   Done                     12/26/2018 03:00:16
00012 suncat0038 pw.x -in pw.inp   Done                     12/26/2018 03:00:16
00013 suncat0038 pw.x -in pw.inp   Done                     12/26/2018 03:00:16
00014 suncat0038 pw.x -in pw.inp   Done                     12/26/2018 03:00:16
00015 suncat0038 pw.x -in pw.inp   Done                     12/26/2018 03:00:16
00016 suncat0037 pw.x -in pw.inp   Done                     12/26/2018 03:00:16
00017 suncat0037 pw.x -in pw.inp   Done                     12/26/2018 03:00:16
00018 suncat0037 pw.x -in pw.inp   Done                     12/26/2018 03:00:16
00019 suncat0037 pw.x -in pw.inp   Done                     12/26/2018 03:00:16
00020 suncat0037 pw.x -in pw.inp   Done                     12/26/2018 03:00:16
00021 suncat0037 pw.x -in pw.inp   Done                     12/26/2018 03:00:16
00022 suncat0037 pw.x -in pw.inp   Done                     12/26/2018 03:00:16
00023 suncat0037 pw.x -in pw.inp   Done                     12/26/2018 03:00:16
00024 suncat0036 pw.x -in pw.inp   Done                     12/26/2018 03:00:16
00025 suncat0036 pw.x -in pw.inp   Done                     12/26/2018 03:00:16
00026 suncat0036 pw.x -in pw.inp   Done                     12/26/2018 03:00:16
00027 suncat0036 pw.x -in pw.inp   Done                     12/26/2018 03:00:16
00028 suncat0036 pw.x -in pw.inp   Done                     12/26/2018 03:00:16
00029 suncat0036 pw.x -in pw.inp   Done                     12/26/2018 03:00:16
00030 suncat0036 pw.x -in pw.inp   Done                     12/26/2018 03:00:16
00031 suncat0036 pw.x -in pw.inp   Done                     12/26/2018 03:00:16
00032 suncat0035 pw.x -in pw.inp   Done                     12/26/2018 03:00:16
00033 suncat0035 pw.x -in pw.inp   Done                     12/26/2018 03:00:16
00034 suncat0035 pw.x -in pw.inp   Done                     12/26/2018 03:00:16
00035 suncat0035 pw.x -in pw.inp   Done                     12/26/2018 03:00:16
00036 suncat0035 pw.x -in pw.inp   Done                     12/26/2018 03:00:16
00037 suncat0035 pw.x -in pw.inp   Done                     12/26/2018 03:00:16
00038 suncat0035 pw.x -in pw.inp   Done                     12/26/2018 03:00:16
00039 suncat0035 pw.x -in pw.inp   Done                     12/26/2018 03:00:16
00040 suncat0033 pw.x -in pw.inp   Done                     12/26/2018 03:00:16
00041 suncat0033 pw.x -in pw.inp   Done                     12/26/2018 03:00:16
00042 suncat0033 pw.x -in pw.inp   Done                     12/26/2018 03:00:16
00043 suncat0033 pw.x -in pw.inp   Done                     12/26/2018 03:00:16
00044 suncat0033 pw.x -in pw.inp   Done                     12/26/2018 03:00:16
00045 suncat0033 pw.x -in pw.inp   Done                     12/26/2018 03:00:16
00046 suncat0033 pw.x -in pw.inp   Done                     12/26/2018 03:00:16
00047 suncat0033 pw.x -in pw.inp   Done                     12/26/2018 03:00:16
00048 suncat0032 pw.x -in pw.inp   Done                     12/26/2018 03:00:16
00049 suncat0032 pw.x -in pw.inp   Done                     12/26/2018 03:00:16
00050 suncat0032 pw.x -in pw.inp   Done                     12/26/2018 03:00:16
00051 suncat0032 pw.x -in pw.inp   Done                     12/26/2018 03:00:16
00052 suncat0032 pw.x -in pw.inp   Done                     12/26/2018 03:00:16
00053 suncat0032 pw.x -in pw.inp   Done                     12/26/2018 03:00:16
00054 suncat0032 pw.x -in pw.inp   Done                     12/26/2018 03:00:16
00055 suncat0032 pw.x -in pw.inp   Done                     12/26/2018 03:00:16
00056 suncat0019 pw.x -in pw.inp   Done                     12/26/2018 03:00:16
00057 suncat0019 pw.x -in pw.inp   Done                     12/26/2018 03:00:16
00058 suncat0019 pw.x -in pw.inp   Done                     12/26/2018 03:00:16
00059 suncat0019 pw.x -in pw.inp   Done                     12/26/2018 03:00:16
00060 suncat0019 pw.x -in pw.inp   Done                     12/26/2018 03:00:16
00061 suncat0019 pw.x -in pw.inp   Done                     12/26/2018 03:00:16
00062 suncat0019 pw.x -in pw.inp   Done                     12/26/2018 03:00:16
00063 suncat0019 pw.x -in pw.inp   Done                     12/26/2018 03:00:16