     Program PWSCF v.5.1rc2 (svn rev. 11289) starts on 19Dec2018 at  3:29: 4

     Current dimensions of program PWSCF are:
     Max number of different atomic species (ntypx) = 10
     Max number of k-points (npk) =  40000
     Max angular momentum in pseudopotentials (lmaxx) =  3
     Presently stress not available with electric field

     IMPORTANT: XC functional enforced from input :
     Exchange-correlation      = BEEF-VDW ( 1  4 27 13 2)
     Any further DFT definition will be discarded
     Please, verify this is what you really want

     Subspace diagonalization in iterative solution of the eigenvalue problem:
     a serial algorithm will be used

     Found symmetry operation: I + ( -0.5000  0.0000  0.0000)
     This is a supercell, fractional translations are disabled

     bravais-lattice index     =            0
     lattice parameter (alat)  =       1.8897  a.u.
     unit-cell volume          =    4397.6729 (a.u.)^3
     number of atoms/cell      =           12
     number of atomic types    =            2
     number of electrons       =       174.00
     number of Kohn-Sham states=          117
     kinetic-energy cutoff     =      36.7493  Ry
     charge density cutoff     =     367.4932  Ry
     convergence threshold     =      1.0E-06
     mixing beta               =       0.1000
     number of iterations used =           10  plain     mixing
     Exchange-correlation      = BEEF-VDW ( 1  4 27 13 2)
     nstep                     =           50

     celldm(1)=   1.889726  celldm(2)=   0.000000  celldm(3)=   0.000000
     celldm(4)=   0.000000  celldm(5)=   0.000000  celldm(6)=   0.000000

     crystal axes: (cart. coord. in units of alat)
               a(1) = (   5.520439   0.000000   0.000000 )
               a(2) = (  -2.760219   4.813750   0.000000 )
               a(3) = (   0.000000   0.000000  24.522749 )

     reciprocal axes: (cart. coord. in units 2 pi/alat)
               b(1) = (  0.181145  0.103869  0.000000 )
               b(2) = (  0.000000  0.207738  0.000000 )
               b(3) = (  0.000000  0.000000  0.040778 )

     PseudoPot. # 1 for Rh read from file:
     /afs/slac.stanford.edu/u/if/mamunm/psp/gbrv1.5pbe/Rh.UPF
     MD5 check sum: 761627e959a2e3a1f56b0b5fe687810e
     Pseudo is Ultrasoft + core correction, Zval = 15.0
     Generated by new atomic code, or converted to UPF format
     Using radial grid of  969 points,  7 beta functions with:
                l(1) =   0
                l(2) =   0
                l(3) =   1
                l(4) =   1
                l(5) =   2
                l(6) =   2
                l(7) =   2
     Q(r) pseudized with  8 coefficients,  rinner =    1.200   1.200   1.200
                                                       1.200   1.200

     PseudoPot. # 2 for W  read from file:
     /afs/slac.stanford.edu/u/if/mamunm/psp/gbrv1.5pbe/W.UPF
     MD5 check sum: 9c083fa34c2a2ea0f02f1f893e16e1c8
     Pseudo is Ultrasoft + core correction, Zval = 14.0
     Generated by new atomic code, or converted to UPF format
     Using radial grid of  923 points,  8 beta functions with:
                l(1) =   0
                l(2) =   0
                l(3) =   0
                l(4) =   1
                l(5) =   1
                l(6) =   2
                l(7) =   2
                l(8) =   3
     Q(r) pseudized with  6 coefficients,  rinner =    1.350   1.350   1.350
                                                       1.350   1.350   1.350
                                                       1.350

     vdW kernel table read from file vdW_kernel_table
     MD5 check sum: 095c7af220d748ca6e76c0b4c6cfb241

     atomic species   valence    mass     pseudopotential
        Rh1           15.00   102.90550     Rh( 1.00)
        W1            14.00   183.84000     W ( 1.00)

     No symmetry found

   Cartesian axes

     site n.     atom                  positions (alat units)
         1           Rh1 tau(   1) = (   0.0000000   0.0000000  10.0000000  )
         2           Rh1 tau(   2) = (   2.7602194   0.0000000  10.0000000  )
         3           W1  tau(   3) = (   1.3801097   2.4068752  10.0000000  )
         4           W1  tau(   4) = (  -1.3801097   2.4068752  10.0000000  )
         5           Rh1 tau(   5) = (   2.7602194   1.5827184  12.2613743  )
         6           Rh1 tau(   6) = (   0.0000000   1.5827184  12.2613743  )
         7           W1  tau(   7) = (  -1.3801097   3.9895936  12.2613743  )
         8           W1  tau(   8) = (   1.3801097   3.9895936  12.2613743  )
         9           Rh1 tau(   9) = (   0.0000000   3.1654368  14.5227486  )
        10           Rh1 tau(  10) = (   2.7602194   3.1654368  14.5227486  )
        11           W1  tau(  11) = (   4.1403291   0.7585616  14.5227486  )
        12           W1  tau(  12) = (   1.3801097   0.7585616  14.5227486  )

     number of k points=    20  Fermi-Dirac smearing, width (Ry)=  0.0110
                       cart. coord. in units 2pi/alat
        k(    1) = (   0.0000000   0.0000000   0.0000000), wk =   0.0555556
        k(    2) = (   0.0000000   0.0346230   0.0000000), wk =   0.1111111
        k(    3) = (   0.0000000   0.0692461   0.0000000), wk =   0.1111111
        k(    4) = (   0.0000000  -0.1038691   0.0000000), wk =   0.0555556
        k(    5) = (   0.0301908   0.0173115   0.0000000), wk =   0.1111111
        k(    6) = (   0.0301908   0.0519346   0.0000000), wk =   0.1111111
        k(    7) = (   0.0301908   0.0865576   0.0000000), wk =   0.1111111
        k(    8) = (   0.0301908  -0.0865576   0.0000000), wk =   0.1111111
        k(    9) = (   0.0301908  -0.0519346   0.0000000), wk =   0.1111111
        k(   10) = (   0.0301908  -0.0173115   0.0000000), wk =   0.1111111
        k(   11) = (   0.0603817   0.0346230   0.0000000), wk =   0.1111111
        k(   12) = (   0.0603817   0.0692461   0.0000000), wk =   0.1111111
        k(   13) = (   0.0603817   0.1038691   0.0000000), wk =   0.1111111
        k(   14) = (   0.0603817  -0.0692461   0.0000000), wk =   0.1111111
        k(   15) = (   0.0603817  -0.0346230   0.0000000), wk =   0.1111111
        k(   16) = (   0.0603817   0.0000000   0.0000000), wk =   0.1111111
        k(   17) = (  -0.0905725  -0.0519346   0.0000000), wk =   0.0555556
        k(   18) = (  -0.0905725  -0.0173115   0.0000000), wk =   0.1111111
        k(   19) = (  -0.0905725   0.0173115   0.0000000), wk =   0.1111111
        k(   20) = (  -0.0905725  -0.1558037   0.0000000), wk =   0.0555556

     Largest allocated arrays     est. size (Mb)     dimensions
     Largest temporary arrays     est. size (Mb)     dimensions

     Initial potential from superposition of free atoms
     Check: negative starting charge=   -0.708861

     starting charge  170.39737, renormalised to  174.00000

     negative rho (up, down):  7.238E-01 0.000E+00

     *
     * You are using vdW-DF for exchange-correlation in this calculation.
     * Please cite the following three references that made this development
     * possible:
     *
     *   M. Dion, H. Rydberg, E. Schroder, D. C. Langreth, and
     *   B. I. Lundqvist, Phys. Rev. Lett. 92, 246401 (2004).
     *
     *   T. Thonhauser, V. R. Cooper, S. Li, A. Puzder, P. Hyldgaard, and
     *   D. C. Langreth, Phys. Rev. B 76, 125112 (2007).
     *
     *   G. Roman-Perez and J. M. Soler, Phys. Rev. Lett. 103, 096102 (2009).
     *
     *
     * If you are using vdW-DF2, please also cite:
     *
     *   K. Lee, E. D. Murray, L. Kong, B. I. Lundqvist, and
     *   D. C. Langreth, Phys. Rev. B 82, 081101(R) (2010).
     *
     *
     * If you are calculating the stress with vdW-DF, please also cite:
     *
     *   R. Sabatini, E. Kucukbenli, B. Kolb, T. Thonhauser, and
     *   S. de Gironcoli, J. Phys.: Condens. Matter 24, 424209 (2012).
     *

     Carrying out vdW-DF run using the following parameters:

     Nqs =      20    Nr_points =    1024   r_max =   100.000
     q_mesh =
               0.00001000     0.04494208     0.09755937     0.15916263
               0.23128650     0.31572767     0.41458969     0.53033537
               0.66584808     0.82450364     1.01025438     1.22772762
               1.48234092     1.78043706     2.12944203     2.53805004
               3.01644009     3.57652955     4.23227104     5.00000000

     Gradients computed in reciprocal space

     Adding external electric field

     Computed dipole along edir(3) :
        Dipole                0.0000 Ry au,          0.0000 Debye
        Dipole field          0.0000 Ry au

        Potential amp.       -0.0000 Ry
        Total length         45.1827 bohr

     Starting wfc are  150 randomized atomic wfcs

     Self-consistent Calculation

     iteration #  1     ecut=    36.75 Ry     beta=0.10
     Davidson diagonalization with overlap
     ethr =  1.00E-02,  avg # of iterations =  5.5

[...]

     total energy              =   -1996.11171903 Ry
     Harris-Foulkes estimate   =   -1996.39812110 Ry
     estimated scf accuracy    <       2.02836643 Ry

[...]

     End of self-consistent calculation

          k = 0.0000 0.0000 0.0000 ( 16507 PWs)   bands (ev):

   -72.5122 -72.4712 -72.4630 -72.4604 -72.4207 -72.4127 -44.8760 -44.8357
   -44.8005 -44.7420 -44.7081 -44.5795 -44.3487 -44.3465 -44.3453 -44.3446
   -44.3136 -44.3093 -44.1859 -44.1708 -44.1570 -44.1411 -44.0516 -44.0515
   -36.9719 -36.8316 -36.7608 -36.7518 -36.7444 -36.6498 -36.6299 -36.5762
   -36.5667 -36.5576 -36.5287 -36.4977 -36.4540 -36.2670 -36.1957 -36.1924
   -35.9923 -35.9891  -5.6839  -3.9844  -3.7032  -3.4593  -3.3843  -3.3483
    -3.2130  -2.9832  -2.9025  -2.7176  -2.6717  -2.6028  -2.4998  -2.3128
    -2.3014  -1.2109  -1.1968  -1.1105  -0.7898  -0.6940  -0.5175  -0.3180
    -0.2140  -0.1964   0.0296   0.0378   0.2734   0.3832   0.4469   0.4574
     0.5612   0.7401   1.1046   1.1191   1.3689   1.3998   1.5224   1.5933
     1.6646   1.8222   2.1405   2.3783   2.5699   2.7262   2.8630   2.9341
     3.0411   3.1697   3.4526   3.6719   3.7345   4.1110   4.1127   4.1753
     4.1794   4.2830   4.4688   4.5479   4.5627   5.0779   5.2821   5.5153
     5.6652   5.6685   5.7880   5.9018   6.1613   6.2250   6.2370   6.5458
     6.5828   6.7714   6.8119   6.9723   7.5213

[...]

          k =-0.0906-0.0519 0.0000 ( 16550 PWs)   bands (ev):

[...]

     the Fermi energy is     2.1608 ev

!    total energy              =   -1995.79110904 Ry
     Harris-Foulkes estimate   =   -1995.79110770 Ry
     estimated scf accuracy    <       0.00000098 Ry

     The total energy is the sum of the following terms:

     one-electron contribution =  -16899.59233270 Ry
     hartree contribution      =    8460.79040268 Ry
     xc contribution           =    -441.12989425 Ry
     ewald contribution        =    6884.20914844 Ry
     electric field correction =       0.00000000 Ry
     smearing contrib. (-TS)   =      -0.06843321 Ry

     convergence has been achieved in  14 iterations

 BEEF-vdW xc energy contributions
           1 :   -386.612952757954
           2 :    356.834187730575
           3 :   -304.662969553649
           4 :    242.054236615039
           5 :   -181.399240581581
           6 :    131.805259579547
[...]
00030 suncat2057 pw.x -in pw.inp   Done                     12/19/2018 03:33:30
00031 suncat2057 pw.x -in pw.inp   Done                     12/19/2018 03:33:30

     Program PWSCF v.5.1rc2 (svn rev. 11289) starts on 19Dec2018 at  3:33:37

[...]

   This run was terminated on:   3:52: 2  19Dec2018

[...]

     Program PWSCF v.5.1rc2 (svn rev. 11289) starts on 19Dec2018 at  3:52:10

     Current dimensions of program PWSCF are:
     Max number of different atomic species (ntypx) = 10
     Max number of k-points (npk) =  40000
     Max angular momentum in pseudopotentials (lmaxx) =  3
     Presently stress not available with electric field

     IMPORTANT: XC functional enforced from input :
     Exchange-correlation      = BEEF-VDW ( 1  4 27 13 2)
     Any further DFT definition will be discarded
     Please, verify this is what you really want

     Subspace diagonalization in iterative solution of the eigenvalue problem:
     a serial algorithm will be used

     Found symmetry operation: I + ( -0.5000  0.0000  0.0000)
     This is a supercell, fractional translations are disabled

     bravais-lattice index     =            0
     lattice parameter (alat)  =       1.8897  a.u.
     unit-cell volume          =    4397.6729 (a.u.)^3
     number of atoms/cell      =           12
     number of atomic types    =            2
     number of electrons       =       174.00
     number of Kohn-Sham states=          117
     kinetic-energy cutoff     =      36.7493  Ry
     charge density cutoff     =     367.4932  Ry
     convergence threshold     =      1.0E-06
     mixing beta               =       0.1000
     number of iterations used =           10  plain     mixing
     Exchange-correlation      = BEEF-VDW ( 1  4 27 13 2)
     nstep                     =           50

     celldm(1)=   1.889726  celldm(2)=   0.000000  celldm(3)=   0.000000
     celldm(4)=   0.000000  celldm(5)=   0.000000  celldm(6)=   0.000000

     crystal axes: (cart. coord. in units of alat)
               a(1) = (   5.520439   0.000000   0.000000 )
               a(2) = (  -2.760219   4.813750   0.000000 )
               a(3) = (   0.000000   0.000000  24.522749 )

     reciprocal axes: (cart. coord. in units 2 pi/alat)
               b(1) = (  0.181145  0.103869  0.000000 )
               b(2) = (  0.000000  0.207738  0.000000 )
               b(3) = (  0.000000  0.000000  0.040778 )

     PseudoPot. # 1 for Rh read from file:
     /afs/slac.stanford.edu/u/if/mamunm/psp/gbrv1.5pbe/Rh.UPF
     MD5 check sum: 761627e959a2e3a1f56b0b5fe687810e
     Pseudo is Ultrasoft + core correction, Zval = 15.0
     Generated by new atomic code, or converted to UPF format
     Using radial grid of  969 points,  7 beta functions with:
                l(1) =   0
                l(2) =   0
                l(3) =   1
                l(4) =   1
                l(5) =   2
                l(6) =   2
                l(7) =   2
     Q(r) pseudized with  8 coefficients,  rinner =    1.200   1.200   1.200
                                                       1.200   1.200

     PseudoPot. # 2 for W  read from file:
     /afs/slac.stanford.edu/u/if/mamunm/psp/gbrv1.5pbe/W.UPF
     MD5 check sum: 9c083fa34c2a2ea0f02f1f893e16e1c8
     Pseudo is Ultrasoft + core correction, Zval = 14.0
     Generated by new atomic code, or converted to UPF format
     Using radial grid of  923 points,  8 beta functions with:
                l(1) =   0
                l(2) =   0
                l(3) =   0
                l(4) =   1
                l(5) =   1
                l(6) =   2
                l(7) =   2
                l(8) =   3
     Q(r) pseudized with  6 coefficients,  rinner =    1.350   1.350   1.350
                                                       1.350   1.350   1.350
                                                       1.350

     vdW kernel table read from file vdW_kernel_table
     MD5 check sum: 095c7af220d748ca6e76c0b4c6cfb241

     atomic species   valence    mass     pseudopotential
        Rh1           15.00   102.90550     Rh( 1.00)
        W1            14.00   183.84000     W ( 1.00)

     No symmetry found

   Cartesian axes

     site n.     atom                  positions (alat units)
         1           Rh1 tau(   1) = (   0.0000000   0.0000000  10.0000000  )
         2           Rh1 tau(   2) = (   2.7602194   0.0000000  10.0000000  )
         3           W1  tau(   3) = (   1.3801097   2.4068752  10.0000000  )
         4           W1  tau(   4) = (  -1.3801097   2.4068752  10.0000000  )
         5           Rh1 tau(   5) = (   2.7602194   1.5827184  12.2613743  )
         6           Rh1 tau(   6) = (   0.0000000   1.5827184  12.2613743  )
         7           W1  tau(   7) = (  -1.3801097   3.9895936  12.2613743  )
         8           W1  tau(   8) = (   1.3801097   3.9895936  12.2613743  )
         9           Rh1 tau(   9) = (   0.0000016   3.2451610  14.4678511  )
        10           Rh1 tau(  10) = (   2.7602175   3.2451619  14.4678510  )
        11           W1  tau(  11) = (   4.1403286   0.7881886  14.4086920  )
        12           W1  tau(  12) = (   1.3801082   0.7881899  14.4086923  )

     number of k points=    20  Fermi-Dirac smearing, width (Ry)=  0.0110
                       cart. coord. in units 2pi/alat
        k(    1) = (   0.0000000   0.0000000   0.0000000), wk =   0.0555556
        k(    2) = (   0.0000000   0.0346230   0.0000000), wk =   0.1111111
        k(    3) = (   0.0000000   0.0692461   0.0000000), wk =   0.1111111
        k(    4) = (   0.0000000  -0.1038691   0.0000000), wk =   0.0555556
        k(    5) = (   0.0301908   0.0173115   0.0000000), wk =   0.1111111
        k(    6) = (   0.0301908   0.0519346   0.0000000), wk =   0.1111111
        k(    7) = (   0.0301908   0.0865576   0.0000000), wk =   0.1111111
        k(    8) = (   0.0301908  -0.0865576   0.0000000), wk =   0.1111111
        k(    9) = (   0.0301908  -0.0519346   0.0000000), wk =   0.1111111
        k(   10) = (   0.0301908  -0.0173115   0.0000000), wk =   0.1111111
        k(   11) = (   0.0603817   0.0346230   0.0000000), wk =   0.1111111
        k(   12) = (   0.0603817   0.0692461   0.0000000), wk =   0.1111111
        k(   13) = (   0.0603817   0.1038691   0.0000000), wk =   0.1111111
        k(   14) = (   0.0603817  -0.0692461   0.0000000), wk =   0.1111111
        k(   15) = (   0.0603817  -0.0346230   0.0000000), wk =   0.1111111
        k(   16) = (   0.0603817   0.0000000   0.0000000), wk =   0.1111111
        k(   17) = (  -0.0905725  -0.0519346   0.0000000), wk =   0.0555556
        k(   18) = (  -0.0905725  -0.0173115   0.0000000), wk =   0.1111111
        k(   19) = (  -0.0905725   0.0173115   0.0000000), wk =   0.1111111
        k(   20) = (  -0.0905725  -0.1558037   0.0000000), wk =   0.0555556

     Largest allocated arrays     est. size (Mb)     dimensions
     Largest temporary arrays     est. size (Mb)     dimensions

     Initial potential from superposition of free atoms
     Check: negative starting charge=   -0.706691

     starting charge  170.39737, renormalised to  174.00000

[...]

     *
     * You are using vdW-DF for exchange-correlation in this calculation.
     * Please cite the following three references that made this development
     * possible:
     *
     *   M. Dion, H. Rydberg, E. Schroder, D. C. Langreth, and
     *   B. I. Lundqvist, Phys. Rev. Lett. 92, 246401 (2004).
     *
     *   T. Thonhauser, V. R. Cooper, S. Li, A. Puzder, P. Hyldgaard, and
     *   D. C. Langreth, Phys. Rev. B 76, 125112 (2007).
     *
     *   G. Roman-Perez and J. M. Soler, Phys. Rev. Lett. 103, 096102 (2009).
     *
     *
     * If you are using vdW-DF2, please also cite:
     *
     *   K. Lee, E. D. Murray, L. Kong, B. I. Lundqvist, and
     *   D. C. Langreth, Phys. Rev. B 82, 081101(R) (2010).
     *
     *
     * If you are calculating the stress with vdW-DF, please also cite:
     *
     *   R. Sabatini, E. Kucukbenli, B. Kolb, T. Thonhauser, and
     *   S. de Gironcoli, J. Phys.: Condens. Matter 24, 424209 (2012).
     *

     Carrying out vdW-DF run using the following parameters:

     Nqs =      20    Nr_points =    1024   r_max =   100.000
     q_mesh =
               0.00001000     0.04494208     0.09755937     0.15916263
               0.23128650     0.31572767     0.41458969     0.53033537
               0.66584808     0.82450364     1.01025438     1.22772762
               1.48234092     1.78043706     2.12944203     2.53805004
               3.01644009     3.57652955     4.23227104     5.00000000

     Gradients computed in reciprocal space

[...]

     Starting wfc are  150 randomized atomic wfcs

     Self-consistent Calculation

[...]

     total energy              =   -1995.80338247 Ry
     Harris-Foulkes estimate   =   -1995.80338224 Ry
     estimated scf accuracy    <       0.00000112 Ry

     iteration # 15     ecut=    36.75 Ry     beta=0.10
     Davidson diagonalization with overlap
     ethr =  6.42E-10,  avg # of iterations =  1.3

[...]

     negative rho (up, down):  7.429E-01 0.000E+00

     Adding external electric field

     Computed dipole along edir(3) :
        Dipole                0.0172 Ry au,          0.0436 Debye
        Dipole field          0.0000 Ry au

        Potential amp.       -0.0044 Ry
        Total length         45.1827 bohr

     End of self-consistent calculation

[...]

          k = 0.0604 0.0000 0.0000 ( 16504 PWs)   bands (ev):

[...]

          k =-0.0906-0.1558 0.0000 ( 16550 PWs)   bands (ev):

   -72.4676 -72.4676 -72.4427 -72.4427 -72.3717 -72.3717 -44.9131 -44.9131
   -44.8263 -44.8263 -44.7956 -44.7956 -44.3513 -44.3513 -44.3141 -44.3141
   -44.2384 -44.2384 -44.2014 -44.2014 -44.1859 -44.1858 -44.1486 -44.1486
   -36.8207 -36.8207 -36.6019 -36.6019 -36.5877 -36.5877 -36.5792 -36.5792
   -36.5125 -36.5125 -36.4785 -36.4785 -36.3884 -36.3884 -36.3458 -36.3458
   -36.1720 -36.1720  -3.9589  -3.9589  -2.7463  -2.7463  -2.5332  -2.5332
    -2.4912  -2.4912  -2.1507  -2.1507  -1.9227  -1.9227  -1.5882  -1.5882
    -1.4966  -1.4966  -1.1934  -1.1934  -0.8854  -0.8854  -0.7228  -0.7228
    -0.3190  -0.3190  -0.1650  -0.1650  -0.0275  -0.0275   0.0007   0.0007
     0.1630   0.1630   0.4154   0.4154   0.5821   0.5821   0.8313   0.8313
     1.0291   1.0291   1.3594   1.3594   1.8532   1.8532   2.2579   2.2579
     2.6208   2.6208   2.6879   2.6879   2.8454   2.8454   3.0358   3.0358
     3.1445   3.1445   3.6166   3.6166   4.0070   4.0070   4.7495   4.7495
     5.0980   5.0980   5.5329   5.5329   6.6453   6.6453   7.1918   7.1918
     7.4359   7.4359   8.2445   8.2445   8.7077

     the Fermi energy is     2.1710 ev

!    total energy              =   -1995.80338342 Ry
     Harris-Foulkes estimate   =   -1995.80338227 Ry
     estimated scf accuracy    <       0.00000073 Ry

     The total energy is the sum of the following terms:

     one-electron contribution =  -17102.01384901 Ry
     hartree contribution      =    8561.92973916 Ry
     xc contribution           =    -441.34165210 Ry
     ewald contribution        =    6985.68845263 Ry
     electric field correction =       0.00000084 Ry
     smearing contrib. (-TS)   =      -0.06607494 Ry

     convergence has been achieved in  15 iterations

 BEEF-vdW xc energy contributions
           1 :   -386.829024821657
           2 :    357.127263448649
           3 :   -305.059321299526
           4 :    242.506207952182
           5 :   -181.803756179087
           6 :    132.056122480174
           7 :   -97.1044487767973
           8 :    75.6450107729527
           9 :   -63.0963315219252
          10 :    54.1899046913044
          11 :   -45.1428598480721
          12 :    34.6514903701318
          13 :   -23.5876027046965
          14 :    13.8448057383233
          15 :   -7.03618212937039
          16 :    3.64615182818130
          17 :   -2.91054950400968
          18 :    3.32568924306435
          19 :   -3.43050384452835
          20 :    2.44675075361278
          21 :  -0.491745904942263
          22 :   -1.67765378294229
          23 :    3.19317129892971
          24 :   -3.57032195604717
          25 :    2.92727844193490
          26 :   -1.85874052145988
          27 :    1.07773461873438
          28 :   -1.03819287899256
          29 :    1.73386664483701
          30 :   -2.75692887858378
          31 :   -36.2977366500846
          32 :   -27.2652976776063

     Forces acting on atoms (Ry/au):

     negative rho (up, down):  7.429E-01 0.000E+00
     atom    1 type  1   force =    -0.00000005   -0.01799770    0.00867809
     atom    2 type  1   force =     0.00000004   -0.01799775    0.00867861
     atom    3 type  2   force =     0.00000027    0.01103583    0.02846008
     atom    4 type  2   force =    -0.00000026    0.01103544    0.02846043
     atom    5 type  1   force =    -0.00000006    0.00334020   -0.01748280
     atom    6 type  1   force =     0.00000000    0.00334002   -0.01748297
     atom    7 type  2   force =    -0.00000036    0.00316282   -0.02040085
     atom    8 type  2   force =     0.00000023    0.00316319   -0.02040129
     atom    9 type  1   force =    -0.00000135    0.00048326    0.00092168
     atom   10 type  1   force =     0.00000139    0.00048311    0.00092169
     atom   11 type  2   force =    -0.00000007   -0.00002379   -0.00017627
     atom   12 type  2   force =     0.00000022   -0.00002462   -0.00017640

     Total force =     0.064423     Total SCF correction =     0.003449

     entering subroutine stress ...

     negative rho (up, down):  7.429E-01 0.000E+00
          total   stress  (Ry/bohr**3)                   (kbar)     P=  -36.34
  -0.00024095  -0.00000000   0.00000000        -35.44     -0.00      0.00
  -0.00000000  -0.00031046   0.00001418         -0.00    -45.67      2.09
   0.00000000   0.00001418  -0.00018977          0.00      2.09    -27.92

 !ASE

     Writing output data file calc.save

     General routines

     Parallel routines

   This run was terminated on:   3:56:42  19Dec2018

   JOB DONE.
Job  /afs/slac/g/suncat/bin/suncat-tsmpirun -x LD_LIBRARY_PATH -wdir /scratch/qe530496_tXsil pw.x -in pw.inp

TID   HOST_NAME   COMMAND_LINE            STATUS            TERMINATION_TIME
00000 suncat2058 pw.x -in pw.inp   Done                     12/19/2018 03:56:42
00001 suncat2058 pw.x -in pw.inp   Done                     12/19/2018 03:56:42
00002 suncat2058 pw.x -in pw.inp   Done                     12/19/2018 03:56:42
00003 suncat2058 pw.x -in pw.inp   Done                     12/19/2018 03:56:42
00004 suncat2058 pw.x -in pw.inp   Done                     12/19/2018 03:56:42
00005 suncat2058 pw.x -in pw.inp   Done                     12/19/2018 03:56:42
00006 suncat2058 pw.x -in pw.inp   Done                     12/19/2018 03:56:42
00007 suncat2058 pw.x -in pw.inp   Done                     12/19/2018 03:56:42
00008 suncat2058 pw.x -in pw.inp   Done                     12/19/2018 03:56:42
00009 suncat2058 pw.x -in pw.inp   Done                     12/19/2018 03:56:42
00010 suncat2058 pw.x -in pw.inp   Done                     12/19/2018 03:56:42
00011 suncat2058 pw.x -in pw.inp   Done                     12/19/2018 03:56:42
00012 suncat2058 pw.x -in pw.inp   Done                     12/19/2018 03:56:42
00013 suncat2058 pw.x -in pw.inp   Done                     12/19/2018 03:56:42
00014 suncat2058 pw.x -in pw.inp   Done                     12/19/2018 03:56:42
00015 suncat2058 pw.x -in pw.inp   Done                     12/19/2018 03:56:42
00016 suncat2057 pw.x -in pw.inp   Done                     12/19/2018 03:56:42
00017 suncat2057 pw.x -in pw.inp   Done                     12/19/2018 03:56:42
00018 suncat2057 pw.x -in pw.inp   Done                     12/19/2018 03:56:42
00019 suncat2057 pw.x -in pw.inp   Done                     12/19/2018 03:56:42
00020 suncat2057 pw.x -in pw.inp   Done                     12/19/2018 03:56:42
00021 suncat2057 pw.x -in pw.inp   Done                     12/19/2018 03:56:42
00022 suncat2057 pw.x -in pw.inp   Done                     12/19/2018 03:56:42
00023 suncat2057 pw.x -in pw.inp   Done                     12/19/2018 03:56:42
00024 suncat2057 pw.x -in pw.inp   Done                     12/19/2018 03:56:42
00025 suncat2057 pw.x -in pw.inp   Done                     12/19/2018 03:56:42
00026 suncat2057 pw.x -in pw.inp   Done                     12/19/2018 03:56:42
00027 suncat2057 pw.x -in pw.inp   Done                     12/19/2018 03:56:42
00028 suncat2057 pw.x -in pw.inp   Done                     12/19/2018 03:56:42
00029 suncat2057 pw.x -in pw.inp   Done                     12/19/2018 03:56:42
00030 suncat2057 pw.x -in pw.inp   Done                     12/19/2018 03:56:42
00031 suncat2057 pw.x -in pw.inp   Done                     12/19/2018 03:56:42