     Program PWSCF v.5.1rc2 (svn rev. 11289) starts on  1Jan2019 at 23:35:10

     Current dimensions of program PWSCF are:
     Max number of different atomic species (ntypx) = 10
     Max number of k-points (npk) =  40000
     Max angular momentum in pseudopotentials (lmaxx) =  3
     Presently stress not available with electric field

     IMPORTANT: XC functional enforced from input :
     Exchange-correlation      = BEEF-VDW ( 1  4 27 13 2)
     Any further DFT definition will be discarded
     Please, verify this is what you really want

     Subspace diagonalization in iterative solution of the eigenvalue problem:
     a serial algorithm will be used

     bravais-lattice index     =            0
     lattice parameter (alat)  =       1.8897  a.u.
     unit-cell volume          =    4640.1469 (a.u.)^3
     number of atoms/cell      =           12
     number of atomic types    =            2
     number of electrons       =       156.00
     number of Kohn-Sham states=          108
     kinetic-energy cutoff     =      36.7493  Ry
     charge density cutoff     =     367.4932  Ry
     convergence threshold     =      1.0E-06
     mixing beta               =       0.1000
     number of iterations used =           10  plain     mixing
     Exchange-correlation      = BEEF-VDW ( 1  4 27 13 2)
     nstep                     =           50

     celldm(1)=   1.889726  celldm(2)=   0.000000  celldm(3)=   0.000000
     celldm(4)=   0.000000  celldm(5)=   0.000000  celldm(6)=   0.000000

     crystal axes: (cart. coord. in units of alat)
               a(1) = (   5.677058   0.000000   0.000000 )
               a(2) = (  -2.838529   4.916476   0.000000 )
               a(3) = (   0.000000   0.000000  24.635298 )

     reciprocal axes: (cart. coord. in units 2 pi/alat)
               b(1) = (  0.176148  0.101699  0.000000 )
               b(2) = (  0.000000  0.203398  0.000000 )
               b(3) = (  0.000000  0.000000  0.040592 )

     PseudoPot. # 1 for Ti read from file:
     /afs/slac.stanford.edu/u/if/mamunm/psp/gbrv1.5pbe/Ti.UPF
     MD5 check sum: 88a00a6731bd790ddea75d31a80cb452
     Pseudo is Ultrasoft + core correction, Zval = 12.0
     Generated by new atomic code, or converted to UPF format
     Using radial grid of  851 points,  6 beta functions with:
                l(1) =   0
                l(2) =   0
                l(3) =   1
                l(4) =   1
                l(5) =   2
                l(6) =   2
     Q(r) pseudized with  6 coefficients,  rinner =    1.000   1.000   1.000
                                                       1.000   1.000

     PseudoPot. # 2 for Ru read from file:
     /afs/slac.stanford.edu/u/if/mamunm/psp/gbrv1.5pbe/Ru.UPF
     MD5 check sum: 7158a806dd851261a58e6920c40ebe78
     Pseudo is Ultrasoft + core correction, Zval = 16.0
     Generated by new atomic code, or converted to UPF format
     Using radial grid of  967 points,  6 beta functions with:
                l(1) =   0
                l(2) =   0
                l(3) =   1
                l(4) =   1
                l(5) =   2
                l(6) =   2
     Q(r) pseudized with  8 coefficients,  rinner =    1.300   1.300   1.300
                                                       1.300   1.300

     vdW kernel table read from file vdW_kernel_table
     MD5 check sum: 095c7af220d748ca6e76c0b4c6cfb241

     atomic species   valence    mass     pseudopotential
        Ti1           12.00    47.86700     Ti( 1.00)
        Ru1           16.00   101.07000     Ru( 1.00)

     No symmetry found

   Cartesian axes

     site n.     atom                  positions (alat units)
         1           Ti1 tau(   1) = (   0.0000000   0.0000000  10.0000000  )
         2           Ti1 tau(   2) = (  -1.4192645   2.4582382  10.0000000  )
         3           Ti1 tau(   3) = (   1.4192645   2.4582382  10.0000000  )
         4           Ru1 tau(   4) = (   2.8385290   0.0000000  10.0000000  )
         5           Ti1 tau(   5) = (   2.8385290   1.6388255  12.3176492  )
         6           Ti1 tau(   6) = (   1.4192645   4.0970637  12.3176492  )
         7           Ti1 tau(   7) = (  -1.4192645   4.0970637  12.3176492  )
         8           Ru1 tau(   8) = (   0.0000000   1.6388255  12.3176492  )
         9           Ti1 tau(   9) = (  -0.0000000   3.2776510  14.6352985  )
        10           Ti1 tau(  10) = (   1.4192645   0.8194127  14.6352985  )
        11           Ti1 tau(  11) = (   4.2577935   0.8194127  14.6352985  )
        12           Ru1 tau(  12) = (   2.8385290   3.2776510  14.6352985  )

     number of k points=    20  Fermi-Dirac smearing, width (Ry)=  0.0110
                       cart. coord. in units 2pi/alat
        k(    1) = (   0.0000000   0.0000000   0.0000000), wk =   0.0555556
        k(    2) = (   0.0000000   0.0338996   0.0000000), wk =   0.1111111
        k(    3) = (   0.0000000   0.0677992   0.0000000), wk =   0.1111111
        k(    4) = (   0.0000000  -0.1016988   0.0000000), wk =   0.0555556
        k(    5) = (   0.0293579   0.0169498   0.0000000), wk =   0.1111111
        k(    6) = (   0.0293579   0.0508494   0.0000000), wk =   0.1111111
        k(    7) = (   0.0293579   0.0847490   0.0000000), wk =   0.1111111
        k(    8) = (   0.0293579  -0.0847490   0.0000000), wk =   0.1111111
        k(    9) = (   0.0293579  -0.0508494   0.0000000), wk =   0.1111111
        k(   10) = (   0.0293579  -0.0169498   0.0000000), wk =   0.1111111
        k(   11) = (   0.0587159   0.0338996   0.0000000), wk =   0.1111111
        k(   12) = (   0.0587159   0.0677992   0.0000000), wk =   0.1111111
        k(   13) = (   0.0587159   0.1016988   0.0000000), wk =   0.1111111
        k(   14) = (   0.0587159  -0.0677992   0.0000000), wk =   0.1111111
        k(   15) = (   0.0587159  -0.0338996   0.0000000), wk =   0.1111111
        k(   16) = (   0.0587159   0.0000000   0.0000000), wk =   0.1111111
        k(   17) = (  -0.0880738  -0.0508494   0.0000000), wk =   0.0555556
        k(   18) = (  -0.0880738  -0.0169498   0.0000000), wk =   0.1111111
        k(   19) = (  -0.0880738   0.0169498   0.0000000), wk =   0.1111111
        k(   20) = (  -0.0880738  -0.1525483   0.0000000), wk =   0.0555556

     Largest allocated arrays     est. size (Mb)     dimensions
     Largest temporary arrays     est. size (Mb)     dimensions

     Check: negative/imaginary core charge=   -0.000006    0.000000

     Initial potential from superposition of free atoms
     Check: negative starting charge=   -0.228382

     starting charge  143.99956, renormalised to  156.00000

     negative rho (up, down):  2.474E-01 0.000E+00

     *
     * You are using vdW-DF for exchange-correlation in this calculation.
     * Please cite the following three references that made this development
     * possible:
     *
     *   M. Dion, H. Rydberg, E. Schroder, D. C. Langreth, and
     *   B. I. Lundqvist, Phys. Rev. Lett. 92, 246401 (2004).
     *
     *   T. Thonhauser, V. R. Cooper, S. Li, A. Puzder, P. Hyldgaard, and
     *   D. C. Langreth, Phys. Rev. B 76, 125112 (2007).
     *
     *   G. Roman-Perez and J. M. Soler, Phys. Rev. Lett. 103, 096102 (2009).
     *
     *
     * If you are using vdW-DF2, please also cite:
     *
     *   K. Lee, E. D. Murray, L. Kong, B. I. Lundqvist, and
     *   D. C. Langreth, Phys. Rev. B 82, 081101(R) (2010).
     *
     *
     * If you are calculating the stress with vdW-DF, please also cite:
     *
     *   R. Sabatini, E. Kucukbenli, B. Kolb, T. Thonhauser, and
     *   S. de Gironcoli, J. Phys.: Condens. Matter 24, 424209 (2012).
     *

     Carrying out vdW-DF run using the following parameters:

     Nqs =      20    Nr_points =    1024   r_max =   100.000
     q_mesh =
               0.00001000     0.04494208     0.09755937     0.15916263
               0.23128650     0.31572767     0.41458969     0.53033537
               0.66584808     0.82450364     1.01025438     1.22772762
               1.48234092     1.78043706     2.12944203     2.53805004
               3.01644009     3.57652955     4.23227104     5.00000000

     Gradients computed in reciprocal space

     Adding external electric field

     Computed dipole along edir(3) :
        Dipole                0.0000 Ry au,          0.0000 Debye
        Dipole field          0.0000 Ry au

        Potential amp.       -0.0000 Ry
        Total length         45.3901 bohr

     Starting wfc are  129 randomized atomic wfcs

     Self-consistent Calculation

     iteration #  1     ecut=    36.75 Ry     beta=0.10
     Davidson diagonalization with overlap
     ethr =  1.00E-02,  avg # of iterations =  4.4

[...]

     total energy              =   -1663.79299683 Ry
     Harris-Foulkes estimate   =   -1670.52372934 Ry
     estimated scf accuracy    <      38.48952671 Ry

[...]

     End of self-consistent calculation

          k = 0.0000 0.0000 0.0000 ( 17531 PWs)   bands (ev):

   -71.2797 -70.9809 -70.9808 -55.9034 -55.8928 -55.8175 -55.8175 -55.8149
   -55.8149 -55.7662 -55.6961 -55.6961 -41.2390 -41.2390 -41.2328 -40.9727
   -40.9727 -40.9721 -40.9721 -40.9150 -40.9124 -32.3880 -32.3335 -32.2953
   -32.2436 -32.2436 -32.2383 -32.2223 -32.2223 -32.1870 -32.1837 -32.1837
   -32.1178 -32.1178 -32.0078 -32.0078 -31.9510 -31.9227 -31.8556 -31.8494
   -31.8494 -31.7848 -31.7804 -31.7804 -31.7751 -31.7751 -31.7008 -31.7008
    -4.4968  -3.1240  -2.3088  -2.1877  -2.1877  -1.9485  -1.9485  -1.5219
    -1.5219  -1.4999  -1.4590  -1.4364  -1.4364  -1.2081  -0.8479  -0.6957
    -0.6957  -0.1160  -0.0513  -0.0513   0.2992   0.4890   0.9860   1.2352
     1.3186   1.3646   1.3646   1.4901   1.4901   1.5486   1.5486   1.6886
     1.6886   1.7197   1.7197   1.8107   1.9625   2.1453   2.3240   2.3241
     2.3685   2.3685   2.7958   2.7958   2.9808   3.0879   3.2251   3.2290
     3.2290   3.4984   3.4984   3.6637   3.6637   3.9738   3.9738   4.0843
     4.0843   4.2594   4.2942   4.2945

[...]

          k =-0.0881-0.0508 0.0000 ( 17444 PWs)   bands (ev):

[...]

     the Fermi energy is     1.2380 ev

!    total energy              =   -1664.37443504 Ry
     Harris-Foulkes estimate   =   -1664.37443422 Ry
     estimated scf accuracy    <       0.00000030 Ry

     The total energy is the sum of the following terms:

     one-electron contribution =  -13140.71516190 Ry
     hartree contribution      =    6559.25659613 Ry
     xc contribution           =    -249.05197116 Ry
     ewald contribution        =    5166.27003363 Ry
     electric field correction =       0.00000000 Ry
     smearing contrib. (-TS)   =      -0.13393174 Ry

     convergence has been achieved in  22 iterations

 BEEF-vdW xc energy contributions
           1 :   -214.650554259432
           2 :    193.455177914474
           3 :   -158.136934482059
           4 :    119.225219327543
           5 :   -85.8847663822571
           6 :    62.5411961285947
           7 :   -48.4564265711020
           8 :    39.7971783012298
           9 :   -32.5313296723670
          10 :    24.4453688283626
          11 :   -15.5293977231943
          12 :    7.03629247386786
          13 :  -0.167358074250899
          14 :   -4.73190619020585
[...]

     PseudoPot. # 1 for Ti read from file:
     /afs/slac.stanford.edu/u/if/mamunm/psp/gbrv1.5pbe/Ti.UPF
     MD5 check sum: 88a00a6731bd790ddea75d31a80cb452
     Pseudo is Ultrasoft + core correction, Zval = 12.0
     Generated by new atomic code, or converted to UPF format
     Using radial grid of  851 points,  6 beta functions with:
                l(1) =   0
                l(2) =   0
                l(3) =   1
                l(4) =   1
                l(5) =   2
                l(6) =   2
     Q(r) pseudized with  6 coefficients,  rinner =    1.000   1.000   1.000
                                                       1.000   1.000

     PseudoPot. # 2 for Ru read from file:
     /afs/slac.stanford.edu/u/if/mamunm/psp/gbrv1.5pbe/Ru.UPF
     MD5 check sum: 7158a806dd851261a58e6920c40ebe78
     Pseudo is Ultrasoft + core correction, Zval = 16.0
     Generated by new atomic code, or converted to UPF format
     Using radial grid of  967 points,  6 beta functions with:
                l(1) =   0
                l(2) =   0
                l(3) =   1
                l(4) =   1
                l(5) =   2
                l(6) =   2
     Q(r) pseudized with  8 coefficients,  rinner =    1.300   1.300   1.300
                                                       1.300   1.300

     vdW kernel table read from file vdW_kernel_table
     MD5 check sum: 095c7af220d748ca6e76c0b4c6cfb241

     atomic species   valence    mass     pseudopotential
        Ti1           12.00    47.86700     Ti( 1.00)
        Ru1           16.00   101.07000     Ru( 1.00)

     No symmetry found

   Cartesian axes

     site n.     atom                  positions (alat units)
         1           Ti1 tau(   1) = (   0.0000000   0.0000000  10.0000000  )
         2           Ti1 tau(   2) = (  -1.4192645   2.4582382  10.0000000  )
         3           Ti1 tau(   3) = (   1.4192645   2.4582382  10.0000000  )
         4           Ru1 tau(   4) = (   2.8385290   0.0000000  10.0000000  )
         5           Ti1 tau(   5) = (   2.8385290   1.6388255  12.3176492  )
         6           Ti1 tau(   6) = (   1.4192645   4.0970637  12.3176492  )
         7           Ti1 tau(   7) = (  -1.4192645   4.0970637  12.3176492  )
         8           Ru1 tau(   8) = (   0.0000000   1.6388255  12.3176492  )
         9           Ti1 tau(   9) = (  -0.0000057   3.2379026  14.6355617  )
        10           Ti1 tau(  10) = (   1.3848683   0.8392507  14.6356162  )
        11           Ti1 tau(  11) = (   4.2921888   0.8392575  14.6356087  )
        12           Ru1 tau(  12) = (   2.8385112   3.2776349  14.2937352  )

     number of k points=    20  Fermi-Dirac smearing, width (Ry)=  0.0110
                       cart. coord. in units 2pi/alat
        k(    1) = (   0.0000000   0.0000000   0.0000000), wk =   0.0555556
        k(    2) = (   0.0000000   0.0338996   0.0000000), wk =   0.1111111
        k(    3) = (   0.0000000   0.0677992   0.0000000), wk =   0.1111111
        k(    4) = (   0.0000000  -0.1016988   0.0000000), wk =   0.0555556
        k(    5) = (   0.0293579   0.0169498   0.0000000), wk =   0.1111111
        k(    6) = (   0.0293579   0.0508494   0.0000000), wk =   0.1111111
        k(    7) = (   0.0293579   0.0847490   0.0000000), wk =   0.1111111
        k(    8) = (   0.0293579  -0.0847490   0.0000000), wk =   0.1111111
        k(    9) = (   0.0293579  -0.0508494   0.0000000), wk =   0.1111111
        k(   10) = (   0.0293579  -0.0169498   0.0000000), wk =   0.1111111
        k(   11) = (   0.0587159   0.0338996   0.0000000), wk =   0.1111111
        k(   12) = (   0.0587159   0.0677992   0.0000000), wk =   0.1111111
        k(   13) = (   0.0587159   0.1016988   0.0000000), wk =   0.1111111
        k(   14) = (   0.0587159  -0.0677992   0.0000000), wk =   0.1111111
        k(   15) = (   0.0587159  -0.0338996   0.0000000), wk =   0.1111111
        k(   16) = (   0.0587159   0.0000000   0.0000000), wk =   0.1111111
        k(   17) = (  -0.0880738  -0.0508494   0.0000000), wk =   0.0555556
        k(   18) = (  -0.0880738  -0.0169498   0.0000000), wk =   0.1111111
        k(   19) = (  -0.0880738   0.0169498   0.0000000), wk =   0.1111111
        k(   20) = (  -0.0880738  -0.1525483   0.0000000), wk =   0.0555556

     Largest allocated arrays     est. size (Mb)     dimensions
     Largest temporary arrays     est. size (Mb)     dimensions

     Check: negative/imaginary core charge=   -0.000006    0.000000

     Initial potential from superposition of free atoms
     Check: negative starting charge=   -0.229279

     starting charge  143.99956, renormalised to  156.00000

[...]

     *
     * You are using vdW-DF for exchange-correlation in this calculation.
     * Please cite the following three references that made this development
     * possible:
     *
     *   M. Dion, H. Rydberg, E. Schroder, D. C. Langreth, and
     *   B. I. Lundqvist, Phys. Rev. Lett. 92, 246401 (2004).
     *
     *   T. Thonhauser, V. R. Cooper, S. Li, A. Puzder, P. Hyldgaard, and
     *   D. C. Langreth, Phys. Rev. B 76, 125112 (2007).
     *
     *   G. Roman-Perez and J. M. Soler, Phys. Rev. Lett. 103, 096102 (2009).
     *
     *
     * If you are using vdW-DF2, please also cite:
     *
     *   K. Lee, E. D. Murray, L. Kong, B. I. Lundqvist, and
     *   D. C. Langreth, Phys. Rev. B 82, 081101(R) (2010).
     *
     *
     * If you are calculating the stress with vdW-DF, please also cite:
     *
     *   R. Sabatini, E. Kucukbenli, B. Kolb, T. Thonhauser, and
     *   S. de Gironcoli, J. Phys.: Condens. Matter 24, 424209 (2012).
     *

     Carrying out vdW-DF run using the following parameters:

     Nqs =      20    Nr_points =    1024   r_max =   100.000
     q_mesh =
               0.00001000     0.04494208     0.09755937     0.15916263
               0.23128650     0.31572767     0.41458969     0.53033537
               0.66584808     0.82450364     1.01025438     1.22772762
               1.48234092     1.78043706     2.12944203     2.53805004
               3.01644009     3.57652955     4.23227104     5.00000000

     Gradients computed in reciprocal space

[...]

     Starting wfc are  129 randomized atomic wfcs

     Self-consistent Calculation

[...]

     total energy              =   -1664.38744300 Ry
     Harris-Foulkes estimate   =   -1664.38744289 Ry
     estimated scf accuracy    <       0.00000124 Ry

     iteration # 24     ecut=    36.75 Ry     beta=0.10
     Davidson diagonalization with overlap
     ethr =  7.93E-10,  avg # of iterations =  1.4

[...]

     negative rho (up, down):  2.314E-01 0.000E+00

     Adding external electric field

     Computed dipole along edir(3) :
        Dipole                0.0617 Ry au,          0.1567 Debye
        Dipole field          0.0002 Ry au

        Potential amp.       -0.0152 Ry
        Total length         45.3901 bohr

     End of self-consistent calculation

[...]

          k = 0.0587 0.0000 0.0000 ( 17471 PWs)   bands (ev):

[...]

          k =-0.0881-0.1525 0.0000 ( 17444 PWs)   bands (ev):

   -71.2180 -71.0590 -70.8921 -55.7948 -55.7822 -55.7638 -55.7538 -55.7363
   -55.7272 -55.6516 -55.6298 -55.6051 -41.1759 -41.1758 -41.1734 -41.0661
   -41.0434 -41.0414 -40.8790 -40.8765 -40.8335 -32.2030 -32.1976 -32.1792
   -32.1356 -32.1191 -32.1095 -32.0784 -32.0726 -32.0557 -32.0339 -32.0130
   -31.9991 -31.9984 -31.9639 -31.9482 -31.9306 -31.9005 -31.8836 -31.8265
   -31.8261 -31.8075 -31.7529 -31.7461 -31.7317 -31.7080 -31.6851 -31.6327
    -2.9616  -2.8121  -1.9505  -1.7347  -1.6910  -1.5740  -1.3329  -1.2465
    -1.1991  -1.0693  -0.9775  -0.8463  -0.7834  -0.6408  -0.5133  -0.4795
    -0.4298  -0.2685  -0.2566   0.0358   0.2002   0.2556   0.3207   0.5611
     0.6771   0.8281   0.9964   1.0470   1.1116   1.1562   1.2172   1.3302
     1.3698   1.4003   1.5235   1.5773   1.7525   1.7575   1.9808   2.0407
     2.1024   2.3030   2.4915   2.5930   2.6174   2.6737   2.7036   2.8776
     2.8917   3.1073   3.1891   3.2091   3.2689   3.3809   3.3816   3.5183
     3.6682   3.7224   3.7648   3.8665

     the Fermi energy is     1.3228 ev

!    total energy              =   -1664.38744219 Ry
     Harris-Foulkes estimate   =   -1664.38744247 Ry
     estimated scf accuracy    <       0.00000062 Ry

     The total energy is the sum of the following terms:

     one-electron contribution =  -13327.82532037 Ry
     hartree contribution      =    6653.17913534 Ry
     xc contribution           =    -249.20329390 Ry
     ewald contribution        =    5259.59325856 Ry
     electric field correction =       0.00001030 Ry
     smearing contrib. (-TS)   =      -0.13123212 Ry

     convergence has been achieved in  24 iterations

 BEEF-vdW xc energy contributions
           1 :   -214.903370619637
           2 :    193.764630842050
           3 :   -158.510712223003
           4 :    119.603741346848
           5 :   -86.1678565027157
           6 :    62.6495195925602
           7 :   -48.3894689782076
           8 :    39.6419753828800
           9 :   -32.4084944401919
          10 :    24.4311335272847
          11 :   -15.6142381687797
          12 :    7.14923114600947
          13 :  -0.238935386510718
          14 :   -4.72330387850127
          15 :    8.14436868433381
          16 :   -10.6473429284681
          17 :    12.4953972438790
          18 :   -13.4843057224911
          19 :    13.2975235427779
          20 :   -11.9438347777125
          21 :    9.87223662523951
          22 :   -7.68763349743642
          23 :    5.72957557794129
          24 :   -3.87205833896644
          25 :    1.69581746738811
          26 :    1.10757598654337
          27 :   -4.41328054815500
          28 :    7.66146945536022
          29 :   -10.1798489686296
          30 :    11.5937237334641
          31 :   -22.6016532050542
          32 :   -16.4124728806028

     Forces acting on atoms (Ry/au):

     negative rho (up, down):  2.314E-01 0.000E+00
     atom    1 type  1   force =     0.00000061    0.01149024    0.00033690
     atom    2 type  1   force =     0.00994876   -0.00574352    0.00033192
     atom    3 type  1   force =    -0.00994790   -0.00574374    0.00033034
     atom    4 type  2   force =     0.00000093    0.00000075    0.02679908
     atom    5 type  1   force =     0.00000005   -0.00915864   -0.00878515
     atom    6 type  1   force =    -0.00793121    0.00458021   -0.00878760
     atom    7 type  1   force =     0.00793106    0.00458017   -0.00878760
     atom    8 type  2   force =     0.00000019   -0.00000724   -0.00249433
     atom    9 type  1   force =     0.00000010    0.00016618    0.00014581
     atom   10 type  1   force =     0.00014341   -0.00008281    0.00013966
     atom   11 type  1   force =    -0.00014540   -0.00008409    0.00014058
     atom   12 type  2   force =    -0.00000060    0.00000248    0.00063040

     Total force =     0.040056     Total SCF correction =     0.002476

     entering subroutine stress ...

     negative rho (up, down):  2.314E-01 0.000E+00
          total   stress  (Ry/bohr**3)                   (kbar)     P=  -12.57
  -0.00011412  -0.00000000  -0.00000000        -16.79     -0.00     -0.00
  -0.00000000  -0.00011412  -0.00000000         -0.00    -16.79     -0.00
  -0.00000000  -0.00000000  -0.00002801         -0.00     -0.00     -4.12

 !ASE

     Writing output data file calc.save

     General routines

     Parallel routines

   This run was terminated on:   1:31:21   2Jan2019

   JOB DONE.
Job  /afs/slac/g/suncat/bin/suncat-tsmpirun -x LD_LIBRARY_PATH -wdir /scratch/qe649223_z3W8F pw.x -in pw.inp

TID   HOST_NAME   COMMAND_LINE            STATUS            TERMINATION_TIME
00000 suncat0031 pw.x -in pw.inp   Done                     01/02/2019 01:31:21
00001 suncat0031 pw.x -in pw.inp   Done                     01/02/2019 01:31:21
00002 suncat0031 pw.x -in pw.inp   Done                     01/02/2019 01:31:21
00003 suncat0031 pw.x -in pw.inp   Done                     01/02/2019 01:31:21
00004 suncat0031 pw.x -in pw.inp   Done                     01/02/2019 01:31:21
00005 suncat0031 pw.x -in pw.inp   Done                     01/02/2019 01:31:21
00006 suncat0031 pw.x -in pw.inp   Done                     01/02/2019 01:31:21
00007 suncat0031 pw.x -in pw.inp   Done                     01/02/2019 01:31:21
00008 suncat0030 pw.x -in pw.inp   Done                     01/02/2019 01:31:21
00009 suncat0030 pw.x -in pw.inp   Done                     01/02/2019 01:31:21
00010 suncat0030 pw.x -in pw.inp   Done                     01/02/2019 01:31:21
00011 suncat0030 pw.x -in pw.inp   Done                     01/02/2019 01:31:21
00012 suncat0030 pw.x -in pw.inp   Done                     01/02/2019 01:31:21
00013 suncat0030 pw.x -in pw.inp   Done                     01/02/2019 01:31:21
00014 suncat0030 pw.x -in pw.inp   Done                     01/02/2019 01:31:21
00015 suncat0030 pw.x -in pw.inp   Done                     01/02/2019 01:31:21
00016 suncat0192 pw.x -in pw.inp   Done                     01/02/2019 01:31:21
00017 suncat0192 pw.x -in pw.inp   Done                     01/02/2019 01:31:21
00018 suncat0192 pw.x -in pw.inp   Done                     01/02/2019 01:31:21
00019 suncat0192 pw.x -in pw.inp   Done                     01/02/2019 01:31:21
00020 suncat0192 pw.x -in pw.inp   Done                     01/02/2019 01:31:21
00021 suncat0192 pw.x -in pw.inp   Done                     01/02/2019 01:31:21
00022 suncat0192 pw.x -in pw.inp   Done                     01/02/2019 01:31:21
00023 suncat0192 pw.x -in pw.inp   Done                     01/02/2019 01:31:21
00024 suncat0185 pw.x -in pw.inp   Done                     01/02/2019 01:31:21
00025 suncat0185 pw.x -in pw.inp   Done                     01/02/2019 01:31:21
00026 suncat0185 pw.x -in pw.inp   Done                     01/02/2019 01:31:21
00027 suncat0185 pw.x -in pw.inp   Done                     01/02/2019 01:31:21
00028 suncat0185 pw.x -in pw.inp   Done                     01/02/2019 01:31:21
00029 suncat0185 pw.x -in pw.inp   Done                     01/02/2019 01:31:21
00030 suncat0185 pw.x -in pw.inp   Done                     01/02/2019 01:31:21
00031 suncat0185 pw.x -in pw.inp   Done                     01/02/2019 01:31:21
00032 suncat0184 pw.x -in pw.inp   Done                     01/02/2019 01:31:21
00033 suncat0184 pw.x -in pw.inp   Done                     01/02/2019 01:31:21
00034 suncat0184 pw.x -in pw.inp   Done                     01/02/2019 01:31:21
00035 suncat0184 pw.x -in pw.inp   Done                     01/02/2019 01:31:21
00036 suncat0184 pw.x -in pw.inp   Done                     01/02/2019 01:31:21
00037 suncat0184 pw.x -in pw.inp   Done                     01/02/2019 01:31:21
00038 suncat0184 pw.x -in pw.inp   Done                     01/02/2019 01:31:21
00039 suncat0184 pw.x -in pw.inp   Done                     01/02/2019 01:31:21
00040 suncat0183 pw.x -in pw.inp   Done                     01/02/2019 01:31:21
00041 suncat0183 pw.x -in pw.inp   Done                     01/02/2019 01:31:21
00042 suncat0183 pw.x -in pw.inp   Done                     01/02/2019 01:31:21
00043 suncat0183 pw.x -in pw.inp   Done                     01/02/2019 01:31:21
00044 suncat0183 pw.x -in pw.inp   Done                     01/02/2019 01:31:21
00045 suncat0183 pw.x -in pw.inp   Done                     01/02/2019 01:31:21
00046 suncat0183 pw.x -in pw.inp   Done                     01/02/2019 01:31:21
00047 suncat0183 pw.x -in pw.inp   Done                     01/02/2019 01:31:21
00048 suncat0172 pw.x -in pw.inp   Done                     01/02/2019 01:31:21
00049 suncat0172 pw.x -in pw.inp   Done                     01/02/2019 01:31:21
00050 suncat0172 pw.x -in pw.inp   Done                     01/02/2019 01:31:21
00051 suncat0172 pw.x -in pw.inp   Done                     01/02/2019 01:31:21
00052 suncat0172 pw.x -in pw.inp   Done                     01/02/2019 01:31:21
00053 suncat0172 pw.x -in pw.inp   Done                     01/02/2019 01:31:21
00054 suncat0172 pw.x -in pw.inp   Done                     01/02/2019 01:31:21
00055 suncat0172 pw.x -in pw.inp   Done                     01/02/2019 01:31:21
00056 suncat0171 pw.x -in pw.inp   Done                     01/02/2019 01:31:21
00057 suncat0171 pw.x -in pw.inp   Done                     01/02/2019 01:31:21
00058 suncat0171 pw.x -in pw.inp   Done                     01/02/2019 01:31:21
00059 suncat0171 pw.x -in pw.inp   Done                     01/02/2019 01:31:21
00060 suncat0171 pw.x -in pw.inp   Done                     01/02/2019 01:31:21
00061 suncat0171 pw.x -in pw.inp   Done                     01/02/2019 01:31:21
00062 suncat0171 pw.x -in pw.inp   Done                     01/02/2019 01:31:21
00063 suncat0171 pw.x -in pw.inp   Done                     01/02/2019 01:31:21