     Program PWSCF v.5.1rc2 (svn rev. 11289) starts on 26Dec2018 at  7:51:11

     Current dimensions of program PWSCF are:
     Max number of different atomic species (ntypx) = 10
     Max number of k-points (npk) =  40000
     Max angular momentum in pseudopotentials (lmaxx) =  3
     Presently stress not available with electric field

     IMPORTANT: XC functional enforced from input :
     Exchange-correlation      = BEEF-VDW ( 1  4 27 13 2)
     Any further DFT definition will be discarded
     Please, verify this is what you really want

     Subspace diagonalization in iterative solution of the eigenvalue problem:
     a serial algorithm will be used

     bravais-lattice index     =            0
     lattice parameter (alat)  =       1.8897  a.u.
     unit-cell volume          =    5428.3053 (a.u.)^3
     number of atoms/cell      =           12
     number of atomic types    =            2
     number of electrons       =       153.00
     number of Kohn-Sham states=          106
     kinetic-energy cutoff     =      36.7493  Ry
     charge density cutoff     =     367.4932  Ry
     convergence threshold     =      1.0E-06
     mixing beta               =       0.1000
     number of iterations used =           10  plain     mixing
     Exchange-correlation      = BEEF-VDW ( 1  4 27 13 2)
     nstep                     =           50

     celldm(1)=   1.889726  celldm(2)=   0.000000  celldm(3)=   0.000000
     celldm(4)=   0.000000  celldm(5)=   0.000000  celldm(6)=   0.000000

     crystal axes: (cart. coord. in units of alat)
               a(1) = (   6.097918   0.000000   0.000000 )
               a(2) = (  -3.048959   5.280952   0.000000 )
               a(3) = (   0.000000   0.000000  24.978930 )

     reciprocal axes: (cart. coord. in units 2 pi/alat)
               b(1) = (  0.163990  0.094680  0.000000 )
               b(2) = (  0.000000  0.189360  0.000000 )
               b(3) = (  0.000000  0.000000  0.040034 )

     PseudoPot. # 1 for Hf read from file:
     /afs/slac.stanford.edu/u/if/mamunm/psp/gbrv1.5pbe/Hf.UPF
     MD5 check sum: 8ee9378dfe14276e333edf04c5e4aa26
     Pseudo is Ultrasoft + core correction, Zval = 12.0
     Generated by new atomic code, or converted to UPF format
     Using radial grid of  921 points,  8 beta functions with:
                l(1) =   0
                l(2) =   0
                l(3) =   0
                l(4) =   1
                l(5) =   1
                l(6) =   2
                l(7) =   2
                l(8) =   3
     Q(r) pseudized with  6 coefficients,  rinner =    1.200   1.200   1.200
                                                       1.200   1.200   1.200
                                                       1.200

     PseudoPot. # 2 for Tc read from file:
     /afs/slac.stanford.edu/u/if/mamunm/psp/gbrv1.5pbe/Tc.UPF
     MD5 check sum: 9eb49e5b028550b2339a02317eb7b844
     Pseudo is Ultrasoft + core correction, Zval = 15.0
     Generated by new atomic code, or converted to UPF format
     Using radial grid of  965 points,  6 beta functions with:
                l(1) =   0
                l(2) =   0
                l(3) =   1
                l(4) =   1
                l(5) =   2
                l(6) =   2
     Q(r) pseudized with  8 coefficients,  rinner =    1.300   1.300   1.300
                                                       1.300   1.300

     vdW kernel table read from file vdW_kernel_table
     MD5 check sum: 095c7af220d748ca6e76c0b4c6cfb241

     atomic species   valence    mass     pseudopotential
        Hf1           12.00   178.49000     Hf( 1.00)
        Tc1           15.00    97.90721     Tc( 1.00)

     No symmetry found

   Cartesian axes

     site n.     atom                  positions (alat units)
         1           Hf1 tau(   1) = (   0.0000000   0.0000000  10.0000000  )
         2           Hf1 tau(   2) = (  -1.5244796   2.6404761  10.0000000  )
         3           Hf1 tau(   3) = (   1.5244796   2.6404761  10.0000000  )
         4           Tc1 tau(   4) = (   3.0489592   0.0000000  10.0000000  )
         5           Hf1 tau(   5) = (   3.0489592   1.7603174  12.4894648  )
         6           Hf1 tau(   6) = (   1.5244796   4.4007935  12.4894648  )
         7           Hf1 tau(   7) = (  -1.5244796   4.4007935  12.4894648  )
         8           Tc1 tau(   8) = (   0.0000000   1.7603174  12.4894648  )
         9           Hf1 tau(   9) = (  -0.0000000   3.5206348  14.9789295  )
        10           Hf1 tau(  10) = (   1.5244796   0.8801587  14.9789295  )
        11           Hf1 tau(  11) = (   4.5734388   0.8801587  14.9789295  )
        12           Tc1 tau(  12) = (   3.0489592   3.5206348  14.9789295  )

     number of k points=    20  Fermi-Dirac smearing, width (Ry)=  0.0110
                       cart. coord. in units 2pi/alat
        k(    1) = (   0.0000000   0.0000000   0.0000000), wk =   0.0555556
        k(    2) = (   0.0000000   0.0315600   0.0000000), wk =   0.1111111
        k(    3) = (   0.0000000   0.0631199   0.0000000), wk =   0.1111111
        k(    4) = (   0.0000000  -0.0946799   0.0000000), wk =   0.0555556
        k(    5) = (   0.0273317   0.0157800   0.0000000), wk =   0.1111111
        k(    6) = (   0.0273317   0.0473399   0.0000000), wk =   0.1111111
        k(    7) = (   0.0273317   0.0788999   0.0000000), wk =   0.1111111
        k(    8) = (   0.0273317  -0.0788999   0.0000000), wk =   0.1111111
        k(    9) = (   0.0273317  -0.0473399   0.0000000), wk =   0.1111111
        k(   10) = (   0.0273317  -0.0157800   0.0000000), wk =   0.1111111
        k(   11) = (   0.0546635   0.0315600   0.0000000), wk =   0.1111111
        k(   12) = (   0.0546635   0.0631199   0.0000000), wk =   0.1111111
        k(   13) = (   0.0546635   0.0946799   0.0000000), wk =   0.1111111
        k(   14) = (   0.0546635  -0.0631199   0.0000000), wk =   0.1111111
        k(   15) = (   0.0546635  -0.0315600   0.0000000), wk =   0.1111111
        k(   16) = (   0.0546635   0.0000000   0.0000000), wk =   0.1111111
        k(   17) = (  -0.0819952  -0.0473399   0.0000000), wk =   0.0555556
        k(   18) = (  -0.0819952  -0.0157800   0.0000000), wk =   0.1111111
        k(   19) = (  -0.0819952   0.0157800   0.0000000), wk =   0.1111111
        k(   20) = (  -0.0819952  -0.1420198   0.0000000), wk =   0.0555556

     Largest allocated arrays     est. size (Mb)     dimensions
     Largest temporary arrays     est. size (Mb)     dimensions

     Check: negative/imaginary core charge=   -0.000007    0.000000

     Initial potential from superposition of free atoms
     Check: negative starting charge=   -1.346597

     starting charge  131.99990, renormalised to  153.00000

     negative rho (up, down):  1.561E+00 0.000E+00

     *
     * You are using vdW-DF for exchange-correlation in this calculation.
     * Please cite the following three references that made this development
     * possible:
     *
     *   M. Dion, H. Rydberg, E. Schroder, D. C. Langreth, and
     *   B. I. Lundqvist, Phys. Rev. Lett. 92, 246401 (2004).
     *
     *   T. Thonhauser, V. R. Cooper, S. Li, A. Puzder, P. Hyldgaard, and
     *   D. C. Langreth, Phys. Rev. B 76, 125112 (2007).
     *
     *   G. Roman-Perez and J. M. Soler, Phys. Rev. Lett. 103, 096102 (2009).
     *
     *
     * If you are using vdW-DF2, please also cite:
     *
     *   K. Lee, E. D. Murray, L. Kong, B. I. Lundqvist, and
     *   D. C. Langreth, Phys. Rev. B 82, 081101(R) (2010).
     *
     *
     * If you are calculating the stress with vdW-DF, please also cite:
     *
     *   R. Sabatini, E. Kucukbenli, B. Kolb, T. Thonhauser, and
     *   S. de Gironcoli, J. Phys.: Condens. Matter 24, 424209 (2012).
     *

     Carrying out vdW-DF run using the following parameters:

     Nqs =      20    Nr_points =    1024   r_max =   100.000
     q_mesh =
               0.00001000     0.04494208     0.09755937     0.15916263
               0.23128650     0.31572767     0.41458969     0.53033537
               0.66584808     0.82450364     1.01025438     1.22772762
               1.48234092     1.78043706     2.12944203     2.53805004
               3.01644009     3.57652955     4.23227104     5.00000000

     Gradients computed in reciprocal space

     Adding external electric field

     Computed dipole along edir(3) :
        Dipole                0.0000 Ry au,          0.0000 Debye
        Dipole field          0.0000 Ry au

        Potential amp.       -0.0000 Ry
        Total length         46.0233 bohr

     Starting wfc are  156 randomized atomic wfcs

     Self-consistent Calculation

     iteration #  1     ecut=    36.75 Ry     beta=0.10
     Davidson diagonalization with overlap
     ethr =  1.00E-02,  avg # of iterations =  8.2

[...]

     total energy              =   -1945.75052431 Ry
     Harris-Foulkes estimate   =   -1990.96705719 Ry
     estimated scf accuracy    <     253.38456458 Ry

[...]

     End of self-consistent calculation

          k = 0.0000 0.0000 0.0000 ( 20395 PWs)   bands (ev):

   -64.8506 -64.6437 -64.6434 -60.7808 -60.7796 -60.7323 -60.7323 -60.7319
   -60.7319 -60.3934 -60.3461 -60.3460 -36.8504 -36.8504 -36.8265 -36.6527
   -36.6508 -36.6508 -36.6503 -36.6501 -36.6501 -29.7348 -29.6929 -29.5455
   -29.4825 -29.4825 -29.4256 -29.4256 -29.4086 -29.4081 -29.4081 -29.3373
   -29.3147 -29.3147 -29.0786 -29.0597 -29.0319 -29.0319 -28.9363 -28.9363
   -28.9181 -28.9181 -28.8545 -28.8163 -28.8163 -28.6865 -28.6145 -28.6145
    -4.8524  -3.4500  -2.4011  -1.7595  -1.7595  -1.6216  -1.6216  -1.5337
    -1.3281  -1.0670  -1.0670  -0.7875  -0.7610  -0.7610  -0.7000   0.1711
     0.1711   0.4569   0.9759   0.9759   1.0005   1.1606   1.7190   1.8402
     1.9564   2.0960   2.0960   2.1277   2.1277   2.3288   2.4097   2.4097
     2.6207   2.6207   2.6712   2.6713   2.7067   3.0332   3.0332   3.4337
     3.4644   3.4644   3.4684   3.6412   3.6412   4.0315   4.0315   4.3759
     5.0502   5.1540   5.2482   5.2482   5.3610   5.6900   5.7794   5.7794
     5.8893   6.0230

[...]

          k =-0.0820-0.0473 0.0000 ( 20452 PWs)   bands (ev):

[...]

     the Fermi energy is     1.7473 ev

!    total energy              =   -1970.76275206 Ry
     Harris-Foulkes estimate   =   -1970.76274902 Ry
     estimated scf accuracy    <       0.00000066 Ry

     The total energy is the sum of the following terms:

     one-electron contribution =  -10482.73533618 Ry
     hartree contribution      =    5229.55995954 Ry
     xc contribution           =    -795.33152349 Ry
     ewald contribution        =    4077.85286379 Ry
     electric field correction =       0.00000001 Ry
     smearing contrib. (-TS)   =      -0.10871573 Ry

     convergence has been achieved in  23 iterations

 BEEF-vdW xc energy contributions
           1 :   -715.550272179521
           2 :    664.267735563120
           3 :   -573.183175274790
           4 :    460.891640477797
           5 :   -346.917744338825
           6 :    246.222818031269
           7 :   -166.578068337921
           8 :    109.055548907555
           9 :   -70.5459116187235
          10 :    46.5122600783124
          11 :   -32.7540148376688
[...]
     MD5 check sum: 8ee9378dfe14276e333edf04c5e4aa26
     Pseudo is Ultrasoft + core correction, Zval = 12.0
     Generated by new atomic code, or converted to UPF format
     Using radial grid of  921 points,  8 beta functions with:
                l(1) =   0
                l(2) =   0
                l(3) =   0
                l(4) =   1
                l(5) =   1
                l(6) =   2
                l(7) =   2
                l(8) =   3
     Q(r) pseudized with  6 coefficients,  rinner =    1.200   1.200   1.200
                                                       1.200   1.200   1.200
                                                       1.200

     PseudoPot. # 2 for Tc read from file:
     /afs/slac.stanford.edu/u/if/mamunm/psp/gbrv1.5pbe/Tc.UPF
     MD5 check sum: 9eb49e5b028550b2339a02317eb7b844
     Pseudo is Ultrasoft + core correction, Zval = 15.0
     Generated by new atomic code, or converted to UPF format
     Using radial grid of  965 points,  6 beta functions with:
                l(1) =   0
                l(2) =   0
                l(3) =   1
                l(4) =   1
                l(5) =   2
                l(6) =   2
     Q(r) pseudized with  8 coefficients,  rinner =    1.300   1.300   1.300
                                                       1.300   1.300

     vdW kernel table read from file vdW_kernel_table
     MD5 check sum: 095c7af220d748ca6e76c0b4c6cfb241

     atomic species   valence    mass     pseudopotential
        Hf1           12.00   178.49000     Hf( 1.00)
        Tc1           15.00    97.90721     Tc( 1.00)

     No symmetry found

   Cartesian axes

     site n.     atom                  positions (alat units)
         1           Hf1 tau(   1) = (   0.0000000   0.0000000  10.0000000  )
         2           Hf1 tau(   2) = (  -1.5244796   2.6404761  10.0000000  )
         3           Hf1 tau(   3) = (   1.5244796   2.6404761  10.0000000  )
         4           Tc1 tau(   4) = (   3.0489592   0.0000000  10.0000000  )
         5           Hf1 tau(   5) = (   3.0489592   1.7603174  12.4894648  )
         6           Hf1 tau(   6) = (   1.5244796   4.4007935  12.4894648  )
         7           Hf1 tau(   7) = (  -1.5244796   4.4007935  12.4894648  )
         8           Tc1 tau(   8) = (   0.0000000   1.7603174  12.4894648  )
         9           Hf1 tau(   9) = (  -0.0000025   3.4793117  14.9625268  )
        10           Hf1 tau(  10) = (   1.4886908   0.9008337  14.9625252  )
        11           Hf1 tau(  11) = (   4.6092278   0.9008308  14.9625264  )
        12           Tc1 tau(  12) = (   3.0489569   3.5206241  14.5757730  )

     number of k points=    20  Fermi-Dirac smearing, width (Ry)=  0.0110
                       cart. coord. in units 2pi/alat
        k(    1) = (   0.0000000   0.0000000   0.0000000), wk =   0.0555556
        k(    2) = (   0.0000000   0.0315600   0.0000000), wk =   0.1111111
        k(    3) = (   0.0000000   0.0631199   0.0000000), wk =   0.1111111
        k(    4) = (   0.0000000  -0.0946799   0.0000000), wk =   0.0555556
        k(    5) = (   0.0273317   0.0157800   0.0000000), wk =   0.1111111
        k(    6) = (   0.0273317   0.0473399   0.0000000), wk =   0.1111111
        k(    7) = (   0.0273317   0.0788999   0.0000000), wk =   0.1111111
        k(    8) = (   0.0273317  -0.0788999   0.0000000), wk =   0.1111111
        k(    9) = (   0.0273317  -0.0473399   0.0000000), wk =   0.1111111
        k(   10) = (   0.0273317  -0.0157800   0.0000000), wk =   0.1111111
        k(   11) = (   0.0546635   0.0315600   0.0000000), wk =   0.1111111
        k(   12) = (   0.0546635   0.0631199   0.0000000), wk =   0.1111111
        k(   13) = (   0.0546635   0.0946799   0.0000000), wk =   0.1111111
        k(   14) = (   0.0546635  -0.0631199   0.0000000), wk =   0.1111111
        k(   15) = (   0.0546635  -0.0315600   0.0000000), wk =   0.1111111
        k(   16) = (   0.0546635   0.0000000   0.0000000), wk =   0.1111111
        k(   17) = (  -0.0819952  -0.0473399   0.0000000), wk =   0.0555556
        k(   18) = (  -0.0819952  -0.0157800   0.0000000), wk =   0.1111111
        k(   19) = (  -0.0819952   0.0157800   0.0000000), wk =   0.1111111
        k(   20) = (  -0.0819952  -0.1420198   0.0000000), wk =   0.0555556

     Largest allocated arrays     est. size (Mb)     dimensions
     Largest temporary arrays     est. size (Mb)     dimensions

     Check: negative/imaginary core charge=   -0.000007    0.000000

     Initial potential from superposition of free atoms
     Check: negative starting charge=   -1.351088

     starting charge  131.99990, renormalised to  153.00000

[...]

     *
     * You are using vdW-DF for exchange-correlation in this calculation.
     * Please cite the following three references that made this development
     * possible:
     *
     *   M. Dion, H. Rydberg, E. Schroder, D. C. Langreth, and
     *   B. I. Lundqvist, Phys. Rev. Lett. 92, 246401 (2004).
     *
     *   T. Thonhauser, V. R. Cooper, S. Li, A. Puzder, P. Hyldgaard, and
     *   D. C. Langreth, Phys. Rev. B 76, 125112 (2007).
     *
     *   G. Roman-Perez and J. M. Soler, Phys. Rev. Lett. 103, 096102 (2009).
     *
     *
     * If you are using vdW-DF2, please also cite:
     *
     *   K. Lee, E. D. Murray, L. Kong, B. I. Lundqvist, and
     *   D. C. Langreth, Phys. Rev. B 82, 081101(R) (2010).
     *
     *
     * If you are calculating the stress with vdW-DF, please also cite:
     *
     *   R. Sabatini, E. Kucukbenli, B. Kolb, T. Thonhauser, and
     *   S. de Gironcoli, J. Phys.: Condens. Matter 24, 424209 (2012).
     *

     Carrying out vdW-DF run using the following parameters:

     Nqs =      20    Nr_points =    1024   r_max =   100.000
     q_mesh =
               0.00001000     0.04494208     0.09755937     0.15916263
               0.23128650     0.31572767     0.41458969     0.53033537
               0.66584808     0.82450364     1.01025438     1.22772762
               1.48234092     1.78043706     2.12944203     2.53805004
               3.01644009     3.57652955     4.23227104     5.00000000

     Gradients computed in reciprocal space

[...]

     Starting wfc are  156 randomized atomic wfcs

     Self-consistent Calculation

[...]

     total energy              =   -1970.82117892 Ry
     Harris-Foulkes estimate   =   -1970.82117839 Ry
     estimated scf accuracy    <       0.00000100 Ry

     iteration # 27     ecut=    36.75 Ry     beta=0.10
     Davidson diagonalization with overlap
     ethr =  6.55E-10,  avg # of iterations =  2.0

[...]

     negative rho (up, down):  1.421E+00 0.000E+00

     Adding external electric field

     Computed dipole along edir(3) :
        Dipole                0.0795 Ry au,          0.2020 Debye
        Dipole field          0.0002 Ry au

        Potential amp.       -0.0169 Ry
        Total length         46.0233 bohr

     End of self-consistent calculation

[...]

          k = 0.0547 0.0000 0.0000 ( 20417 PWs)   bands (ev):

[...]

          k =-0.0820-0.1420 0.0000 ( 20452 PWs)   bands (ev):

   -64.8307 -64.5686 -64.5416 -60.7551 -60.7338 -60.7194 -60.6880 -60.6719
   -60.6559 -60.2069 -60.1909 -60.1750 -36.8287 -36.8265 -36.8136 -36.6159
   -36.6046 -36.6026 -36.5511 -36.5486 -36.5471 -29.5378 -29.4841 -29.4499
   -29.4201 -29.3599 -29.3563 -29.3188 -29.2987 -29.2873 -29.2859 -29.2275
   -29.2131 -29.1922 -29.1797 -29.1774 -29.1556 -29.0293 -28.9296 -28.8949
   -28.7952 -28.7504 -28.7099 -28.6996 -28.6929 -28.6928 -28.6670 -28.4838
    -3.1664  -3.0507  -1.9158  -1.7798  -1.1245  -1.0521  -0.9724  -0.9221
    -0.6818  -0.4987  -0.2466  -0.0424  -0.0352   0.0464   0.1915   0.3596
     0.4395   0.4716   0.5797   0.5891   0.7458   0.8935   0.9713   1.0614
     1.2070   1.2328   1.4455   1.5151   1.6774   1.7433   1.8583   1.9158
     1.9588   1.9986   2.1922   2.3137   2.6448   2.6898   2.9402   3.0242
     3.0318   3.3968   3.5623   3.7154   3.8345   3.8962   3.9005   4.1363
     4.3102   4.5916   4.8241   4.8300   4.9201   4.9959   5.3755   5.4932
     5.5362   5.5467

     the Fermi energy is     1.8156 ev

!    total energy              =   -1970.82117970 Ry
     Harris-Foulkes estimate   =   -1970.82117893 Ry
     estimated scf accuracy    <       0.00000037 Ry

     The total energy is the sum of the following terms:

     one-electron contribution =  -10672.77308186 Ry
     hartree contribution      =    5324.98283490 Ry
     xc contribution           =    -795.57312550 Ry
     ewald contribution        =    4172.64608169 Ry
     electric field correction =       0.00001462 Ry
     smearing contrib. (-TS)   =      -0.10390355 Ry

     convergence has been achieved in  27 iterations

 BEEF-vdW xc energy contributions
           1 :   -716.820659784517
           2 :    665.607203042675
           3 :   -574.601977712965
           4 :    462.320559517745
           5 :   -348.240313407812
           6 :    247.342803816194
           7 :   -167.482629879128
           8 :    109.831512319046
           9 :   -71.3344659037839
          10 :    47.4271038252261
          11 :   -33.8173322404431
          12 :    26.9909311093741
          13 :   -23.9697491498712
          14 :    22.0240616576247
          15 :   -18.8232578996692
          16 :    12.9637287909961
          17 :   -4.48128182812013
          18 :   -5.12087443751932
          19 :    13.4822279949125
          20 :   -18.4127813229495
          21 :    18.8310854644863
          22 :   -15.1737278826891
          23 :    9.12272033989211
          24 :   -2.88032630549549
          25 :   -1.60981793713290
          26 :    3.15503464266021
          27 :   -1.43347336633678
          28 :   -3.13688416858213
          29 :    9.58483480331734
          30 :   -16.5418212838264
          31 :   -53.4096666442917
          32 :   -38.5354232454515

     Forces acting on atoms (Ry/au):

     negative rho (up, down):  1.421E+00 0.000E+00
     atom    1 type  1   force =    -0.00000038    0.01926497   -0.00150191
     atom    2 type  1   force =     0.01668395   -0.00963256   -0.00150223
     atom    3 type  1   force =    -0.01668392   -0.00963180   -0.00150197
     atom    4 type  2   force =     0.00000015   -0.00000010    0.04122696
     atom    5 type  1   force =    -0.00000032   -0.00992888   -0.01342635
     atom    6 type  1   force =    -0.00859813    0.00496371   -0.01342383
     atom    7 type  1   force =     0.00859841    0.00496471   -0.01342363
     atom    8 type  2   force =     0.00000019   -0.00000068    0.00416756
     atom    9 type  1   force =     0.00000088   -0.00014081   -0.00017723
     atom   10 type  1   force =    -0.00012362    0.00007088   -0.00017779
     atom   11 type  1   force =     0.00012318    0.00006984   -0.00017795
     atom   12 type  2   force =    -0.00000039    0.00000072   -0.00008163

     Total force =     0.060612     Total SCF correction =     0.001440

     entering subroutine stress ...

     negative rho (up, down):  1.421E+00 0.000E+00
          total   stress  (Ry/bohr**3)                   (kbar)     P=  -14.31
  -0.00011952   0.00000000   0.00000000        -17.58      0.00      0.00
   0.00000000  -0.00011952   0.00000000          0.00    -17.58      0.00
   0.00000000   0.00000000  -0.00005285          0.00      0.00     -7.77

 !ASE

     Writing output data file calc.save

     General routines

     Parallel routines

   This run was terminated on:  10:34:37  26Dec2018

   JOB DONE.
Job  /afs/slac/g/suncat/bin/suncat-tsmpirun -x LD_LIBRARY_PATH -wdir /scratch/qe109771_gAQd6 pw.x -in pw.inp

TID   HOST_NAME   COMMAND_LINE            STATUS            TERMINATION_TIME
00000 suncat0082 pw.x -in pw.inp   Done                     12/26/2018 10:34:37
00001 suncat0082 pw.x -in pw.inp   Done                     12/26/2018 10:34:37
00002 suncat0082 pw.x -in pw.inp   Done                     12/26/2018 10:34:37
00003 suncat0082 pw.x -in pw.inp   Done                     12/26/2018 10:34:37
00004 suncat0082 pw.x -in pw.inp   Done                     12/26/2018 10:34:37
00005 suncat0082 pw.x -in pw.inp   Done                     12/26/2018 10:34:37
00006 suncat0082 pw.x -in pw.inp   Done                     12/26/2018 10:34:37
00007 suncat0082 pw.x -in pw.inp   Done                     12/26/2018 10:34:37
00008 suncat0062 pw.x -in pw.inp   Done                     12/26/2018 10:34:37
00009 suncat0062 pw.x -in pw.inp   Done                     12/26/2018 10:34:37
00010 suncat0062 pw.x -in pw.inp   Done                     12/26/2018 10:34:37
00011 suncat0062 pw.x -in pw.inp   Done                     12/26/2018 10:34:37
00012 suncat0062 pw.x -in pw.inp   Done                     12/26/2018 10:34:37
00013 suncat0062 pw.x -in pw.inp   Done                     12/26/2018 10:34:37
00014 suncat0062 pw.x -in pw.inp   Done                     12/26/2018 10:34:37
00015 suncat0062 pw.x -in pw.inp   Done                     12/26/2018 10:34:37
00016 suncat0056 pw.x -in pw.inp   Done                     12/26/2018 10:34:37
00017 suncat0056 pw.x -in pw.inp   Done                     12/26/2018 10:34:37
00018 suncat0056 pw.x -in pw.inp   Done                     12/26/2018 10:34:37
00019 suncat0056 pw.x -in pw.inp   Done                     12/26/2018 10:34:37
00020 suncat0056 pw.x -in pw.inp   Done                     12/26/2018 10:34:37
00021 suncat0056 pw.x -in pw.inp   Done                     12/26/2018 10:34:37
00022 suncat0056 pw.x -in pw.inp   Done                     12/26/2018 10:34:37
00023 suncat0056 pw.x -in pw.inp   Done                     12/26/2018 10:34:37
00024 suncat0055 pw.x -in pw.inp   Done                     12/26/2018 10:34:37
00025 suncat0055 pw.x -in pw.inp   Done                     12/26/2018 10:34:37
00026 suncat0055 pw.x -in pw.inp   Done                     12/26/2018 10:34:37
00027 suncat0055 pw.x -in pw.inp   Done                     12/26/2018 10:34:37
00028 suncat0055 pw.x -in pw.inp   Done                     12/26/2018 10:34:37
00029 suncat0055 pw.x -in pw.inp   Done                     12/26/2018 10:34:37
00030 suncat0055 pw.x -in pw.inp   Done                     12/26/2018 10:34:37
00031 suncat0055 pw.x -in pw.inp   Done                     12/26/2018 10:34:37
00032 suncat0217 pw.x -in pw.inp   Done                     12/26/2018 10:34:37
00033 suncat0217 pw.x -in pw.inp   Done                     12/26/2018 10:34:37
00034 suncat0217 pw.x -in pw.inp   Done                     12/26/2018 10:34:37
00035 suncat0217 pw.x -in pw.inp   Done                     12/26/2018 10:34:37
00036 suncat0217 pw.x -in pw.inp   Done                     12/26/2018 10:34:37
00037 suncat0217 pw.x -in pw.inp   Done                     12/26/2018 10:34:37
00038 suncat0217 pw.x -in pw.inp   Done                     12/26/2018 10:34:37
00039 suncat0217 pw.x -in pw.inp   Done                     12/26/2018 10:34:37
00040 suncat0216 pw.x -in pw.inp   Done                     12/26/2018 10:34:37
00041 suncat0216 pw.x -in pw.inp   Done                     12/26/2018 10:34:37
00042 suncat0216 pw.x -in pw.inp   Done                     12/26/2018 10:34:37
00043 suncat0216 pw.x -in pw.inp   Done                     12/26/2018 10:34:37
00044 suncat0216 pw.x -in pw.inp   Done                     12/26/2018 10:34:37
00045 suncat0216 pw.x -in pw.inp   Done                     12/26/2018 10:34:37
00046 suncat0216 pw.x -in pw.inp   Done                     12/26/2018 10:34:37
00047 suncat0216 pw.x -in pw.inp   Done                     12/26/2018 10:34:37
00048 suncat0215 pw.x -in pw.inp   Done                     12/26/2018 10:34:37
00049 suncat0215 pw.x -in pw.inp   Done                     12/26/2018 10:34:37
00050 suncat0215 pw.x -in pw.inp   Done                     12/26/2018 10:34:37
00051 suncat0215 pw.x -in pw.inp   Done                     12/26/2018 10:34:37
00052 suncat0215 pw.x -in pw.inp   Done                     12/26/2018 10:34:37
00053 suncat0215 pw.x -in pw.inp   Done                     12/26/2018 10:34:37
00054 suncat0215 pw.x -in pw.inp   Done                     12/26/2018 10:34:37
00055 suncat0215 pw.x -in pw.inp   Done                     12/26/2018 10:34:37
00056 suncat0210 pw.x -in pw.inp   Done                     12/26/2018 10:34:37
00057 suncat0210 pw.x -in pw.inp   Done                     12/26/2018 10:34:37
00058 suncat0210 pw.x -in pw.inp   Done                     12/26/2018 10:34:37
00059 suncat0210 pw.x -in pw.inp   Done                     12/26/2018 10:34:37
00060 suncat0210 pw.x -in pw.inp   Done                     12/26/2018 10:34:37
00061 suncat0210 pw.x -in pw.inp   Done                     12/26/2018 10:34:37
00062 suncat0210 pw.x -in pw.inp   Done                     12/26/2018 10:34:37
00063 suncat0210 pw.x -in pw.inp   Done                     12/26/2018 10:34:37