     Program PWSCF v.5.1rc2 (svn rev. 11289) starts on 26Dec2018 at 13:49:35

     Current dimensions of program PWSCF are:
     Max number of different atomic species (ntypx) = 10
     Max number of k-points (npk) =  40000
     Max angular momentum in pseudopotentials (lmaxx) =  3
     Presently stress not available with electric field

     IMPORTANT: XC functional enforced from input :
     Exchange-correlation      = BEEF-VDW ( 1  4 27 13 2)
     Any further DFT definition will be discarded
     Please, verify this is what you really want

     Subspace diagonalization in iterative solution of the eigenvalue problem:
     a serial algorithm will be used

     bravais-lattice index     =            0
     lattice parameter (alat)  =       1.8897  a.u.
     unit-cell volume          =    5849.0958 (a.u.)^3
     number of atoms/cell      =           12
     number of atomic types    =            2
     number of electrons       =       153.00
     number of Kohn-Sham states=          106
     kinetic-energy cutoff     =      36.7493  Ry
     charge density cutoff     =     367.4932  Ry
     convergence threshold     =      1.0E-06
     mixing beta               =       0.1000
     number of iterations used =           10  plain     mixing
     Exchange-correlation      = BEEF-VDW ( 1  4 27 13 2)
     nstep                     =           50

     celldm(1)=   1.889726  celldm(2)=   0.000000  celldm(3)=   0.000000
     celldm(4)=   0.000000  celldm(5)=   0.000000  celldm(6)=   0.000000

     crystal axes: (cart. coord. in units of alat)
               a(1) = (   6.308212   0.000000   0.000000 )
               a(2) = (  -3.154106   5.463072   0.000000 )
               a(3) = (   0.000000   0.000000  25.150634 )

     reciprocal axes: (cart. coord. in units 2 pi/alat)
               b(1) = (  0.158524  0.091524  0.000000 )
               b(2) = (  0.000000  0.183047  0.000000 )
               b(3) = (  0.000000  0.000000  0.039760 )

     PseudoPot. # 1 for In read from file:
     /afs/slac.stanford.edu/u/if/mamunm/psp/gbrv1.5pbe/In.UPF
     MD5 check sum: 90777abd96fbb83f2e67db2a40c566b9
     Pseudo is Ultrasoft + core correction, Zval = 13.0
     Generated by new atomic code, or converted to UPF format
     Using radial grid of  889 points,  6 beta functions with:
                l(1) =   0
                l(2) =   0
                l(3) =   1
                l(4) =   1
                l(5) =   2
                l(6) =   2
     Q(r) pseudized with  6 coefficients,  rinner =    1.400   1.400   1.400
                                                       1.400   1.400

     PseudoPot. # 2 for Ti read from file:
     /afs/slac.stanford.edu/u/if/mamunm/psp/gbrv1.5pbe/Ti.UPF
     MD5 check sum: 88a00a6731bd790ddea75d31a80cb452
     Pseudo is Ultrasoft + core correction, Zval = 12.0
     Generated by new atomic code, or converted to UPF format
     Using radial grid of  851 points,  6 beta functions with:
                l(1) =   0
                l(2) =   0
                l(3) =   1
                l(4) =   1
                l(5) =   2
                l(6) =   2
     Q(r) pseudized with  6 coefficients,  rinner =    1.000   1.000   1.000
                                                       1.000   1.000

     vdW kernel table read from file vdW_kernel_table
     MD5 check sum: 095c7af220d748ca6e76c0b4c6cfb241

     atomic species   valence    mass     pseudopotential
        In1           13.00   114.81800     In( 1.00)
        Ti1           12.00    47.86700     Ti( 1.00)

     No symmetry found

   Cartesian axes

     site n.     atom                  positions (alat units)
         1           In1 tau(   1) = (   0.0000000   0.0000000  10.0000000  )
         2           In1 tau(   2) = (  -1.5770530   2.7315360  10.0000000  )
         3           In1 tau(   3) = (   1.5770530   2.7315360  10.0000000  )
         4           Ti1 tau(   4) = (   3.1541060   0.0000000  10.0000000  )
         5           In1 tau(   5) = (   3.1541060   1.8210240  12.5753168  )
         6           In1 tau(   6) = (   1.5770530   4.5525599  12.5753168  )
         7           In1 tau(   7) = (  -1.5770530   4.5525599  12.5753168  )
         8           Ti1 tau(   8) = (   0.0000000   1.8210240  12.5753168  )
         9           In1 tau(   9) = (  -0.0000000   3.6420480  15.1506336  )
        10           In1 tau(  10) = (   1.5770530   0.9105120  15.1506336  )
        11           In1 tau(  11) = (   4.7311591   0.9105120  15.1506336  )
        12           Ti1 tau(  12) = (   3.1541060   3.6420480  15.1506336  )

     number of k points=    20  Fermi-Dirac smearing, width (Ry)=  0.0110
                       cart. coord. in units 2pi/alat
        k(    1) = (   0.0000000   0.0000000   0.0000000), wk =   0.0555556
        k(    2) = (   0.0000000   0.0305079   0.0000000), wk =   0.1111111
        k(    3) = (   0.0000000   0.0610157   0.0000000), wk =   0.1111111
        k(    4) = (   0.0000000  -0.0915236   0.0000000), wk =   0.0555556
        k(    5) = (   0.0264206   0.0152539   0.0000000), wk =   0.1111111
        k(    6) = (   0.0264206   0.0457618   0.0000000), wk =   0.1111111
        k(    7) = (   0.0264206   0.0762697   0.0000000), wk =   0.1111111
        k(    8) = (   0.0264206  -0.0762697   0.0000000), wk =   0.1111111
        k(    9) = (   0.0264206  -0.0457618   0.0000000), wk =   0.1111111
        k(   10) = (   0.0264206  -0.0152539   0.0000000), wk =   0.1111111
        k(   11) = (   0.0528412   0.0305079   0.0000000), wk =   0.1111111
        k(   12) = (   0.0528412   0.0610157   0.0000000), wk =   0.1111111
        k(   13) = (   0.0528412   0.0915236   0.0000000), wk =   0.1111111
        k(   14) = (   0.0528412  -0.0610157   0.0000000), wk =   0.1111111
        k(   15) = (   0.0528412  -0.0305079   0.0000000), wk =   0.1111111
        k(   16) = (   0.0528412   0.0000000   0.0000000), wk =   0.1111111
        k(   17) = (  -0.0792618  -0.0457618   0.0000000), wk =   0.0555556
        k(   18) = (  -0.0792618  -0.0152539   0.0000000), wk =   0.1111111
        k(   19) = (  -0.0792618   0.0152539   0.0000000), wk =   0.1111111
        k(   20) = (  -0.0792618  -0.1372854   0.0000000), wk =   0.0555556

     Largest allocated arrays     est. size (Mb)     dimensions
     Largest temporary arrays     est. size (Mb)     dimensions

     Check: negative/imaginary core charge=   -0.000002    0.000000

     Initial potential from superposition of free atoms
     Check: negative starting charge=   -0.005133

     starting charge  136.49986, renormalised to  153.00000

     negative rho (up, down):  5.754E-03 0.000E+00

     *
     * You are using vdW-DF for exchange-correlation in this calculation.
     * Please cite the following three references that made this development
     * possible:
     *
     *   M. Dion, H. Rydberg, E. Schroder, D. C. Langreth, and
     *   B. I. Lundqvist, Phys. Rev. Lett. 92, 246401 (2004).
     *
     *   T. Thonhauser, V. R. Cooper, S. Li, A. Puzder, P. Hyldgaard, and
     *   D. C. Langreth, Phys. Rev. B 76, 125112 (2007).
     *
     *   G. Roman-Perez and J. M. Soler, Phys. Rev. Lett. 103, 096102 (2009).
     *
     *
     * If you are using vdW-DF2, please also cite:
     *
     *   K. Lee, E. D. Murray, L. Kong, B. I. Lundqvist, and
     *   D. C. Langreth, Phys. Rev. B 82, 081101(R) (2010).
     *
     *
     * If you are calculating the stress with vdW-DF, please also cite:
     *
     *   R. Sabatini, E. Kucukbenli, B. Kolb, T. Thonhauser, and
     *   S. de Gironcoli, J. Phys.: Condens. Matter 24, 424209 (2012).
     *

     Carrying out vdW-DF run using the following parameters:

     Nqs =      20    Nr_points =    1024   r_max =   100.000
     q_mesh =
               0.00001000     0.04494208     0.09755937     0.15916263
               0.23128650     0.31572767     0.41458969     0.53033537
               0.66584808     0.82450364     1.01025438     1.22772762
               1.48234092     1.78043706     2.12944203     2.53805004
               3.01644009     3.57652955     4.23227104     5.00000000

     Gradients computed in reciprocal space

     Adding external electric field

     Computed dipole along edir(3) :
        Dipole                0.0000 Ry au,          0.0000 Debye
        Dipole field          0.0000 Ry au

        Potential amp.       -0.0000 Ry
        Total length         46.3396 bohr

     Starting wfc are  111 randomized atomic wfcs

     Self-consistent Calculation

     iteration #  1     ecut=    36.75 Ry     beta=0.10
     Davidson diagonalization with overlap
     ethr =  1.00E-02,  avg # of iterations =  8.3

[...]

     total energy              =   -1574.73168879 Ry
     Harris-Foulkes estimate   =   -1584.86262949 Ry
     estimated scf accuracy    <      58.53416268 Ry

[...]

     End of self-consistent calculation

          k = 0.0000 0.0000 0.0000 ( 22027 PWs)   bands (ev):

   -56.9284 -56.9279 -56.7395 -33.2819 -33.2814 -33.0821 -33.0821 -33.0817
   -33.0817 -32.9812 -32.9811 -32.9547 -14.5258 -14.4627 -14.4627 -14.4551
   -14.3203 -14.3168 -14.2902 -14.2902 -14.2877 -14.2601 -14.2601 -14.2085
   -14.2085 -14.1836 -14.1615 -14.1481 -14.1481 -14.0791 -14.0791 -14.0778
   -14.0778 -14.0657 -14.0424 -14.0282 -14.0282 -14.0025 -13.9165 -13.9165
   -13.9095 -13.9095 -13.8859 -13.8840 -13.8840 -13.8796 -13.8796 -13.8540
   -13.8289 -13.8289 -13.8283 -13.8283 -13.7836 -13.7626 -13.7626 -13.6511
   -13.6500  -8.5347  -7.0118  -4.9710  -3.8049  -3.8049  -3.2325  -3.2325
    -2.6957  -2.1025  -2.1025  -1.8898  -1.5222  -1.3894  -1.3894  -1.0301
     0.2697   0.2697   0.2908   0.2908   0.3614   0.9874   0.9874   0.9884
     0.9884   1.3392   1.4111   1.6111   1.6111   2.1363   2.1402   2.1403
     2.1646   2.1646   2.4842   2.4842   2.8346   3.1250   3.4841   4.0930
     4.4504   4.6300   4.6300   4.8507   4.8507   5.0365   5.2517   5.4950
     5.6745   6.1292

[...]

          k =-0.0793-0.0458 0.0000 ( 21932 PWs)   bands (ev):

[...]

     the Fermi energy is     0.7301 ev

!    total energy              =   -1572.57780510 Ry
     Harris-Foulkes estimate   =   -1572.57962792 Ry
     estimated scf accuracy    <       0.00000095 Ry

     The total energy is the sum of the following terms:

     one-electron contribution =   -9856.12868140 Ry
     hartree contribution      =    4984.03499428 Ry
     xc contribution           =    -408.52360760 Ry
     ewald contribution        =    3708.09895221 Ry
     electric field correction =       0.00000000 Ry
     smearing contrib. (-TS)   =      -0.05946258 Ry

     convergence has been achieved in  19 iterations

 BEEF-vdW xc energy contributions
           1 :   -357.022208144953
           2 :    325.631606091003
           3 :   -272.839823977092
           4 :    213.738771516816
           5 :   -161.827683015354
           6 :    124.061492094387
           7 :   -99.8033336121619
           8 :    83.4657917287506
           9 :   -68.8121648801388
          10 :    52.3996139762879
          11 :   -34.5946842362019
          12 :    18.1875648276916
          13 :   -5.95901437226087
          14 :   -1.15573803075972
          15 :    4.36335914320136
[...]

     PseudoPot. # 1 for In read from file:
     /afs/slac.stanford.edu/u/if/mamunm/psp/gbrv1.5pbe/In.UPF
     MD5 check sum: 90777abd96fbb83f2e67db2a40c566b9
     Pseudo is Ultrasoft + core correction, Zval = 13.0
     Generated by new atomic code, or converted to UPF format
     Using radial grid of  889 points,  6 beta functions with:
                l(1) =   0
                l(2) =   0
                l(3) =   1
                l(4) =   1
                l(5) =   2
                l(6) =   2
     Q(r) pseudized with  6 coefficients,  rinner =    1.400   1.400   1.400
                                                       1.400   1.400

     PseudoPot. # 2 for Ti read from file:
     /afs/slac.stanford.edu/u/if/mamunm/psp/gbrv1.5pbe/Ti.UPF
     MD5 check sum: 88a00a6731bd790ddea75d31a80cb452
     Pseudo is Ultrasoft + core correction, Zval = 12.0
     Generated by new atomic code, or converted to UPF format
     Using radial grid of  851 points,  6 beta functions with:
                l(1) =   0
                l(2) =   0
                l(3) =   1
                l(4) =   1
                l(5) =   2
                l(6) =   2
     Q(r) pseudized with  6 coefficients,  rinner =    1.000   1.000   1.000
                                                       1.000   1.000

     vdW kernel table read from file vdW_kernel_table
     MD5 check sum: 095c7af220d748ca6e76c0b4c6cfb241

     atomic species   valence    mass     pseudopotential
        In1           13.00   114.81800     In( 1.00)
        Ti1           12.00    47.86700     Ti( 1.00)

     No symmetry found

   Cartesian axes

     site n.     atom                  positions (alat units)
         1           In1 tau(   1) = (   0.0000000   0.0000000  10.0000000  )
         2           In1 tau(   2) = (  -1.5770530   2.7315360  10.0000000  )
         3           In1 tau(   3) = (   1.5770530   2.7315360  10.0000000  )
         4           Ti1 tau(   4) = (   3.1541060   0.0000000  10.0000000  )
         5           In1 tau(   5) = (   3.1541060   1.8210240  12.5753168  )
         6           In1 tau(   6) = (   1.5770530   4.5525599  12.5753168  )
         7           In1 tau(   7) = (  -1.5770530   4.5525599  12.5753168  )
         8           Ti1 tau(   8) = (   0.0000000   1.8210240  12.5753168  )
         9           In1 tau(   9) = (  -0.0000019   3.6368957  15.3606910  )
        10           In1 tau(  10) = (   1.5724978   0.9132041  15.3607237  )
        11           In1 tau(  11) = (   4.7357089   0.9131991  15.3607302  )
        12           Ti1 tau(  12) = (   3.1541036   3.6420757  14.8761933  )

     number of k points=    20  Fermi-Dirac smearing, width (Ry)=  0.0110
                       cart. coord. in units 2pi/alat
        k(    1) = (   0.0000000   0.0000000   0.0000000), wk =   0.0555556
        k(    2) = (   0.0000000   0.0305079   0.0000000), wk =   0.1111111
        k(    3) = (   0.0000000   0.0610157   0.0000000), wk =   0.1111111
        k(    4) = (   0.0000000  -0.0915236   0.0000000), wk =   0.0555556
        k(    5) = (   0.0264206   0.0152539   0.0000000), wk =   0.1111111
        k(    6) = (   0.0264206   0.0457618   0.0000000), wk =   0.1111111
        k(    7) = (   0.0264206   0.0762697   0.0000000), wk =   0.1111111
        k(    8) = (   0.0264206  -0.0762697   0.0000000), wk =   0.1111111
        k(    9) = (   0.0264206  -0.0457618   0.0000000), wk =   0.1111111
        k(   10) = (   0.0264206  -0.0152539   0.0000000), wk =   0.1111111
        k(   11) = (   0.0528412   0.0305079   0.0000000), wk =   0.1111111
        k(   12) = (   0.0528412   0.0610157   0.0000000), wk =   0.1111111
        k(   13) = (   0.0528412   0.0915236   0.0000000), wk =   0.1111111
        k(   14) = (   0.0528412  -0.0610157   0.0000000), wk =   0.1111111
        k(   15) = (   0.0528412  -0.0305079   0.0000000), wk =   0.1111111
        k(   16) = (   0.0528412   0.0000000   0.0000000), wk =   0.1111111
        k(   17) = (  -0.0792618  -0.0457618   0.0000000), wk =   0.0555556
        k(   18) = (  -0.0792618  -0.0152539   0.0000000), wk =   0.1111111
        k(   19) = (  -0.0792618   0.0152539   0.0000000), wk =   0.1111111
        k(   20) = (  -0.0792618  -0.1372854   0.0000000), wk =   0.0555556

     Largest allocated arrays     est. size (Mb)     dimensions
     Largest temporary arrays     est. size (Mb)     dimensions

     Check: negative/imaginary core charge=   -0.000002    0.000000

     Initial potential from superposition of free atoms
     Check: negative starting charge=   -0.005083

     starting charge  136.49986, renormalised to  153.00000

[...]

     *
     * You are using vdW-DF for exchange-correlation in this calculation.
     * Please cite the following three references that made this development
     * possible:
     *
     *   M. Dion, H. Rydberg, E. Schroder, D. C. Langreth, and
     *   B. I. Lundqvist, Phys. Rev. Lett. 92, 246401 (2004).
     *
     *   T. Thonhauser, V. R. Cooper, S. Li, A. Puzder, P. Hyldgaard, and
     *   D. C. Langreth, Phys. Rev. B 76, 125112 (2007).
     *
     *   G. Roman-Perez and J. M. Soler, Phys. Rev. Lett. 103, 096102 (2009).
     *
     *
     * If you are using vdW-DF2, please also cite:
     *
     *   K. Lee, E. D. Murray, L. Kong, B. I. Lundqvist, and
     *   D. C. Langreth, Phys. Rev. B 82, 081101(R) (2010).
     *
     *
     * If you are calculating the stress with vdW-DF, please also cite:
     *
     *   R. Sabatini, E. Kucukbenli, B. Kolb, T. Thonhauser, and
     *   S. de Gironcoli, J. Phys.: Condens. Matter 24, 424209 (2012).
     *

     Carrying out vdW-DF run using the following parameters:

     Nqs =      20    Nr_points =    1024   r_max =   100.000
     q_mesh =
               0.00001000     0.04494208     0.09755937     0.15916263
               0.23128650     0.31572767     0.41458969     0.53033537
               0.66584808     0.82450364     1.01025438     1.22772762
               1.48234092     1.78043706     2.12944203     2.53805004
               3.01644009     3.57652955     4.23227104     5.00000000

     Gradients computed in reciprocal space

[...]

     Starting wfc are  111 randomized atomic wfcs

     Self-consistent Calculation

[...]

     total energy              =   -1572.60944806 Ry
     Harris-Foulkes estimate   =   -1572.60944661 Ry
     estimated scf accuracy    <       0.00000351 Ry

     iteration # 20     ecut=    36.75 Ry     beta=0.10
     Davidson diagonalization with overlap
     ethr =  2.29E-09,  avg # of iterations =  2.0

[...]

     negative rho (up, down):  2.788E-03 0.000E+00

     Adding external electric field

     Computed dipole along edir(3) :
        Dipole                0.0184 Ry au,          0.0468 Debye
        Dipole field          0.0000 Ry au

        Potential amp.       -0.0037 Ry
        Total length         46.3396 bohr

     End of self-consistent calculation

[...]

          k = 0.0528 0.0000 0.0000 ( 22029 PWs)   bands (ev):

[...]

          k =-0.0793-0.1373 0.0000 ( 21932 PWs)   bands (ev):

   -56.9194 -56.8242 -56.7805 -33.2668 -33.1259 -33.0747 -33.0745 -33.0161
   -33.0160 -33.0124 -33.0118 -32.9970 -14.3917 -14.3068 -14.2776 -14.2695
   -14.2605 -14.2306 -14.2184 -14.1949 -14.1873 -14.1808 -14.1562 -14.1405
   -14.1143 -14.1063 -14.1001 -14.0967 -14.0661 -14.0609 -14.0551 -14.0441
   -14.0344 -14.0164 -14.0134 -14.0110 -13.9981 -13.9923 -13.9887 -13.9794
   -13.9759 -13.9660 -13.9615 -13.9609 -13.9535 -13.9395 -13.9378 -13.9353
   -13.9201 -13.9021 -13.8975 -13.8849 -13.8628 -13.8400 -13.8197 -13.7759
   -13.7380  -7.2565  -6.8798  -5.6660  -5.4891  -4.5102  -4.4272  -3.8518
    -3.1098  -2.4333  -1.8110  -1.4247  -0.9456  -0.3415  -0.2603  -0.2570
     0.1021   0.2000   0.4716   0.6625   0.9246   1.1190   1.3142   1.4859
     1.5288   1.5822   1.7082   1.7371   1.7747   2.0499   2.1152   2.7645
     2.7775   2.9616   3.2676   3.3681   3.4498   3.7070   3.7396   3.9795
     4.0636   4.5547   4.8991   5.0058   5.0289   5.0548   5.1349   5.5410
     5.6328   5.6838

     the Fermi energy is     0.7202 ev

!    total energy              =   -1572.60945357 Ry
     Harris-Foulkes estimate   =   -1572.60944812 Ry
     estimated scf accuracy    <       0.00000097 Ry

     The total energy is the sum of the following terms:

     one-electron contribution =   -9717.42980213 Ry
     hartree contribution      =    4914.73652391 Ry
     xc contribution           =    -408.45318034 Ry
     ewald contribution        =    3638.59305226 Ry
     electric field correction =       0.00000073 Ry
     smearing contrib. (-TS)   =      -0.05604800 Ry

     convergence has been achieved in  20 iterations

 BEEF-vdW xc energy contributions
           1 :   -357.000627820671
           2 :    325.563183231119
           3 :   -272.714735978063
           4 :    213.595742483735
           5 :   -161.729435766198
           6 :    124.049761194772
           7 :   -99.8658046772763
           8 :    83.5442331589015
           9 :   -68.8488573342490
          10 :    52.3825900470991
          11 :   -34.5618731647461
          12 :    18.1894998391531
          13 :   -6.01537115550366
          14 :   -1.06910535642953
          15 :    4.29091354593243
          16 :   -5.92633091519241
          17 :    7.84721855010605
          18 :   -10.6325110689231
          19 :    13.6262774212292
          20 :   -15.6883276696880
          21 :    16.0447548452903
          22 :   -14.7335944769341
          23 :    12.4812171056742
          24 :   -10.2080995929111
          25 :    8.52468046145901
          26 :   -7.50684661182288
          27 :    6.81484429811604
          28 :   -6.01297697597198
          29 :    4.86146708059101
          30 :   -3.42261674851864
          31 :   -33.0860462502491
          32 :   -24.0205492318736

     Forces acting on atoms (Ry/au):

     negative rho (up, down):  2.788E-03 0.000E+00
     atom    1 type  1   force =     0.00000002    0.00713540   -0.02587194
     atom    2 type  1   force =     0.00617940   -0.00357409   -0.02587097
     atom    3 type  1   force =    -0.00617884   -0.00357496   -0.02587165
     atom    4 type  2   force =    -0.00000011    0.00000585    0.05721830
     atom    5 type  1   force =     0.00000042   -0.01216288    0.00284506
     atom    6 type  1   force =    -0.01053503    0.00608074    0.00284567
     atom    7 type  1   force =     0.01053486    0.00608057    0.00284584
     atom    8 type  2   force =    -0.00000018    0.00000560    0.00905770
     atom    9 type  1   force =    -0.00000031   -0.00171920    0.00066950
     atom   10 type  1   force =    -0.00149113    0.00086014    0.00066417
     atom   11 type  1   force =     0.00149075    0.00086078    0.00066434
     atom   12 type  2   force =     0.00000016    0.00000205    0.00080397

     Total force =     0.077433     Total SCF correction =     0.004677

     entering subroutine stress ...

     negative rho (up, down):  2.788E-03 0.000E+00
          total   stress  (Ry/bohr**3)                   (kbar)     P=  -10.49
  -0.00011427  -0.00000000   0.00000000        -16.81     -0.00      0.00
  -0.00000000  -0.00011423  -0.00000000         -0.00    -16.80     -0.00
   0.00000000  -0.00000000   0.00001457          0.00     -0.00      2.14

 !ASE

     Writing output data file calc.save

     General routines

     Parallel routines

   This run was terminated on:  15:59:57  26Dec2018

   JOB DONE.
Job  /afs/slac/g/suncat/bin/suncat-tsmpirun -x LD_LIBRARY_PATH -wdir /scratch/qe109903_EEtoQ pw.x -in pw.inp

TID   HOST_NAME   COMMAND_LINE            STATUS            TERMINATION_TIME
00000 suncat0097 pw.x -in pw.inp   Done                     12/26/2018 15:59:57
00001 suncat0097 pw.x -in pw.inp   Done                     12/26/2018 15:59:57
00002 suncat0097 pw.x -in pw.inp   Done                     12/26/2018 15:59:57
00003 suncat0097 pw.x -in pw.inp   Done                     12/26/2018 15:59:57
00004 suncat0097 pw.x -in pw.inp   Done                     12/26/2018 15:59:57
00005 suncat0097 pw.x -in pw.inp   Done                     12/26/2018 15:59:57
00006 suncat0097 pw.x -in pw.inp   Done                     12/26/2018 15:59:57
00007 suncat0097 pw.x -in pw.inp   Done                     12/26/2018 15:59:57
00008 suncat0096 pw.x -in pw.inp   Done                     12/26/2018 15:59:57
00009 suncat0096 pw.x -in pw.inp   Done                     12/26/2018 15:59:57
00010 suncat0096 pw.x -in pw.inp   Done                     12/26/2018 15:59:57
00011 suncat0096 pw.x -in pw.inp   Done                     12/26/2018 15:59:57
00012 suncat0096 pw.x -in pw.inp   Done                     12/26/2018 15:59:57
00013 suncat0096 pw.x -in pw.inp   Done                     12/26/2018 15:59:57
00014 suncat0096 pw.x -in pw.inp   Done                     12/26/2018 15:59:57
00015 suncat0096 pw.x -in pw.inp   Done                     12/26/2018 15:59:57
00016 suncat0095 pw.x -in pw.inp   Done                     12/26/2018 15:59:57
00017 suncat0095 pw.x -in pw.inp   Done                     12/26/2018 15:59:57
00018 suncat0095 pw.x -in pw.inp   Done                     12/26/2018 15:59:57
00019 suncat0095 pw.x -in pw.inp   Done                     12/26/2018 15:59:57
00020 suncat0095 pw.x -in pw.inp   Done                     12/26/2018 15:59:57
00021 suncat0095 pw.x -in pw.inp   Done                     12/26/2018 15:59:57
00022 suncat0095 pw.x -in pw.inp   Done                     12/26/2018 15:59:57
00023 suncat0095 pw.x -in pw.inp   Done                     12/26/2018 15:59:57
00024 suncat0094 pw.x -in pw.inp   Done                     12/26/2018 15:59:57
00025 suncat0094 pw.x -in pw.inp   Done                     12/26/2018 15:59:57
00026 suncat0094 pw.x -in pw.inp   Done                     12/26/2018 15:59:57
00027 suncat0094 pw.x -in pw.inp   Done                     12/26/2018 15:59:57
00028 suncat0094 pw.x -in pw.inp   Done                     12/26/2018 15:59:57
00029 suncat0094 pw.x -in pw.inp   Done                     12/26/2018 15:59:57
00030 suncat0094 pw.x -in pw.inp   Done                     12/26/2018 15:59:57
00031 suncat0094 pw.x -in pw.inp   Done                     12/26/2018 15:59:57
00032 suncat0093 pw.x -in pw.inp   Done                     12/26/2018 15:59:57
00033 suncat0093 pw.x -in pw.inp   Done                     12/26/2018 15:59:57
00034 suncat0093 pw.x -in pw.inp   Done                     12/26/2018 15:59:57
00035 suncat0093 pw.x -in pw.inp   Done                     12/26/2018 15:59:57
00036 suncat0093 pw.x -in pw.inp   Done                     12/26/2018 15:59:57
00037 suncat0093 pw.x -in pw.inp   Done                     12/26/2018 15:59:57
00038 suncat0093 pw.x -in pw.inp   Done                     12/26/2018 15:59:57
00039 suncat0093 pw.x -in pw.inp   Done                     12/26/2018 15:59:57
00040 suncat0250 pw.x -in pw.inp   Done                     12/26/2018 15:59:57
00041 suncat0250 pw.x -in pw.inp   Done                     12/26/2018 15:59:57
00042 suncat0250 pw.x -in pw.inp   Done                     12/26/2018 15:59:57
00043 suncat0250 pw.x -in pw.inp   Done                     12/26/2018 15:59:57
00044 suncat0250 pw.x -in pw.inp   Done                     12/26/2018 15:59:57
00045 suncat0250 pw.x -in pw.inp   Done                     12/26/2018 15:59:57
00046 suncat0250 pw.x -in pw.inp   Done                     12/26/2018 15:59:57
00047 suncat0250 pw.x -in pw.inp   Done                     12/26/2018 15:59:57
00048 suncat0249 pw.x -in pw.inp   Done                     12/26/2018 15:59:57
00049 suncat0249 pw.x -in pw.inp   Done                     12/26/2018 15:59:57
00050 suncat0249 pw.x -in pw.inp   Done                     12/26/2018 15:59:57
00051 suncat0249 pw.x -in pw.inp   Done                     12/26/2018 15:59:57
00052 suncat0249 pw.x -in pw.inp   Done                     12/26/2018 15:59:57
00053 suncat0249 pw.x -in pw.inp   Done                     12/26/2018 15:59:57
00054 suncat0249 pw.x -in pw.inp   Done                     12/26/2018 15:59:57
00055 suncat0249 pw.x -in pw.inp   Done                     12/26/2018 15:59:57
00056 suncat0231 pw.x -in pw.inp   Done                     12/26/2018 15:59:57
00057 suncat0231 pw.x -in pw.inp   Done                     12/26/2018 15:59:57
00058 suncat0231 pw.x -in pw.inp   Done                     12/26/2018 15:59:57
00059 suncat0231 pw.x -in pw.inp   Done                     12/26/2018 15:59:57
00060 suncat0231 pw.x -in pw.inp   Done                     12/26/2018 15:59:57
00061 suncat0231 pw.x -in pw.inp   Done                     12/26/2018 15:59:57
00062 suncat0231 pw.x -in pw.inp   Done                     12/26/2018 15:59:57
00063 suncat0231 pw.x -in pw.inp   Done                     12/26/2018 15:59:57