     Program PWSCF v.5.1rc2 (svn rev. 11289) starts on 19Dec2018 at 18:18:51

     Current dimensions of program PWSCF are:
     Max number of different atomic species (ntypx) = 10
     Max number of k-points (npk) =  40000
     Max angular momentum in pseudopotentials (lmaxx) =  3
     Presently stress not available with electric field

     IMPORTANT: XC functional enforced from input :
     Exchange-correlation      = BEEF-VDW ( 1  4 27 13 2)
     Any further DFT definition will be discarded
     Please, verify this is what you really want

     Subspace diagonalization in iterative solution of the eigenvalue problem:
     a serial algorithm will be used

     bravais-lattice index     =            0
     lattice parameter (alat)  =       1.8897  a.u.
     unit-cell volume          =    5324.1837 (a.u.)^3
     number of atoms/cell      =           12
     number of atomic types    =            2
     number of electrons       =        69.00
     number of Kohn-Sham states=           64
     kinetic-energy cutoff     =      36.7493  Ry
     charge density cutoff     =     367.4932  Ry
     convergence threshold     =      1.0E-06
     mixing beta               =       0.1000
     number of iterations used =           10  plain     mixing
     Exchange-correlation      = BEEF-VDW ( 1  4 27 13 2)
     nstep                     =           50

     celldm(1)=   1.889726  celldm(2)=   0.000000  celldm(3)=   0.000000
     celldm(4)=   0.000000  celldm(5)=   0.000000  celldm(6)=   0.000000

     crystal axes: (cart. coord. in units of alat)
               a(1) = (   6.044438   0.000000   0.000000 )
               a(2) = (  -3.022219   5.234637   0.000000 )
               a(3) = (   0.000000   0.000000  24.935263 )

     reciprocal axes: (cart. coord. in units 2 pi/alat)
               b(1) = (  0.165441  0.095518  0.000000 )
               b(2) = (  0.000000  0.191035  0.000000 )
               b(3) = (  0.000000  0.000000  0.040104 )

     PseudoPot. # 1 for Al read from file:
     /afs/slac.stanford.edu/u/if/mamunm/psp/gbrv1.5pbe/Al.UPF
     MD5 check sum: 0a6289f5291fc8f409219462bc851e1f
     Pseudo is Ultrasoft + core correction, Zval =  3.0
     Generated by new atomic code, or converted to UPF format
     Using radial grid of  893 points,  3 beta functions with:
                l(1) =   0
                l(2) =   1
                l(3) =   2
     Q(r) pseudized with  8 coefficients,  rinner =    0.900   0.900   0.900
                                                       0.900   0.900

     PseudoPot. # 2 for Sn read from file:
     /afs/slac.stanford.edu/u/if/mamunm/psp/gbrv1.5pbe/Sn.UPF
     MD5 check sum: 469debedee59599fedebd795477fea03
     Pseudo is Ultrasoft + core correction, Zval = 14.0
     Generated by new atomic code, or converted to UPF format
     Using radial grid of  891 points,  6 beta functions with:
                l(1) =   0
                l(2) =   0
                l(3) =   1
                l(4) =   1
                l(5) =   2
                l(6) =   2
     Q(r) pseudized with  8 coefficients,  rinner =    1.350   1.350   1.350
                                                       1.350   1.350

     vdW kernel table read from file vdW_kernel_table
     MD5 check sum: 095c7af220d748ca6e76c0b4c6cfb241

     atomic species   valence    mass     pseudopotential
        Al1            3.00    26.98154     Al( 1.00)
        Sn1           14.00   118.71000     Sn( 1.00)

     No symmetry found

   Cartesian axes

     site n.     atom                  positions (alat units)
         1           Al1 tau(   1) = (   0.0000000   0.0000000  10.0000000  )
         2           Al1 tau(   2) = (  -1.5111095   2.6173184  10.0000000  )
         3           Al1 tau(   3) = (   1.5111095   2.6173184  10.0000000  )
         4           Sn1 tau(   4) = (   3.0222190   0.0000000  10.0000000  )
         5           Al1 tau(   5) = (   3.0222190   1.7448789  12.4676315  )
         6           Al1 tau(   6) = (   1.5111095   4.3621973  12.4676315  )
         7           Al1 tau(   7) = (  -1.5111095   4.3621973  12.4676315  )
         8           Sn1 tau(   8) = (   0.0000000   1.7448789  12.4676315  )
         9           Al1 tau(   9) = (  -0.0000000   3.4897579  14.9352629  )
        10           Al1 tau(  10) = (   1.5111095   0.8724395  14.9352629  )
        11           Al1 tau(  11) = (   4.5333285   0.8724395  14.9352629  )
        12           Sn1 tau(  12) = (   3.0222190   3.4897579  14.9352629  )

     number of k points=    20  Fermi-Dirac smearing, width (Ry)=  0.0110
                       cart. coord. in units 2pi/alat
        k(    1) = (   0.0000000   0.0000000   0.0000000), wk =   0.0555556
        k(    2) = (   0.0000000   0.0318392   0.0000000), wk =   0.1111111
        k(    3) = (   0.0000000   0.0636784   0.0000000), wk =   0.1111111
        k(    4) = (   0.0000000  -0.0955176   0.0000000), wk =   0.0555556
        k(    5) = (   0.0275736   0.0159196   0.0000000), wk =   0.1111111
        k(    6) = (   0.0275736   0.0477588   0.0000000), wk =   0.1111111
        k(    7) = (   0.0275736   0.0795980   0.0000000), wk =   0.1111111
        k(    8) = (   0.0275736  -0.0795980   0.0000000), wk =   0.1111111
        k(    9) = (   0.0275736  -0.0477588   0.0000000), wk =   0.1111111
        k(   10) = (   0.0275736  -0.0159196   0.0000000), wk =   0.1111111
        k(   11) = (   0.0551471   0.0318392   0.0000000), wk =   0.1111111
        k(   12) = (   0.0551471   0.0636784   0.0000000), wk =   0.1111111
        k(   13) = (   0.0551471   0.0955176   0.0000000), wk =   0.1111111
        k(   14) = (   0.0551471  -0.0636784   0.0000000), wk =   0.1111111
        k(   15) = (   0.0551471  -0.0318392   0.0000000), wk =   0.1111111
        k(   16) = (   0.0551471   0.0000000   0.0000000), wk =   0.1111111
        k(   17) = (  -0.0827207  -0.0477588   0.0000000), wk =   0.0555556
        k(   18) = (  -0.0827207  -0.0159196   0.0000000), wk =   0.1111111
        k(   19) = (  -0.0827207   0.0159196   0.0000000), wk =   0.1111111
        k(   20) = (  -0.0827207  -0.1432764   0.0000000), wk =   0.0555556

     Largest allocated arrays     est. size (Mb)     dimensions
     Largest temporary arrays     est. size (Mb)     dimensions

     Initial potential from superposition of free atoms
     Check: negative starting charge=   -0.000592

     starting charge   65.97768, renormalised to   69.00000

     negative rho (up, down):  6.189E-04 0.000E+00

     *
     * You are using vdW-DF for exchange-correlation in this calculation.
     * Please cite the following three references that made this development
     * possible:
     *
     *   M. Dion, H. Rydberg, E. Schroder, D. C. Langreth, and
     *   B. I. Lundqvist, Phys. Rev. Lett. 92, 246401 (2004).
     *
     *   T. Thonhauser, V. R. Cooper, S. Li, A. Puzder, P. Hyldgaard, and
     *   D. C. Langreth, Phys. Rev. B 76, 125112 (2007).
     *
     *   G. Roman-Perez and J. M. Soler, Phys. Rev. Lett. 103, 096102 (2009).
     *
     *
     * If you are using vdW-DF2, please also cite:
     *
     *   K. Lee, E. D. Murray, L. Kong, B. I. Lundqvist, and
     *   D. C. Langreth, Phys. Rev. B 82, 081101(R) (2010).
     *
     *
     * If you are calculating the stress with vdW-DF, please also cite:
     *
     *   R. Sabatini, E. Kucukbenli, B. Kolb, T. Thonhauser, and
     *   S. de Gironcoli, J. Phys.: Condens. Matter 24, 424209 (2012).
     *

     Carrying out vdW-DF run using the following parameters:

     Nqs =      20    Nr_points =    1024   r_max =   100.000
     q_mesh =
               0.00001000     0.04494208     0.09755937     0.15916263
               0.23128650     0.31572767     0.41458969     0.53033537
               0.66584808     0.82450364     1.01025438     1.22772762
               1.48234092     1.78043706     2.12944203     2.53805004
               3.01644009     3.57652955     4.23227104     5.00000000

     Gradients computed in reciprocal space

     Adding external electric field

     Computed dipole along edir(3) :
        Dipole               -0.0000 Ry au,         -0.0000 Debye
        Dipole field         -0.0000 Ry au

        Potential amp.        0.0000 Ry
        Total length         45.9428 bohr

     Starting wfc are   63 randomized atomic wfcs +    1 random wfc

     Self-consistent Calculation

     iteration #  1     ecut=    36.75 Ry     beta=0.10
     Davidson diagonalization with overlap
     ethr =  1.00E-02,  avg # of iterations =  7.9

[...]

     total energy              =    -544.09056526 Ry
     Harris-Foulkes estimate   =    -544.39769315 Ry
     estimated scf accuracy    <       1.78524986 Ry

[...]

     iteration #  7     ecut=    36.75 Ry     beta=0.10
     Davidson diagonalization with overlap
     c_bands:  1 eigenvalues not converged
     c_bands:  1 eigenvalues not converged
     c_bands:  1 eigenvalues not converged
     c_bands:  1 eigenvalues not converged
     c_bands:  1 eigenvalues not converged
     c_bands:  1 eigenvalues not converged
     ethr =  6.22E-06,  avg # of iterations = 10.8

[...]

     End of self-consistent calculation

          k = 0.0000 0.0000 0.0000 ( 19903 PWs)   bands (ev):

   -22.2018 -22.2018 -22.1892 -22.1866 -22.1866 -22.1608 -22.1602 -22.1594
   -22.1594 -22.1584 -22.1584 -22.1511 -22.1511 -22.1493 -22.1493 -10.9909
    -9.5207  -7.6731  -5.6958  -5.5806  -5.1332  -5.1332  -4.9698  -4.9698
    -4.1656  -3.9195  -3.8319  -3.8319  -3.3667  -3.2283  -3.2283  -1.7795
    -1.6144  -1.2930  -1.2930  -0.9994  -0.9994  -0.1007   1.4729   1.5419
     1.9938   1.9938   2.0516   2.0516   2.2042   3.0685   3.7596   4.0424
     4.4562   4.4933   4.4933   4.7597   4.9713   4.9713   5.4226   5.4854
     5.5724   5.5724   5.6088   5.7666   5.9557   5.9557   6.3368   6.7187

[...]

          k =-0.0827-0.0478 0.0000 ( 20072 PWs)   bands (ev):

[...]

     the Fermi energy is    -0.2481 ev

!    total energy              =    -543.73198098 Ry
     Harris-Foulkes estimate   =    -543.73198165 Ry
     estimated scf accuracy    <       0.00000041 Ry

     The total energy is the sum of the following terms:

     one-electron contribution =   -2337.78804013 Ry
     hartree contribution      =    1188.65254863 Ry
     xc contribution           =    -172.99384188 Ry
     ewald contribution        =     778.42699387 Ry
     electric field correction =       0.00000000 Ry
     smearing contrib. (-TS)   =      -0.02964148 Ry

     convergence has been achieved in  14 iterations

 BEEF-vdW xc energy contributions
           1 :   -149.690064852184
           2 :    135.215329807437
           3 :   -111.391355382919
           4 :    85.6500088205501
           5 :   -64.1681304814838
           6 :    49.6337870754128
           7 :   -41.2380212302163
           8 :    36.3484184162664
           9 :   -32.4941740636074
          10 :    28.4717335520500
          11 :   -24.2944310242479
          12 :    20.5151629213714
          13 :   -17.6195692439686
          14 :    15.7906653956624
          15 :   -14.9236196999839
          16 :    14.6750269568123
          17 :   -14.5274253739577
          18 :    13.9767182545976
[...]
               a(2) = (  -3.022219   5.234637   0.000000 )
               a(3) = (   0.000000   0.000000  24.935263 )

     reciprocal axes: (cart. coord. in units 2 pi/alat)
               b(1) = (  0.165441  0.095518  0.000000 )
               b(2) = (  0.000000  0.191035  0.000000 )
               b(3) = (  0.000000  0.000000  0.040104 )

     PseudoPot. # 1 for Al read from file:
     /afs/slac.stanford.edu/u/if/mamunm/psp/gbrv1.5pbe/Al.UPF
     MD5 check sum: 0a6289f5291fc8f409219462bc851e1f
     Pseudo is Ultrasoft + core correction, Zval =  3.0
     Generated by new atomic code, or converted to UPF format
     Using radial grid of  893 points,  3 beta functions with:
                l(1) =   0
                l(2) =   1
                l(3) =   2
     Q(r) pseudized with  8 coefficients,  rinner =    0.900   0.900   0.900
                                                       0.900   0.900

     PseudoPot. # 2 for Sn read from file:
     /afs/slac.stanford.edu/u/if/mamunm/psp/gbrv1.5pbe/Sn.UPF
     MD5 check sum: 469debedee59599fedebd795477fea03
     Pseudo is Ultrasoft + core correction, Zval = 14.0
     Generated by new atomic code, or converted to UPF format
     Using radial grid of  891 points,  6 beta functions with:
                l(1) =   0
                l(2) =   0
                l(3) =   1
                l(4) =   1
                l(5) =   2
                l(6) =   2
     Q(r) pseudized with  8 coefficients,  rinner =    1.350   1.350   1.350
                                                       1.350   1.350

     vdW kernel table read from file vdW_kernel_table
     MD5 check sum: 095c7af220d748ca6e76c0b4c6cfb241

     atomic species   valence    mass     pseudopotential
        Al1            3.00    26.98154     Al( 1.00)
        Sn1           14.00   118.71000     Sn( 1.00)

     No symmetry found

   Cartesian axes

     site n.     atom                  positions (alat units)
         1           Al1 tau(   1) = (   0.0000000   0.0000000  10.0000000  )
         2           Al1 tau(   2) = (  -1.5111095   2.6173184  10.0000000  )
         3           Al1 tau(   3) = (   1.5111095   2.6173184  10.0000000  )
         4           Sn1 tau(   4) = (   3.0222190   0.0000000  10.0000000  )
         5           Al1 tau(   5) = (   3.0222190   1.7448789  12.4676315  )
         6           Al1 tau(   6) = (   1.5111095   4.3621973  12.4676315  )
         7           Al1 tau(   7) = (  -1.5111095   4.3621973  12.4676315  )
         8           Sn1 tau(   8) = (   0.0000000   1.7448789  12.4676315  )
         9           Al1 tau(   9) = (  -0.0000053   3.5592408  14.7703267  )
        10           Al1 tau(  10) = (   1.5712931   0.8377112  14.7703251  )
        11           Al1 tau(  11) = (   4.4731424   0.8377159  14.7703256  )
        12           Sn1 tau(  12) = (   3.0222100   3.4897946  15.2453221  )

     number of k points=    20  Fermi-Dirac smearing, width (Ry)=  0.0110
                       cart. coord. in units 2pi/alat
        k(    1) = (   0.0000000   0.0000000   0.0000000), wk =   0.0555556
        k(    2) = (   0.0000000   0.0318392   0.0000000), wk =   0.1111111
        k(    3) = (   0.0000000   0.0636784   0.0000000), wk =   0.1111111
        k(    4) = (   0.0000000  -0.0955176   0.0000000), wk =   0.0555556
        k(    5) = (   0.0275736   0.0159196   0.0000000), wk =   0.1111111
        k(    6) = (   0.0275736   0.0477588   0.0000000), wk =   0.1111111
        k(    7) = (   0.0275736   0.0795980   0.0000000), wk =   0.1111111
        k(    8) = (   0.0275736  -0.0795980   0.0000000), wk =   0.1111111
        k(    9) = (   0.0275736  -0.0477588   0.0000000), wk =   0.1111111
        k(   10) = (   0.0275736  -0.0159196   0.0000000), wk =   0.1111111
        k(   11) = (   0.0551471   0.0318392   0.0000000), wk =   0.1111111
        k(   12) = (   0.0551471   0.0636784   0.0000000), wk =   0.1111111
        k(   13) = (   0.0551471   0.0955176   0.0000000), wk =   0.1111111
        k(   14) = (   0.0551471  -0.0636784   0.0000000), wk =   0.1111111
        k(   15) = (   0.0551471  -0.0318392   0.0000000), wk =   0.1111111
        k(   16) = (   0.0551471   0.0000000   0.0000000), wk =   0.1111111
        k(   17) = (  -0.0827207  -0.0477588   0.0000000), wk =   0.0555556
        k(   18) = (  -0.0827207  -0.0159196   0.0000000), wk =   0.1111111
        k(   19) = (  -0.0827207   0.0159196   0.0000000), wk =   0.1111111
        k(   20) = (  -0.0827207  -0.1432764   0.0000000), wk =   0.0555556

     Largest allocated arrays     est. size (Mb)     dimensions
     Largest temporary arrays     est. size (Mb)     dimensions

     Initial potential from superposition of free atoms
     Check: negative starting charge=   -0.000609

     starting charge   65.97768, renormalised to   69.00000

[...]

     *
     * You are using vdW-DF for exchange-correlation in this calculation.
     * Please cite the following three references that made this development
     * possible:
     *
     *   M. Dion, H. Rydberg, E. Schroder, D. C. Langreth, and
     *   B. I. Lundqvist, Phys. Rev. Lett. 92, 246401 (2004).
     *
     *   T. Thonhauser, V. R. Cooper, S. Li, A. Puzder, P. Hyldgaard, and
     *   D. C. Langreth, Phys. Rev. B 76, 125112 (2007).
     *
     *   G. Roman-Perez and J. M. Soler, Phys. Rev. Lett. 103, 096102 (2009).
     *
     *
     * If you are using vdW-DF2, please also cite:
     *
     *   K. Lee, E. D. Murray, L. Kong, B. I. Lundqvist, and
     *   D. C. Langreth, Phys. Rev. B 82, 081101(R) (2010).
     *
     *
     * If you are calculating the stress with vdW-DF, please also cite:
     *
     *   R. Sabatini, E. Kucukbenli, B. Kolb, T. Thonhauser, and
     *   S. de Gironcoli, J. Phys.: Condens. Matter 24, 424209 (2012).
     *

     Carrying out vdW-DF run using the following parameters:

     Nqs =      20    Nr_points =    1024   r_max =   100.000
     q_mesh =
               0.00001000     0.04494208     0.09755937     0.15916263
               0.23128650     0.31572767     0.41458969     0.53033537
               0.66584808     0.82450364     1.01025438     1.22772762
               1.48234092     1.78043706     2.12944203     2.53805004
               3.01644009     3.57652955     4.23227104     5.00000000

     Gradients computed in reciprocal space

[...]

     Starting wfc are   63 randomized atomic wfcs +    1 random wfc

     Self-consistent Calculation

[...]

     iteration #  9     ecut=    36.75 Ry     beta=0.10
     Davidson diagonalization with overlap
     c_bands:  1 eigenvalues not converged
     ethr =  1.60E-06,  avg # of iterations =  5.3

[...]

     total energy              =    -543.74435419 Ry
     Harris-Foulkes estimate   =    -543.74435517 Ry
     estimated scf accuracy    <       0.00000176 Ry

     iteration # 14     ecut=    36.75 Ry     beta=0.10
     Davidson diagonalization with overlap
     ethr =  2.55E-09,  avg # of iterations =  2.0

[...]

     negative rho (up, down):  3.693E-04 0.000E+00

     Adding external electric field

     Computed dipole along edir(3) :
        Dipole               -0.0189 Ry au,         -0.0480 Debye
        Dipole field         -0.0000 Ry au

        Potential amp.        0.0041 Ry
        Total length         45.9428 bohr

     End of self-consistent calculation

[...]

          k = 0.0551 0.0000 0.0000 ( 20019 PWs)   bands (ev):

[...]

          k =-0.0827-0.1433 0.0000 ( 20072 PWs)   bands (ev):

   -22.2638 -22.2632 -22.2470 -22.2467 -22.2465 -22.1986 -22.1896 -22.1894
   -22.1879 -22.1875 -22.1635 -22.1630 -22.1567 -22.1496 -22.1492  -9.9756
    -9.4625  -8.4845  -7.8032  -6.9315  -6.5284  -6.0845  -5.1594  -4.9076
    -4.8054  -3.1671  -2.7947  -2.2089  -2.0330  -1.3899  -1.3237  -1.1414
    -1.0375  -0.4449   0.2995   0.3370   0.4228   0.5918   0.9753   1.0171
     1.3628   1.3846   1.4899   2.3644   2.4891   2.5926   2.9029   2.9467
     3.0006   3.2717   3.5586   3.7810   3.8488   4.3778   4.4566   4.9455
     5.0973   5.1331   5.1479   5.4401   5.4939   5.5062   5.5747   5.5938

     the Fermi energy is    -0.3014 ev

!    total energy              =    -543.74435359 Ry
     Harris-Foulkes estimate   =    -543.74435455 Ry
     estimated scf accuracy    <       0.00000014 Ry

     The total energy is the sum of the following terms:

     one-electron contribution =   -2299.10802878 Ry
     hartree contribution      =    1169.22350314 Ry
     xc contribution           =    -173.02115344 Ry
     ewald contribution        =     759.18945142 Ry
     electric field correction =       0.00000084 Ry
     smearing contrib. (-TS)   =      -0.02812676 Ry

     convergence has been achieved in  14 iterations

 BEEF-vdW xc energy contributions
           1 :   -149.768699120653
           2 :    135.284503411114
           3 :   -111.451094418241
           4 :    85.7135113959551
           5 :   -64.2573135511651
           6 :    49.7683932250473
           7 :   -41.4225470020391
           8 :    36.5640870733974
           9 :   -32.7041991849767
          10 :    28.6408103663546
          11 :   -24.4110702874343
          12 :    20.5997847515987
          13 :   -17.7104234114108
          14 :    15.9171002761283
          15 :   -15.0864490028789
          16 :    14.8482566496172
          17 :   -14.6782224156907
          18 :    14.0871421989212
          19 :   -12.9073872644306
          20 :    11.4573725036470
          21 :   -10.3657021263697
          22 :    10.1095878984926
          23 :   -10.6199325665637
          24 :    11.3002541860202
          25 :   -11.4747110053149
          26 :    10.9038026510831
          27 :   -9.94267949887731
          28 :    9.22191070881306
          29 :   -9.13550830753260
          30 :    9.56149097158212
          31 :   -15.1154973076931
          32 :   -11.0264581015137

     Forces acting on atoms (Ry/au):

     negative rho (up, down):  3.693E-04 0.000E+00
     atom    1 type  1   force =    -0.00000026   -0.00461206    0.00794444
     atom    2 type  1   force =    -0.00399448    0.00230596    0.00794445
     atom    3 type  1   force =     0.00399402    0.00230600    0.00794442
     atom    4 type  2   force =    -0.00000145   -0.00000107   -0.01256459
     atom    5 type  1   force =    -0.00000023    0.00916271   -0.00068532
     atom    6 type  1   force =     0.00793469   -0.00458118   -0.00068411
     atom    7 type  1   force =    -0.00793527   -0.00458128   -0.00068443
     atom    8 type  2   force =     0.00000291    0.00000104   -0.01266594
     atom    9 type  1   force =    -0.00000027    0.00072134    0.00072025
     atom   10 type  1   force =     0.00062438   -0.00036057    0.00072019
     atom   11 type  1   force =    -0.00062489   -0.00036054    0.00072017
     atom   12 type  2   force =     0.00000085   -0.00000036    0.00129047

     Total force =     0.028801     Total SCF correction =     0.000412

     entering subroutine stress ...

     negative rho (up, down):  3.693E-04 0.000E+00
          total   stress  (Ry/bohr**3)                   (kbar)     P=   -5.82
  -0.00005277  -0.00000000   0.00000000         -7.76     -0.00      0.00
  -0.00000000  -0.00005277  -0.00000000         -0.00     -7.76     -0.00
   0.00000000  -0.00000000  -0.00001318          0.00     -0.00     -1.94

 !ASE

     Writing output data file calc.save

     General routines

     Parallel routines

   This run was terminated on:  19: 5:46  19Dec2018

   JOB DONE.
Job  /afs/slac/g/suncat/bin/suncat-tsmpirun -x LD_LIBRARY_PATH -wdir /scratch/qe773303_AX9sg pw.x -in pw.inp

TID   HOST_NAME   COMMAND_LINE            STATUS            TERMINATION_TIME
00000 suncat0277 pw.x -in pw.inp   Done                     12/19/2018 19:05:46
00001 suncat0277 pw.x -in pw.inp   Done                     12/19/2018 19:05:46
00002 suncat0277 pw.x -in pw.inp   Done                     12/19/2018 19:05:46
00003 suncat0277 pw.x -in pw.inp   Done                     12/19/2018 19:05:46
00004 suncat0277 pw.x -in pw.inp   Done                     12/19/2018 19:05:46
00005 suncat0277 pw.x -in pw.inp   Done                     12/19/2018 19:05:46
00006 suncat0277 pw.x -in pw.inp   Done                     12/19/2018 19:05:46
00007 suncat0277 pw.x -in pw.inp   Done                     12/19/2018 19:05:46
00008 suncat0276 pw.x -in pw.inp   Done                     12/19/2018 19:05:46
00009 suncat0276 pw.x -in pw.inp   Done                     12/19/2018 19:05:46
00010 suncat0276 pw.x -in pw.inp   Done                     12/19/2018 19:05:46
00011 suncat0276 pw.x -in pw.inp   Done                     12/19/2018 19:05:46
00012 suncat0276 pw.x -in pw.inp   Done                     12/19/2018 19:05:46
00013 suncat0276 pw.x -in pw.inp   Done                     12/19/2018 19:05:46
00014 suncat0276 pw.x -in pw.inp   Done                     12/19/2018 19:05:46
00015 suncat0276 pw.x -in pw.inp   Done                     12/19/2018 19:05:46
00016 suncat0274 pw.x -in pw.inp   Done                     12/19/2018 19:05:46
00017 suncat0274 pw.x -in pw.inp   Done                     12/19/2018 19:05:46
00018 suncat0274 pw.x -in pw.inp   Done                     12/19/2018 19:05:46
00019 suncat0274 pw.x -in pw.inp   Done                     12/19/2018 19:05:46
00020 suncat0274 pw.x -in pw.inp   Done                     12/19/2018 19:05:46
00021 suncat0274 pw.x -in pw.inp   Done                     12/19/2018 19:05:46
00022 suncat0274 pw.x -in pw.inp   Done                     12/19/2018 19:05:46
00023 suncat0274 pw.x -in pw.inp   Done                     12/19/2018 19:05:46
00024 suncat0273 pw.x -in pw.inp   Done                     12/19/2018 19:05:46
00025 suncat0273 pw.x -in pw.inp   Done                     12/19/2018 19:05:46
00026 suncat0273 pw.x -in pw.inp   Done                     12/19/2018 19:05:46
00027 suncat0273 pw.x -in pw.inp   Done                     12/19/2018 19:05:46
00028 suncat0273 pw.x -in pw.inp   Done                     12/19/2018 19:05:46
00029 suncat0273 pw.x -in pw.inp   Done                     12/19/2018 19:05:46
00030 suncat0273 pw.x -in pw.inp   Done                     12/19/2018 19:05:46
00031 suncat0273 pw.x -in pw.inp   Done                     12/19/2018 19:05:46
00032 suncat0272 pw.x -in pw.inp   Done                     12/19/2018 19:05:46
00033 suncat0272 pw.x -in pw.inp   Done                     12/19/2018 19:05:46
00034 suncat0272 pw.x -in pw.inp   Done                     12/19/2018 19:05:46
00035 suncat0272 pw.x -in pw.inp   Done                     12/19/2018 19:05:46
00036 suncat0272 pw.x -in pw.inp   Done                     12/19/2018 19:05:46
00037 suncat0272 pw.x -in pw.inp   Done                     12/19/2018 19:05:46
00038 suncat0272 pw.x -in pw.inp   Done                     12/19/2018 19:05:46
00039 suncat0272 pw.x -in pw.inp   Done                     12/19/2018 19:05:46
00040 suncat0271 pw.x -in pw.inp   Done                     12/19/2018 19:05:46
00041 suncat0271 pw.x -in pw.inp   Done                     12/19/2018 19:05:46
00042 suncat0271 pw.x -in pw.inp   Done                     12/19/2018 19:05:46
00043 suncat0271 pw.x -in pw.inp   Done                     12/19/2018 19:05:46
00044 suncat0271 pw.x -in pw.inp   Done                     12/19/2018 19:05:46
00045 suncat0271 pw.x -in pw.inp   Done                     12/19/2018 19:05:46
00046 suncat0271 pw.x -in pw.inp   Done                     12/19/2018 19:05:46
00047 suncat0271 pw.x -in pw.inp   Done                     12/19/2018 19:05:46
00048 suncat0270 pw.x -in pw.inp   Done                     12/19/2018 19:05:46
00049 suncat0270 pw.x -in pw.inp   Done                     12/19/2018 19:05:46
00050 suncat0270 pw.x -in pw.inp   Done                     12/19/2018 19:05:46
00051 suncat0270 pw.x -in pw.inp   Done                     12/19/2018 19:05:46
00052 suncat0270 pw.x -in pw.inp   Done                     12/19/2018 19:05:46
00053 suncat0270 pw.x -in pw.inp   Done                     12/19/2018 19:05:46
00054 suncat0270 pw.x -in pw.inp   Done                     12/19/2018 19:05:46
00055 suncat0270 pw.x -in pw.inp   Done                     12/19/2018 19:05:46
00056 suncat0268 pw.x -in pw.inp   Done                     12/19/2018 19:05:46
00057 suncat0268 pw.x -in pw.inp   Done                     12/19/2018 19:05:46
00058 suncat0268 pw.x -in pw.inp   Done                     12/19/2018 19:05:46
00059 suncat0268 pw.x -in pw.inp   Done                     12/19/2018 19:05:46
00060 suncat0268 pw.x -in pw.inp   Done                     12/19/2018 19:05:46
00061 suncat0268 pw.x -in pw.inp   Done                     12/19/2018 19:05:46
00062 suncat0268 pw.x -in pw.inp   Done                     12/19/2018 19:05:46
00063 suncat0268 pw.x -in pw.inp   Done                     12/19/2018 19:05:46