     Program PWSCF v.5.1rc2 (svn rev. 11289) starts on 30Dec2018 at  5:50:24

     Current dimensions of program PWSCF are:
     Max number of different atomic species (ntypx) = 10
     Max number of k-points (npk) =  40000
     Max angular momentum in pseudopotentials (lmaxx) =  3
     Presently stress not available with electric field

     IMPORTANT: XC functional enforced from input :
     Exchange-correlation      = BEEF-VDW ( 1  4 27 13 2)
     Any further DFT definition will be discarded
     Please, verify this is what you really want

     Subspace diagonalization in iterative solution of the eigenvalue problem:
     a serial algorithm will be used

     bravais-lattice index     =            0
     lattice parameter (alat)  =       1.8897  a.u.
     unit-cell volume          =    5622.2397 (a.u.)^3
     number of atoms/cell      =           12
     number of atomic types    =            2
     number of electrons       =       165.00
     number of Kohn-Sham states=          112
     kinetic-energy cutoff     =      36.7493  Ry
     charge density cutoff     =     367.4932  Ry
     convergence threshold     =      1.0E-06
     mixing beta               =       0.1000
     number of iterations used =           10  plain     mixing
     Exchange-correlation      = BEEF-VDW ( 1  4 27 13 2)
     nstep                     =           50

     celldm(1)=   1.889726  celldm(2)=   0.000000  celldm(3)=   0.000000
     celldm(4)=   0.000000  celldm(5)=   0.000000  celldm(6)=   0.000000

     crystal axes: (cart. coord. in units of alat)
               a(1) = (   6.195970   0.000000   0.000000 )
               a(2) = (  -3.097985   5.365867   0.000000 )
               a(3) = (   0.000000   0.000000  25.058988 )

     reciprocal axes: (cart. coord. in units 2 pi/alat)
               b(1) = (  0.161395  0.093182  0.000000 )
               b(2) = (  0.000000  0.186363  0.000000 )
               b(3) = (  0.000000  0.000000  0.039906 )

     PseudoPot. # 1 for Hf read from file:
     /afs/slac.stanford.edu/u/if/mamunm/psp/gbrv1.5pbe/Hf.UPF
     MD5 check sum: 8ee9378dfe14276e333edf04c5e4aa26
     Pseudo is Ultrasoft + core correction, Zval = 12.0
     Generated by new atomic code, or converted to UPF format
     Using radial grid of  921 points,  8 beta functions with:
                l(1) =   0
                l(2) =   0
                l(3) =   0
                l(4) =   1
                l(5) =   1
                l(6) =   2
                l(7) =   2
                l(8) =   3
     Q(r) pseudized with  6 coefficients,  rinner =    1.200   1.200   1.200
                                                       1.200   1.200   1.200
                                                       1.200

     PseudoPot. # 2 for Ag read from file:
     /afs/slac.stanford.edu/u/if/mamunm/psp/gbrv1.5pbe/Ag.UPF
     MD5 check sum: d66d668201baa78d5eb5b04ef7011058
     Pseudo is Ultrasoft + core correction, Zval = 19.0
     Generated by new atomic code, or converted to UPF format
     Using radial grid of  887 points,  6 beta functions with:
                l(1) =   0
                l(2) =   0
                l(3) =   1
                l(4) =   1
                l(5) =   2
                l(6) =   2
     Q(r) pseudized with  6 coefficients,  rinner =    1.300   1.300   1.300
                                                       1.300   1.300

     vdW kernel table read from file vdW_kernel_table
     MD5 check sum: 095c7af220d748ca6e76c0b4c6cfb241

     atomic species   valence    mass     pseudopotential
        Hf1           12.00   178.49000     Hf( 1.00)
        Ag1           19.00   107.86820     Ag( 1.00)

     No symmetry found

   Cartesian axes

     site n.     atom                  positions (alat units)
         1           Hf1 tau(   1) = (   0.0000000   0.0000000  10.0000000  )
         2           Hf1 tau(   2) = (  -1.5489925   2.6829336  10.0000000  )
         3           Hf1 tau(   3) = (   1.5489925   2.6829336  10.0000000  )
         4           Ag1 tau(   4) = (   3.0979849   0.0000000  10.0000000  )
         5           Hf1 tau(   5) = (   3.0979849   1.7886224  12.5294941  )
         6           Hf1 tau(   6) = (   1.5489925   4.4715561  12.5294941  )
         7           Hf1 tau(   7) = (  -1.5489925   4.4715561  12.5294941  )
         8           Ag1 tau(   8) = (   0.0000000   1.7886224  12.5294941  )
         9           Hf1 tau(   9) = (  -0.0000000   3.5772449  15.0589882  )
        10           Hf1 tau(  10) = (   1.5489925   0.8943112  15.0589882  )
        11           Hf1 tau(  11) = (   4.6469774   0.8943112  15.0589882  )
        12           Ag1 tau(  12) = (   3.0979849   3.5772449  15.0589882  )

     number of k points=    20  Fermi-Dirac smearing, width (Ry)=  0.0110
                       cart. coord. in units 2pi/alat
        k(    1) = (   0.0000000   0.0000000   0.0000000), wk =   0.0555556
        k(    2) = (   0.0000000   0.0310605   0.0000000), wk =   0.1111111
        k(    3) = (   0.0000000   0.0621211   0.0000000), wk =   0.1111111
        k(    4) = (   0.0000000  -0.0931816   0.0000000), wk =   0.0555556
        k(    5) = (   0.0268992   0.0155303   0.0000000), wk =   0.1111111
        k(    6) = (   0.0268992   0.0465908   0.0000000), wk =   0.1111111
        k(    7) = (   0.0268992   0.0776513   0.0000000), wk =   0.1111111
        k(    8) = (   0.0268992  -0.0776513   0.0000000), wk =   0.1111111
        k(    9) = (   0.0268992  -0.0465908   0.0000000), wk =   0.1111111
        k(   10) = (   0.0268992  -0.0155303   0.0000000), wk =   0.1111111
        k(   11) = (   0.0537984   0.0310605   0.0000000), wk =   0.1111111
        k(   12) = (   0.0537984   0.0621211   0.0000000), wk =   0.1111111
        k(   13) = (   0.0537984   0.0931816   0.0000000), wk =   0.1111111
        k(   14) = (   0.0537984  -0.0621211   0.0000000), wk =   0.1111111
        k(   15) = (   0.0537984  -0.0310605   0.0000000), wk =   0.1111111
        k(   16) = (   0.0537984   0.0000000   0.0000000), wk =   0.1111111
        k(   17) = (  -0.0806976  -0.0465908   0.0000000), wk =   0.0555556
        k(   18) = (  -0.0806976  -0.0155303   0.0000000), wk =   0.1111111
        k(   19) = (  -0.0806976   0.0155303   0.0000000), wk =   0.1111111
        k(   20) = (  -0.0806976  -0.1397724   0.0000000), wk =   0.0555556

     Largest allocated arrays     est. size (Mb)     dimensions
     Largest temporary arrays     est. size (Mb)     dimensions

     Check: negative/imaginary core charge=   -0.000003    0.000000

     Initial potential from superposition of free atoms
     Check: negative starting charge=   -0.963222

     starting charge  145.49984, renormalised to  165.00000

     negative rho (up, down):  1.092E+00 0.000E+00

     *
     * You are using vdW-DF for exchange-correlation in this calculation.
     * Please cite the following three references that made this development
     * possible:
     *
     *   M. Dion, H. Rydberg, E. Schroder, D. C. Langreth, and
     *   B. I. Lundqvist, Phys. Rev. Lett. 92, 246401 (2004).
     *
     *   T. Thonhauser, V. R. Cooper, S. Li, A. Puzder, P. Hyldgaard, and
     *   D. C. Langreth, Phys. Rev. B 76, 125112 (2007).
     *
     *   G. Roman-Perez and J. M. Soler, Phys. Rev. Lett. 103, 096102 (2009).
     *
     *
     * If you are using vdW-DF2, please also cite:
     *
     *   K. Lee, E. D. Murray, L. Kong, B. I. Lundqvist, and
     *   D. C. Langreth, Phys. Rev. B 82, 081101(R) (2010).
     *
     *
     * If you are calculating the stress with vdW-DF, please also cite:
     *
     *   R. Sabatini, E. Kucukbenli, B. Kolb, T. Thonhauser, and
     *   S. de Gironcoli, J. Phys.: Condens. Matter 24, 424209 (2012).
     *

     Carrying out vdW-DF run using the following parameters:

     Nqs =      20    Nr_points =    1024   r_max =   100.000
     q_mesh =
               0.00001000     0.04494208     0.09755937     0.15916263
               0.23128650     0.31572767     0.41458969     0.53033537
               0.66584808     0.82450364     1.01025438     1.22772762
               1.48234092     1.78043706     2.12944203     2.53805004
               3.01644009     3.57652955     4.23227104     5.00000000

     Gradients computed in reciprocal space

     Adding external electric field

     Computed dipole along edir(3) :
        Dipole                0.0000 Ry au,          0.0000 Debye
        Dipole field          0.0000 Ry au

        Potential amp.       -0.0000 Ry
        Total length         46.1708 bohr

     Starting wfc are  156 randomized atomic wfcs

     Self-consistent Calculation

     iteration #  1     ecut=    36.75 Ry     beta=0.10
     Davidson diagonalization with overlap
     ethr =  1.00E-02,  avg # of iterations =  7.9

[...]

     total energy              =   -2308.67782175 Ry
     Harris-Foulkes estimate   =   -2386.27358631 Ry
     estimated scf accuracy    <     433.97125586 Ry

[...]

     End of self-consistent calculation

          k = 0.0000 0.0000 0.0000 ( 21163 PWs)   bands (ev):

   -90.8097 -90.7329 -90.7327 -61.0115 -61.0109 -60.9728 -60.9728 -60.9727
   -60.9727 -60.5082 -60.4695 -60.4695 -54.2683 -54.2624 -54.2624 -54.2129
   -54.2129 -54.2127 -54.2127 -54.1667 -54.1665 -29.7793 -29.7683 -29.7360
   -29.6742 -29.6742 -29.6506 -29.6442 -29.6442 -29.6360 -29.6360 -29.5786
   -29.5786 -29.4031 -29.3544 -29.3435 -29.1946 -29.1946 -29.1342 -29.1342
   -29.1075 -29.1075 -28.9745 -28.9665 -28.9665 -28.8692 -28.7187 -28.7187
    -5.0436  -3.8732  -3.5942  -3.5261  -3.5261  -3.5047  -3.5047  -3.3472
    -3.3472  -3.2413  -3.2413  -3.1940  -2.9662  -2.9662  -2.8800  -2.8800
    -2.6784  -2.0056  -1.4437  -1.0202  -0.9429   0.0668   0.0668   0.4704
     0.5907   0.5907   0.6385   0.9408   0.9408   1.1264   1.1264   1.5917
     1.5917   1.6287   1.6671   1.9780   2.3369   2.3779   2.3779   2.4811
     2.4811   2.8830   2.8830   2.9885   2.9885   3.0785   3.3049   3.3100
     4.6010   4.7238   4.7238   4.7368   4.9770   5.1442   5.1442   5.2283
     5.3265   5.3265   5.3896   5.3896   5.5346   5.5346   5.5861   5.5861

[...]

          k =-0.0807-0.0466 0.0000 ( 21160 PWs)   bands (ev):

[...]

     the Fermi energy is     1.6768 ev

!    total energy              =   -2334.77974397 Ry
     Harris-Foulkes estimate   =   -2334.77974537 Ry
     estimated scf accuracy    <       0.00000020 Ry

     The total energy is the sum of the following terms:

     one-electron contribution =  -12090.34874196 Ry
     hartree contribution      =    6030.93531624 Ry
     xc contribution           =    -786.00308413 Ry
     ewald contribution        =    4510.72888817 Ry
     electric field correction =       0.00000002 Ry
     smearing contrib. (-TS)   =      -0.09212231 Ry

     convergence has been achieved in  21 iterations

 BEEF-vdW xc energy contributions
           1 :   -706.604154251654
           2 :    655.194489658965
           3 :   -564.557598552826
           4 :    454.259996980868
           5 :   -344.400340745893
           6 :    249.729552732706
           7 :   -177.069255598373
           8 :    126.235503249475
           9 :   -93.0677971938883
          10 :    72.5093006801451
[...]
     Using radial grid of  921 points,  8 beta functions with:
                l(1) =   0
                l(2) =   0
                l(3) =   0
                l(4) =   1
                l(5) =   1
                l(6) =   2
                l(7) =   2
                l(8) =   3
     Q(r) pseudized with  6 coefficients,  rinner =    1.200   1.200   1.200
                                                       1.200   1.200   1.200
                                                       1.200

     PseudoPot. # 2 for Ag read from file:
     /afs/slac.stanford.edu/u/if/mamunm/psp/gbrv1.5pbe/Ag.UPF
     MD5 check sum: d66d668201baa78d5eb5b04ef7011058
     Pseudo is Ultrasoft + core correction, Zval = 19.0
     Generated by new atomic code, or converted to UPF format
     Using radial grid of  887 points,  6 beta functions with:
                l(1) =   0
                l(2) =   0
                l(3) =   1
                l(4) =   1
                l(5) =   2
                l(6) =   2
     Q(r) pseudized with  6 coefficients,  rinner =    1.300   1.300   1.300
                                                       1.300   1.300

     vdW kernel table read from file vdW_kernel_table
     MD5 check sum: 095c7af220d748ca6e76c0b4c6cfb241

     atomic species   valence    mass     pseudopotential
        Hf1           12.00   178.49000     Hf( 1.00)
        Ag1           19.00   107.86820     Ag( 1.00)

     No symmetry found

   Cartesian axes

     site n.     atom                  positions (alat units)
         1           Hf1 tau(   1) = (   0.0000000   0.0000000  10.0000000  )
         2           Hf1 tau(   2) = (  -1.5489925   2.6829336  10.0000000  )
         3           Hf1 tau(   3) = (   1.5489925   2.6829336  10.0000000  )
         4           Ag1 tau(   4) = (   3.0979849   0.0000000  10.0000000  )
         5           Hf1 tau(   5) = (   3.0979849   1.7886224  12.5294941  )
         6           Hf1 tau(   6) = (   1.5489925   4.4715561  12.5294941  )
         7           Hf1 tau(   7) = (  -1.5489925   4.4715561  12.5294941  )
         8           Ag1 tau(   8) = (   0.0000000   1.7886224  12.5294941  )
         9           Hf1 tau(   9) = (   0.0000103   3.5663336  15.0202379  )
        10           Hf1 tau(  10) = (   1.5395416   0.8997738  15.0202440  )
        11           Hf1 tau(  11) = (   4.6564317   0.8997647  15.0202391  )
        12           Ag1 tau(  12) = (   3.0979980   3.5772452  15.0175434  )

     number of k points=    20  Fermi-Dirac smearing, width (Ry)=  0.0110
                       cart. coord. in units 2pi/alat
        k(    1) = (   0.0000000   0.0000000   0.0000000), wk =   0.0555556
        k(    2) = (   0.0000000   0.0310605   0.0000000), wk =   0.1111111
        k(    3) = (   0.0000000   0.0621211   0.0000000), wk =   0.1111111
        k(    4) = (   0.0000000  -0.0931816   0.0000000), wk =   0.0555556
        k(    5) = (   0.0268992   0.0155303   0.0000000), wk =   0.1111111
        k(    6) = (   0.0268992   0.0465908   0.0000000), wk =   0.1111111
        k(    7) = (   0.0268992   0.0776513   0.0000000), wk =   0.1111111
        k(    8) = (   0.0268992  -0.0776513   0.0000000), wk =   0.1111111
        k(    9) = (   0.0268992  -0.0465908   0.0000000), wk =   0.1111111
        k(   10) = (   0.0268992  -0.0155303   0.0000000), wk =   0.1111111
        k(   11) = (   0.0537984   0.0310605   0.0000000), wk =   0.1111111
        k(   12) = (   0.0537984   0.0621211   0.0000000), wk =   0.1111111
        k(   13) = (   0.0537984   0.0931816   0.0000000), wk =   0.1111111
        k(   14) = (   0.0537984  -0.0621211   0.0000000), wk =   0.1111111
        k(   15) = (   0.0537984  -0.0310605   0.0000000), wk =   0.1111111
        k(   16) = (   0.0537984   0.0000000   0.0000000), wk =   0.1111111
        k(   17) = (  -0.0806976  -0.0465908   0.0000000), wk =   0.0555556
        k(   18) = (  -0.0806976  -0.0155303   0.0000000), wk =   0.1111111
        k(   19) = (  -0.0806976   0.0155303   0.0000000), wk =   0.1111111
        k(   20) = (  -0.0806976  -0.1397724   0.0000000), wk =   0.0555556

     Largest allocated arrays     est. size (Mb)     dimensions
     Largest temporary arrays     est. size (Mb)     dimensions

     Check: negative/imaginary core charge=   -0.000003    0.000000

     Initial potential from superposition of free atoms
     Check: negative starting charge=   -0.963790

     starting charge  145.49984, renormalised to  165.00000

[...]

     *
     * You are using vdW-DF for exchange-correlation in this calculation.
     * Please cite the following three references that made this development
     * possible:
     *
     *   M. Dion, H. Rydberg, E. Schroder, D. C. Langreth, and
     *   B. I. Lundqvist, Phys. Rev. Lett. 92, 246401 (2004).
     *
     *   T. Thonhauser, V. R. Cooper, S. Li, A. Puzder, P. Hyldgaard, and
     *   D. C. Langreth, Phys. Rev. B 76, 125112 (2007).
     *
     *   G. Roman-Perez and J. M. Soler, Phys. Rev. Lett. 103, 096102 (2009).
     *
     *
     * If you are using vdW-DF2, please also cite:
     *
     *   K. Lee, E. D. Murray, L. Kong, B. I. Lundqvist, and
     *   D. C. Langreth, Phys. Rev. B 82, 081101(R) (2010).
     *
     *
     * If you are calculating the stress with vdW-DF, please also cite:
     *
     *   R. Sabatini, E. Kucukbenli, B. Kolb, T. Thonhauser, and
     *   S. de Gironcoli, J. Phys.: Condens. Matter 24, 424209 (2012).
     *

     Carrying out vdW-DF run using the following parameters:

     Nqs =      20    Nr_points =    1024   r_max =   100.000
     q_mesh =
               0.00001000     0.04494208     0.09755937     0.15916263
               0.23128650     0.31572767     0.41458969     0.53033537
               0.66584808     0.82450364     1.01025438     1.22772762
               1.48234092     1.78043706     2.12944203     2.53805004
               3.01644009     3.57652955     4.23227104     5.00000000

     Gradients computed in reciprocal space

[...]

     Starting wfc are  156 randomized atomic wfcs

     Self-consistent Calculation

[...]

     total energy              =   -2334.81511246 Ry
     Harris-Foulkes estimate   =   -2334.81511227 Ry
     estimated scf accuracy    <       0.00000115 Ry

     iteration # 20     ecut=    36.75 Ry     beta=0.10
     Davidson diagonalization with overlap
     ethr =  6.99E-10,  avg # of iterations =  2.0

[...]

     negative rho (up, down):  1.017E+00 0.000E+00

     Adding external electric field

     Computed dipole along edir(3) :
        Dipole                0.0072 Ry au,          0.0184 Debye
        Dipole field          0.0000 Ry au

        Potential amp.       -0.0015 Ry
        Total length         46.1708 bohr

     End of self-consistent calculation

[...]

          k = 0.0538 0.0000 0.0000 ( 21123 PWs)   bands (ev):

[...]

          k =-0.0807-0.1398 0.0000 ( 21160 PWs)   bands (ev):

   -90.8295 -90.7571 -90.7339 -60.9979 -60.9850 -60.9722 -60.9621 -60.9488
   -60.9360 -60.4652 -60.4522 -60.4393 -54.2921 -54.2798 -54.2796 -54.2351
   -54.2350 -54.2136 -54.2135 -54.1963 -54.1680 -29.6944 -29.6854 -29.6639
   -29.6497 -29.6239 -29.6070 -29.5895 -29.5791 -29.5232 -29.5013 -29.4868
   -29.4698 -29.4671 -29.4395 -29.3987 -29.3644 -29.2408 -29.1659 -29.1371
   -29.0566 -29.0264 -29.0007 -28.9813 -28.9094 -28.9016 -28.8712 -28.7138
    -3.6703  -3.6144  -3.3932  -3.3204  -3.3093  -3.2654  -3.1725  -3.1703
    -3.1667  -3.0687  -3.0577  -3.0335  -2.9935  -2.9642  -2.8433  -2.8102
    -2.6955  -2.0817  -1.6384  -1.1446  -0.7912  -0.7597  -0.0862   0.1707
     0.4081   0.5218   0.7693   0.9656   1.0494   1.0574   1.1667   1.2482
     1.4592   1.4801   1.5474   1.7862   1.8319   1.9536   1.9983   2.0429
     2.2914   2.4876   2.7165   2.8780   2.9245   3.0623   3.1079   3.1971
     3.4707   4.2732   4.4048   4.4385   4.5514   4.6300   4.6368   4.6708
     4.8966   4.9629   4.9644   5.2348   5.2810   5.3567   5.4411   5.7585

     the Fermi energy is     1.6802 ev

!    total energy              =   -2334.81511177 Ry
     Harris-Foulkes estimate   =   -2334.81511247 Ry
     estimated scf accuracy    <       0.00000057 Ry

     The total energy is the sum of the following terms:

     one-electron contribution =  -12157.13365704 Ry
     hartree contribution      =    6064.37381284 Ry
     xc contribution           =    -786.09336925 Ry
     ewald contribution        =    4544.12996994 Ry
     electric field correction =       0.00000012 Ry
     smearing contrib. (-TS)   =      -0.09186837 Ry

     convergence has been achieved in  20 iterations

 BEEF-vdW xc energy contributions
           1 :   -707.684525577268
           2 :    656.297774541416
           3 :   -565.684192586403
           4 :    455.384055660480
           5 :   -345.486386198533
           6 :    250.758203645799
           7 :   -178.052231189109
           8 :    127.209116128636
           9 :   -94.0696771923206
          10 :    73.5549053129519
          11 :   -61.4518639317683
          12 :    54.6517478322952
          13 :   -50.5688453924128
          14 :    46.6634958529089
          15 :   -40.6250303920228
          16 :    31.0874230946946
          17 :   -18.3208977513586
          18 :    4.30382471050359
          19 :    8.00776420983846
          20 :   -15.9082586381675
          21 :    18.0424691312558
          22 :   -14.8584512229111
          23 :    8.26609576317685
          24 :  -0.789764244718299
          25 :   -5.31686778923063
          26 :    8.61930839227409
          27 :   -8.62596014877317
          28 :    5.62915351173785
          29 :  -0.478820189378439
          30 :   -5.60155971987047
          31 :   -52.9225009726933
          32 :   -38.1761156174572

     Forces acting on atoms (Ry/au):

     negative rho (up, down):  1.017E+00 0.000E+00
     atom    1 type  1   force =    -0.00000005    0.00316289    0.00495556
     atom    2 type  1   force =     0.00273886   -0.00158078    0.00495645
     atom    3 type  1   force =    -0.00273919   -0.00158072    0.00495599
     atom    4 type  2   force =    -0.00000006    0.00000080    0.00544416
     atom    5 type  1   force =     0.00000063    0.00036493   -0.00487134
     atom    6 type  1   force =     0.00031425   -0.00018284   -0.00487013
     atom    7 type  1   force =    -0.00031341   -0.00018303   -0.00486938
     atom    8 type  2   force =     0.00000094   -0.00000192   -0.00469801
     atom    9 type  1   force =    -0.00000123    0.00072123   -0.00001219
     atom   10 type  1   force =     0.00062500   -0.00036130   -0.00001164
     atom   11 type  1   force =    -0.00062466   -0.00035930   -0.00001117
     atom   12 type  2   force =    -0.00000107    0.00000005   -0.00096830

     Total force =     0.015148     Total SCF correction =     0.002690
     SCF correction compared to forces is large: reduce conv_thr to get better values

     entering subroutine stress ...

     negative rho (up, down):  1.017E+00 0.000E+00
          total   stress  (Ry/bohr**3)                   (kbar)     P=  -12.29
  -0.00010377  -0.00000000   0.00000000        -15.27     -0.00      0.00
  -0.00000000  -0.00010378  -0.00000000         -0.00    -15.27     -0.00
   0.00000000  -0.00000000  -0.00004318          0.00     -0.00     -6.35

 !ASE

     Writing output data file calc.save

     General routines

     Parallel routines

   This run was terminated on:   7:31:27  30Dec2018

   JOB DONE.
Job  /afs/slac/g/suncat/bin/suncat-tsmpirun -x LD_LIBRARY_PATH -wdir /scratch/qe648454_UuNU4 pw.x -in pw.inp

TID   HOST_NAME   COMMAND_LINE            STATUS            TERMINATION_TIME
00000 suncat0156 pw.x -in pw.inp   Done                     12/30/2018 07:31:27
00001 suncat0156 pw.x -in pw.inp   Done                     12/30/2018 07:31:27
00002 suncat0156 pw.x -in pw.inp   Done                     12/30/2018 07:31:27
00003 suncat0156 pw.x -in pw.inp   Done                     12/30/2018 07:31:27
00004 suncat0156 pw.x -in pw.inp   Done                     12/30/2018 07:31:27
00005 suncat0156 pw.x -in pw.inp   Done                     12/30/2018 07:31:27
00006 suncat0156 pw.x -in pw.inp   Done                     12/30/2018 07:31:27
00007 suncat0156 pw.x -in pw.inp   Done                     12/30/2018 07:31:27
00008 suncat0153 pw.x -in pw.inp   Done                     12/30/2018 07:31:27
00009 suncat0153 pw.x -in pw.inp   Done                     12/30/2018 07:31:27
00010 suncat0153 pw.x -in pw.inp   Done                     12/30/2018 07:31:27
00011 suncat0153 pw.x -in pw.inp   Done                     12/30/2018 07:31:27
00012 suncat0153 pw.x -in pw.inp   Done                     12/30/2018 07:31:27
00013 suncat0153 pw.x -in pw.inp   Done                     12/30/2018 07:31:27
00014 suncat0153 pw.x -in pw.inp   Done                     12/30/2018 07:31:27
00015 suncat0153 pw.x -in pw.inp   Done                     12/30/2018 07:31:27
00016 suncat0145 pw.x -in pw.inp   Done                     12/30/2018 07:31:27
00017 suncat0145 pw.x -in pw.inp   Done                     12/30/2018 07:31:27
00018 suncat0145 pw.x -in pw.inp   Done                     12/30/2018 07:31:27
00019 suncat0145 pw.x -in pw.inp   Done                     12/30/2018 07:31:27
00020 suncat0145 pw.x -in pw.inp   Done                     12/30/2018 07:31:27
00021 suncat0145 pw.x -in pw.inp   Done                     12/30/2018 07:31:27
00022 suncat0145 pw.x -in pw.inp   Done                     12/30/2018 07:31:27
00023 suncat0145 pw.x -in pw.inp   Done                     12/30/2018 07:31:27
00024 suncat0144 pw.x -in pw.inp   Done                     12/30/2018 07:31:27
00025 suncat0144 pw.x -in pw.inp   Done                     12/30/2018 07:31:27
00026 suncat0144 pw.x -in pw.inp   Done                     12/30/2018 07:31:27
00027 suncat0144 pw.x -in pw.inp   Done                     12/30/2018 07:31:27
00028 suncat0144 pw.x -in pw.inp   Done                     12/30/2018 07:31:27
00029 suncat0144 pw.x -in pw.inp   Done                     12/30/2018 07:31:27
00030 suncat0144 pw.x -in pw.inp   Done                     12/30/2018 07:31:27
00031 suncat0144 pw.x -in pw.inp   Done                     12/30/2018 07:31:27
00032 suncat0133 pw.x -in pw.inp   Done                     12/30/2018 07:31:27
00033 suncat0133 pw.x -in pw.inp   Done                     12/30/2018 07:31:27
00034 suncat0133 pw.x -in pw.inp   Done                     12/30/2018 07:31:27
00035 suncat0133 pw.x -in pw.inp   Done                     12/30/2018 07:31:27
00036 suncat0133 pw.x -in pw.inp   Done                     12/30/2018 07:31:27
00037 suncat0133 pw.x -in pw.inp   Done                     12/30/2018 07:31:27
00038 suncat0133 pw.x -in pw.inp   Done                     12/30/2018 07:31:27
00039 suncat0133 pw.x -in pw.inp   Done                     12/30/2018 07:31:27
00040 suncat0132 pw.x -in pw.inp   Done                     12/30/2018 07:31:27
00041 suncat0132 pw.x -in pw.inp   Done                     12/30/2018 07:31:27
00042 suncat0132 pw.x -in pw.inp   Done                     12/30/2018 07:31:27
00043 suncat0132 pw.x -in pw.inp   Done                     12/30/2018 07:31:27
00044 suncat0132 pw.x -in pw.inp   Done                     12/30/2018 07:31:27
00045 suncat0132 pw.x -in pw.inp   Done                     12/30/2018 07:31:27
00046 suncat0132 pw.x -in pw.inp   Done                     12/30/2018 07:31:27
00047 suncat0132 pw.x -in pw.inp   Done                     12/30/2018 07:31:27
00048 suncat0131 pw.x -in pw.inp   Done                     12/30/2018 07:31:27
00049 suncat0131 pw.x -in pw.inp   Done                     12/30/2018 07:31:27
00050 suncat0131 pw.x -in pw.inp   Done                     12/30/2018 07:31:27
00051 suncat0131 pw.x -in pw.inp   Done                     12/30/2018 07:31:27
00052 suncat0131 pw.x -in pw.inp   Done                     12/30/2018 07:31:27
00053 suncat0131 pw.x -in pw.inp   Done                     12/30/2018 07:31:27
00054 suncat0131 pw.x -in pw.inp   Done                     12/30/2018 07:31:27
00055 suncat0131 pw.x -in pw.inp   Done                     12/30/2018 07:31:27
00056 suncat0130 pw.x -in pw.inp   Done                     12/30/2018 07:31:27
00057 suncat0130 pw.x -in pw.inp   Done                     12/30/2018 07:31:27
00058 suncat0130 pw.x -in pw.inp   Done                     12/30/2018 07:31:27
00059 suncat0130 pw.x -in pw.inp   Done                     12/30/2018 07:31:27
00060 suncat0130 pw.x -in pw.inp   Done                     12/30/2018 07:31:27
00061 suncat0130 pw.x -in pw.inp   Done                     12/30/2018 07:31:27
00062 suncat0130 pw.x -in pw.inp   Done                     12/30/2018 07:31:27
00063 suncat0130 pw.x -in pw.inp   Done                     12/30/2018 07:31:27