     Program PWSCF v.5.1rc2 (svn rev. 11289) starts on 30Dec2018 at 13: 0:50

     Current dimensions of program PWSCF are:
     Max number of different atomic species (ntypx) = 10
     Max number of k-points (npk) =  40000
     Max angular momentum in pseudopotentials (lmaxx) =  3
     Presently stress not available with electric field

     IMPORTANT: XC functional enforced from input :
     Exchange-correlation      = BEEF-VDW ( 1  4 27 13 2)
     Any further DFT definition will be discarded
     Please, verify this is what you really want

     Subspace diagonalization in iterative solution of the eigenvalue problem:
     a serial algorithm will be used

     bravais-lattice index     =            0
     lattice parameter (alat)  =       1.8897  a.u.
     unit-cell volume          =    6987.5284 (a.u.)^3
     number of atoms/cell      =           12
     number of atomic types    =            2
     number of electrons       =       144.00
     number of Kohn-Sham states=          102
     kinetic-energy cutoff     =      36.7493  Ry
     charge density cutoff     =     367.4932  Ry
     convergence threshold     =      1.0E-06
     mixing beta               =       0.1000
     number of iterations used =           10  plain     mixing
     Exchange-correlation      = BEEF-VDW ( 1  4 27 13 2)
     nstep                     =           50

     celldm(1)=   1.889726  celldm(2)=   0.000000  celldm(3)=   0.000000
     celldm(4)=   0.000000  celldm(5)=   0.000000  celldm(6)=   0.000000

     crystal axes: (cart. coord. in units of alat)
               a(1) = (   6.836462   0.000000   0.000000 )
               a(2) = (  -3.418231   5.920549   0.000000 )
               a(3) = (   0.000000   0.000000  25.581947 )

     reciprocal axes: (cart. coord. in units 2 pi/alat)
               b(1) = (  0.146275  0.084452  0.000000 )
               b(2) = (  0.000000  0.168903  0.000000 )
               b(3) = (  0.000000  0.000000  0.039090 )

     PseudoPot. # 1 for La read from file:
     /afs/slac.stanford.edu/u/if/mamunm/psp/gbrv1.5pbe/La.UPF
     MD5 check sum: 5937b0c7494ba0601a847275249473aa
     Pseudo is Ultrasoft + core correction, Zval = 11.0
     Generated by new atomic code, or converted to UPF format
     Using radial grid of  995 points,  8 beta functions with:
                l(1) =   0
                l(2) =   0
                l(3) =   1
                l(4) =   1
                l(5) =   2
                l(6) =   2
                l(7) =   3
                l(8) =   3
     Q(r) pseudized with  8 coefficients,  rinner =    1.700   1.700   1.700
                                                       1.700   1.700   1.700
                                                       1.700

     PseudoPot. # 2 for Ir read from file:
     /afs/slac.stanford.edu/u/if/mamunm/psp/gbrv1.5pbe/Ir.UPF
     MD5 check sum: 8836f839c3459d2b385c504ce6d91f2c
     Pseudo is Ultrasoft + core correction, Zval = 15.0
     Generated by new atomic code, or converted to UPF format
     Using radial grid of  983 points,  7 beta functions with:
                l(1) =   0
                l(2) =   0
                l(3) =   1
                l(4) =   1
                l(5) =   1
                l(6) =   2
                l(7) =   2
     Q(r) pseudized with  8 coefficients,  rinner =    1.400   1.400   1.400
                                                       1.400   1.400

     vdW kernel table read from file vdW_kernel_table
     MD5 check sum: 095c7af220d748ca6e76c0b4c6cfb241

     atomic species   valence    mass     pseudopotential
        La1           11.00   138.90547     La( 1.00)
        Ir1           15.00   192.21700     Ir( 1.00)

     No symmetry found

   Cartesian axes

     site n.     atom                  positions (alat units)
         1           La1 tau(   1) = (   0.0000000   0.0000000  10.0000000  )
         2           La1 tau(   2) = (  -1.7091154   2.9602747  10.0000000  )
         3           La1 tau(   3) = (   1.7091154   2.9602747  10.0000000  )
         4           Ir1 tau(   4) = (   3.4182308   0.0000000  10.0000000  )
         5           La1 tau(   5) = (   3.4182308   1.9735165  12.7909737  )
         6           La1 tau(   6) = (   1.7091154   4.9337911  12.7909737  )
         7           La1 tau(   7) = (  -1.7091154   4.9337911  12.7909737  )
         8           Ir1 tau(   8) = (   0.0000000   1.9735165  12.7909737  )
         9           La1 tau(   9) = (  -0.0000000   3.9470329  15.5819475  )
        10           La1 tau(  10) = (   1.7091154   0.9867582  15.5819475  )
        11           La1 tau(  11) = (   5.1273462   0.9867582  15.5819475  )
        12           Ir1 tau(  12) = (   3.4182308   3.9470329  15.5819475  )

     number of k points=    20  Fermi-Dirac smearing, width (Ry)=  0.0110
                       cart. coord. in units 2pi/alat
        k(    1) = (   0.0000000   0.0000000   0.0000000), wk =   0.0555556
        k(    2) = (   0.0000000   0.0281505   0.0000000), wk =   0.1111111
        k(    3) = (   0.0000000   0.0563011   0.0000000), wk =   0.1111111
        k(    4) = (   0.0000000  -0.0844516   0.0000000), wk =   0.0555556
        k(    5) = (   0.0243791   0.0140753   0.0000000), wk =   0.1111111
        k(    6) = (   0.0243791   0.0422258   0.0000000), wk =   0.1111111
        k(    7) = (   0.0243791   0.0703764   0.0000000), wk =   0.1111111
        k(    8) = (   0.0243791  -0.0703764   0.0000000), wk =   0.1111111
        k(    9) = (   0.0243791  -0.0422258   0.0000000), wk =   0.1111111
        k(   10) = (   0.0243791  -0.0140753   0.0000000), wk =   0.1111111
        k(   11) = (   0.0487582   0.0281505   0.0000000), wk =   0.1111111
        k(   12) = (   0.0487582   0.0563011   0.0000000), wk =   0.1111111
        k(   13) = (   0.0487582   0.0844516   0.0000000), wk =   0.1111111
        k(   14) = (   0.0487582  -0.0563011   0.0000000), wk =   0.1111111
        k(   15) = (   0.0487582  -0.0281505   0.0000000), wk =   0.1111111
        k(   16) = (   0.0487582   0.0000000   0.0000000), wk =   0.1111111
        k(   17) = (  -0.0731373  -0.0422258   0.0000000), wk =   0.0555556
        k(   18) = (  -0.0731373  -0.0140753   0.0000000), wk =   0.1111111
        k(   19) = (  -0.0731373   0.0140753   0.0000000), wk =   0.1111111
        k(   20) = (  -0.0731373  -0.1266774   0.0000000), wk =   0.0555556

     Largest allocated arrays     est. size (Mb)     dimensions
     Largest temporary arrays     est. size (Mb)     dimensions

     Initial potential from superposition of free atoms
     Check: negative starting charge=   -1.709743

     starting charge  142.21129, renormalised to  144.00000

     negative rho (up, down):  1.731E+00 0.000E+00

     *
     * You are using vdW-DF for exchange-correlation in this calculation.
     * Please cite the following three references that made this development
     * possible:
     *
     *   M. Dion, H. Rydberg, E. Schroder, D. C. Langreth, and
     *   B. I. Lundqvist, Phys. Rev. Lett. 92, 246401 (2004).
     *
     *   T. Thonhauser, V. R. Cooper, S. Li, A. Puzder, P. Hyldgaard, and
     *   D. C. Langreth, Phys. Rev. B 76, 125112 (2007).
     *
     *   G. Roman-Perez and J. M. Soler, Phys. Rev. Lett. 103, 096102 (2009).
     *
     *
     * If you are using vdW-DF2, please also cite:
     *
     *   K. Lee, E. D. Murray, L. Kong, B. I. Lundqvist, and
     *   D. C. Langreth, Phys. Rev. B 82, 081101(R) (2010).
     *
     *
     * If you are calculating the stress with vdW-DF, please also cite:
     *
     *   R. Sabatini, E. Kucukbenli, B. Kolb, T. Thonhauser, and
     *   S. de Gironcoli, J. Phys.: Condens. Matter 24, 424209 (2012).
     *

     Carrying out vdW-DF run using the following parameters:

     Nqs =      20    Nr_points =    1024   r_max =   100.000
     q_mesh =
               0.00001000     0.04494208     0.09755937     0.15916263
               0.23128650     0.31572767     0.41458969     0.53033537
               0.66584808     0.82450364     1.01025438     1.22772762
               1.48234092     1.78043706     2.12944203     2.53805004
               3.01644009     3.57652955     4.23227104     5.00000000

     Gradients computed in reciprocal space

     Adding external electric field

     Computed dipole along edir(3) :
        Dipole                0.0000 Ry au,          0.0000 Debye
        Dipole field          0.0000 Ry au

        Potential amp.       -0.0000 Ry
        Total length         47.1343 bohr

     Starting wfc are  216 randomized atomic wfcs

     Self-consistent Calculation

     iteration #  1     ecut=    36.75 Ry     beta=0.10
     Davidson diagonalization with overlap
     ethr =  1.00E-02,  avg # of iterations =  2.0

[...]

     total energy              =   -1482.53987448 Ry
     Harris-Foulkes estimate   =   -1488.00433698 Ry
     estimated scf accuracy    <      30.38056031 Ry

[...]

     iteration # 10     ecut=    36.75 Ry     beta=0.10
     Davidson diagonalization with overlap
     c_bands:  2 eigenvalues not converged
     c_bands:  2 eigenvalues not converged
     c_bands:  1 eigenvalues not converged
     c_bands:  1 eigenvalues not converged
     c_bands:  2 eigenvalues not converged
     c_bands:  2 eigenvalues not converged
     c_bands:  2 eigenvalues not converged
     ethr =  1.22E-05,  avg # of iterations = 15.6

[...]

     End of self-consistent calculation

          k = 0.0000 0.0000 0.0000 ( 26301 PWs)   bands (ev):

   -45.9752 -45.9752 -45.9658 -45.7314 -45.7314 -45.7313 -45.7313 -45.6194
   -45.6193 -30.9743 -30.9377 -30.6912 -30.6911 -30.6822 -30.6821 -30.5556
   -30.3244 -30.3244 -15.7343 -15.5478 -15.2864 -15.0644 -15.0644 -14.9544
   -14.9155 -14.9155 -14.8603 -14.8602 -14.6504 -14.3654 -14.3654 -14.1324
   -14.1324 -13.9768 -13.8714 -13.7625 -13.7061 -13.7061 -13.6268 -13.6268
   -13.5961 -13.5961 -13.4378 -13.3136 -13.3136  -1.7810  -1.3482  -1.0635
    -0.2961  -0.2961  -0.2354   0.0152   0.0594   0.0595   0.1180   0.1180
     0.1725   0.1725   0.2091   0.4927   0.8401   0.8401   0.9387   0.9387
     1.1399   1.3566   1.6771   2.0339   2.5229   2.5229   2.5894   2.6193
     2.6193   2.6846   2.8249   2.8249   3.3328   3.3328   3.3593   3.3594
     3.4665   3.4665   3.5862   3.5954   3.6261   3.7217   3.7792   3.7927
     3.7929   3.8085   3.8941   3.8941   3.9208   3.9742   3.9749   3.9972
     3.9986   3.9987   4.0494   4.0501   4.0673   4.0687

[...]

          k =-0.0731-0.0422 0.0000 ( 26238 PWs)   bands (ev):

[...]

     the Fermi energy is     2.3932 ev

!    total energy              =   -1486.17501035 Ry
     Harris-Foulkes estimate   =   -1486.17503290 Ry
     estimated scf accuracy    <       0.00000050 Ry

     The total energy is the sum of the following terms:

     one-electron contribution =   -6965.68192540 Ry
     hartree contribution      =    3502.91886025 Ry
     xc contribution           =    -613.15565420 Ry
     ewald contribution        =    2589.85343495 Ry
     electric field correction =       0.00000000 Ry
     smearing contrib. (-TS)   =      -0.10972595 Ry

     convergence has been achieved in  22 iterations

 BEEF-vdW xc energy contributions
[...]
     Generated by new atomic code, or converted to UPF format
     Using radial grid of  995 points,  8 beta functions with:
                l(1) =   0
                l(2) =   0
                l(3) =   1
                l(4) =   1
                l(5) =   2
                l(6) =   2
                l(7) =   3
                l(8) =   3
     Q(r) pseudized with  8 coefficients,  rinner =    1.700   1.700   1.700
                                                       1.700   1.700   1.700
                                                       1.700

     PseudoPot. # 2 for Ir read from file:
     /afs/slac.stanford.edu/u/if/mamunm/psp/gbrv1.5pbe/Ir.UPF
     MD5 check sum: 8836f839c3459d2b385c504ce6d91f2c
     Pseudo is Ultrasoft + core correction, Zval = 15.0
     Generated by new atomic code, or converted to UPF format
     Using radial grid of  983 points,  7 beta functions with:
                l(1) =   0
                l(2) =   0
                l(3) =   1
                l(4) =   1
                l(5) =   1
                l(6) =   2
                l(7) =   2
     Q(r) pseudized with  8 coefficients,  rinner =    1.400   1.400   1.400
                                                       1.400   1.400

     vdW kernel table read from file vdW_kernel_table
     MD5 check sum: 095c7af220d748ca6e76c0b4c6cfb241

     atomic species   valence    mass     pseudopotential
        La1           11.00   138.90547     La( 1.00)
        Ir1           15.00   192.21700     Ir( 1.00)

     No symmetry found

   Cartesian axes

     site n.     atom                  positions (alat units)
         1           La1 tau(   1) = (   0.0000000   0.0000000  10.0000000  )
         2           La1 tau(   2) = (  -1.7091154   2.9602747  10.0000000  )
         3           La1 tau(   3) = (   1.7091154   2.9602747  10.0000000  )
         4           Ir1 tau(   4) = (   3.4182308   0.0000000  10.0000000  )
         5           La1 tau(   5) = (   3.4182308   1.9735165  12.7909737  )
         6           La1 tau(   6) = (   1.7091154   4.9337911  12.7909737  )
         7           La1 tau(   7) = (  -1.7091154   4.9337911  12.7909737  )
         8           Ir1 tau(   8) = (   0.0000000   1.9735165  12.7909737  )
         9           La1 tau(   9) = (   0.0000124   3.8146066  15.6302921  )
        10           La1 tau(  10) = (   1.5944119   1.0529698  15.6302908  )
        11           La1 tau(  11) = (   5.2420092   1.0529753  15.6303084  )
        12           Ir1 tau(  12) = (   3.4182433   3.9470471  14.9485009  )

     number of k points=    20  Fermi-Dirac smearing, width (Ry)=  0.0110
                       cart. coord. in units 2pi/alat
        k(    1) = (   0.0000000   0.0000000   0.0000000), wk =   0.0555556
        k(    2) = (   0.0000000   0.0281505   0.0000000), wk =   0.1111111
        k(    3) = (   0.0000000   0.0563011   0.0000000), wk =   0.1111111
        k(    4) = (   0.0000000  -0.0844516   0.0000000), wk =   0.0555556
        k(    5) = (   0.0243791   0.0140753   0.0000000), wk =   0.1111111
        k(    6) = (   0.0243791   0.0422258   0.0000000), wk =   0.1111111
        k(    7) = (   0.0243791   0.0703764   0.0000000), wk =   0.1111111
        k(    8) = (   0.0243791  -0.0703764   0.0000000), wk =   0.1111111
        k(    9) = (   0.0243791  -0.0422258   0.0000000), wk =   0.1111111
        k(   10) = (   0.0243791  -0.0140753   0.0000000), wk =   0.1111111
        k(   11) = (   0.0487582   0.0281505   0.0000000), wk =   0.1111111
        k(   12) = (   0.0487582   0.0563011   0.0000000), wk =   0.1111111
        k(   13) = (   0.0487582   0.0844516   0.0000000), wk =   0.1111111
        k(   14) = (   0.0487582  -0.0563011   0.0000000), wk =   0.1111111
        k(   15) = (   0.0487582  -0.0281505   0.0000000), wk =   0.1111111
        k(   16) = (   0.0487582   0.0000000   0.0000000), wk =   0.1111111
        k(   17) = (  -0.0731373  -0.0422258   0.0000000), wk =   0.0555556
        k(   18) = (  -0.0731373  -0.0140753   0.0000000), wk =   0.1111111
        k(   19) = (  -0.0731373   0.0140753   0.0000000), wk =   0.1111111
        k(   20) = (  -0.0731373  -0.1266774   0.0000000), wk =   0.0555556

     Largest allocated arrays     est. size (Mb)     dimensions
     Largest temporary arrays     est. size (Mb)     dimensions

     Initial potential from superposition of free atoms
     Check: negative starting charge=   -1.708914

     starting charge  142.21129, renormalised to  144.00000

[...]

     *
     * You are using vdW-DF for exchange-correlation in this calculation.
     * Please cite the following three references that made this development
     * possible:
     *
     *   M. Dion, H. Rydberg, E. Schroder, D. C. Langreth, and
     *   B. I. Lundqvist, Phys. Rev. Lett. 92, 246401 (2004).
     *
     *   T. Thonhauser, V. R. Cooper, S. Li, A. Puzder, P. Hyldgaard, and
     *   D. C. Langreth, Phys. Rev. B 76, 125112 (2007).
     *
     *   G. Roman-Perez and J. M. Soler, Phys. Rev. Lett. 103, 096102 (2009).
     *
     *
     * If you are using vdW-DF2, please also cite:
     *
     *   K. Lee, E. D. Murray, L. Kong, B. I. Lundqvist, and
     *   D. C. Langreth, Phys. Rev. B 82, 081101(R) (2010).
     *
     *
     * If you are calculating the stress with vdW-DF, please also cite:
     *
     *   R. Sabatini, E. Kucukbenli, B. Kolb, T. Thonhauser, and
     *   S. de Gironcoli, J. Phys.: Condens. Matter 24, 424209 (2012).
     *

     Carrying out vdW-DF run using the following parameters:

     Nqs =      20    Nr_points =    1024   r_max =   100.000
     q_mesh =
               0.00001000     0.04494208     0.09755937     0.15916263
               0.23128650     0.31572767     0.41458969     0.53033537
               0.66584808     0.82450364     1.01025438     1.22772762
               1.48234092     1.78043706     2.12944203     2.53805004
               3.01644009     3.57652955     4.23227104     5.00000000

     Gradients computed in reciprocal space

[...]

     Starting wfc are  216 randomized atomic wfcs

     Self-consistent Calculation

[...]

     iteration # 11     ecut=    36.75 Ry     beta=0.10
     Davidson diagonalization with overlap
     c_bands:  1 eigenvalues not converged
     ethr =  7.11E-06,  avg # of iterations =  9.8

[...]

     total energy              =   -1486.22118336 Ry
     Harris-Foulkes estimate   =   -1486.22118455 Ry
     estimated scf accuracy    <       0.00000190 Ry

     iteration # 22     ecut=    36.75 Ry     beta=0.10
     Davidson diagonalization with overlap
     ethr =  1.32E-09,  avg # of iterations =  3.0

[...]

     negative rho (up, down):  1.359E+00 0.000E+00

     Adding external electric field

     Computed dipole along edir(3) :
        Dipole                0.0976 Ry au,          0.2480 Debye
        Dipole field          0.0002 Ry au

        Potential amp.       -0.0165 Ry
        Total length         47.1343 bohr

     End of self-consistent calculation

[...]

          k = 0.0488 0.0000 0.0000 ( 26301 PWs)   bands (ev):

[...]

          k =-0.0731-0.1267 0.0000 ( 26238 PWs)   bands (ev):

   -45.9450 -45.9040 -45.9040 -45.8658 -45.8657 -45.8656 -45.6218 -45.6217
   -45.4986 -30.8637 -30.8007 -30.7153 -30.6610 -30.6227 -30.5978 -30.2833
   -30.2082 -30.1219 -15.3154 -15.1717 -15.0194 -14.8474 -14.7389 -14.6675
   -14.6276 -14.6120 -14.5238 -14.4592 -14.4299 -14.4155 -14.3857 -14.3679
   -14.2639 -14.1107 -14.1034 -14.0146 -13.8206 -13.7494 -13.7444 -13.6242
   -13.5971 -13.5324 -13.5059 -13.4734 -13.1943  -0.7035  -0.6501  -0.2062
     0.0439   0.1274   0.1413   0.2791   0.3728   0.4067   0.5809   0.6200
     0.7670   0.7884   0.8350   0.9845   1.0422   1.0887   1.1022   1.1240
     1.1976   1.3772   1.5344   1.7909   1.9801   2.1631   2.2822   2.4698
     2.5082   2.6629   2.6924   2.8358   2.9546   2.9720   3.1435   3.1683
     3.1984   3.2927   3.3908   3.4691   3.4951   3.5301   3.6786   3.7029
     3.7871   3.8357   3.8923   3.9148   3.9479   3.9861   3.9975   4.0307
     4.0354   4.0763   4.0954   4.1077   4.1709   4.1992

     the Fermi energy is     2.4729 ev

!    total energy              =   -1486.22116328 Ry
     Harris-Foulkes estimate   =   -1486.22118460 Ry
     estimated scf accuracy    <       0.00000050 Ry

     The total energy is the sum of the following terms:

     one-electron contribution =   -7123.65018869 Ry
     hartree contribution      =    3582.29270970 Ry
     xc contribution           =    -613.32474509 Ry
     ewald contribution        =    2668.56614814 Ry
     electric field correction =       0.00001712 Ry
     smearing contrib. (-TS)   =      -0.10510446 Ry

     convergence has been achieved in  22 iterations

 BEEF-vdW xc energy contributions
           1 :   -543.571356329987
           2 :    501.591306444231
           3 :   -426.921248820858
           4 :    334.946494667953
           5 :   -242.389313235747
           6 :    162.897970002411
           7 :   -104.330600253264
           8 :    68.1288242990254
           9 :   -50.4847631226867
          10 :    44.6156648687062
          11 :   -43.3193490799240
          12 :    41.0166589813992
          13 :   -34.7875427386628
          14 :    24.3543204035096
          15 :   -11.3450852608116
          16 :   -1.72439235176944
          17 :    12.4069106904117
          18 :   -19.0300380334122
          19 :    21.0603615920644
          20 :   -19.1113087658523
          21 :    14.6490111896079
          22 :   -9.51277382151670
          23 :    5.38275781270738
          24 :   -3.32930847427349
          25 :    3.56478835800442
          26 :   -5.48188193180056
          27 :    7.96652820574513
          28 :   -9.86434902194799
          29 :    10.4139758892370
          30 :   -9.48742013135973
          31 :   -46.1712473116711
          32 :   -33.4743655169462

     Forces acting on atoms (Ry/au):

     negative rho (up, down):  1.359E+00 0.000E+00
     atom    1 type  1   force =    -0.00000019    0.02586652   -0.01258338
     atom    2 type  1   force =     0.02240024   -0.01293480   -0.01258486
     atom    3 type  1   force =    -0.02240030   -0.01293273   -0.01258412
     atom    4 type  2   force =     0.00000061    0.00000013    0.04429590
     atom    5 type  1   force =    -0.00000084   -0.01696432    0.00092254
     atom    6 type  1   force =    -0.01468938    0.00848041    0.00092257
     atom    7 type  1   force =     0.01469085    0.00848421    0.00092229
     atom    8 type  2   force =     0.00000054   -0.00000006   -0.00826435
     atom    9 type  1   force =    -0.00000120    0.00037612   -0.00008721
     atom   10 type  1   force =     0.00032724   -0.00019109   -0.00008634
     atom   11 type  1   force =    -0.00032740   -0.00018593   -0.00008442
     atom   12 type  2   force =    -0.00000017    0.00000154   -0.00078862

     Total force =     0.073346     Total SCF correction =     0.001693

     entering subroutine stress ...

     negative rho (up, down):  1.359E+00 0.000E+00
          total   stress  (Ry/bohr**3)                   (kbar)     P=   -4.93
  -0.00004372  -0.00000000  -0.00000000         -6.43     -0.00     -0.00
  -0.00000000  -0.00004372  -0.00000000         -0.00     -6.43     -0.00
  -0.00000000  -0.00000000  -0.00001301         -0.00     -0.00     -1.91

 !ASE

     Writing output data file calc.save

     General routines

     Parallel routines

   This run was terminated on:  17:11:13  30Dec2018

   JOB DONE.
Job  /afs/slac/g/suncat/bin/suncat-tsmpirun -x LD_LIBRARY_PATH -wdir /scratch/qe648561_SPLGu pw.x -in pw.inp

TID   HOST_NAME   COMMAND_LINE            STATUS            TERMINATION_TIME
00000 suncat0016 pw.x -in pw.inp   Done                     12/30/2018 17:11:13
00001 suncat0016 pw.x -in pw.inp   Done                     12/30/2018 17:11:13
00002 suncat0016 pw.x -in pw.inp   Done                     12/30/2018 17:11:13
00003 suncat0016 pw.x -in pw.inp   Done                     12/30/2018 17:11:13
00004 suncat0016 pw.x -in pw.inp   Done                     12/30/2018 17:11:13
00005 suncat0016 pw.x -in pw.inp   Done                     12/30/2018 17:11:13
00006 suncat0016 pw.x -in pw.inp   Done                     12/30/2018 17:11:13
00007 suncat0016 pw.x -in pw.inp   Done                     12/30/2018 17:11:13
00008 suncat0198 pw.x -in pw.inp   Done                     12/30/2018 17:11:13
00009 suncat0198 pw.x -in pw.inp   Done                     12/30/2018 17:11:13
00010 suncat0198 pw.x -in pw.inp   Done                     12/30/2018 17:11:13
00011 suncat0198 pw.x -in pw.inp   Done                     12/30/2018 17:11:13
00012 suncat0198 pw.x -in pw.inp   Done                     12/30/2018 17:11:13
00013 suncat0198 pw.x -in pw.inp   Done                     12/30/2018 17:11:13
00014 suncat0198 pw.x -in pw.inp   Done                     12/30/2018 17:11:13
00015 suncat0198 pw.x -in pw.inp   Done                     12/30/2018 17:11:13
00016 suncat0194 pw.x -in pw.inp   Done                     12/30/2018 17:11:13
00017 suncat0194 pw.x -in pw.inp   Done                     12/30/2018 17:11:13
00018 suncat0194 pw.x -in pw.inp   Done                     12/30/2018 17:11:13
00019 suncat0194 pw.x -in pw.inp   Done                     12/30/2018 17:11:13
00020 suncat0194 pw.x -in pw.inp   Done                     12/30/2018 17:11:13
00021 suncat0194 pw.x -in pw.inp   Done                     12/30/2018 17:11:13
00022 suncat0194 pw.x -in pw.inp   Done                     12/30/2018 17:11:13
00023 suncat0194 pw.x -in pw.inp   Done                     12/30/2018 17:11:13
00024 suncat0193 pw.x -in pw.inp   Done                     12/30/2018 17:11:13
00025 suncat0193 pw.x -in pw.inp   Done                     12/30/2018 17:11:13
00026 suncat0193 pw.x -in pw.inp   Done                     12/30/2018 17:11:13
00027 suncat0193 pw.x -in pw.inp   Done                     12/30/2018 17:11:13
00028 suncat0193 pw.x -in pw.inp   Done                     12/30/2018 17:11:13
00029 suncat0193 pw.x -in pw.inp   Done                     12/30/2018 17:11:13
00030 suncat0193 pw.x -in pw.inp   Done                     12/30/2018 17:11:13
00031 suncat0193 pw.x -in pw.inp   Done                     12/30/2018 17:11:13
00032 suncat0192 pw.x -in pw.inp   Done                     12/30/2018 17:11:13
00033 suncat0192 pw.x -in pw.inp   Done                     12/30/2018 17:11:13
00034 suncat0192 pw.x -in pw.inp   Done                     12/30/2018 17:11:13
00035 suncat0192 pw.x -in pw.inp   Done                     12/30/2018 17:11:13
00036 suncat0192 pw.x -in pw.inp   Done                     12/30/2018 17:11:13
00037 suncat0192 pw.x -in pw.inp   Done                     12/30/2018 17:11:13
00038 suncat0192 pw.x -in pw.inp   Done                     12/30/2018 17:11:13
00039 suncat0192 pw.x -in pw.inp   Done                     12/30/2018 17:11:13
00040 suncat0184 pw.x -in pw.inp   Done                     12/30/2018 17:11:13
00041 suncat0184 pw.x -in pw.inp   Done                     12/30/2018 17:11:13
00042 suncat0184 pw.x -in pw.inp   Done                     12/30/2018 17:11:13
00043 suncat0184 pw.x -in pw.inp   Done                     12/30/2018 17:11:13
00044 suncat0184 pw.x -in pw.inp   Done                     12/30/2018 17:11:13
00045 suncat0184 pw.x -in pw.inp   Done                     12/30/2018 17:11:13
00046 suncat0184 pw.x -in pw.inp   Done                     12/30/2018 17:11:13
00047 suncat0184 pw.x -in pw.inp   Done                     12/30/2018 17:11:13
00048 suncat0172 pw.x -in pw.inp   Done                     12/30/2018 17:11:13
00049 suncat0172 pw.x -in pw.inp   Done                     12/30/2018 17:11:13
00050 suncat0172 pw.x -in pw.inp   Done                     12/30/2018 17:11:13
00051 suncat0172 pw.x -in pw.inp   Done                     12/30/2018 17:11:13
00052 suncat0172 pw.x -in pw.inp   Done                     12/30/2018 17:11:13
00053 suncat0172 pw.x -in pw.inp   Done                     12/30/2018 17:11:13
00054 suncat0172 pw.x -in pw.inp   Done                     12/30/2018 17:11:13
00055 suncat0172 pw.x -in pw.inp   Done                     12/30/2018 17:11:13
00056 suncat0171 pw.x -in pw.inp   Done                     12/30/2018 17:11:13
00057 suncat0171 pw.x -in pw.inp   Done                     12/30/2018 17:11:13
00058 suncat0171 pw.x -in pw.inp   Done                     12/30/2018 17:11:13
00059 suncat0171 pw.x -in pw.inp   Done                     12/30/2018 17:11:13
00060 suncat0171 pw.x -in pw.inp   Done                     12/30/2018 17:11:13
00061 suncat0171 pw.x -in pw.inp   Done                     12/30/2018 17:11:13
00062 suncat0171 pw.x -in pw.inp   Done                     12/30/2018 17:11:13
00063 suncat0171 pw.x -in pw.inp   Done                     12/30/2018 17:11:13