     Program PWSCF v.5.1rc2 (svn rev. 11289) starts on  1Jan2019 at 15:32:23

     Current dimensions of program PWSCF are:
     Max number of different atomic species (ntypx) = 10
     Max number of k-points (npk) =  40000
     Max angular momentum in pseudopotentials (lmaxx) =  3
     Presently stress not available with electric field

     IMPORTANT: XC functional enforced from input :
     Exchange-correlation      = BEEF-VDW ( 1  4 27 13 2)
     Any further DFT definition will be discarded
     Please, verify this is what you really want

     Subspace diagonalization in iterative solution of the eigenvalue problem:
     a serial algorithm will be used

     bravais-lattice index     =            0
     lattice parameter (alat)  =       1.8897  a.u.
     unit-cell volume          =    5020.2064 (a.u.)^3
     number of atoms/cell      =           12
     number of atomic types    =            2
     number of electrons       =       150.00
     number of Kohn-Sham states=          105
     kinetic-energy cutoff     =      36.7493  Ry
     charge density cutoff     =     367.4932  Ry
     convergence threshold     =      1.0E-06
     mixing beta               =       0.1000
     number of iterations used =           10  plain     mixing
     Exchange-correlation      = BEEF-VDW ( 1  4 27 13 2)
     nstep                     =           50

     celldm(1)=   1.889726  celldm(2)=   0.000000  celldm(3)=   0.000000
     celldm(4)=   0.000000  celldm(5)=   0.000000  celldm(6)=   0.000000

     crystal axes: (cart. coord. in units of alat)
               a(1) = (   5.884757   0.000000   0.000000 )
               a(2) = (  -2.942379   5.096349   0.000000 )
               a(3) = (   0.000000   0.000000  24.804884 )

     reciprocal axes: (cart. coord. in units 2 pi/alat)
               b(1) = (  0.169931  0.098109  0.000000 )
               b(2) = (  0.000000  0.196219  0.000000 )
               b(3) = (  0.000000  0.000000  0.040315 )

     PseudoPot. # 1 for Ta read from file:
     /afs/slac.stanford.edu/u/if/mamunm/psp/gbrv1.5pbe/Ta.UPF
     MD5 check sum: f8bbe9446314a3b8ea5d9f3e3836c939
     Pseudo is Ultrasoft + core correction, Zval = 13.0
     Generated by new atomic code, or converted to UPF format
     Using radial grid of  921 points,  7 beta functions with:
                l(1) =   0
                l(2) =   0
                l(3) =   1
                l(4) =   1
                l(5) =   2
                l(6) =   2
                l(7) =   3
     Q(r) pseudized with  6 coefficients,  rinner =    1.300   1.300   1.300
                                                       1.300   1.300   1.300
                                                       1.300

     PseudoPot. # 2 for Au read from file:
     /afs/slac.stanford.edu/u/if/mamunm/psp/gbrv1.5pbe/Au.UPF
     MD5 check sum: 9d7f43293ad2c663164586bc4b293ffc
     Pseudo is Ultrasoft + core correction, Zval = 11.0
     Generated by new atomic code, or converted to UPF format
     Using radial grid of  985 points,  7 beta functions with:
                l(1) =   0
                l(2) =   0
                l(3) =   1
                l(4) =   1
                l(5) =   2
                l(6) =   2
                l(7) =   3
     Q(r) pseudized with  6 coefficients,  rinner =    1.900   1.900   1.900
                                                       1.900   1.900   1.900
                                                       1.900

     vdW kernel table read from file vdW_kernel_table
     MD5 check sum: 095c7af220d748ca6e76c0b4c6cfb241

     atomic species   valence    mass     pseudopotential
        Ta1           13.00   180.94788     Ta( 1.00)
        Au1           11.00   196.96657     Au( 1.00)

     No symmetry found

   Cartesian axes

     site n.     atom                  positions (alat units)
         1           Ta1 tau(   1) = (   0.0000000   0.0000000  10.0000000  )
         2           Ta1 tau(   2) = (  -1.4711894   2.5481747  10.0000000  )
         3           Ta1 tau(   3) = (   1.4711894   2.5481747  10.0000000  )
         4           Au1 tau(   4) = (   2.9423787   0.0000000  10.0000000  )
         5           Ta1 tau(   5) = (   2.9423787   1.6987831  12.4024422  )
         6           Ta1 tau(   6) = (   1.4711894   4.2469579  12.4024422  )
         7           Ta1 tau(   7) = (  -1.4711894   4.2469579  12.4024422  )
         8           Au1 tau(   8) = (   0.0000000   1.6987831  12.4024422  )
         9           Ta1 tau(   9) = (  -0.0000000   3.3975663  14.8048843  )
        10           Ta1 tau(  10) = (   1.4711894   0.8493916  14.8048843  )
        11           Ta1 tau(  11) = (   4.4135681   0.8493916  14.8048843  )
        12           Au1 tau(  12) = (   2.9423787   3.3975663  14.8048843  )

     number of k points=    20  Fermi-Dirac smearing, width (Ry)=  0.0110
                       cart. coord. in units 2pi/alat
        k(    1) = (   0.0000000   0.0000000   0.0000000), wk =   0.0555556
        k(    2) = (   0.0000000   0.0327031   0.0000000), wk =   0.1111111
        k(    3) = (   0.0000000   0.0654063   0.0000000), wk =   0.1111111
        k(    4) = (   0.0000000  -0.0981094   0.0000000), wk =   0.0555556
        k(    5) = (   0.0283218   0.0163516   0.0000000), wk =   0.1111111
        k(    6) = (   0.0283218   0.0490547   0.0000000), wk =   0.1111111
        k(    7) = (   0.0283218   0.0817579   0.0000000), wk =   0.1111111
        k(    8) = (   0.0283218  -0.0817579   0.0000000), wk =   0.1111111
        k(    9) = (   0.0283218  -0.0490547   0.0000000), wk =   0.1111111
        k(   10) = (   0.0283218  -0.0163516   0.0000000), wk =   0.1111111
        k(   11) = (   0.0566435   0.0327031   0.0000000), wk =   0.1111111
        k(   12) = (   0.0566435   0.0654063   0.0000000), wk =   0.1111111
        k(   13) = (   0.0566435   0.0981094   0.0000000), wk =   0.1111111
        k(   14) = (   0.0566435  -0.0654063   0.0000000), wk =   0.1111111
        k(   15) = (   0.0566435  -0.0327031   0.0000000), wk =   0.1111111
        k(   16) = (   0.0566435   0.0000000   0.0000000), wk =   0.1111111
        k(   17) = (  -0.0849653  -0.0490547   0.0000000), wk =   0.0555556
        k(   18) = (  -0.0849653  -0.0163516   0.0000000), wk =   0.1111111
        k(   19) = (  -0.0849653   0.0163516   0.0000000), wk =   0.1111111
        k(   20) = (  -0.0849653  -0.1471642   0.0000000), wk =   0.0555556

     Largest allocated arrays     est. size (Mb)     dimensions
     Largest temporary arrays     est. size (Mb)     dimensions

     Initial potential from superposition of free atoms
     Check: negative starting charge=   -0.843103

     starting charge  149.98962, renormalised to  150.00000

     negative rho (up, down):  8.432E-01 0.000E+00

     *
     * You are using vdW-DF for exchange-correlation in this calculation.
     * Please cite the following three references that made this development
     * possible:
     *
     *   M. Dion, H. Rydberg, E. Schroder, D. C. Langreth, and
     *   B. I. Lundqvist, Phys. Rev. Lett. 92, 246401 (2004).
     *
     *   T. Thonhauser, V. R. Cooper, S. Li, A. Puzder, P. Hyldgaard, and
     *   D. C. Langreth, Phys. Rev. B 76, 125112 (2007).
     *
     *   G. Roman-Perez and J. M. Soler, Phys. Rev. Lett. 103, 096102 (2009).
     *
     *
     * If you are using vdW-DF2, please also cite:
     *
     *   K. Lee, E. D. Murray, L. Kong, B. I. Lundqvist, and
     *   D. C. Langreth, Phys. Rev. B 82, 081101(R) (2010).
     *
     *
     * If you are calculating the stress with vdW-DF, please also cite:
     *
     *   R. Sabatini, E. Kucukbenli, B. Kolb, T. Thonhauser, and
     *   S. de Gironcoli, J. Phys.: Condens. Matter 24, 424209 (2012).
     *

     Carrying out vdW-DF run using the following parameters:

     Nqs =      20    Nr_points =    1024   r_max =   100.000
     q_mesh =
               0.00001000     0.04494208     0.09755937     0.15916263
               0.23128650     0.31572767     0.41458969     0.53033537
               0.66584808     0.82450364     1.01025438     1.22772762
               1.48234092     1.78043706     2.12944203     2.53805004
               3.01644009     3.57652955     4.23227104     5.00000000

     Gradients computed in reciprocal space

     Adding external electric field

     Computed dipole along edir(3) :
        Dipole                0.0000 Ry au,          0.0000 Debye
        Dipole field          0.0000 Ry au

        Potential amp.       -0.0000 Ry
        Total length         45.7026 bohr

     Starting wfc are  144 randomized atomic wfcs

     Self-consistent Calculation

     iteration #  1     ecut=    36.75 Ry     beta=0.10
     Davidson diagonalization with overlap
     ethr =  1.00E-02,  avg # of iterations =  2.0

[...]

     total energy              =   -1638.64474846 Ry
     Harris-Foulkes estimate   =   -1639.35488694 Ry
     estimated scf accuracy    <       4.17373430 Ry

[...]

     End of self-consistent calculation

          k = 0.0000 0.0000 0.0000 ( 18967 PWs)   bands (ev):

   -66.5554 -66.5532 -66.5044 -66.5044 -66.5038 -66.5038 -66.2998 -66.2509
   -66.2508 -33.2204 -33.1679 -33.1374 -33.0845 -33.0748 -33.0748 -33.0567
   -33.0567 -33.0125 -33.0125 -33.0107 -32.9224 -32.9224 -32.7497 -32.7497
   -32.6865 -32.6546 -32.5045 -32.5045 -32.4695 -32.4214 -32.4214 -32.4162
   -32.4125 -32.4125 -32.2532 -32.2532  -6.2280  -4.7417  -4.2205  -4.0714
    -4.0714  -3.9435  -3.9435  -3.5792  -3.5792  -3.5108  -3.5108  -3.5040
    -3.4105  -2.8678  -2.8678  -2.7299  -2.7299  -2.5918  -2.3985  -1.8276
    -1.0019  -0.0877   0.0743   0.0743   0.1305   0.5502   0.5503   0.6858
     0.6858   1.1807   1.1807   1.2335   1.3346   1.3346   1.4138   1.7708
     1.7708   2.1406   2.1867   2.1867   2.3429   2.5945   2.7026   2.7026
     3.0962   3.1755   3.1755   3.4976   4.2688   4.6069   4.6069   5.0102
     5.0102   5.0804   5.0807   5.0807   5.3538   5.3538   5.4574   5.4574
     5.8015   5.8683   5.8683   5.9087   5.9087   5.9912   6.0181   6.0181
     6.0861

[...]

          k =-0.0850-0.0491 0.0000 ( 18884 PWs)   bands (ev):

[...]

     the Fermi energy is     1.9054 ev

!    total energy              =   -1638.82152099 Ry
     Harris-Foulkes estimate   =   -1638.82152090 Ry
     estimated scf accuracy    <       0.00000032 Ry

     The total energy is the sum of the following terms:

     one-electron contribution =  -10796.00835783 Ry
     hartree contribution      =    5408.65504177 Ry
     xc contribution           =    -583.95037259 Ry
     ewald contribution        =    4332.56723330 Ry
     electric field correction =       0.00000000 Ry
     smearing contrib. (-TS)   =      -0.08506564 Ry

     convergence has been achieved in  16 iterations

 BEEF-vdW xc energy contributions
           1 :   -516.538744996232
           2 :    478.303515999489
           3 :   -410.780676865025
           4 :    328.465775964371
           5 :   -246.439574412554
           6 :    175.974161244315
           7 :   -122.302467399033
           8 :    84.9596786812465
           9 :   -59.9876483718181
          10 :    42.6447960278905
          11 :   -29.3883026522487
          12 :    18.5385424835532
[...]
     MD5 check sum: f8bbe9446314a3b8ea5d9f3e3836c939
     Pseudo is Ultrasoft + core correction, Zval = 13.0
     Generated by new atomic code, or converted to UPF format
     Using radial grid of  921 points,  7 beta functions with:
                l(1) =   0
                l(2) =   0
                l(3) =   1
                l(4) =   1
                l(5) =   2
                l(6) =   2
                l(7) =   3
     Q(r) pseudized with  6 coefficients,  rinner =    1.300   1.300   1.300
                                                       1.300   1.300   1.300
                                                       1.300

     PseudoPot. # 2 for Au read from file:
     /afs/slac.stanford.edu/u/if/mamunm/psp/gbrv1.5pbe/Au.UPF
     MD5 check sum: 9d7f43293ad2c663164586bc4b293ffc
     Pseudo is Ultrasoft + core correction, Zval = 11.0
     Generated by new atomic code, or converted to UPF format
     Using radial grid of  985 points,  7 beta functions with:
                l(1) =   0
                l(2) =   0
                l(3) =   1
                l(4) =   1
                l(5) =   2
                l(6) =   2
                l(7) =   3
     Q(r) pseudized with  6 coefficients,  rinner =    1.900   1.900   1.900
                                                       1.900   1.900   1.900
                                                       1.900

     vdW kernel table read from file vdW_kernel_table
     MD5 check sum: 095c7af220d748ca6e76c0b4c6cfb241

     atomic species   valence    mass     pseudopotential
        Ta1           13.00   180.94788     Ta( 1.00)
        Au1           11.00   196.96657     Au( 1.00)

     No symmetry found

   Cartesian axes

     site n.     atom                  positions (alat units)
         1           Ta1 tau(   1) = (   0.0000000   0.0000000  10.0000000  )
         2           Ta1 tau(   2) = (  -1.4711894   2.5481747  10.0000000  )
         3           Ta1 tau(   3) = (   1.4711894   2.5481747  10.0000000  )
         4           Au1 tau(   4) = (   2.9423787   0.0000000  10.0000000  )
         5           Ta1 tau(   5) = (   2.9423787   1.6987831  12.4024422  )
         6           Ta1 tau(   6) = (   1.4711894   4.2469579  12.4024422  )
         7           Ta1 tau(   7) = (  -1.4711894   4.2469579  12.4024422  )
         8           Au1 tau(   8) = (   0.0000000   1.6987831  12.4024422  )
         9           Ta1 tau(   9) = (   0.0000352   3.4061106  14.7147944  )
        10           Ta1 tau(  10) = (   1.4785749   0.8451324  14.7148243  )
        11           Ta1 tau(  11) = (   4.4061829   0.8450926  14.7147874  )
        12           Au1 tau(  12) = (   2.9424135   3.3975521  14.8636692  )

     number of k points=    20  Fermi-Dirac smearing, width (Ry)=  0.0110
                       cart. coord. in units 2pi/alat
        k(    1) = (   0.0000000   0.0000000   0.0000000), wk =   0.0555556
        k(    2) = (   0.0000000   0.0327031   0.0000000), wk =   0.1111111
        k(    3) = (   0.0000000   0.0654063   0.0000000), wk =   0.1111111
        k(    4) = (   0.0000000  -0.0981094   0.0000000), wk =   0.0555556
        k(    5) = (   0.0283218   0.0163516   0.0000000), wk =   0.1111111
        k(    6) = (   0.0283218   0.0490547   0.0000000), wk =   0.1111111
        k(    7) = (   0.0283218   0.0817579   0.0000000), wk =   0.1111111
        k(    8) = (   0.0283218  -0.0817579   0.0000000), wk =   0.1111111
        k(    9) = (   0.0283218  -0.0490547   0.0000000), wk =   0.1111111
        k(   10) = (   0.0283218  -0.0163516   0.0000000), wk =   0.1111111
        k(   11) = (   0.0566435   0.0327031   0.0000000), wk =   0.1111111
        k(   12) = (   0.0566435   0.0654063   0.0000000), wk =   0.1111111
        k(   13) = (   0.0566435   0.0981094   0.0000000), wk =   0.1111111
        k(   14) = (   0.0566435  -0.0654063   0.0000000), wk =   0.1111111
        k(   15) = (   0.0566435  -0.0327031   0.0000000), wk =   0.1111111
        k(   16) = (   0.0566435   0.0000000   0.0000000), wk =   0.1111111
        k(   17) = (  -0.0849653  -0.0490547   0.0000000), wk =   0.0555556
        k(   18) = (  -0.0849653  -0.0163516   0.0000000), wk =   0.1111111
        k(   19) = (  -0.0849653   0.0163516   0.0000000), wk =   0.1111111
        k(   20) = (  -0.0849653  -0.1471642   0.0000000), wk =   0.0555556

     Largest allocated arrays     est. size (Mb)     dimensions
     Largest temporary arrays     est. size (Mb)     dimensions

     Initial potential from superposition of free atoms
     Check: negative starting charge=   -0.842520

     starting charge  149.98962, renormalised to  150.00000

[...]

     *
     * You are using vdW-DF for exchange-correlation in this calculation.
     * Please cite the following three references that made this development
     * possible:
     *
     *   M. Dion, H. Rydberg, E. Schroder, D. C. Langreth, and
     *   B. I. Lundqvist, Phys. Rev. Lett. 92, 246401 (2004).
     *
     *   T. Thonhauser, V. R. Cooper, S. Li, A. Puzder, P. Hyldgaard, and
     *   D. C. Langreth, Phys. Rev. B 76, 125112 (2007).
     *
     *   G. Roman-Perez and J. M. Soler, Phys. Rev. Lett. 103, 096102 (2009).
     *
     *
     * If you are using vdW-DF2, please also cite:
     *
     *   K. Lee, E. D. Murray, L. Kong, B. I. Lundqvist, and
     *   D. C. Langreth, Phys. Rev. B 82, 081101(R) (2010).
     *
     *
     * If you are calculating the stress with vdW-DF, please also cite:
     *
     *   R. Sabatini, E. Kucukbenli, B. Kolb, T. Thonhauser, and
     *   S. de Gironcoli, J. Phys.: Condens. Matter 24, 424209 (2012).
     *

     Carrying out vdW-DF run using the following parameters:

     Nqs =      20    Nr_points =    1024   r_max =   100.000
     q_mesh =
               0.00001000     0.04494208     0.09755937     0.15916263
               0.23128650     0.31572767     0.41458969     0.53033537
               0.66584808     0.82450364     1.01025438     1.22772762
               1.48234092     1.78043706     2.12944203     2.53805004
               3.01644009     3.57652955     4.23227104     5.00000000

     Gradients computed in reciprocal space

[...]

     Starting wfc are  144 randomized atomic wfcs

     Self-consistent Calculation

[...]

     total energy              =   -1638.83401592 Ry
     Harris-Foulkes estimate   =   -1638.83995121 Ry
     estimated scf accuracy    <       0.00000132 Ry

     iteration # 16     ecut=    36.75 Ry     beta=0.10
     Davidson diagonalization with overlap
     ethr =  8.83E-10,  avg # of iterations =  2.0

[...]

     negative rho (up, down):  8.793E-01 0.000E+00

     Adding external electric field

     Computed dipole along edir(3) :
        Dipole               -0.0134 Ry au,         -0.0339 Debye
        Dipole field         -0.0000 Ry au

        Potential amp.        0.0031 Ry
        Total length         45.7026 bohr

     End of self-consistent calculation

[...]

          k = 0.0566 0.0000 0.0000 ( 18905 PWs)   bands (ev):

[...]

          k =-0.0850-0.1472 0.0000 ( 18884 PWs)   bands (ev):

   -66.5604 -66.5438 -66.5270 -66.4789 -66.4613 -66.4443 -66.2504 -66.2345
   -66.2182 -33.1278 -33.1208 -33.0968 -33.0229 -33.0186 -33.0101 -32.9712
   -32.9487 -32.9088 -32.9071 -32.8619 -32.8366 -32.8289 -32.8198 -32.7739
   -32.7569 -32.7070 -32.6805 -32.5782 -32.5727 -32.5653 -32.4713 -32.4276
   -32.4026 -32.3690 -32.3483 -32.2361  -4.7471  -4.4334  -3.7974  -3.7668
    -3.6975  -3.4835  -3.4152  -3.3126  -3.2456  -3.2426  -2.9698  -2.9015
    -2.8713  -2.8205  -2.7114  -2.7023  -2.5723  -2.4761  -2.3533  -1.8442
    -1.6266  -1.0155  -0.7844  -0.1789  -0.0490   0.3029   0.4432   0.4548
     0.4875   0.5958   0.6639   0.8705   0.9696   1.1087   1.1345   1.1841
     1.4227   1.4998   1.6490   1.6845   2.0405   2.1983   2.3700   2.3743
     2.7005   2.8105   2.8246   2.9325   3.2537   3.8845   3.9550   3.9887
     4.1925   4.3007   4.4269   4.4982   4.6942   4.7368   4.8692   4.8996
     5.1087   5.3508   5.6605   5.7158   6.0609   6.1662   6.2403   6.5679
     7.2428

     the Fermi energy is     1.8834 ev

!    total energy              =   -1638.83401651 Ry
     Harris-Foulkes estimate   =   -1638.83401601 Ry
     estimated scf accuracy    <       0.00000045 Ry

     The total energy is the sum of the following terms:

     one-electron contribution =  -10884.83728414 Ry
     hartree contribution      =    5453.11505458 Ry
     xc contribution           =    -584.09660570 Ry
     ewald contribution        =    4377.06752556 Ry
     electric field correction =       0.00000045 Ry
     smearing contrib. (-TS)   =      -0.08270724 Ry

     convergence has been achieved in  16 iterations

 BEEF-vdW xc energy contributions
           1 :   -516.894776688719
           2 :    478.695117527357
           3 :   -411.215126226176
           4 :    328.909886233162
           5 :   -246.835155207261
           6 :    176.272903615620
           7 :   -122.497901061475
           8 :    85.0940564132696
           9 :   -60.1279672464099
          10 :    42.8432589736451
          11 :   -29.6536121215460
          12 :    18.8353314052424
          13 :   -10.0922685223760
          14 :    3.62283936631570
          15 :   0.644639624160391
          16 :   -3.29683498796157
          17 :    5.18955222490126
          18 :   -7.00732843163382
          19 :    8.95344302855767
          20 :   -10.7544422060720
          21 :    11.9380792679565
          22 :   -12.1873602597366
          23 :    11.5475670571999
          24 :   -10.3854027289813
          25 :    9.16141521648149
          26 :   -8.18772551540314
          27 :    7.52121105545700
          28 :   -7.03309423431131
          29 :    6.57237015295777
          30 :   -6.09733959113657
          31 :   -44.3187202609269
          32 :   -32.7815153682147

     Forces acting on atoms (Ry/au):

     negative rho (up, down):  8.793E-01 0.000E+00
     atom    1 type  1   force =     0.00000028   -0.00157065    0.01765064
     atom    2 type  1   force =    -0.00136174    0.00078520    0.01765114
     atom    3 type  1   force =     0.00136105    0.00078486    0.01765113
     atom    4 type  2   force =    -0.00000008   -0.00000183   -0.01274875
     atom    5 type  1   force =    -0.00000243    0.00957194   -0.00757499
     atom    6 type  1   force =     0.00829231   -0.00478879   -0.00758071
     atom    7 type  1   force =    -0.00828909   -0.00478424   -0.00757309
     atom    8 type  2   force =     0.00000161   -0.00000029   -0.01954495
     atom    9 type  1   force =    -0.00000754   -0.00134686    0.00061056
     atom   10 type  1   force =    -0.00115701    0.00066855    0.00060192
     atom   11 type  1   force =     0.00116294    0.00068069    0.00061172
     atom   12 type  2   force =    -0.00000032    0.00000142    0.00024538

     Total force =     0.044049     Total SCF correction =     0.002217

     entering subroutine stress ...

     negative rho (up, down):  8.793E-01 0.000E+00
          total   stress  (Ry/bohr**3)                   (kbar)     P=  -21.43
  -0.00018163   0.00000000  -0.00000000        -26.72      0.00     -0.00
   0.00000000  -0.00018163   0.00000000          0.00    -26.72      0.00
  -0.00000000   0.00000000  -0.00007379         -0.00      0.00    -10.85

 !ASE

     Writing output data file calc.save

     General routines

     Parallel routines

   This run was terminated on:  16:13:41   1Jan2019

   JOB DONE.
Job  /afs/slac/g/suncat/bin/suncat-tsmpirun -x LD_LIBRARY_PATH -wdir /scratch/qe649072_sof91 pw.x -in pw.inp

TID   HOST_NAME   COMMAND_LINE            STATUS            TERMINATION_TIME
00000 suncat0141 pw.x -in pw.inp   Done                     01/01/2019 16:13:41
00001 suncat0141 pw.x -in pw.inp   Done                     01/01/2019 16:13:41
00002 suncat0141 pw.x -in pw.inp   Done                     01/01/2019 16:13:41
00003 suncat0141 pw.x -in pw.inp   Done                     01/01/2019 16:13:41
00004 suncat0141 pw.x -in pw.inp   Done                     01/01/2019 16:13:41
00005 suncat0141 pw.x -in pw.inp   Done                     01/01/2019 16:13:41
00006 suncat0141 pw.x -in pw.inp   Done                     01/01/2019 16:13:41
00007 suncat0141 pw.x -in pw.inp   Done                     01/01/2019 16:13:41
00008 suncat0140 pw.x -in pw.inp   Done                     01/01/2019 16:13:41
00009 suncat0140 pw.x -in pw.inp   Done                     01/01/2019 16:13:41
00010 suncat0140 pw.x -in pw.inp   Done                     01/01/2019 16:13:41
00011 suncat0140 pw.x -in pw.inp   Done                     01/01/2019 16:13:41
00012 suncat0140 pw.x -in pw.inp   Done                     01/01/2019 16:13:41
00013 suncat0140 pw.x -in pw.inp   Done                     01/01/2019 16:13:41
00014 suncat0140 pw.x -in pw.inp   Done                     01/01/2019 16:13:41
00015 suncat0140 pw.x -in pw.inp   Done                     01/01/2019 16:13:41
00016 suncat0135 pw.x -in pw.inp   Done                     01/01/2019 16:13:41
00017 suncat0135 pw.x -in pw.inp   Done                     01/01/2019 16:13:41
00018 suncat0135 pw.x -in pw.inp   Done                     01/01/2019 16:13:41
00019 suncat0135 pw.x -in pw.inp   Done                     01/01/2019 16:13:41
00020 suncat0135 pw.x -in pw.inp   Done                     01/01/2019 16:13:41
00021 suncat0135 pw.x -in pw.inp   Done                     01/01/2019 16:13:41
00022 suncat0135 pw.x -in pw.inp   Done                     01/01/2019 16:13:41
00023 suncat0135 pw.x -in pw.inp   Done                     01/01/2019 16:13:41
00024 suncat0134 pw.x -in pw.inp   Done                     01/01/2019 16:13:41
00025 suncat0134 pw.x -in pw.inp   Done                     01/01/2019 16:13:41
00026 suncat0134 pw.x -in pw.inp   Done                     01/01/2019 16:13:41
00027 suncat0134 pw.x -in pw.inp   Done                     01/01/2019 16:13:41
00028 suncat0134 pw.x -in pw.inp   Done                     01/01/2019 16:13:41
00029 suncat0134 pw.x -in pw.inp   Done                     01/01/2019 16:13:41
00030 suncat0134 pw.x -in pw.inp   Done                     01/01/2019 16:13:41
00031 suncat0134 pw.x -in pw.inp   Done                     01/01/2019 16:13:41
00032 suncat0272 pw.x -in pw.inp   Done                     01/01/2019 16:13:41
00033 suncat0272 pw.x -in pw.inp   Done                     01/01/2019 16:13:41
00034 suncat0272 pw.x -in pw.inp   Done                     01/01/2019 16:13:41
00035 suncat0272 pw.x -in pw.inp   Done                     01/01/2019 16:13:41
00036 suncat0272 pw.x -in pw.inp   Done                     01/01/2019 16:13:41
00037 suncat0272 pw.x -in pw.inp   Done                     01/01/2019 16:13:41
00038 suncat0272 pw.x -in pw.inp   Done                     01/01/2019 16:13:41
00039 suncat0272 pw.x -in pw.inp   Done                     01/01/2019 16:13:41
00040 suncat0262 pw.x -in pw.inp   Done                     01/01/2019 16:13:41
00041 suncat0262 pw.x -in pw.inp   Done                     01/01/2019 16:13:41
00042 suncat0262 pw.x -in pw.inp   Done                     01/01/2019 16:13:41
00043 suncat0262 pw.x -in pw.inp   Done                     01/01/2019 16:13:41
00044 suncat0262 pw.x -in pw.inp   Done                     01/01/2019 16:13:41
00045 suncat0262 pw.x -in pw.inp   Done                     01/01/2019 16:13:41
00046 suncat0262 pw.x -in pw.inp   Done                     01/01/2019 16:13:41
00047 suncat0262 pw.x -in pw.inp   Done                     01/01/2019 16:13:41
00048 suncat0258 pw.x -in pw.inp   Done                     01/01/2019 16:13:41
00049 suncat0258 pw.x -in pw.inp   Done                     01/01/2019 16:13:41
00050 suncat0258 pw.x -in pw.inp   Done                     01/01/2019 16:13:41
00051 suncat0258 pw.x -in pw.inp   Done                     01/01/2019 16:13:41
00052 suncat0258 pw.x -in pw.inp   Done                     01/01/2019 16:13:41
00053 suncat0258 pw.x -in pw.inp   Done                     01/01/2019 16:13:41
00054 suncat0258 pw.x -in pw.inp   Done                     01/01/2019 16:13:41
00055 suncat0258 pw.x -in pw.inp   Done                     01/01/2019 16:13:41
00056 suncat0257 pw.x -in pw.inp   Done                     01/01/2019 16:13:41
00057 suncat0257 pw.x -in pw.inp   Done                     01/01/2019 16:13:41
00058 suncat0257 pw.x -in pw.inp   Done                     01/01/2019 16:13:41
00059 suncat0257 pw.x -in pw.inp   Done                     01/01/2019 16:13:41
00060 suncat0257 pw.x -in pw.inp   Done                     01/01/2019 16:13:41
00061 suncat0257 pw.x -in pw.inp   Done                     01/01/2019 16:13:41
00062 suncat0257 pw.x -in pw.inp   Done                     01/01/2019 16:13:41
00063 suncat0257 pw.x -in pw.inp   Done                     01/01/2019 16:13:41