     Program PWSCF v.5.1rc2 (svn rev. 11289) starts on  1Jan2019 at  3: 4:52

     Current dimensions of program PWSCF are:
     Max number of different atomic species (ntypx) = 10
     Max number of k-points (npk) =  40000
     Max angular momentum in pseudopotentials (lmaxx) =  3
     Presently stress not available with electric field

     IMPORTANT: XC functional enforced from input :
     Exchange-correlation      = BEEF-VDW ( 1  4 27 13 2)
     Any further DFT definition will be discarded
     Please, verify this is what you really want

     Subspace diagonalization in iterative solution of the eigenvalue problem:
     a serial algorithm will be used

     Generating pointlists ...
     new r_m :   0.4125 (alat units)  0.7795 (a.u.) for type    1
     new r_m :   0.4125 (alat units)  0.7795 (a.u.) for type    2

     bravais-lattice index     =            0
     lattice parameter (alat)  =       1.8897  a.u.
     unit-cell volume          =    4028.1015 (a.u.)^3
     number of atoms/cell      =           12
     number of atomic types    =            2
     number of electrons       =       198.00
     number of Kohn-Sham states=          129
     kinetic-energy cutoff     =      36.7493  Ry
     charge density cutoff     =     367.4932  Ry
     convergence threshold     =      1.0E-06
     mixing beta               =       0.1000
     number of iterations used =           10  plain     mixing
     Exchange-correlation      = BEEF-VDW ( 1  4 27 13 2)
     nstep                     =           50

     celldm(1)=   1.889726  celldm(2)=   0.000000  celldm(3)=   0.000000
     celldm(4)=   0.000000  celldm(5)=   0.000000  celldm(6)=   0.000000

     crystal axes: (cart. coord. in units of alat)
               a(1) = (   5.320912   0.000000   0.000000 )
               a(2) = (  -2.660456   4.608045   0.000000 )
               a(3) = (   0.000000   0.000000  24.344507 )

     reciprocal axes: (cart. coord. in units 2 pi/alat)
               b(1) = (  0.187938  0.108506  0.000000 )
               b(2) = (  0.000000  0.217012  0.000000 )
               b(3) = (  0.000000  0.000000  0.041077 )

     PseudoPot. # 1 for Ru read from file:
     /afs/slac.stanford.edu/u/if/mamunm/psp/gbrv1.5pbe/Ru.UPF
     MD5 check sum: 7158a806dd851261a58e6920c40ebe78
     Pseudo is Ultrasoft + core correction, Zval = 16.0
     Generated by new atomic code, or converted to UPF format
     Using radial grid of  967 points,  6 beta functions with:
                l(1) =   0
                l(2) =   0
                l(3) =   1
                l(4) =   1
                l(5) =   2
                l(6) =   2
     Q(r) pseudized with  8 coefficients,  rinner =    1.300   1.300   1.300
                                                       1.300   1.300

     PseudoPot. # 2 for Ni read from file:
     /afs/slac.stanford.edu/u/if/mamunm/psp/gbrv1.5pbe/Ni.UPF
     MD5 check sum: 1ee80287db30b12d2bc1f57a5b5d6409
     Pseudo is Ultrasoft + core correction, Zval = 18.0
     Generated by new atomic code, or converted to UPF format
     Using radial grid of  865 points,  6 beta functions with:
                l(1) =   0
                l(2) =   0
                l(3) =   1
                l(4) =   1
                l(5) =   2
                l(6) =   2
     Q(r) pseudized with 10 coefficients,  rinner =    0.980   0.980   0.980
                                                       0.980   0.980

     vdW kernel table read from file vdW_kernel_table
     MD5 check sum: 095c7af220d748ca6e76c0b4c6cfb241

     atomic species   valence    mass     pseudopotential
        Ru1           16.00   101.07000     Ru( 1.00)
        Ni1           18.00    58.69340     Ni( 1.00)

     Starting magnetic structure
     atomic species   magnetization
        Ru1          0.125
        Ni1          0.111

     No symmetry found

   Cartesian axes

     site n.     atom                  positions (alat units)
         1           Ru1 tau(   1) = (   0.0000000   0.0000000  10.0000000  )
         2           Ru1 tau(   2) = (  -1.3302281   2.3040226  10.0000000  )
         3           Ru1 tau(   3) = (   1.3302281   2.3040226  10.0000000  )
         4           Ni1 tau(   4) = (   2.6604561   0.0000000  10.0000000  )
         5           Ru1 tau(   5) = (   2.6604561   1.5360151  12.1722533  )
         6           Ru1 tau(   6) = (   1.3302281   3.8400376  12.1722533  )
         7           Ru1 tau(   7) = (  -1.3302281   3.8400376  12.1722533  )
         8           Ni1 tau(   8) = (   0.0000000   1.5360151  12.1722533  )
         9           Ru1 tau(   9) = (  -0.0000000   3.0720301  14.3445066  )
        10           Ru1 tau(  10) = (   1.3302281   0.7680075  14.3445066  )
        11           Ru1 tau(  11) = (   3.9906842   0.7680075  14.3445066  )
        12           Ni1 tau(  12) = (   2.6604561   3.0720301  14.3445066  )

     number of k points=    40  Fermi-Dirac smearing, width (Ry)=  0.0110
                       cart. coord. in units 2pi/alat
        k(    1) = (   0.0000000   0.0000000   0.0000000), wk =   0.0277778
        k(    2) = (   0.0000000   0.0361686   0.0000000), wk =   0.0555556
        k(    3) = (   0.0000000   0.0723373   0.0000000), wk =   0.0555556
        k(    4) = (   0.0000000  -0.1085059   0.0000000), wk =   0.0277778
        k(    5) = (   0.0313229   0.0180843   0.0000000), wk =   0.0555556
        k(    6) = (   0.0313229   0.0542529   0.0000000), wk =   0.0555556
        k(    7) = (   0.0313229   0.0904216   0.0000000), wk =   0.0555556
        k(    8) = (   0.0313229  -0.0904216   0.0000000), wk =   0.0555556
        k(    9) = (   0.0313229  -0.0542529   0.0000000), wk =   0.0555556
        k(   10) = (   0.0313229  -0.0180843   0.0000000), wk =   0.0555556
        k(   11) = (   0.0626459   0.0361686   0.0000000), wk =   0.0555556
        k(   12) = (   0.0626459   0.0723373   0.0000000), wk =   0.0555556
        k(   13) = (   0.0626459   0.1085059   0.0000000), wk =   0.0555556
        k(   14) = (   0.0626459  -0.0723373   0.0000000), wk =   0.0555556
        k(   15) = (   0.0626459  -0.0361686   0.0000000), wk =   0.0555556
        k(   16) = (   0.0626459   0.0000000   0.0000000), wk =   0.0555556
        k(   17) = (  -0.0939688  -0.0542529   0.0000000), wk =   0.0277778
        k(   18) = (  -0.0939688  -0.0180843   0.0000000), wk =   0.0555556
        k(   19) = (  -0.0939688   0.0180843   0.0000000), wk =   0.0555556
        k(   20) = (  -0.0939688  -0.1627588   0.0000000), wk =   0.0277778
        k(   21) = (   0.0000000   0.0000000   0.0000000), wk =   0.0277778
        k(   22) = (   0.0000000   0.0361686   0.0000000), wk =   0.0555556
        k(   23) = (   0.0000000   0.0723373   0.0000000), wk =   0.0555556
        k(   24) = (   0.0000000  -0.1085059   0.0000000), wk =   0.0277778
        k(   25) = (   0.0313229   0.0180843   0.0000000), wk =   0.0555556
        k(   26) = (   0.0313229   0.0542529   0.0000000), wk =   0.0555556
        k(   27) = (   0.0313229   0.0904216   0.0000000), wk =   0.0555556
        k(   28) = (   0.0313229  -0.0904216   0.0000000), wk =   0.0555556
        k(   29) = (   0.0313229  -0.0542529   0.0000000), wk =   0.0555556
        k(   30) = (   0.0313229  -0.0180843   0.0000000), wk =   0.0555556
        k(   31) = (   0.0626459   0.0361686   0.0000000), wk =   0.0555556
        k(   32) = (   0.0626459   0.0723373   0.0000000), wk =   0.0555556
        k(   33) = (   0.0626459   0.1085059   0.0000000), wk =   0.0555556
        k(   34) = (   0.0626459  -0.0723373   0.0000000), wk =   0.0555556
        k(   35) = (   0.0626459  -0.0361686   0.0000000), wk =   0.0555556
        k(   36) = (   0.0626459   0.0000000   0.0000000), wk =   0.0555556
        k(   37) = (  -0.0939688  -0.0542529   0.0000000), wk =   0.0277778
        k(   38) = (  -0.0939688  -0.0180843   0.0000000), wk =   0.0555556
        k(   39) = (  -0.0939688   0.0180843   0.0000000), wk =   0.0555556
        k(   40) = (  -0.0939688  -0.1627588   0.0000000), wk =   0.0277778

     Largest allocated arrays     est. size (Mb)     dimensions
     Largest temporary arrays     est. size (Mb)     dimensions

     Check: negative/imaginary core charge=   -0.000001    0.000000

     Initial potential from superposition of free atoms
     Check: negative starting charge=(component1):   -0.372063
     Check: negative starting charge=(component2):   -0.289386

     starting charge  182.99986, renormalised to  198.00000

     negative rho (up, down):  4.026E-01 3.131E-01

     *
     * You are using vdW-DF for exchange-correlation in this calculation.
     * Please cite the following three references that made this development
     * possible:
     *
     *   M. Dion, H. Rydberg, E. Schroder, D. C. Langreth, and
     *   B. I. Lundqvist, Phys. Rev. Lett. 92, 246401 (2004).
     *
     *   T. Thonhauser, V. R. Cooper, S. Li, A. Puzder, P. Hyldgaard, and
     *   D. C. Langreth, Phys. Rev. B 76, 125112 (2007).
     *
     *   G. Roman-Perez and J. M. Soler, Phys. Rev. Lett. 103, 096102 (2009).
     *
     *
     * If you are using vdW-DF2, please also cite:
     *
     *   K. Lee, E. D. Murray, L. Kong, B. I. Lundqvist, and
     *   D. C. Langreth, Phys. Rev. B 82, 081101(R) (2010).
     *
     *
     * If you are calculating the stress with vdW-DF, please also cite:
     *
     *   R. Sabatini, E. Kucukbenli, B. Kolb, T. Thonhauser, and
     *   S. de Gironcoli, J. Phys.: Condens. Matter 24, 424209 (2012).
     *

     Carrying out vdW-DF run using the following parameters:

     Nqs =      20    Nr_points =    1024   r_max =   100.000
     q_mesh =
               0.00001000     0.04494208     0.09755937     0.15916263
               0.23128650     0.31572767     0.41458969     0.53033537
               0.66584808     0.82450364     1.01025438     1.22772762
               1.48234092     1.78043706     2.12944203     2.53805004
               3.01644009     3.57652955     4.23227104     5.00000000

     Gradients computed in reciprocal space

     Adding external electric field

     Computed dipole along edir(3) :
        Dipole                0.0000 Ry au,          0.0000 Debye
        Dipole field          0.0000 Ry au

        Potential amp.       -0.0000 Ry
        Total length         44.8543 bohr

[...]

     Starting wfc are  156 randomized atomic wfcs

     Self-consistent Calculation

     iteration #  1     ecut=    36.75 Ry     beta=0.10
     Davidson diagonalization with overlap
     ethr =  1.00E-02,  avg # of iterations =  7.7

[...]

     Magnetic moment per site:
     atom:    1    charge:    3.0136    magn:    0.3532    constr:    0.0000
     atom:    2    charge:    3.0136    magn:    0.3532    constr:    0.0000
     atom:    3    charge:    3.0136    magn:    0.3532    constr:    0.0000
     atom:    4    charge:    9.6179    magn:    1.0162    constr:    0.0000
     atom:    5    charge:    3.0182    magn:    0.3530    constr:    0.0000
     atom:    6    charge:    3.0182    magn:    0.3529    constr:    0.0000
     atom:    7    charge:    3.0182    magn:    0.3529    constr:    0.0000
     atom:    8    charge:    9.6245    magn:    1.0171    constr:    0.0000
[...]
        k(    3) = (   0.0000000   0.0723373   0.0000000), wk =   0.0555556
        k(    4) = (   0.0000000  -0.1085059   0.0000000), wk =   0.0277778
        k(    5) = (   0.0313229   0.0180843   0.0000000), wk =   0.0555556
        k(    6) = (   0.0313229   0.0542529   0.0000000), wk =   0.0555556
        k(    7) = (   0.0313229   0.0904216   0.0000000), wk =   0.0555556
        k(    8) = (   0.0313229  -0.0904216   0.0000000), wk =   0.0555556
        k(    9) = (   0.0313229  -0.0542529   0.0000000), wk =   0.0555556
        k(   10) = (   0.0313229  -0.0180843   0.0000000), wk =   0.0555556
        k(   11) = (   0.0626459   0.0361686   0.0000000), wk =   0.0555556
        k(   12) = (   0.0626459   0.0723373   0.0000000), wk =   0.0555556
        k(   13) = (   0.0626459   0.1085059   0.0000000), wk =   0.0555556
        k(   14) = (   0.0626459  -0.0723373   0.0000000), wk =   0.0555556
        k(   15) = (   0.0626459  -0.0361686   0.0000000), wk =   0.0555556
        k(   16) = (   0.0626459   0.0000000   0.0000000), wk =   0.0555556
        k(   17) = (  -0.0939688  -0.0542529   0.0000000), wk =   0.0277778
        k(   18) = (  -0.0939688  -0.0180843   0.0000000), wk =   0.0555556
        k(   19) = (  -0.0939688   0.0180843   0.0000000), wk =   0.0555556
        k(   20) = (  -0.0939688  -0.1627588   0.0000000), wk =   0.0277778
        k(   21) = (   0.0000000   0.0000000   0.0000000), wk =   0.0277778
        k(   22) = (   0.0000000   0.0361686   0.0000000), wk =   0.0555556
        k(   23) = (   0.0000000   0.0723373   0.0000000), wk =   0.0555556
        k(   24) = (   0.0000000  -0.1085059   0.0000000), wk =   0.0277778
        k(   25) = (   0.0313229   0.0180843   0.0000000), wk =   0.0555556
        k(   26) = (   0.0313229   0.0542529   0.0000000), wk =   0.0555556
        k(   27) = (   0.0313229   0.0904216   0.0000000), wk =   0.0555556
        k(   28) = (   0.0313229  -0.0904216   0.0000000), wk =   0.0555556
        k(   29) = (   0.0313229  -0.0542529   0.0000000), wk =   0.0555556
        k(   30) = (   0.0313229  -0.0180843   0.0000000), wk =   0.0555556
        k(   31) = (   0.0626459   0.0361686   0.0000000), wk =   0.0555556
        k(   32) = (   0.0626459   0.0723373   0.0000000), wk =   0.0555556
        k(   33) = (   0.0626459   0.1085059   0.0000000), wk =   0.0555556
        k(   34) = (   0.0626459  -0.0723373   0.0000000), wk =   0.0555556
        k(   35) = (   0.0626459  -0.0361686   0.0000000), wk =   0.0555556
        k(   36) = (   0.0626459   0.0000000   0.0000000), wk =   0.0555556
        k(   37) = (  -0.0939688  -0.0542529   0.0000000), wk =   0.0277778
        k(   38) = (  -0.0939688  -0.0180843   0.0000000), wk =   0.0555556
        k(   39) = (  -0.0939688   0.0180843   0.0000000), wk =   0.0555556
        k(   40) = (  -0.0939688  -0.1627588   0.0000000), wk =   0.0277778

     Largest allocated arrays     est. size (Mb)     dimensions
     Largest temporary arrays     est. size (Mb)     dimensions

     Initial potential from superposition of free atoms
     Check: negative starting charge=(component1):   -0.371129
     Check: negative starting charge=(component2):   -0.288659

     starting charge  182.99986, renormalised to  198.00000

[...]

     *
     * You are using vdW-DF for exchange-correlation in this calculation.
     * Please cite the following three references that made this development
     * possible:
     *
     *   M. Dion, H. Rydberg, E. Schroder, D. C. Langreth, and
     *   B. I. Lundqvist, Phys. Rev. Lett. 92, 246401 (2004).
     *
     *   T. Thonhauser, V. R. Cooper, S. Li, A. Puzder, P. Hyldgaard, and
     *   D. C. Langreth, Phys. Rev. B 76, 125112 (2007).
     *
     *   G. Roman-Perez and J. M. Soler, Phys. Rev. Lett. 103, 096102 (2009).
     *
     *
     * If you are using vdW-DF2, please also cite:
     *
     *   K. Lee, E. D. Murray, L. Kong, B. I. Lundqvist, and
     *   D. C. Langreth, Phys. Rev. B 82, 081101(R) (2010).
     *
     *
     * If you are calculating the stress with vdW-DF, please also cite:
     *
     *   R. Sabatini, E. Kucukbenli, B. Kolb, T. Thonhauser, and
     *   S. de Gironcoli, J. Phys.: Condens. Matter 24, 424209 (2012).
     *

     Carrying out vdW-DF run using the following parameters:

     Nqs =      20    Nr_points =    1024   r_max =   100.000
     q_mesh =
               0.00001000     0.04494208     0.09755937     0.15916263
               0.23128650     0.31572767     0.41458969     0.53033537
               0.66584808     0.82450364     1.01025438     1.22772762
               1.48234092     1.78043706     2.12944203     2.53805004
               3.01644009     3.57652955     4.23227104     5.00000000

     Gradients computed in reciprocal space

[...]

     Starting wfc are  156 randomized atomic wfcs

     Self-consistent Calculation

[...]

     total energy              =   -2789.11518979 Ry
     Harris-Foulkes estimate   =   -2789.11518889 Ry
     estimated scf accuracy    <       0.00000118 Ry

[...]

     iteration # 37     ecut=    36.75 Ry     beta=0.10
     Davidson diagonalization with overlap
     ethr =  5.95E-10,  avg # of iterations =  2.0

[...]

     negative rho (up, down):  3.430E-01 3.430E-01

[...]

     Adding external electric field

     Computed dipole along edir(3) :
        Dipole                0.0159 Ry au,          0.0403 Debye
        Dipole field          0.0000 Ry au

        Potential amp.       -0.0044 Ry
        Total length         44.8543 bohr

     Magnetic moment per site:
     atom:    1    charge:    2.8409    magn:   -0.0004    constr:    0.0000
     atom:    2    charge:    2.8410    magn:   -0.0004    constr:    0.0000
     atom:    3    charge:    2.8410    magn:   -0.0004    constr:    0.0000
     atom:    4    charge:    9.3393    magn:    0.0024    constr:    0.0000
     atom:    5    charge:    2.8465    magn:    0.0002    constr:    0.0000
     atom:    6    charge:    2.8465    magn:    0.0002    constr:    0.0000
     atom:    7    charge:    2.8465    magn:    0.0002    constr:    0.0000
     atom:    8    charge:    9.3391    magn:   -0.0010    constr:    0.0000
     atom:    9    charge:    2.8467    magn:   -0.0005    constr:    0.0000
     atom:   10    charge:    2.8468    magn:   -0.0005    constr:    0.0000
     atom:   11    charge:    2.8468    magn:   -0.0005    constr:    0.0000
     atom:   12    charge:    9.3463    magn:   -0.0007    constr:    0.0000

     End of self-consistent calculation

 ------ SPIN UP ------------

[...]

 ------ SPIN DOWN ----------

[...]

          k = 0.0626 0.0000 0.0000 ( 15158 PWs)   bands (ev):

[...]

          k =-0.0940-0.1628 0.0000 ( 15150 PWs)   bands (ev):

  -101.7007-101.4927-101.3386 -71.3937 -71.3609 -71.3275 -70.9352 -70.9004
   -70.8705 -70.8641 -70.8329 -70.8015 -62.0819 -62.0814 -62.0556 -61.9120
   -61.9115 -61.7789 -61.7776 -61.7771 -61.5854 -41.6536 -41.5217 -41.4803
   -41.4307 -41.3603 -41.3315 -41.2945 -41.2850 -41.1853 -41.1167 -41.0154
   -40.9405 -40.8784 -40.8632 -40.8517 -40.8262 -40.8070 -40.7775 -40.7759
   -40.7477 -40.7457 -40.7097 -40.6984 -40.6596 -40.6567 -40.6034 -40.5450
    -3.6560  -3.6222  -3.1443  -2.8672  -2.7087  -2.5081  -2.4831  -2.2978
    -2.2644  -2.1839  -2.1018  -1.9291  -1.8282  -1.7251  -1.6110  -1.4938
    -1.3315  -1.3051  -1.2304  -1.0622  -0.8329  -0.6933  -0.5157  -0.4854
    -0.2451  -0.2153  -0.1791  -0.1161  -0.0674  -0.0207   0.0728   0.0746
     0.1045   0.1254   0.1535   0.1570   0.1720   0.2414   0.2603   0.2807
     0.5615   0.7636   0.8540   0.8829   1.0078   1.0875   1.2257   1.2617
     1.3041   1.4249   1.4348   1.7298   1.8055   1.9614   2.0542   2.1147
     2.1662   2.3158   2.4265   2.4280   2.4466   2.8914   3.2172   3.7526
     4.3609   4.6087   4.7254   5.7547   6.1292   6.5849   6.5982   6.8953
     7.9426   8.0755   8.0970   8.1534   8.6623   8.7142   8.8166   8.8241
     9.9039

     the Fermi energy is     1.9349 ev

!    total energy              =   -2789.11519234 Ry
     Harris-Foulkes estimate   =   -2789.11519030 Ry
     estimated scf accuracy    <       0.00000071 Ry

     The total energy is the sum of the following terms:

     one-electron contribution =  -25019.29360060 Ry
     hartree contribution      =   12511.50131073 Ry
     xc contribution           =    -351.71712866 Ry
     ewald contribution        =   10070.49260222 Ry
     electric field correction =       0.00000079 Ry
     smearing contrib. (-TS)   =      -0.09837681 Ry

     total magnetization       =    -0.01 Bohr mag/cell
     absolute magnetization    =     0.03 Bohr mag/cell

     convergence has been achieved in  37 iterations

 BEEF-vdW xc energy contributions
           1 :   -306.626399994592
           2 :    280.476621799655
           3 :   -235.592421184142
           4 :    183.680390385579
           5 :   -136.267322811136
           6 :    100.920109250474
           7 :   -79.5806218923802
           8 :    69.3323855840974
           9 :   -64.8476221852185
          10 :    61.1485694133093
          11 :   -55.4535814651827
          12 :    47.5479706025350
          13 :   -38.9327006545815
          14 :    31.4875204180159
          15 :   -26.4047028793370
          16 :    23.7848705069064
          17 :   -22.8585774910262
          18 :    22.5189306532127
          19 :   -21.8337677687261
          20 :    20.3338626879952
          21 :   -18.0500070071782
          22 :    15.3743544200614
          23 :   -12.8516865481761
          24 :    10.9682194307700
          25 :   -9.98016646516351
          26 :    9.81427427711805
          27 :   -10.0847275420484
          28 :    10.2427987992190
          29 :   -9.82031211389835
          30 :    8.65756752009850
          31 :   -29.7587705391143
          32 :   -22.1066782893237

     Forces acting on atoms (Ry/au):

     negative rho (up, down):  3.430E-01 3.430E-01
     atom    1 type  1   force =     0.00000028   -0.01197077    0.01217320
     atom    2 type  1   force =    -0.01036732    0.00598535    0.01217349
     atom    3 type  1   force =     0.01036644    0.00598453    0.01217258
     atom    4 type  2   force =     0.00000338    0.00000008    0.02317525
     atom    5 type  1   force =     0.00000009    0.00118762   -0.01875550
     atom    6 type  1   force =     0.00102848   -0.00059401   -0.01875462
     atom    7 type  1   force =    -0.00103144   -0.00059579   -0.01875477
     atom    8 type  2   force =     0.00000195   -0.00000005   -0.00767305
     atom    9 type  1   force =    -0.00000069   -0.00028239    0.00120205
     atom   10 type  1   force =    -0.00024501    0.00014017    0.00120081
     atom   11 type  1   force =     0.00024436    0.00014060    0.00120141
     atom   12 type  2   force =    -0.00000053    0.00000466    0.00063915

     Total force =     0.050347     Total SCF correction =     0.002748

     entering subroutine stress ...

     negative rho (up, down):  3.430E-01 3.430E-01
          total   stress  (Ry/bohr**3)                   (kbar)     P=  -34.70
  -0.00027423  -0.00000000   0.00000000        -40.34     -0.00      0.00
  -0.00000000  -0.00027422   0.00000000         -0.00    -40.34      0.00
   0.00000000   0.00000000  -0.00015925          0.00      0.00    -23.43

 !ASE

     Writing output data file calc.save

     General routines

     Parallel routines

   This run was terminated on:   5:46:16   1Jan2019

   JOB DONE.
Job  /afs/slac/g/suncat/bin/suncat-tsmpirun -x LD_LIBRARY_PATH -wdir /scratch/qe648936_Ec1le pw.x -in pw.inp

TID   HOST_NAME   COMMAND_LINE            STATUS            TERMINATION_TIME
00000 suncat0251 pw.x -in pw.inp   Done                     01/01/2019 05:46:16
00001 suncat0251 pw.x -in pw.inp   Done                     01/01/2019 05:46:16
00002 suncat0251 pw.x -in pw.inp   Done                     01/01/2019 05:46:16
00003 suncat0251 pw.x -in pw.inp   Done                     01/01/2019 05:46:16
00004 suncat0251 pw.x -in pw.inp   Done                     01/01/2019 05:46:16
00005 suncat0251 pw.x -in pw.inp   Done                     01/01/2019 05:46:16
00006 suncat0251 pw.x -in pw.inp   Done                     01/01/2019 05:46:16
00007 suncat0251 pw.x -in pw.inp   Done                     01/01/2019 05:46:16
00008 suncat0244 pw.x -in pw.inp   Done                     01/01/2019 05:46:16
00009 suncat0244 pw.x -in pw.inp   Done                     01/01/2019 05:46:16
00010 suncat0244 pw.x -in pw.inp   Done                     01/01/2019 05:46:16
00011 suncat0244 pw.x -in pw.inp   Done                     01/01/2019 05:46:16
00012 suncat0244 pw.x -in pw.inp   Done                     01/01/2019 05:46:16
00013 suncat0244 pw.x -in pw.inp   Done                     01/01/2019 05:46:16
00014 suncat0244 pw.x -in pw.inp   Done                     01/01/2019 05:46:16
00015 suncat0244 pw.x -in pw.inp   Done                     01/01/2019 05:46:16
00016 suncat0243 pw.x -in pw.inp   Done                     01/01/2019 05:46:16
00017 suncat0243 pw.x -in pw.inp   Done                     01/01/2019 05:46:16
00018 suncat0243 pw.x -in pw.inp   Done                     01/01/2019 05:46:16
00019 suncat0243 pw.x -in pw.inp   Done                     01/01/2019 05:46:16
00020 suncat0243 pw.x -in pw.inp   Done                     01/01/2019 05:46:16
00021 suncat0243 pw.x -in pw.inp   Done                     01/01/2019 05:46:16
00022 suncat0243 pw.x -in pw.inp   Done                     01/01/2019 05:46:16
00023 suncat0243 pw.x -in pw.inp   Done                     01/01/2019 05:46:16
00024 suncat0242 pw.x -in pw.inp   Done                     01/01/2019 05:46:16
00025 suncat0242 pw.x -in pw.inp   Done                     01/01/2019 05:46:16
00026 suncat0242 pw.x -in pw.inp   Done                     01/01/2019 05:46:16
00027 suncat0242 pw.x -in pw.inp   Done                     01/01/2019 05:46:16
00028 suncat0242 pw.x -in pw.inp   Done                     01/01/2019 05:46:16
00029 suncat0242 pw.x -in pw.inp   Done                     01/01/2019 05:46:16
00030 suncat0242 pw.x -in pw.inp   Done                     01/01/2019 05:46:16
00031 suncat0242 pw.x -in pw.inp   Done                     01/01/2019 05:46:16
00032 suncat0209 pw.x -in pw.inp   Done                     01/01/2019 05:46:16
00033 suncat0209 pw.x -in pw.inp   Done                     01/01/2019 05:46:16
00034 suncat0209 pw.x -in pw.inp   Done                     01/01/2019 05:46:16
00035 suncat0209 pw.x -in pw.inp   Done                     01/01/2019 05:46:16
00036 suncat0209 pw.x -in pw.inp   Done                     01/01/2019 05:46:16
00037 suncat0209 pw.x -in pw.inp   Done                     01/01/2019 05:46:16
00038 suncat0209 pw.x -in pw.inp   Done                     01/01/2019 05:46:16
00039 suncat0209 pw.x -in pw.inp   Done                     01/01/2019 05:46:16
00040 suncat0205 pw.x -in pw.inp   Done                     01/01/2019 05:46:16
00041 suncat0205 pw.x -in pw.inp   Done                     01/01/2019 05:46:16
00042 suncat0205 pw.x -in pw.inp   Done                     01/01/2019 05:46:16
00043 suncat0205 pw.x -in pw.inp   Done                     01/01/2019 05:46:16
00044 suncat0205 pw.x -in pw.inp   Done                     01/01/2019 05:46:16
00045 suncat0205 pw.x -in pw.inp   Done                     01/01/2019 05:46:16
00046 suncat0205 pw.x -in pw.inp   Done                     01/01/2019 05:46:16
00047 suncat0205 pw.x -in pw.inp   Done                     01/01/2019 05:46:16
00048 suncat0204 pw.x -in pw.inp   Done                     01/01/2019 05:46:16
00049 suncat0204 pw.x -in pw.inp   Done                     01/01/2019 05:46:16
00050 suncat0204 pw.x -in pw.inp   Done                     01/01/2019 05:46:16
00051 suncat0204 pw.x -in pw.inp   Done                     01/01/2019 05:46:16
00052 suncat0204 pw.x -in pw.inp   Done                     01/01/2019 05:46:16
00053 suncat0204 pw.x -in pw.inp   Done                     01/01/2019 05:46:16
00054 suncat0204 pw.x -in pw.inp   Done                     01/01/2019 05:46:16
00055 suncat0204 pw.x -in pw.inp   Done                     01/01/2019 05:46:16
00056 suncat0203 pw.x -in pw.inp   Done                     01/01/2019 05:46:16
00057 suncat0203 pw.x -in pw.inp   Done                     01/01/2019 05:46:16
00058 suncat0203 pw.x -in pw.inp   Done                     01/01/2019 05:46:16
00059 suncat0203 pw.x -in pw.inp   Done                     01/01/2019 05:46:16
00060 suncat0203 pw.x -in pw.inp   Done                     01/01/2019 05:46:16
00061 suncat0203 pw.x -in pw.inp   Done                     01/01/2019 05:46:16
00062 suncat0203 pw.x -in pw.inp   Done                     01/01/2019 05:46:16
00063 suncat0203 pw.x -in pw.inp   Done                     01/01/2019 05:46:16