     Program PWSCF v.5.1rc2 (svn rev. 11289) starts on 26Dec2018 at 10:34:58

     Current dimensions of program PWSCF are:
     Max number of different atomic species (ntypx) = 10
     Max number of k-points (npk) =  40000
     Max angular momentum in pseudopotentials (lmaxx) =  3
     Presently stress not available with electric field

     IMPORTANT: XC functional enforced from input :
     Exchange-correlation      = BEEF-VDW ( 1  4 27 13 2)
     Any further DFT definition will be discarded
     Please, verify this is what you really want

     Subspace diagonalization in iterative solution of the eigenvalue problem:
     a serial algorithm will be used

     bravais-lattice index     =            0
     lattice parameter (alat)  =       1.8897  a.u.
     unit-cell volume          =    5445.8790 (a.u.)^3
     number of atoms/cell      =           12
     number of atomic types    =            2
     number of electrons       =       153.00
     number of Kohn-Sham states=          106
     kinetic-energy cutoff     =      36.7493  Ry
     charge density cutoff     =     367.4932  Ry
     convergence threshold     =      1.0E-06
     mixing beta               =       0.1000
     number of iterations used =           10  plain     mixing
     Exchange-correlation      = BEEF-VDW ( 1  4 27 13 2)
     nstep                     =           50

     celldm(1)=   1.889726  celldm(2)=   0.000000  celldm(3)=   0.000000
     celldm(4)=   0.000000  celldm(5)=   0.000000  celldm(6)=   0.000000

     crystal axes: (cart. coord. in units of alat)
               a(1) = (   6.106886   0.000000   0.000000 )
               a(2) = (  -3.053443   5.288719   0.000000 )
               a(3) = (   0.000000   0.000000  24.986252 )

     reciprocal axes: (cart. coord. in units 2 pi/alat)
               b(1) = (  0.163750  0.094541  0.000000 )
               b(2) = (  0.000000  0.189082  0.000000 )
               b(3) = (  0.000000  0.000000  0.040022 )

     PseudoPot. # 1 for Hg read from file:
     /afs/slac.stanford.edu/u/if/mamunm/psp/gbrv1.5pbe/Hg.UPF
     MD5 check sum: 8f42caffe07f7fd9c0a564347f8c5498
     Pseudo is Ultrasoft + core correction, Zval = 12.0
     Generated by new atomic code, or converted to UPF format
     Using radial grid of  985 points,  6 beta functions with:
                l(1) =   0
                l(2) =   0
                l(3) =   1
                l(4) =   1
                l(5) =   2
                l(6) =   2
     Q(r) pseudized with  8 coefficients,  rinner =    2.000   2.000   2.000
                                                       2.000   2.000

     PseudoPot. # 2 for Tc read from file:
     /afs/slac.stanford.edu/u/if/mamunm/psp/gbrv1.5pbe/Tc.UPF
     MD5 check sum: 9eb49e5b028550b2339a02317eb7b844
     Pseudo is Ultrasoft + core correction, Zval = 15.0
     Generated by new atomic code, or converted to UPF format
     Using radial grid of  965 points,  6 beta functions with:
                l(1) =   0
                l(2) =   0
                l(3) =   1
                l(4) =   1
                l(5) =   2
                l(6) =   2
     Q(r) pseudized with  8 coefficients,  rinner =    1.300   1.300   1.300
                                                       1.300   1.300

     vdW kernel table read from file vdW_kernel_table
     MD5 check sum: 095c7af220d748ca6e76c0b4c6cfb241

     atomic species   valence    mass     pseudopotential
        Hg1           12.00   200.59200     Hg( 1.00)
        Tc1           15.00    97.90721     Tc( 1.00)

     No symmetry found

   Cartesian axes

     site n.     atom                  positions (alat units)
         1           Hg1 tau(   1) = (   0.0000000   0.0000000  10.0000000  )
         2           Hg1 tau(   2) = (  -1.5267215   2.6443593  10.0000000  )
         3           Hg1 tau(   3) = (   1.5267215   2.6443593  10.0000000  )
         4           Tc1 tau(   4) = (   3.0534431   0.0000000  10.0000000  )
         5           Hg1 tau(   5) = (   3.0534431   1.7629062  12.4931258  )
         6           Hg1 tau(   6) = (   1.5267215   4.4072654  12.4931258  )
         7           Hg1 tau(   7) = (  -1.5267215   4.4072654  12.4931258  )
         8           Tc1 tau(   8) = (   0.0000000   1.7629062  12.4931258  )
         9           Hg1 tau(   9) = (  -0.0000000   3.5258124  14.9862517  )
        10           Hg1 tau(  10) = (   1.5267215   0.8814531  14.9862517  )
        11           Hg1 tau(  11) = (   4.5801646   0.8814531  14.9862517  )
        12           Tc1 tau(  12) = (   3.0534431   3.5258124  14.9862517  )

     number of k points=    20  Fermi-Dirac smearing, width (Ry)=  0.0110
                       cart. coord. in units 2pi/alat
        k(    1) = (   0.0000000   0.0000000   0.0000000), wk =   0.0555556
        k(    2) = (   0.0000000   0.0315136   0.0000000), wk =   0.1111111
        k(    3) = (   0.0000000   0.0630272   0.0000000), wk =   0.1111111
        k(    4) = (   0.0000000  -0.0945409   0.0000000), wk =   0.0555556
        k(    5) = (   0.0272916   0.0157568   0.0000000), wk =   0.1111111
        k(    6) = (   0.0272916   0.0472704   0.0000000), wk =   0.1111111
        k(    7) = (   0.0272916   0.0787841   0.0000000), wk =   0.1111111
        k(    8) = (   0.0272916  -0.0787841   0.0000000), wk =   0.1111111
        k(    9) = (   0.0272916  -0.0472704   0.0000000), wk =   0.1111111
        k(   10) = (   0.0272916  -0.0157568   0.0000000), wk =   0.1111111
        k(   11) = (   0.0545832   0.0315136   0.0000000), wk =   0.1111111
        k(   12) = (   0.0545832   0.0630272   0.0000000), wk =   0.1111111
        k(   13) = (   0.0545832   0.0945409   0.0000000), wk =   0.1111111
        k(   14) = (   0.0545832  -0.0630272   0.0000000), wk =   0.1111111
        k(   15) = (   0.0545832  -0.0315136   0.0000000), wk =   0.1111111
        k(   16) = (   0.0545832   0.0000000   0.0000000), wk =   0.1111111
        k(   17) = (  -0.0818748  -0.0472704   0.0000000), wk =   0.0555556
        k(   18) = (  -0.0818748  -0.0157568   0.0000000), wk =   0.1111111
        k(   19) = (  -0.0818748   0.0157568   0.0000000), wk =   0.1111111
        k(   20) = (  -0.0818748  -0.1418113   0.0000000), wk =   0.0555556

     Largest allocated arrays     est. size (Mb)     dimensions
     Largest temporary arrays     est. size (Mb)     dimensions

     Check: negative/imaginary core charge=   -0.000006    0.000000

     Initial potential from superposition of free atoms
     Check: negative starting charge=   -0.387937

     starting charge  149.99939, renormalised to  153.00000

     negative rho (up, down):  3.957E-01 0.000E+00

     *
     * You are using vdW-DF for exchange-correlation in this calculation.
     * Please cite the following three references that made this development
     * possible:
     *
     *   M. Dion, H. Rydberg, E. Schroder, D. C. Langreth, and
     *   B. I. Lundqvist, Phys. Rev. Lett. 92, 246401 (2004).
     *
     *   T. Thonhauser, V. R. Cooper, S. Li, A. Puzder, P. Hyldgaard, and
     *   D. C. Langreth, Phys. Rev. B 76, 125112 (2007).
     *
     *   G. Roman-Perez and J. M. Soler, Phys. Rev. Lett. 103, 096102 (2009).
     *
     *
     * If you are using vdW-DF2, please also cite:
     *
     *   K. Lee, E. D. Murray, L. Kong, B. I. Lundqvist, and
     *   D. C. Langreth, Phys. Rev. B 82, 081101(R) (2010).
     *
     *
     * If you are calculating the stress with vdW-DF, please also cite:
     *
     *   R. Sabatini, E. Kucukbenli, B. Kolb, T. Thonhauser, and
     *   S. de Gironcoli, J. Phys.: Condens. Matter 24, 424209 (2012).
     *

     Carrying out vdW-DF run using the following parameters:

     Nqs =      20    Nr_points =    1024   r_max =   100.000
     q_mesh =
               0.00001000     0.04494208     0.09755937     0.15916263
               0.23128650     0.31572767     0.41458969     0.53033537
               0.66584808     0.82450364     1.01025438     1.22772762
               1.48234092     1.78043706     2.12944203     2.53805004
               3.01644009     3.57652955     4.23227104     5.00000000

     Gradients computed in reciprocal space

     Adding external electric field

     Computed dipole along edir(3) :
        Dipole                0.0000 Ry au,          0.0000 Debye
        Dipole field          0.0000 Ry au

        Potential amp.       -0.0000 Ry
        Total length         46.0367 bohr

     Starting wfc are  120 randomized atomic wfcs

     Self-consistent Calculation

     iteration #  1     ecut=    36.75 Ry     beta=0.10
     Davidson diagonalization with overlap
     ethr =  1.00E-02,  avg # of iterations =  8.3

[...]

     total energy              =   -1506.95075046 Ry
     Harris-Foulkes estimate   =   -1508.18235909 Ry
     estimated scf accuracy    <       6.92319765 Ry

[...]

     End of self-consistent calculation

          k = 0.0000 0.0000 0.0000 ( 20479 PWs)   bands (ev):

   -65.3870 -65.3628 -65.3628 -37.4450 -37.4446 -37.4425 -37.4425 -37.4332
   -37.3691 -37.3691 -37.3689 -37.3689  -8.0899  -7.4812  -7.3552  -7.3499
    -7.3499  -7.2794  -7.2282  -7.1076  -7.1076  -7.0538  -6.9430  -6.9430
    -6.8103  -6.8103  -6.5819  -6.5425  -6.4913  -6.4913  -6.3279  -6.1859
    -6.1859  -6.1378  -6.0556  -6.0345  -6.0345  -5.9544  -5.9544  -5.7263
    -5.7263  -5.6451  -5.6451  -5.5553  -5.5385  -5.5385  -5.4623  -5.4623
    -5.4538  -5.4538  -5.4218  -5.2216  -5.2216  -5.1302  -5.0569  -4.9986
    -4.9986  -4.7489  -4.7367  -3.0417  -1.5773  -1.5773  -1.2037  -1.2037
    -0.7985  -0.4948  -0.4948  -0.2342   0.2503   0.2503   0.2988   0.8012
     0.8012   0.8768   1.0149   1.0149   1.0273   1.2140   1.2140   1.9006
     1.9006   1.9247   1.9247   2.0044   2.1025   2.9160   2.9160   3.3287
     3.3287   3.9203   4.0655   4.0655   4.6224   4.6628   5.1420   5.2785
     5.7272   6.0889   6.5015   7.4137   7.4137   7.6400   7.6400   7.8610
     8.0071   8.3290

[...]

          k =-0.0819-0.0473 0.0000 ( 20508 PWs)   bands (ev):

[...]

     the Fermi energy is     1.0270 ev

!    total energy              =   -1507.18038052 Ry
     Harris-Foulkes estimate   =   -1507.18037703 Ry
     estimated scf accuracy    <       0.00000052 Ry

     The total energy is the sum of the following terms:

     one-electron contribution =  -10346.82718803 Ry
     hartree contribution      =    5242.00325618 Ry
     xc contribution           =    -463.27291774 Ry
     ewald contribution        =    4060.99107643 Ry
     electric field correction =       0.00000000 Ry
     smearing contrib. (-TS)   =      -0.07460738 Ry

     convergence has been achieved in  16 iterations

 BEEF-vdW xc energy contributions
           1 :   -405.942787379221
           2 :    373.575607679131
           3 :   -316.941527660542
           4 :    248.955905209438
           5 :   -182.838739424756
           6 :    128.147220301222
           7 :   -88.8049320133087
           8 :    63.4235209319867
           9 :   -47.4146405444897
          10 :    35.7110070210833
          11 :   -24.9326402129158
          12 :    14.2068773328115
          13 :   -4.62378116372673
          14 :   -2.11453012549481
          15 :    4.99990008966546
[...]

     PseudoPot. # 1 for Hg read from file:
     /afs/slac.stanford.edu/u/if/mamunm/psp/gbrv1.5pbe/Hg.UPF
     MD5 check sum: 8f42caffe07f7fd9c0a564347f8c5498
     Pseudo is Ultrasoft + core correction, Zval = 12.0
     Generated by new atomic code, or converted to UPF format
     Using radial grid of  985 points,  6 beta functions with:
                l(1) =   0
                l(2) =   0
                l(3) =   1
                l(4) =   1
                l(5) =   2
                l(6) =   2
     Q(r) pseudized with  8 coefficients,  rinner =    2.000   2.000   2.000
                                                       2.000   2.000

     PseudoPot. # 2 for Tc read from file:
     /afs/slac.stanford.edu/u/if/mamunm/psp/gbrv1.5pbe/Tc.UPF
     MD5 check sum: 9eb49e5b028550b2339a02317eb7b844
     Pseudo is Ultrasoft + core correction, Zval = 15.0
     Generated by new atomic code, or converted to UPF format
     Using radial grid of  965 points,  6 beta functions with:
                l(1) =   0
                l(2) =   0
                l(3) =   1
                l(4) =   1
                l(5) =   2
                l(6) =   2
     Q(r) pseudized with  8 coefficients,  rinner =    1.300   1.300   1.300
                                                       1.300   1.300

     vdW kernel table read from file vdW_kernel_table
     MD5 check sum: 095c7af220d748ca6e76c0b4c6cfb241

     atomic species   valence    mass     pseudopotential
        Hg1           12.00   200.59200     Hg( 1.00)
        Tc1           15.00    97.90721     Tc( 1.00)

     No symmetry found

   Cartesian axes

     site n.     atom                  positions (alat units)
         1           Hg1 tau(   1) = (   0.0000000   0.0000000  10.0000000  )
         2           Hg1 tau(   2) = (  -1.5267215   2.6443593  10.0000000  )
         3           Hg1 tau(   3) = (   1.5267215   2.6443593  10.0000000  )
         4           Tc1 tau(   4) = (   3.0534431   0.0000000  10.0000000  )
         5           Hg1 tau(   5) = (   3.0534431   1.7629062  12.4931258  )
         6           Hg1 tau(   6) = (   1.5267215   4.4072654  12.4931258  )
         7           Hg1 tau(   7) = (  -1.5267215   4.4072654  12.4931258  )
         8           Tc1 tau(   8) = (   0.0000000   1.7629062  12.4931258  )
         9           Hg1 tau(   9) = (   0.0000089   3.5220962  15.2483482  )
        10           Hg1 tau(  10) = (   1.5234910   0.8833176  15.2483395  )
        11           Hg1 tau(  11) = (   4.5833836   0.8832987  15.2483640  )
        12           Tc1 tau(  12) = (   3.0534401   3.5258127  14.6983219  )

     number of k points=    20  Fermi-Dirac smearing, width (Ry)=  0.0110
                       cart. coord. in units 2pi/alat
        k(    1) = (   0.0000000   0.0000000   0.0000000), wk =   0.0555556
        k(    2) = (   0.0000000   0.0315136   0.0000000), wk =   0.1111111
        k(    3) = (   0.0000000   0.0630272   0.0000000), wk =   0.1111111
        k(    4) = (   0.0000000  -0.0945409   0.0000000), wk =   0.0555556
        k(    5) = (   0.0272916   0.0157568   0.0000000), wk =   0.1111111
        k(    6) = (   0.0272916   0.0472704   0.0000000), wk =   0.1111111
        k(    7) = (   0.0272916   0.0787841   0.0000000), wk =   0.1111111
        k(    8) = (   0.0272916  -0.0787841   0.0000000), wk =   0.1111111
        k(    9) = (   0.0272916  -0.0472704   0.0000000), wk =   0.1111111
        k(   10) = (   0.0272916  -0.0157568   0.0000000), wk =   0.1111111
        k(   11) = (   0.0545832   0.0315136   0.0000000), wk =   0.1111111
        k(   12) = (   0.0545832   0.0630272   0.0000000), wk =   0.1111111
        k(   13) = (   0.0545832   0.0945409   0.0000000), wk =   0.1111111
        k(   14) = (   0.0545832  -0.0630272   0.0000000), wk =   0.1111111
        k(   15) = (   0.0545832  -0.0315136   0.0000000), wk =   0.1111111
        k(   16) = (   0.0545832   0.0000000   0.0000000), wk =   0.1111111
        k(   17) = (  -0.0818748  -0.0472704   0.0000000), wk =   0.0555556
        k(   18) = (  -0.0818748  -0.0157568   0.0000000), wk =   0.1111111
        k(   19) = (  -0.0818748   0.0157568   0.0000000), wk =   0.1111111
        k(   20) = (  -0.0818748  -0.1418113   0.0000000), wk =   0.0555556

     Largest allocated arrays     est. size (Mb)     dimensions
     Largest temporary arrays     est. size (Mb)     dimensions

     Check: negative/imaginary core charge=   -0.000006    0.000000

     Initial potential from superposition of free atoms
     Check: negative starting charge=   -0.385716

     starting charge  149.99939, renormalised to  153.00000

[...]

     *
     * You are using vdW-DF for exchange-correlation in this calculation.
     * Please cite the following three references that made this development
     * possible:
     *
     *   M. Dion, H. Rydberg, E. Schroder, D. C. Langreth, and
     *   B. I. Lundqvist, Phys. Rev. Lett. 92, 246401 (2004).
     *
     *   T. Thonhauser, V. R. Cooper, S. Li, A. Puzder, P. Hyldgaard, and
     *   D. C. Langreth, Phys. Rev. B 76, 125112 (2007).
     *
     *   G. Roman-Perez and J. M. Soler, Phys. Rev. Lett. 103, 096102 (2009).
     *
     *
     * If you are using vdW-DF2, please also cite:
     *
     *   K. Lee, E. D. Murray, L. Kong, B. I. Lundqvist, and
     *   D. C. Langreth, Phys. Rev. B 82, 081101(R) (2010).
     *
     *
     * If you are calculating the stress with vdW-DF, please also cite:
     *
     *   R. Sabatini, E. Kucukbenli, B. Kolb, T. Thonhauser, and
     *   S. de Gironcoli, J. Phys.: Condens. Matter 24, 424209 (2012).
     *

     Carrying out vdW-DF run using the following parameters:

     Nqs =      20    Nr_points =    1024   r_max =   100.000
     q_mesh =
               0.00001000     0.04494208     0.09755937     0.15916263
               0.23128650     0.31572767     0.41458969     0.53033537
               0.66584808     0.82450364     1.01025438     1.22772762
               1.48234092     1.78043706     2.12944203     2.53805004
               3.01644009     3.57652955     4.23227104     5.00000000

     Gradients computed in reciprocal space

[...]

     Starting wfc are  120 randomized atomic wfcs

     Self-consistent Calculation

[...]

     total energy              =   -1507.22952307 Ry
     Harris-Foulkes estimate   =   -1507.22952289 Ry
     estimated scf accuracy    <       0.00000128 Ry

     iteration # 18     ecut=    36.75 Ry     beta=0.10
     Davidson diagonalization with overlap
     ethr =  8.39E-10,  avg # of iterations =  2.0

[...]

     negative rho (up, down):  3.904E-01 0.000E+00

     Adding external electric field

     Computed dipole along edir(3) :
        Dipole               -0.0474 Ry au,         -0.1205 Debye
        Dipole field         -0.0001 Ry au

        Potential amp.        0.0101 Ry
        Total length         46.0367 bohr

     End of self-consistent calculation

[...]

          k = 0.0546 0.0000 0.0000 ( 20465 PWs)   bands (ev):

[...]

          k =-0.0819-0.1418 0.0000 ( 20508 PWs)   bands (ev):

   -65.4583 -65.4272 -65.3643 -37.5515 -37.4828 -37.4825 -37.4551 -37.4543
   -37.4504 -37.4287 -37.3796 -37.3792  -7.3061  -7.0637  -6.9763  -6.8364
    -6.7827  -6.7267  -6.6820  -6.6471  -6.6339  -6.5927  -6.5143  -6.4963
    -6.4957  -6.3272  -6.3257  -6.2463  -6.1952  -6.1810  -6.1322  -6.0702
    -6.0333  -6.0209  -5.9413  -5.9110  -5.8957  -5.8747  -5.8736  -5.8572
    -5.8281  -5.7993  -5.7548  -5.7486  -5.7343  -5.7174  -5.6786  -5.6623
    -5.6416  -5.5405  -5.5264  -5.4753  -5.4306  -5.3668  -5.3149  -5.2710
    -5.2356  -5.0564  -4.9408  -4.2148  -3.8474  -2.9507  -2.0736  -2.0530
    -1.1602  -1.0862  -0.5577  -0.1447  -0.0950   0.0481   0.2223   0.2801
     0.3321   0.3985   0.5720   0.7377   1.0050   1.1922   1.2840   1.5532
     2.0496   2.3255   2.3492   3.0362   3.1805   3.4849   4.6972   5.0227
     5.1197   5.2206   5.5670   5.8293   5.8409   5.9314   6.0656   6.1113
     6.1861   6.2803   6.5054   6.6962   7.2605   7.2794   7.3651   7.5115
     7.5270   7.6492

     the Fermi energy is     0.9917 ev

!    total energy              =   -1507.22952648 Ry
     Harris-Foulkes estimate   =   -1507.22952435 Ry
     estimated scf accuracy    <       0.00000073 Ry

     The total energy is the sum of the following terms:

     one-electron contribution =  -10185.57953410 Ry
     hartree contribution      =    5161.58715932 Ry
     xc contribution           =    -463.18984551 Ry
     ewald contribution        =    3980.02500614 Ry
     electric field correction =       0.00000518 Ry
     smearing contrib. (-TS)   =      -0.07231752 Ry

     convergence has been achieved in  18 iterations

 BEEF-vdW xc energy contributions
           1 :   -406.066709728797
           2 :    373.613199677394
           3 :   -316.879496995585
           4 :    248.870950431059
           5 :   -182.844873942287
           6 :    128.318011873283
           7 :   -89.1206150198080
           8 :    63.7764543580601
           9 :   -47.6719317415179
          10 :    35.8004912034254
          11 :   -24.8955903040778
          12 :    14.1785839470589
          13 :   -4.74957940201421
          14 :   -1.77279910925125
          15 :    4.50635533722465
          16 :   -3.87217917739520
          17 :    1.32933784280760
          18 :    1.39897796011257
          19 :   -3.11312039353265
          20 :    3.50995811598489
          21 :   -3.02207197950565
          22 :    2.29970859091600
          23 :   -1.69685832506389
          24 :    1.05638735155435
          25 :   0.112265691788764
          26 :   -2.22103052572112
          27 :    5.23054962036122
          28 :   -8.55325613681623
          29 :    11.2829431781549
          30 :   -12.6185504664803
          31 :   -37.9063338751038
          32 :   -27.8735219488251

     Forces acting on atoms (Ry/au):

     negative rho (up, down):  3.904E-01 0.000E+00
     atom    1 type  1   force =     0.00000055    0.00623585   -0.02747706
     atom    2 type  1   force =     0.00539903   -0.00311731   -0.02747770
     atom    3 type  1   force =    -0.00540028   -0.00311838   -0.02747698
     atom    4 type  2   force =    -0.00000016   -0.00000021    0.06483694
     atom    5 type  1   force =     0.00000007   -0.01891282    0.00413420
     atom    6 type  1   force =    -0.01637743    0.00945723    0.00413270
     atom    7 type  1   force =     0.01637777    0.00945708    0.00413388
     atom    8 type  2   force =    -0.00000045    0.00000026    0.00355862
     atom    9 type  1   force =    -0.00000203   -0.00074878    0.00037999
     atom   10 type  1   force =    -0.00064558    0.00037178    0.00038013
     atom   11 type  1   force =     0.00064693    0.00037619    0.00038012
     atom   12 type  2   force =     0.00000158   -0.00000089    0.00049516

     Total force =     0.087891     Total SCF correction =     0.003755

     entering subroutine stress ...

     negative rho (up, down):  3.904E-01 0.000E+00
          total   stress  (Ry/bohr**3)                   (kbar)     P=   -5.81
  -0.00006672  -0.00000000  -0.00000000         -9.82     -0.00     -0.00
  -0.00000000  -0.00006672  -0.00000000         -0.00     -9.82     -0.00
  -0.00000000  -0.00000000   0.00001497         -0.00     -0.00      2.20

 !ASE

     Writing output data file calc.save

     General routines

     Parallel routines

   This run was terminated on:  12:35: 6  26Dec2018

   JOB DONE.
Job  /afs/slac/g/suncat/bin/suncat-tsmpirun -x LD_LIBRARY_PATH -wdir /scratch/qe109837_wnM4g pw.x -in pw.inp

TID   HOST_NAME   COMMAND_LINE            STATUS            TERMINATION_TIME
00000 suncat0082 pw.x -in pw.inp   Done                     12/26/2018 12:35:06
00001 suncat0082 pw.x -in pw.inp   Done                     12/26/2018 12:35:06
00002 suncat0082 pw.x -in pw.inp   Done                     12/26/2018 12:35:06
00003 suncat0082 pw.x -in pw.inp   Done                     12/26/2018 12:35:06
00004 suncat0082 pw.x -in pw.inp   Done                     12/26/2018 12:35:06
00005 suncat0082 pw.x -in pw.inp   Done                     12/26/2018 12:35:06
00006 suncat0082 pw.x -in pw.inp   Done                     12/26/2018 12:35:06
00007 suncat0082 pw.x -in pw.inp   Done                     12/26/2018 12:35:06
00008 suncat0062 pw.x -in pw.inp   Done                     12/26/2018 12:35:06
00009 suncat0062 pw.x -in pw.inp   Done                     12/26/2018 12:35:06
00010 suncat0062 pw.x -in pw.inp   Done                     12/26/2018 12:35:06
00011 suncat0062 pw.x -in pw.inp   Done                     12/26/2018 12:35:06
00012 suncat0062 pw.x -in pw.inp   Done                     12/26/2018 12:35:06
00013 suncat0062 pw.x -in pw.inp   Done                     12/26/2018 12:35:06
00014 suncat0062 pw.x -in pw.inp   Done                     12/26/2018 12:35:06
00015 suncat0062 pw.x -in pw.inp   Done                     12/26/2018 12:35:06
00016 suncat0056 pw.x -in pw.inp   Done                     12/26/2018 12:35:06
00017 suncat0056 pw.x -in pw.inp   Done                     12/26/2018 12:35:06
00018 suncat0056 pw.x -in pw.inp   Done                     12/26/2018 12:35:06
00019 suncat0056 pw.x -in pw.inp   Done                     12/26/2018 12:35:06
00020 suncat0056 pw.x -in pw.inp   Done                     12/26/2018 12:35:06
00021 suncat0056 pw.x -in pw.inp   Done                     12/26/2018 12:35:06
00022 suncat0056 pw.x -in pw.inp   Done                     12/26/2018 12:35:06
00023 suncat0056 pw.x -in pw.inp   Done                     12/26/2018 12:35:06
00024 suncat0055 pw.x -in pw.inp   Done                     12/26/2018 12:35:06
00025 suncat0055 pw.x -in pw.inp   Done                     12/26/2018 12:35:06
00026 suncat0055 pw.x -in pw.inp   Done                     12/26/2018 12:35:06
00027 suncat0055 pw.x -in pw.inp   Done                     12/26/2018 12:35:06
00028 suncat0055 pw.x -in pw.inp   Done                     12/26/2018 12:35:06
00029 suncat0055 pw.x -in pw.inp   Done                     12/26/2018 12:35:06
00030 suncat0055 pw.x -in pw.inp   Done                     12/26/2018 12:35:06
00031 suncat0055 pw.x -in pw.inp   Done                     12/26/2018 12:35:06
00032 suncat0217 pw.x -in pw.inp   Done                     12/26/2018 12:35:06
00033 suncat0217 pw.x -in pw.inp   Done                     12/26/2018 12:35:06
00034 suncat0217 pw.x -in pw.inp   Done                     12/26/2018 12:35:06
00035 suncat0217 pw.x -in pw.inp   Done                     12/26/2018 12:35:06
00036 suncat0217 pw.x -in pw.inp   Done                     12/26/2018 12:35:06
00037 suncat0217 pw.x -in pw.inp   Done                     12/26/2018 12:35:06
00038 suncat0217 pw.x -in pw.inp   Done                     12/26/2018 12:35:06
00039 suncat0217 pw.x -in pw.inp   Done                     12/26/2018 12:35:06
00040 suncat0216 pw.x -in pw.inp   Done                     12/26/2018 12:35:06
00041 suncat0216 pw.x -in pw.inp   Done                     12/26/2018 12:35:06
00042 suncat0216 pw.x -in pw.inp   Done                     12/26/2018 12:35:06
00043 suncat0216 pw.x -in pw.inp   Done                     12/26/2018 12:35:06
00044 suncat0216 pw.x -in pw.inp   Done                     12/26/2018 12:35:06
00045 suncat0216 pw.x -in pw.inp   Done                     12/26/2018 12:35:06
00046 suncat0216 pw.x -in pw.inp   Done                     12/26/2018 12:35:06
00047 suncat0216 pw.x -in pw.inp   Done                     12/26/2018 12:35:06
00048 suncat0215 pw.x -in pw.inp   Done                     12/26/2018 12:35:06
00049 suncat0215 pw.x -in pw.inp   Done                     12/26/2018 12:35:06
00050 suncat0215 pw.x -in pw.inp   Done                     12/26/2018 12:35:06
00051 suncat0215 pw.x -in pw.inp   Done                     12/26/2018 12:35:06
00052 suncat0215 pw.x -in pw.inp   Done                     12/26/2018 12:35:06
00053 suncat0215 pw.x -in pw.inp   Done                     12/26/2018 12:35:06
00054 suncat0215 pw.x -in pw.inp   Done                     12/26/2018 12:35:06
00055 suncat0215 pw.x -in pw.inp   Done                     12/26/2018 12:35:06
00056 suncat0210 pw.x -in pw.inp   Done                     12/26/2018 12:35:06
00057 suncat0210 pw.x -in pw.inp   Done                     12/26/2018 12:35:06
00058 suncat0210 pw.x -in pw.inp   Done                     12/26/2018 12:35:06
00059 suncat0210 pw.x -in pw.inp   Done                     12/26/2018 12:35:06
00060 suncat0210 pw.x -in pw.inp   Done                     12/26/2018 12:35:06
00061 suncat0210 pw.x -in pw.inp   Done                     12/26/2018 12:35:06
00062 suncat0210 pw.x -in pw.inp   Done                     12/26/2018 12:35:06
00063 suncat0210 pw.x -in pw.inp   Done                     12/26/2018 12:35:06