     Program PWSCF v.5.1rc2 (svn rev. 11289) starts on  1Jan2019 at 22:25:54

     Current dimensions of program PWSCF are:
     Max number of different atomic species (ntypx) = 10
     Max number of k-points (npk) =  40000
     Max angular momentum in pseudopotentials (lmaxx) =  3
     Presently stress not available with electric field

     IMPORTANT: XC functional enforced from input :
     Exchange-correlation      = BEEF-VDW ( 1  4 27 13 2)
     Any further DFT definition will be discarded
     Please, verify this is what you really want

     Subspace diagonalization in iterative solution of the eigenvalue problem:
     a serial algorithm will be used

     bravais-lattice index     =            0
     lattice parameter (alat)  =       1.8897  a.u.
     unit-cell volume          =    4643.8656 (a.u.)^3
     number of atoms/cell      =           12
     number of atomic types    =            2
     number of electrons       =       153.00
     number of Kohn-Sham states=          106
     kinetic-energy cutoff     =      36.7493  Ry
     charge density cutoff     =     367.4932  Ry
     convergence threshold     =      1.0E-06
     mixing beta               =       0.1000
     number of iterations used =           10  plain     mixing
     Exchange-correlation      = BEEF-VDW ( 1  4 27 13 2)
     nstep                     =           50

     celldm(1)=   1.889726  celldm(2)=   0.000000  celldm(3)=   0.000000
     celldm(4)=   0.000000  celldm(5)=   0.000000  celldm(6)=   0.000000

     crystal axes: (cart. coord. in units of alat)
               a(1) = (   5.679137   0.000000   0.000000 )
               a(2) = (  -2.839568   4.918277   0.000000 )
               a(3) = (   0.000000   0.000000  24.636996 )

     reciprocal axes: (cart. coord. in units 2 pi/alat)
               b(1) = (  0.176083  0.101662  0.000000 )
               b(2) = (  0.000000  0.203323  0.000000 )
               b(3) = (  0.000000  0.000000  0.040589 )

     PseudoPot. # 1 for Ti read from file:
     /afs/slac.stanford.edu/u/if/mamunm/psp/gbrv1.5pbe/Ti.UPF
     MD5 check sum: 88a00a6731bd790ddea75d31a80cb452
     Pseudo is Ultrasoft + core correction, Zval = 12.0
     Generated by new atomic code, or converted to UPF format
     Using radial grid of  851 points,  6 beta functions with:
                l(1) =   0
                l(2) =   0
                l(3) =   1
                l(4) =   1
                l(5) =   2
                l(6) =   2
     Q(r) pseudized with  6 coefficients,  rinner =    1.000   1.000   1.000
                                                       1.000   1.000

     PseudoPot. # 2 for Ir read from file:
     /afs/slac.stanford.edu/u/if/mamunm/psp/gbrv1.5pbe/Ir.UPF
     MD5 check sum: 8836f839c3459d2b385c504ce6d91f2c
     Pseudo is Ultrasoft + core correction, Zval = 15.0
     Generated by new atomic code, or converted to UPF format
     Using radial grid of  983 points,  7 beta functions with:
                l(1) =   0
                l(2) =   0
                l(3) =   1
                l(4) =   1
                l(5) =   1
                l(6) =   2
                l(7) =   2
     Q(r) pseudized with  8 coefficients,  rinner =    1.400   1.400   1.400
                                                       1.400   1.400

     vdW kernel table read from file vdW_kernel_table
     MD5 check sum: 095c7af220d748ca6e76c0b4c6cfb241

     atomic species   valence    mass     pseudopotential
        Ti1           12.00    47.86700     Ti( 1.00)
        Ir1           15.00   192.21700     Ir( 1.00)

     No symmetry found

   Cartesian axes

     site n.     atom                  positions (alat units)
         1           Ti1 tau(   1) = (   0.0000000   0.0000000  10.0000000  )
         2           Ti1 tau(   2) = (  -1.4197842   2.4591384  10.0000000  )
         3           Ti1 tau(   3) = (   1.4197842   2.4591384  10.0000000  )
         4           Ir1 tau(   4) = (   2.8395684   0.0000000  10.0000000  )
         5           Ti1 tau(   5) = (   2.8395684   1.6394256  12.3184979  )
         6           Ti1 tau(   6) = (   1.4197842   4.0985639  12.3184979  )
         7           Ti1 tau(   7) = (  -1.4197842   4.0985639  12.3184979  )
         8           Ir1 tau(   8) = (   0.0000000   1.6394256  12.3184979  )
         9           Ti1 tau(   9) = (  -0.0000000   3.2788511  14.6369958  )
        10           Ti1 tau(  10) = (   1.4197842   0.8197128  14.6369958  )
        11           Ti1 tau(  11) = (   4.2593526   0.8197128  14.6369958  )
        12           Ir1 tau(  12) = (   2.8395684   3.2788511  14.6369958  )

     number of k points=    20  Fermi-Dirac smearing, width (Ry)=  0.0110
                       cart. coord. in units 2pi/alat
        k(    1) = (   0.0000000   0.0000000   0.0000000), wk =   0.0555556
        k(    2) = (   0.0000000   0.0338872   0.0000000), wk =   0.1111111
        k(    3) = (   0.0000000   0.0677744   0.0000000), wk =   0.1111111
        k(    4) = (   0.0000000  -0.1016616   0.0000000), wk =   0.0555556
        k(    5) = (   0.0293472   0.0169436   0.0000000), wk =   0.1111111
        k(    6) = (   0.0293472   0.0508308   0.0000000), wk =   0.1111111
        k(    7) = (   0.0293472   0.0847180   0.0000000), wk =   0.1111111
        k(    8) = (   0.0293472  -0.0847180   0.0000000), wk =   0.1111111
        k(    9) = (   0.0293472  -0.0508308   0.0000000), wk =   0.1111111
        k(   10) = (   0.0293472  -0.0169436   0.0000000), wk =   0.1111111
        k(   11) = (   0.0586944   0.0338872   0.0000000), wk =   0.1111111
        k(   12) = (   0.0586944   0.0677744   0.0000000), wk =   0.1111111
        k(   13) = (   0.0586944   0.1016616   0.0000000), wk =   0.1111111
        k(   14) = (   0.0586944  -0.0677744   0.0000000), wk =   0.1111111
        k(   15) = (   0.0586944  -0.0338872   0.0000000), wk =   0.1111111
        k(   16) = (   0.0586944   0.0000000   0.0000000), wk =   0.1111111
        k(   17) = (  -0.0880415  -0.0508308   0.0000000), wk =   0.0555556
        k(   18) = (  -0.0880415  -0.0169436   0.0000000), wk =   0.1111111
        k(   19) = (  -0.0880415   0.0169436   0.0000000), wk =   0.1111111
        k(   20) = (  -0.0880415  -0.1524924   0.0000000), wk =   0.0555556

     Largest allocated arrays     est. size (Mb)     dimensions
     Largest temporary arrays     est. size (Mb)     dimensions

     Check: negative/imaginary core charge=   -0.000005    0.000000

     Initial potential from superposition of free atoms
     Check: negative starting charge=   -1.109211

     starting charge  142.49951, renormalised to  153.00000

     negative rho (up, down):  1.191E+00 0.000E+00

     *
     * You are using vdW-DF for exchange-correlation in this calculation.
     * Please cite the following three references that made this development
     * possible:
     *
     *   M. Dion, H. Rydberg, E. Schroder, D. C. Langreth, and
     *   B. I. Lundqvist, Phys. Rev. Lett. 92, 246401 (2004).
     *
     *   T. Thonhauser, V. R. Cooper, S. Li, A. Puzder, P. Hyldgaard, and
     *   D. C. Langreth, Phys. Rev. B 76, 125112 (2007).
     *
     *   G. Roman-Perez and J. M. Soler, Phys. Rev. Lett. 103, 096102 (2009).
     *
     *
     * If you are using vdW-DF2, please also cite:
     *
     *   K. Lee, E. D. Murray, L. Kong, B. I. Lundqvist, and
     *   D. C. Langreth, Phys. Rev. B 82, 081101(R) (2010).
     *
     *
     * If you are calculating the stress with vdW-DF, please also cite:
     *
     *   R. Sabatini, E. Kucukbenli, B. Kolb, T. Thonhauser, and
     *   S. de Gironcoli, J. Phys.: Condens. Matter 24, 424209 (2012).
     *

     Carrying out vdW-DF run using the following parameters:

     Nqs =      20    Nr_points =    1024   r_max =   100.000
     q_mesh =
               0.00001000     0.04494208     0.09755937     0.15916263
               0.23128650     0.31572767     0.41458969     0.53033537
               0.66584808     0.82450364     1.01025438     1.22772762
               1.48234092     1.78043706     2.12944203     2.53805004
               3.01644009     3.57652955     4.23227104     5.00000000

     Gradients computed in reciprocal space

     Adding external electric field

     Computed dipole along edir(3) :
        Dipole                0.0000 Ry au,          0.0000 Debye
        Dipole field          0.0000 Ry au

        Potential amp.       -0.0000 Ry
        Total length         45.3932 bohr

     Starting wfc are  126 randomized atomic wfcs

     Self-consistent Calculation

     iteration #  1     ecut=    36.75 Ry     beta=0.10
     Davidson diagonalization with overlap
     ethr =  1.00E-02,  avg # of iterations =  4.0

[...]

     total energy              =   -1627.70724571 Ry
     Harris-Foulkes estimate   =   -1637.44836552 Ry
     estimated scf accuracy    <      55.40485731 Ry

[...]

     End of self-consistent calculation

          k = 0.0000 0.0000 0.0000 ( 17555 PWs)   bands (ev):

   -55.8388 -55.8262 -55.7517 -55.7516 -55.7485 -55.7485 -55.7199 -55.6513
   -55.6513 -47.6963 -47.6886 -47.6886 -47.3587 -47.3587 -47.3584 -47.3584
   -47.2991 -47.2978 -32.3122 -32.2561 -32.2304 -32.2113 -32.1849 -32.1848
   -32.1699 -32.1699 -32.1284 -32.1164 -32.1164 -32.0602 -32.0602 -31.9683
   -31.9683 -31.8891 -31.8542 -31.8076 -31.8076 -31.7961 -31.7429 -31.7049
   -31.7049 -31.7001 -31.7000 -31.6420 -31.6420  -5.1785  -3.7461  -2.8968
    -2.6563  -2.6563  -2.3934  -2.3934  -2.2127  -1.9629  -1.9629  -1.8899
    -1.8899  -1.7977  -1.4451  -1.1657  -1.1657  -1.0170  -0.7164  -0.6325
    -0.6325   0.2772   0.3164   0.9186   1.2607   1.2908   1.2908   1.3081
     1.4357   1.4357   1.4433   1.4433   1.6927   1.6927   1.7141   1.7141
     1.7726   1.9891   2.2015   2.2300   2.2300   2.3465   2.3465   2.7507
     2.7507   2.9973   3.0983   3.0983   3.1348   3.1571   3.5561   3.5562
     3.7123   3.7124   4.0313   4.0313   4.1341   4.1341   4.3103   4.3333
     4.3333   4.3789

[...]

          k =-0.0880-0.0508 0.0000 ( 17452 PWs)   bands (ev):

[...]

     the Fermi energy is     1.3208 ev

!    total energy              =   -1629.18857043 Ry
     Harris-Foulkes estimate   =   -1629.18856243 Ry
     estimated scf accuracy    <       0.00000071 Ry

     The total energy is the sum of the following terms:

     one-electron contribution =  -12539.94786613 Ry
     hartree contribution      =    6266.79410600 Ry
     xc contribution           =    -324.49814577 Ry
     ewald contribution        =    4968.59383089 Ry
     electric field correction =       0.00000000 Ry
     smearing contrib. (-TS)   =      -0.13049541 Ry

     convergence has been achieved in  21 iterations

 BEEF-vdW xc energy contributions
           1 :   -282.910716179201
           2 :    257.799354552242
           3 :   -215.136724293965
           4 :    166.349851106157
           5 :   -121.787601541950
           6 :    87.1862409699302
           7 :   -63.0360398825367
           8 :    46.4036209999875
           9 :   -33.6202431276197
          10 :    22.2357050340017
          11 :   -11.5422860421712
          12 :    1.93090938835650
          13 :    6.09191448254950
          14 :   -12.4796806424229
[...]

     PseudoPot. # 1 for Ti read from file:
     /afs/slac.stanford.edu/u/if/mamunm/psp/gbrv1.5pbe/Ti.UPF
     MD5 check sum: 88a00a6731bd790ddea75d31a80cb452
     Pseudo is Ultrasoft + core correction, Zval = 12.0
     Generated by new atomic code, or converted to UPF format
     Using radial grid of  851 points,  6 beta functions with:
                l(1) =   0
                l(2) =   0
                l(3) =   1
                l(4) =   1
                l(5) =   2
                l(6) =   2
     Q(r) pseudized with  6 coefficients,  rinner =    1.000   1.000   1.000
                                                       1.000   1.000

     PseudoPot. # 2 for Ir read from file:
     /afs/slac.stanford.edu/u/if/mamunm/psp/gbrv1.5pbe/Ir.UPF
     MD5 check sum: 8836f839c3459d2b385c504ce6d91f2c
     Pseudo is Ultrasoft + core correction, Zval = 15.0
     Generated by new atomic code, or converted to UPF format
     Using radial grid of  983 points,  7 beta functions with:
                l(1) =   0
                l(2) =   0
                l(3) =   1
                l(4) =   1
                l(5) =   1
                l(6) =   2
                l(7) =   2
     Q(r) pseudized with  8 coefficients,  rinner =    1.400   1.400   1.400
                                                       1.400   1.400

     vdW kernel table read from file vdW_kernel_table
     MD5 check sum: 095c7af220d748ca6e76c0b4c6cfb241

     atomic species   valence    mass     pseudopotential
        Ti1           12.00    47.86700     Ti( 1.00)
        Ir1           15.00   192.21700     Ir( 1.00)

     No symmetry found

   Cartesian axes

     site n.     atom                  positions (alat units)
         1           Ti1 tau(   1) = (   0.0000000   0.0000000  10.0000000  )
         2           Ti1 tau(   2) = (  -1.4197842   2.4591384  10.0000000  )
         3           Ti1 tau(   3) = (   1.4197842   2.4591384  10.0000000  )
         4           Ir1 tau(   4) = (   2.8395684   0.0000000  10.0000000  )
         5           Ti1 tau(   5) = (   2.8395684   1.6394256  12.3184979  )
         6           Ti1 tau(   6) = (   1.4197842   4.0985639  12.3184979  )
         7           Ti1 tau(   7) = (  -1.4197842   4.0985639  12.3184979  )
         8           Ir1 tau(   8) = (   0.0000000   1.6394256  12.3184979  )
         9           Ti1 tau(   9) = (   0.0000011   3.2275218  14.6435741  )
        10           Ti1 tau(  10) = (   1.3753322   0.8453775  14.6435828  )
        11           Ti1 tau(  11) = (   4.3038060   0.8453791  14.6435793  )
        12           Ir1 tau(  12) = (   2.8395643   3.2788502  14.4588821  )

     number of k points=    20  Fermi-Dirac smearing, width (Ry)=  0.0110
                       cart. coord. in units 2pi/alat
        k(    1) = (   0.0000000   0.0000000   0.0000000), wk =   0.0555556
        k(    2) = (   0.0000000   0.0338872   0.0000000), wk =   0.1111111
        k(    3) = (   0.0000000   0.0677744   0.0000000), wk =   0.1111111
        k(    4) = (   0.0000000  -0.1016616   0.0000000), wk =   0.0555556
        k(    5) = (   0.0293472   0.0169436   0.0000000), wk =   0.1111111
        k(    6) = (   0.0293472   0.0508308   0.0000000), wk =   0.1111111
        k(    7) = (   0.0293472   0.0847180   0.0000000), wk =   0.1111111
        k(    8) = (   0.0293472  -0.0847180   0.0000000), wk =   0.1111111
        k(    9) = (   0.0293472  -0.0508308   0.0000000), wk =   0.1111111
        k(   10) = (   0.0293472  -0.0169436   0.0000000), wk =   0.1111111
        k(   11) = (   0.0586944   0.0338872   0.0000000), wk =   0.1111111
        k(   12) = (   0.0586944   0.0677744   0.0000000), wk =   0.1111111
        k(   13) = (   0.0586944   0.1016616   0.0000000), wk =   0.1111111
        k(   14) = (   0.0586944  -0.0677744   0.0000000), wk =   0.1111111
        k(   15) = (   0.0586944  -0.0338872   0.0000000), wk =   0.1111111
        k(   16) = (   0.0586944   0.0000000   0.0000000), wk =   0.1111111
        k(   17) = (  -0.0880415  -0.0508308   0.0000000), wk =   0.0555556
        k(   18) = (  -0.0880415  -0.0169436   0.0000000), wk =   0.1111111
        k(   19) = (  -0.0880415   0.0169436   0.0000000), wk =   0.1111111
        k(   20) = (  -0.0880415  -0.1524924   0.0000000), wk =   0.0555556

     Largest allocated arrays     est. size (Mb)     dimensions
     Largest temporary arrays     est. size (Mb)     dimensions

     Check: negative/imaginary core charge=   -0.000005    0.000000

     Initial potential from superposition of free atoms
     Check: negative starting charge=   -1.110134

     starting charge  142.49951, renormalised to  153.00000

[...]

     *
     * You are using vdW-DF for exchange-correlation in this calculation.
     * Please cite the following three references that made this development
     * possible:
     *
     *   M. Dion, H. Rydberg, E. Schroder, D. C. Langreth, and
     *   B. I. Lundqvist, Phys. Rev. Lett. 92, 246401 (2004).
     *
     *   T. Thonhauser, V. R. Cooper, S. Li, A. Puzder, P. Hyldgaard, and
     *   D. C. Langreth, Phys. Rev. B 76, 125112 (2007).
     *
     *   G. Roman-Perez and J. M. Soler, Phys. Rev. Lett. 103, 096102 (2009).
     *
     *
     * If you are using vdW-DF2, please also cite:
     *
     *   K. Lee, E. D. Murray, L. Kong, B. I. Lundqvist, and
     *   D. C. Langreth, Phys. Rev. B 82, 081101(R) (2010).
     *
     *
     * If you are calculating the stress with vdW-DF, please also cite:
     *
     *   R. Sabatini, E. Kucukbenli, B. Kolb, T. Thonhauser, and
     *   S. de Gironcoli, J. Phys.: Condens. Matter 24, 424209 (2012).
     *

     Carrying out vdW-DF run using the following parameters:

     Nqs =      20    Nr_points =    1024   r_max =   100.000
     q_mesh =
               0.00001000     0.04494208     0.09755937     0.15916263
               0.23128650     0.31572767     0.41458969     0.53033537
               0.66584808     0.82450364     1.01025438     1.22772762
               1.48234092     1.78043706     2.12944203     2.53805004
               3.01644009     3.57652955     4.23227104     5.00000000

     Gradients computed in reciprocal space

[...]

     Starting wfc are  126 randomized atomic wfcs

     Self-consistent Calculation

[...]

     total energy              =   -1629.20156741 Ry
     Harris-Foulkes estimate   =   -1629.20156572 Ry
     estimated scf accuracy    <       0.00000216 Ry

     iteration # 23     ecut=    36.75 Ry     beta=0.10
     Davidson diagonalization with overlap
     ethr =  1.41E-09,  avg # of iterations =  2.3

[...]

     negative rho (up, down):  9.777E-01 0.000E+00

     Adding external electric field

     Computed dipole along edir(3) :
        Dipole                0.0412 Ry au,          0.1046 Debye
        Dipole field          0.0001 Ry au

        Potential amp.       -0.0101 Ry
        Total length         45.3932 bohr

     End of self-consistent calculation

[...]

          k = 0.0587 0.0000 0.0000 ( 17495 PWs)   bands (ev):

[...]

          k =-0.0880-0.1525 0.0000 ( 17452 PWs)   bands (ev):

   -55.7455 -55.7413 -55.7204 -55.7051 -55.6898 -55.6795 -55.6460 -55.6283
   -55.6040 -47.6435 -47.6318 -47.6306 -47.3959 -47.3947 -47.3762 -47.3051
   -47.3039 -47.2535 -32.1627 -32.1536 -32.1426 -32.0936 -32.0770 -32.0657
   -32.0538 -32.0481 -32.0248 -31.9934 -31.9719 -31.9575 -31.9543 -31.9196
   -31.9025 -31.8930 -31.8826 -31.8310 -31.8269 -31.8251 -31.8102 -31.7323
   -31.7171 -31.6928 -31.6651 -31.6395 -31.6037  -3.8090  -3.4115  -2.6589
    -2.1708  -2.1194  -2.0393  -1.7295  -1.6611  -1.6130  -1.4444  -1.4301
    -1.2992  -1.2814  -1.2281  -1.0346  -0.9907  -0.9102  -0.7664  -0.5679
    -0.4188  -0.3155   0.0727   0.1219   0.4517   0.6088   0.7571   0.9741
     1.0762   1.0803   1.0926   1.1628   1.2390   1.2833   1.3349   1.3978
     1.5581   1.6508   1.6734   1.9830   2.0706   2.0785   2.3522   2.4378
     2.4673   2.6252   2.6894   2.7035   2.8449   2.8952   3.1251   3.1662
     3.1951   3.2921   3.4008   3.4279   3.5329   3.6284   3.7045   3.7898
     3.8663   4.1170

     the Fermi energy is     1.3814 ev

!    total energy              =   -1629.20157095 Ry
     Harris-Foulkes estimate   =   -1629.20156753 Ry
     estimated scf accuracy    <       0.00000066 Ry

     The total energy is the sum of the following terms:

     one-electron contribution =  -12623.65448724 Ry
     hartree contribution      =    6308.90584031 Ry
     xc contribution           =    -324.57744978 Ry
     ewald contribution        =    5010.25455533 Ry
     electric field correction =       0.00000458 Ry
     smearing contrib. (-TS)   =      -0.13003415 Ry

     convergence has been achieved in  23 iterations

 BEEF-vdW xc energy contributions
           1 :   -283.159112476624
           2 :    258.079957163653
           3 :   -215.456440679394
           4 :    166.680477570745
           5 :   -122.077397005666
           6 :    87.3887709329032
           7 :   -63.1396819735352
           8 :    46.4401838534907
           9 :   -33.6444465913727
          10 :    22.2913735745461
          11 :   -11.6414210607546
          12 :    2.05867407405992
          13 :    5.95705786208850
          14 :   -12.3512812687965
          15 :    17.4283366569359
          16 :   -21.3839093737893
          17 :    23.9853382642092
          18 :   -24.7379808273336
          19 :    23.3982285146329
          20 :   -20.3833437195482
          21 :    16.7028529812592
          22 :   -13.4368227334614
          23 :    11.1325322957169
          24 :   -9.54559308817431
          25 :    7.88723094210781
          26 :   -5.39877680990264
          27 :    1.86849634090078
          28 :    2.22700713234036
          29 :   -6.01565834993983
          30 :    8.73011088823500
          31 :   -27.1816542771949
          32 :   -19.7651880164439

     Forces acting on atoms (Ry/au):

     negative rho (up, down):  9.777E-01 0.000E+00
     atom    1 type  1   force =     0.00000080    0.01480814   -0.00224202
     atom    2 type  1   force =     0.01282433   -0.00740320   -0.00223720
     atom    3 type  1   force =    -0.01282465   -0.00740417   -0.00224244
     atom    4 type  2   force =    -0.00000075    0.00000043    0.02952475
     atom    5 type  1   force =    -0.00000221   -0.00534666   -0.00410731
     atom    6 type  1   force =    -0.00462945    0.00267229   -0.00410946
     atom    7 type  1   force =     0.00462857    0.00267446   -0.00410862
     atom    8 type  2   force =     0.00000179   -0.00000082   -0.00750651
     atom    9 type  1   force =     0.00000108    0.00118722   -0.00068585
     atom   10 type  1   force =     0.00102898   -0.00059357   -0.00068979
     atom   11 type  1   force =    -0.00102788   -0.00059393   -0.00068897
     atom   12 type  2   force =    -0.00000062   -0.00000019   -0.00090658

     Total force =     0.041759     Total SCF correction =     0.002407

     entering subroutine stress ...

     negative rho (up, down):  9.777E-01 0.000E+00
          total   stress  (Ry/bohr**3)                   (kbar)     P=  -18.05
  -0.00016560  -0.00000000  -0.00000000        -24.36     -0.00     -0.00
  -0.00000000  -0.00016561   0.00000000         -0.00    -24.36      0.00
  -0.00000000   0.00000000  -0.00003687         -0.00      0.00     -5.42

 !ASE

     Writing output data file calc.save

     General routines

     Parallel routines

   This run was terminated on:  23:44:59   1Jan2019

   JOB DONE.
Job  /afs/slac/g/suncat/bin/suncat-tsmpirun -x LD_LIBRARY_PATH -wdir /scratch/qe649201_yiQ4j pw.x -in pw.inp

TID   HOST_NAME   COMMAND_LINE            STATUS            TERMINATION_TIME
00000 suncat0178 pw.x -in pw.inp   Done                     01/01/2019 23:44:59
00001 suncat0178 pw.x -in pw.inp   Done                     01/01/2019 23:44:59
00002 suncat0178 pw.x -in pw.inp   Done                     01/01/2019 23:44:59
00003 suncat0178 pw.x -in pw.inp   Done                     01/01/2019 23:44:59
00004 suncat0178 pw.x -in pw.inp   Done                     01/01/2019 23:44:59
00005 suncat0178 pw.x -in pw.inp   Done                     01/01/2019 23:44:59
00006 suncat0178 pw.x -in pw.inp   Done                     01/01/2019 23:44:59
00007 suncat0178 pw.x -in pw.inp   Done                     01/01/2019 23:44:59
00008 suncat0177 pw.x -in pw.inp   Done                     01/01/2019 23:44:59
00009 suncat0177 pw.x -in pw.inp   Done                     01/01/2019 23:44:59
00010 suncat0177 pw.x -in pw.inp   Done                     01/01/2019 23:44:59
00011 suncat0177 pw.x -in pw.inp   Done                     01/01/2019 23:44:59
00012 suncat0177 pw.x -in pw.inp   Done                     01/01/2019 23:44:59
00013 suncat0177 pw.x -in pw.inp   Done                     01/01/2019 23:44:59
00014 suncat0177 pw.x -in pw.inp   Done                     01/01/2019 23:44:59
00015 suncat0177 pw.x -in pw.inp   Done                     01/01/2019 23:44:59
00016 suncat0113 pw.x -in pw.inp   Done                     01/01/2019 23:44:59
00017 suncat0113 pw.x -in pw.inp   Done                     01/01/2019 23:44:59
00018 suncat0113 pw.x -in pw.inp   Done                     01/01/2019 23:44:59
00019 suncat0113 pw.x -in pw.inp   Done                     01/01/2019 23:44:59
00020 suncat0113 pw.x -in pw.inp   Done                     01/01/2019 23:44:59
00021 suncat0113 pw.x -in pw.inp   Done                     01/01/2019 23:44:59
00022 suncat0113 pw.x -in pw.inp   Done                     01/01/2019 23:44:59
00023 suncat0113 pw.x -in pw.inp   Done                     01/01/2019 23:44:59
00024 suncat0267 pw.x -in pw.inp   Done                     01/01/2019 23:44:59
00025 suncat0267 pw.x -in pw.inp   Done                     01/01/2019 23:44:59
00026 suncat0267 pw.x -in pw.inp   Done                     01/01/2019 23:44:59
00027 suncat0267 pw.x -in pw.inp   Done                     01/01/2019 23:44:59
00028 suncat0267 pw.x -in pw.inp   Done                     01/01/2019 23:44:59
00029 suncat0267 pw.x -in pw.inp   Done                     01/01/2019 23:44:59
00030 suncat0267 pw.x -in pw.inp   Done                     01/01/2019 23:44:59
00031 suncat0267 pw.x -in pw.inp   Done                     01/01/2019 23:44:59
00032 suncat0254 pw.x -in pw.inp   Done                     01/01/2019 23:44:59
00033 suncat0254 pw.x -in pw.inp   Done                     01/01/2019 23:44:59
00034 suncat0254 pw.x -in pw.inp   Done                     01/01/2019 23:44:59
00035 suncat0254 pw.x -in pw.inp   Done                     01/01/2019 23:44:59
00036 suncat0254 pw.x -in pw.inp   Done                     01/01/2019 23:44:59
00037 suncat0254 pw.x -in pw.inp   Done                     01/01/2019 23:44:59
00038 suncat0254 pw.x -in pw.inp   Done                     01/01/2019 23:44:59
00039 suncat0254 pw.x -in pw.inp   Done                     01/01/2019 23:44:59
00040 suncat0253 pw.x -in pw.inp   Done                     01/01/2019 23:44:59
00041 suncat0253 pw.x -in pw.inp   Done                     01/01/2019 23:44:59
00042 suncat0253 pw.x -in pw.inp   Done                     01/01/2019 23:44:59
00043 suncat0253 pw.x -in pw.inp   Done                     01/01/2019 23:44:59
00044 suncat0253 pw.x -in pw.inp   Done                     01/01/2019 23:44:59
00045 suncat0253 pw.x -in pw.inp   Done                     01/01/2019 23:44:59
00046 suncat0253 pw.x -in pw.inp   Done                     01/01/2019 23:44:59
00047 suncat0253 pw.x -in pw.inp   Done                     01/01/2019 23:44:59
00048 suncat0228 pw.x -in pw.inp   Done                     01/01/2019 23:44:59
00049 suncat0228 pw.x -in pw.inp   Done                     01/01/2019 23:44:59
00050 suncat0228 pw.x -in pw.inp   Done                     01/01/2019 23:44:59
00051 suncat0228 pw.x -in pw.inp   Done                     01/01/2019 23:44:59
00052 suncat0228 pw.x -in pw.inp   Done                     01/01/2019 23:44:59
00053 suncat0228 pw.x -in pw.inp   Done                     01/01/2019 23:44:59
00054 suncat0228 pw.x -in pw.inp   Done                     01/01/2019 23:44:59
00055 suncat0228 pw.x -in pw.inp   Done                     01/01/2019 23:44:59
00056 suncat0227 pw.x -in pw.inp   Done                     01/01/2019 23:44:59
00057 suncat0227 pw.x -in pw.inp   Done                     01/01/2019 23:44:59
00058 suncat0227 pw.x -in pw.inp   Done                     01/01/2019 23:44:59
00059 suncat0227 pw.x -in pw.inp   Done                     01/01/2019 23:44:59
00060 suncat0227 pw.x -in pw.inp   Done                     01/01/2019 23:44:59
00061 suncat0227 pw.x -in pw.inp   Done                     01/01/2019 23:44:59
00062 suncat0227 pw.x -in pw.inp   Done                     01/01/2019 23:44:59
00063 suncat0227 pw.x -in pw.inp   Done                     01/01/2019 23:44:59