     Program PWSCF v.5.1rc2 (svn rev. 11289) starts on  1Jan2019 at 21:37:58

     Current dimensions of program PWSCF are:
     Max number of different atomic species (ntypx) = 10
     Max number of k-points (npk) =  40000
     Max angular momentum in pseudopotentials (lmaxx) =  3
     Presently stress not available with electric field

     IMPORTANT: XC functional enforced from input :
     Exchange-correlation      = BEEF-VDW ( 1  4 27 13 2)
     Any further DFT definition will be discarded
     Please, verify this is what you really want

     Subspace diagonalization in iterative solution of the eigenvalue problem:
     a serial algorithm will be used

     bravais-lattice index     =            0
     lattice parameter (alat)  =       1.8897  a.u.
     unit-cell volume          =    4569.9286 (a.u.)^3
     number of atoms/cell      =           12
     number of atomic types    =            2
     number of electrons       =       150.00
     number of Kohn-Sham states=          105
     kinetic-energy cutoff     =      36.7493  Ry
     charge density cutoff     =     367.4932  Ry
     convergence threshold     =      1.0E-06
     mixing beta               =       0.1000
     number of iterations used =           10  plain     mixing
     Exchange-correlation      = BEEF-VDW ( 1  4 27 13 2)
     nstep                     =           50

     celldm(1)=   1.889726  celldm(2)=   0.000000  celldm(3)=   0.000000
     celldm(4)=   0.000000  celldm(5)=   0.000000  celldm(6)=   0.000000

     crystal axes: (cart. coord. in units of alat)
               a(1) = (   5.637625   0.000000   0.000000 )
               a(2) = (  -2.818812   4.882326   0.000000 )
               a(3) = (   0.000000   0.000000  24.603101 )

     reciprocal axes: (cart. coord. in units 2 pi/alat)
               b(1) = (  0.177380  0.102410  0.000000 )
               b(2) = (  0.000000  0.204820  0.000000 )
               b(3) = (  0.000000  0.000000  0.040645 )

     PseudoPot. # 1 for Ti read from file:
     /afs/slac.stanford.edu/u/if/mamunm/psp/gbrv1.5pbe/Ti.UPF
     MD5 check sum: 88a00a6731bd790ddea75d31a80cb452
     Pseudo is Ultrasoft + core correction, Zval = 12.0
     Generated by new atomic code, or converted to UPF format
     Using radial grid of  851 points,  6 beta functions with:
                l(1) =   0
                l(2) =   0
                l(3) =   1
                l(4) =   1
                l(5) =   2
                l(6) =   2
     Q(r) pseudized with  6 coefficients,  rinner =    1.000   1.000   1.000
                                                       1.000   1.000

     PseudoPot. # 2 for Cr read from file:
     /afs/slac.stanford.edu/u/if/mamunm/psp/gbrv1.5pbe/Cr.UPF
     MD5 check sum: 0d52af634a40206e4dee301ad30da4bf
     Pseudo is Ultrasoft + core correction, Zval = 14.0
     Generated by new atomic code, or converted to UPF format
     Using radial grid of  857 points,  6 beta functions with:
                l(1) =   0
                l(2) =   0
                l(3) =   1
                l(4) =   1
                l(5) =   2
                l(6) =   2
     Q(r) pseudized with  8 coefficients,  rinner =    0.950   0.950   0.950
                                                       0.950   0.950

     vdW kernel table read from file vdW_kernel_table
     MD5 check sum: 095c7af220d748ca6e76c0b4c6cfb241

     atomic species   valence    mass     pseudopotential
        Ti1           12.00    47.86700     Ti( 1.00)
        Cr1           14.00    51.99610     Cr( 1.00)

     No symmetry found

   Cartesian axes

     site n.     atom                  positions (alat units)
         1           Ti1 tau(   1) = (   0.0000000   0.0000000  10.0000000  )
         2           Ti1 tau(   2) = (  -1.4094062   2.4411631  10.0000000  )
         3           Ti1 tau(   3) = (   1.4094062   2.4411631  10.0000000  )
         4           Cr1 tau(   4) = (   2.8188124   0.0000000  10.0000000  )
         5           Ti1 tau(   5) = (   2.8188124   1.6274421  12.3015507  )
         6           Ti1 tau(   6) = (   1.4094062   4.0686052  12.3015507  )
         7           Ti1 tau(   7) = (  -1.4094062   4.0686052  12.3015507  )
         8           Cr1 tau(   8) = (   0.0000000   1.6274421  12.3015507  )
         9           Ti1 tau(   9) = (  -0.0000000   3.2548842  14.6031013  )
        10           Ti1 tau(  10) = (   1.4094062   0.8137210  14.6031013  )
        11           Ti1 tau(  11) = (   4.2282185   0.8137210  14.6031013  )
        12           Cr1 tau(  12) = (   2.8188124   3.2548842  14.6031013  )

     number of k points=    20  Fermi-Dirac smearing, width (Ry)=  0.0110
                       cart. coord. in units 2pi/alat
        k(    1) = (   0.0000000   0.0000000   0.0000000), wk =   0.0555556
        k(    2) = (   0.0000000   0.0341367   0.0000000), wk =   0.1111111
        k(    3) = (   0.0000000   0.0682735   0.0000000), wk =   0.1111111
        k(    4) = (   0.0000000  -0.1024102   0.0000000), wk =   0.0555556
        k(    5) = (   0.0295633   0.0170684   0.0000000), wk =   0.1111111
        k(    6) = (   0.0295633   0.0512051   0.0000000), wk =   0.1111111
        k(    7) = (   0.0295633   0.0853418   0.0000000), wk =   0.1111111
        k(    8) = (   0.0295633  -0.0853418   0.0000000), wk =   0.1111111
        k(    9) = (   0.0295633  -0.0512051   0.0000000), wk =   0.1111111
        k(   10) = (   0.0295633  -0.0170684   0.0000000), wk =   0.1111111
        k(   11) = (   0.0591266   0.0341367   0.0000000), wk =   0.1111111
        k(   12) = (   0.0591266   0.0682735   0.0000000), wk =   0.1111111
        k(   13) = (   0.0591266   0.1024102   0.0000000), wk =   0.1111111
        k(   14) = (   0.0591266  -0.0682735   0.0000000), wk =   0.1111111
        k(   15) = (   0.0591266  -0.0341367   0.0000000), wk =   0.1111111
        k(   16) = (   0.0591266   0.0000000   0.0000000), wk =   0.1111111
        k(   17) = (  -0.0886898  -0.0512051   0.0000000), wk =   0.0555556
        k(   18) = (  -0.0886898  -0.0170684   0.0000000), wk =   0.1111111
        k(   19) = (  -0.0886898   0.0170684   0.0000000), wk =   0.1111111
        k(   20) = (  -0.0886898  -0.1536153   0.0000000), wk =   0.0555556

     Largest allocated arrays     est. size (Mb)     dimensions
     Largest temporary arrays     est. size (Mb)     dimensions

     Check: negative/imaginary core charge=   -0.000006    0.000000

     Initial potential from superposition of free atoms
     Check: negative starting charge=   -0.013602

     starting charge  137.99956, renormalised to  150.00000

     negative rho (up, down):  1.479E-02 0.000E+00

     *
     * You are using vdW-DF for exchange-correlation in this calculation.
     * Please cite the following three references that made this development
     * possible:
     *
     *   M. Dion, H. Rydberg, E. Schroder, D. C. Langreth, and
     *   B. I. Lundqvist, Phys. Rev. Lett. 92, 246401 (2004).
     *
     *   T. Thonhauser, V. R. Cooper, S. Li, A. Puzder, P. Hyldgaard, and
     *   D. C. Langreth, Phys. Rev. B 76, 125112 (2007).
     *
     *   G. Roman-Perez and J. M. Soler, Phys. Rev. Lett. 103, 096102 (2009).
     *
     *
     * If you are using vdW-DF2, please also cite:
     *
     *   K. Lee, E. D. Murray, L. Kong, B. I. Lundqvist, and
     *   D. C. Langreth, Phys. Rev. B 82, 081101(R) (2010).
     *
     *
     * If you are calculating the stress with vdW-DF, please also cite:
     *
     *   R. Sabatini, E. Kucukbenli, B. Kolb, T. Thonhauser, and
     *   S. de Gironcoli, J. Phys.: Condens. Matter 24, 424209 (2012).
     *

     Carrying out vdW-DF run using the following parameters:

     Nqs =      20    Nr_points =    1024   r_max =   100.000
     q_mesh =
               0.00001000     0.04494208     0.09755937     0.15916263
               0.23128650     0.31572767     0.41458969     0.53033537
               0.66584808     0.82450364     1.01025438     1.22772762
               1.48234092     1.78043706     2.12944203     2.53805004
               3.01644009     3.57652955     4.23227104     5.00000000

     Gradients computed in reciprocal space

     Adding external electric field

     Computed dipole along edir(3) :
        Dipole                0.0000 Ry au,          0.0000 Debye
        Dipole field          0.0000 Ry au

        Potential amp.       -0.0000 Ry
        Total length         45.3308 bohr

     Starting wfc are  120 randomized atomic wfcs

     Self-consistent Calculation

     iteration #  1     ecut=    36.75 Ry     beta=0.10
     Davidson diagonalization with overlap
     ethr =  1.00E-02,  avg # of iterations =  7.7

[...]

     total energy              =   -1608.06841872 Ry
     Harris-Foulkes estimate   =   -1613.73969321 Ry
     estimated scf accuracy    <      32.31977009 Ry

[...]

     iteration # 16     ecut=    36.75 Ry     beta=0.10
     Davidson diagonalization with overlap
     c_bands:  1 eigenvalues not converged
     ethr =  8.27E-06,  avg # of iterations =  3.7

[...]

     iteration # 18     ecut=    36.75 Ry     beta=0.10
     Davidson diagonalization with overlap
     c_bands:  1 eigenvalues not converged
     ethr =  2.25E-06,  avg # of iterations =  9.2

[...]

     End of self-consistent calculation

          k = 0.0000 0.0000 0.0000 ( 17219 PWs)   bands (ev):

   -70.7521 -70.5973 -70.5973 -56.2038 -56.1947 -56.1118 -56.1117 -56.1096
   -56.1095 -56.0209 -55.9428 -55.9427 -42.0489 -42.0489 -42.0309 -41.9330
   -41.9316 -41.8914 -41.8914 -41.8910 -41.8910 -32.7587 -32.7100 -32.6142
   -32.5503 -32.5503 -32.5055 -32.5002 -32.5001 -32.4873 -32.4873 -32.4707
   -32.3937 -32.3936 -32.2530 -32.2530 -32.2141 -32.1902 -32.1292 -32.1126
   -32.1126 -32.1072 -32.1072 -32.0937 -32.0937 -32.0054 -31.9572 -31.9571
    -4.8938  -3.5002  -2.3187  -1.8729  -1.7191  -1.7046  -1.7046  -1.5276
    -1.5276  -1.2407  -1.1067  -1.1067  -1.0113  -1.0113  -1.0048  -0.3113
    -0.3113  -0.2731   0.4420   0.5690   0.5804   0.5804   0.7927   0.9652
     1.0438   1.2612   1.2613   1.2907   1.2907   1.3211   1.3695   1.3695
     1.4532   1.4532   1.4853   1.4853   1.6862   1.8655   1.8694   1.8694
     2.1611   2.1611   2.5530   2.5530   2.6024   2.6339   2.6339   2.8209
     2.8439   3.2023   3.2024   3.3508   3.3509   3.6650   3.6650   3.7081
     3.7081

[...]

          k =-0.0887-0.0512 0.0000 ( 17240 PWs)   bands (ev):

[...]

     the Fermi energy is     0.7959 ev

!    total energy              =   -1607.53453784 Ry
     Harris-Foulkes estimate   =   -1607.53453701 Ry
     estimated scf accuracy    <       0.00000054 Ry

     The total energy is the sum of the following terms:

     one-electron contribution =  -12461.65397397 Ry
     hartree contribution      =    6217.12908342 Ry
     xc contribution           =    -238.24696432 Ry
     ewald contribution        =    4875.38383454 Ry
     electric field correction =       0.00000000 Ry
     smearing contrib. (-TS)   =      -0.14651751 Ry

     convergence has been achieved in  25 iterations

 BEEF-vdW xc energy contributions
           1 :   -205.157077071321
           2 :    183.679522149925
           3 :   -148.280752410896
           4 :    110.110942296497
[...]

     PseudoPot. # 1 for Ti read from file:
     /afs/slac.stanford.edu/u/if/mamunm/psp/gbrv1.5pbe/Ti.UPF
     MD5 check sum: 88a00a6731bd790ddea75d31a80cb452
     Pseudo is Ultrasoft + core correction, Zval = 12.0
     Generated by new atomic code, or converted to UPF format
     Using radial grid of  851 points,  6 beta functions with:
                l(1) =   0
                l(2) =   0
                l(3) =   1
                l(4) =   1
                l(5) =   2
                l(6) =   2
     Q(r) pseudized with  6 coefficients,  rinner =    1.000   1.000   1.000
                                                       1.000   1.000

     PseudoPot. # 2 for Cr read from file:
     /afs/slac.stanford.edu/u/if/mamunm/psp/gbrv1.5pbe/Cr.UPF
     MD5 check sum: 0d52af634a40206e4dee301ad30da4bf
     Pseudo is Ultrasoft + core correction, Zval = 14.0
     Generated by new atomic code, or converted to UPF format
     Using radial grid of  857 points,  6 beta functions with:
                l(1) =   0
                l(2) =   0
                l(3) =   1
                l(4) =   1
                l(5) =   2
                l(6) =   2
     Q(r) pseudized with  8 coefficients,  rinner =    0.950   0.950   0.950
                                                       0.950   0.950

     vdW kernel table read from file vdW_kernel_table
     MD5 check sum: 095c7af220d748ca6e76c0b4c6cfb241

     atomic species   valence    mass     pseudopotential
        Ti1           12.00    47.86700     Ti( 1.00)
        Cr1           14.00    51.99610     Cr( 1.00)

     No symmetry found

   Cartesian axes

     site n.     atom                  positions (alat units)
         1           Ti1 tau(   1) = (   0.0000000   0.0000000  10.0000000  )
         2           Ti1 tau(   2) = (  -1.4094062   2.4411631  10.0000000  )
         3           Ti1 tau(   3) = (   1.4094062   2.4411631  10.0000000  )
         4           Cr1 tau(   4) = (   2.8188124   0.0000000  10.0000000  )
         5           Ti1 tau(   5) = (   2.8188124   1.6274421  12.3015507  )
         6           Ti1 tau(   6) = (   1.4094062   4.0686052  12.3015507  )
         7           Ti1 tau(   7) = (  -1.4094062   4.0686052  12.3015507  )
         8           Cr1 tau(   8) = (   0.0000000   1.6274421  12.3015507  )
         9           Ti1 tau(   9) = (  -0.0000101   3.2028634  14.5797480  )
        10           Ti1 tau(  10) = (   1.3643389   0.8397374  14.5797371  )
        11           Ti1 tau(  11) = (   4.2732665   0.8397410  14.5797240  )
        12           Cr1 tau(  12) = (   2.8188108   3.2548813  14.2473814  )

     number of k points=    20  Fermi-Dirac smearing, width (Ry)=  0.0110
                       cart. coord. in units 2pi/alat
        k(    1) = (   0.0000000   0.0000000   0.0000000), wk =   0.0555556
        k(    2) = (   0.0000000   0.0341367   0.0000000), wk =   0.1111111
        k(    3) = (   0.0000000   0.0682735   0.0000000), wk =   0.1111111
        k(    4) = (   0.0000000  -0.1024102   0.0000000), wk =   0.0555556
        k(    5) = (   0.0295633   0.0170684   0.0000000), wk =   0.1111111
        k(    6) = (   0.0295633   0.0512051   0.0000000), wk =   0.1111111
        k(    7) = (   0.0295633   0.0853418   0.0000000), wk =   0.1111111
        k(    8) = (   0.0295633  -0.0853418   0.0000000), wk =   0.1111111
        k(    9) = (   0.0295633  -0.0512051   0.0000000), wk =   0.1111111
        k(   10) = (   0.0295633  -0.0170684   0.0000000), wk =   0.1111111
        k(   11) = (   0.0591266   0.0341367   0.0000000), wk =   0.1111111
        k(   12) = (   0.0591266   0.0682735   0.0000000), wk =   0.1111111
        k(   13) = (   0.0591266   0.1024102   0.0000000), wk =   0.1111111
        k(   14) = (   0.0591266  -0.0682735   0.0000000), wk =   0.1111111
        k(   15) = (   0.0591266  -0.0341367   0.0000000), wk =   0.1111111
        k(   16) = (   0.0591266   0.0000000   0.0000000), wk =   0.1111111
        k(   17) = (  -0.0886898  -0.0512051   0.0000000), wk =   0.0555556
        k(   18) = (  -0.0886898  -0.0170684   0.0000000), wk =   0.1111111
        k(   19) = (  -0.0886898   0.0170684   0.0000000), wk =   0.1111111
        k(   20) = (  -0.0886898  -0.1536153   0.0000000), wk =   0.0555556

     Largest allocated arrays     est. size (Mb)     dimensions
     Largest temporary arrays     est. size (Mb)     dimensions

     Check: negative/imaginary core charge=   -0.000006    0.000000

     Initial potential from superposition of free atoms
     Check: negative starting charge=   -0.014976

     starting charge  137.99956, renormalised to  150.00000

[...]

     *
     * You are using vdW-DF for exchange-correlation in this calculation.
     * Please cite the following three references that made this development
     * possible:
     *
     *   M. Dion, H. Rydberg, E. Schroder, D. C. Langreth, and
     *   B. I. Lundqvist, Phys. Rev. Lett. 92, 246401 (2004).
     *
     *   T. Thonhauser, V. R. Cooper, S. Li, A. Puzder, P. Hyldgaard, and
     *   D. C. Langreth, Phys. Rev. B 76, 125112 (2007).
     *
     *   G. Roman-Perez and J. M. Soler, Phys. Rev. Lett. 103, 096102 (2009).
     *
     *
     * If you are using vdW-DF2, please also cite:
     *
     *   K. Lee, E. D. Murray, L. Kong, B. I. Lundqvist, and
     *   D. C. Langreth, Phys. Rev. B 82, 081101(R) (2010).
     *
     *
     * If you are calculating the stress with vdW-DF, please also cite:
     *
     *   R. Sabatini, E. Kucukbenli, B. Kolb, T. Thonhauser, and
     *   S. de Gironcoli, J. Phys.: Condens. Matter 24, 424209 (2012).
     *

     Carrying out vdW-DF run using the following parameters:

     Nqs =      20    Nr_points =    1024   r_max =   100.000
     q_mesh =
               0.00001000     0.04494208     0.09755937     0.15916263
               0.23128650     0.31572767     0.41458969     0.53033537
               0.66584808     0.82450364     1.01025438     1.22772762
               1.48234092     1.78043706     2.12944203     2.53805004
               3.01644009     3.57652955     4.23227104     5.00000000

     Gradients computed in reciprocal space

[...]

     Starting wfc are  120 randomized atomic wfcs

     Self-consistent Calculation

[...]

     total energy              =   -1607.55462511 Ry
     Harris-Foulkes estimate   =   -1607.55462372 Ry
     estimated scf accuracy    <       0.00000143 Ry

     iteration # 24     ecut=    36.75 Ry     beta=0.10
     Davidson diagonalization with overlap
     ethr =  9.54E-10,  avg # of iterations =  2.2

[...]

     negative rho (up, down):  8.874E-03 0.000E+00

     Adding external electric field

     Computed dipole along edir(3) :
        Dipole                0.0682 Ry au,          0.1735 Debye
        Dipole field          0.0002 Ry au

        Potential amp.       -0.0170 Ry
        Total length         45.3308 bohr

     End of self-consistent calculation

[...]

          k = 0.0591 0.0000 0.0000 ( 17186 PWs)   bands (ev):

[...]

          k =-0.0887-0.1536 0.0000 ( 17240 PWs)   bands (ev):

   -70.7120 -70.5092 -70.4367 -56.1385 -56.0973 -56.0897 -56.0711 -56.0607
   -56.0313 -55.8452 -55.8188 -55.7912 -42.0092 -42.0079 -41.9926 -41.8337
   -41.8094 -41.8080 -41.7698 -41.7686 -41.7361 -32.5637 -32.5264 -32.5042
   -32.4719 -32.4241 -32.4195 -32.3888 -32.3659 -32.3646 -32.3554 -32.3133
   -32.2946 -32.2915 -32.2610 -32.2591 -32.2506 -32.2361 -32.0789 -32.0658
   -32.0546 -32.0324 -32.0029 -31.9911 -31.9800 -31.9776 -31.9584 -31.8278
    -3.2675  -3.1940  -2.0168  -1.9954  -1.3606  -1.2080  -1.0911  -1.0591
    -0.9978  -0.9719  -0.4757  -0.4517  -0.3641  -0.3487  -0.1941  -0.1576
     0.0355   0.0743   0.1645   0.1987   0.2038   0.2802   0.3999   0.4730
     0.4782   0.5669   0.6915   0.7460   0.7838   0.8427   0.9659   1.0202
     1.0935   1.2398   1.2803   1.3546   1.5597   1.6216   1.7282   1.8165
     1.8819   2.0482   2.2865   2.3391   2.3595   2.4218   2.4476   2.6045
     2.6491   2.8105   2.8999   2.9169   3.0205   3.0871   3.0989   3.2313
     3.4094

     the Fermi energy is     0.8634 ev

!    total energy              =   -1607.55462785 Ry
     Harris-Foulkes estimate   =   -1607.55462539 Ry
     estimated scf accuracy    <       0.00000092 Ry

     The total energy is the sum of the following terms:

     one-electron contribution =  -12659.41645187 Ry
     hartree contribution      =    6316.49441285 Ry
     xc contribution           =    -238.42127924 Ry
     ewald contribution        =    4973.92883462 Ry
     electric field correction =       0.00001281 Ry
     smearing contrib. (-TS)   =      -0.14015702 Ry

     convergence has been achieved in  24 iterations

 BEEF-vdW xc energy contributions
           1 :   -205.430458166188
           2 :    184.006169892593
           3 :   -148.656969863174
           4 :    110.462512838657
           5 :   -78.8372770099241
           6 :    57.8951588250591
           7 :   -46.1245963890032
           8 :    38.8831015272114
           9 :   -31.7824868540360
          10 :    22.9377624772225
          11 :   -13.1681887813678
          12 :    4.56734368347261
          13 :    1.30422264682721
          14 :   -4.42465660844707
          15 :    6.04841020921452
          16 :   -7.60482944919630
          17 :    9.65413448897354
          18 :   -11.6307638609173
          19 :    12.4436124352336
          20 :   -11.3928888155741
          21 :    8.70023314171820
          22 :   -5.32420683265738
          23 :    2.27823916686535
          24 :   4.771603418760151E-003
          25 :   -1.82616663422664
          26 :    3.84247442920466
          27 :   -6.48190239922062
          28 :    9.58703030661511
          29 :   -12.5160577616375
          30 :    14.5868122358155
          31 :   -21.3181402144353
          32 :   -15.2170474687287

     Forces acting on atoms (Ry/au):

     negative rho (up, down):  8.874E-03 0.000E+00
     atom    1 type  1   force =     0.00000118    0.01225390    0.00065523
     atom    2 type  1   force =     0.01061076   -0.00612599    0.00065373
     atom    3 type  1   force =    -0.01061172   -0.00612779    0.00065265
     atom    4 type  2   force =     0.00000029    0.00000037    0.03270000
     atom    5 type  1   force =    -0.00000203   -0.01290805   -0.01225045
     atom    6 type  1   force =    -0.01117852    0.00645288   -0.01224957
     atom    7 type  1   force =     0.01117759    0.00645453   -0.01224740
     atom    8 type  2   force =     0.00000077    0.00000092    0.00342253
     atom    9 type  1   force =     0.00000040    0.00063283   -0.00016353
     atom   10 type  1   force =     0.00054828   -0.00031626   -0.00016261
     atom   11 type  1   force =    -0.00054824   -0.00031716   -0.00016010
     atom   12 type  2   force =     0.00000125   -0.00000018   -0.00085048

     Total force =     0.049846     Total SCF correction =     0.001094

     entering subroutine stress ...

     negative rho (up, down):  8.874E-03 0.000E+00
          total   stress  (Ry/bohr**3)                   (kbar)     P=   -9.11
  -0.00007560  -0.00000000   0.00000000        -11.12     -0.00      0.00
  -0.00000000  -0.00007560   0.00000000         -0.00    -11.12      0.00
   0.00000000   0.00000000  -0.00003455          0.00      0.00     -5.08

 !ASE

     Writing output data file calc.save

     General routines

     Parallel routines

   This run was terminated on:  23: 0: 7   1Jan2019

   JOB DONE.
Job  /afs/slac/g/suncat/bin/suncat-tsmpirun -x LD_LIBRARY_PATH -wdir /scratch/qe649190_iSDMY pw.x -in pw.inp

TID   HOST_NAME   COMMAND_LINE            STATUS            TERMINATION_TIME
00000 suncat0068 pw.x -in pw.inp   Done                     01/01/2019 23:00:07
00001 suncat0068 pw.x -in pw.inp   Done                     01/01/2019 23:00:07
00002 suncat0068 pw.x -in pw.inp   Done                     01/01/2019 23:00:07
00003 suncat0068 pw.x -in pw.inp   Done                     01/01/2019 23:00:07
00004 suncat0068 pw.x -in pw.inp   Done                     01/01/2019 23:00:07
00005 suncat0068 pw.x -in pw.inp   Done                     01/01/2019 23:00:07
00006 suncat0068 pw.x -in pw.inp   Done                     01/01/2019 23:00:07
00007 suncat0068 pw.x -in pw.inp   Done                     01/01/2019 23:00:07
00008 suncat0065 pw.x -in pw.inp   Done                     01/01/2019 23:00:07
00009 suncat0065 pw.x -in pw.inp   Done                     01/01/2019 23:00:07
00010 suncat0065 pw.x -in pw.inp   Done                     01/01/2019 23:00:07
00011 suncat0065 pw.x -in pw.inp   Done                     01/01/2019 23:00:07
00012 suncat0065 pw.x -in pw.inp   Done                     01/01/2019 23:00:07
00013 suncat0065 pw.x -in pw.inp   Done                     01/01/2019 23:00:07
00014 suncat0065 pw.x -in pw.inp   Done                     01/01/2019 23:00:07
00015 suncat0065 pw.x -in pw.inp   Done                     01/01/2019 23:00:07
00016 suncat0064 pw.x -in pw.inp   Done                     01/01/2019 23:00:07
00017 suncat0064 pw.x -in pw.inp   Done                     01/01/2019 23:00:07
00018 suncat0064 pw.x -in pw.inp   Done                     01/01/2019 23:00:07
00019 suncat0064 pw.x -in pw.inp   Done                     01/01/2019 23:00:07
00020 suncat0064 pw.x -in pw.inp   Done                     01/01/2019 23:00:07
00021 suncat0064 pw.x -in pw.inp   Done                     01/01/2019 23:00:07
00022 suncat0064 pw.x -in pw.inp   Done                     01/01/2019 23:00:07
00023 suncat0064 pw.x -in pw.inp   Done                     01/01/2019 23:00:07
00024 suncat0059 pw.x -in pw.inp   Done                     01/01/2019 23:00:07
00025 suncat0059 pw.x -in pw.inp   Done                     01/01/2019 23:00:07
00026 suncat0059 pw.x -in pw.inp   Done                     01/01/2019 23:00:07
00027 suncat0059 pw.x -in pw.inp   Done                     01/01/2019 23:00:07
00028 suncat0059 pw.x -in pw.inp   Done                     01/01/2019 23:00:07
00029 suncat0059 pw.x -in pw.inp   Done                     01/01/2019 23:00:07
00030 suncat0059 pw.x -in pw.inp   Done                     01/01/2019 23:00:07
00031 suncat0059 pw.x -in pw.inp   Done                     01/01/2019 23:00:07
00032 suncat0169 pw.x -in pw.inp   Done                     01/01/2019 23:00:07
00033 suncat0169 pw.x -in pw.inp   Done                     01/01/2019 23:00:07
00034 suncat0169 pw.x -in pw.inp   Done                     01/01/2019 23:00:07
00035 suncat0169 pw.x -in pw.inp   Done                     01/01/2019 23:00:07
00036 suncat0169 pw.x -in pw.inp   Done                     01/01/2019 23:00:07
00037 suncat0169 pw.x -in pw.inp   Done                     01/01/2019 23:00:07
00038 suncat0169 pw.x -in pw.inp   Done                     01/01/2019 23:00:07
00039 suncat0169 pw.x -in pw.inp   Done                     01/01/2019 23:00:07
00040 suncat0168 pw.x -in pw.inp   Done                     01/01/2019 23:00:07
00041 suncat0168 pw.x -in pw.inp   Done                     01/01/2019 23:00:07
00042 suncat0168 pw.x -in pw.inp   Done                     01/01/2019 23:00:07
00043 suncat0168 pw.x -in pw.inp   Done                     01/01/2019 23:00:07
00044 suncat0168 pw.x -in pw.inp   Done                     01/01/2019 23:00:07
00045 suncat0168 pw.x -in pw.inp   Done                     01/01/2019 23:00:07
00046 suncat0168 pw.x -in pw.inp   Done                     01/01/2019 23:00:07
00047 suncat0168 pw.x -in pw.inp   Done                     01/01/2019 23:00:07
00048 suncat0156 pw.x -in pw.inp   Done                     01/01/2019 23:00:07
00049 suncat0156 pw.x -in pw.inp   Done                     01/01/2019 23:00:07
00050 suncat0156 pw.x -in pw.inp   Done                     01/01/2019 23:00:07
00051 suncat0156 pw.x -in pw.inp   Done                     01/01/2019 23:00:07
00052 suncat0156 pw.x -in pw.inp   Done                     01/01/2019 23:00:07
00053 suncat0156 pw.x -in pw.inp   Done                     01/01/2019 23:00:07
00054 suncat0156 pw.x -in pw.inp   Done                     01/01/2019 23:00:07
00055 suncat0156 pw.x -in pw.inp   Done                     01/01/2019 23:00:07
00056 suncat0153 pw.x -in pw.inp   Done                     01/01/2019 23:00:07
00057 suncat0153 pw.x -in pw.inp   Done                     01/01/2019 23:00:07
00058 suncat0153 pw.x -in pw.inp   Done                     01/01/2019 23:00:07
00059 suncat0153 pw.x -in pw.inp   Done                     01/01/2019 23:00:07
00060 suncat0153 pw.x -in pw.inp   Done                     01/01/2019 23:00:07
00061 suncat0153 pw.x -in pw.inp   Done                     01/01/2019 23:00:07
00062 suncat0153 pw.x -in pw.inp   Done                     01/01/2019 23:00:07
00063 suncat0153 pw.x -in pw.inp   Done                     01/01/2019 23:00:07