     Program PWSCF v.5.1rc2 (svn rev. 11289) starts on 30Dec2018 at 13:17:36

     Current dimensions of program PWSCF are:
     Max number of different atomic species (ntypx) = 10
     Max number of k-points (npk) =  40000
     Max angular momentum in pseudopotentials (lmaxx) =  3
     Presently stress not available with electric field

     IMPORTANT: XC functional enforced from input :
     Exchange-correlation      = BEEF-VDW ( 1  4 27 13 2)
     Any further DFT definition will be discarded
     Please, verify this is what you really want

     Subspace diagonalization in iterative solution of the eigenvalue problem:
     a serial algorithm will be used

     Generating pointlists ...
     new r_m :   0.4125 (alat units)  0.7795 (a.u.) for type    1
     new r_m :   0.4125 (alat units)  0.7795 (a.u.) for type    2

     bravais-lattice index     =            0
     lattice parameter (alat)  =       1.8897  a.u.
     unit-cell volume          =    4493.5968 (a.u.)^3
     number of atoms/cell      =           12
     number of atomic types    =            2
     number of electrons       =       171.00
     number of Kohn-Sham states=          115
     kinetic-energy cutoff     =      36.7493  Ry
     charge density cutoff     =     367.4932  Ry
     convergence threshold     =      1.0E-06
     mixing beta               =       0.1000
     number of iterations used =           10  plain     mixing
     Exchange-correlation      = BEEF-VDW ( 1  4 27 13 2)
     nstep                     =           50

     celldm(1)=   1.889726  celldm(2)=   0.000000  celldm(3)=   0.000000
     celldm(4)=   0.000000  celldm(5)=   0.000000  celldm(6)=   0.000000

     crystal axes: (cart. coord. in units of alat)
               a(1) = (   5.594361   0.000000   0.000000 )
               a(2) = (  -2.797181   4.844859   0.000000 )
               a(3) = (   0.000000   0.000000  24.567777 )

     reciprocal axes: (cart. coord. in units 2 pi/alat)
               b(1) = (  0.178751  0.103202  0.000000 )
               b(2) = (  0.000000  0.206404  0.000000 )
               b(3) = (  0.000000  0.000000  0.040704 )

     PseudoPot. # 1 for Mn read from file:
     /afs/slac.stanford.edu/u/if/mamunm/psp/gbrv1.5pbe/Mn.UPF
     MD5 check sum: 82ef2b46521d7a7d9e736dc3972e4928
     Pseudo is Ultrasoft + core correction, Zval = 15.0
     Generated by new atomic code, or converted to UPF format
     Using radial grid of  859 points,  6 beta functions with:
                l(1) =   0
                l(2) =   0
                l(3) =   1
                l(4) =   1
                l(5) =   2
                l(6) =   2
     Q(r) pseudized with  8 coefficients,  rinner =    0.950   0.950   0.950
                                                       0.950   0.950

     PseudoPot. # 2 for Cd read from file:
     /afs/slac.stanford.edu/u/if/mamunm/psp/gbrv1.5pbe/Cd.UPF
     MD5 check sum: 17164a7926edb8e0dc231208abae86a6
     Pseudo is Ultrasoft + core correction, Zval = 12.0
     Generated by new atomic code, or converted to UPF format
     Using radial grid of  889 points,  6 beta functions with:
                l(1) =   0
                l(2) =   0
                l(3) =   1
                l(4) =   1
                l(5) =   2
                l(6) =   2
     Q(r) pseudized with  6 coefficients,  rinner =    1.000   1.000   1.000
                                                       1.000   1.000

     vdW kernel table read from file vdW_kernel_table
     MD5 check sum: 095c7af220d748ca6e76c0b4c6cfb241

     atomic species   valence    mass     pseudopotential
        Mn1           15.00    54.93804     Mn( 1.00)
        Cd1           12.00   112.41400     Cd( 1.00)

     Starting magnetic structure
     atomic species   magnetization
        Mn1          0.133
        Cd1          0.167

     No symmetry found

   Cartesian axes

     site n.     atom                  positions (alat units)
         1           Mn1 tau(   1) = (   0.0000000   0.0000000  10.0000000  )
         2           Mn1 tau(   2) = (  -1.3985903   2.4224295  10.0000000  )
         3           Mn1 tau(   3) = (   1.3985903   2.4224295  10.0000000  )
         4           Cd1 tau(   4) = (   2.7971806   0.0000000  10.0000000  )
         5           Mn1 tau(   5) = (   2.7971806   1.6149530  12.2838884  )
         6           Mn1 tau(   6) = (   1.3985903   4.0373824  12.2838884  )
         7           Mn1 tau(   7) = (  -1.3985903   4.0373824  12.2838884  )
         8           Cd1 tau(   8) = (   0.0000000   1.6149530  12.2838884  )
         9           Mn1 tau(   9) = (  -0.0000000   3.2299059  14.5677768  )
        10           Mn1 tau(  10) = (   1.3985903   0.8074765  14.5677768  )
        11           Mn1 tau(  11) = (   4.1957709   0.8074765  14.5677768  )
        12           Cd1 tau(  12) = (   2.7971806   3.2299059  14.5677768  )

     number of k points=    40  Fermi-Dirac smearing, width (Ry)=  0.0110
                       cart. coord. in units 2pi/alat
        k(    1) = (   0.0000000   0.0000000   0.0000000), wk =   0.0277778
        k(    2) = (   0.0000000   0.0344007   0.0000000), wk =   0.0555556
        k(    3) = (   0.0000000   0.0688015   0.0000000), wk =   0.0555556
        k(    4) = (   0.0000000  -0.1032022   0.0000000), wk =   0.0277778
        k(    5) = (   0.0297919   0.0172004   0.0000000), wk =   0.0555556
        k(    6) = (   0.0297919   0.0516011   0.0000000), wk =   0.0555556
        k(    7) = (   0.0297919   0.0860018   0.0000000), wk =   0.0555556
        k(    8) = (   0.0297919  -0.0860018   0.0000000), wk =   0.0555556
        k(    9) = (   0.0297919  -0.0516011   0.0000000), wk =   0.0555556
        k(   10) = (   0.0297919  -0.0172004   0.0000000), wk =   0.0555556
        k(   11) = (   0.0595838   0.0344007   0.0000000), wk =   0.0555556
        k(   12) = (   0.0595838   0.0688015   0.0000000), wk =   0.0555556
        k(   13) = (   0.0595838   0.1032022   0.0000000), wk =   0.0555556
        k(   14) = (   0.0595838  -0.0688015   0.0000000), wk =   0.0555556
        k(   15) = (   0.0595838  -0.0344007   0.0000000), wk =   0.0555556
        k(   16) = (   0.0595838   0.0000000   0.0000000), wk =   0.0555556
        k(   17) = (  -0.0893757  -0.0516011   0.0000000), wk =   0.0277778
        k(   18) = (  -0.0893757  -0.0172004   0.0000000), wk =   0.0555556
        k(   19) = (  -0.0893757   0.0172004   0.0000000), wk =   0.0555556
        k(   20) = (  -0.0893757  -0.1548033   0.0000000), wk =   0.0277778
        k(   21) = (   0.0000000   0.0000000   0.0000000), wk =   0.0277778
        k(   22) = (   0.0000000   0.0344007   0.0000000), wk =   0.0555556
        k(   23) = (   0.0000000   0.0688015   0.0000000), wk =   0.0555556
        k(   24) = (   0.0000000  -0.1032022   0.0000000), wk =   0.0277778
        k(   25) = (   0.0297919   0.0172004   0.0000000), wk =   0.0555556
        k(   26) = (   0.0297919   0.0516011   0.0000000), wk =   0.0555556
        k(   27) = (   0.0297919   0.0860018   0.0000000), wk =   0.0555556
        k(   28) = (   0.0297919  -0.0860018   0.0000000), wk =   0.0555556
        k(   29) = (   0.0297919  -0.0516011   0.0000000), wk =   0.0555556
        k(   30) = (   0.0297919  -0.0172004   0.0000000), wk =   0.0555556
        k(   31) = (   0.0595838   0.0344007   0.0000000), wk =   0.0555556
        k(   32) = (   0.0595838   0.0688015   0.0000000), wk =   0.0555556
        k(   33) = (   0.0595838   0.1032022   0.0000000), wk =   0.0555556
        k(   34) = (   0.0595838  -0.0688015   0.0000000), wk =   0.0555556
        k(   35) = (   0.0595838  -0.0344007   0.0000000), wk =   0.0555556
        k(   36) = (   0.0595838   0.0000000   0.0000000), wk =   0.0555556
        k(   37) = (  -0.0893757  -0.0516011   0.0000000), wk =   0.0277778
        k(   38) = (  -0.0893757  -0.0172004   0.0000000), wk =   0.0555556
        k(   39) = (  -0.0893757   0.0172004   0.0000000), wk =   0.0555556
        k(   40) = (  -0.0893757  -0.1548033   0.0000000), wk =   0.0277778

     Largest allocated arrays     est. size (Mb)     dimensions
     Largest temporary arrays     est. size (Mb)     dimensions

     Check: negative/imaginary core charge=   -0.000007    0.000000

     Initial potential from superposition of free atoms
     Check: negative starting charge=(component1):   -0.039138
     Check: negative starting charge=(component2):   -0.028020

     starting charge  164.99911, renormalised to  171.00000

     negative rho (up, down):  4.056E-02 2.904E-02

     *
     * You are using vdW-DF for exchange-correlation in this calculation.
     * Please cite the following three references that made this development
     * possible:
     *
     *   M. Dion, H. Rydberg, E. Schroder, D. C. Langreth, and
     *   B. I. Lundqvist, Phys. Rev. Lett. 92, 246401 (2004).
     *
     *   T. Thonhauser, V. R. Cooper, S. Li, A. Puzder, P. Hyldgaard, and
     *   D. C. Langreth, Phys. Rev. B 76, 125112 (2007).
     *
     *   G. Roman-Perez and J. M. Soler, Phys. Rev. Lett. 103, 096102 (2009).
     *
     *
     * If you are using vdW-DF2, please also cite:
     *
     *   K. Lee, E. D. Murray, L. Kong, B. I. Lundqvist, and
     *   D. C. Langreth, Phys. Rev. B 82, 081101(R) (2010).
     *
     *
     * If you are calculating the stress with vdW-DF, please also cite:
     *
     *   R. Sabatini, E. Kucukbenli, B. Kolb, T. Thonhauser, and
     *   S. de Gironcoli, J. Phys.: Condens. Matter 24, 424209 (2012).
     *

     Carrying out vdW-DF run using the following parameters:

     Nqs =      20    Nr_points =    1024   r_max =   100.000
     q_mesh =
               0.00001000     0.04494208     0.09755937     0.15916263
               0.23128650     0.31572767     0.41458969     0.53033537
               0.66584808     0.82450364     1.01025438     1.22772762
               1.48234092     1.78043706     2.12944203     2.53805004
               3.01644009     3.57652955     4.23227104     5.00000000

     Gradients computed in reciprocal space

     Adding external electric field

     Computed dipole along edir(3) :
        Dipole                0.0000 Ry au,          0.0000 Debye
        Dipole field          0.0000 Ry au

        Potential amp.       -0.0000 Ry
        Total length         45.2657 bohr

[...]

     Starting wfc are  144 randomized atomic wfcs

     Self-consistent Calculation

     iteration #  1     ecut=    36.75 Ry     beta=0.10
     Davidson diagonalization with overlap
     ethr =  1.00E-02,  avg # of iterations =  5.6

[...]

     Magnetic moment per site:
     atom:    1    charge:    6.0882    magn:    0.7920    constr:    0.0000
     atom:    2    charge:    6.0882    magn:    0.7920    constr:    0.0000
     atom:    3    charge:    6.0882    magn:    0.7920    constr:    0.0000
     atom:    4    charge:    2.3314    magn:    0.3536    constr:    0.0000
     atom:    5    charge:    6.0934    magn:    0.7924    constr:    0.0000
     atom:    6    charge:    6.0934    magn:    0.7924    constr:    0.0000
     atom:    7    charge:    6.0934    magn:    0.7924    constr:    0.0000
     atom:    8    charge:    2.3319    magn:    0.3536    constr:    0.0000
[...]
        k(    2) = (   0.0000000   0.0344007   0.0000000), wk =   0.0555556
        k(    3) = (   0.0000000   0.0688015   0.0000000), wk =   0.0555556
        k(    4) = (   0.0000000  -0.1032022   0.0000000), wk =   0.0277778
        k(    5) = (   0.0297919   0.0172004   0.0000000), wk =   0.0555556
        k(    6) = (   0.0297919   0.0516011   0.0000000), wk =   0.0555556
        k(    7) = (   0.0297919   0.0860018   0.0000000), wk =   0.0555556
        k(    8) = (   0.0297919  -0.0860018   0.0000000), wk =   0.0555556
        k(    9) = (   0.0297919  -0.0516011   0.0000000), wk =   0.0555556
        k(   10) = (   0.0297919  -0.0172004   0.0000000), wk =   0.0555556
        k(   11) = (   0.0595838   0.0344007   0.0000000), wk =   0.0555556
        k(   12) = (   0.0595838   0.0688015   0.0000000), wk =   0.0555556
        k(   13) = (   0.0595838   0.1032022   0.0000000), wk =   0.0555556
        k(   14) = (   0.0595838  -0.0688015   0.0000000), wk =   0.0555556
        k(   15) = (   0.0595838  -0.0344007   0.0000000), wk =   0.0555556
        k(   16) = (   0.0595838   0.0000000   0.0000000), wk =   0.0555556
        k(   17) = (  -0.0893757  -0.0516011   0.0000000), wk =   0.0277778
        k(   18) = (  -0.0893757  -0.0172004   0.0000000), wk =   0.0555556
        k(   19) = (  -0.0893757   0.0172004   0.0000000), wk =   0.0555556
        k(   20) = (  -0.0893757  -0.1548033   0.0000000), wk =   0.0277778
        k(   21) = (   0.0000000   0.0000000   0.0000000), wk =   0.0277778
        k(   22) = (   0.0000000   0.0344007   0.0000000), wk =   0.0555556
        k(   23) = (   0.0000000   0.0688015   0.0000000), wk =   0.0555556
        k(   24) = (   0.0000000  -0.1032022   0.0000000), wk =   0.0277778
        k(   25) = (   0.0297919   0.0172004   0.0000000), wk =   0.0555556
        k(   26) = (   0.0297919   0.0516011   0.0000000), wk =   0.0555556
        k(   27) = (   0.0297919   0.0860018   0.0000000), wk =   0.0555556
        k(   28) = (   0.0297919  -0.0860018   0.0000000), wk =   0.0555556
        k(   29) = (   0.0297919  -0.0516011   0.0000000), wk =   0.0555556
        k(   30) = (   0.0297919  -0.0172004   0.0000000), wk =   0.0555556
        k(   31) = (   0.0595838   0.0344007   0.0000000), wk =   0.0555556
        k(   32) = (   0.0595838   0.0688015   0.0000000), wk =   0.0555556
        k(   33) = (   0.0595838   0.1032022   0.0000000), wk =   0.0555556
        k(   34) = (   0.0595838  -0.0688015   0.0000000), wk =   0.0555556
        k(   35) = (   0.0595838  -0.0344007   0.0000000), wk =   0.0555556
        k(   36) = (   0.0595838   0.0000000   0.0000000), wk =   0.0555556
        k(   37) = (  -0.0893757  -0.0516011   0.0000000), wk =   0.0277778
        k(   38) = (  -0.0893757  -0.0172004   0.0000000), wk =   0.0555556
        k(   39) = (  -0.0893757   0.0172004   0.0000000), wk =   0.0555556
        k(   40) = (  -0.0893757  -0.1548033   0.0000000), wk =   0.0277778

     Largest allocated arrays     est. size (Mb)     dimensions
     Largest temporary arrays     est. size (Mb)     dimensions

     Check: negative/imaginary core charge=   -0.000007    0.000000

     Initial potential from superposition of free atoms
     Check: negative starting charge=(component1):   -0.038872
     Check: negative starting charge=(component2):   -0.027832

     starting charge  164.99911, renormalised to  171.00000

[...]

     *
     * You are using vdW-DF for exchange-correlation in this calculation.
     * Please cite the following three references that made this development
     * possible:
     *
     *   M. Dion, H. Rydberg, E. Schroder, D. C. Langreth, and
     *   B. I. Lundqvist, Phys. Rev. Lett. 92, 246401 (2004).
     *
     *   T. Thonhauser, V. R. Cooper, S. Li, A. Puzder, P. Hyldgaard, and
     *   D. C. Langreth, Phys. Rev. B 76, 125112 (2007).
     *
     *   G. Roman-Perez and J. M. Soler, Phys. Rev. Lett. 103, 096102 (2009).
     *
     *
     * If you are using vdW-DF2, please also cite:
     *
     *   K. Lee, E. D. Murray, L. Kong, B. I. Lundqvist, and
     *   D. C. Langreth, Phys. Rev. B 82, 081101(R) (2010).
     *
     *
     * If you are calculating the stress with vdW-DF, please also cite:
     *
     *   R. Sabatini, E. Kucukbenli, B. Kolb, T. Thonhauser, and
     *   S. de Gironcoli, J. Phys.: Condens. Matter 24, 424209 (2012).
     *

     Carrying out vdW-DF run using the following parameters:

     Nqs =      20    Nr_points =    1024   r_max =   100.000
     q_mesh =
               0.00001000     0.04494208     0.09755937     0.15916263
               0.23128650     0.31572767     0.41458969     0.53033537
               0.66584808     0.82450364     1.01025438     1.22772762
               1.48234092     1.78043706     2.12944203     2.53805004
               3.01644009     3.57652955     4.23227104     5.00000000

     Gradients computed in reciprocal space

[...]

     Starting wfc are  144 randomized atomic wfcs

     Self-consistent Calculation

[...]

     total energy              =   -2257.02640796 Ry
     Harris-Foulkes estimate   =   -2257.02640575 Ry
     estimated scf accuracy    <       0.00000129 Ry

[...]

     iteration # 30     ecut=    36.75 Ry     beta=0.10
     Davidson diagonalization with overlap
     ethr =  7.54E-10,  avg # of iterations =  2.1

[...]

     negative rho (up, down):  3.546E-02 3.534E-02

[...]

     Adding external electric field

     Computed dipole along edir(3) :
        Dipole               -0.0211 Ry au,         -0.0535 Debye
        Dipole field         -0.0001 Ry au

        Potential amp.        0.0053 Ry
        Total length         45.2657 bohr

     Magnetic moment per site:
     atom:    1    charge:    6.0144    magn:    1.4853    constr:    0.0000
     atom:    2    charge:    6.0144    magn:    1.4853    constr:    0.0000
     atom:    3    charge:    6.0144    magn:    1.4853    constr:    0.0000
     atom:    4    charge:    2.2899    magn:    0.0108    constr:    0.0000
     atom:    5    charge:    6.0060    magn:    1.4014    constr:    0.0000
     atom:    6    charge:    6.0060    magn:    1.4014    constr:    0.0000
     atom:    7    charge:    6.0061    magn:    1.4014    constr:    0.0000
     atom:    8    charge:    2.2899    magn:    0.0114    constr:    0.0000
     atom:    9    charge:    6.0149    magn:    1.4928    constr:    0.0000
     atom:   10    charge:    6.0149    magn:    1.4928    constr:    0.0000
     atom:   11    charge:    6.0149    magn:    1.4928    constr:    0.0000
     atom:   12    charge:    2.2939    magn:    0.0092    constr:    0.0000

     End of self-consistent calculation

 ------ SPIN UP ------------

[...]

 ------ SPIN DOWN ----------

[...]

          k = 0.0596 0.0000 0.0000 ( 16892 PWs)   bands (ev):

[...]

          k =-0.0894-0.1548 0.0000 ( 16920 PWs)   bands (ev):

   -76.1159 -76.1098 -76.1091 -76.1036 -76.1030 -76.0975 -76.0013 -75.9954
   -75.9895 -44.9827 -44.9779 -44.9419 -44.9391 -44.9349 -44.9303 -44.9287
   -44.9229 -44.9204 -44.9162 -44.9156 -44.9084 -44.9071 -44.9016 -44.8955
   -44.8800 -44.8632 -44.8407 -44.8340 -44.8197 -44.8132 -44.8108 -44.8035
   -44.7796 -44.7498 -44.7380 -44.7045  -8.0691  -8.0264  -7.9932  -7.9857
    -7.9663  -7.9535  -7.9071  -7.8764  -7.8700  -7.8477  -7.8252  -7.8031
    -7.7535  -7.7274  -7.6917  -4.9803  -4.6589  -3.4522  -3.0058  -1.8910
    -1.7271  -1.4751  -0.5458  -0.4644  -0.3242   0.0276   0.2754   0.3065
     0.4000   0.5981   0.6683   0.7491   0.8578   0.9800   1.0755   1.1249
     1.1677   1.1892   1.4266   1.4554   1.4939   1.4977   1.7492   1.8105
     1.8581   1.9022   2.0247   2.0679   2.2604   2.5348   2.5782   2.6125
     2.6591   2.6625   2.6925   2.7290   2.7500   2.8688   2.8724   2.9657
     3.1202   3.1367   3.1813   3.3790   3.3861   3.4067   3.7048   3.7637
     4.2946   4.4526   4.4616   4.7021   5.0884   5.3367   5.8354   5.8693
     6.3315   6.3840   6.7837

     the Fermi energy is     0.8131 ev

!    total energy              =   -2257.02641860 Ry
     Harris-Foulkes estimate   =   -2257.02640840 Ry
     estimated scf accuracy    <       0.00000062 Ry

     The total energy is the sum of the following terms:

     one-electron contribution =  -16551.44654276 Ry
     hartree contribution      =    8296.03999692 Ry
     xc contribution           =    -371.59606064 Ry
     ewald contribution        =    6370.04328826 Ry
     electric field correction =       0.00000124 Ry
     smearing contrib. (-TS)   =      -0.06710163 Ry

     total magnetization       =    34.07 Bohr mag/cell
     absolute magnetization    =    35.31 Bohr mag/cell

     convergence has been achieved in  30 iterations

 BEEF-vdW xc energy contributions
           1 :   -324.917028742879
           2 :    294.506936068401
           3 :   -244.022903649271
           4 :    188.573518002378
           5 :   -140.952920012289
           6 :    107.261665964965
           7 :   -86.7821371038340
           8 :    74.8137054752416
           9 :   -66.1374871225044
          10 :    57.3599660937141
          11 :   -47.5570727732018
          12 :    37.6071896035031
          13 :   -29.0339057038242
          14 :    23.0064567737363
          15 :   -19.7557902308507
          16 :    18.4657111940287
          17 :   -17.6863321853505
          18 :    16.1403827977431
          19 :   -13.4723144361167
          20 :    10.4084281122481
          21 :   -8.18241489104645
          22 :    7.62231666469410
          23 :   -8.54748930197121
          24 :    9.89036852782641
          25 :   -10.4366473517759
          26 :    9.63349088584698
          27 :   -7.89131354524199
          28 :    6.20896887897032
          29 :   -5.45716310818466
          30 :    5.84454443126839
          31 :   -29.1435437781082
          32 :   -20.7860014866768

     Forces acting on atoms (Ry/au):

     negative rho (up, down):  3.546E-02 3.534E-02
     atom    1 type  1   force =    -0.00000274   -0.00504864   -0.00467826
     atom    2 type  1   force =    -0.00436677    0.00252543   -0.00468573
     atom    3 type  1   force =     0.00436705    0.00252759   -0.00468229
     atom    4 type  2   force =     0.00000949   -0.00000492   -0.02824528
     atom    5 type  1   force =     0.00001513    0.00520194    0.01040463
     atom    6 type  1   force =     0.00450590   -0.00259384    0.01042778
     atom    7 type  1   force =    -0.00450288   -0.00261133    0.01039373
     atom    8 type  2   force =    -0.00003738    0.00000161    0.01091357
     atom    9 type  1   force =    -0.00000660   -0.00055765   -0.00002949
     atom   10 type  1   force =    -0.00049241    0.00027850    0.00001699
     atom   11 type  1   force =     0.00049185    0.00028413   -0.00000427
     atom   12 type  2   force =     0.00001936   -0.00000282    0.00016862

     Total force =     0.038292     Total SCF correction =     0.003291

     entering subroutine stress ...

     negative rho (up, down):  3.546E-02 3.534E-02
          total   stress  (Ry/bohr**3)                   (kbar)     P=    6.07
   0.00004900  -0.00000000   0.00000000          7.21     -0.00      0.00
  -0.00000000   0.00004900  -0.00000000         -0.00      7.21     -0.00
   0.00000000  -0.00000000   0.00002586          0.00     -0.00      3.80

 !ASE

     Writing output data file calc.save

     General routines

     Parallel routines

   This run was terminated on:  19:43: 5  30Dec2018

   JOB DONE.
Job  /afs/slac/g/suncat/bin/suncat-tsmpirun -x LD_LIBRARY_PATH -wdir /scratch/qe648568_BCHQB pw.x -in pw.inp

TID   HOST_NAME   COMMAND_LINE            STATUS            TERMINATION_TIME
00000 suncat0259 pw.x -in pw.inp   Done                     12/30/2018 19:43:05
00001 suncat0259 pw.x -in pw.inp   Done                     12/30/2018 19:43:05
00002 suncat0259 pw.x -in pw.inp   Done                     12/30/2018 19:43:05
00003 suncat0259 pw.x -in pw.inp   Done                     12/30/2018 19:43:05
00004 suncat0259 pw.x -in pw.inp   Done                     12/30/2018 19:43:05
00005 suncat0259 pw.x -in pw.inp   Done                     12/30/2018 19:43:05
00006 suncat0259 pw.x -in pw.inp   Done                     12/30/2018 19:43:05
00007 suncat0259 pw.x -in pw.inp   Done                     12/30/2018 19:43:05
00008 suncat0256 pw.x -in pw.inp   Done                     12/30/2018 19:43:05
00009 suncat0256 pw.x -in pw.inp   Done                     12/30/2018 19:43:05
00010 suncat0256 pw.x -in pw.inp   Done                     12/30/2018 19:43:05
00011 suncat0256 pw.x -in pw.inp   Done                     12/30/2018 19:43:05
00012 suncat0256 pw.x -in pw.inp   Done                     12/30/2018 19:43:05
00013 suncat0256 pw.x -in pw.inp   Done                     12/30/2018 19:43:05
00014 suncat0256 pw.x -in pw.inp   Done                     12/30/2018 19:43:05
00015 suncat0256 pw.x -in pw.inp   Done                     12/30/2018 19:43:05
00016 suncat0255 pw.x -in pw.inp   Done                     12/30/2018 19:43:05
00017 suncat0255 pw.x -in pw.inp   Done                     12/30/2018 19:43:05
00018 suncat0255 pw.x -in pw.inp   Done                     12/30/2018 19:43:05
00019 suncat0255 pw.x -in pw.inp   Done                     12/30/2018 19:43:05
00020 suncat0255 pw.x -in pw.inp   Done                     12/30/2018 19:43:05
00021 suncat0255 pw.x -in pw.inp   Done                     12/30/2018 19:43:05
00022 suncat0255 pw.x -in pw.inp   Done                     12/30/2018 19:43:05
00023 suncat0255 pw.x -in pw.inp   Done                     12/30/2018 19:43:05
00024 suncat0232 pw.x -in pw.inp   Done                     12/30/2018 19:43:05
00025 suncat0232 pw.x -in pw.inp   Done                     12/30/2018 19:43:05
00026 suncat0232 pw.x -in pw.inp   Done                     12/30/2018 19:43:05
00027 suncat0232 pw.x -in pw.inp   Done                     12/30/2018 19:43:05
00028 suncat0232 pw.x -in pw.inp   Done                     12/30/2018 19:43:05
00029 suncat0232 pw.x -in pw.inp   Done                     12/30/2018 19:43:05
00030 suncat0232 pw.x -in pw.inp   Done                     12/30/2018 19:43:05
00031 suncat0232 pw.x -in pw.inp   Done                     12/30/2018 19:43:05
00032 suncat0220 pw.x -in pw.inp   Done                     12/30/2018 19:43:05
00033 suncat0220 pw.x -in pw.inp   Done                     12/30/2018 19:43:05
00034 suncat0220 pw.x -in pw.inp   Done                     12/30/2018 19:43:05
00035 suncat0220 pw.x -in pw.inp   Done                     12/30/2018 19:43:05
00036 suncat0220 pw.x -in pw.inp   Done                     12/30/2018 19:43:05
00037 suncat0220 pw.x -in pw.inp   Done                     12/30/2018 19:43:05
00038 suncat0220 pw.x -in pw.inp   Done                     12/30/2018 19:43:05
00039 suncat0220 pw.x -in pw.inp   Done                     12/30/2018 19:43:05
00040 suncat0219 pw.x -in pw.inp   Done                     12/30/2018 19:43:05
00041 suncat0219 pw.x -in pw.inp   Done                     12/30/2018 19:43:05
00042 suncat0219 pw.x -in pw.inp   Done                     12/30/2018 19:43:05
00043 suncat0219 pw.x -in pw.inp   Done                     12/30/2018 19:43:05
00044 suncat0219 pw.x -in pw.inp   Done                     12/30/2018 19:43:05
00045 suncat0219 pw.x -in pw.inp   Done                     12/30/2018 19:43:05
00046 suncat0219 pw.x -in pw.inp   Done                     12/30/2018 19:43:05
00047 suncat0219 pw.x -in pw.inp   Done                     12/30/2018 19:43:05
00048 suncat0201 pw.x -in pw.inp   Done                     12/30/2018 19:43:05
00049 suncat0201 pw.x -in pw.inp   Done                     12/30/2018 19:43:05
00050 suncat0201 pw.x -in pw.inp   Done                     12/30/2018 19:43:05
00051 suncat0201 pw.x -in pw.inp   Done                     12/30/2018 19:43:05
00052 suncat0201 pw.x -in pw.inp   Done                     12/30/2018 19:43:05
00053 suncat0201 pw.x -in pw.inp   Done                     12/30/2018 19:43:05
00054 suncat0201 pw.x -in pw.inp   Done                     12/30/2018 19:43:05
00055 suncat0201 pw.x -in pw.inp   Done                     12/30/2018 19:43:05
00056 suncat0200 pw.x -in pw.inp   Done                     12/30/2018 19:43:05
00057 suncat0200 pw.x -in pw.inp   Done                     12/30/2018 19:43:05
00058 suncat0200 pw.x -in pw.inp   Done                     12/30/2018 19:43:05
00059 suncat0200 pw.x -in pw.inp   Done                     12/30/2018 19:43:05
00060 suncat0200 pw.x -in pw.inp   Done                     12/30/2018 19:43:05
00061 suncat0200 pw.x -in pw.inp   Done                     12/30/2018 19:43:05
00062 suncat0200 pw.x -in pw.inp   Done                     12/30/2018 19:43:05
00063 suncat0200 pw.x -in pw.inp   Done                     12/30/2018 19:43:05