     Program PWSCF v.5.1rc2 (svn rev. 11289) starts on 26Dec2018 at  8:58: 3

     Current dimensions of program PWSCF are:
     Max number of different atomic species (ntypx) = 10
     Max number of k-points (npk) =  40000
     Max angular momentum in pseudopotentials (lmaxx) =  3
     Presently stress not available with electric field

     IMPORTANT: XC functional enforced from input :
     Exchange-correlation      = BEEF-VDW ( 1  4 27 13 2)
     Any further DFT definition will be discarded
     Please, verify this is what you really want

     Subspace diagonalization in iterative solution of the eigenvalue problem:
     a serial algorithm will be used

     Generating pointlists ...
     new r_m :   0.4125 (alat units)  0.7795 (a.u.) for type    1
     new r_m :   0.4125 (alat units)  0.7795 (a.u.) for type    2

     bravais-lattice index     =            0
     lattice parameter (alat)  =       1.8897  a.u.
     unit-cell volume          =    5996.0401 (a.u.)^3
     number of atoms/cell      =           12
     number of atomic types    =            2
     number of electrons       =       153.00
     number of Kohn-Sham states=          106
     kinetic-energy cutoff     =      36.7493  Ry
     charge density cutoff     =     367.4932  Ry
     convergence threshold     =      1.0E-06
     mixing beta               =       0.1000
     number of iterations used =           10  plain     mixing
     Exchange-correlation      = BEEF-VDW ( 1  4 27 13 2)
     nstep                     =           50

     celldm(1)=   1.889726  celldm(2)=   0.000000  celldm(3)=   0.000000
     celldm(4)=   0.000000  celldm(5)=   0.000000  celldm(6)=   0.000000

     crystal axes: (cart. coord. in units of alat)
               a(1) = (   6.379574   0.000000   0.000000 )
               a(2) = (  -3.189787   5.524873   0.000000 )
               a(3) = (   0.000000   0.000000  25.208901 )

     reciprocal axes: (cart. coord. in units 2 pi/alat)
               b(1) = (  0.156750  0.090500  0.000000 )
               b(2) = (  0.000000  0.181000  0.000000 )
               b(3) = (  0.000000  0.000000  0.039669 )

     PseudoPot. # 1 for Hg read from file:
     /afs/slac.stanford.edu/u/if/mamunm/psp/gbrv1.5pbe/Hg.UPF
     MD5 check sum: 8f42caffe07f7fd9c0a564347f8c5498
     Pseudo is Ultrasoft + core correction, Zval = 12.0
     Generated by new atomic code, or converted to UPF format
     Using radial grid of  985 points,  6 beta functions with:
                l(1) =   0
                l(2) =   0
                l(3) =   1
                l(4) =   1
                l(5) =   2
                l(6) =   2
     Q(r) pseudized with  8 coefficients,  rinner =    2.000   2.000   2.000
                                                       2.000   2.000

     PseudoPot. # 2 for Mn read from file:
     /afs/slac.stanford.edu/u/if/mamunm/psp/gbrv1.5pbe/Mn.UPF
     MD5 check sum: 82ef2b46521d7a7d9e736dc3972e4928
     Pseudo is Ultrasoft + core correction, Zval = 15.0
     Generated by new atomic code, or converted to UPF format
     Using radial grid of  859 points,  6 beta functions with:
                l(1) =   0
                l(2) =   0
                l(3) =   1
                l(4) =   1
                l(5) =   2
                l(6) =   2
     Q(r) pseudized with  8 coefficients,  rinner =    0.950   0.950   0.950
                                                       0.950   0.950

     vdW kernel table read from file vdW_kernel_table
     MD5 check sum: 095c7af220d748ca6e76c0b4c6cfb241

     atomic species   valence    mass     pseudopotential
        Hg1           12.00   200.59200     Hg( 1.00)
        Mn1           15.00    54.93804     Mn( 1.00)

     Starting magnetic structure
     atomic species   magnetization
        Hg1          0.167
        Mn1          0.133

     No symmetry found

   Cartesian axes

     site n.     atom                  positions (alat units)
         1           Hg1 tau(   1) = (   0.0000000   0.0000000  10.0000000  )
         2           Hg1 tau(   2) = (  -1.5948936   2.7624367  10.0000000  )
         3           Hg1 tau(   3) = (   1.5948936   2.7624367  10.0000000  )
         4           Mn1 tau(   4) = (   3.1897871   0.0000000  10.0000000  )
         5           Hg1 tau(   5) = (   3.1897871   1.8416245  12.6044503  )
         6           Hg1 tau(   6) = (   1.5948936   4.6040611  12.6044503  )
         7           Hg1 tau(   7) = (  -1.5948936   4.6040611  12.6044503  )
         8           Mn1 tau(   8) = (   0.0000000   1.8416245  12.6044503  )
         9           Hg1 tau(   9) = (  -0.0000000   3.6832489  15.2089006  )
        10           Hg1 tau(  10) = (   1.5948936   0.9208122  15.2089006  )
        11           Hg1 tau(  11) = (   4.7846807   0.9208122  15.2089006  )
        12           Mn1 tau(  12) = (   3.1897871   3.6832489  15.2089006  )

     number of k points=    40  Fermi-Dirac smearing, width (Ry)=  0.0110
                       cart. coord. in units 2pi/alat
        k(    1) = (   0.0000000   0.0000000   0.0000000), wk =   0.0277778
        k(    2) = (   0.0000000   0.0301666   0.0000000), wk =   0.0555556
        k(    3) = (   0.0000000   0.0603332   0.0000000), wk =   0.0555556
        k(    4) = (   0.0000000  -0.0904998   0.0000000), wk =   0.0277778
        k(    5) = (   0.0261250   0.0150833   0.0000000), wk =   0.0555556
        k(    6) = (   0.0261250   0.0452499   0.0000000), wk =   0.0555556
        k(    7) = (   0.0261250   0.0754165   0.0000000), wk =   0.0555556
        k(    8) = (   0.0261250  -0.0754165   0.0000000), wk =   0.0555556
        k(    9) = (   0.0261250  -0.0452499   0.0000000), wk =   0.0555556
        k(   10) = (   0.0261250  -0.0150833   0.0000000), wk =   0.0555556
        k(   11) = (   0.0522501   0.0301666   0.0000000), wk =   0.0555556
        k(   12) = (   0.0522501   0.0603332   0.0000000), wk =   0.0555556
        k(   13) = (   0.0522501   0.0904998   0.0000000), wk =   0.0555556
        k(   14) = (   0.0522501  -0.0603332   0.0000000), wk =   0.0555556
        k(   15) = (   0.0522501  -0.0301666   0.0000000), wk =   0.0555556
        k(   16) = (   0.0522501   0.0000000   0.0000000), wk =   0.0555556
        k(   17) = (  -0.0783751  -0.0452499   0.0000000), wk =   0.0277778
        k(   18) = (  -0.0783751  -0.0150833   0.0000000), wk =   0.0555556
        k(   19) = (  -0.0783751   0.0150833   0.0000000), wk =   0.0555556
        k(   20) = (  -0.0783751  -0.1357497   0.0000000), wk =   0.0277778
        k(   21) = (   0.0000000   0.0000000   0.0000000), wk =   0.0277778
        k(   22) = (   0.0000000   0.0301666   0.0000000), wk =   0.0555556
        k(   23) = (   0.0000000   0.0603332   0.0000000), wk =   0.0555556
        k(   24) = (   0.0000000  -0.0904998   0.0000000), wk =   0.0277778
        k(   25) = (   0.0261250   0.0150833   0.0000000), wk =   0.0555556
        k(   26) = (   0.0261250   0.0452499   0.0000000), wk =   0.0555556
        k(   27) = (   0.0261250   0.0754165   0.0000000), wk =   0.0555556
        k(   28) = (   0.0261250  -0.0754165   0.0000000), wk =   0.0555556
        k(   29) = (   0.0261250  -0.0452499   0.0000000), wk =   0.0555556
        k(   30) = (   0.0261250  -0.0150833   0.0000000), wk =   0.0555556
        k(   31) = (   0.0522501   0.0301666   0.0000000), wk =   0.0555556
        k(   32) = (   0.0522501   0.0603332   0.0000000), wk =   0.0555556
        k(   33) = (   0.0522501   0.0904998   0.0000000), wk =   0.0555556
        k(   34) = (   0.0522501  -0.0603332   0.0000000), wk =   0.0555556
        k(   35) = (   0.0522501  -0.0301666   0.0000000), wk =   0.0555556
        k(   36) = (   0.0522501   0.0000000   0.0000000), wk =   0.0555556
        k(   37) = (  -0.0783751  -0.0452499   0.0000000), wk =   0.0277778
        k(   38) = (  -0.0783751  -0.0150833   0.0000000), wk =   0.0555556
        k(   39) = (  -0.0783751   0.0150833   0.0000000), wk =   0.0555556
        k(   40) = (  -0.0783751  -0.1357497   0.0000000), wk =   0.0277778

     Largest allocated arrays     est. size (Mb)     dimensions
     Largest temporary arrays     est. size (Mb)     dimensions

     Check: negative/imaginary core charge=   -0.000002    0.000000

     Initial potential from superposition of free atoms
     Check: negative starting charge=(component1):   -0.000994
     Check: negative starting charge=(component2):   -0.000763

     starting charge  151.49922, renormalised to  153.00000

     negative rho (up, down):  1.004E-03 7.704E-04

     *
     * You are using vdW-DF for exchange-correlation in this calculation.
     * Please cite the following three references that made this development
     * possible:
     *
     *   M. Dion, H. Rydberg, E. Schroder, D. C. Langreth, and
     *   B. I. Lundqvist, Phys. Rev. Lett. 92, 246401 (2004).
     *
     *   T. Thonhauser, V. R. Cooper, S. Li, A. Puzder, P. Hyldgaard, and
     *   D. C. Langreth, Phys. Rev. B 76, 125112 (2007).
     *
     *   G. Roman-Perez and J. M. Soler, Phys. Rev. Lett. 103, 096102 (2009).
     *
     *
     * If you are using vdW-DF2, please also cite:
     *
     *   K. Lee, E. D. Murray, L. Kong, B. I. Lundqvist, and
     *   D. C. Langreth, Phys. Rev. B 82, 081101(R) (2010).
     *
     *
     * If you are calculating the stress with vdW-DF, please also cite:
     *
     *   R. Sabatini, E. Kucukbenli, B. Kolb, T. Thonhauser, and
     *   S. de Gironcoli, J. Phys.: Condens. Matter 24, 424209 (2012).
     *

     Carrying out vdW-DF run using the following parameters:

     Nqs =      20    Nr_points =    1024   r_max =   100.000
     q_mesh =
               0.00001000     0.04494208     0.09755937     0.15916263
               0.23128650     0.31572767     0.41458969     0.53033537
               0.66584808     0.82450364     1.01025438     1.22772762
               1.48234092     1.78043706     2.12944203     2.53805004
               3.01644009     3.57652955     4.23227104     5.00000000

     Gradients computed in reciprocal space

     Adding external electric field

     Computed dipole along edir(3) :
        Dipole                0.0000 Ry au,          0.0000 Debye
        Dipole field          0.0000 Ry au

        Potential amp.       -0.0000 Ry
        Total length         46.4470 bohr

[...]

     Starting wfc are  120 randomized atomic wfcs

     Self-consistent Calculation

     iteration #  1     ecut=    36.75 Ry     beta=0.10
     Davidson diagonalization with overlap
     ethr =  1.00E-02,  avg # of iterations =  9.3

[...]

     Magnetic moment per site:
     atom:    1    charge:    1.9578    magn:    0.2962    constr:    0.0000
     atom:    2    charge:    1.9561    magn:    0.2959    constr:    0.0000
     atom:    3    charge:    1.9561    magn:    0.2959    constr:    0.0000
     atom:    4    charge:    6.1100    magn:    0.7980    constr:    0.0000
     atom:    5    charge:    1.9576    magn:    0.2961    constr:    0.0000
     atom:    6    charge:    1.9559    magn:    0.2959    constr:    0.0000
     atom:    7    charge:    1.9559    magn:    0.2959    constr:    0.0000
     atom:    8    charge:    6.0886    magn:    0.8172    constr:    0.0000
[...]
        k(    1) = (   0.0000000   0.0000000   0.0000000), wk =   0.0277778
        k(    2) = (   0.0000000   0.0301666   0.0000000), wk =   0.0555556
        k(    3) = (   0.0000000   0.0603332   0.0000000), wk =   0.0555556
        k(    4) = (   0.0000000  -0.0904998   0.0000000), wk =   0.0277778
        k(    5) = (   0.0261250   0.0150833   0.0000000), wk =   0.0555556
        k(    6) = (   0.0261250   0.0452499   0.0000000), wk =   0.0555556
        k(    7) = (   0.0261250   0.0754165   0.0000000), wk =   0.0555556
        k(    8) = (   0.0261250  -0.0754165   0.0000000), wk =   0.0555556
        k(    9) = (   0.0261250  -0.0452499   0.0000000), wk =   0.0555556
        k(   10) = (   0.0261250  -0.0150833   0.0000000), wk =   0.0555556
        k(   11) = (   0.0522501   0.0301666   0.0000000), wk =   0.0555556
        k(   12) = (   0.0522501   0.0603332   0.0000000), wk =   0.0555556
        k(   13) = (   0.0522501   0.0904998   0.0000000), wk =   0.0555556
        k(   14) = (   0.0522501  -0.0603332   0.0000000), wk =   0.0555556
        k(   15) = (   0.0522501  -0.0301666   0.0000000), wk =   0.0555556
        k(   16) = (   0.0522501   0.0000000   0.0000000), wk =   0.0555556
        k(   17) = (  -0.0783751  -0.0452499   0.0000000), wk =   0.0277778
        k(   18) = (  -0.0783751  -0.0150833   0.0000000), wk =   0.0555556
        k(   19) = (  -0.0783751   0.0150833   0.0000000), wk =   0.0555556
        k(   20) = (  -0.0783751  -0.1357497   0.0000000), wk =   0.0277778
        k(   21) = (   0.0000000   0.0000000   0.0000000), wk =   0.0277778
        k(   22) = (   0.0000000   0.0301666   0.0000000), wk =   0.0555556
        k(   23) = (   0.0000000   0.0603332   0.0000000), wk =   0.0555556
        k(   24) = (   0.0000000  -0.0904998   0.0000000), wk =   0.0277778
        k(   25) = (   0.0261250   0.0150833   0.0000000), wk =   0.0555556
        k(   26) = (   0.0261250   0.0452499   0.0000000), wk =   0.0555556
        k(   27) = (   0.0261250   0.0754165   0.0000000), wk =   0.0555556
        k(   28) = (   0.0261250  -0.0754165   0.0000000), wk =   0.0555556
        k(   29) = (   0.0261250  -0.0452499   0.0000000), wk =   0.0555556
        k(   30) = (   0.0261250  -0.0150833   0.0000000), wk =   0.0555556
        k(   31) = (   0.0522501   0.0301666   0.0000000), wk =   0.0555556
        k(   32) = (   0.0522501   0.0603332   0.0000000), wk =   0.0555556
        k(   33) = (   0.0522501   0.0904998   0.0000000), wk =   0.0555556
        k(   34) = (   0.0522501  -0.0603332   0.0000000), wk =   0.0555556
        k(   35) = (   0.0522501  -0.0301666   0.0000000), wk =   0.0555556
        k(   36) = (   0.0522501   0.0000000   0.0000000), wk =   0.0555556
        k(   37) = (  -0.0783751  -0.0452499   0.0000000), wk =   0.0277778
        k(   38) = (  -0.0783751  -0.0150833   0.0000000), wk =   0.0555556
        k(   39) = (  -0.0783751   0.0150833   0.0000000), wk =   0.0555556
        k(   40) = (  -0.0783751  -0.1357497   0.0000000), wk =   0.0277778

     Largest allocated arrays     est. size (Mb)     dimensions
     Largest temporary arrays     est. size (Mb)     dimensions

     Check: negative/imaginary core charge=   -0.000002    0.000000

     Initial potential from superposition of free atoms
     Check: negative starting charge=(component1):   -0.000951
     Check: negative starting charge=(component2):   -0.000730

     starting charge  151.49922, renormalised to  153.00000

[...]

     *
     * You are using vdW-DF for exchange-correlation in this calculation.
     * Please cite the following three references that made this development
     * possible:
     *
     *   M. Dion, H. Rydberg, E. Schroder, D. C. Langreth, and
     *   B. I. Lundqvist, Phys. Rev. Lett. 92, 246401 (2004).
     *
     *   T. Thonhauser, V. R. Cooper, S. Li, A. Puzder, P. Hyldgaard, and
     *   D. C. Langreth, Phys. Rev. B 76, 125112 (2007).
     *
     *   G. Roman-Perez and J. M. Soler, Phys. Rev. Lett. 103, 096102 (2009).
     *
     *
     * If you are using vdW-DF2, please also cite:
     *
     *   K. Lee, E. D. Murray, L. Kong, B. I. Lundqvist, and
     *   D. C. Langreth, Phys. Rev. B 82, 081101(R) (2010).
     *
     *
     * If you are calculating the stress with vdW-DF, please also cite:
     *
     *   R. Sabatini, E. Kucukbenli, B. Kolb, T. Thonhauser, and
     *   S. de Gironcoli, J. Phys.: Condens. Matter 24, 424209 (2012).
     *

     Carrying out vdW-DF run using the following parameters:

     Nqs =      20    Nr_points =    1024   r_max =   100.000
     q_mesh =
               0.00001000     0.04494208     0.09755937     0.15916263
               0.23128650     0.31572767     0.41458969     0.53033537
               0.66584808     0.82450364     1.01025438     1.22772762
               1.48234092     1.78043706     2.12944203     2.53805004
               3.01644009     3.57652955     4.23227104     5.00000000

     Gradients computed in reciprocal space

[...]

     Starting wfc are  120 randomized atomic wfcs

     Self-consistent Calculation

[...]

     total energy              =   -1618.09471290 Ry
     Harris-Foulkes estimate   =   -1618.09471253 Ry
     estimated scf accuracy    <       0.00000416 Ry

[...]

     iteration # 21     ecut=    36.75 Ry     beta=0.10
     Davidson diagonalization with overlap
     ethr =  2.72E-09,  avg # of iterations =  1.1

[...]

     negative rho (up, down):  1.117E-03 9.770E-04

[...]

     Adding external electric field

     Computed dipole along edir(3) :
        Dipole               -0.0154 Ry au,         -0.0392 Debye
        Dipole field         -0.0000 Ry au

        Potential amp.        0.0030 Ry
        Total length         46.4470 bohr

     Magnetic moment per site:
     atom:    1    charge:    1.9826    magn:    0.0036    constr:    0.0000
     atom:    2    charge:    1.9810    magn:    0.0036    constr:    0.0000
     atom:    3    charge:    1.9810    magn:    0.0036    constr:    0.0000
     atom:    4    charge:    6.0273    magn:    1.6796    constr:    0.0000
     atom:    5    charge:    1.9857    magn:    0.0045    constr:    0.0000
     atom:    6    charge:    1.9840    magn:    0.0045    constr:    0.0000
     atom:    7    charge:    1.9840    magn:    0.0045    constr:    0.0000
     atom:    8    charge:    6.0274    magn:    1.6706    constr:    0.0000
     atom:    9    charge:    1.9805    magn:    0.0029    constr:    0.0000
     atom:   10    charge:    1.9785    magn:    0.0029    constr:    0.0000
     atom:   11    charge:    1.9785    magn:    0.0029    constr:    0.0000
     atom:   12    charge:    6.0273    magn:    1.6633    constr:    0.0000

     End of self-consistent calculation

 ------ SPIN UP ------------

[...]

 ------ SPIN DOWN ----------

[...]

          k = 0.0523 0.0000 0.0000 ( 22587 PWs)   bands (ev):

[...]

          k =-0.0784-0.1357 0.0000 ( 22544 PWs)   bands (ev):

   -77.1706 -77.1132 -77.0563 -46.0040 -45.9507 -45.9506 -45.9412 -45.8966
   -45.8965 -45.8703 -45.8500 -45.8499  -7.4013  -7.2262  -7.1940  -7.0846
    -7.0282  -7.0177  -6.9730  -6.9482  -6.9425  -6.9034  -6.8496  -6.8452
    -6.8133  -6.7077  -6.7064  -6.6518  -6.6050  -6.6043  -6.5215  -6.4878
    -6.4802  -6.4748  -6.3910  -6.3825  -6.3768  -6.3590  -6.3482  -6.3379
    -6.3369  -6.3100  -6.3010  -6.2907  -6.2654  -6.2444  -6.2362  -6.2017
    -6.1972  -6.1394  -6.1110  -6.0278  -5.9976  -5.9476  -5.9090  -5.8986
    -5.7559  -5.6699  -5.6430  -4.4719  -4.3310  -3.3345  -2.8797  -2.7075
    -1.7596  -1.2774  -0.5570  -0.4978   0.3644   0.6869   0.7239   0.8036
     0.8669   0.9845   1.0950   1.1038   1.2721   1.3577   1.4487   1.4568
     1.6949   1.7334   1.7920   2.1374   2.1697   2.4186   3.2490   3.5909
     3.6644   3.8417   4.1414   4.3102   4.3471   4.7481   4.7749   4.9407
     5.2045   5.3154   5.6782   5.7033   5.8742   6.1247   6.2103   6.2999
     6.4485   6.5334

     the Fermi energy is     0.4967 ev

!    total energy              =   -1618.09471430 Ry
     Harris-Foulkes estimate   =   -1618.09471312 Ry
     estimated scf accuracy    <       0.00000078 Ry

     The total energy is the sum of the following terms:

     one-electron contribution =   -9434.95661411 Ry
     hartree contribution      =    4782.32887550 Ry
     xc contribution           =    -446.81664112 Ry
     ewald contribution        =    3481.39545826 Ry
     electric field correction =       0.00000050 Ry
     smearing contrib. (-TS)   =      -0.04579333 Ry

     total magnetization       =    13.66 Bohr mag/cell
     absolute magnetization    =    14.10 Bohr mag/cell

     convergence has been achieved in  21 iterations

 BEEF-vdW xc energy contributions
           1 :   -391.392951831319
           2 :    358.385425000458
           3 :   -302.068770712579
           4 :    237.000668172524
           5 :   -176.520056797706
           6 :    128.790774667435
           7 :   -95.9459593761518
           8 :    75.4438567376797
           9 :   -62.4162645140158
          10 :    52.1174447169083
          11 :   -41.7388379059163
          12 :    30.9428101163146
          13 :   -21.0255805771994
          14 :    13.4096886074195
          15 :   -8.51316594484740
          16 :    5.59915178628421
          17 :   -3.43808207153393
          18 :    1.13379668455724
          19 :    1.44181410392855
          20 :   -3.76991113543585
          21 :    5.17227479630071
          22 :   -5.33497229516058
          23 :    4.56062545681141
          24 :   -3.61410687195092
          25 :    3.26969727355475
          26 :   -3.86352262534763
          27 :    5.13246670979470
          28 :   -6.41102723050756
          29 :    7.02571262635695
          30 :   -6.65278330158020
          31 :   -36.0478153235959
          32 :   -26.2053702803748

     Forces acting on atoms (Ry/au):

     negative rho (up, down):  1.117E-03 9.770E-04
     atom    1 type  1   force =     0.00000069    0.00275285   -0.01327657
     atom    2 type  1   force =     0.00238738   -0.00137720   -0.01327773
     atom    3 type  1   force =    -0.00238707   -0.00137796   -0.01327577
     atom    4 type  2   force =    -0.00000022   -0.00000253    0.01340151
     atom    5 type  1   force =    -0.00000183   -0.01063219    0.00733408
     atom    6 type  1   force =    -0.00921132    0.00531492    0.00733178
     atom    7 type  1   force =     0.00921185    0.00531662    0.00733072
     atom    8 type  2   force =     0.00000096    0.00000198    0.00156065
     atom    9 type  1   force =    -0.00000068   -0.00059165    0.00051784
     atom   10 type  1   force =    -0.00051006    0.00029508    0.00051976
     atom   11 type  1   force =     0.00051104    0.00029519    0.00052053
     atom   12 type  2   force =    -0.00000075    0.00000490    0.00131321

     Total force =     0.035182     Total SCF correction =     0.001919

     entering subroutine stress ...

     negative rho (up, down):  1.117E-03 9.770E-04
          total   stress  (Ry/bohr**3)                   (kbar)     P=   -1.14
  -0.00002147  -0.00000000  -0.00000000         -3.16     -0.00     -0.00
  -0.00000000  -0.00002149  -0.00000000         -0.00     -3.16     -0.00
  -0.00000000  -0.00000000   0.00001967         -0.00     -0.00      2.89

 !ASE

     Writing output data file calc.save

     General routines

     Parallel routines

   This run was terminated on:  13:34:15  26Dec2018

   JOB DONE.
Job  /afs/slac/g/suncat/bin/suncat-tsmpirun -x LD_LIBRARY_PATH -wdir /scratch/qe109811_OxcN4 pw.x -in pw.inp

TID   HOST_NAME   COMMAND_LINE            STATUS            TERMINATION_TIME
00000 suncat0077 pw.x -in pw.inp   Done                     12/26/2018 13:34:15
00001 suncat0077 pw.x -in pw.inp   Done                     12/26/2018 13:34:15
00002 suncat0077 pw.x -in pw.inp   Done                     12/26/2018 13:34:15
00003 suncat0077 pw.x -in pw.inp   Done                     12/26/2018 13:34:15
00004 suncat0077 pw.x -in pw.inp   Done                     12/26/2018 13:34:15
00005 suncat0077 pw.x -in pw.inp   Done                     12/26/2018 13:34:15
00006 suncat0077 pw.x -in pw.inp   Done                     12/26/2018 13:34:15
00007 suncat0077 pw.x -in pw.inp   Done                     12/26/2018 13:34:15
00008 suncat0069 pw.x -in pw.inp   Done                     12/26/2018 13:34:15
00009 suncat0069 pw.x -in pw.inp   Done                     12/26/2018 13:34:15
00010 suncat0069 pw.x -in pw.inp   Done                     12/26/2018 13:34:15
00011 suncat0069 pw.x -in pw.inp   Done                     12/26/2018 13:34:15
00012 suncat0069 pw.x -in pw.inp   Done                     12/26/2018 13:34:15
00013 suncat0069 pw.x -in pw.inp   Done                     12/26/2018 13:34:15
00014 suncat0069 pw.x -in pw.inp   Done                     12/26/2018 13:34:15
00015 suncat0069 pw.x -in pw.inp   Done                     12/26/2018 13:34:15
00016 suncat0065 pw.x -in pw.inp   Done                     12/26/2018 13:34:15
00017 suncat0065 pw.x -in pw.inp   Done                     12/26/2018 13:34:15
00018 suncat0065 pw.x -in pw.inp   Done                     12/26/2018 13:34:15
00019 suncat0065 pw.x -in pw.inp   Done                     12/26/2018 13:34:15
00020 suncat0065 pw.x -in pw.inp   Done                     12/26/2018 13:34:15
00021 suncat0065 pw.x -in pw.inp   Done                     12/26/2018 13:34:15
00022 suncat0065 pw.x -in pw.inp   Done                     12/26/2018 13:34:15
00023 suncat0065 pw.x -in pw.inp   Done                     12/26/2018 13:34:15
00024 suncat0057 pw.x -in pw.inp   Done                     12/26/2018 13:34:15
00025 suncat0057 pw.x -in pw.inp   Done                     12/26/2018 13:34:15
00026 suncat0057 pw.x -in pw.inp   Done                     12/26/2018 13:34:15
00027 suncat0057 pw.x -in pw.inp   Done                     12/26/2018 13:34:15
00028 suncat0057 pw.x -in pw.inp   Done                     12/26/2018 13:34:15
00029 suncat0057 pw.x -in pw.inp   Done                     12/26/2018 13:34:15
00030 suncat0057 pw.x -in pw.inp   Done                     12/26/2018 13:34:15
00031 suncat0057 pw.x -in pw.inp   Done                     12/26/2018 13:34:15
00032 suncat0051 pw.x -in pw.inp   Done                     12/26/2018 13:34:15
00033 suncat0051 pw.x -in pw.inp   Done                     12/26/2018 13:34:15
00034 suncat0051 pw.x -in pw.inp   Done                     12/26/2018 13:34:15
00035 suncat0051 pw.x -in pw.inp   Done                     12/26/2018 13:34:15
00036 suncat0051 pw.x -in pw.inp   Done                     12/26/2018 13:34:15
00037 suncat0051 pw.x -in pw.inp   Done                     12/26/2018 13:34:15
00038 suncat0051 pw.x -in pw.inp   Done                     12/26/2018 13:34:15
00039 suncat0051 pw.x -in pw.inp   Done                     12/26/2018 13:34:15
00040 suncat0043 pw.x -in pw.inp   Done                     12/26/2018 13:34:15
00041 suncat0043 pw.x -in pw.inp   Done                     12/26/2018 13:34:15
00042 suncat0043 pw.x -in pw.inp   Done                     12/26/2018 13:34:15
00043 suncat0043 pw.x -in pw.inp   Done                     12/26/2018 13:34:15
00044 suncat0043 pw.x -in pw.inp   Done                     12/26/2018 13:34:15
00045 suncat0043 pw.x -in pw.inp   Done                     12/26/2018 13:34:15
00046 suncat0043 pw.x -in pw.inp   Done                     12/26/2018 13:34:15
00047 suncat0043 pw.x -in pw.inp   Done                     12/26/2018 13:34:15
00048 suncat0010 pw.x -in pw.inp   Done                     12/26/2018 13:34:15
00049 suncat0010 pw.x -in pw.inp   Done                     12/26/2018 13:34:15
00050 suncat0010 pw.x -in pw.inp   Done                     12/26/2018 13:34:15
00051 suncat0010 pw.x -in pw.inp   Done                     12/26/2018 13:34:15
00052 suncat0010 pw.x -in pw.inp   Done                     12/26/2018 13:34:15
00053 suncat0010 pw.x -in pw.inp   Done                     12/26/2018 13:34:15
00054 suncat0010 pw.x -in pw.inp   Done                     12/26/2018 13:34:15
00055 suncat0010 pw.x -in pw.inp   Done                     12/26/2018 13:34:15
00056 suncat0100 pw.x -in pw.inp   Done                     12/26/2018 13:34:15
00057 suncat0100 pw.x -in pw.inp   Done                     12/26/2018 13:34:15
00058 suncat0100 pw.x -in pw.inp   Done                     12/26/2018 13:34:15
00059 suncat0100 pw.x -in pw.inp   Done                     12/26/2018 13:34:15
00060 suncat0100 pw.x -in pw.inp   Done                     12/26/2018 13:34:15
00061 suncat0100 pw.x -in pw.inp   Done                     12/26/2018 13:34:15
00062 suncat0100 pw.x -in pw.inp   Done                     12/26/2018 13:34:15
00063 suncat0100 pw.x -in pw.inp   Done                     12/26/2018 13:34:15