     Program PWSCF v.5.1rc2 (svn rev. 11289) starts on 27Dec2018 at 19:37:53

     Current dimensions of program PWSCF are:
     Max number of different atomic species (ntypx) = 10
     Max number of k-points (npk) =  40000
     Max angular momentum in pseudopotentials (lmaxx) =  3
     Presently stress not available with electric field

     IMPORTANT: XC functional enforced from input :
     Exchange-correlation      = BEEF-VDW ( 1  4 27 13 2)
     Any further DFT definition will be discarded
     Please, verify this is what you really want

     Subspace diagonalization in iterative solution of the eigenvalue problem:
     a serial algorithm will be used

     bravais-lattice index     =            0
     lattice parameter (alat)  =       1.8897  a.u.
     unit-cell volume          =    4616.5118 (a.u.)^3
     number of atoms/cell      =           12
     number of atomic types    =            2
     number of electrons       =       168.00
     number of Kohn-Sham states=          114
     kinetic-energy cutoff     =      36.7493  Ry
     charge density cutoff     =     367.4932  Ry
     convergence threshold     =      1.0E-06
     mixing beta               =       0.1000
     number of iterations used =           10  plain     mixing
     Exchange-correlation      = BEEF-VDW ( 1  4 27 13 2)
     nstep                     =           50

     celldm(1)=   1.889726  celldm(2)=   0.000000  celldm(3)=   0.000000
     celldm(4)=   0.000000  celldm(5)=   0.000000  celldm(6)=   0.000000

     crystal axes: (cart. coord. in units of alat)
               a(1) = (   5.663824   0.000000   0.000000 )
               a(2) = (  -2.831912   4.905015   0.000000 )
               a(3) = (   0.000000   0.000000  24.624493 )

     reciprocal axes: (cart. coord. in units 2 pi/alat)
               b(1) = (  0.176559  0.101936  0.000000 )
               b(2) = (  0.000000  0.203873  0.000000 )
               b(3) = (  0.000000  0.000000  0.040610 )

     PseudoPot. # 1 for Re read from file:
     /afs/slac.stanford.edu/u/if/mamunm/psp/gbrv1.5pbe/Re.UPF
     MD5 check sum: 85f993410f3e006da9d71c142b4ad953
     Pseudo is Ultrasoft + core correction, Zval = 15.0
     Generated by new atomic code, or converted to UPF format
     Using radial grid of  981 points,  8 beta functions with:
                l(1) =   0
                l(2) =   0
                l(3) =   1
                l(4) =   1
                l(5) =   2
                l(6) =   2
                l(7) =   3
                l(8) =   3
     Q(r) pseudized with  8 coefficients,  rinner =    1.150   1.150   1.150
                                                       1.150   1.150   1.150
                                                       1.150

     PseudoPot. # 2 for Sc read from file:
     /afs/slac.stanford.edu/u/if/mamunm/psp/gbrv1.5pbe/Sc.UPF
     MD5 check sum: db30a2753ba66ef00f23801d899b7e7f
     Pseudo is Ultrasoft + core correction, Zval = 11.0
     Generated by new atomic code, or converted to UPF format
     Using radial grid of  849 points,  6 beta functions with:
                l(1) =   0
                l(2) =   0
                l(3) =   1
                l(4) =   1
                l(5) =   2
                l(6) =   2
     Q(r) pseudized with  6 coefficients,  rinner =    1.200   1.200   1.200
                                                       1.200   1.200

     vdW kernel table read from file vdW_kernel_table
     MD5 check sum: 095c7af220d748ca6e76c0b4c6cfb241

     atomic species   valence    mass     pseudopotential
        Re1           15.00   186.20700     Re( 1.00)
        Sc1           11.00    44.95591     Sc( 1.00)

     No symmetry found

   Cartesian axes

     site n.     atom                  positions (alat units)
         1           Re1 tau(   1) = (   0.0000000   0.0000000  10.0000000  )
         2           Re1 tau(   2) = (  -1.4159559   2.4525075  10.0000000  )
         3           Re1 tau(   3) = (   1.4159559   2.4525075  10.0000000  )
         4           Sc1 tau(   4) = (   2.8319118   0.0000000  10.0000000  )
         5           Re1 tau(   5) = (   2.8319118   1.6350050  12.3122463  )
         6           Re1 tau(   6) = (   1.4159559   4.0875126  12.3122463  )
         7           Re1 tau(   7) = (  -1.4159559   4.0875126  12.3122463  )
         8           Sc1 tau(   8) = (   0.0000000   1.6350050  12.3122463  )
         9           Re1 tau(   9) = (  -0.0000000   3.2700100  14.6244926  )
        10           Re1 tau(  10) = (   1.4159559   0.8175025  14.6244926  )
        11           Re1 tau(  11) = (   4.2478677   0.8175025  14.6244926  )
        12           Sc1 tau(  12) = (   2.8319118   3.2700100  14.6244926  )

     number of k points=    20  Fermi-Dirac smearing, width (Ry)=  0.0110
                       cart. coord. in units 2pi/alat
        k(    1) = (   0.0000000   0.0000000   0.0000000), wk =   0.0555556
        k(    2) = (   0.0000000   0.0339788   0.0000000), wk =   0.1111111
        k(    3) = (   0.0000000   0.0679577   0.0000000), wk =   0.1111111
        k(    4) = (   0.0000000  -0.1019365   0.0000000), wk =   0.0555556
        k(    5) = (   0.0294265   0.0169894   0.0000000), wk =   0.1111111
        k(    6) = (   0.0294265   0.0509682   0.0000000), wk =   0.1111111
        k(    7) = (   0.0294265   0.0849471   0.0000000), wk =   0.1111111
        k(    8) = (   0.0294265  -0.0849471   0.0000000), wk =   0.1111111
        k(    9) = (   0.0294265  -0.0509682   0.0000000), wk =   0.1111111
        k(   10) = (   0.0294265  -0.0169894   0.0000000), wk =   0.1111111
        k(   11) = (   0.0588531   0.0339788   0.0000000), wk =   0.1111111
        k(   12) = (   0.0588531   0.0679577   0.0000000), wk =   0.1111111
        k(   13) = (   0.0588531   0.1019365   0.0000000), wk =   0.1111111
        k(   14) = (   0.0588531  -0.0679577   0.0000000), wk =   0.1111111
        k(   15) = (   0.0588531  -0.0339788   0.0000000), wk =   0.1111111
        k(   16) = (   0.0588531  -0.0000000   0.0000000), wk =   0.1111111
        k(   17) = (  -0.0882796  -0.0509682   0.0000000), wk =   0.0555556
        k(   18) = (  -0.0882796  -0.0169894   0.0000000), wk =   0.1111111
        k(   19) = (  -0.0882796   0.0169894   0.0000000), wk =   0.1111111
        k(   20) = (  -0.0882796  -0.1529047   0.0000000), wk =   0.0555556

     Largest allocated arrays     est. size (Mb)     dimensions
     Largest temporary arrays     est. size (Mb)     dimensions

     Initial potential from superposition of free atoms
     Check: negative starting charge=   -1.146794

     starting charge  163.49239, renormalised to  168.00000

     negative rho (up, down):  1.178E+00 0.000E+00

     *
     * You are using vdW-DF for exchange-correlation in this calculation.
     * Please cite the following three references that made this development
     * possible:
     *
     *   M. Dion, H. Rydberg, E. Schroder, D. C. Langreth, and
     *   B. I. Lundqvist, Phys. Rev. Lett. 92, 246401 (2004).
     *
     *   T. Thonhauser, V. R. Cooper, S. Li, A. Puzder, P. Hyldgaard, and
     *   D. C. Langreth, Phys. Rev. B 76, 125112 (2007).
     *
     *   G. Roman-Perez and J. M. Soler, Phys. Rev. Lett. 103, 096102 (2009).
     *
     *
     * If you are using vdW-DF2, please also cite:
     *
     *   K. Lee, E. D. Murray, L. Kong, B. I. Lundqvist, and
     *   D. C. Langreth, Phys. Rev. B 82, 081101(R) (2010).
     *
     *
     * If you are calculating the stress with vdW-DF, please also cite:
     *
     *   R. Sabatini, E. Kucukbenli, B. Kolb, T. Thonhauser, and
     *   S. de Gironcoli, J. Phys.: Condens. Matter 24, 424209 (2012).
     *

     Carrying out vdW-DF run using the following parameters:

     Nqs =      20    Nr_points =    1024   r_max =   100.000
     q_mesh =
               0.00001000     0.04494208     0.09755937     0.15916263
               0.23128650     0.31572767     0.41458969     0.53033537
               0.66584808     0.82450364     1.01025438     1.22772762
               1.48234092     1.78043706     2.12944203     2.53805004
               3.01644009     3.57652955     4.23227104     5.00000000

     Gradients computed in reciprocal space

     Adding external electric field

     Computed dipole along edir(3) :
        Dipole                0.0000 Ry au,          0.0000 Debye
        Dipole field          0.0000 Ry au

        Potential amp.       -0.0000 Ry
        Total length         45.3702 bohr

     Starting wfc are  156 randomized atomic wfcs

     Self-consistent Calculation

     iteration #  1     ecut=    36.75 Ry     beta=0.10
     Davidson diagonalization with overlap
     ethr =  1.00E-02,  avg # of iterations =  2.0

[...]

     total energy              =   -2013.73827447 Ry
     Harris-Foulkes estimate   =   -2014.11860131 Ry
     estimated scf accuracy    <       2.45523995 Ry

[...]

     End of self-consistent calculation

          k = 0.0000 0.0000 0.0000 ( 17447 PWs)   bands (ev):

   -78.2048 -78.1658 -78.1654 -78.0055 -78.0038 -77.9678 -77.9678 -77.9674
   -77.9674 -46.7935 -46.7918 -46.2033 -40.2762 -40.0789 -40.0787 -40.0671
   -40.0099 -39.9717 -39.9485 -39.9483 -39.7752 -39.7602 -39.7602 -39.7289
   -39.7101 -39.7100 -39.7079 -39.7079 -39.6147 -39.6146 -39.6067 -39.5886
   -39.5885 -39.4426 -39.4246 -39.3945 -39.3945 -39.3904 -39.3904 -25.5086
   -25.4901 -25.3938 -25.3938 -25.3890 -25.3890 -24.9086 -24.8747 -24.8747
    -5.5918  -3.9352  -3.2639  -2.7005  -2.6186  -2.6186  -2.3004  -2.3003
    -2.0804  -1.8281  -1.6988  -1.6988  -1.6046  -1.6046  -1.5935  -0.7250
    -0.1388  -0.1388   0.4073   0.4074   0.5123   0.6957   1.1630   1.1987
     1.2969   1.2969   1.6774   1.6775   1.7141   1.8558   1.8559   2.1754
     2.1754   2.3266   2.3266   2.7045   2.8963   2.9531   3.0141   3.0142
     3.4724   3.4724   3.5443   3.8756   3.8757   4.1843   4.1843   4.1926
     4.3545   4.3545   4.8947   5.4827   5.4827   5.7668   5.7764   6.0998
     6.1509   6.1509   6.2055   6.3562   6.3895   6.4545   6.4545   6.5051
     6.5051   6.8446

[...]

          k =-0.0883-0.0510 0.0000 ( 17368 PWs)   bands (ev):

[...]

     the Fermi energy is     2.1952 ev

!    total energy              =   -2013.57044576 Ry
     Harris-Foulkes estimate   =   -2013.57044765 Ry
     estimated scf accuracy    <       0.00000045 Ry

     The total energy is the sum of the following terms:

     one-electron contribution =  -15003.12836065 Ry
     hartree contribution      =    7486.38201073 Ry
     xc contribution           =    -528.42231007 Ry
     ewald contribution        =    6031.68732041 Ry
     electric field correction =       0.00000000 Ry
     smearing contrib. (-TS)   =      -0.08910617 Ry

     convergence has been achieved in  17 iterations

 BEEF-vdW xc energy contributions
           1 :   -467.825583696027
           2 :    433.013961115159
           3 :   -371.351567067320
           4 :    295.719023377776
           5 :   -219.574018355114
           6 :    153.219394301614
           7 :   -101.884785120011
           8 :    65.8486162979010
           9 :   -42.0522641694589
          10 :    26.2615416171959
          11 :   -14.8716522752060
[...]
     Pseudo is Ultrasoft + core correction, Zval = 15.0
     Generated by new atomic code, or converted to UPF format
     Using radial grid of  981 points,  8 beta functions with:
                l(1) =   0
                l(2) =   0
                l(3) =   1
                l(4) =   1
                l(5) =   2
                l(6) =   2
                l(7) =   3
                l(8) =   3
     Q(r) pseudized with  8 coefficients,  rinner =    1.150   1.150   1.150
                                                       1.150   1.150   1.150
                                                       1.150

     PseudoPot. # 2 for Sc read from file:
     /afs/slac.stanford.edu/u/if/mamunm/psp/gbrv1.5pbe/Sc.UPF
     MD5 check sum: db30a2753ba66ef00f23801d899b7e7f
     Pseudo is Ultrasoft + core correction, Zval = 11.0
     Generated by new atomic code, or converted to UPF format
     Using radial grid of  849 points,  6 beta functions with:
                l(1) =   0
                l(2) =   0
                l(3) =   1
                l(4) =   1
                l(5) =   2
                l(6) =   2
     Q(r) pseudized with  6 coefficients,  rinner =    1.200   1.200   1.200
                                                       1.200   1.200

     vdW kernel table read from file vdW_kernel_table
     MD5 check sum: 095c7af220d748ca6e76c0b4c6cfb241

     atomic species   valence    mass     pseudopotential
        Re1           15.00   186.20700     Re( 1.00)
        Sc1           11.00    44.95591     Sc( 1.00)

     No symmetry found

   Cartesian axes

     site n.     atom                  positions (alat units)
         1           Re1 tau(   1) = (   0.0000000   0.0000000  10.0000000  )
         2           Re1 tau(   2) = (  -1.4159559   2.4525075  10.0000000  )
         3           Re1 tau(   3) = (   1.4159559   2.4525075  10.0000000  )
         4           Sc1 tau(   4) = (   2.8319118   0.0000000  10.0000000  )
         5           Re1 tau(   5) = (   2.8319118   1.6350050  12.3122463  )
         6           Re1 tau(   6) = (   1.4159559   4.0875126  12.3122463  )
         7           Re1 tau(   7) = (  -1.4159559   4.0875126  12.3122463  )
         8           Sc1 tau(   8) = (   0.0000000   1.6350050  12.3122463  )
         9           Re1 tau(   9) = (   0.0002086   3.3741495  14.4278033  )
        10           Re1 tau(  10) = (   1.5062362   0.7656246  14.4277986  )
        11           Re1 tau(  11) = (   4.1576630   0.7654269  14.4279004  )
        12           Sc1 tau(  12) = (   2.8321399   3.2701486  15.0750695  )

     number of k points=    20  Fermi-Dirac smearing, width (Ry)=  0.0110
                       cart. coord. in units 2pi/alat
        k(    1) = (   0.0000000   0.0000000   0.0000000), wk =   0.0555556
        k(    2) = (   0.0000000   0.0339788   0.0000000), wk =   0.1111111
        k(    3) = (   0.0000000   0.0679577   0.0000000), wk =   0.1111111
        k(    4) = (   0.0000000  -0.1019365   0.0000000), wk =   0.0555556
        k(    5) = (   0.0294265   0.0169894   0.0000000), wk =   0.1111111
        k(    6) = (   0.0294265   0.0509682   0.0000000), wk =   0.1111111
        k(    7) = (   0.0294265   0.0849471   0.0000000), wk =   0.1111111
        k(    8) = (   0.0294265  -0.0849471   0.0000000), wk =   0.1111111
        k(    9) = (   0.0294265  -0.0509682   0.0000000), wk =   0.1111111
        k(   10) = (   0.0294265  -0.0169894   0.0000000), wk =   0.1111111
        k(   11) = (   0.0588531   0.0339788   0.0000000), wk =   0.1111111
        k(   12) = (   0.0588531   0.0679577   0.0000000), wk =   0.1111111
        k(   13) = (   0.0588531   0.1019365   0.0000000), wk =   0.1111111
        k(   14) = (   0.0588531  -0.0679577   0.0000000), wk =   0.1111111
        k(   15) = (   0.0588531  -0.0339788   0.0000000), wk =   0.1111111
        k(   16) = (   0.0588531  -0.0000000   0.0000000), wk =   0.1111111
        k(   17) = (  -0.0882796  -0.0509682   0.0000000), wk =   0.0555556
        k(   18) = (  -0.0882796  -0.0169894   0.0000000), wk =   0.1111111
        k(   19) = (  -0.0882796   0.0169894   0.0000000), wk =   0.1111111
        k(   20) = (  -0.0882796  -0.1529047   0.0000000), wk =   0.0555556

     Largest allocated arrays     est. size (Mb)     dimensions
     Largest temporary arrays     est. size (Mb)     dimensions

     Initial potential from superposition of free atoms
     Check: negative starting charge=   -1.150761

     starting charge  163.49239, renormalised to  168.00000

[...]

     *
     * You are using vdW-DF for exchange-correlation in this calculation.
     * Please cite the following three references that made this development
     * possible:
     *
     *   M. Dion, H. Rydberg, E. Schroder, D. C. Langreth, and
     *   B. I. Lundqvist, Phys. Rev. Lett. 92, 246401 (2004).
     *
     *   T. Thonhauser, V. R. Cooper, S. Li, A. Puzder, P. Hyldgaard, and
     *   D. C. Langreth, Phys. Rev. B 76, 125112 (2007).
     *
     *   G. Roman-Perez and J. M. Soler, Phys. Rev. Lett. 103, 096102 (2009).
     *
     *
     * If you are using vdW-DF2, please also cite:
     *
     *   K. Lee, E. D. Murray, L. Kong, B. I. Lundqvist, and
     *   D. C. Langreth, Phys. Rev. B 82, 081101(R) (2010).
     *
     *
     * If you are calculating the stress with vdW-DF, please also cite:
     *
     *   R. Sabatini, E. Kucukbenli, B. Kolb, T. Thonhauser, and
     *   S. de Gironcoli, J. Phys.: Condens. Matter 24, 424209 (2012).
     *

     Carrying out vdW-DF run using the following parameters:

     Nqs =      20    Nr_points =    1024   r_max =   100.000
     q_mesh =
               0.00001000     0.04494208     0.09755937     0.15916263
               0.23128650     0.31572767     0.41458969     0.53033537
               0.66584808     0.82450364     1.01025438     1.22772762
               1.48234092     1.78043706     2.12944203     2.53805004
               3.01644009     3.57652955     4.23227104     5.00000000

     Gradients computed in reciprocal space

[...]

     Starting wfc are  156 randomized atomic wfcs

     Self-consistent Calculation

[...]

     total energy              =   -2013.64084128 Ry
     Harris-Foulkes estimate   =   -2013.64084251 Ry
     estimated scf accuracy    <       0.00000117 Ry

     iteration # 17     ecut=    36.75 Ry     beta=0.10
     Davidson diagonalization with overlap
     ethr =  6.94E-10,  avg # of iterations =  2.8

[...]

     negative rho (up, down):  1.188E+00 0.000E+00

     Adding external electric field

     Computed dipole along edir(3) :
        Dipole                0.2497 Ry au,          0.6347 Debye
        Dipole field          0.0007 Ry au

        Potential amp.       -0.0617 Ry
        Total length         45.3702 bohr

     End of self-consistent calculation

[...]

          k = 0.0589-0.0000 0.0000 ( 17380 PWs)   bands (ev):

[...]

          k =-0.0883-0.1529 0.0000 ( 17368 PWs)   bands (ev):

   -77.9437 -77.9297 -77.9159 -77.6942 -77.6732 -77.6609 -77.6582 -77.6513
   -77.6484 -47.2162 -46.4327 -45.7743 -40.0043 -39.9020 -39.8189 -39.8138
   -39.7050 -39.6999 -39.6486 -39.6360 -39.6335 -39.5422 -39.4676 -39.4329
   -39.4186 -39.3806 -39.3426 -39.3299 -39.3257 -39.3198 -39.2886 -39.2595
   -39.2434 -39.2038 -39.2006 -39.1921 -39.1913 -39.0818 -39.0784 -25.9426
   -25.7523 -25.7433 -25.1461 -25.0543 -25.0363 -24.5058 -24.4851 -24.4654
    -3.9229  -3.4256  -2.2241  -1.9042  -1.8611  -1.7199  -1.4503  -1.3050
    -1.1082  -1.1068  -0.9765  -0.7081  -0.5728  -0.5113  -0.2086  -0.1984
    -0.1545   0.0245   0.1524   0.3157   0.5274   0.6456   0.7914   0.8793
     0.9878   1.0194   1.1173   1.2239   1.2984   1.3433   1.3649   1.5223
     1.6613   2.0188   2.3526   2.4256   2.5635   2.5934   2.6530   2.8441
     2.9562   3.0550   3.3154   3.3626   3.4484   3.5867   3.6990   3.8535
     4.0711   4.1462   4.4700   4.6316   4.7319   4.9098   5.1121   5.4187
     5.6188   5.6970   5.8823   6.0273   6.1033   6.1510   6.3863   6.4561
     7.0403   7.1154

     the Fermi energy is     2.5313 ev

!    total energy              =   -2013.64083571 Ry
     Harris-Foulkes estimate   =   -2013.64084059 Ry
     estimated scf accuracy    <       0.00000035 Ry

     The total energy is the sum of the following terms:

     one-electron contribution =  -15140.46503024 Ry
     hartree contribution      =    7556.48070390 Ry
     xc contribution           =    -528.64352284 Ry
     ewald contribution        =    6099.06691369 Ry
     electric field correction =       0.00016974 Ry
     smearing contrib. (-TS)   =      -0.08006995 Ry

     convergence has been achieved in  17 iterations

 BEEF-vdW xc energy contributions
           1 :   -468.426249807751
           2 :    433.697203795796
           3 :   -372.172765745851
           4 :    296.658200127237
           5 :   -220.506917358144
           6 :    153.969129903028
           7 :   -102.331950742700
           8 :    66.0061360247050
           9 :   -42.0537094542526
          10 :    26.2880625599238
          11 :   -15.0645435135618
          12 :    6.20804228078214
          13 :   0.962248454941800
          14 :   -6.18594473268456
          15 :    8.97637166487618
          16 :   -9.18968643763776
          17 :    7.29198212257586
          18 :   -4.30374501381755
          19 :    1.48791855493459
          20 :   8.709415364211281E-002
          21 :   6.417437241827884E-002
          22 :   -1.67881976886770
          23 :    3.89158841259109
          24 :   -5.63957655887197
          25 :    6.14192136184852
          26 :   -5.22942333763302
          27 :    3.36777421389240
          28 :   -1.37654096173850
          29 :   4.296941721008807E-003
          30 :   0.412117360718071
          31 :   -40.0906478237526
          32 :   -29.5711498366637

     Forces acting on atoms (Ry/au):

     negative rho (up, down):  1.188E+00 0.000E+00
     atom    1 type  1   force =     0.00000148   -0.02641770    0.02186515
     atom    2 type  1   force =    -0.02287604    0.01321202    0.02186436
     atom    3 type  1   force =     0.02287832    0.01321001    0.02186339
     atom    4 type  2   force =    -0.00000386   -0.00000171   -0.07068902
     atom    5 type  1   force =    -0.00000036    0.02474517    0.01574666
     atom    6 type  1   force =     0.02142397   -0.01237424    0.01574178
     atom    7 type  1   force =    -0.02141806   -0.01236628    0.01575181
     atom    8 type  2   force =    -0.00001384   -0.00000889   -0.04376900
     atom    9 type  1   force =    -0.00000036   -0.00013867    0.00041475
     atom   10 type  1   force =    -0.00011621    0.00006826    0.00041450
     atom   11 type  1   force =     0.00012603    0.00007263    0.00041805
     atom   12 type  2   force =    -0.00000106   -0.00000060    0.00037757

     Total force =     0.114110     Total SCF correction =     0.001896

     entering subroutine stress ...

     negative rho (up, down):  1.188E+00 0.000E+00
          total   stress  (Ry/bohr**3)                   (kbar)     P=  -23.26
  -0.00022851  -0.00000001   0.00000001        -33.61     -0.00      0.00
  -0.00000001  -0.00022850   0.00000000         -0.00    -33.61      0.00
   0.00000001   0.00000000  -0.00001740          0.00      0.00     -2.56

 !ASE

     Writing output data file calc.save

     General routines

     Parallel routines

   This run was terminated on:  21: 9:57  27Dec2018

   JOB DONE.
Job  /afs/slac/g/suncat/bin/suncat-tsmpirun -x LD_LIBRARY_PATH -wdir /scratch/qe110640_yxYBz pw.x -in pw.inp

TID   HOST_NAME   COMMAND_LINE            STATUS            TERMINATION_TIME
00000 suncat0108 pw.x -in pw.inp   Done                     12/27/2018 21:09:57
00001 suncat0108 pw.x -in pw.inp   Done                     12/27/2018 21:09:57
00002 suncat0108 pw.x -in pw.inp   Done                     12/27/2018 21:09:57
00003 suncat0108 pw.x -in pw.inp   Done                     12/27/2018 21:09:57
00004 suncat0108 pw.x -in pw.inp   Done                     12/27/2018 21:09:57
00005 suncat0108 pw.x -in pw.inp   Done                     12/27/2018 21:09:57
00006 suncat0108 pw.x -in pw.inp   Done                     12/27/2018 21:09:57
00007 suncat0108 pw.x -in pw.inp   Done                     12/27/2018 21:09:57
00008 suncat0107 pw.x -in pw.inp   Done                     12/27/2018 21:09:57
00009 suncat0107 pw.x -in pw.inp   Done                     12/27/2018 21:09:57
00010 suncat0107 pw.x -in pw.inp   Done                     12/27/2018 21:09:57
00011 suncat0107 pw.x -in pw.inp   Done                     12/27/2018 21:09:57
00012 suncat0107 pw.x -in pw.inp   Done                     12/27/2018 21:09:57
00013 suncat0107 pw.x -in pw.inp   Done                     12/27/2018 21:09:57
00014 suncat0107 pw.x -in pw.inp   Done                     12/27/2018 21:09:57
00015 suncat0107 pw.x -in pw.inp   Done                     12/27/2018 21:09:57
00016 suncat0106 pw.x -in pw.inp   Done                     12/27/2018 21:09:57
00017 suncat0106 pw.x -in pw.inp   Done                     12/27/2018 21:09:57
00018 suncat0106 pw.x -in pw.inp   Done                     12/27/2018 21:09:57
00019 suncat0106 pw.x -in pw.inp   Done                     12/27/2018 21:09:57
00020 suncat0106 pw.x -in pw.inp   Done                     12/27/2018 21:09:57
00021 suncat0106 pw.x -in pw.inp   Done                     12/27/2018 21:09:57
00022 suncat0106 pw.x -in pw.inp   Done                     12/27/2018 21:09:57
00023 suncat0106 pw.x -in pw.inp   Done                     12/27/2018 21:09:57
00024 suncat0105 pw.x -in pw.inp   Done                     12/27/2018 21:09:57
00025 suncat0105 pw.x -in pw.inp   Done                     12/27/2018 21:09:57
00026 suncat0105 pw.x -in pw.inp   Done                     12/27/2018 21:09:57
00027 suncat0105 pw.x -in pw.inp   Done                     12/27/2018 21:09:57
00028 suncat0105 pw.x -in pw.inp   Done                     12/27/2018 21:09:57
00029 suncat0105 pw.x -in pw.inp   Done                     12/27/2018 21:09:57
00030 suncat0105 pw.x -in pw.inp   Done                     12/27/2018 21:09:57
00031 suncat0105 pw.x -in pw.inp   Done                     12/27/2018 21:09:57
00032 suncat0238 pw.x -in pw.inp   Done                     12/27/2018 21:09:57
00033 suncat0238 pw.x -in pw.inp   Done                     12/27/2018 21:09:57
00034 suncat0238 pw.x -in pw.inp   Done                     12/27/2018 21:09:57
00035 suncat0238 pw.x -in pw.inp   Done                     12/27/2018 21:09:57
00036 suncat0238 pw.x -in pw.inp   Done                     12/27/2018 21:09:57
00037 suncat0238 pw.x -in pw.inp   Done                     12/27/2018 21:09:57
00038 suncat0238 pw.x -in pw.inp   Done                     12/27/2018 21:09:57
00039 suncat0238 pw.x -in pw.inp   Done                     12/27/2018 21:09:57
00040 suncat0237 pw.x -in pw.inp   Done                     12/27/2018 21:09:57
00041 suncat0237 pw.x -in pw.inp   Done                     12/27/2018 21:09:57
00042 suncat0237 pw.x -in pw.inp   Done                     12/27/2018 21:09:57
00043 suncat0237 pw.x -in pw.inp   Done                     12/27/2018 21:09:57
00044 suncat0237 pw.x -in pw.inp   Done                     12/27/2018 21:09:57
00045 suncat0237 pw.x -in pw.inp   Done                     12/27/2018 21:09:57
00046 suncat0237 pw.x -in pw.inp   Done                     12/27/2018 21:09:57
00047 suncat0237 pw.x -in pw.inp   Done                     12/27/2018 21:09:57
00048 suncat0236 pw.x -in pw.inp   Done                     12/27/2018 21:09:57
00049 suncat0236 pw.x -in pw.inp   Done                     12/27/2018 21:09:57
00050 suncat0236 pw.x -in pw.inp   Done                     12/27/2018 21:09:57
00051 suncat0236 pw.x -in pw.inp   Done                     12/27/2018 21:09:57
00052 suncat0236 pw.x -in pw.inp   Done                     12/27/2018 21:09:57
00053 suncat0236 pw.x -in pw.inp   Done                     12/27/2018 21:09:57
00054 suncat0236 pw.x -in pw.inp   Done                     12/27/2018 21:09:57
00055 suncat0236 pw.x -in pw.inp   Done                     12/27/2018 21:09:57
00056 suncat0235 pw.x -in pw.inp   Done                     12/27/2018 21:09:57
00057 suncat0235 pw.x -in pw.inp   Done                     12/27/2018 21:09:57
00058 suncat0235 pw.x -in pw.inp   Done                     12/27/2018 21:09:57
00059 suncat0235 pw.x -in pw.inp   Done                     12/27/2018 21:09:57
00060 suncat0235 pw.x -in pw.inp   Done                     12/27/2018 21:09:57
00061 suncat0235 pw.x -in pw.inp   Done                     12/27/2018 21:09:57
00062 suncat0235 pw.x -in pw.inp   Done                     12/27/2018 21:09:57
00063 suncat0235 pw.x -in pw.inp   Done                     12/27/2018 21:09:57