     Program PWSCF v.5.1rc2 (svn rev. 11289) starts on 30Dec2018 at 11:10:38

     Current dimensions of program PWSCF are:
     Max number of different atomic species (ntypx) = 10
     Max number of k-points (npk) =  40000
     Max angular momentum in pseudopotentials (lmaxx) =  3
     Presently stress not available with electric field

     IMPORTANT: XC functional enforced from input :
     Exchange-correlation      = BEEF-VDW ( 1  4 27 13 2)
     Any further DFT definition will be discarded
     Please, verify this is what you really want

     Subspace diagonalization in iterative solution of the eigenvalue problem:
     a serial algorithm will be used

     bravais-lattice index     =            0
     lattice parameter (alat)  =       1.8897  a.u.
     unit-cell volume          =    4326.4876 (a.u.)^3
     number of atoms/cell      =           12
     number of atomic types    =            2
     number of electrons       =       192.00
     number of Kohn-Sham states=          126
     kinetic-energy cutoff     =      36.7493  Ry
     charge density cutoff     =     367.4932  Ry
     convergence threshold     =      1.0E-06
     mixing beta               =       0.1000
     number of iterations used =           10  plain     mixing
     Exchange-correlation      = BEEF-VDW ( 1  4 27 13 2)
     nstep                     =           50

     celldm(1)=   1.889726  celldm(2)=   0.000000  celldm(3)=   0.000000
     celldm(4)=   0.000000  celldm(5)=   0.000000  celldm(6)=   0.000000

     crystal axes: (cart. coord. in units of alat)
               a(1) = (   5.498151   0.000000   0.000000 )
               a(2) = (  -2.749075   4.761538   0.000000 )
               a(3) = (   0.000000   0.000000  24.489221 )

     reciprocal axes: (cart. coord. in units 2 pi/alat)
               b(1) = (  0.181879  0.105008  0.000000 )
               b(2) = (  0.000000  0.210016  0.000000 )
               b(3) = (  0.000000  0.000000  0.040834 )

     PseudoPot. # 1 for Ir read from file:
     /afs/slac.stanford.edu/u/if/mamunm/psp/gbrv1.5pbe/Ir.UPF
     MD5 check sum: 8836f839c3459d2b385c504ce6d91f2c
     Pseudo is Ultrasoft + core correction, Zval = 15.0
     Generated by new atomic code, or converted to UPF format
     Using radial grid of  983 points,  7 beta functions with:
                l(1) =   0
                l(2) =   0
                l(3) =   1
                l(4) =   1
                l(5) =   1
                l(6) =   2
                l(7) =   2
     Q(r) pseudized with  8 coefficients,  rinner =    1.400   1.400   1.400
                                                       1.400   1.400

     PseudoPot. # 2 for Ga read from file:
     /afs/slac.stanford.edu/u/if/mamunm/psp/gbrv1.5pbe/Ga.UPF
     MD5 check sum: ccd671392a58a050fbb373893b4fcd66
     Pseudo is Ultrasoft + core correction, Zval = 19.0
     Generated by new atomic code, or converted to UPF format
     Using radial grid of  871 points,  6 beta functions with:
                l(1) =   0
                l(2) =   0
                l(3) =   1
                l(4) =   1
                l(5) =   2
                l(6) =   2
     Q(r) pseudized with  8 coefficients,  rinner =    1.250   1.250   1.250
                                                       1.250   1.250

     vdW kernel table read from file vdW_kernel_table
     MD5 check sum: 095c7af220d748ca6e76c0b4c6cfb241

     atomic species   valence    mass     pseudopotential
        Ir1           15.00   192.21700     Ir( 1.00)
        Ga1           19.00    69.72300     Ga( 1.00)

     No symmetry found

   Cartesian axes

     site n.     atom                  positions (alat units)
         1           Ir1 tau(   1) = (   0.0000000   0.0000000  10.0000000  )
         2           Ir1 tau(   2) = (  -1.3745376   2.3807690  10.0000000  )
         3           Ir1 tau(   3) = (   1.3745376   2.3807690  10.0000000  )
         4           Ga1 tau(   4) = (   2.7490753   0.0000000  10.0000000  )
         5           Ir1 tau(   5) = (   2.7490753   1.5871794  12.2446106  )
         6           Ir1 tau(   6) = (   1.3745376   3.9679484  12.2446106  )
         7           Ir1 tau(   7) = (  -1.3745376   3.9679484  12.2446106  )
         8           Ga1 tau(   8) = (   0.0000000   1.5871794  12.2446106  )
         9           Ir1 tau(   9) = (  -0.0000000   3.1743587  14.4892211  )
        10           Ir1 tau(  10) = (   1.3745376   0.7935897  14.4892211  )
        11           Ir1 tau(  11) = (   4.1236129   0.7935897  14.4892211  )
        12           Ga1 tau(  12) = (   2.7490753   3.1743587  14.4892211  )

     number of k points=    20  Fermi-Dirac smearing, width (Ry)=  0.0110
                       cart. coord. in units 2pi/alat
        k(    1) = (   0.0000000   0.0000000   0.0000000), wk =   0.0555556
        k(    2) = (   0.0000000   0.0350027   0.0000000), wk =   0.1111111
        k(    3) = (   0.0000000   0.0700054   0.0000000), wk =   0.1111111
        k(    4) = (   0.0000000  -0.1050081   0.0000000), wk =   0.0555556
        k(    5) = (   0.0303132   0.0175013   0.0000000), wk =   0.1111111
        k(    6) = (   0.0303132   0.0525040   0.0000000), wk =   0.1111111
        k(    7) = (   0.0303132   0.0875067   0.0000000), wk =   0.1111111
        k(    8) = (   0.0303132  -0.0875067   0.0000000), wk =   0.1111111
        k(    9) = (   0.0303132  -0.0525040   0.0000000), wk =   0.1111111
        k(   10) = (   0.0303132  -0.0175013   0.0000000), wk =   0.1111111
        k(   11) = (   0.0606264   0.0350027   0.0000000), wk =   0.1111111
        k(   12) = (   0.0606264   0.0700054   0.0000000), wk =   0.1111111
        k(   13) = (   0.0606264   0.1050081   0.0000000), wk =   0.1111111
        k(   14) = (   0.0606264  -0.0700054   0.0000000), wk =   0.1111111
        k(   15) = (   0.0606264  -0.0350027   0.0000000), wk =   0.1111111
        k(   16) = (   0.0606264   0.0000000   0.0000000), wk =   0.1111111
        k(   17) = (  -0.0909397  -0.0525040   0.0000000), wk =   0.0555556
        k(   18) = (  -0.0909397  -0.0175013   0.0000000), wk =   0.1111111
        k(   19) = (  -0.0909397   0.0175013   0.0000000), wk =   0.1111111
        k(   20) = (  -0.0909397  -0.1575121   0.0000000), wk =   0.0555556

     Largest allocated arrays     est. size (Mb)     dimensions
     Largest temporary arrays     est. size (Mb)     dimensions

     Initial potential from superposition of free atoms
     Check: negative starting charge=   -3.272895

     starting charge  184.49971, renormalised to  192.00000

     negative rho (up, down):  3.406E+00 0.000E+00

     *
     * You are using vdW-DF for exchange-correlation in this calculation.
     * Please cite the following three references that made this development
     * possible:
     *
     *   M. Dion, H. Rydberg, E. Schroder, D. C. Langreth, and
     *   B. I. Lundqvist, Phys. Rev. Lett. 92, 246401 (2004).
     *
     *   T. Thonhauser, V. R. Cooper, S. Li, A. Puzder, P. Hyldgaard, and
     *   D. C. Langreth, Phys. Rev. B 76, 125112 (2007).
     *
     *   G. Roman-Perez and J. M. Soler, Phys. Rev. Lett. 103, 096102 (2009).
     *
     *
     * If you are using vdW-DF2, please also cite:
     *
     *   K. Lee, E. D. Murray, L. Kong, B. I. Lundqvist, and
     *   D. C. Langreth, Phys. Rev. B 82, 081101(R) (2010).
     *
     *
     * If you are calculating the stress with vdW-DF, please also cite:
     *
     *   R. Sabatini, E. Kucukbenli, B. Kolb, T. Thonhauser, and
     *   S. de Gironcoli, J. Phys.: Condens. Matter 24, 424209 (2012).
     *

     Carrying out vdW-DF run using the following parameters:

     Nqs =      20    Nr_points =    1024   r_max =   100.000
     q_mesh =
               0.00001000     0.04494208     0.09755937     0.15916263
               0.23128650     0.31572767     0.41458969     0.53033537
               0.66584808     0.82450364     1.01025438     1.22772762
               1.48234092     1.78043706     2.12944203     2.53805004
               3.01644009     3.57652955     4.23227104     5.00000000

     Gradients computed in reciprocal space

     Adding external electric field

     Computed dipole along edir(3) :
        Dipole                0.0000 Ry au,          0.0000 Debye
        Dipole field          0.0000 Ry au

        Potential amp.       -0.0000 Ry
        Total length         45.1210 bohr

     Starting wfc are  144 randomized atomic wfcs

     Self-consistent Calculation

     iteration #  1     ecut=    36.75 Ry     beta=0.10
     Davidson diagonalization with overlap
     ethr =  1.00E-02,  avg # of iterations =  7.5

[...]

     total energy              =   -2899.83418098 Ry
     Harris-Foulkes estimate   =   -2905.10357398 Ry
     estimated scf accuracy    <      31.44821748 Ry

[...]

     End of self-consistent calculation

          k = 0.0000 0.0000 0.0000 ( 16187 PWs)   bands (ev):

   -92.8197 -92.8197 -92.8028 -92.4055 -92.4054 -92.3513 -92.3513 -92.3513
   -92.3513 -47.5708 -47.4427 -47.4427 -47.3847 -47.3492 -47.3492 -47.2406
   -47.2095 -47.1990 -47.0486 -47.0486 -47.0108 -47.0108 -46.9763 -46.9763
   -46.8804 -46.8421 -46.8421 -46.8298 -46.8160 -46.8159 -46.7557 -46.7486
   -46.7361 -46.7361 -46.7309 -46.7309 -13.2345 -13.2345 -13.2124 -13.1928
   -13.1928 -12.7824 -12.7697 -12.7504 -12.7504 -12.7362 -12.7362 -12.7313
   -12.7313 -12.7291 -12.7291  -8.1704  -6.2707  -6.0218  -4.6474  -4.1067
    -3.9702  -3.4144  -3.4144  -3.0363  -2.9105  -2.9105  -2.7783  -2.7783
    -2.4449  -2.4449  -2.3441  -1.4879  -1.4879  -1.1607  -1.1607  -1.0574
    -0.8883  -0.5779  -0.4078  -0.4078  -0.1281   0.1025   0.1025   0.6182
     0.6182   0.8880   1.1272   1.1272   1.1929   1.2420   1.2420   1.2993
     1.5889   1.5889   1.6488   1.6489   1.7979   1.7979   1.9824   1.9824
     2.6364   2.7053   2.7053   2.7500   3.1957   3.2982   3.3571   3.7458
     3.8119   3.8979   3.8979   4.3239   4.3239   4.9326   5.2860   6.0823
     6.4804   6.6186   7.0121   7.7388   8.0525   8.0525   8.1510   8.1510
     8.5525   8.8185   8.8185   9.5745   9.7899  10.1050

[...]

          k =-0.0909-0.0525 0.0000 ( 16232 PWs)   bands (ev):

[...]

     the Fermi energy is     1.9423 ev

!    total energy              =   -2899.66206394 Ry
     Harris-Foulkes estimate   =   -2899.66206434 Ry
     estimated scf accuracy    <       0.00000025 Ry

     The total energy is the sum of the following terms:

     one-electron contribution =  -21706.70575892 Ry
     hartree contribution      =   10880.64314723 Ry
     xc contribution           =    -617.33924282 Ry
     ewald contribution        =    8543.81978718 Ry
     electric field correction =       0.00000001 Ry
     smearing contrib. (-TS)   =      -0.07999661 Ry

     convergence has been achieved in  18 iterations

 BEEF-vdW xc energy contributions
           1 :   -548.179960994539
           2 :    507.159789679309
           3 :   -435.121852759117
           4 :    348.108911683691
           5 :   -262.511114339917
           6 :    190.186294714304
           7 :   -136.142753644931
           8 :    99.1584105435662
           9 :   -74.4053963710761
          10 :    56.4699801598872
          11 :   -41.4146258162449
[...]
     Pseudo is Ultrasoft + core correction, Zval = 15.0
     Generated by new atomic code, or converted to UPF format
     Using radial grid of  983 points,  7 beta functions with:
                l(1) =   0
                l(2) =   0
                l(3) =   1
                l(4) =   1
                l(5) =   1
                l(6) =   2
                l(7) =   2
     Q(r) pseudized with  8 coefficients,  rinner =    1.400   1.400   1.400
                                                       1.400   1.400

     PseudoPot. # 2 for Ga read from file:
     /afs/slac.stanford.edu/u/if/mamunm/psp/gbrv1.5pbe/Ga.UPF
     MD5 check sum: ccd671392a58a050fbb373893b4fcd66
     Pseudo is Ultrasoft + core correction, Zval = 19.0
     Generated by new atomic code, or converted to UPF format
     Using radial grid of  871 points,  6 beta functions with:
                l(1) =   0
                l(2) =   0
                l(3) =   1
                l(4) =   1
                l(5) =   2
                l(6) =   2
     Q(r) pseudized with  8 coefficients,  rinner =    1.250   1.250   1.250
                                                       1.250   1.250

     vdW kernel table read from file vdW_kernel_table
     MD5 check sum: 095c7af220d748ca6e76c0b4c6cfb241

     atomic species   valence    mass     pseudopotential
        Ir1           15.00   192.21700     Ir( 1.00)
        Ga1           19.00    69.72300     Ga( 1.00)

     No symmetry found

   Cartesian axes

     site n.     atom                  positions (alat units)
         1           Ir1 tau(   1) = (   0.0000000   0.0000000  10.0000000  )
         2           Ir1 tau(   2) = (  -1.3745376   2.3807690  10.0000000  )
         3           Ir1 tau(   3) = (   1.3745376   2.3807690  10.0000000  )
         4           Ga1 tau(   4) = (   2.7490753   0.0000000  10.0000000  )
         5           Ir1 tau(   5) = (   2.7490753   1.5871794  12.2446106  )
         6           Ir1 tau(   6) = (   1.3745376   3.9679484  12.2446106  )
         7           Ir1 tau(   7) = (  -1.3745376   3.9679484  12.2446106  )
         8           Ga1 tau(   8) = (   0.0000000   1.5871794  12.2446106  )
         9           Ir1 tau(   9) = (  -0.0000104   3.1690953  14.3898846  )
        10           Ir1 tau(  10) = (   1.3699737   0.7961912  14.3898891  )
        11           Ir1 tau(  11) = (   4.1281876   0.7962056  14.3898880  )
        12           Ga1 tau(  12) = (   2.7490623   3.1743068  14.5788286  )

     number of k points=    20  Fermi-Dirac smearing, width (Ry)=  0.0110
                       cart. coord. in units 2pi/alat
        k(    1) = (   0.0000000   0.0000000   0.0000000), wk =   0.0555556
        k(    2) = (   0.0000000   0.0350027   0.0000000), wk =   0.1111111
        k(    3) = (   0.0000000   0.0700054   0.0000000), wk =   0.1111111
        k(    4) = (   0.0000000  -0.1050081   0.0000000), wk =   0.0555556
        k(    5) = (   0.0303132   0.0175013   0.0000000), wk =   0.1111111
        k(    6) = (   0.0303132   0.0525040   0.0000000), wk =   0.1111111
        k(    7) = (   0.0303132   0.0875067   0.0000000), wk =   0.1111111
        k(    8) = (   0.0303132  -0.0875067   0.0000000), wk =   0.1111111
        k(    9) = (   0.0303132  -0.0525040   0.0000000), wk =   0.1111111
        k(   10) = (   0.0303132  -0.0175013   0.0000000), wk =   0.1111111
        k(   11) = (   0.0606264   0.0350027   0.0000000), wk =   0.1111111
        k(   12) = (   0.0606264   0.0700054   0.0000000), wk =   0.1111111
        k(   13) = (   0.0606264   0.1050081   0.0000000), wk =   0.1111111
        k(   14) = (   0.0606264  -0.0700054   0.0000000), wk =   0.1111111
        k(   15) = (   0.0606264  -0.0350027   0.0000000), wk =   0.1111111
        k(   16) = (   0.0606264   0.0000000   0.0000000), wk =   0.1111111
        k(   17) = (  -0.0909397  -0.0525040   0.0000000), wk =   0.0555556
        k(   18) = (  -0.0909397  -0.0175013   0.0000000), wk =   0.1111111
        k(   19) = (  -0.0909397   0.0175013   0.0000000), wk =   0.1111111
        k(   20) = (  -0.0909397  -0.1575121   0.0000000), wk =   0.0555556

     Largest allocated arrays     est. size (Mb)     dimensions
     Largest temporary arrays     est. size (Mb)     dimensions

     Initial potential from superposition of free atoms
     Check: negative starting charge=   -3.274959

     starting charge  184.49971, renormalised to  192.00000

[...]

     *
     * You are using vdW-DF for exchange-correlation in this calculation.
     * Please cite the following three references that made this development
     * possible:
     *
     *   M. Dion, H. Rydberg, E. Schroder, D. C. Langreth, and
     *   B. I. Lundqvist, Phys. Rev. Lett. 92, 246401 (2004).
     *
     *   T. Thonhauser, V. R. Cooper, S. Li, A. Puzder, P. Hyldgaard, and
     *   D. C. Langreth, Phys. Rev. B 76, 125112 (2007).
     *
     *   G. Roman-Perez and J. M. Soler, Phys. Rev. Lett. 103, 096102 (2009).
     *
     *
     * If you are using vdW-DF2, please also cite:
     *
     *   K. Lee, E. D. Murray, L. Kong, B. I. Lundqvist, and
     *   D. C. Langreth, Phys. Rev. B 82, 081101(R) (2010).
     *
     *
     * If you are calculating the stress with vdW-DF, please also cite:
     *
     *   R. Sabatini, E. Kucukbenli, B. Kolb, T. Thonhauser, and
     *   S. de Gironcoli, J. Phys.: Condens. Matter 24, 424209 (2012).
     *

     Carrying out vdW-DF run using the following parameters:

     Nqs =      20    Nr_points =    1024   r_max =   100.000
     q_mesh =
               0.00001000     0.04494208     0.09755937     0.15916263
               0.23128650     0.31572767     0.41458969     0.53033537
               0.66584808     0.82450364     1.01025438     1.22772762
               1.48234092     1.78043706     2.12944203     2.53805004
               3.01644009     3.57652955     4.23227104     5.00000000

     Gradients computed in reciprocal space

[...]

     Starting wfc are  144 randomized atomic wfcs

     Self-consistent Calculation

[...]

     total energy              =   -2899.67239733 Ry
     Harris-Foulkes estimate   =   -2899.67238467 Ry
     estimated scf accuracy    <       0.00000444 Ry

     iteration # 16     ecut=    36.75 Ry     beta=0.10
     Davidson diagonalization with overlap
     ethr =  2.31E-09,  avg # of iterations =  3.7

[...]

     negative rho (up, down):  2.947E+00 0.000E+00

     Adding external electric field

     Computed dipole along edir(3) :
        Dipole                0.0209 Ry au,          0.0531 Debye
        Dipole field          0.0001 Ry au

        Potential amp.       -0.0055 Ry
        Total length         45.1210 bohr

     End of self-consistent calculation

[...]

          k = 0.0606 0.0000 0.0000 ( 16294 PWs)   bands (ev):

[...]

          k =-0.0909-0.1575 0.0000 ( 16232 PWs)   bands (ev):

   -92.7612 -92.7611 -92.7391 -92.3789 -92.3742 -92.3189 -92.3189 -92.3127
   -92.3126 -47.5140 -47.4393 -47.3900 -47.3873 -47.3269 -47.2789 -47.2762
   -47.1990 -47.1185 -47.0611 -47.0526 -46.9801 -46.9197 -46.9045 -46.8985
   -46.8667 -46.8629 -46.8535 -46.8423 -46.8326 -46.8288 -46.8006 -46.7732
   -46.7566 -46.7548 -46.7421 -46.6819 -13.1761 -13.1609 -13.1468 -13.1385
   -13.1370 -12.7340 -12.7290 -12.7101 -12.7046 -12.6977 -12.6956 -12.6855
   -12.6736 -12.6733 -12.6613  -6.6527  -6.1586  -5.0495  -4.5527  -4.0336
    -3.9488  -3.4878  -3.3893  -2.6816  -2.6109  -2.5632  -2.4049  -2.2976
    -2.2858  -2.2079  -2.0194  -1.8255  -1.7016  -1.4414  -1.3262  -1.2514
    -0.9784  -0.8380  -0.8132  -0.7390  -0.6084  -0.5133  -0.4556  -0.3036
    -0.1964  -0.1785  -0.0540   0.0525   0.5300   0.5460   0.7540   0.8047
     0.8143   0.8921   1.0207   1.2051   1.3313   1.3610   1.4445   1.5001
     1.9230   2.0086   2.2877   2.6592   2.7684   2.8025   3.4073   3.8972
     4.8176   4.8544   5.0512   5.2020   5.7917   6.2040   7.3579   7.3824
     7.6385   7.9988   8.1130   8.1541   8.2574   8.2946   8.5735   9.0331
     9.0774   9.1926   9.3378   9.3621   9.3823   9.8713

     the Fermi energy is     1.9846 ev

!    total energy              =   -2899.67242708 Ry
     Harris-Foulkes estimate   =   -2899.67239817 Ry
     estimated scf accuracy    <       0.00000083 Ry

     The total energy is the sum of the following terms:

     one-electron contribution =  -21834.48393767 Ry
     hartree contribution      =   10944.67042726 Ry
     xc contribution           =    -617.46619767 Ry
     ewald contribution        =    8607.68326786 Ry
     electric field correction =       0.00000127 Ry
     smearing contrib. (-TS)   =      -0.07598813 Ry

     convergence has been achieved in  16 iterations

 BEEF-vdW xc energy contributions
           1 :   -548.312754994767
           2 :    507.349166715612
           3 :   -435.385106264975
           4 :    348.408963702572
           5 :   -262.773099642332
           6 :    190.334118842438
           7 :   -136.137175672243
           8 :    99.0174744495921
           9 :   -74.1981372819189
          10 :    56.2877652841476
          11 :   -41.3336948422045
          12 :    27.4353767140408
          13 :   -14.2940798648776
          14 :    2.43740268127249
          15 :    7.34446460032837
          16 :   -14.2796583372397
          17 :    17.8245025418667
          18 :   -17.9605342919024
          19 :    15.4691612234694
          20 :   -11.9071758679902
          21 :    9.11264611833531
          22 :   -8.40455273268697
          23 :    9.92593849977061
          24 :   -12.5765402798428
          25 :    14.6365334665578
          26 :   -14.7409946837367
          27 :    12.6253372716110
          28 :   -9.20655632209650
          29 :    5.98940515078834
          30 :   -4.20085459423774
          31 :   -45.2945356144946
          32 :   -33.3096108938838

     Forces acting on atoms (Ry/au):

     negative rho (up, down):  2.947E+00 0.000E+00
     atom    1 type  1   force =     0.00000099    0.00218348    0.02741551
     atom    2 type  1   force =     0.00189304   -0.00109197    0.02741561
     atom    3 type  1   force =    -0.00189087   -0.00109192    0.02741536
     atom    4 type  2   force =    -0.00000241   -0.00000223   -0.01190598
     atom    5 type  1   force =     0.00000052    0.01297696   -0.01656740
     atom    6 type  1   force =     0.01123985   -0.00648903   -0.01657076
     atom    7 type  1   force =    -0.01124030   -0.00649009   -0.01657270
     atom    8 type  2   force =    -0.00000391    0.00000508   -0.01872172
     atom    9 type  1   force =     0.00000196   -0.00045779   -0.00084769
     atom   10 type  1   force =    -0.00039508    0.00022943   -0.00084733
     atom   11 type  1   force =     0.00039546    0.00022797   -0.00084747
     atom   12 type  2   force =     0.00000074    0.00000010    0.00063458

     Total force =     0.063981     Total SCF correction =     0.005129

     entering subroutine stress ...

     negative rho (up, down):  2.947E+00 0.000E+00
          total   stress  (Ry/bohr**3)                   (kbar)     P=  -26.19
  -0.00021036  -0.00000000   0.00000000        -30.94     -0.00      0.00
  -0.00000000  -0.00021035   0.00000000         -0.00    -30.94      0.00
   0.00000000   0.00000000  -0.00011350          0.00      0.00    -16.70

 !ASE

     Writing output data file calc.save

     General routines

     Parallel routines

   This run was terminated on:  13: 0:33  30Dec2018

   JOB DONE.
Job  /afs/slac/g/suncat/bin/suncat-tsmpirun -x LD_LIBRARY_PATH -wdir /scratch/qe648532_PiC4R pw.x -in pw.inp

TID   HOST_NAME   COMMAND_LINE            STATUS            TERMINATION_TIME
00000 suncat0016 pw.x -in pw.inp   Done                     12/30/2018 13:00:33
00001 suncat0016 pw.x -in pw.inp   Done                     12/30/2018 13:00:33
00002 suncat0016 pw.x -in pw.inp   Done                     12/30/2018 13:00:33
00003 suncat0016 pw.x -in pw.inp   Done                     12/30/2018 13:00:33
00004 suncat0016 pw.x -in pw.inp   Done                     12/30/2018 13:00:33
00005 suncat0016 pw.x -in pw.inp   Done                     12/30/2018 13:00:33
00006 suncat0016 pw.x -in pw.inp   Done                     12/30/2018 13:00:33
00007 suncat0016 pw.x -in pw.inp   Done                     12/30/2018 13:00:33
00008 suncat0198 pw.x -in pw.inp   Done                     12/30/2018 13:00:33
00009 suncat0198 pw.x -in pw.inp   Done                     12/30/2018 13:00:33
00010 suncat0198 pw.x -in pw.inp   Done                     12/30/2018 13:00:33
00011 suncat0198 pw.x -in pw.inp   Done                     12/30/2018 13:00:33
00012 suncat0198 pw.x -in pw.inp   Done                     12/30/2018 13:00:33
00013 suncat0198 pw.x -in pw.inp   Done                     12/30/2018 13:00:33
00014 suncat0198 pw.x -in pw.inp   Done                     12/30/2018 13:00:33
00015 suncat0198 pw.x -in pw.inp   Done                     12/30/2018 13:00:33
00016 suncat0194 pw.x -in pw.inp   Done                     12/30/2018 13:00:33
00017 suncat0194 pw.x -in pw.inp   Done                     12/30/2018 13:00:33
00018 suncat0194 pw.x -in pw.inp   Done                     12/30/2018 13:00:33
00019 suncat0194 pw.x -in pw.inp   Done                     12/30/2018 13:00:33
00020 suncat0194 pw.x -in pw.inp   Done                     12/30/2018 13:00:33
00021 suncat0194 pw.x -in pw.inp   Done                     12/30/2018 13:00:33
00022 suncat0194 pw.x -in pw.inp   Done                     12/30/2018 13:00:33
00023 suncat0194 pw.x -in pw.inp   Done                     12/30/2018 13:00:33
00024 suncat0193 pw.x -in pw.inp   Done                     12/30/2018 13:00:33
00025 suncat0193 pw.x -in pw.inp   Done                     12/30/2018 13:00:33
00026 suncat0193 pw.x -in pw.inp   Done                     12/30/2018 13:00:33
00027 suncat0193 pw.x -in pw.inp   Done                     12/30/2018 13:00:33
00028 suncat0193 pw.x -in pw.inp   Done                     12/30/2018 13:00:33
00029 suncat0193 pw.x -in pw.inp   Done                     12/30/2018 13:00:33
00030 suncat0193 pw.x -in pw.inp   Done                     12/30/2018 13:00:33
00031 suncat0193 pw.x -in pw.inp   Done                     12/30/2018 13:00:33
00032 suncat0192 pw.x -in pw.inp   Done                     12/30/2018 13:00:33
00033 suncat0192 pw.x -in pw.inp   Done                     12/30/2018 13:00:33
00034 suncat0192 pw.x -in pw.inp   Done                     12/30/2018 13:00:33
00035 suncat0192 pw.x -in pw.inp   Done                     12/30/2018 13:00:33
00036 suncat0192 pw.x -in pw.inp   Done                     12/30/2018 13:00:33
00037 suncat0192 pw.x -in pw.inp   Done                     12/30/2018 13:00:33
00038 suncat0192 pw.x -in pw.inp   Done                     12/30/2018 13:00:33
00039 suncat0192 pw.x -in pw.inp   Done                     12/30/2018 13:00:33
00040 suncat0184 pw.x -in pw.inp   Done                     12/30/2018 13:00:33
00041 suncat0184 pw.x -in pw.inp   Done                     12/30/2018 13:00:33
00042 suncat0184 pw.x -in pw.inp   Done                     12/30/2018 13:00:33
00043 suncat0184 pw.x -in pw.inp   Done                     12/30/2018 13:00:33
00044 suncat0184 pw.x -in pw.inp   Done                     12/30/2018 13:00:33
00045 suncat0184 pw.x -in pw.inp   Done                     12/30/2018 13:00:33
00046 suncat0184 pw.x -in pw.inp   Done                     12/30/2018 13:00:33
00047 suncat0184 pw.x -in pw.inp   Done                     12/30/2018 13:00:33
00048 suncat0172 pw.x -in pw.inp   Done                     12/30/2018 13:00:33
00049 suncat0172 pw.x -in pw.inp   Done                     12/30/2018 13:00:33
00050 suncat0172 pw.x -in pw.inp   Done                     12/30/2018 13:00:33
00051 suncat0172 pw.x -in pw.inp   Done                     12/30/2018 13:00:33
00052 suncat0172 pw.x -in pw.inp   Done                     12/30/2018 13:00:33
00053 suncat0172 pw.x -in pw.inp   Done                     12/30/2018 13:00:33
00054 suncat0172 pw.x -in pw.inp   Done                     12/30/2018 13:00:33
00055 suncat0172 pw.x -in pw.inp   Done                     12/30/2018 13:00:33
00056 suncat0171 pw.x -in pw.inp   Done                     12/30/2018 13:00:33
00057 suncat0171 pw.x -in pw.inp   Done                     12/30/2018 13:00:33
00058 suncat0171 pw.x -in pw.inp   Done                     12/30/2018 13:00:33
00059 suncat0171 pw.x -in pw.inp   Done                     12/30/2018 13:00:33
00060 suncat0171 pw.x -in pw.inp   Done                     12/30/2018 13:00:33
00061 suncat0171 pw.x -in pw.inp   Done                     12/30/2018 13:00:33
00062 suncat0171 pw.x -in pw.inp   Done                     12/30/2018 13:00:33
00063 suncat0171 pw.x -in pw.inp   Done                     12/30/2018 13:00:33