     Program PWSCF v.5.1rc2 (svn rev. 11289) starts on 19Dec2018 at 17:58:17

     Current dimensions of program PWSCF are:
     Max number of different atomic species (ntypx) = 10
     Max number of k-points (npk) =  40000
     Max angular momentum in pseudopotentials (lmaxx) =  3
     Presently stress not available with electric field

     IMPORTANT: XC functional enforced from input :
     Exchange-correlation      = BEEF-VDW ( 1  4 27 13 2)
     Any further DFT definition will be discarded
     Please, verify this is what you really want

     Subspace diagonalization in iterative solution of the eigenvalue problem:
     a serial algorithm will be used

     bravais-lattice index     =            0
     lattice parameter (alat)  =       1.8897  a.u.
     unit-cell volume          =    4519.6663 (a.u.)^3
     number of atoms/cell      =           12
     number of atomic types    =            2
     number of electrons       =        75.00
     number of Kohn-Sham states=           67
     kinetic-energy cutoff     =      36.7493  Ry
     charge density cutoff     =     367.4932  Ry
     convergence threshold     =      1.0E-06
     mixing beta               =       0.1000
     number of iterations used =           10  plain     mixing
     Exchange-correlation      = BEEF-VDW ( 1  4 27 13 2)
     nstep                     =           50

     celldm(1)=   1.889726  celldm(2)=   0.000000  celldm(3)=   0.000000
     celldm(4)=   0.000000  celldm(5)=   0.000000  celldm(6)=   0.000000

     crystal axes: (cart. coord. in units of alat)
               a(1) = (   5.609184   0.000000   0.000000 )
               a(2) = (  -2.804592   4.857696   0.000000 )
               a(3) = (   0.000000   0.000000  24.579880 )

     reciprocal axes: (cart. coord. in units 2 pi/alat)
               b(1) = (  0.178279  0.102929  0.000000 )
               b(2) = (  0.000000  0.205859  0.000000 )
               b(3) = (  0.000000  0.000000  0.040684 )

     PseudoPot. # 1 for Al read from file:
     /afs/slac.stanford.edu/u/if/mamunm/psp/gbrv1.5pbe/Al.UPF
     MD5 check sum: 0a6289f5291fc8f409219462bc851e1f
     Pseudo is Ultrasoft + core correction, Zval =  3.0
     Generated by new atomic code, or converted to UPF format
     Using radial grid of  893 points,  3 beta functions with:
                l(1) =   0
                l(2) =   1
                l(3) =   2
     Q(r) pseudized with  8 coefficients,  rinner =    0.900   0.900   0.900
                                                       0.900   0.900

     PseudoPot. # 2 for Pd read from file:
     /afs/slac.stanford.edu/u/if/mamunm/psp/gbrv1.5pbe/Pd.UPF
     MD5 check sum: 2d733d2bc2cbfd217af676df1668a4bc
     Pseudo is Ultrasoft + core correction, Zval = 16.0
     Generated by new atomic code, or converted to UPF format
     Using radial grid of  887 points,  6 beta functions with:
                l(1) =   0
                l(2) =   0
                l(3) =   1
                l(4) =   1
                l(5) =   2
                l(6) =   2
     Q(r) pseudized with  8 coefficients,  rinner =    1.130   1.130   1.130
                                                       1.130   1.130

     vdW kernel table read from file vdW_kernel_table
     MD5 check sum: 095c7af220d748ca6e76c0b4c6cfb241

     atomic species   valence    mass     pseudopotential
        Al1            3.00    26.98154     Al( 1.00)
        Pd1           16.00   106.42000     Pd( 1.00)

     No symmetry found

   Cartesian axes

     site n.     atom                  positions (alat units)
         1           Al1 tau(   1) = (   0.0000000   0.0000000  10.0000000  )
         2           Al1 tau(   2) = (  -1.4022960   2.4288479  10.0000000  )
         3           Al1 tau(   3) = (   1.4022960   2.4288479  10.0000000  )
         4           Pd1 tau(   4) = (   2.8045920   0.0000000  10.0000000  )
         5           Al1 tau(   5) = (   2.8045920   1.6192320  12.2899398  )
         6           Al1 tau(   6) = (   1.4022960   4.0480799  12.2899398  )
         7           Al1 tau(   7) = (  -1.4022960   4.0480799  12.2899398  )
         8           Pd1 tau(   8) = (   0.0000000   1.6192320  12.2899398  )
         9           Al1 tau(   9) = (  -0.0000000   3.2384639  14.5798796  )
        10           Al1 tau(  10) = (   1.4022960   0.8096160  14.5798796  )
        11           Al1 tau(  11) = (   4.2068880   0.8096160  14.5798796  )
        12           Pd1 tau(  12) = (   2.8045920   3.2384639  14.5798796  )

     number of k points=    20  Fermi-Dirac smearing, width (Ry)=  0.0110
                       cart. coord. in units 2pi/alat
        k(    1) = (   0.0000000   0.0000000   0.0000000), wk =   0.0555556
        k(    2) = (   0.0000000   0.0343098   0.0000000), wk =   0.1111111
        k(    3) = (   0.0000000   0.0686196   0.0000000), wk =   0.1111111
        k(    4) = (   0.0000000  -0.1029295   0.0000000), wk =   0.0555556
        k(    5) = (   0.0297132   0.0171549   0.0000000), wk =   0.1111111
        k(    6) = (   0.0297132   0.0514647   0.0000000), wk =   0.1111111
        k(    7) = (   0.0297132   0.0857745   0.0000000), wk =   0.1111111
        k(    8) = (   0.0297132  -0.0857745   0.0000000), wk =   0.1111111
        k(    9) = (   0.0297132  -0.0514647   0.0000000), wk =   0.1111111
        k(   10) = (   0.0297132  -0.0171549   0.0000000), wk =   0.1111111
        k(   11) = (   0.0594263   0.0343098   0.0000000), wk =   0.1111111
        k(   12) = (   0.0594263   0.0686196   0.0000000), wk =   0.1111111
        k(   13) = (   0.0594263   0.1029295   0.0000000), wk =   0.1111111
        k(   14) = (   0.0594263  -0.0686196   0.0000000), wk =   0.1111111
        k(   15) = (   0.0594263  -0.0343098   0.0000000), wk =   0.1111111
        k(   16) = (   0.0594263   0.0000000   0.0000000), wk =   0.1111111
        k(   17) = (  -0.0891395  -0.0514647   0.0000000), wk =   0.0555556
        k(   18) = (  -0.0891395  -0.0171549   0.0000000), wk =   0.1111111
        k(   19) = (  -0.0891395   0.0171549   0.0000000), wk =   0.1111111
        k(   20) = (  -0.0891395  -0.1543942   0.0000000), wk =   0.0555556

     Largest allocated arrays     est. size (Mb)     dimensions
     Largest temporary arrays     est. size (Mb)     dimensions

     Initial potential from superposition of free atoms
     Check: negative starting charge=   -0.224479

     starting charge   73.47779, renormalised to   75.00000

     negative rho (up, down):  2.291E-01 0.000E+00

     *
     * You are using vdW-DF for exchange-correlation in this calculation.
     * Please cite the following three references that made this development
     * possible:
     *
     *   M. Dion, H. Rydberg, E. Schroder, D. C. Langreth, and
     *   B. I. Lundqvist, Phys. Rev. Lett. 92, 246401 (2004).
     *
     *   T. Thonhauser, V. R. Cooper, S. Li, A. Puzder, P. Hyldgaard, and
     *   D. C. Langreth, Phys. Rev. B 76, 125112 (2007).
     *
     *   G. Roman-Perez and J. M. Soler, Phys. Rev. Lett. 103, 096102 (2009).
     *
     *
     * If you are using vdW-DF2, please also cite:
     *
     *   K. Lee, E. D. Murray, L. Kong, B. I. Lundqvist, and
     *   D. C. Langreth, Phys. Rev. B 82, 081101(R) (2010).
     *
     *
     * If you are calculating the stress with vdW-DF, please also cite:
     *
     *   R. Sabatini, E. Kucukbenli, B. Kolb, T. Thonhauser, and
     *   S. de Gironcoli, J. Phys.: Condens. Matter 24, 424209 (2012).
     *

     Carrying out vdW-DF run using the following parameters:

     Nqs =      20    Nr_points =    1024   r_max =   100.000
     q_mesh =
               0.00001000     0.04494208     0.09755937     0.15916263
               0.23128650     0.31572767     0.41458969     0.53033537
               0.66584808     0.82450364     1.01025438     1.22772762
               1.48234092     1.78043706     2.12944203     2.53805004
               3.01644009     3.57652955     4.23227104     5.00000000

     Gradients computed in reciprocal space

     Adding external electric field

     Computed dipole along edir(3) :
        Dipole               -0.0000 Ry au,         -0.0000 Debye
        Dipole field         -0.0000 Ry au

        Potential amp.        0.0000 Ry
        Total length         45.2880 bohr

     Starting wfc are   72 randomized atomic wfcs

     Self-consistent Calculation

     iteration #  1     ecut=    36.75 Ry     beta=0.10
     Davidson diagonalization with overlap
     ethr =  1.00E-02,  avg # of iterations =  7.4

[...]

     total energy              =    -660.52292827 Ry
     Harris-Foulkes estimate   =    -663.14902323 Ry
     estimated scf accuracy    <      14.98683461 Ry

[...]

     End of self-consistent calculation

          k = 0.0000 0.0000 0.0000 ( 16955 PWs)   bands (ev):

   -51.3381 -51.3381 -51.2922 -50.9373 -50.9373 -50.9373 -50.9373 -50.7519
   -50.7519 -10.4477  -8.7227  -6.6668  -5.8080  -5.8080  -5.0212  -5.0212
    -4.8992  -4.8992  -4.7228  -4.3846  -3.8544  -3.8544  -3.7274  -3.7274
    -3.5609  -3.1272  -3.1272  -3.0041  -2.6137  -2.5677  -2.5160  -2.5160
    -2.0690  -1.9956  -1.9956  -1.9487  -1.9487  -0.4735  -0.1420  -0.1420
     0.8273   0.8273   1.2918   1.3695   1.3695   1.4890   1.7817   3.1988
     3.5195   3.9043   3.9043   4.0359   4.0359   4.0819   4.1537   4.7264
     4.8544   6.1743   6.1874   6.3190   6.5417   6.5417   7.4258   7.4500
     7.4500   7.5163   7.7682

[...]

          k =-0.0891-0.0515 0.0000 ( 17060 PWs)   bands (ev):

[...]

     the Fermi energy is    -0.1209 ev

!    total energy              =    -661.47359811 Ry
     Harris-Foulkes estimate   =    -661.47359939 Ry
     estimated scf accuracy    <       0.00000035 Ry

     The total energy is the sum of the following terms:

     one-electron contribution =   -3328.82160219 Ry
     hartree contribution      =    1678.01505146 Ry
     xc contribution           =    -137.40598395 Ry
     ewald contribution        =    1126.76401834 Ry
     electric field correction =       0.00000000 Ry
     smearing contrib. (-TS)   =      -0.02508178 Ry

     convergence has been achieved in  14 iterations

 BEEF-vdW xc energy contributions
           1 :   -117.671525866745
           2 :    105.821835212616
           3 :   -86.3647383835094
           4 :    65.4055152303818
           5 :   -47.9593523854589
           6 :    36.1948618933673
           7 :   -29.5473871426390
           8 :    26.1017593510159
           9 :   -24.0471561008063
          10 :    22.3443959475995
          11 :   -20.5988174846149
          12 :    18.6905308519534
          13 :   -16.6293144002954
          14 :    14.6246034864164
          15 :   -13.0693283183708
          16 :    12.2772861562588
          17 :   -12.1698917474868
          18 :    12.2425300985000
          19 :   -11.9065876018401
          20 :    10.9320770476937
          21 :   -9.60541654019647
          22 :    8.46965248942381
          23 :   -7.88775440324540
          24 :    7.79917774602025
          25 :   -7.83927265536616
          26 :    7.66719223302468
          27 :   -7.20387396510623
          28 :    6.61101047636552
          29 :   -6.09285940652882
          30 :    5.73028021777307
[...]
     celldm(4)=   0.000000  celldm(5)=   0.000000  celldm(6)=   0.000000

     crystal axes: (cart. coord. in units of alat)
               a(1) = (   5.609184   0.000000   0.000000 )
               a(2) = (  -2.804592   4.857696   0.000000 )
               a(3) = (   0.000000   0.000000  24.579880 )

     reciprocal axes: (cart. coord. in units 2 pi/alat)
               b(1) = (  0.178279  0.102929  0.000000 )
               b(2) = (  0.000000  0.205859  0.000000 )
               b(3) = (  0.000000  0.000000  0.040684 )

     PseudoPot. # 1 for Al read from file:
     /afs/slac.stanford.edu/u/if/mamunm/psp/gbrv1.5pbe/Al.UPF
     MD5 check sum: 0a6289f5291fc8f409219462bc851e1f
     Pseudo is Ultrasoft + core correction, Zval =  3.0
     Generated by new atomic code, or converted to UPF format
     Using radial grid of  893 points,  3 beta functions with:
                l(1) =   0
                l(2) =   1
                l(3) =   2
     Q(r) pseudized with  8 coefficients,  rinner =    0.900   0.900   0.900
                                                       0.900   0.900

     PseudoPot. # 2 for Pd read from file:
     /afs/slac.stanford.edu/u/if/mamunm/psp/gbrv1.5pbe/Pd.UPF
     MD5 check sum: 2d733d2bc2cbfd217af676df1668a4bc
     Pseudo is Ultrasoft + core correction, Zval = 16.0
     Generated by new atomic code, or converted to UPF format
     Using radial grid of  887 points,  6 beta functions with:
                l(1) =   0
                l(2) =   0
                l(3) =   1
                l(4) =   1
                l(5) =   2
                l(6) =   2
     Q(r) pseudized with  8 coefficients,  rinner =    1.130   1.130   1.130
                                                       1.130   1.130

     vdW kernel table read from file vdW_kernel_table
     MD5 check sum: 095c7af220d748ca6e76c0b4c6cfb241

     atomic species   valence    mass     pseudopotential
        Al1            3.00    26.98154     Al( 1.00)
        Pd1           16.00   106.42000     Pd( 1.00)

     No symmetry found

   Cartesian axes

     site n.     atom                  positions (alat units)
         1           Al1 tau(   1) = (   0.0000000   0.0000000  10.0000000  )
         2           Al1 tau(   2) = (  -1.4022960   2.4288479  10.0000000  )
         3           Al1 tau(   3) = (   1.4022960   2.4288479  10.0000000  )
         4           Pd1 tau(   4) = (   2.8045920   0.0000000  10.0000000  )
         5           Al1 tau(   5) = (   2.8045920   1.6192320  12.2899398  )
         6           Al1 tau(   6) = (   1.4022960   4.0480799  12.2899398  )
         7           Al1 tau(   7) = (  -1.4022960   4.0480799  12.2899398  )
         8           Pd1 tau(   8) = (   0.0000000   1.6192320  12.2899398  )
         9           Al1 tau(   9) = (  -0.0000016   3.2203665  14.6411181  )
        10           Al1 tau(  10) = (   1.3866227   0.8186655  14.6411180  )
        11           Al1 tau(  11) = (   4.2225609   0.8186671  14.6411180  )
        12           Pd1 tau(  12) = (   2.8045831   3.2384671  14.4879746  )

     number of k points=    20  Fermi-Dirac smearing, width (Ry)=  0.0110
                       cart. coord. in units 2pi/alat
        k(    1) = (   0.0000000   0.0000000   0.0000000), wk =   0.0555556
        k(    2) = (   0.0000000   0.0343098   0.0000000), wk =   0.1111111
        k(    3) = (   0.0000000   0.0686196   0.0000000), wk =   0.1111111
        k(    4) = (   0.0000000  -0.1029295   0.0000000), wk =   0.0555556
        k(    5) = (   0.0297132   0.0171549   0.0000000), wk =   0.1111111
        k(    6) = (   0.0297132   0.0514647   0.0000000), wk =   0.1111111
        k(    7) = (   0.0297132   0.0857745   0.0000000), wk =   0.1111111
        k(    8) = (   0.0297132  -0.0857745   0.0000000), wk =   0.1111111
        k(    9) = (   0.0297132  -0.0514647   0.0000000), wk =   0.1111111
        k(   10) = (   0.0297132  -0.0171549   0.0000000), wk =   0.1111111
        k(   11) = (   0.0594263   0.0343098   0.0000000), wk =   0.1111111
        k(   12) = (   0.0594263   0.0686196   0.0000000), wk =   0.1111111
        k(   13) = (   0.0594263   0.1029295   0.0000000), wk =   0.1111111
        k(   14) = (   0.0594263  -0.0686196   0.0000000), wk =   0.1111111
        k(   15) = (   0.0594263  -0.0343098   0.0000000), wk =   0.1111111
        k(   16) = (   0.0594263   0.0000000   0.0000000), wk =   0.1111111
        k(   17) = (  -0.0891395  -0.0514647   0.0000000), wk =   0.0555556
        k(   18) = (  -0.0891395  -0.0171549   0.0000000), wk =   0.1111111
        k(   19) = (  -0.0891395   0.0171549   0.0000000), wk =   0.1111111
        k(   20) = (  -0.0891395  -0.1543942   0.0000000), wk =   0.0555556

     Largest allocated arrays     est. size (Mb)     dimensions
     Largest temporary arrays     est. size (Mb)     dimensions

     Initial potential from superposition of free atoms
     Check: negative starting charge=   -0.225036

     starting charge   73.47779, renormalised to   75.00000

[...]

     *
     * You are using vdW-DF for exchange-correlation in this calculation.
     * Please cite the following three references that made this development
     * possible:
     *
     *   M. Dion, H. Rydberg, E. Schroder, D. C. Langreth, and
     *   B. I. Lundqvist, Phys. Rev. Lett. 92, 246401 (2004).
     *
     *   T. Thonhauser, V. R. Cooper, S. Li, A. Puzder, P. Hyldgaard, and
     *   D. C. Langreth, Phys. Rev. B 76, 125112 (2007).
     *
     *   G. Roman-Perez and J. M. Soler, Phys. Rev. Lett. 103, 096102 (2009).
     *
     *
     * If you are using vdW-DF2, please also cite:
     *
     *   K. Lee, E. D. Murray, L. Kong, B. I. Lundqvist, and
     *   D. C. Langreth, Phys. Rev. B 82, 081101(R) (2010).
     *
     *
     * If you are calculating the stress with vdW-DF, please also cite:
     *
     *   R. Sabatini, E. Kucukbenli, B. Kolb, T. Thonhauser, and
     *   S. de Gironcoli, J. Phys.: Condens. Matter 24, 424209 (2012).
     *

     Carrying out vdW-DF run using the following parameters:

     Nqs =      20    Nr_points =    1024   r_max =   100.000
     q_mesh =
               0.00001000     0.04494208     0.09755937     0.15916263
               0.23128650     0.31572767     0.41458969     0.53033537
               0.66584808     0.82450364     1.01025438     1.22772762
               1.48234092     1.78043706     2.12944203     2.53805004
               3.01644009     3.57652955     4.23227104     5.00000000

     Gradients computed in reciprocal space

[...]

     Starting wfc are   72 randomized atomic wfcs

     Self-consistent Calculation

[...]

     total energy              =    -661.47777960 Ry
     Harris-Foulkes estimate   =    -661.47777981 Ry
     estimated scf accuracy    <       0.00000109 Ry

     iteration # 15     ecut=    36.75 Ry     beta=0.10
     Davidson diagonalization with overlap
     ethr =  1.45E-09,  avg # of iterations =  2.2

[...]

     negative rho (up, down):  2.379E-01 0.000E+00

     Adding external electric field

     Computed dipole along edir(3) :
        Dipole                0.0299 Ry au,          0.0759 Debye
        Dipole field          0.0001 Ry au

        Potential amp.       -0.0075 Ry
        Total length         45.2880 bohr

     End of self-consistent calculation

[...]

          k = 0.0594 0.0000 0.0000 ( 16990 PWs)   bands (ev):

[...]

          k =-0.0891-0.1544 0.0000 ( 17060 PWs)   bands (ev):

   -51.2682 -51.2681 -51.2176 -51.0115 -51.0115 -50.8959 -50.8959 -50.8577
   -50.7050  -8.9611  -8.7336  -7.3226  -7.1042  -6.2443  -5.8682  -5.2426
    -5.0549  -4.9452  -4.4273  -4.4158  -4.1890  -3.9674  -3.8692  -3.8339
    -3.6936  -3.5124  -3.3363  -3.1315  -3.1223  -2.6396  -2.4810  -2.3878
    -2.1558  -2.1280  -0.9762  -0.6732  -0.6379   0.0292   1.0861   1.3930
     1.6234   1.6449   1.7741   2.2074   2.4252   2.7627   2.8928   2.9285
     3.6930   3.7879   4.1165   4.4002   4.5251   4.5526   4.8711   5.1058
     5.2508   5.3235   5.5135   5.5394   5.7855   5.9420   6.0447   6.1070
     6.2218   6.5870   6.9163

     the Fermi energy is    -0.0891 ev

!    total energy              =    -661.47777928 Ry
     Harris-Foulkes estimate   =    -661.47777974 Ry
     estimated scf accuracy    <       0.00000019 Ry

     The total energy is the sum of the following terms:

     one-electron contribution =   -3343.46786447 Ry
     hartree contribution      =    1685.36973664 Ry
     xc contribution           =    -137.38032171 Ry
     ewald contribution        =    1134.02574829 Ry
     electric field correction =       0.00000248 Ry
     smearing contrib. (-TS)   =      -0.02508052 Ry

     convergence has been achieved in  15 iterations

 BEEF-vdW xc energy contributions
           1 :   -117.673644921775
           2 :    105.822861132344
           3 :   -86.3625217875835
           4 :    65.3959545908071
           5 :   -47.9361600352925
           6 :    36.1515824428057
           7 :   -29.4820843415845
           8 :    26.0214382888853
           9 :   -23.9662579994243
          10 :    22.2762581312297
          11 :   -20.5456471671586
          12 :    18.6408707403589
          13 :   -16.5669657510372
          14 :    14.5416522913922
          15 :   -12.9718361387433
          16 :    12.1794118859901
          17 :   -12.0820758381608
          18 :    12.1643339183729
          19 :   -11.8300499760211
          20 :    10.8509356912643
          21 :   -9.52031482467316
          22 :    8.38542757113811
          23 :   -7.80731206102894
          24 :    7.72121987183934
          25 :   -7.76159150824330
          26 :    7.59067627953087
          27 :   -7.13204452981651
          28 :    6.54562325776457
          29 :   -6.03115409102924
          30 :    5.66783970771638
          31 :   -13.1583688437926
          32 :   -9.70622726060051

     Forces acting on atoms (Ry/au):

     negative rho (up, down):  2.379E-01 0.000E+00
     atom    1 type  1   force =     0.00000006    0.00545158   -0.00901040
     atom    2 type  1   force =     0.00472119   -0.00272576   -0.00901042
     atom    3 type  1   force =    -0.00472122   -0.00272587   -0.00901041
     atom    4 type  2   force =     0.00000027    0.00000019    0.01491107
     atom    5 type  1   force =     0.00000001   -0.00351691    0.00267287
     atom    6 type  1   force =    -0.00304589    0.00175857    0.00267280
     atom    7 type  1   force =     0.00304569    0.00175848    0.00267287
     atom    8 type  2   force =    -0.00000001    0.00000012    0.00082796
     atom    9 type  1   force =    -0.00000017    0.00153814    0.00100387
     atom   10 type  1   force =     0.00133186   -0.00076907    0.00100385
     atom   11 type  1   force =    -0.00133218   -0.00076909    0.00100386
     atom   12 type  2   force =     0.00000038   -0.00000038    0.00026209

     Total force =     0.024990     Total SCF correction =     0.001282

     entering subroutine stress ...

     negative rho (up, down):  2.379E-01 0.000E+00
          total   stress  (Ry/bohr**3)                   (kbar)     P=  -20.00
  -0.00020926   0.00000000  -0.00000000        -30.78      0.00     -0.00
   0.00000000  -0.00020926  -0.00000000          0.00    -30.78     -0.00
  -0.00000000  -0.00000000   0.00001069         -0.00     -0.00      1.57

 !ASE

     Writing output data file calc.save

     General routines

     Parallel routines

   This run was terminated on:  18:25:29  19Dec2018

   JOB DONE.
Job  /afs/slac/g/suncat/bin/suncat-tsmpirun -x LD_LIBRARY_PATH -wdir /scratch/qe773289_yCX7e pw.x -in pw.inp

TID   HOST_NAME   COMMAND_LINE            STATUS            TERMINATION_TIME
00000 suncat0167 pw.x -in pw.inp   Done                     12/19/2018 18:25:29
00001 suncat0167 pw.x -in pw.inp   Done                     12/19/2018 18:25:29
00002 suncat0167 pw.x -in pw.inp   Done                     12/19/2018 18:25:29
00003 suncat0167 pw.x -in pw.inp   Done                     12/19/2018 18:25:29
00004 suncat0167 pw.x -in pw.inp   Done                     12/19/2018 18:25:29
00005 suncat0167 pw.x -in pw.inp   Done                     12/19/2018 18:25:29
00006 suncat0167 pw.x -in pw.inp   Done                     12/19/2018 18:25:29
00007 suncat0167 pw.x -in pw.inp   Done                     12/19/2018 18:25:29
00008 suncat0166 pw.x -in pw.inp   Done                     12/19/2018 18:25:29
00009 suncat0166 pw.x -in pw.inp   Done                     12/19/2018 18:25:29
00010 suncat0166 pw.x -in pw.inp   Done                     12/19/2018 18:25:29
00011 suncat0166 pw.x -in pw.inp   Done                     12/19/2018 18:25:29
00012 suncat0166 pw.x -in pw.inp   Done                     12/19/2018 18:25:29
00013 suncat0166 pw.x -in pw.inp   Done                     12/19/2018 18:25:29
00014 suncat0166 pw.x -in pw.inp   Done                     12/19/2018 18:25:29
00015 suncat0166 pw.x -in pw.inp   Done                     12/19/2018 18:25:29
00016 suncat0165 pw.x -in pw.inp   Done                     12/19/2018 18:25:29
00017 suncat0165 pw.x -in pw.inp   Done                     12/19/2018 18:25:29
00018 suncat0165 pw.x -in pw.inp   Done                     12/19/2018 18:25:29
00019 suncat0165 pw.x -in pw.inp   Done                     12/19/2018 18:25:29
00020 suncat0165 pw.x -in pw.inp   Done                     12/19/2018 18:25:29
00021 suncat0165 pw.x -in pw.inp   Done                     12/19/2018 18:25:29
00022 suncat0165 pw.x -in pw.inp   Done                     12/19/2018 18:25:29
00023 suncat0165 pw.x -in pw.inp   Done                     12/19/2018 18:25:29
00024 suncat0164 pw.x -in pw.inp   Done                     12/19/2018 18:25:29
00025 suncat0164 pw.x -in pw.inp   Done                     12/19/2018 18:25:29
00026 suncat0164 pw.x -in pw.inp   Done                     12/19/2018 18:25:29
00027 suncat0164 pw.x -in pw.inp   Done                     12/19/2018 18:25:29
00028 suncat0164 pw.x -in pw.inp   Done                     12/19/2018 18:25:29
00029 suncat0164 pw.x -in pw.inp   Done                     12/19/2018 18:25:29
00030 suncat0164 pw.x -in pw.inp   Done                     12/19/2018 18:25:29
00031 suncat0164 pw.x -in pw.inp   Done                     12/19/2018 18:25:29
00032 suncat0163 pw.x -in pw.inp   Done                     12/19/2018 18:25:29
00033 suncat0163 pw.x -in pw.inp   Done                     12/19/2018 18:25:29
00034 suncat0163 pw.x -in pw.inp   Done                     12/19/2018 18:25:29
00035 suncat0163 pw.x -in pw.inp   Done                     12/19/2018 18:25:29
00036 suncat0163 pw.x -in pw.inp   Done                     12/19/2018 18:25:29
00037 suncat0163 pw.x -in pw.inp   Done                     12/19/2018 18:25:29
00038 suncat0163 pw.x -in pw.inp   Done                     12/19/2018 18:25:29
00039 suncat0163 pw.x -in pw.inp   Done                     12/19/2018 18:25:29
00040 suncat0162 pw.x -in pw.inp   Done                     12/19/2018 18:25:29
00041 suncat0162 pw.x -in pw.inp   Done                     12/19/2018 18:25:29
00042 suncat0162 pw.x -in pw.inp   Done                     12/19/2018 18:25:29
00043 suncat0162 pw.x -in pw.inp   Done                     12/19/2018 18:25:29
00044 suncat0162 pw.x -in pw.inp   Done                     12/19/2018 18:25:29
00045 suncat0162 pw.x -in pw.inp   Done                     12/19/2018 18:25:29
00046 suncat0162 pw.x -in pw.inp   Done                     12/19/2018 18:25:29
00047 suncat0162 pw.x -in pw.inp   Done                     12/19/2018 18:25:29
00048 suncat0161 pw.x -in pw.inp   Done                     12/19/2018 18:25:29
00049 suncat0161 pw.x -in pw.inp   Done                     12/19/2018 18:25:29
00050 suncat0161 pw.x -in pw.inp   Done                     12/19/2018 18:25:29
00051 suncat0161 pw.x -in pw.inp   Done                     12/19/2018 18:25:29
00052 suncat0161 pw.x -in pw.inp   Done                     12/19/2018 18:25:29
00053 suncat0161 pw.x -in pw.inp   Done                     12/19/2018 18:25:29
00054 suncat0161 pw.x -in pw.inp   Done                     12/19/2018 18:25:29
00055 suncat0161 pw.x -in pw.inp   Done                     12/19/2018 18:25:29
00056 suncat0159 pw.x -in pw.inp   Done                     12/19/2018 18:25:29
00057 suncat0159 pw.x -in pw.inp   Done                     12/19/2018 18:25:29
00058 suncat0159 pw.x -in pw.inp   Done                     12/19/2018 18:25:29
00059 suncat0159 pw.x -in pw.inp   Done                     12/19/2018 18:25:29
00060 suncat0159 pw.x -in pw.inp   Done                     12/19/2018 18:25:29
00061 suncat0159 pw.x -in pw.inp   Done                     12/19/2018 18:25:29
00062 suncat0159 pw.x -in pw.inp   Done                     12/19/2018 18:25:29
00063 suncat0159 pw.x -in pw.inp   Done                     12/19/2018 18:25:29