     Program PWSCF v.5.1rc2 (svn rev. 11289) starts on 20Dec2018 at  1:21:17

     Current dimensions of program PWSCF are:
     Max number of different atomic species (ntypx) = 10
     Max number of k-points (npk) =  40000
     Max angular momentum in pseudopotentials (lmaxx) =  3
     Presently stress not available with electric field

     IMPORTANT: XC functional enforced from input :
     Exchange-correlation      = BEEF-VDW ( 1  4 27 13 2)
     Any further DFT definition will be discarded
     Please, verify this is what you really want

     Subspace diagonalization in iterative solution of the eigenvalue problem:
     a serial algorithm will be used

     bravais-lattice index     =            0
     lattice parameter (alat)  =       1.8897  a.u.
     unit-cell volume          =    5464.1015 (a.u.)^3
     number of atoms/cell      =           12
     number of atomic types    =            2
     number of electrons       =       147.00
     number of Kohn-Sham states=          103
     kinetic-energy cutoff     =      36.7493  Ry
     charge density cutoff     =     367.4932  Ry
     convergence threshold     =      1.0E-06
     mixing beta               =       0.1000
     number of iterations used =           10  plain     mixing
     Exchange-correlation      = BEEF-VDW ( 1  4 27 13 2)
     nstep                     =           50

     celldm(1)=   1.889726  celldm(2)=   0.000000  celldm(3)=   0.000000
     celldm(4)=   0.000000  celldm(5)=   0.000000  celldm(6)=   0.000000

     crystal axes: (cart. coord. in units of alat)
               a(1) = (   6.116167   0.000000   0.000000 )
               a(2) = (  -3.058084   5.296756   0.000000 )
               a(3) = (   0.000000   0.000000  24.993830 )

     reciprocal axes: (cart. coord. in units 2 pi/alat)
               b(1) = (  0.163501  0.094397  0.000000 )
               b(2) = (  0.000000  0.188795  0.000000 )
               b(3) = (  0.000000  0.000000  0.040010 )

     PseudoPot. # 1 for Cd read from file:
     /afs/slac.stanford.edu/u/if/mamunm/psp/gbrv1.5pbe/Cd.UPF
     MD5 check sum: 17164a7926edb8e0dc231208abae86a6
     Pseudo is Ultrasoft + core correction, Zval = 12.0
     Generated by new atomic code, or converted to UPF format
     Using radial grid of  889 points,  6 beta functions with:
                l(1) =   0
                l(2) =   0
                l(3) =   1
                l(4) =   1
                l(5) =   2
                l(6) =   2
     Q(r) pseudized with  6 coefficients,  rinner =    1.000   1.000   1.000
                                                       1.000   1.000

     PseudoPot. # 2 for Ta read from file:
     /afs/slac.stanford.edu/u/if/mamunm/psp/gbrv1.5pbe/Ta.UPF
     MD5 check sum: f8bbe9446314a3b8ea5d9f3e3836c939
     Pseudo is Ultrasoft + core correction, Zval = 13.0
     Generated by new atomic code, or converted to UPF format
     Using radial grid of  921 points,  7 beta functions with:
                l(1) =   0
                l(2) =   0
                l(3) =   1
                l(4) =   1
                l(5) =   2
                l(6) =   2
                l(7) =   3
     Q(r) pseudized with  6 coefficients,  rinner =    1.300   1.300   1.300
                                                       1.300   1.300   1.300
                                                       1.300

     vdW kernel table read from file vdW_kernel_table
     MD5 check sum: 095c7af220d748ca6e76c0b4c6cfb241

     atomic species   valence    mass     pseudopotential
        Cd1           12.00   112.41400     Cd( 1.00)
        Ta1           13.00   180.94788     Ta( 1.00)

     No symmetry found

   Cartesian axes

     site n.     atom                  positions (alat units)
         1           Cd1 tau(   1) = (   0.0000000   0.0000000  10.0000000  )
         2           Cd1 tau(   2) = (  -1.5290418   2.6483781  10.0000000  )
         3           Cd1 tau(   3) = (   1.5290418   2.6483781  10.0000000  )
         4           Ta1 tau(   4) = (   3.0580837   0.0000000  10.0000000  )
         5           Cd1 tau(   5) = (   3.0580837   1.7655854  12.4969149  )
         6           Cd1 tau(   6) = (   1.5290418   4.4139636  12.4969149  )
         7           Cd1 tau(   7) = (  -1.5290418   4.4139636  12.4969149  )
         8           Ta1 tau(   8) = (   0.0000000   1.7655854  12.4969149  )
         9           Cd1 tau(   9) = (  -0.0000000   3.5311709  14.9938297  )
        10           Cd1 tau(  10) = (   1.5290418   0.8827927  14.9938297  )
        11           Cd1 tau(  11) = (   4.5871255   0.8827927  14.9938297  )
        12           Ta1 tau(  12) = (   3.0580837   3.5311709  14.9938297  )

     number of k points=    20  Fermi-Dirac smearing, width (Ry)=  0.0110
                       cart. coord. in units 2pi/alat
        k(    1) = (   0.0000000   0.0000000   0.0000000), wk =   0.0555556
        k(    2) = (   0.0000000   0.0314658   0.0000000), wk =   0.1111111
        k(    3) = (   0.0000000   0.0629316   0.0000000), wk =   0.1111111
        k(    4) = (   0.0000000  -0.0943974   0.0000000), wk =   0.0555556
        k(    5) = (   0.0272502   0.0157329   0.0000000), wk =   0.1111111
        k(    6) = (   0.0272502   0.0471987   0.0000000), wk =   0.1111111
        k(    7) = (   0.0272502   0.0786645   0.0000000), wk =   0.1111111
        k(    8) = (   0.0272502  -0.0786645   0.0000000), wk =   0.1111111
        k(    9) = (   0.0272502  -0.0471987   0.0000000), wk =   0.1111111
        k(   10) = (   0.0272502  -0.0157329   0.0000000), wk =   0.1111111
        k(   11) = (   0.0545004   0.0314658   0.0000000), wk =   0.1111111
        k(   12) = (   0.0545004   0.0629316   0.0000000), wk =   0.1111111
        k(   13) = (   0.0545004   0.0943974   0.0000000), wk =   0.1111111
        k(   14) = (   0.0545004  -0.0629316   0.0000000), wk =   0.1111111
        k(   15) = (   0.0545004  -0.0314658   0.0000000), wk =   0.1111111
        k(   16) = (   0.0545004   0.0000000   0.0000000), wk =   0.1111111
        k(   17) = (  -0.0817505  -0.0471987   0.0000000), wk =   0.0555556
        k(   18) = (  -0.0817505  -0.0157329   0.0000000), wk =   0.1111111
        k(   19) = (  -0.0817505   0.0157329   0.0000000), wk =   0.1111111
        k(   20) = (  -0.0817505  -0.1415961   0.0000000), wk =   0.0555556

     Largest allocated arrays     est. size (Mb)     dimensions
     Largest temporary arrays     est. size (Mb)     dimensions

     Initial potential from superposition of free atoms
     Check: negative starting charge=   -0.483546

     starting charge  142.49629, renormalised to  147.00000

     negative rho (up, down):  4.988E-01 0.000E+00

     *
     * You are using vdW-DF for exchange-correlation in this calculation.
     * Please cite the following three references that made this development
     * possible:
     *
     *   M. Dion, H. Rydberg, E. Schroder, D. C. Langreth, and
     *   B. I. Lundqvist, Phys. Rev. Lett. 92, 246401 (2004).
     *
     *   T. Thonhauser, V. R. Cooper, S. Li, A. Puzder, P. Hyldgaard, and
     *   D. C. Langreth, Phys. Rev. B 76, 125112 (2007).
     *
     *   G. Roman-Perez and J. M. Soler, Phys. Rev. Lett. 103, 096102 (2009).
     *
     *
     * If you are using vdW-DF2, please also cite:
     *
     *   K. Lee, E. D. Murray, L. Kong, B. I. Lundqvist, and
     *   D. C. Langreth, Phys. Rev. B 82, 081101(R) (2010).
     *
     *
     * If you are calculating the stress with vdW-DF, please also cite:
     *
     *   R. Sabatini, E. Kucukbenli, B. Kolb, T. Thonhauser, and
     *   S. de Gironcoli, J. Phys.: Condens. Matter 24, 424209 (2012).
     *

     Carrying out vdW-DF run using the following parameters:

     Nqs =      20    Nr_points =    1024   r_max =   100.000
     q_mesh =
               0.00001000     0.04494208     0.09755937     0.15916263
               0.23128650     0.31572767     0.41458969     0.53033537
               0.66584808     0.82450364     1.01025438     1.22772762
               1.48234092     1.78043706     2.12944203     2.53805004
               3.01644009     3.57652955     4.23227104     5.00000000

     Gradients computed in reciprocal space

     Adding external electric field

     Computed dipole along edir(3) :
        Dipole               -0.0000 Ry au,         -0.0000 Debye
        Dipole field         -0.0000 Ry au

        Potential amp.        0.0000 Ry
        Total length         46.0507 bohr

     Starting wfc are  120 randomized atomic wfcs

     Self-consistent Calculation

     iteration #  1     ecut=    36.75 Ry     beta=0.10
     Davidson diagonalization with overlap
     ethr =  1.00E-02,  avg # of iterations =  8.2

     Threshold (ethr) on eigenvalues was too large:
     Diagonalizing with lowered threshold

     Davidson diagonalization with overlap
     ethr =  9.79E-04,  avg # of iterations =  2.4

[...]

     total energy              =   -1474.07562020 Ry
     Harris-Foulkes estimate   =   -1474.29255521 Ry
     estimated scf accuracy    <       1.42809173 Ry

[...]

     End of self-consistent calculation

          k = 0.0000 0.0000 0.0000 ( 20587 PWs)   bands (ev):

   -68.0656 -68.0293 -68.0292 -34.4785 -34.4778 -34.4150 -34.3448 -34.3448
   -34.2394 -34.2394 -34.2391 -34.2391  -8.6219  -8.4821  -8.4656  -8.4655
    -8.4148  -8.4006  -8.3789  -8.2531  -8.2531  -8.1848  -8.1848  -8.1846
    -8.1845  -8.0582  -8.0239  -7.9920  -7.9920  -7.8745  -7.8295  -7.8295
    -7.8005  -7.7745  -7.6928  -7.6927  -7.6399  -7.6399  -7.5681  -7.5681
    -7.5209  -7.5208  -7.4659  -7.4323  -7.4323  -7.4128  -7.4128  -7.3899
    -7.3899  -7.2183  -7.2183  -7.1683  -7.1278  -7.1128  -7.1127  -7.0971
    -6.9835  -6.9757  -5.3513  -2.9526  -1.5475  -1.5475  -1.1854  -1.1854
    -1.1840  -0.7391  -0.4793  -0.4793   0.0562   0.1656   0.1656   0.4530
     1.1131   1.2950   1.2950   1.3566   1.3566   1.6252   1.6252   2.1633
     2.1633   2.3713   2.4242   2.7025   2.7025   3.3953   4.1457   4.4064
     4.5603   4.6038   4.6038   4.6555   4.6555   4.7002   5.2365   5.3785
     5.3785   6.1245   6.4700   7.2027   7.2507   7.2507   7.3534

[...]

          k =-0.0818-0.0472 0.0000 ( 20592 PWs)   bands (ev):

[...]

     the Fermi energy is     0.9493 ev

!    total energy              =   -1473.93419527 Ry
     Harris-Foulkes estimate   =   -1473.93422083 Ry
     estimated scf accuracy    <       0.00000049 Ry

     The total energy is the sum of the following terms:

     one-electron contribution =   -9557.68962218 Ry
     hartree contribution      =    4844.54697866 Ry
     xc contribution           =    -497.76625862 Ry
     ewald contribution        =    3737.04760165 Ry
     electric field correction =       0.00000000 Ry
     smearing contrib. (-TS)   =      -0.07289478 Ry

     convergence has been achieved in  15 iterations

 BEEF-vdW xc energy contributions
           1 :   -436.684271407262
           2 :    400.685249344638
           3 :   -339.240033767232
           4 :    268.792580858374
           5 :   -205.003808814716
           6 :    157.338472570678
           7 :   -127.138408590480
           8 :    109.491342510304
           9 :   -97.3405096027664
[...]

     PseudoPot. # 1 for Cd read from file:
     /afs/slac.stanford.edu/u/if/mamunm/psp/gbrv1.5pbe/Cd.UPF
     MD5 check sum: 17164a7926edb8e0dc231208abae86a6
     Pseudo is Ultrasoft + core correction, Zval = 12.0
     Generated by new atomic code, or converted to UPF format
     Using radial grid of  889 points,  6 beta functions with:
                l(1) =   0
                l(2) =   0
                l(3) =   1
                l(4) =   1
                l(5) =   2
                l(6) =   2
     Q(r) pseudized with  6 coefficients,  rinner =    1.000   1.000   1.000
                                                       1.000   1.000

     PseudoPot. # 2 for Ta read from file:
     /afs/slac.stanford.edu/u/if/mamunm/psp/gbrv1.5pbe/Ta.UPF
     MD5 check sum: f8bbe9446314a3b8ea5d9f3e3836c939
     Pseudo is Ultrasoft + core correction, Zval = 13.0
     Generated by new atomic code, or converted to UPF format
     Using radial grid of  921 points,  7 beta functions with:
                l(1) =   0
                l(2) =   0
                l(3) =   1
                l(4) =   1
                l(5) =   2
                l(6) =   2
                l(7) =   3
     Q(r) pseudized with  6 coefficients,  rinner =    1.300   1.300   1.300
                                                       1.300   1.300   1.300
                                                       1.300

     vdW kernel table read from file vdW_kernel_table
     MD5 check sum: 095c7af220d748ca6e76c0b4c6cfb241

     atomic species   valence    mass     pseudopotential
        Cd1           12.00   112.41400     Cd( 1.00)
        Ta1           13.00   180.94788     Ta( 1.00)

     No symmetry found

   Cartesian axes

     site n.     atom                  positions (alat units)
         1           Cd1 tau(   1) = (   0.0000000   0.0000000  10.0000000  )
         2           Cd1 tau(   2) = (  -1.5290418   2.6483781  10.0000000  )
         3           Cd1 tau(   3) = (   1.5290418   2.6483781  10.0000000  )
         4           Ta1 tau(   4) = (   3.0580837   0.0000000  10.0000000  )
         5           Cd1 tau(   5) = (   3.0580837   1.7655854  12.4969149  )
         6           Cd1 tau(   6) = (   1.5290418   4.4139636  12.4969149  )
         7           Cd1 tau(   7) = (  -1.5290418   4.4139636  12.4969149  )
         8           Ta1 tau(   8) = (   0.0000000   1.7655854  12.4969149  )
         9           Cd1 tau(   9) = (  -0.0000218   3.5338486  15.2306380  )
        10           Cd1 tau(  10) = (   1.5313354   0.8814619  15.2306048  )
        11           Cd1 tau(  11) = (   4.5848290   0.8814575  15.2305760  )
        12           Ta1 tau(  12) = (   3.0580756   3.5311716  14.7952160  )

     number of k points=    20  Fermi-Dirac smearing, width (Ry)=  0.0110
                       cart. coord. in units 2pi/alat
        k(    1) = (   0.0000000   0.0000000   0.0000000), wk =   0.0555556
        k(    2) = (   0.0000000   0.0314658   0.0000000), wk =   0.1111111
        k(    3) = (   0.0000000   0.0629316   0.0000000), wk =   0.1111111
        k(    4) = (   0.0000000  -0.0943974   0.0000000), wk =   0.0555556
        k(    5) = (   0.0272502   0.0157329   0.0000000), wk =   0.1111111
        k(    6) = (   0.0272502   0.0471987   0.0000000), wk =   0.1111111
        k(    7) = (   0.0272502   0.0786645   0.0000000), wk =   0.1111111
        k(    8) = (   0.0272502  -0.0786645   0.0000000), wk =   0.1111111
        k(    9) = (   0.0272502  -0.0471987   0.0000000), wk =   0.1111111
        k(   10) = (   0.0272502  -0.0157329   0.0000000), wk =   0.1111111
        k(   11) = (   0.0545004   0.0314658   0.0000000), wk =   0.1111111
        k(   12) = (   0.0545004   0.0629316   0.0000000), wk =   0.1111111
        k(   13) = (   0.0545004   0.0943974   0.0000000), wk =   0.1111111
        k(   14) = (   0.0545004  -0.0629316   0.0000000), wk =   0.1111111
        k(   15) = (   0.0545004  -0.0314658   0.0000000), wk =   0.1111111
        k(   16) = (   0.0545004   0.0000000   0.0000000), wk =   0.1111111
        k(   17) = (  -0.0817505  -0.0471987   0.0000000), wk =   0.0555556
        k(   18) = (  -0.0817505  -0.0157329   0.0000000), wk =   0.1111111
        k(   19) = (  -0.0817505   0.0157329   0.0000000), wk =   0.1111111
        k(   20) = (  -0.0817505  -0.1415961   0.0000000), wk =   0.0555556

     Largest allocated arrays     est. size (Mb)     dimensions
     Largest temporary arrays     est. size (Mb)     dimensions

     Initial potential from superposition of free atoms
     Check: negative starting charge=   -0.482011

     starting charge  142.49629, renormalised to  147.00000

[...]

     *
     * You are using vdW-DF for exchange-correlation in this calculation.
     * Please cite the following three references that made this development
     * possible:
     *
     *   M. Dion, H. Rydberg, E. Schroder, D. C. Langreth, and
     *   B. I. Lundqvist, Phys. Rev. Lett. 92, 246401 (2004).
     *
     *   T. Thonhauser, V. R. Cooper, S. Li, A. Puzder, P. Hyldgaard, and
     *   D. C. Langreth, Phys. Rev. B 76, 125112 (2007).
     *
     *   G. Roman-Perez and J. M. Soler, Phys. Rev. Lett. 103, 096102 (2009).
     *
     *
     * If you are using vdW-DF2, please also cite:
     *
     *   K. Lee, E. D. Murray, L. Kong, B. I. Lundqvist, and
     *   D. C. Langreth, Phys. Rev. B 82, 081101(R) (2010).
     *
     *
     * If you are calculating the stress with vdW-DF, please also cite:
     *
     *   R. Sabatini, E. Kucukbenli, B. Kolb, T. Thonhauser, and
     *   S. de Gironcoli, J. Phys.: Condens. Matter 24, 424209 (2012).
     *

     Carrying out vdW-DF run using the following parameters:

     Nqs =      20    Nr_points =    1024   r_max =   100.000
     q_mesh =
               0.00001000     0.04494208     0.09755937     0.15916263
               0.23128650     0.31572767     0.41458969     0.53033537
               0.66584808     0.82450364     1.01025438     1.22772762
               1.48234092     1.78043706     2.12944203     2.53805004
               3.01644009     3.57652955     4.23227104     5.00000000

     Gradients computed in reciprocal space

[...]

     Starting wfc are  120 randomized atomic wfcs

     Self-consistent Calculation

[...]

     total energy              =   -1473.96211247 Ry
     Harris-Foulkes estimate   =   -1473.96211626 Ry
     estimated scf accuracy    <       0.00000126 Ry

     iteration # 17     ecut=    36.75 Ry     beta=0.10
     Davidson diagonalization with overlap
     ethr =  8.60E-10,  avg # of iterations =  3.0

[...]

     negative rho (up, down):  5.005E-01 0.000E+00

     Adding external electric field

     Computed dipole along edir(3) :
        Dipole               -0.0417 Ry au,         -0.1060 Debye
        Dipole field         -0.0001 Ry au

        Potential amp.        0.0088 Ry
        Total length         46.0507 bohr

     End of self-consistent calculation

[...]

          k = 0.0545 0.0000 0.0000 ( 20517 PWs)   bands (ev):

[...]

          k =-0.0818-0.1416 0.0000 ( 20592 PWs)   bands (ev):

   -68.1921 -68.0225 -67.9178 -34.5266 -34.4605 -34.4523 -34.4521 -34.3240
   -34.2428 -34.2420 -34.1541 -34.1535  -8.3406  -8.2503  -8.2404  -8.1571
    -8.1270  -8.0721  -8.0593  -8.0191  -8.0063  -7.9904  -7.9759  -7.9712
    -7.9494  -7.8777  -7.8220  -7.8101  -7.7812  -7.7720  -7.7438  -7.7325
    -7.7218  -7.7018  -7.6613  -7.6416  -7.6161  -7.6043  -7.5994  -7.5744
    -7.5551  -7.5492  -7.5397  -7.5252  -7.5170  -7.5147  -7.4815  -7.4805
    -7.4713  -7.4520  -7.4237  -7.3606  -7.3116  -7.3026  -7.2213  -7.1286
    -7.0425  -5.4226  -5.2758  -3.9525  -3.6311  -2.8334  -2.0237  -1.7069
    -1.6204  -0.9974  -0.9934  -0.0007   0.1795   0.4355   0.4398   0.5188
     0.6588   0.8300   1.0472   1.0953   1.5375   1.6338   2.0682   2.3885
     2.7893   2.9893   3.2094   3.4253   3.5928   3.6048   4.7491   4.9595
     5.1208   5.1939   5.4472   5.5189   5.5869   5.8241   5.8996   6.0869
     6.4162   6.4702   6.5220   6.6349   6.8667   7.0838   7.1880

     the Fermi energy is     0.9052 ev

!    total energy              =   -1473.96209686 Ry
     Harris-Foulkes estimate   =   -1473.96211222 Ry
     estimated scf accuracy    <       0.00000053 Ry

     The total energy is the sum of the following terms:

     one-electron contribution =   -9386.15421742 Ry
     hartree contribution      =    4758.97327504 Ry
     xc contribution           =    -497.69760876 Ry
     ewald contribution        =    3650.99075893 Ry
     electric field correction =       0.00000400 Ry
     smearing contrib. (-TS)   =      -0.07430866 Ry

     convergence has been achieved in  17 iterations

 BEEF-vdW xc energy contributions
           1 :   -436.779776923708
           2 :    400.712488722490
           3 :   -339.195970813458
           4 :    268.744018552800
           5 :   -205.032454559108
           6 :    157.476698477703
           7 :   -127.345245066645
           8 :    109.683073577269
           9 :   -97.4506337010188
          10 :    85.4704626740551
          11 :   -72.3067864918165
          12 :    59.6222925688534
          13 :   -49.9773515353140
          14 :    44.6801580781709
          15 :   -42.9281177213632
          16 :    42.4805069332587
          17 :   -41.1529211532995
          18 :    38.0651218114253
          19 :   -33.9125717516644
          20 :    30.2455359846329
          21 :   -28.3404489747894
          22 :    28.4041607223581
          23 :   -29.5423985756656
          24 :    30.4031813743081
          25 :   -30.0174359780720
          26 :    28.3115067764516
          27 :   -26.0321859726478
          28 :    24.2028096721107
          29 :   -23.4864781001873
          30 :    23.8391792949450
          31 :   -39.1900350998084
          32 :   -28.7609646066202

     Forces acting on atoms (Ry/au):

     negative rho (up, down):  5.005E-01 0.000E+00
     atom    1 type  1   force =     0.00000041   -0.00118797   -0.01918988
     atom    2 type  1   force =    -0.00102660    0.00059261   -0.01919183
     atom    3 type  1   force =     0.00103235    0.00059051   -0.01919797
     atom    4 type  2   force =     0.00000183   -0.00000088    0.03799070
     atom    5 type  1   force =    -0.00000221   -0.01312339    0.00004119
     atom    6 type  1   force =    -0.01136877    0.00656477    0.00004207
     atom    7 type  1   force =     0.01136490    0.00656564    0.00003554
     atom    8 type  2   force =     0.00000124    0.00000147    0.01929100
     atom    9 type  1   force =     0.00000110   -0.00010894    0.00019361
     atom   10 type  1   force =    -0.00009198    0.00005452    0.00020085
     atom   11 type  1   force =     0.00008762    0.00005251    0.00020259
     atom   12 type  2   force =     0.00000011   -0.00000086   -0.00041789

     Total force =     0.058668     Total SCF correction =     0.002948

     entering subroutine stress ...

     negative rho (up, down):  5.005E-01 0.000E+00
          total   stress  (Ry/bohr**3)                   (kbar)     P=   -9.33
  -0.00008795  -0.00000000   0.00000000        -12.94     -0.00      0.00
  -0.00000000  -0.00008795  -0.00000000         -0.00    -12.94     -0.00
   0.00000000  -0.00000000  -0.00001431          0.00     -0.00     -2.11

 !ASE

     Writing output data file calc.save

     General routines

     Parallel routines

   This run was terminated on:   2:41:29  20Dec2018

   JOB DONE.
Job  /afs/slac/g/suncat/bin/suncat-tsmpirun -x LD_LIBRARY_PATH -wdir /scratch/qe773470_A50cW pw.x -in pw.inp

TID   HOST_NAME   COMMAND_LINE            STATUS            TERMINATION_TIME
00000 suncat0178 pw.x -in pw.inp   Done                     12/20/2018 02:41:29
00001 suncat0178 pw.x -in pw.inp   Done                     12/20/2018 02:41:29
00002 suncat0178 pw.x -in pw.inp   Done                     12/20/2018 02:41:29
00003 suncat0178 pw.x -in pw.inp   Done                     12/20/2018 02:41:29
00004 suncat0178 pw.x -in pw.inp   Done                     12/20/2018 02:41:29
00005 suncat0178 pw.x -in pw.inp   Done                     12/20/2018 02:41:29
00006 suncat0178 pw.x -in pw.inp   Done                     12/20/2018 02:41:29
00007 suncat0178 pw.x -in pw.inp   Done                     12/20/2018 02:41:29
00008 suncat0177 pw.x -in pw.inp   Done                     12/20/2018 02:41:29
00009 suncat0177 pw.x -in pw.inp   Done                     12/20/2018 02:41:29
00010 suncat0177 pw.x -in pw.inp   Done                     12/20/2018 02:41:29
00011 suncat0177 pw.x -in pw.inp   Done                     12/20/2018 02:41:29
00012 suncat0177 pw.x -in pw.inp   Done                     12/20/2018 02:41:29
00013 suncat0177 pw.x -in pw.inp   Done                     12/20/2018 02:41:29
00014 suncat0177 pw.x -in pw.inp   Done                     12/20/2018 02:41:29
00015 suncat0177 pw.x -in pw.inp   Done                     12/20/2018 02:41:29
00016 suncat0172 pw.x -in pw.inp   Done                     12/20/2018 02:41:29
00017 suncat0172 pw.x -in pw.inp   Done                     12/20/2018 02:41:29
00018 suncat0172 pw.x -in pw.inp   Done                     12/20/2018 02:41:29
00019 suncat0172 pw.x -in pw.inp   Done                     12/20/2018 02:41:29
00020 suncat0172 pw.x -in pw.inp   Done                     12/20/2018 02:41:29
00021 suncat0172 pw.x -in pw.inp   Done                     12/20/2018 02:41:29
00022 suncat0172 pw.x -in pw.inp   Done                     12/20/2018 02:41:29
00023 suncat0172 pw.x -in pw.inp   Done                     12/20/2018 02:41:29
00024 suncat0171 pw.x -in pw.inp   Done                     12/20/2018 02:41:29
00025 suncat0171 pw.x -in pw.inp   Done                     12/20/2018 02:41:29
00026 suncat0171 pw.x -in pw.inp   Done                     12/20/2018 02:41:29
00027 suncat0171 pw.x -in pw.inp   Done                     12/20/2018 02:41:29
00028 suncat0171 pw.x -in pw.inp   Done                     12/20/2018 02:41:29
00029 suncat0171 pw.x -in pw.inp   Done                     12/20/2018 02:41:29
00030 suncat0171 pw.x -in pw.inp   Done                     12/20/2018 02:41:29
00031 suncat0171 pw.x -in pw.inp   Done                     12/20/2018 02:41:29
00032 suncat0129 pw.x -in pw.inp   Done                     12/20/2018 02:41:29
00033 suncat0129 pw.x -in pw.inp   Done                     12/20/2018 02:41:29
00034 suncat0129 pw.x -in pw.inp   Done                     12/20/2018 02:41:29
00035 suncat0129 pw.x -in pw.inp   Done                     12/20/2018 02:41:29
00036 suncat0129 pw.x -in pw.inp   Done                     12/20/2018 02:41:29
00037 suncat0129 pw.x -in pw.inp   Done                     12/20/2018 02:41:29
00038 suncat0129 pw.x -in pw.inp   Done                     12/20/2018 02:41:29
00039 suncat0129 pw.x -in pw.inp   Done                     12/20/2018 02:41:29
00040 suncat0124 pw.x -in pw.inp   Done                     12/20/2018 02:41:29
00041 suncat0124 pw.x -in pw.inp   Done                     12/20/2018 02:41:29
00042 suncat0124 pw.x -in pw.inp   Done                     12/20/2018 02:41:29
00043 suncat0124 pw.x -in pw.inp   Done                     12/20/2018 02:41:29
00044 suncat0124 pw.x -in pw.inp   Done                     12/20/2018 02:41:29
00045 suncat0124 pw.x -in pw.inp   Done                     12/20/2018 02:41:29
00046 suncat0124 pw.x -in pw.inp   Done                     12/20/2018 02:41:29
00047 suncat0124 pw.x -in pw.inp   Done                     12/20/2018 02:41:29
00048 suncat0123 pw.x -in pw.inp   Done                     12/20/2018 02:41:29
00049 suncat0123 pw.x -in pw.inp   Done                     12/20/2018 02:41:29
00050 suncat0123 pw.x -in pw.inp   Done                     12/20/2018 02:41:29
00051 suncat0123 pw.x -in pw.inp   Done                     12/20/2018 02:41:29
00052 suncat0123 pw.x -in pw.inp   Done                     12/20/2018 02:41:29
00053 suncat0123 pw.x -in pw.inp   Done                     12/20/2018 02:41:29
00054 suncat0123 pw.x -in pw.inp   Done                     12/20/2018 02:41:29
00055 suncat0123 pw.x -in pw.inp   Done                     12/20/2018 02:41:29
00056 suncat0122 pw.x -in pw.inp   Done                     12/20/2018 02:41:29
00057 suncat0122 pw.x -in pw.inp   Done                     12/20/2018 02:41:29
00058 suncat0122 pw.x -in pw.inp   Done                     12/20/2018 02:41:29
00059 suncat0122 pw.x -in pw.inp   Done                     12/20/2018 02:41:29
00060 suncat0122 pw.x -in pw.inp   Done                     12/20/2018 02:41:29
00061 suncat0122 pw.x -in pw.inp   Done                     12/20/2018 02:41:29
00062 suncat0122 pw.x -in pw.inp   Done                     12/20/2018 02:41:29
00063 suncat0122 pw.x -in pw.inp   Done                     12/20/2018 02:41:29