     Program PWSCF v.5.1rc2 (svn rev. 11289) starts on 31Dec2018 at 13:35:53

     Current dimensions of program PWSCF are:
     Max number of different atomic species (ntypx) = 10
     Max number of k-points (npk) =  40000
     Max angular momentum in pseudopotentials (lmaxx) =  3
     Presently stress not available with electric field

     IMPORTANT: XC functional enforced from input :
     Exchange-correlation      = BEEF-VDW ( 1  4 27 13 2)
     Any further DFT definition will be discarded
     Please, verify this is what you really want

     Subspace diagonalization in iterative solution of the eigenvalue problem:
     a serial algorithm will be used

     bravais-lattice index     =            0
     lattice parameter (alat)  =       1.8897  a.u.
     unit-cell volume          =    4600.0830 (a.u.)^3
     number of atoms/cell      =           12
     number of atomic types    =            2
     number of electrons       =       183.00
     number of Kohn-Sham states=          121
     kinetic-energy cutoff     =      36.7493  Ry
     charge density cutoff     =     367.4932  Ry
     convergence threshold     =      1.0E-06
     mixing beta               =       0.1000
     number of iterations used =           10  plain     mixing
     Exchange-correlation      = BEEF-VDW ( 1  4 27 13 2)
     nstep                     =           50

     celldm(1)=   1.889726  celldm(2)=   0.000000  celldm(3)=   0.000000
     celldm(4)=   0.000000  celldm(5)=   0.000000  celldm(6)=   0.000000

     crystal axes: (cart. coord. in units of alat)
               a(1) = (   5.654601   0.000000   0.000000 )
               a(2) = (  -2.827301   4.897028   0.000000 )
               a(3) = (   0.000000   0.000000  24.616963 )

     reciprocal axes: (cart. coord. in units 2 pi/alat)
               b(1) = (  0.176847  0.102103  0.000000 )
               b(2) = (  0.000000  0.204205  0.000000 )
               b(3) = (  0.000000  0.000000  0.040622 )

     PseudoPot. # 1 for Pd read from file:
     /afs/slac.stanford.edu/u/if/mamunm/psp/gbrv1.5pbe/Pd.UPF
     MD5 check sum: 2d733d2bc2cbfd217af676df1668a4bc
     Pseudo is Ultrasoft + core correction, Zval = 16.0
     Generated by new atomic code, or converted to UPF format
     Using radial grid of  887 points,  6 beta functions with:
                l(1) =   0
                l(2) =   0
                l(3) =   1
                l(4) =   1
                l(5) =   2
                l(6) =   2
     Q(r) pseudized with  8 coefficients,  rinner =    1.130   1.130   1.130
                                                       1.130   1.130

     PseudoPot. # 2 for Nb read from file:
     /afs/slac.stanford.edu/u/if/mamunm/psp/gbrv1.5pbe/Nb.UPF
     MD5 check sum: 573aab8a2fa660278ed4a62cd769473f
     Pseudo is Ultrasoft + core correction, Zval = 13.0
     Generated by new atomic code, or converted to UPF format
     Using radial grid of  887 points,  6 beta functions with:
                l(1) =   0
                l(2) =   0
                l(3) =   1
                l(4) =   1
                l(5) =   2
                l(6) =   2
     Q(r) pseudized with  6 coefficients,  rinner =    1.000   1.000   1.000
                                                       1.000   1.000

     vdW kernel table read from file vdW_kernel_table
     MD5 check sum: 095c7af220d748ca6e76c0b4c6cfb241

     atomic species   valence    mass     pseudopotential
        Pd1           16.00   106.42000     Pd( 1.00)
        Nb1           13.00    92.90637     Nb( 1.00)

     No symmetry found

   Cartesian axes

     site n.     atom                  positions (alat units)
         1           Pd1 tau(   1) = (   0.0000000   0.0000000  10.0000000  )
         2           Pd1 tau(   2) = (  -1.4136503   2.4485142  10.0000000  )
         3           Pd1 tau(   3) = (   1.4136503   2.4485142  10.0000000  )
         4           Nb1 tau(   4) = (   2.8273006   0.0000000  10.0000000  )
         5           Pd1 tau(   5) = (   2.8273006   1.6323428  12.3084813  )
         6           Pd1 tau(   6) = (   1.4136503   4.0808569  12.3084813  )
         7           Pd1 tau(   7) = (  -1.4136503   4.0808569  12.3084813  )
         8           Nb1 tau(   8) = (   0.0000000   1.6323428  12.3084813  )
         9           Pd1 tau(   9) = (  -0.0000000   3.2646856  14.6169626  )
        10           Pd1 tau(  10) = (   1.4136503   0.8161714  14.6169626  )
        11           Pd1 tau(  11) = (   4.2409509   0.8161714  14.6169626  )
        12           Nb1 tau(  12) = (   2.8273006   3.2646856  14.6169626  )

     number of k points=    20  Fermi-Dirac smearing, width (Ry)=  0.0110
                       cart. coord. in units 2pi/alat
        k(    1) = (   0.0000000   0.0000000   0.0000000), wk =   0.0555556
        k(    2) = (   0.0000000   0.0340342   0.0000000), wk =   0.1111111
        k(    3) = (   0.0000000   0.0680685   0.0000000), wk =   0.1111111
        k(    4) = (   0.0000000  -0.1021027   0.0000000), wk =   0.0555556
        k(    5) = (   0.0294745   0.0170171   0.0000000), wk =   0.1111111
        k(    6) = (   0.0294745   0.0510514   0.0000000), wk =   0.1111111
        k(    7) = (   0.0294745   0.0850856   0.0000000), wk =   0.1111111
        k(    8) = (   0.0294745  -0.0850856   0.0000000), wk =   0.1111111
        k(    9) = (   0.0294745  -0.0510514   0.0000000), wk =   0.1111111
        k(   10) = (   0.0294745  -0.0170171   0.0000000), wk =   0.1111111
        k(   11) = (   0.0589490   0.0340342   0.0000000), wk =   0.1111111
        k(   12) = (   0.0589490   0.0680685   0.0000000), wk =   0.1111111
        k(   13) = (   0.0589490   0.1021027   0.0000000), wk =   0.1111111
        k(   14) = (   0.0589490  -0.0680685   0.0000000), wk =   0.1111111
        k(   15) = (   0.0589490  -0.0340342   0.0000000), wk =   0.1111111
        k(   16) = (   0.0589490   0.0000000   0.0000000), wk =   0.1111111
        k(   17) = (  -0.0884236  -0.0510514   0.0000000), wk =   0.0555556
        k(   18) = (  -0.0884236  -0.0170171   0.0000000), wk =   0.1111111
        k(   19) = (  -0.0884236   0.0170171   0.0000000), wk =   0.1111111
        k(   20) = (  -0.0884236  -0.1531541   0.0000000), wk =   0.0555556

     Largest allocated arrays     est. size (Mb)     dimensions
     Largest temporary arrays     est. size (Mb)     dimensions

     Initial potential from superposition of free atoms
     Check: negative starting charge=   -0.678495

     starting charge  178.49174, renormalised to  183.00000

     negative rho (up, down):  6.956E-01 0.000E+00

     *
     * You are using vdW-DF for exchange-correlation in this calculation.
     * Please cite the following three references that made this development
     * possible:
     *
     *   M. Dion, H. Rydberg, E. Schroder, D. C. Langreth, and
     *   B. I. Lundqvist, Phys. Rev. Lett. 92, 246401 (2004).
     *
     *   T. Thonhauser, V. R. Cooper, S. Li, A. Puzder, P. Hyldgaard, and
     *   D. C. Langreth, Phys. Rev. B 76, 125112 (2007).
     *
     *   G. Roman-Perez and J. M. Soler, Phys. Rev. Lett. 103, 096102 (2009).
     *
     *
     * If you are using vdW-DF2, please also cite:
     *
     *   K. Lee, E. D. Murray, L. Kong, B. I. Lundqvist, and
     *   D. C. Langreth, Phys. Rev. B 82, 081101(R) (2010).
     *
     *
     * If you are calculating the stress with vdW-DF, please also cite:
     *
     *   R. Sabatini, E. Kucukbenli, B. Kolb, T. Thonhauser, and
     *   S. de Gironcoli, J. Phys.: Condens. Matter 24, 424209 (2012).
     *

     Carrying out vdW-DF run using the following parameters:

     Nqs =      20    Nr_points =    1024   r_max =   100.000
     q_mesh =
               0.00001000     0.04494208     0.09755937     0.15916263
               0.23128650     0.31572767     0.41458969     0.53033537
               0.66584808     0.82450364     1.01025438     1.22772762
               1.48234092     1.78043706     2.12944203     2.53805004
               3.01644009     3.57652955     4.23227104     5.00000000

     Gradients computed in reciprocal space

     Adding external electric field

     Computed dipole along edir(3) :
        Dipole               -0.0000 Ry au,         -0.0000 Debye
        Dipole field         -0.0000 Ry au

        Potential amp.        0.0000 Ry
        Total length         45.3563 bohr

     Starting wfc are  147 randomized atomic wfcs

     Self-consistent Calculation

     iteration #  1     ecut=    36.75 Ry     beta=0.10
     Davidson diagonalization with overlap
     ethr =  1.00E-02,  avg # of iterations =  7.6

[...]

     total energy              =   -2153.99428893 Ry
     Harris-Foulkes estimate   =   -2156.46090305 Ry
     estimated scf accuracy    <      15.16461797 Ry

[...]

     End of self-consistent calculation

          k = 0.0000 0.0000 0.0000 ( 17351 PWs)   bands (ev):

   -54.7384 -54.5804 -54.5795 -49.2418 -49.1843 -49.1843 -49.1144 -49.1144
   -49.0777 -49.0088 -48.9096 -48.9096 -48.8106 -48.8106 -48.7961 -48.7961
   -48.7242 -48.7224 -48.6960 -48.6948 -48.5524 -48.5524 -48.5498 -48.5498
   -48.5157 -48.5022 -48.4477 -48.4477 -48.4441 -48.4441 -30.7181 -30.7181
   -30.6152 -30.6070 -30.5960 -30.5028 -30.5028 -30.5005 -30.5005  -4.9148
    -3.6937  -3.6937  -3.6088  -3.5478  -3.5410  -3.3341  -3.3341  -3.3110
    -3.1583  -3.1583  -3.0164  -2.8686  -2.8686  -2.8059  -1.9430  -1.9430
    -1.8878  -1.8033  -1.8033  -1.5633  -1.4146  -1.3937  -1.3937  -1.3814
    -1.1316  -1.1316  -1.0384  -0.9235  -0.9235  -0.8570  -0.8570  -0.5319
    -0.5319  -0.3049   0.0196   0.0196   0.0767   0.0767   0.1443   0.1443
     0.4093   0.7065   0.7330   0.7330   0.8964   0.9311   1.0648   1.1016
     1.7979   2.1247   2.1247   2.4692   2.4692   2.5265   2.6011   2.6011
     2.8645   2.8645   2.8900   2.8953   2.8953   3.4636   3.4636   3.5328
     3.5328   3.5583   5.1955   5.1955   5.2017   5.2017   5.3947   5.5350
     5.7706   5.9861   6.3857   7.2992   8.2024   8.4454   8.4454   8.4670
     8.4670

[...]

          k =-0.0884-0.0511 0.0000 ( 17320 PWs)   bands (ev):

[...]

     the Fermi energy is     1.6586 ev

!    total energy              =   -2153.85244767 Ry
     Harris-Foulkes estimate   =   -2153.85244476 Ry
     estimated scf accuracy    <       0.00000088 Ry

     The total energy is the sum of the following terms:

     one-electron contribution =  -18063.69028356 Ry
     hartree contribution      =    9064.07058116 Ry
     xc contribution           =    -349.41907002 Ry
     ewald contribution        =    7195.24471901 Ry
     electric field correction =       0.00000000 Ry
     smearing contrib. (-TS)   =      -0.05839427 Ry

     convergence has been achieved in  16 iterations

 BEEF-vdW xc energy contributions
           1 :   -303.551944678505
           2 :    277.448227669090
           3 :   -232.735189564499
           4 :    181.224199479827
           5 :   -134.530883192794
           6 :    100.236377397251
           7 :   -80.1912929844781
           8 :    71.2677608561766
           9 :   -67.8465360226909
          10 :    64.7005120318428
          11 :   -59.0117083276895
          12 :    50.8322745987999
          13 :   -42.1338618282429
[...]
     /afs/slac.stanford.edu/u/if/mamunm/psp/gbrv1.5pbe/Pd.UPF
     MD5 check sum: 2d733d2bc2cbfd217af676df1668a4bc
     Pseudo is Ultrasoft + core correction, Zval = 16.0
     Generated by new atomic code, or converted to UPF format
     Using radial grid of  887 points,  6 beta functions with:
                l(1) =   0
                l(2) =   0
                l(3) =   1
                l(4) =   1
                l(5) =   2
                l(6) =   2
     Q(r) pseudized with  8 coefficients,  rinner =    1.130   1.130   1.130
                                                       1.130   1.130

     PseudoPot. # 2 for Nb read from file:
     /afs/slac.stanford.edu/u/if/mamunm/psp/gbrv1.5pbe/Nb.UPF
     MD5 check sum: 573aab8a2fa660278ed4a62cd769473f
     Pseudo is Ultrasoft + core correction, Zval = 13.0
     Generated by new atomic code, or converted to UPF format
     Using radial grid of  887 points,  6 beta functions with:
                l(1) =   0
                l(2) =   0
                l(3) =   1
                l(4) =   1
                l(5) =   2
                l(6) =   2
     Q(r) pseudized with  6 coefficients,  rinner =    1.000   1.000   1.000
                                                       1.000   1.000

     vdW kernel table read from file vdW_kernel_table
     MD5 check sum: 095c7af220d748ca6e76c0b4c6cfb241

     atomic species   valence    mass     pseudopotential
        Pd1           16.00   106.42000     Pd( 1.00)
        Nb1           13.00    92.90637     Nb( 1.00)

     No symmetry found

   Cartesian axes

     site n.     atom                  positions (alat units)
         1           Pd1 tau(   1) = (   0.0000000   0.0000000  10.0000000  )
         2           Pd1 tau(   2) = (  -1.4136503   2.4485142  10.0000000  )
         3           Pd1 tau(   3) = (   1.4136503   2.4485142  10.0000000  )
         4           Nb1 tau(   4) = (   2.8273006   0.0000000  10.0000000  )
         5           Pd1 tau(   5) = (   2.8273006   1.6323428  12.3084813  )
         6           Pd1 tau(   6) = (   1.4136503   4.0808569  12.3084813  )
         7           Pd1 tau(   7) = (  -1.4136503   4.0808569  12.3084813  )
         8           Nb1 tau(   8) = (   0.0000000   1.6323428  12.3084813  )
         9           Pd1 tau(   9) = (  -0.0000004   3.2365013  14.5992429  )
        10           Pd1 tau(  10) = (   1.3892414   0.8302631  14.5992436  )
        11           Pd1 tau(  11) = (   4.2653591   0.8302636  14.5992429  )
        12           Nb1 tau(  12) = (   2.8273003   3.2646854  14.4889376  )

     number of k points=    20  Fermi-Dirac smearing, width (Ry)=  0.0110
                       cart. coord. in units 2pi/alat
        k(    1) = (   0.0000000   0.0000000   0.0000000), wk =   0.0555556
        k(    2) = (   0.0000000   0.0340342   0.0000000), wk =   0.1111111
        k(    3) = (   0.0000000   0.0680685   0.0000000), wk =   0.1111111
        k(    4) = (   0.0000000  -0.1021027   0.0000000), wk =   0.0555556
        k(    5) = (   0.0294745   0.0170171   0.0000000), wk =   0.1111111
        k(    6) = (   0.0294745   0.0510514   0.0000000), wk =   0.1111111
        k(    7) = (   0.0294745   0.0850856   0.0000000), wk =   0.1111111
        k(    8) = (   0.0294745  -0.0850856   0.0000000), wk =   0.1111111
        k(    9) = (   0.0294745  -0.0510514   0.0000000), wk =   0.1111111
        k(   10) = (   0.0294745  -0.0170171   0.0000000), wk =   0.1111111
        k(   11) = (   0.0589490   0.0340342   0.0000000), wk =   0.1111111
        k(   12) = (   0.0589490   0.0680685   0.0000000), wk =   0.1111111
        k(   13) = (   0.0589490   0.1021027   0.0000000), wk =   0.1111111
        k(   14) = (   0.0589490  -0.0680685   0.0000000), wk =   0.1111111
        k(   15) = (   0.0589490  -0.0340342   0.0000000), wk =   0.1111111
        k(   16) = (   0.0589490   0.0000000   0.0000000), wk =   0.1111111
        k(   17) = (  -0.0884236  -0.0510514   0.0000000), wk =   0.0555556
        k(   18) = (  -0.0884236  -0.0170171   0.0000000), wk =   0.1111111
        k(   19) = (  -0.0884236   0.0170171   0.0000000), wk =   0.1111111
        k(   20) = (  -0.0884236  -0.1531541   0.0000000), wk =   0.0555556

     Largest allocated arrays     est. size (Mb)     dimensions
     Largest temporary arrays     est. size (Mb)     dimensions

     Initial potential from superposition of free atoms
     Check: negative starting charge=   -0.679616

     starting charge  178.49174, renormalised to  183.00000

[...]

     *
     * You are using vdW-DF for exchange-correlation in this calculation.
     * Please cite the following three references that made this development
     * possible:
     *
     *   M. Dion, H. Rydberg, E. Schroder, D. C. Langreth, and
     *   B. I. Lundqvist, Phys. Rev. Lett. 92, 246401 (2004).
     *
     *   T. Thonhauser, V. R. Cooper, S. Li, A. Puzder, P. Hyldgaard, and
     *   D. C. Langreth, Phys. Rev. B 76, 125112 (2007).
     *
     *   G. Roman-Perez and J. M. Soler, Phys. Rev. Lett. 103, 096102 (2009).
     *
     *
     * If you are using vdW-DF2, please also cite:
     *
     *   K. Lee, E. D. Murray, L. Kong, B. I. Lundqvist, and
     *   D. C. Langreth, Phys. Rev. B 82, 081101(R) (2010).
     *
     *
     * If you are calculating the stress with vdW-DF, please also cite:
     *
     *   R. Sabatini, E. Kucukbenli, B. Kolb, T. Thonhauser, and
     *   S. de Gironcoli, J. Phys.: Condens. Matter 24, 424209 (2012).
     *

     Carrying out vdW-DF run using the following parameters:

     Nqs =      20    Nr_points =    1024   r_max =   100.000
     q_mesh =
               0.00001000     0.04494208     0.09755937     0.15916263
               0.23128650     0.31572767     0.41458969     0.53033537
               0.66584808     0.82450364     1.01025438     1.22772762
               1.48234092     1.78043706     2.12944203     2.53805004
               3.01644009     3.57652955     4.23227104     5.00000000

     Gradients computed in reciprocal space

[...]

     Starting wfc are  147 randomized atomic wfcs

     Self-consistent Calculation

[...]

     total energy              =   -2153.85854273 Ry
     Harris-Foulkes estimate   =   -2153.85854285 Ry
     estimated scf accuracy    <       0.00000173 Ry

     iteration # 18     ecut=    36.75 Ry     beta=0.10
     Davidson diagonalization with overlap
     ethr =  9.47E-10,  avg # of iterations =  1.0

[...]

     negative rho (up, down):  7.133E-01 0.000E+00

     Adding external electric field

     Computed dipole along edir(3) :
        Dipole               -0.0005 Ry au,         -0.0012 Debye
        Dipole field         -0.0000 Ry au

        Potential amp.        0.0001 Ry
        Total length         45.3563 bohr

     End of self-consistent calculation

[...]

          k = 0.0589 0.0000 0.0000 ( 17312 PWs)   bands (ev):

[...]

          k =-0.0884-0.1532 0.0000 ( 17320 PWs)   bands (ev):

   -54.7385 -54.5948 -54.5710 -49.3302 -49.2888 -49.2635 -49.2335 -49.2139
   -49.1857 -49.0692 -49.0402 -48.9979 -48.8295 -48.8117 -48.8048 -48.7849
   -48.7762 -48.7634 -48.6860 -48.6488 -48.6341 -48.6056 -48.5975 -48.5654
   -48.5382 -48.5160 -48.5091 -48.4913 -48.4861 -48.4615 -30.7342 -30.7261
   -30.6282 -30.6178 -30.5942 -30.5331 -30.5264 -30.5057 -30.4985  -3.6272
    -3.5722  -3.1177  -2.9767  -2.9738  -2.9238  -2.8148  -2.8065  -2.7008
    -2.6250  -2.5596  -2.4710  -2.3527  -2.3341  -2.1669  -2.1426  -2.0825
    -1.9942  -1.9249  -1.8394  -1.5204  -1.5146  -1.4604  -1.3074  -1.2808
    -1.2027  -1.1937  -1.1532  -1.1297  -1.0027  -0.9993  -0.9905  -0.9682
    -0.8735  -0.8166  -0.7953  -0.7682  -0.6335  -0.5697  -0.5513  -0.4661
    -0.4335  -0.2303  -0.1614   0.1165   0.1405   0.1949   0.4791   0.5876
     0.7962   0.8741   0.8931   1.5370   1.6656   1.7657   1.9072   1.9581
     1.9989   2.2378   2.3063   2.4821   2.5155   2.6717   3.3660   3.5100
     3.6198   4.2104   4.9325   5.5256   5.8755   6.0093   6.2280   7.1129
     7.1601   7.2440   7.2938   7.7874   7.8178   7.8749   7.9031   9.0070
     9.0251

     the Fermi energy is     1.6602 ev

!    total energy              =   -2153.85854343 Ry
     Harris-Foulkes estimate   =   -2153.85854280 Ry
     estimated scf accuracy    <       0.00000052 Ry

     The total energy is the sum of the following terms:

     one-electron contribution =  -18168.08805865 Ry
     hartree contribution      =    9116.00291425 Ry
     xc contribution           =    -349.49905984 Ry
     ewald contribution        =    7247.78385494 Ry
     electric field correction =       0.00000000 Ry
     smearing contrib. (-TS)   =      -0.05819414 Ry

     convergence has been achieved in  18 iterations

 BEEF-vdW xc energy contributions
           1 :   -303.687745260214
           2 :    277.621174007263
           3 :   -232.956323288371
           4 :    181.466867406593
           5 :   -134.741468822371
           6 :    100.364080683950
           7 :   -80.2191201997430
           8 :    71.2255084812843
           9 :   -67.7973726367281
          10 :    64.7081114413574
          11 :   -59.1054586160333
          12 :    50.9908168538014
          13 :   -42.2970101313835
          14 :    35.2951595499432
          15 :   -31.2410013347509
          16 :    29.8620600257074
          17 :   -29.7635751938060
          18 :    29.3508982873583
          19 :   -27.6915449583327
          20 :    24.8724294075151
          21 :   -21.7560655402463
          22 :    19.3657282143307
          23 :   -18.2911198432319
          24 :    18.4244033518492
          25 :   -19.1136406773014
          26 :    19.5814351290042
          27 :   -19.3457347641626
          28 :    18.4163600013963
          29 :   -17.1972575059934
          30 :    16.1892581085496
          31 :   -30.4098190485211
          32 :   -22.6180644819374

     Forces acting on atoms (Ry/au):

     negative rho (up, down):  7.133E-01 0.000E+00
     atom    1 type  1   force =    -0.00000003    0.01320144    0.00156404
     atom    2 type  1   force =     0.01143281   -0.00660085    0.00156404
     atom    3 type  1   force =    -0.01143265   -0.00660071    0.00156417
     atom    4 type  2   force =     0.00000014    0.00000017    0.01668748
     atom    5 type  1   force =    -0.00000010   -0.00400880   -0.00530448
     atom    6 type  1   force =    -0.00347169    0.00200430   -0.00530467
     atom    7 type  1   force =     0.00347162    0.00200443   -0.00530464
     atom    8 type  2   force =     0.00000003   -0.00000006   -0.00446183
     atom    9 type  1   force =    -0.00000000    0.00002846   -0.00042922
     atom   10 type  1   force =     0.00002472   -0.00001428   -0.00042928
     atom   11 type  1   force =    -0.00002478   -0.00001418   -0.00042919
     atom   12 type  2   force =    -0.00000006    0.00000008    0.00028359

     Total force =     0.031013     Total SCF correction =     0.001763

     entering subroutine stress ...

     negative rho (up, down):  7.133E-01 0.000E+00
          total   stress  (Ry/bohr**3)                   (kbar)     P=  -15.99
  -0.00014574  -0.00000000   0.00000000        -21.44     -0.00      0.00
  -0.00000000  -0.00014574  -0.00000000         -0.00    -21.44     -0.00
   0.00000000  -0.00000000  -0.00003466          0.00     -0.00     -5.10

 !ASE

     Writing output data file calc.save

     General routines

     Parallel routines

   This run was terminated on:  14:34:34  31Dec2018

   JOB DONE.
Job  /afs/slac/g/suncat/bin/suncat-tsmpirun -x LD_LIBRARY_PATH -wdir /scratch/qe648778_ua5Qs pw.x -in pw.inp

TID   HOST_NAME   COMMAND_LINE            STATUS            TERMINATION_TIME
00000 suncat0139 pw.x -in pw.inp   Done                     12/31/2018 14:34:34
00001 suncat0139 pw.x -in pw.inp   Done                     12/31/2018 14:34:34
00002 suncat0139 pw.x -in pw.inp   Done                     12/31/2018 14:34:34
00003 suncat0139 pw.x -in pw.inp   Done                     12/31/2018 14:34:34
00004 suncat0139 pw.x -in pw.inp   Done                     12/31/2018 14:34:34
00005 suncat0139 pw.x -in pw.inp   Done                     12/31/2018 14:34:34
00006 suncat0139 pw.x -in pw.inp   Done                     12/31/2018 14:34:34
00007 suncat0139 pw.x -in pw.inp   Done                     12/31/2018 14:34:34
00008 suncat0133 pw.x -in pw.inp   Done                     12/31/2018 14:34:34
00009 suncat0133 pw.x -in pw.inp   Done                     12/31/2018 14:34:34
00010 suncat0133 pw.x -in pw.inp   Done                     12/31/2018 14:34:34
00011 suncat0133 pw.x -in pw.inp   Done                     12/31/2018 14:34:34
00012 suncat0133 pw.x -in pw.inp   Done                     12/31/2018 14:34:34
00013 suncat0133 pw.x -in pw.inp   Done                     12/31/2018 14:34:34
00014 suncat0133 pw.x -in pw.inp   Done                     12/31/2018 14:34:34
00015 suncat0133 pw.x -in pw.inp   Done                     12/31/2018 14:34:34
00016 suncat0132 pw.x -in pw.inp   Done                     12/31/2018 14:34:34
00017 suncat0132 pw.x -in pw.inp   Done                     12/31/2018 14:34:34
00018 suncat0132 pw.x -in pw.inp   Done                     12/31/2018 14:34:34
00019 suncat0132 pw.x -in pw.inp   Done                     12/31/2018 14:34:34
00020 suncat0132 pw.x -in pw.inp   Done                     12/31/2018 14:34:34
00021 suncat0132 pw.x -in pw.inp   Done                     12/31/2018 14:34:34
00022 suncat0132 pw.x -in pw.inp   Done                     12/31/2018 14:34:34
00023 suncat0132 pw.x -in pw.inp   Done                     12/31/2018 14:34:34
00024 suncat0131 pw.x -in pw.inp   Done                     12/31/2018 14:34:34
00025 suncat0131 pw.x -in pw.inp   Done                     12/31/2018 14:34:34
00026 suncat0131 pw.x -in pw.inp   Done                     12/31/2018 14:34:34
00027 suncat0131 pw.x -in pw.inp   Done                     12/31/2018 14:34:34
00028 suncat0131 pw.x -in pw.inp   Done                     12/31/2018 14:34:34
00029 suncat0131 pw.x -in pw.inp   Done                     12/31/2018 14:34:34
00030 suncat0131 pw.x -in pw.inp   Done                     12/31/2018 14:34:34
00031 suncat0131 pw.x -in pw.inp   Done                     12/31/2018 14:34:34
00032 suncat0130 pw.x -in pw.inp   Done                     12/31/2018 14:34:34
00033 suncat0130 pw.x -in pw.inp   Done                     12/31/2018 14:34:34
00034 suncat0130 pw.x -in pw.inp   Done                     12/31/2018 14:34:34
00035 suncat0130 pw.x -in pw.inp   Done                     12/31/2018 14:34:34
00036 suncat0130 pw.x -in pw.inp   Done                     12/31/2018 14:34:34
00037 suncat0130 pw.x -in pw.inp   Done                     12/31/2018 14:34:34
00038 suncat0130 pw.x -in pw.inp   Done                     12/31/2018 14:34:34
00039 suncat0130 pw.x -in pw.inp   Done                     12/31/2018 14:34:34
00040 suncat0124 pw.x -in pw.inp   Done                     12/31/2018 14:34:34
00041 suncat0124 pw.x -in pw.inp   Done                     12/31/2018 14:34:34
00042 suncat0124 pw.x -in pw.inp   Done                     12/31/2018 14:34:34
00043 suncat0124 pw.x -in pw.inp   Done                     12/31/2018 14:34:34
00044 suncat0124 pw.x -in pw.inp   Done                     12/31/2018 14:34:34
00045 suncat0124 pw.x -in pw.inp   Done                     12/31/2018 14:34:34
00046 suncat0124 pw.x -in pw.inp   Done                     12/31/2018 14:34:34
00047 suncat0124 pw.x -in pw.inp   Done                     12/31/2018 14:34:34
00048 suncat0123 pw.x -in pw.inp   Done                     12/31/2018 14:34:34
00049 suncat0123 pw.x -in pw.inp   Done                     12/31/2018 14:34:34
00050 suncat0123 pw.x -in pw.inp   Done                     12/31/2018 14:34:34
00051 suncat0123 pw.x -in pw.inp   Done                     12/31/2018 14:34:34
00052 suncat0123 pw.x -in pw.inp   Done                     12/31/2018 14:34:34
00053 suncat0123 pw.x -in pw.inp   Done                     12/31/2018 14:34:34
00054 suncat0123 pw.x -in pw.inp   Done                     12/31/2018 14:34:34
00055 suncat0123 pw.x -in pw.inp   Done                     12/31/2018 14:34:34
00056 suncat0122 pw.x -in pw.inp   Done                     12/31/2018 14:34:34
00057 suncat0122 pw.x -in pw.inp   Done                     12/31/2018 14:34:34
00058 suncat0122 pw.x -in pw.inp   Done                     12/31/2018 14:34:34
00059 suncat0122 pw.x -in pw.inp   Done                     12/31/2018 14:34:34
00060 suncat0122 pw.x -in pw.inp   Done                     12/31/2018 14:34:34
00061 suncat0122 pw.x -in pw.inp   Done                     12/31/2018 14:34:34
00062 suncat0122 pw.x -in pw.inp   Done                     12/31/2018 14:34:34
00063 suncat0122 pw.x -in pw.inp   Done                     12/31/2018 14:34:34