     Program PWSCF v.5.1rc2 (svn rev. 11289) starts on 19Dec2018 at 19:22:35

     Current dimensions of program PWSCF are:
     Max number of different atomic species (ntypx) = 10
     Max number of k-points (npk) =  40000
     Max angular momentum in pseudopotentials (lmaxx) =  3
     Presently stress not available with electric field

     IMPORTANT: XC functional enforced from input :
     Exchange-correlation      = BEEF-VDW ( 1  4 27 13 2)
     Any further DFT definition will be discarded
     Please, verify this is what you really want

     Subspace diagonalization in iterative solution of the eigenvalue problem:
     a serial algorithm will be used

     bravais-lattice index     =            0
     lattice parameter (alat)  =       1.8897  a.u.
     unit-cell volume          =    4878.5568 (a.u.)^3
     number of atoms/cell      =           12
     number of atomic types    =            2
     number of electrons       =       147.00
     number of Kohn-Sham states=          103
     kinetic-energy cutoff     =      36.7493  Ry
     charge density cutoff     =     367.4932  Ry
     convergence threshold     =      1.0E-06
     mixing beta               =       0.1000
     number of iterations used =           10  plain     mixing
     Exchange-correlation      = BEEF-VDW ( 1  4 27 13 2)
     nstep                     =           50

     celldm(1)=   1.889726  celldm(2)=   0.000000  celldm(3)=   0.000000
     celldm(4)=   0.000000  celldm(5)=   0.000000  celldm(6)=   0.000000

     crystal axes: (cart. coord. in units of alat)
               a(1) = (   5.808442   0.000000   0.000000 )
               a(2) = (  -2.904221   5.030258   0.000000 )
               a(3) = (   0.000000   0.000000  24.742573 )

     reciprocal axes: (cart. coord. in units 2 pi/alat)
               b(1) = (  0.172163  0.099398  0.000000 )
               b(2) = (  0.000000  0.198797  0.000000 )
               b(3) = (  0.000000  0.000000  0.040416 )

     PseudoPot. # 1 for Au read from file:
     /afs/slac.stanford.edu/u/if/mamunm/psp/gbrv1.5pbe/Au.UPF
     MD5 check sum: 9d7f43293ad2c663164586bc4b293ffc
     Pseudo is Ultrasoft + core correction, Zval = 11.0
     Generated by new atomic code, or converted to UPF format
     Using radial grid of  985 points,  7 beta functions with:
                l(1) =   0
                l(2) =   0
                l(3) =   1
                l(4) =   1
                l(5) =   2
                l(6) =   2
                l(7) =   3
     Q(r) pseudized with  6 coefficients,  rinner =    1.900   1.900   1.900
                                                       1.900   1.900   1.900
                                                       1.900

     PseudoPot. # 2 for Os read from file:
     /afs/slac.stanford.edu/u/if/mamunm/psp/gbrv1.5pbe/Os.UPF
     MD5 check sum: a3fb40a04f0c37c25c34bbc47164c9a8
     Pseudo is Ultrasoft + core correction, Zval = 16.0
     Generated by new atomic code, or converted to UPF format
     Using radial grid of  983 points,  8 beta functions with:
                l(1) =   0
                l(2) =   0
                l(3) =   1
                l(4) =   1
                l(5) =   2
                l(6) =   2
                l(7) =   3
                l(8) =   3
     Q(r) pseudized with  8 coefficients,  rinner =    1.150   1.150   1.150
                                                       1.150   1.150   1.150
                                                       1.150

     vdW kernel table read from file vdW_kernel_table
     MD5 check sum: 095c7af220d748ca6e76c0b4c6cfb241

     atomic species   valence    mass     pseudopotential
        Au1           11.00   196.96657     Au( 1.00)
        Os1           16.00   190.23000     Os( 1.00)

     No symmetry found

   Cartesian axes

     site n.     atom                  positions (alat units)
         1           Au1 tau(   1) = (   0.0000000   0.0000000  10.0000000  )
         2           Au1 tau(   2) = (   4.3563313   2.5151291  10.0000000  )
         3           Au1 tau(   3) = (   1.4521104   2.5151291  10.0000000  )
         4           Os1 tau(   4) = (   2.9042209   0.0000000  10.0000000  )
         5           Au1 tau(   5) = (   2.9042209   1.6767527  12.3712864  )
         6           Au1 tau(   6) = (   1.4521104   4.1918818  12.3712864  )
         7           Au1 tau(   7) = (  -1.4521104   4.1918818  12.3712864  )
         8           Os1 tau(   8) = (   0.0000000   1.6767527  12.3712864  )
         9           Au1 tau(   9) = (  -0.0000000   3.3535054  14.7425728  )
        10           Au1 tau(  10) = (   1.4521104   0.8383764  14.7425728  )
        11           Au1 tau(  11) = (   4.3563313   0.8383764  14.7425728  )
        12           Os1 tau(  12) = (   2.9042209   3.3535054  14.7425728  )

     number of k points=    20  Fermi-Dirac smearing, width (Ry)=  0.0110
                       cart. coord. in units 2pi/alat
        k(    1) = (   0.0000000   0.0000000   0.0000000), wk =   0.0555556
        k(    2) = (   0.0000000   0.0331328   0.0000000), wk =   0.1111111
        k(    3) = (   0.0000000   0.0662657   0.0000000), wk =   0.1111111
        k(    4) = (   0.0000000  -0.0993985   0.0000000), wk =   0.0555556
        k(    5) = (   0.0286939   0.0165664   0.0000000), wk =   0.1111111
        k(    6) = (   0.0286939   0.0496992   0.0000000), wk =   0.1111111
        k(    7) = (   0.0286939   0.0828321   0.0000000), wk =   0.1111111
        k(    8) = (   0.0286939  -0.0828321   0.0000000), wk =   0.1111111
        k(    9) = (   0.0286939  -0.0496992   0.0000000), wk =   0.1111111
        k(   10) = (   0.0286939  -0.0165664   0.0000000), wk =   0.1111111
        k(   11) = (   0.0573877   0.0331328   0.0000000), wk =   0.1111111
        k(   12) = (   0.0573877   0.0662657   0.0000000), wk =   0.1111111
        k(   13) = (   0.0573877   0.0993985   0.0000000), wk =   0.1111111
        k(   14) = (   0.0573877  -0.0662657   0.0000000), wk =   0.1111111
        k(   15) = (   0.0573877  -0.0331328   0.0000000), wk =   0.1111111
        k(   16) = (   0.0573877   0.0000000   0.0000000), wk =   0.1111111
        k(   17) = (  -0.0860816  -0.0496992   0.0000000), wk =   0.0555556
        k(   18) = (  -0.0860816  -0.0165664   0.0000000), wk =   0.1111111
        k(   19) = (  -0.0860816   0.0165664   0.0000000), wk =   0.1111111
        k(   20) = (  -0.0860816  -0.1490977   0.0000000), wk =   0.0555556

     Largest allocated arrays     est. size (Mb)     dimensions
     Largest temporary arrays     est. size (Mb)     dimensions

     Check: negative/imaginary core charge=   -0.000002    0.000000

     Initial potential from superposition of free atoms
     Check: negative starting charge=   -0.373677

     starting charge  145.49879, renormalised to  147.00000

     negative rho (up, down):  3.775E-01 0.000E+00

     *
     * You are using vdW-DF for exchange-correlation in this calculation.
     * Please cite the following three references that made this development
     * possible:
     *
     *   M. Dion, H. Rydberg, E. Schroder, D. C. Langreth, and
     *   B. I. Lundqvist, Phys. Rev. Lett. 92, 246401 (2004).
     *
     *   T. Thonhauser, V. R. Cooper, S. Li, A. Puzder, P. Hyldgaard, and
     *   D. C. Langreth, Phys. Rev. B 76, 125112 (2007).
     *
     *   G. Roman-Perez and J. M. Soler, Phys. Rev. Lett. 103, 096102 (2009).
     *
     *
     * If you are using vdW-DF2, please also cite:
     *
     *   K. Lee, E. D. Murray, L. Kong, B. I. Lundqvist, and
     *   D. C. Langreth, Phys. Rev. B 82, 081101(R) (2010).
     *
     *
     * If you are calculating the stress with vdW-DF, please also cite:
     *
     *   R. Sabatini, E. Kucukbenli, B. Kolb, T. Thonhauser, and
     *   S. de Gironcoli, J. Phys.: Condens. Matter 24, 424209 (2012).
     *

     Carrying out vdW-DF run using the following parameters:

     Nqs =      20    Nr_points =    1024   r_max =   100.000
     q_mesh =
               0.00001000     0.04494208     0.09755937     0.15916263
               0.23128650     0.31572767     0.41458969     0.53033537
               0.66584808     0.82450364     1.01025438     1.22772762
               1.48234092     1.78043706     2.12944203     2.53805004
               3.01644009     3.57652955     4.23227104     5.00000000

     Gradients computed in reciprocal space

     Adding external electric field

     Computed dipole along edir(3) :
        Dipole                0.0000 Ry au,          0.0000 Debye
        Dipole field          0.0000 Ry au

        Potential amp.       -0.0000 Ry
        Total length         45.5878 bohr

     Starting wfc are  120 randomized atomic wfcs

     Self-consistent Calculation

     iteration #  1     ecut=    36.75 Ry     beta=0.10
     Davidson diagonalization with overlap
     ethr =  1.00E-02,  avg # of iterations =  7.8

[...]

     total energy              =   -1648.54725934 Ry
     Harris-Foulkes estimate   =   -1650.08487209 Ry
     estimated scf accuracy    <       8.62190420 Ry

[...]

     End of self-consistent calculation

          k = 0.0000 0.0000 0.0000 ( 18415 PWs)   bands (ev):

   -85.1347 -84.9051 -84.9050 -44.5248 -44.3835 -44.3835 -44.2208 -44.2208
   -44.2206 -44.2206 -44.1580 -44.1572  -7.6107  -6.1265  -5.7298  -5.5129
    -5.3855  -5.3450  -5.3450  -5.1932  -5.1932  -4.9863  -4.9575  -4.8973
    -4.8973  -4.7469  -4.7469  -3.9625  -3.6908  -3.6908  -3.6587  -3.6587
    -3.4073  -3.2994  -3.2964  -3.1045  -3.1045  -3.1025  -3.0039  -3.0039
    -2.8354  -2.8354  -2.6942  -2.6942  -2.6291  -2.6291  -2.2478  -1.9864
    -1.9864  -1.9204  -1.9204  -1.6790  -1.6790  -1.4117  -1.2133  -1.2133
    -1.0650  -0.9968  -0.9077  -0.8407  -0.7322  -0.0355   0.3501   0.3501
     0.4585   0.4585   0.5957   0.5957   0.7485   0.7485   0.9503   0.9503
     1.0578   1.3369   1.3369   1.3830   1.6978   1.7622   1.7622   2.9558
     2.9558   3.0296   3.0296   3.2946   3.3129   5.1259   5.1800   5.1800
     5.4684   5.4940   5.4940   5.5733   5.7416   5.9373   6.4758   6.4758
     6.7311   6.8314   7.3436   9.0179   9.2012   9.3727   9.3728

[...]

          k =-0.0861-0.0497 0.0000 ( 18288 PWs)   bands (ev):

[...]

     the Fermi energy is     0.7785 ev

!    total energy              =   -1649.10081316 Ry
     Harris-Foulkes estimate   =   -1649.10081074 Ry
     estimated scf accuracy    <       0.00000086 Ry

     The total energy is the sum of the following terms:

     one-electron contribution =  -10650.23286630 Ry
     hartree contribution      =    5392.20221388 Ry
     xc contribution           =    -691.79978693 Ry
     ewald contribution        =    4300.81663384 Ry
     electric field correction =       0.00000000 Ry
     smearing contrib. (-TS)   =      -0.08700765 Ry

     convergence has been achieved in  15 iterations

 BEEF-vdW xc energy contributions
           1 :   -615.938777535884
           2 :    572.342857733703
           3 :   -494.401635841731
           4 :    397.390484200569
           5 :   -297.967654276324
           6 :    209.833281796151
           7 :   -140.994237548823
           8 :    93.1656099558061
           9 :   -63.1417230655446
[...]
     Pseudo is Ultrasoft + core correction, Zval = 11.0
     Generated by new atomic code, or converted to UPF format
     Using radial grid of  985 points,  7 beta functions with:
                l(1) =   0
                l(2) =   0
                l(3) =   1
                l(4) =   1
                l(5) =   2
                l(6) =   2
                l(7) =   3
     Q(r) pseudized with  6 coefficients,  rinner =    1.900   1.900   1.900
                                                       1.900   1.900   1.900
                                                       1.900

     PseudoPot. # 2 for Os read from file:
     /afs/slac.stanford.edu/u/if/mamunm/psp/gbrv1.5pbe/Os.UPF
     MD5 check sum: a3fb40a04f0c37c25c34bbc47164c9a8
     Pseudo is Ultrasoft + core correction, Zval = 16.0
     Generated by new atomic code, or converted to UPF format
     Using radial grid of  983 points,  8 beta functions with:
                l(1) =   0
                l(2) =   0
                l(3) =   1
                l(4) =   1
                l(5) =   2
                l(6) =   2
                l(7) =   3
                l(8) =   3
     Q(r) pseudized with  8 coefficients,  rinner =    1.150   1.150   1.150
                                                       1.150   1.150   1.150
                                                       1.150

     vdW kernel table read from file vdW_kernel_table
     MD5 check sum: 095c7af220d748ca6e76c0b4c6cfb241

     atomic species   valence    mass     pseudopotential
        Au1           11.00   196.96657     Au( 1.00)
        Os1           16.00   190.23000     Os( 1.00)

     No symmetry found

   Cartesian axes

     site n.     atom                  positions (alat units)
         1           Au1 tau(   1) = (   0.0000000   0.0000000  10.0000000  )
         2           Au1 tau(   2) = (   4.3563313   2.5151291  10.0000000  )
         3           Au1 tau(   3) = (   1.4521104   2.5151291  10.0000000  )
         4           Os1 tau(   4) = (   2.9042209   0.0000000  10.0000000  )
         5           Au1 tau(   5) = (   2.9042209   1.6767527  12.3712864  )
         6           Au1 tau(   6) = (   1.4521104   4.1918818  12.3712864  )
         7           Au1 tau(   7) = (  -1.4521104   4.1918818  12.3712864  )
         8           Os1 tau(   8) = (   0.0000000   1.6767527  12.3712864  )
         9           Au1 tau(   9) = (   0.0000199   3.3448284  14.8382668  )
        10           Au1 tau(  10) = (   1.4446192   0.8426895  14.8382754  )
        11           Au1 tau(  11) = (   4.3638247   0.8427129  14.8383136  )
        12           Os1 tau(  12) = (   2.9042243   3.3535110  14.5724905  )

     number of k points=    20  Fermi-Dirac smearing, width (Ry)=  0.0110
                       cart. coord. in units 2pi/alat
        k(    1) = (   0.0000000   0.0000000   0.0000000), wk =   0.0555556
        k(    2) = (   0.0000000   0.0331328   0.0000000), wk =   0.1111111
        k(    3) = (   0.0000000   0.0662657   0.0000000), wk =   0.1111111
        k(    4) = (   0.0000000  -0.0993985   0.0000000), wk =   0.0555556
        k(    5) = (   0.0286939   0.0165664   0.0000000), wk =   0.1111111
        k(    6) = (   0.0286939   0.0496992   0.0000000), wk =   0.1111111
        k(    7) = (   0.0286939   0.0828321   0.0000000), wk =   0.1111111
        k(    8) = (   0.0286939  -0.0828321   0.0000000), wk =   0.1111111
        k(    9) = (   0.0286939  -0.0496992   0.0000000), wk =   0.1111111
        k(   10) = (   0.0286939  -0.0165664   0.0000000), wk =   0.1111111
        k(   11) = (   0.0573877   0.0331328   0.0000000), wk =   0.1111111
        k(   12) = (   0.0573877   0.0662657   0.0000000), wk =   0.1111111
        k(   13) = (   0.0573877   0.0993985   0.0000000), wk =   0.1111111
        k(   14) = (   0.0573877  -0.0662657   0.0000000), wk =   0.1111111
        k(   15) = (   0.0573877  -0.0331328   0.0000000), wk =   0.1111111
        k(   16) = (   0.0573877   0.0000000   0.0000000), wk =   0.1111111
        k(   17) = (  -0.0860816  -0.0496992   0.0000000), wk =   0.0555556
        k(   18) = (  -0.0860816  -0.0165664   0.0000000), wk =   0.1111111
        k(   19) = (  -0.0860816   0.0165664   0.0000000), wk =   0.1111111
        k(   20) = (  -0.0860816  -0.1490977   0.0000000), wk =   0.0555556

     Largest allocated arrays     est. size (Mb)     dimensions
     Largest temporary arrays     est. size (Mb)     dimensions

     Check: negative/imaginary core charge=   -0.000002    0.000000

     Initial potential from superposition of free atoms
     Check: negative starting charge=   -0.373718

     starting charge  145.49879, renormalised to  147.00000

[...]

     *
     * You are using vdW-DF for exchange-correlation in this calculation.
     * Please cite the following three references that made this development
     * possible:
     *
     *   M. Dion, H. Rydberg, E. Schroder, D. C. Langreth, and
     *   B. I. Lundqvist, Phys. Rev. Lett. 92, 246401 (2004).
     *
     *   T. Thonhauser, V. R. Cooper, S. Li, A. Puzder, P. Hyldgaard, and
     *   D. C. Langreth, Phys. Rev. B 76, 125112 (2007).
     *
     *   G. Roman-Perez and J. M. Soler, Phys. Rev. Lett. 103, 096102 (2009).
     *
     *
     * If you are using vdW-DF2, please also cite:
     *
     *   K. Lee, E. D. Murray, L. Kong, B. I. Lundqvist, and
     *   D. C. Langreth, Phys. Rev. B 82, 081101(R) (2010).
     *
     *
     * If you are calculating the stress with vdW-DF, please also cite:
     *
     *   R. Sabatini, E. Kucukbenli, B. Kolb, T. Thonhauser, and
     *   S. de Gironcoli, J. Phys.: Condens. Matter 24, 424209 (2012).
     *

     Carrying out vdW-DF run using the following parameters:

     Nqs =      20    Nr_points =    1024   r_max =   100.000
     q_mesh =
               0.00001000     0.04494208     0.09755937     0.15916263
               0.23128650     0.31572767     0.41458969     0.53033537
               0.66584808     0.82450364     1.01025438     1.22772762
               1.48234092     1.78043706     2.12944203     2.53805004
               3.01644009     3.57652955     4.23227104     5.00000000

     Gradients computed in reciprocal space

[...]

     Starting wfc are  120 randomized atomic wfcs

     Self-consistent Calculation

[...]

     total energy              =   -1649.13204748 Ry
     Harris-Foulkes estimate   =   -1649.13204706 Ry
     estimated scf accuracy    <       0.00000133 Ry

     iteration # 16     ecut=    36.75 Ry     beta=0.10
     Davidson diagonalization with overlap
     ethr =  9.03E-10,  avg # of iterations =  1.6

[...]

     negative rho (up, down):  3.505E-01 0.000E+00

     Adding external electric field

     Computed dipole along edir(3) :
        Dipole               -0.0132 Ry au,         -0.0336 Debye
        Dipole field         -0.0000 Ry au

        Potential amp.        0.0031 Ry
        Total length         45.5878 bohr

     End of self-consistent calculation

[...]

          k = 0.0574 0.0000 0.0000 ( 18371 PWs)   bands (ev):

[...]

          k =-0.0861-0.1491 0.0000 ( 18288 PWs)   bands (ev):

   -85.1435 -85.0050 -84.9217 -44.5278 -44.3944 -44.3936 -44.3092 -44.3085
   -44.2851 -44.2412 -44.2404 -44.1681  -6.0971  -5.9439  -5.0119  -4.9136
    -4.8126  -4.7966  -4.6961  -4.6350  -4.4625  -4.4575  -4.4335  -4.3019
    -4.0523  -4.0187  -3.9693  -3.8887  -3.8584  -3.8463  -3.8129  -3.6938
    -3.3575  -3.3013  -3.2578  -3.1891  -3.1723  -3.1358  -3.1286  -3.0971
    -3.0496  -3.0234  -2.9546  -2.9098  -2.8676  -2.8184  -2.8167  -2.7406
    -2.6131  -2.5489  -2.5032  -2.4175  -2.3959  -2.2979  -2.1725  -2.1294
    -1.8044  -1.6780  -1.6053  -1.4903  -1.3718  -1.0863  -0.9283  -0.8837
    -0.2136  -0.0769  -0.0160   0.0794   0.0846   0.1590   0.3166   0.3685
     0.4227   0.5118   0.5426   1.2107   1.2402   1.6322   2.0154   2.4015
     2.8670   3.3451   4.4856   4.5108   4.7242   4.7982   6.3679   6.3911
     6.7769   7.0464   7.0787   7.1286   7.1318   7.3187   7.3700   7.6802
     7.7219   7.8510   8.2472   8.2906   8.5365   8.6057   8.8407

     the Fermi energy is     0.7471 ev

!    total energy              =   -1649.13205021 Ry
     Harris-Foulkes estimate   =   -1649.13204753 Ry
     estimated scf accuracy    <       0.00000055 Ry

     The total energy is the sum of the following terms:

     one-electron contribution =  -10632.02036882 Ry
     hartree contribution      =    5383.02633673 Ry
     xc contribution           =    -691.79483025 Ry
     ewald contribution        =    4291.74179103 Ry
     electric field correction =       0.00000045 Ry
     smearing contrib. (-TS)   =      -0.08497936 Ry

     convergence has been achieved in  16 iterations

 BEEF-vdW xc energy contributions
           1 :   -616.458731243405
           2 :    572.836828088519
           3 :   -494.865541118017
           4 :    397.844500414842
           5 :   -298.440278528640
           6 :    210.342214195620
           7 :   -141.535476915018
           8 :    93.7158529065880
           9 :   -63.6715434767232
          10 :    45.7891791064992
          11 :   -34.5886833322603
          12 :    26.3586237876925
          13 :   -19.5350025189282
          14 :    14.0462876661747
          15 :   -10.2428442277189
          16 :    8.03695542268292
          17 :   -6.63703042472332
          18 :    4.87856672250643
          19 :   -1.86669106441116
          20 :   -2.48917763884651
          21 :    7.36199824235518
          22 :   -11.3833398978395
          23 :    13.3038012319495
          24 :   -12.5992276123707
          25 :    9.72049586426374
          26 :   -5.88328176484390
          27 :    2.51829651822197
          28 :  -0.663400435056246
          29 :   0.585660710899674
          30 :   -1.79246348442825
          31 :   -50.2273589910393
          32 :   -36.9216640070904

     Forces acting on atoms (Ry/au):

     negative rho (up, down):  3.505E-01 0.000E+00
     atom    1 type  1   force =     0.00000220    0.00555512   -0.01487347
     atom    2 type  1   force =     0.00480957   -0.00277419   -0.01486930
     atom    3 type  1   force =    -0.00480529   -0.00277916   -0.01487123
     atom    4 type  2   force =    -0.00000179    0.00000089    0.04559754
     atom    5 type  1   force =    -0.00000357   -0.01293199   -0.00254003
     atom    6 type  1   force =    -0.01120203    0.00646536   -0.00253929
     atom    7 type  1   force =     0.01119760    0.00646622   -0.00254158
     atom    8 type  2   force =     0.00000048   -0.00000142    0.00743256
     atom    9 type  1   force =     0.00000060    0.00037332    0.00020595
     atom   10 type  1   force =     0.00032499   -0.00018834    0.00020777
     atom   11 type  1   force =    -0.00032377   -0.00018636    0.00020631
     atom   12 type  2   force =     0.00000101    0.00000056   -0.00141524

     Total force =     0.058429     Total SCF correction =     0.001408

     entering subroutine stress ...

     negative rho (up, down):  3.505E-01 0.000E+00
          total   stress  (Ry/bohr**3)                   (kbar)     P=  -15.24
  -0.00015265  -0.00000000  -0.00000000        -22.46     -0.00     -0.00
  -0.00000000  -0.00015265  -0.00000000         -0.00    -22.46     -0.00
  -0.00000000  -0.00000000  -0.00000549         -0.00     -0.00     -0.81

 !ASE

     Writing output data file calc.save

     General routines

     Parallel routines

   This run was terminated on:  20:54:43  19Dec2018

   JOB DONE.
Job  /afs/slac/g/suncat/bin/suncat-tsmpirun -x LD_LIBRARY_PATH -wdir /scratch/qe773371_Wr0Ir pw.x -in pw.inp

TID   HOST_NAME   COMMAND_LINE            STATUS            TERMINATION_TIME
00000 suncat0075 pw.x -in pw.inp   Done                     12/19/2018 20:54:43
00001 suncat0075 pw.x -in pw.inp   Done                     12/19/2018 20:54:43
00002 suncat0075 pw.x -in pw.inp   Done                     12/19/2018 20:54:43
00003 suncat0075 pw.x -in pw.inp   Done                     12/19/2018 20:54:43
00004 suncat0075 pw.x -in pw.inp   Done                     12/19/2018 20:54:43
00005 suncat0075 pw.x -in pw.inp   Done                     12/19/2018 20:54:43
00006 suncat0075 pw.x -in pw.inp   Done                     12/19/2018 20:54:43
00007 suncat0075 pw.x -in pw.inp   Done                     12/19/2018 20:54:43
00008 suncat0074 pw.x -in pw.inp   Done                     12/19/2018 20:54:43
00009 suncat0074 pw.x -in pw.inp   Done                     12/19/2018 20:54:43
00010 suncat0074 pw.x -in pw.inp   Done                     12/19/2018 20:54:43
00011 suncat0074 pw.x -in pw.inp   Done                     12/19/2018 20:54:43
00012 suncat0074 pw.x -in pw.inp   Done                     12/19/2018 20:54:43
00013 suncat0074 pw.x -in pw.inp   Done                     12/19/2018 20:54:43
00014 suncat0074 pw.x -in pw.inp   Done                     12/19/2018 20:54:43
00015 suncat0074 pw.x -in pw.inp   Done                     12/19/2018 20:54:43
00016 suncat0073 pw.x -in pw.inp   Done                     12/19/2018 20:54:43
00017 suncat0073 pw.x -in pw.inp   Done                     12/19/2018 20:54:43
00018 suncat0073 pw.x -in pw.inp   Done                     12/19/2018 20:54:43
00019 suncat0073 pw.x -in pw.inp   Done                     12/19/2018 20:54:43
00020 suncat0073 pw.x -in pw.inp   Done                     12/19/2018 20:54:43
00021 suncat0073 pw.x -in pw.inp   Done                     12/19/2018 20:54:43
00022 suncat0073 pw.x -in pw.inp   Done                     12/19/2018 20:54:43
00023 suncat0073 pw.x -in pw.inp   Done                     12/19/2018 20:54:43
00024 suncat0072 pw.x -in pw.inp   Done                     12/19/2018 20:54:43
00025 suncat0072 pw.x -in pw.inp   Done                     12/19/2018 20:54:43
00026 suncat0072 pw.x -in pw.inp   Done                     12/19/2018 20:54:43
00027 suncat0072 pw.x -in pw.inp   Done                     12/19/2018 20:54:43
00028 suncat0072 pw.x -in pw.inp   Done                     12/19/2018 20:54:43
00029 suncat0072 pw.x -in pw.inp   Done                     12/19/2018 20:54:43
00030 suncat0072 pw.x -in pw.inp   Done                     12/19/2018 20:54:43
00031 suncat0072 pw.x -in pw.inp   Done                     12/19/2018 20:54:43
00032 suncat0054 pw.x -in pw.inp   Done                     12/19/2018 20:54:43
00033 suncat0054 pw.x -in pw.inp   Done                     12/19/2018 20:54:43
00034 suncat0054 pw.x -in pw.inp   Done                     12/19/2018 20:54:43
00035 suncat0054 pw.x -in pw.inp   Done                     12/19/2018 20:54:43
00036 suncat0054 pw.x -in pw.inp   Done                     12/19/2018 20:54:43
00037 suncat0054 pw.x -in pw.inp   Done                     12/19/2018 20:54:43
00038 suncat0054 pw.x -in pw.inp   Done                     12/19/2018 20:54:43
00039 suncat0054 pw.x -in pw.inp   Done                     12/19/2018 20:54:43
00040 suncat0053 pw.x -in pw.inp   Done                     12/19/2018 20:54:43
00041 suncat0053 pw.x -in pw.inp   Done                     12/19/2018 20:54:43
00042 suncat0053 pw.x -in pw.inp   Done                     12/19/2018 20:54:43
00043 suncat0053 pw.x -in pw.inp   Done                     12/19/2018 20:54:43
00044 suncat0053 pw.x -in pw.inp   Done                     12/19/2018 20:54:43
00045 suncat0053 pw.x -in pw.inp   Done                     12/19/2018 20:54:43
00046 suncat0053 pw.x -in pw.inp   Done                     12/19/2018 20:54:43
00047 suncat0053 pw.x -in pw.inp   Done                     12/19/2018 20:54:43
00048 suncat0180 pw.x -in pw.inp   Done                     12/19/2018 20:54:43
00049 suncat0180 pw.x -in pw.inp   Done                     12/19/2018 20:54:43
00050 suncat0180 pw.x -in pw.inp   Done                     12/19/2018 20:54:43
00051 suncat0180 pw.x -in pw.inp   Done                     12/19/2018 20:54:43
00052 suncat0180 pw.x -in pw.inp   Done                     12/19/2018 20:54:43
00053 suncat0180 pw.x -in pw.inp   Done                     12/19/2018 20:54:43
00054 suncat0180 pw.x -in pw.inp   Done                     12/19/2018 20:54:43
00055 suncat0180 pw.x -in pw.inp   Done                     12/19/2018 20:54:43
00056 suncat0179 pw.x -in pw.inp   Done                     12/19/2018 20:54:43
00057 suncat0179 pw.x -in pw.inp   Done                     12/19/2018 20:54:43
00058 suncat0179 pw.x -in pw.inp   Done                     12/19/2018 20:54:43
00059 suncat0179 pw.x -in pw.inp   Done                     12/19/2018 20:54:43
00060 suncat0179 pw.x -in pw.inp   Done                     12/19/2018 20:54:43
00061 suncat0179 pw.x -in pw.inp   Done                     12/19/2018 20:54:43
00062 suncat0179 pw.x -in pw.inp   Done                     12/19/2018 20:54:43
00063 suncat0179 pw.x -in pw.inp   Done                     12/19/2018 20:54:43