     Program PWSCF v.5.1rc2 (svn rev. 11289) starts on 19Dec2018 at  9: 1:30

     Current dimensions of program PWSCF are:
     Max number of different atomic species (ntypx) = 10
     Max number of k-points (npk) =  40000
     Max angular momentum in pseudopotentials (lmaxx) =  3
     Presently stress not available with electric field

     IMPORTANT: XC functional enforced from input :
     Exchange-correlation      = BEEF-VDW ( 1  4 27 13 2)
     Any further DFT definition will be discarded
     Please, verify this is what you really want

     Subspace diagonalization in iterative solution of the eigenvalue problem:
     a serial algorithm will be used

     Found symmetry operation: I + (  0.5000  0.0000  0.0000)
     This is a supercell, fractional translations are disabled

     bravais-lattice index     =            0
     lattice parameter (alat)  =       1.8897  a.u.
     unit-cell volume          =    3921.9290 (a.u.)^3
     number of atoms/cell      =           12
     number of atomic types    =            2
     number of electrons       =       192.00
     number of Kohn-Sham states=          126
     kinetic-energy cutoff     =      36.7493  Ry
     charge density cutoff     =     367.4932  Ry
     convergence threshold     =      1.0E-06
     mixing beta               =       0.1000
     number of iterations used =           10  plain     mixing
     Exchange-correlation      = BEEF-VDW ( 1  4 27 13 2)
     nstep                     =           50

     celldm(1)=   1.889726  celldm(2)=   0.000000  celldm(3)=   0.000000
     celldm(4)=   0.000000  celldm(5)=   0.000000  celldm(6)=   0.000000

     crystal axes: (cart. coord. in units of alat)
               a(1) = (   4.981395   0.000000   0.000000 )
               a(2) = (  -2.490698   4.808842   0.000000 )
               a(3) = (   0.000000   0.000000  24.261166 )

     reciprocal axes: (cart. coord. in units 2 pi/alat)
               b(1) = (  0.200747  0.103975  0.000000 )
               b(2) = (  0.000000  0.207950  0.000000 )
               b(3) = (  0.000000  0.000000  0.041218 )

     PseudoPot. # 1 for V  read from file:
     /afs/slac.stanford.edu/u/if/mamunm/psp/gbrv1.5pbe/V.UPF
     MD5 check sum: 22b79981416ebb76fdaf5b1b8640f6fb
     Pseudo is Ultrasoft + core correction, Zval = 13.0
     Generated by new atomic code, or converted to UPF format
     Using radial grid of  853 points,  6 beta functions with:
                l(1) =   0
                l(2) =   0
                l(3) =   1
                l(4) =   1
                l(5) =   2
                l(6) =   2
     Q(r) pseudized with  8 coefficients,  rinner =    1.100   1.100   1.100
                                                       1.100   1.100

     PseudoPot. # 2 for Cu read from file:
     /afs/slac.stanford.edu/u/if/mamunm/psp/gbrv1.5pbe/Cu.UPF
     MD5 check sum: 6e991ff952a84172a2a52a1c1e996048
     Pseudo is Ultrasoft + core correction, Zval = 19.0
     Generated by new atomic code, or converted to UPF format
     Using radial grid of  867 points,  6 beta functions with:
                l(1) =   0
                l(2) =   0
                l(3) =   1
                l(4) =   1
                l(5) =   2
                l(6) =   2
     Q(r) pseudized with  8 coefficients,  rinner =    1.150   1.150   1.150
                                                       1.150   1.150

     vdW kernel table read from file vdW_kernel_table
     MD5 check sum: 095c7af220d748ca6e76c0b4c6cfb241

     atomic species   valence    mass     pseudopotential
        V1            13.00    50.94150     V ( 1.00)
        Cu1           19.00    63.54600     Cu( 1.00)

     No symmetry found

   Cartesian axes

     site n.     atom                  positions (alat units)
         1           V1  tau(   1) = (   0.0000000   0.0000000  10.0000000  )
         2           V1  tau(   2) = (   2.4906976   0.0000000  10.0000000  )
         3           Cu1 tau(   3) = (   1.2453488   2.4044208  10.0000000  )
         4           Cu1 tau(   4) = (  -1.2453488   2.4044208  10.0000000  )
         5           V1  tau(   5) = (   2.4906976   1.2900351  12.1305830  )
         6           V1  tau(   6) = (   0.0000000   1.2900351  12.1305830  )
         7           Cu1 tau(   7) = (  -1.2453488   3.6944559  12.1305830  )
         8           Cu1 tau(   8) = (   1.2453488   3.6944559  12.1305830  )
         9           V1  tau(   9) = (   0.0000000   2.5800701  14.2611660  )
        10           V1  tau(  10) = (   2.4906976   2.5800701  14.2611660  )
        11           Cu1 tau(  11) = (   3.7360463   0.1756493  14.2611660  )
        12           Cu1 tau(  12) = (   1.2453488   0.1756493  14.2611660  )

     number of k points=    20  Fermi-Dirac smearing, width (Ry)=  0.0110
                       cart. coord. in units 2pi/alat
        k(    1) = (   0.0000000   0.0000000   0.0000000), wk =   0.0555556
        k(    2) = (   0.0000000   0.0346584   0.0000000), wk =   0.1111111
        k(    3) = (   0.0000000   0.0693168   0.0000000), wk =   0.1111111
        k(    4) = (   0.0000000  -0.1039751   0.0000000), wk =   0.0555556
        k(    5) = (   0.0334578   0.0173292   0.0000000), wk =   0.1111111
        k(    6) = (   0.0334578   0.0519876   0.0000000), wk =   0.1111111
        k(    7) = (   0.0334578   0.0866460   0.0000000), wk =   0.1111111
        k(    8) = (   0.0334578  -0.0866460   0.0000000), wk =   0.1111111
        k(    9) = (   0.0334578  -0.0519876   0.0000000), wk =   0.1111111
        k(   10) = (   0.0334578  -0.0173292   0.0000000), wk =   0.1111111
        k(   11) = (   0.0669157   0.0346584   0.0000000), wk =   0.1111111
        k(   12) = (   0.0669157   0.0693168   0.0000000), wk =   0.1111111
        k(   13) = (   0.0669157   0.1039751   0.0000000), wk =   0.1111111
        k(   14) = (   0.0669157  -0.0693168   0.0000000), wk =   0.1111111
        k(   15) = (   0.0669157  -0.0346584   0.0000000), wk =   0.1111111
        k(   16) = (   0.0669157   0.0000000   0.0000000), wk =   0.1111111
        k(   17) = (  -0.1003735  -0.0519876   0.0000000), wk =   0.0555556
        k(   18) = (  -0.1003735  -0.0173292   0.0000000), wk =   0.1111111
        k(   19) = (  -0.1003735   0.0173292   0.0000000), wk =   0.1111111
        k(   20) = (  -0.1003735  -0.1559627   0.0000000), wk =   0.0555556

     Largest allocated arrays     est. size (Mb)     dimensions
     Largest temporary arrays     est. size (Mb)     dimensions

     Initial potential from superposition of free atoms
     Check: negative starting charge=   -0.005214

     starting charge  185.99262, renormalised to  192.00000

     negative rho (up, down):  5.382E-03 0.000E+00

     *
     * You are using vdW-DF for exchange-correlation in this calculation.
     * Please cite the following three references that made this development
     * possible:
     *
     *   M. Dion, H. Rydberg, E. Schroder, D. C. Langreth, and
     *   B. I. Lundqvist, Phys. Rev. Lett. 92, 246401 (2004).
     *
     *   T. Thonhauser, V. R. Cooper, S. Li, A. Puzder, P. Hyldgaard, and
     *   D. C. Langreth, Phys. Rev. B 76, 125112 (2007).
     *
     *   G. Roman-Perez and J. M. Soler, Phys. Rev. Lett. 103, 096102 (2009).
     *
     *
     * If you are using vdW-DF2, please also cite:
     *
     *   K. Lee, E. D. Murray, L. Kong, B. I. Lundqvist, and
     *   D. C. Langreth, Phys. Rev. B 82, 081101(R) (2010).
     *
     *
     * If you are calculating the stress with vdW-DF, please also cite:
     *
     *   R. Sabatini, E. Kucukbenli, B. Kolb, T. Thonhauser, and
     *   S. de Gironcoli, J. Phys.: Condens. Matter 24, 424209 (2012).
     *

     Carrying out vdW-DF run using the following parameters:

     Nqs =      20    Nr_points =    1024   r_max =   100.000
     q_mesh =
               0.00001000     0.04494208     0.09755937     0.15916263
               0.23128650     0.31572767     0.41458969     0.53033537
               0.66584808     0.82450364     1.01025438     1.22772762
               1.48234092     1.78043706     2.12944203     2.53805004
               3.01644009     3.57652955     4.23227104     5.00000000

     Gradients computed in reciprocal space

     Adding external electric field

     Computed dipole along edir(3) :
        Dipole               -0.0000 Ry au,         -0.0000 Debye
        Dipole field         -0.0000 Ry au

        Potential amp.        0.0000 Ry
        Total length         44.7008 bohr

     Starting wfc are  138 randomized atomic wfcs

     Self-consistent Calculation

     iteration #  1     ecut=    36.75 Ry     beta=0.10
     Davidson diagonalization with overlap
     ethr =  1.00E-02,  avg # of iterations =  5.9

[...]

     total energy              =   -3304.39386222 Ry
     Harris-Foulkes estimate   =   -3306.10760646 Ry
     estimated scf accuracy    <      10.06284225 Ry

[...]

     End of self-consistent calculation

          k = 0.0000 0.0000 0.0000 ( 14725 PWs)   bands (ev):

  -112.2114-112.2048-111.9767-111.9766-111.9700-111.9700 -69.6218 -69.6051
   -69.5984 -69.5699 -69.5632 -69.5477 -69.4095 -69.4087 -69.4027 -69.4020
   -69.3931 -69.3931 -69.3188 -69.3188 -69.3002 -69.2979 -69.2936 -69.2914
   -63.5148 -63.4990 -63.3866 -63.3723 -63.3652 -63.2381 -37.6170 -37.5661
   -37.5559 -37.5241 -37.4514 -37.4053 -37.3847 -37.3353 -37.3053 -37.2837
   -37.2561 -37.2350 -37.1535 -36.9076 -36.8217 -36.7634 -36.7204 -36.7032
    -6.6615  -4.9379  -3.9431  -3.5863  -3.5169  -3.4912  -3.3826  -3.3491
    -3.1777  -3.1512  -3.0523  -3.0465  -3.0273  -2.9869  -2.7524  -2.6636
    -2.5377  -2.4156  -2.4141  -2.2153  -2.1497  -2.1076  -1.8934  -1.8312
    -1.7857  -1.7773  -1.7082  -1.5610  -1.5483  -1.3913  -1.2665  -0.9944
    -0.9932  -0.8296  -0.7127  -0.5591  -0.3771  -0.3389  -0.1653  -0.0942
    -0.0095   0.2351   0.2734   0.3779   0.4691   0.8312   0.9136   0.9684
     1.0797   1.1592   1.4857   1.6534   1.7082   1.7788   2.1056   2.2402
     2.4656   2.4985   2.5122   2.6788   2.7822   2.8076   2.9099   2.9529
     3.0518   3.0854   3.4532   3.6400   3.7364   4.1586   4.3897   4.6661
     4.7587   4.8757   4.8997   5.3464   6.2040   6.4769

[...]

          k =-0.1004-0.0520 0.0000 ( 14770 PWs)   bands (ev):

[...]

     the Fermi energy is     0.8278 ev

!    total energy              =   -3303.97567276 Ry
     Harris-Foulkes estimate   =   -3303.97567063 Ry
     estimated scf accuracy    <       0.00000034 Ry

     The total energy is the sum of the following terms:

     one-electron contribution =  -25159.24527939 Ry
     hartree contribution      =   12579.65565765 Ry
     xc contribution           =    -362.04580314 Ry
     ewald contribution        =    9637.74359441 Ry
     electric field correction =       0.00000000 Ry
     smearing contrib. (-TS)   =      -0.08384229 Ry

     convergence has been achieved in  23 iterations

 BEEF-vdW xc energy contributions
           1 :   -318.002804004785
           2 :    287.514577222071
           3 :   -236.182888858878
           4 :    178.693277721006
           5 :   -128.343634960967
           6 :    92.1734688919119
           7 :   -69.8388698952389
           8 :    56.1244916105125
[...]
     This is a supercell, fractional translations are disabled

[...]

     Total force =     0.036644     Total SCF correction =     0.005788
     SCF correction compared to forces is large: reduce conv_thr to get better values

[...]

   This run was terminated on:   9:11:54  19Dec2018

[...]

     Program PWSCF v.5.1rc2 (svn rev. 11289) starts on 19Dec2018 at  9:12: 0

[...]

     Program PWSCF v.5.1rc2 (svn rev. 11289) starts on 19Dec2018 at  9:16:57

[...]

     Program PWSCF v.5.1rc2 (svn rev. 11289) starts on 19Dec2018 at  9:36:45

     Current dimensions of program PWSCF are:
     Max number of different atomic species (ntypx) = 10
     Max number of k-points (npk) =  40000
     Max angular momentum in pseudopotentials (lmaxx) =  3
     Presently stress not available with electric field

     IMPORTANT: XC functional enforced from input :
     Exchange-correlation      = BEEF-VDW ( 1  4 27 13 2)
     Any further DFT definition will be discarded
     Please, verify this is what you really want

     Subspace diagonalization in iterative solution of the eigenvalue problem:
     a serial algorithm will be used

     bravais-lattice index     =            0
     lattice parameter (alat)  =       1.8897  a.u.
     unit-cell volume          =    3921.9290 (a.u.)^3
     number of atoms/cell      =           12
     number of atomic types    =            2
     number of electrons       =       192.00
     number of Kohn-Sham states=          126
     kinetic-energy cutoff     =      36.7493  Ry
     charge density cutoff     =     367.4932  Ry
     convergence threshold     =      1.0E-06
     mixing beta               =       0.1000
     number of iterations used =           10  plain     mixing
     Exchange-correlation      = BEEF-VDW ( 1  4 27 13 2)
     nstep                     =           50

     celldm(1)=   1.889726  celldm(2)=   0.000000  celldm(3)=   0.000000
     celldm(4)=   0.000000  celldm(5)=   0.000000  celldm(6)=   0.000000

     crystal axes: (cart. coord. in units of alat)
               a(1) = (   4.981395   0.000000   0.000000 )
               a(2) = (  -2.490698   4.808842   0.000000 )
               a(3) = (   0.000000   0.000000  24.261166 )

     reciprocal axes: (cart. coord. in units 2 pi/alat)
               b(1) = (  0.200747  0.103975  0.000000 )
               b(2) = (  0.000000  0.207950  0.000000 )
               b(3) = (  0.000000  0.000000  0.041218 )

     PseudoPot. # 1 for V  read from file:
     /afs/slac.stanford.edu/u/if/mamunm/psp/gbrv1.5pbe/V.UPF
     MD5 check sum: 22b79981416ebb76fdaf5b1b8640f6fb
     Pseudo is Ultrasoft + core correction, Zval = 13.0
     Generated by new atomic code, or converted to UPF format
     Using radial grid of  853 points,  6 beta functions with:
                l(1) =   0
                l(2) =   0
                l(3) =   1
                l(4) =   1
                l(5) =   2
                l(6) =   2
     Q(r) pseudized with  8 coefficients,  rinner =    1.100   1.100   1.100
                                                       1.100   1.100

     PseudoPot. # 2 for Cu read from file:
     /afs/slac.stanford.edu/u/if/mamunm/psp/gbrv1.5pbe/Cu.UPF
     MD5 check sum: 6e991ff952a84172a2a52a1c1e996048
     Pseudo is Ultrasoft + core correction, Zval = 19.0
     Generated by new atomic code, or converted to UPF format
     Using radial grid of  867 points,  6 beta functions with:
                l(1) =   0
                l(2) =   0
                l(3) =   1
                l(4) =   1
                l(5) =   2
                l(6) =   2
     Q(r) pseudized with  8 coefficients,  rinner =    1.150   1.150   1.150
                                                       1.150   1.150

     vdW kernel table read from file vdW_kernel_table
     MD5 check sum: 095c7af220d748ca6e76c0b4c6cfb241

     atomic species   valence    mass     pseudopotential
        V1            13.00    50.94150     V ( 1.00)
        Cu1           19.00    63.54600     Cu( 1.00)

     No symmetry found

   Cartesian axes

     site n.     atom                  positions (alat units)
         1           V1  tau(   1) = (   0.0000000   0.0000000  10.0000000  )
         2           V1  tau(   2) = (   2.4906976   0.0000000  10.0000000  )
         3           Cu1 tau(   3) = (   1.2453488   2.4044208  10.0000000  )
         4           Cu1 tau(   4) = (  -1.2453488   2.4044208  10.0000000  )
         5           V1  tau(   5) = (   2.4906976   1.2900351  12.1305830  )
         6           V1  tau(   6) = (   0.0000000   1.2900351  12.1305830  )
         7           Cu1 tau(   7) = (  -1.2453488   3.6944559  12.1305830  )
         8           Cu1 tau(   8) = (   1.2453488   3.6944559  12.1305830  )
         9           V1  tau(   9) = (   0.0000022   2.6368325  14.1613253  )
        10           V1  tau(  10) = (   2.4906921   2.6368265  14.1613289  )
        11           Cu1 tau(  11) = (   3.7359989   0.2551536  14.2881354  )
        12           Cu1 tau(  12) = (   1.2450637   0.2551365  14.2881462  )

     number of k points=    20  Fermi-Dirac smearing, width (Ry)=  0.0110
                       cart. coord. in units 2pi/alat
        k(    1) = (   0.0000000   0.0000000   0.0000000), wk =   0.0555556
        k(    2) = (   0.0000000   0.0346584   0.0000000), wk =   0.1111111
        k(    3) = (   0.0000000   0.0693168   0.0000000), wk =   0.1111111
        k(    4) = (   0.0000000  -0.1039751   0.0000000), wk =   0.0555556
        k(    5) = (   0.0334578   0.0173292   0.0000000), wk =   0.1111111
        k(    6) = (   0.0334578   0.0519876   0.0000000), wk =   0.1111111
        k(    7) = (   0.0334578   0.0866460   0.0000000), wk =   0.1111111
        k(    8) = (   0.0334578  -0.0866460   0.0000000), wk =   0.1111111
        k(    9) = (   0.0334578  -0.0519876   0.0000000), wk =   0.1111111
        k(   10) = (   0.0334578  -0.0173292   0.0000000), wk =   0.1111111
        k(   11) = (   0.0669157   0.0346584   0.0000000), wk =   0.1111111
        k(   12) = (   0.0669157   0.0693168   0.0000000), wk =   0.1111111
        k(   13) = (   0.0669157   0.1039751   0.0000000), wk =   0.1111111
        k(   14) = (   0.0669157  -0.0693168   0.0000000), wk =   0.1111111
        k(   15) = (   0.0669157  -0.0346584   0.0000000), wk =   0.1111111
        k(   16) = (   0.0669157   0.0000000   0.0000000), wk =   0.1111111
        k(   17) = (  -0.1003735  -0.0519876   0.0000000), wk =   0.0555556
        k(   18) = (  -0.1003735  -0.0173292   0.0000000), wk =   0.1111111
        k(   19) = (  -0.1003735   0.0173292   0.0000000), wk =   0.1111111
        k(   20) = (  -0.1003735  -0.1559627   0.0000000), wk =   0.0555556

     Largest allocated arrays     est. size (Mb)     dimensions
     Largest temporary arrays     est. size (Mb)     dimensions

     Initial potential from superposition of free atoms
     Check: negative starting charge=   -0.005760

     starting charge  185.99262, renormalised to  192.00000

[...]

     *
     * You are using vdW-DF for exchange-correlation in this calculation.
     * Please cite the following three references that made this development
     * possible:
     *
     *   M. Dion, H. Rydberg, E. Schroder, D. C. Langreth, and
     *   B. I. Lundqvist, Phys. Rev. Lett. 92, 246401 (2004).
     *
     *   T. Thonhauser, V. R. Cooper, S. Li, A. Puzder, P. Hyldgaard, and
     *   D. C. Langreth, Phys. Rev. B 76, 125112 (2007).
     *
     *   G. Roman-Perez and J. M. Soler, Phys. Rev. Lett. 103, 096102 (2009).
     *
     *
     * If you are using vdW-DF2, please also cite:
     *
     *   K. Lee, E. D. Murray, L. Kong, B. I. Lundqvist, and
     *   D. C. Langreth, Phys. Rev. B 82, 081101(R) (2010).
     *
     *
     * If you are calculating the stress with vdW-DF, please also cite:
     *
     *   R. Sabatini, E. Kucukbenli, B. Kolb, T. Thonhauser, and
     *   S. de Gironcoli, J. Phys.: Condens. Matter 24, 424209 (2012).
     *

     Carrying out vdW-DF run using the following parameters:

     Nqs =      20    Nr_points =    1024   r_max =   100.000
     q_mesh =
               0.00001000     0.04494208     0.09755937     0.15916263
               0.23128650     0.31572767     0.41458969     0.53033537
               0.66584808     0.82450364     1.01025438     1.22772762
               1.48234092     1.78043706     2.12944203     2.53805004
               3.01644009     3.57652955     4.23227104     5.00000000

     Gradients computed in reciprocal space

[...]

     Starting wfc are  138 randomized atomic wfcs

     Self-consistent Calculation

[...]

     total energy              =   -3303.98112368 Ry
     Harris-Foulkes estimate   =   -3303.98112198 Ry
     estimated scf accuracy    <       0.00000205 Ry

     iteration # 21     ecut=    36.75 Ry     beta=0.10
     Davidson diagonalization with overlap
     ethr =  1.07E-09,  avg # of iterations =  2.1

[...]

     negative rho (up, down):  6.990E-03 0.000E+00

     Adding external electric field

     Computed dipole along edir(3) :
        Dipole               -0.0169 Ry au,         -0.0430 Debye
        Dipole field         -0.0001 Ry au

        Potential amp.        0.0049 Ry
        Total length         44.7008 bohr

     End of self-consistent calculation

[...]

          k = 0.0669 0.0000 0.0000 ( 14771 PWs)   bands (ev):

[...]

          k =-0.1004-0.1560 0.0000 ( 14770 PWs)   bands (ev):

  -112.2989-112.2989-111.9926-111.9926-111.9845-111.9845 -69.6940 -69.6940
   -69.6735 -69.6735 -69.6545 -69.6545 -69.4248 -69.4248 -69.4189 -69.4188
   -69.3760 -69.3760 -69.3711 -69.3710 -69.3152 -69.3152 -69.3037 -69.3037
   -63.4695 -63.4695 -63.4384 -63.4384 -63.3110 -63.3110 -37.5494 -37.5494
   -37.3688 -37.3687 -37.3431 -37.3431 -37.3002 -37.3002 -37.2187 -37.2187
   -37.2159 -37.2159 -37.1599 -37.1598 -37.1294 -37.1294 -36.8511 -36.8510
    -4.8856  -4.8855  -3.5958  -3.5956  -3.0928  -3.0927  -3.0247  -3.0247
    -2.9405  -2.9404  -2.7896  -2.7896  -2.7222  -2.7222  -2.5808  -2.5807
    -2.3594  -2.3593  -2.2992  -2.2990  -2.2119  -2.2118  -2.1569  -2.1567
    -2.1477  -2.1474  -2.0321  -2.0320  -1.9889  -1.9887  -1.8452  -1.8452
    -1.7214  -1.7213  -0.9186  -0.9186  -0.5563  -0.5563  -0.2759  -0.2758
     0.1643   0.1643   0.3154   0.3155   0.7519   0.7519   0.8517   0.8517
     1.0206   1.0206   1.1385   1.1385   1.2350   1.2351   1.4138   1.4138
     1.5887   1.5887   2.1673   2.1673   2.4218   2.4218   2.6900   2.6900
     3.1829   3.1830   3.3352   3.3353   3.8946   3.8947   4.8205   4.8206
     5.6377   5.6378   6.4702   6.4702   6.9859   6.9859

     the Fermi energy is     0.8119 ev

!    total energy              =   -3303.98112807 Ry
     Harris-Foulkes estimate   =   -3303.98112394 Ry
     estimated scf accuracy    <       0.00000061 Ry

     The total energy is the sum of the following terms:

     one-electron contribution =  -25237.89216182 Ry
     hartree contribution      =   12618.78715694 Ry
     xc contribution           =    -362.10920444 Ry
     ewald contribution        =    9677.31501979 Ry
     electric field correction =       0.00000092 Ry
     smearing contrib. (-TS)   =      -0.08193946 Ry

     convergence has been achieved in  21 iterations

 BEEF-vdW xc energy contributions
           1 :   -318.068303257248
           2 :    287.603489988403
           3 :   -236.295450901379
           4 :    178.801794530624
           5 :   -128.411275231971
           6 :    92.1819724736876
           7 :   -69.8035156133515
           8 :    56.0853470938538
           9 :   -45.1147943923157
          10 :    33.5843865985839
          11 :   -21.7277109339276
          12 :    11.9148794754448
          13 :   -6.27143336613790
          14 :    4.97094475110686
          15 :   -6.14725444387943
          16 :    7.20478368849604
          17 :   -6.46560952758750
          18 :    4.02296389935435
          19 :   -1.34433415388162
          20 :   4.072808447688203E-002
          21 :  -0.717124434407992
          22 :    2.64645149623345
          23 :   -4.37968113275264
          24 :    4.77259707409308
          25 :   -3.70366234781108
          26 :    2.04335787273226
          27 :  -0.976600757779636
          28 :    1.18605157601189
          29 :   -2.44439410606878
          30 :    3.84346081599983
          31 :   -27.7855554622638
          32 :   -19.4135643122905

     Forces acting on atoms (Ry/au):

     negative rho (up, down):  6.990E-03 0.000E+00
     atom    1 type  1   force =    -0.00000244    0.00340324    0.01958033
     atom    2 type  1   force =    -0.00000238    0.00340600    0.01958696
     atom    3 type  2   force =    -0.00000053   -0.00814478   -0.00796535
     atom    4 type  2   force =     0.00000452   -0.00814688   -0.00796513
     atom    5 type  1   force =    -0.00000006   -0.00353246   -0.00543184
     atom    6 type  1   force =     0.00000098   -0.00352847   -0.00544537
     atom    7 type  2   force =     0.00002645    0.00828435   -0.00592729
     atom    8 type  2   force =    -0.00001292    0.00828594   -0.00592812
     atom    9 type  1   force =    -0.00001748   -0.00009140   -0.00008123
     atom   10 type  1   force =    -0.00001764   -0.00011287   -0.00008129
     atom   11 type  2   force =    -0.00004388    0.00008719   -0.00017061
     atom   12 type  2   force =     0.00006536    0.00009015   -0.00017104

     Total force =     0.036628     Total SCF correction =     0.001279

     entering subroutine stress ...

     negative rho (up, down):  6.990E-03 0.000E+00
          total   stress  (Ry/bohr**3)                   (kbar)     P=  -17.18
  -0.00009552  -0.00000001   0.00000001        -14.05     -0.00      0.00
  -0.00000001  -0.00018386   0.00000969         -0.00    -27.05      1.43
   0.00000001   0.00000969  -0.00007102          0.00      1.43    -10.45

 !ASE

     Writing output data file calc.save

     General routines

     Parallel routines

   This run was terminated on:   9:41:39  19Dec2018

   JOB DONE.
Job  /afs/slac/g/suncat/bin/suncat-tsmpirun -x LD_LIBRARY_PATH -wdir /scratch/qe530748_ynTpR pw.x -in pw.inp

TID   HOST_NAME   COMMAND_LINE            STATUS            TERMINATION_TIME
00000 suncat2046 pw.x -in pw.inp   Done                     12/19/2018 09:41:39
00001 suncat2046 pw.x -in pw.inp   Done                     12/19/2018 09:41:39
00002 suncat2046 pw.x -in pw.inp   Done                     12/19/2018 09:41:39
00003 suncat2046 pw.x -in pw.inp   Done                     12/19/2018 09:41:39
00004 suncat2046 pw.x -in pw.inp   Done                     12/19/2018 09:41:39
00005 suncat2046 pw.x -in pw.inp   Done                     12/19/2018 09:41:39
00006 suncat2046 pw.x -in pw.inp   Done                     12/19/2018 09:41:39
00007 suncat2046 pw.x -in pw.inp   Done                     12/19/2018 09:41:39
00008 suncat2046 pw.x -in pw.inp   Done                     12/19/2018 09:41:39
00009 suncat2046 pw.x -in pw.inp   Done                     12/19/2018 09:41:39
00010 suncat2046 pw.x -in pw.inp   Done                     12/19/2018 09:41:39
00011 suncat2046 pw.x -in pw.inp   Done                     12/19/2018 09:41:39
00012 suncat2046 pw.x -in pw.inp   Done                     12/19/2018 09:41:39
00013 suncat2046 pw.x -in pw.inp   Done                     12/19/2018 09:41:39
00014 suncat2046 pw.x -in pw.inp   Done                     12/19/2018 09:41:39
00015 suncat2046 pw.x -in pw.inp   Done                     12/19/2018 09:41:39
00016 suncat2045 pw.x -in pw.inp   Done                     12/19/2018 09:41:39
00017 suncat2045 pw.x -in pw.inp   Done                     12/19/2018 09:41:39
00018 suncat2045 pw.x -in pw.inp   Done                     12/19/2018 09:41:39
00019 suncat2045 pw.x -in pw.inp   Done                     12/19/2018 09:41:39
00020 suncat2045 pw.x -in pw.inp   Done                     12/19/2018 09:41:39
00021 suncat2045 pw.x -in pw.inp   Done                     12/19/2018 09:41:39
00022 suncat2045 pw.x -in pw.inp   Done                     12/19/2018 09:41:39
00023 suncat2045 pw.x -in pw.inp   Done                     12/19/2018 09:41:39
00024 suncat2045 pw.x -in pw.inp   Done                     12/19/2018 09:41:39
00025 suncat2045 pw.x -in pw.inp   Done                     12/19/2018 09:41:39
00026 suncat2045 pw.x -in pw.inp   Done                     12/19/2018 09:41:39
00027 suncat2045 pw.x -in pw.inp   Done                     12/19/2018 09:41:39
00028 suncat2045 pw.x -in pw.inp   Done                     12/19/2018 09:41:39
00029 suncat2045 pw.x -in pw.inp   Done                     12/19/2018 09:41:39
00030 suncat2045 pw.x -in pw.inp   Done                     12/19/2018 09:41:39
00031 suncat2045 pw.x -in pw.inp   Done                     12/19/2018 09:41:39