     Program PWSCF v.5.1rc2 (svn rev. 11289) starts on  2Jan2019 at  2:49:38

     Current dimensions of program PWSCF are:
     Max number of different atomic species (ntypx) = 10
     Max number of k-points (npk) =  40000
     Max angular momentum in pseudopotentials (lmaxx) =  3
     Presently stress not available with electric field

     IMPORTANT: XC functional enforced from input :
     Exchange-correlation      = BEEF-VDW ( 1  4 27 13 2)
     Any further DFT definition will be discarded
     Please, verify this is what you really want

     Subspace diagonalization in iterative solution of the eigenvalue problem:
     a serial algorithm will be used

     bravais-lattice index     =            0
     lattice parameter (alat)  =       1.8897  a.u.
     unit-cell volume          =    6332.9479 (a.u.)^3
     number of atoms/cell      =           12
     number of atomic types    =            2
     number of electrons       =       162.00
     number of Kohn-Sham states=          111
     kinetic-energy cutoff     =      36.7493  Ry
     charge density cutoff     =     367.4932  Ry
     convergence threshold     =      1.0E-06
     mixing beta               =       0.1000
     number of iterations used =           10  plain     mixing
     Exchange-correlation      = BEEF-VDW ( 1  4 27 13 2)
     nstep                     =           50

     celldm(1)=   1.889726  celldm(2)=   0.000000  celldm(3)=   0.000000
     celldm(4)=   0.000000  celldm(5)=   0.000000  celldm(6)=   0.000000

     crystal axes: (cart. coord. in units of alat)
               a(1) = (   6.539445   0.000000   0.000000 )
               a(2) = (  -3.269722   5.663325   0.000000 )
               a(3) = (   0.000000   0.000000  25.339434 )

     reciprocal axes: (cart. coord. in units 2 pi/alat)
               b(1) = (  0.152918  0.088287  0.000000 )
               b(2) = (  0.000000  0.176575  0.000000 )
               b(3) = (  0.000000  0.000000  0.039464 )

     PseudoPot. # 1 for Tl read from file:
     /afs/slac.stanford.edu/u/if/mamunm/psp/gbrv1.5pbe/Tl.UPF
     MD5 check sum: b76cf1f7e72655a2b2c53cf6385d7059
     Pseudo is Ultrasoft + core correction, Zval = 13.0
     Generated by new atomic code, or converted to UPF format
     Using radial grid of  899 points,  6 beta functions with:
                l(1) =   0
                l(2) =   0
                l(3) =   1
                l(4) =   1
                l(5) =   2
                l(6) =   2
     Q(r) pseudized with  6 coefficients,  rinner =    1.100   1.100   1.100
                                                       1.100   1.100

     PseudoPot. # 2 for Rh read from file:
     /afs/slac.stanford.edu/u/if/mamunm/psp/gbrv1.5pbe/Rh.UPF
     MD5 check sum: 761627e959a2e3a1f56b0b5fe687810e
     Pseudo is Ultrasoft + core correction, Zval = 15.0
     Generated by new atomic code, or converted to UPF format
     Using radial grid of  969 points,  7 beta functions with:
                l(1) =   0
                l(2) =   0
                l(3) =   1
                l(4) =   1
                l(5) =   2
                l(6) =   2
                l(7) =   2
     Q(r) pseudized with  8 coefficients,  rinner =    1.200   1.200   1.200
                                                       1.200   1.200

     vdW kernel table read from file vdW_kernel_table
     MD5 check sum: 095c7af220d748ca6e76c0b4c6cfb241

     atomic species   valence    mass     pseudopotential
        Tl1           13.00   204.38000     Tl( 1.00)
        Rh1           15.00   102.90550     Rh( 1.00)

     No symmetry found

   Cartesian axes

     site n.     atom                  positions (alat units)
         1           Tl1 tau(   1) = (   0.0000000   0.0000000  10.0000000  )
         2           Tl1 tau(   2) = (  -1.6348612   2.8316627  10.0000000  )
         3           Tl1 tau(   3) = (   1.6348612   2.8316627  10.0000000  )
         4           Rh1 tau(   4) = (   3.2697224   0.0000000  10.0000000  )
         5           Tl1 tau(   5) = (   3.2697224   1.8877751  12.6697172  )
         6           Tl1 tau(   6) = (   1.6348612   4.7194378  12.6697172  )
         7           Tl1 tau(   7) = (  -1.6348612   4.7194378  12.6697172  )
         8           Rh1 tau(   8) = (   0.0000000   1.8877751  12.6697172  )
         9           Tl1 tau(   9) = (   0.0000000   3.7755503  15.3394344  )
        10           Tl1 tau(  10) = (   1.6348612   0.9438876  15.3394344  )
        11           Tl1 tau(  11) = (   4.9045837   0.9438876  15.3394344  )
        12           Rh1 tau(  12) = (   3.2697224   3.7755503  15.3394344  )

     number of k points=    20  Fermi-Dirac smearing, width (Ry)=  0.0110
                       cart. coord. in units 2pi/alat
        k(    1) = (   0.0000000   0.0000000   0.0000000), wk =   0.0555556
        k(    2) = (   0.0000000   0.0294291   0.0000000), wk =   0.1111111
        k(    3) = (   0.0000000   0.0588582   0.0000000), wk =   0.1111111
        k(    4) = (   0.0000000  -0.0882874   0.0000000), wk =   0.0555556
        k(    5) = (   0.0254864   0.0147146   0.0000000), wk =   0.1111111
        k(    6) = (   0.0254864   0.0441437   0.0000000), wk =   0.1111111
        k(    7) = (   0.0254864   0.0735728   0.0000000), wk =   0.1111111
        k(    8) = (   0.0254864  -0.0735728   0.0000000), wk =   0.1111111
        k(    9) = (   0.0254864  -0.0441437   0.0000000), wk =   0.1111111
        k(   10) = (   0.0254864  -0.0147146   0.0000000), wk =   0.1111111
        k(   11) = (   0.0509727   0.0294291   0.0000000), wk =   0.1111111
        k(   12) = (   0.0509727   0.0588582   0.0000000), wk =   0.1111111
        k(   13) = (   0.0509727   0.0882874   0.0000000), wk =   0.1111111
        k(   14) = (   0.0509727  -0.0588582   0.0000000), wk =   0.1111111
        k(   15) = (   0.0509727  -0.0294291   0.0000000), wk =   0.1111111
        k(   16) = (   0.0509727   0.0000000   0.0000000), wk =   0.1111111
        k(   17) = (  -0.0764591  -0.0441437   0.0000000), wk =   0.0555556
        k(   18) = (  -0.0764591  -0.0147146   0.0000000), wk =   0.1111111
        k(   19) = (  -0.0764591   0.0147146   0.0000000), wk =   0.1111111
        k(   20) = (  -0.0764591  -0.1324310   0.0000000), wk =   0.0555556

     Largest allocated arrays     est. size (Mb)     dimensions
     Largest temporary arrays     est. size (Mb)     dimensions

     Check: negative/imaginary core charge=   -0.000001    0.000000

     Initial potential from superposition of free atoms
     Check: negative starting charge=   -0.623077

     starting charge  160.45591, renormalised to  162.00000

     negative rho (up, down):  6.291E-01 0.000E+00

     *
     * You are using vdW-DF for exchange-correlation in this calculation.
     * Please cite the following three references that made this development
     * possible:
     *
     *   M. Dion, H. Rydberg, E. Schroder, D. C. Langreth, and
     *   B. I. Lundqvist, Phys. Rev. Lett. 92, 246401 (2004).
     *
     *   T. Thonhauser, V. R. Cooper, S. Li, A. Puzder, P. Hyldgaard, and
     *   D. C. Langreth, Phys. Rev. B 76, 125112 (2007).
     *
     *   G. Roman-Perez and J. M. Soler, Phys. Rev. Lett. 103, 096102 (2009).
     *
     *
     * If you are using vdW-DF2, please also cite:
     *
     *   K. Lee, E. D. Murray, L. Kong, B. I. Lundqvist, and
     *   D. C. Langreth, Phys. Rev. B 82, 081101(R) (2010).
     *
     *
     * If you are calculating the stress with vdW-DF, please also cite:
     *
     *   R. Sabatini, E. Kucukbenli, B. Kolb, T. Thonhauser, and
     *   S. de Gironcoli, J. Phys.: Condens. Matter 24, 424209 (2012).
     *

     Carrying out vdW-DF run using the following parameters:

     Nqs =      20    Nr_points =    1024   r_max =   100.000
     q_mesh =
               0.00001000     0.04494208     0.09755937     0.15916263
               0.23128650     0.31572767     0.41458969     0.53033537
               0.66584808     0.82450364     1.01025438     1.22772762
               1.48234092     1.78043706     2.12944203     2.53805004
               3.01644009     3.57652955     4.23227104     5.00000000

     Gradients computed in reciprocal space

     Adding external electric field

     Computed dipole along edir(3) :
        Dipole                0.0000 Ry au,          0.0000 Debye
        Dipole field          0.0000 Ry au

        Potential amp.       -0.0000 Ry
        Total length         46.6875 bohr

     Starting wfc are  117 randomized atomic wfcs

     Self-consistent Calculation

     iteration #  1     ecut=    36.75 Ry     beta=0.10
     Davidson diagonalization with overlap
     ethr =  1.00E-02,  avg # of iterations =  9.4

[...]

     total energy              =   -1837.46383432 Ry
     Harris-Foulkes estimate   =   -1838.12339843 Ry
     estimated scf accuracy    <       3.68686674 Ry

[...]

     End of self-consistent calculation

          k = 0.0000 0.0000 0.0000 ( 23727 PWs)   bands (ev):

   -44.3392 -44.3392 -44.2941 -44.2377 -44.2377 -44.2375 -44.2375 -44.1025
   -44.1023 -11.4207 -11.3402 -11.3283 -11.3127 -11.3126 -11.2990 -11.1791
   -11.1790 -11.1635 -11.1635 -11.0651 -11.0612 -11.0267 -11.0267 -11.0044
   -11.0043 -10.9285 -10.8914 -10.8727 -10.8727 -10.8154 -10.7471 -10.7091
   -10.7089 -10.6897 -10.6897 -10.6793 -10.6792 -10.6614 -10.6398 -10.6398
   -10.6321 -10.6319 -10.6060 -10.6058 -10.5812 -10.5812 -10.4522 -10.4522
   -10.4196 -10.3993 -10.3992 -10.3468 -10.3302 -10.3183  -8.5319  -7.2494
    -5.4462  -4.3778  -4.3776  -3.8312  -3.8312  -2.9453  -2.9452  -1.8647
    -1.3472  -0.9099  -0.6812  -0.6812  -0.3456  -0.1984  -0.1984   0.1483
     0.1483   0.2231   0.2488   0.2488   0.3282   0.3776   0.3776   0.4064
     0.4064   0.5419   0.5419   0.6270   0.8957   0.8957   1.5211   1.5211
     1.5466   2.8483   3.1337   3.6134   4.3029   4.4832   4.8110   4.8110
     4.9195   4.9196   5.2739   5.4443   5.8535   6.3431   6.5708   7.0800
     7.0801   7.1540   7.3823   7.6984   7.6985   7.8337   8.1159

[...]

          k =-0.0765-0.0441 0.0000 ( 23804 PWs)   bands (ev):

[...]

     the Fermi energy is     0.8138 ev

!    total energy              =   -1837.55395466 Ry
     Harris-Foulkes estimate   =   -1837.55396431 Ry
     estimated scf accuracy    <       0.00000076 Ry

     The total energy is the sum of the following terms:

     one-electron contribution =   -9972.54871645 Ry
     hartree contribution      =    5058.83601455 Ry
     xc contribution           =    -669.31523162 Ry
     ewald contribution        =    3745.53829022 Ry
     electric field correction =       0.00000001 Ry
     smearing contrib. (-TS)   =      -0.06431137 Ry

     convergence has been achieved in  18 iterations

 BEEF-vdW xc energy contributions
           1 :   -594.346899832260
           2 :    550.698375966179
           3 :   -474.304906075834
           4 :    382.533233605029
           5 :   -292.900336228417
           6 :    217.656945271350
           7 :   -161.289358304506
           8 :    121.387212970092
           9 :   -91.9374355585610
          10 :    67.1798780829868
          11 :   -44.2248615767984
          12 :    23.4757704708700
          13 :   -7.15917061793118
[...]
     Using radial grid of  899 points,  6 beta functions with:
                l(1) =   0
                l(2) =   0
                l(3) =   1
                l(4) =   1
                l(5) =   2
                l(6) =   2
     Q(r) pseudized with  6 coefficients,  rinner =    1.100   1.100   1.100
                                                       1.100   1.100

     PseudoPot. # 2 for Rh read from file:
     /afs/slac.stanford.edu/u/if/mamunm/psp/gbrv1.5pbe/Rh.UPF
     MD5 check sum: 761627e959a2e3a1f56b0b5fe687810e
     Pseudo is Ultrasoft + core correction, Zval = 15.0
     Generated by new atomic code, or converted to UPF format
     Using radial grid of  969 points,  7 beta functions with:
                l(1) =   0
                l(2) =   0
                l(3) =   1
                l(4) =   1
                l(5) =   2
                l(6) =   2
                l(7) =   2
     Q(r) pseudized with  8 coefficients,  rinner =    1.200   1.200   1.200
                                                       1.200   1.200

     vdW kernel table read from file vdW_kernel_table
     MD5 check sum: 095c7af220d748ca6e76c0b4c6cfb241

     atomic species   valence    mass     pseudopotential
        Tl1           13.00   204.38000     Tl( 1.00)
        Rh1           15.00   102.90550     Rh( 1.00)

     No symmetry found

   Cartesian axes

     site n.     atom                  positions (alat units)
         1           Tl1 tau(   1) = (   0.0000000   0.0000000  10.0000000  )
         2           Tl1 tau(   2) = (  -1.6348612   2.8316627  10.0000000  )
         3           Tl1 tau(   3) = (   1.6348612   2.8316627  10.0000000  )
         4           Rh1 tau(   4) = (   3.2697224   0.0000000  10.0000000  )
         5           Tl1 tau(   5) = (   3.2697224   1.8877751  12.6697172  )
         6           Tl1 tau(   6) = (   1.6348612   4.7194378  12.6697172  )
         7           Tl1 tau(   7) = (  -1.6348612   4.7194378  12.6697172  )
         8           Rh1 tau(   8) = (   0.0000000   1.8877751  12.6697172  )
         9           Tl1 tau(   9) = (   0.0000279   3.7459681  15.5774038  )
        10           Tl1 tau(  10) = (   1.6094169   0.9586036  15.5765090  )
        11           Tl1 tau(  11) = (   4.9300690   0.9586400  15.5764813  )
        12           Rh1 tau(  12) = (   3.2697171   3.7756301  14.7457766  )

     number of k points=    20  Fermi-Dirac smearing, width (Ry)=  0.0110
                       cart. coord. in units 2pi/alat
        k(    1) = (   0.0000000   0.0000000   0.0000000), wk =   0.0555556
        k(    2) = (   0.0000000   0.0294291   0.0000000), wk =   0.1111111
        k(    3) = (   0.0000000   0.0588582   0.0000000), wk =   0.1111111
        k(    4) = (   0.0000000  -0.0882874   0.0000000), wk =   0.0555556
        k(    5) = (   0.0254864   0.0147146   0.0000000), wk =   0.1111111
        k(    6) = (   0.0254864   0.0441437   0.0000000), wk =   0.1111111
        k(    7) = (   0.0254864   0.0735728   0.0000000), wk =   0.1111111
        k(    8) = (   0.0254864  -0.0735728   0.0000000), wk =   0.1111111
        k(    9) = (   0.0254864  -0.0441437   0.0000000), wk =   0.1111111
        k(   10) = (   0.0254864  -0.0147146   0.0000000), wk =   0.1111111
        k(   11) = (   0.0509727   0.0294291   0.0000000), wk =   0.1111111
        k(   12) = (   0.0509727   0.0588582   0.0000000), wk =   0.1111111
        k(   13) = (   0.0509727   0.0882874   0.0000000), wk =   0.1111111
        k(   14) = (   0.0509727  -0.0588582   0.0000000), wk =   0.1111111
        k(   15) = (   0.0509727  -0.0294291   0.0000000), wk =   0.1111111
        k(   16) = (   0.0509727   0.0000000   0.0000000), wk =   0.1111111
        k(   17) = (  -0.0764591  -0.0441437   0.0000000), wk =   0.0555556
        k(   18) = (  -0.0764591  -0.0147146   0.0000000), wk =   0.1111111
        k(   19) = (  -0.0764591   0.0147146   0.0000000), wk =   0.1111111
        k(   20) = (  -0.0764591  -0.1324310   0.0000000), wk =   0.0555556

     Largest allocated arrays     est. size (Mb)     dimensions
     Largest temporary arrays     est. size (Mb)     dimensions

     Check: negative/imaginary core charge=   -0.000001    0.000000

     Initial potential from superposition of free atoms
     Check: negative starting charge=   -0.624052

     starting charge  160.45591, renormalised to  162.00000

[...]

     *
     * You are using vdW-DF for exchange-correlation in this calculation.
     * Please cite the following three references that made this development
     * possible:
     *
     *   M. Dion, H. Rydberg, E. Schroder, D. C. Langreth, and
     *   B. I. Lundqvist, Phys. Rev. Lett. 92, 246401 (2004).
     *
     *   T. Thonhauser, V. R. Cooper, S. Li, A. Puzder, P. Hyldgaard, and
     *   D. C. Langreth, Phys. Rev. B 76, 125112 (2007).
     *
     *   G. Roman-Perez and J. M. Soler, Phys. Rev. Lett. 103, 096102 (2009).
     *
     *
     * If you are using vdW-DF2, please also cite:
     *
     *   K. Lee, E. D. Murray, L. Kong, B. I. Lundqvist, and
     *   D. C. Langreth, Phys. Rev. B 82, 081101(R) (2010).
     *
     *
     * If you are calculating the stress with vdW-DF, please also cite:
     *
     *   R. Sabatini, E. Kucukbenli, B. Kolb, T. Thonhauser, and
     *   S. de Gironcoli, J. Phys.: Condens. Matter 24, 424209 (2012).
     *

     Carrying out vdW-DF run using the following parameters:

     Nqs =      20    Nr_points =    1024   r_max =   100.000
     q_mesh =
               0.00001000     0.04494208     0.09755937     0.15916263
               0.23128650     0.31572767     0.41458969     0.53033537
               0.66584808     0.82450364     1.01025438     1.22772762
               1.48234092     1.78043706     2.12944203     2.53805004
               3.01644009     3.57652955     4.23227104     5.00000000

     Gradients computed in reciprocal space

[...]

     Starting wfc are  117 randomized atomic wfcs

     Self-consistent Calculation

[...]

     iteration # 14     ecut=    36.75 Ry     beta=0.10
     Davidson diagonalization with overlap
     c_bands:  1 eigenvalues not converged
     ethr =  2.51E-06,  avg # of iterations =  5.8

[...]

     total energy              =   -1837.59198880 Ry
     Harris-Foulkes estimate   =   -1837.59198680 Ry
     estimated scf accuracy    <       0.00000513 Ry

     iteration # 19     ecut=    36.75 Ry     beta=0.10
     Davidson diagonalization with overlap
     ethr =  3.16E-09,  avg # of iterations =  2.7

[...]

     negative rho (up, down):  6.451E-01 0.000E+00

     Adding external electric field

     Computed dipole along edir(3) :
        Dipole                0.1272 Ry au,          0.3233 Debye
        Dipole field          0.0003 Ry au

        Potential amp.       -0.0236 Ry
        Total length         46.6875 bohr

     End of self-consistent calculation

[...]

          k = 0.0510 0.0000 0.0000 ( 23822 PWs)   bands (ev):

[...]

          k =-0.0765-0.1324 0.0000 ( 23804 PWs)   bands (ev):

   -44.3086 -44.3085 -44.3005 -44.1903 -44.1902 -44.1631 -44.1630 -44.1161
   -44.0639 -11.1791 -11.1238 -11.0863 -11.0636 -11.0115 -10.9923 -10.9382
   -10.9166 -10.9162 -10.8866 -10.8808 -10.8468 -10.8204 -10.8019 -10.7876
   -10.7671 -10.7656 -10.7617 -10.7453 -10.7426 -10.7218 -10.7075 -10.6924
   -10.6893 -10.6673 -10.6586 -10.6532 -10.6505 -10.6364 -10.6159 -10.6122
   -10.6063 -10.5834 -10.5640 -10.5622 -10.5540 -10.5510 -10.5271 -10.5228
   -10.5135 -10.4927 -10.4606 -10.3775 -10.3439 -10.2779  -7.3213  -6.9152
    -5.9861  -5.6856  -4.9299  -4.7250  -4.4377  -3.7197  -2.7300  -1.7762
    -1.2603  -0.7891  -0.5760  -0.4472  -0.4183  -0.3526  -0.2888  -0.1559
    -0.0423   0.0605   0.2530   0.2762   0.4427   0.5073   0.5431   0.6550
     1.1241   1.3946   1.6291   2.3692   2.5471   2.6757   2.6983   3.2627
     3.3182   3.4148   3.7341   3.8796   4.1953   4.5677   4.9043   4.9214
     5.0448   5.1142   5.2867   5.3124   5.5444   5.6120   5.9571   6.1841
     6.2270   6.3212   6.3643   6.5880   6.7146   6.8387   7.1140

     the Fermi energy is     0.9393 ev

!    total energy              =   -1837.59198098 Ry
     Harris-Foulkes estimate   =   -1837.59198906 Ry
     estimated scf accuracy    <       0.00000087 Ry

     The total energy is the sum of the following terms:

     one-electron contribution =   -9940.44363046 Ry
     hartree contribution      =    5043.20252890 Ry
     xc contribution           =    -669.31408385 Ry
     ewald contribution        =    3729.02137274 Ry
     electric field correction =       0.00003210 Ry
     smearing contrib. (-TS)   =      -0.05820041 Ry

     convergence has been achieved in  19 iterations

 BEEF-vdW xc energy contributions
           1 :   -594.503002568917
           2 :    550.845301771380
           3 :   -474.445767633042
           4 :    382.679840497742
           5 :   -293.057119642212
           6 :    217.806708899265
           7 :   -161.396965004046
           8 :    121.423781759975
           9 :   -91.9113709139373
          10 :    67.1493121711617
          11 :   -44.2750774739625
          12 :    23.6689010583679
          13 :   -7.48734048768904
          14 :   -2.47771107582048
          15 :    6.28674980245398
          16 :   -5.98204982801951
          17 :    4.51131333706678
          18 :   -4.24566520276221
          19 :    5.97123301725458
          20 :   -8.85824160637264
          21 :    11.3004154675626
          22 :   -12.0548070508236
          23 :    10.9919788423725
          24 :   -9.07006906255174
          25 :    7.63432684270322
          26 :   -7.54080049309471
          27 :    8.65215190030688
          28 :   -9.98636685550639
          29 :    10.3792829133077
          30 :   -9.22875764853200
          31 :   -49.1444002813239
          32 :   -36.0057909415383

     Forces acting on atoms (Ry/au):

     negative rho (up, down):  6.451E-01 0.000E+00
     atom    1 type  1   force =    -0.00000180    0.01527855   -0.01436456
     atom    2 type  1   force =     0.01323107   -0.00766425   -0.01438770
     atom    3 type  1   force =    -0.01322662   -0.00766553   -0.01439010
     atom    4 type  2   force =    -0.00000061   -0.00000749    0.04079658
     atom    5 type  1   force =    -0.00000095   -0.01768904    0.00120441
     atom    6 type  1   force =    -0.01533501    0.00883341    0.00119693
     atom    7 type  1   force =     0.01533299    0.00883665    0.00119612
     atom    8 type  2   force =     0.00000007   -0.00000614    0.00169381
     atom    9 type  1   force =     0.00000179    0.00004303   -0.00062489
     atom   10 type  1   force =     0.00001620    0.00002568   -0.00068717
     atom   11 type  1   force =    -0.00001685    0.00002327   -0.00068187
     atom   12 type  2   force =    -0.00000028   -0.00000813   -0.00095156

     Total force =     0.062725     Total SCF correction =     0.002396

     entering subroutine stress ...

     negative rho (up, down):  6.451E-01 0.000E+00
          total   stress  (Ry/bohr**3)                   (kbar)     P=  -13.03
  -0.00009800   0.00000000   0.00000000        -14.42      0.00      0.00
   0.00000000  -0.00009800   0.00000001          0.00    -14.42      0.00
   0.00000000   0.00000001  -0.00006979          0.00      0.00    -10.27

 !ASE

     Writing output data file calc.save

     General routines

     Parallel routines

   This run was terminated on:   5:31:46   2Jan2019

   JOB DONE.
Job  /afs/slac/g/suncat/bin/suncat-tsmpirun -x LD_LIBRARY_PATH -wdir /scratch/qe649275_Gu1EN pw.x -in pw.inp

TID   HOST_NAME   COMMAND_LINE            STATUS            TERMINATION_TIME
00000 suncat0078 pw.x -in pw.inp   Done                     01/02/2019 05:31:46
00001 suncat0078 pw.x -in pw.inp   Done                     01/02/2019 05:31:46
00002 suncat0078 pw.x -in pw.inp   Done                     01/02/2019 05:31:46
00003 suncat0078 pw.x -in pw.inp   Done                     01/02/2019 05:31:46
00004 suncat0078 pw.x -in pw.inp   Done                     01/02/2019 05:31:46
00005 suncat0078 pw.x -in pw.inp   Done                     01/02/2019 05:31:46
00006 suncat0078 pw.x -in pw.inp   Done                     01/02/2019 05:31:46
00007 suncat0078 pw.x -in pw.inp   Done                     01/02/2019 05:31:46
00008 suncat0077 pw.x -in pw.inp   Done                     01/02/2019 05:31:46
00009 suncat0077 pw.x -in pw.inp   Done                     01/02/2019 05:31:46
00010 suncat0077 pw.x -in pw.inp   Done                     01/02/2019 05:31:46
00011 suncat0077 pw.x -in pw.inp   Done                     01/02/2019 05:31:46
00012 suncat0077 pw.x -in pw.inp   Done                     01/02/2019 05:31:46
00013 suncat0077 pw.x -in pw.inp   Done                     01/02/2019 05:31:46
00014 suncat0077 pw.x -in pw.inp   Done                     01/02/2019 05:31:46
00015 suncat0077 pw.x -in pw.inp   Done                     01/02/2019 05:31:46
00016 suncat0076 pw.x -in pw.inp   Done                     01/02/2019 05:31:46
00017 suncat0076 pw.x -in pw.inp   Done                     01/02/2019 05:31:46
00018 suncat0076 pw.x -in pw.inp   Done                     01/02/2019 05:31:46
00019 suncat0076 pw.x -in pw.inp   Done                     01/02/2019 05:31:46
00020 suncat0076 pw.x -in pw.inp   Done                     01/02/2019 05:31:46
00021 suncat0076 pw.x -in pw.inp   Done                     01/02/2019 05:31:46
00022 suncat0076 pw.x -in pw.inp   Done                     01/02/2019 05:31:46
00023 suncat0076 pw.x -in pw.inp   Done                     01/02/2019 05:31:46
00024 suncat0074 pw.x -in pw.inp   Done                     01/02/2019 05:31:46
00025 suncat0074 pw.x -in pw.inp   Done                     01/02/2019 05:31:46
00026 suncat0074 pw.x -in pw.inp   Done                     01/02/2019 05:31:46
00027 suncat0074 pw.x -in pw.inp   Done                     01/02/2019 05:31:46
00028 suncat0074 pw.x -in pw.inp   Done                     01/02/2019 05:31:46
00029 suncat0074 pw.x -in pw.inp   Done                     01/02/2019 05:31:46
00030 suncat0074 pw.x -in pw.inp   Done                     01/02/2019 05:31:46
00031 suncat0074 pw.x -in pw.inp   Done                     01/02/2019 05:31:46
00032 suncat0073 pw.x -in pw.inp   Done                     01/02/2019 05:31:46
00033 suncat0073 pw.x -in pw.inp   Done                     01/02/2019 05:31:46
00034 suncat0073 pw.x -in pw.inp   Done                     01/02/2019 05:31:46
00035 suncat0073 pw.x -in pw.inp   Done                     01/02/2019 05:31:46
00036 suncat0073 pw.x -in pw.inp   Done                     01/02/2019 05:31:46
00037 suncat0073 pw.x -in pw.inp   Done                     01/02/2019 05:31:46
00038 suncat0073 pw.x -in pw.inp   Done                     01/02/2019 05:31:46
00039 suncat0073 pw.x -in pw.inp   Done                     01/02/2019 05:31:46
00040 suncat0069 pw.x -in pw.inp   Done                     01/02/2019 05:31:46
00041 suncat0069 pw.x -in pw.inp   Done                     01/02/2019 05:31:46
00042 suncat0069 pw.x -in pw.inp   Done                     01/02/2019 05:31:46
00043 suncat0069 pw.x -in pw.inp   Done                     01/02/2019 05:31:46
00044 suncat0069 pw.x -in pw.inp   Done                     01/02/2019 05:31:46
00045 suncat0069 pw.x -in pw.inp   Done                     01/02/2019 05:31:46
00046 suncat0069 pw.x -in pw.inp   Done                     01/02/2019 05:31:46
00047 suncat0069 pw.x -in pw.inp   Done                     01/02/2019 05:31:46
00048 suncat0217 pw.x -in pw.inp   Done                     01/02/2019 05:31:46
00049 suncat0217 pw.x -in pw.inp   Done                     01/02/2019 05:31:46
00050 suncat0217 pw.x -in pw.inp   Done                     01/02/2019 05:31:46
00051 suncat0217 pw.x -in pw.inp   Done                     01/02/2019 05:31:46
00052 suncat0217 pw.x -in pw.inp   Done                     01/02/2019 05:31:46
00053 suncat0217 pw.x -in pw.inp   Done                     01/02/2019 05:31:46
00054 suncat0217 pw.x -in pw.inp   Done                     01/02/2019 05:31:46
00055 suncat0217 pw.x -in pw.inp   Done                     01/02/2019 05:31:46
00056 suncat0216 pw.x -in pw.inp   Done                     01/02/2019 05:31:46
00057 suncat0216 pw.x -in pw.inp   Done                     01/02/2019 05:31:46
00058 suncat0216 pw.x -in pw.inp   Done                     01/02/2019 05:31:46
00059 suncat0216 pw.x -in pw.inp   Done                     01/02/2019 05:31:46
00060 suncat0216 pw.x -in pw.inp   Done                     01/02/2019 05:31:46
00061 suncat0216 pw.x -in pw.inp   Done                     01/02/2019 05:31:46
00062 suncat0216 pw.x -in pw.inp   Done                     01/02/2019 05:31:46
00063 suncat0216 pw.x -in pw.inp   Done                     01/02/2019 05:31:46