     Program PWSCF v.5.1rc2 (svn rev. 11289) starts on 31Dec2018 at 14: 0:17

     Current dimensions of program PWSCF are:
     Max number of different atomic species (ntypx) = 10
     Max number of k-points (npk) =  40000
     Max angular momentum in pseudopotentials (lmaxx) =  3
     Presently stress not available with electric field

     IMPORTANT: XC functional enforced from input :
     Exchange-correlation      = BEEF-VDW ( 1  4 27 13 2)
     Any further DFT definition will be discarded
     Please, verify this is what you really want

     Subspace diagonalization in iterative solution of the eigenvalue problem:
     a serial algorithm will be used

     bravais-lattice index     =            0
     lattice parameter (alat)  =       1.8897  a.u.
     unit-cell volume          =    4652.7145 (a.u.)^3
     number of atoms/cell      =           12
     number of atomic types    =            2
     number of electrons       =       201.00
     number of Kohn-Sham states=          130
     kinetic-energy cutoff     =      36.7493  Ry
     charge density cutoff     =     367.4932  Ry
     convergence threshold     =      1.0E-06
     mixing beta               =       0.1000
     number of iterations used =           10  plain     mixing
     Exchange-correlation      = BEEF-VDW ( 1  4 27 13 2)
     nstep                     =           50

     celldm(1)=   1.889726  celldm(2)=   0.000000  celldm(3)=   0.000000
     celldm(4)=   0.000000  celldm(5)=   0.000000  celldm(6)=   0.000000

     crystal axes: (cart. coord. in units of alat)
               a(1) = (   5.684080   0.000000   0.000000 )
               a(2) = (  -2.842040   4.922557   0.000000 )
               a(3) = (   0.000000   0.000000  24.641031 )

     reciprocal axes: (cart. coord. in units 2 pi/alat)
               b(1) = (  0.175930  0.101573  0.000000 )
               b(2) = (  0.000000  0.203146  0.000000 )
               b(3) = (  0.000000  0.000000  0.040583 )

     PseudoPot. # 1 for Pt read from file:
     /afs/slac.stanford.edu/u/if/mamunm/psp/gbrv1.5pbe/Pt.UPF
     MD5 check sum: f09d6de1a584b5a045c4fc126da2d0c4
     Pseudo is Ultrasoft + core correction, Zval = 16.0
     Generated by new atomic code, or converted to UPF format
     Using radial grid of  985 points,  6 beta functions with:
                l(1) =   0
                l(2) =   0
                l(3) =   1
                l(4) =   1
                l(5) =   2
                l(6) =   2
     Q(r) pseudized with  8 coefficients,  rinner =    1.300   1.300   1.300
                                                       1.300   1.300

     PseudoPot. # 2 for Ag read from file:
     /afs/slac.stanford.edu/u/if/mamunm/psp/gbrv1.5pbe/Ag.UPF
     MD5 check sum: d66d668201baa78d5eb5b04ef7011058
     Pseudo is Ultrasoft + core correction, Zval = 19.0
     Generated by new atomic code, or converted to UPF format
     Using radial grid of  887 points,  6 beta functions with:
                l(1) =   0
                l(2) =   0
                l(3) =   1
                l(4) =   1
                l(5) =   2
                l(6) =   2
     Q(r) pseudized with  6 coefficients,  rinner =    1.300   1.300   1.300
                                                       1.300   1.300

     vdW kernel table read from file vdW_kernel_table
     MD5 check sum: 095c7af220d748ca6e76c0b4c6cfb241

     atomic species   valence    mass     pseudopotential
        Pt1           16.00   195.08400     Pt( 1.00)
        Ag1           19.00   107.86820     Ag( 1.00)

     No symmetry found

   Cartesian axes

     site n.     atom                  positions (alat units)
         1           Pt1 tau(   1) = (   0.0000000   0.0000000  10.0000000  )
         2           Pt1 tau(   2) = (  -1.4210199   2.4612786  10.0000000  )
         3           Pt1 tau(   3) = (   1.4210199   2.4612786  10.0000000  )
         4           Ag1 tau(   4) = (   2.8420398   0.0000000  10.0000000  )
         5           Pt1 tau(   5) = (   2.8420398   1.6408524  12.3205157  )
         6           Pt1 tau(   6) = (   1.4210199   4.1021311  12.3205157  )
         7           Pt1 tau(   7) = (  -1.4210199   4.1021311  12.3205157  )
         8           Ag1 tau(   8) = (   0.0000000   1.6408524  12.3205157  )
         9           Pt1 tau(   9) = (  -0.0000000   3.2817048  14.6410315  )
        10           Pt1 tau(  10) = (   1.4210199   0.8204262  14.6410315  )
        11           Pt1 tau(  11) = (   4.2630596   0.8204262  14.6410315  )
        12           Ag1 tau(  12) = (   2.8420398   3.2817048  14.6410315  )

     number of k points=    20  Fermi-Dirac smearing, width (Ry)=  0.0110
                       cart. coord. in units 2pi/alat
        k(    1) = (   0.0000000   0.0000000   0.0000000), wk =   0.0555556
        k(    2) = (   0.0000000   0.0338577   0.0000000), wk =   0.1111111
        k(    3) = (   0.0000000   0.0677155   0.0000000), wk =   0.1111111
        k(    4) = (   0.0000000  -0.1015732   0.0000000), wk =   0.0555556
        k(    5) = (   0.0293217   0.0169289   0.0000000), wk =   0.1111111
        k(    6) = (   0.0293217   0.0507866   0.0000000), wk =   0.1111111
        k(    7) = (   0.0293217   0.0846444   0.0000000), wk =   0.1111111
        k(    8) = (   0.0293217  -0.0846444   0.0000000), wk =   0.1111111
        k(    9) = (   0.0293217  -0.0507866   0.0000000), wk =   0.1111111
        k(   10) = (   0.0293217  -0.0169289   0.0000000), wk =   0.1111111
        k(   11) = (   0.0586433   0.0338577   0.0000000), wk =   0.1111111
        k(   12) = (   0.0586433   0.0677155   0.0000000), wk =   0.1111111
        k(   13) = (   0.0586433   0.1015732   0.0000000), wk =   0.1111111
        k(   14) = (   0.0586433  -0.0677155   0.0000000), wk =   0.1111111
        k(   15) = (   0.0586433  -0.0338577   0.0000000), wk =   0.1111111
        k(   16) = (   0.0586433   0.0000000   0.0000000), wk =   0.1111111
        k(   17) = (  -0.0879650  -0.0507866   0.0000000), wk =   0.0555556
        k(   18) = (  -0.0879650  -0.0169289   0.0000000), wk =   0.1111111
        k(   19) = (  -0.0879650   0.0169289   0.0000000), wk =   0.1111111
        k(   20) = (  -0.0879650  -0.1523598   0.0000000), wk =   0.0555556

     Largest allocated arrays     est. size (Mb)     dimensions
     Largest temporary arrays     est. size (Mb)     dimensions

     Check: negative/imaginary core charge=   -0.000001    0.000000

     Initial potential from superposition of free atoms
     Check: negative starting charge=   -1.637278

     starting charge  194.99976, renormalised to  201.00000

     negative rho (up, down):  1.688E+00 0.000E+00

     *
     * You are using vdW-DF for exchange-correlation in this calculation.
     * Please cite the following three references that made this development
     * possible:
     *
     *   M. Dion, H. Rydberg, E. Schroder, D. C. Langreth, and
     *   B. I. Lundqvist, Phys. Rev. Lett. 92, 246401 (2004).
     *
     *   T. Thonhauser, V. R. Cooper, S. Li, A. Puzder, P. Hyldgaard, and
     *   D. C. Langreth, Phys. Rev. B 76, 125112 (2007).
     *
     *   G. Roman-Perez and J. M. Soler, Phys. Rev. Lett. 103, 096102 (2009).
     *
     *
     * If you are using vdW-DF2, please also cite:
     *
     *   K. Lee, E. D. Murray, L. Kong, B. I. Lundqvist, and
     *   D. C. Langreth, Phys. Rev. B 82, 081101(R) (2010).
     *
     *
     * If you are calculating the stress with vdW-DF, please also cite:
     *
     *   R. Sabatini, E. Kucukbenli, B. Kolb, T. Thonhauser, and
     *   S. de Gironcoli, J. Phys.: Condens. Matter 24, 424209 (2012).
     *

     Carrying out vdW-DF run using the following parameters:

     Nqs =      20    Nr_points =    1024   r_max =   100.000
     q_mesh =
               0.00001000     0.04494208     0.09755937     0.15916263
               0.23128650     0.31572767     0.41458969     0.53033537
               0.66584808     0.82450364     1.01025438     1.22772762
               1.48234092     1.78043706     2.12944203     2.53805004
               3.01644009     3.57652955     4.23227104     5.00000000

     Gradients computed in reciprocal space

     Adding external electric field

     Computed dipole along edir(3) :
        Dipole                0.0000 Ry au,          0.0000 Debye
        Dipole field          0.0000 Ry au

        Potential amp.       -0.0000 Ry
        Total length         45.4007 bohr

     Starting wfc are  147 randomized atomic wfcs

     Self-consistent Calculation

     iteration #  1     ecut=    36.75 Ry     beta=0.10
     Davidson diagonalization with overlap
     ethr =  1.00E-02,  avg # of iterations =  7.2

[...]

     total energy              =   -2801.37115412 Ry
     Harris-Foulkes estimate   =   -2804.34206681 Ry
     estimated scf accuracy    <      18.15415374 Ry

[...]

     End of self-consistent calculation

          k = 0.0000 0.0000 0.0000 ( 17579 PWs)   bands (ev):

   -90.1177 -90.0123 -90.0123 -53.6298 -53.6298 -53.6076 -53.5390 -53.5390
   -53.5386 -53.5386 -53.4527 -53.4509 -51.1720 -51.0405 -51.0405 -50.9883
   -50.9701 -50.9701 -50.8833 -50.8751 -50.8751 -50.8682 -50.8554 -50.7373
   -50.7373 -50.7258 -50.7257 -50.6132 -50.6132 -50.6108 -50.6108 -50.6036
   -50.6006 -50.5104 -50.4951 -50.4807 -50.4807 -50.4728 -50.4728  -6.3893
    -4.8569  -4.5902  -4.3459  -4.3458  -4.1805  -4.1805  -4.0369  -3.7940
    -3.7940  -3.7653  -3.7367  -3.7367  -3.6626  -3.3622  -2.7815  -2.7815
    -2.5667  -2.5667  -2.2783  -2.1717  -2.0824  -2.0087  -1.9205  -1.9204
    -1.7637  -1.7636  -1.5577  -1.5577  -1.5293  -1.5293  -1.0872  -1.0080
    -0.7259  -0.7259  -0.7051  -0.7051  -0.5196  -0.5196  -0.2483   0.1194
     0.1194   0.2055   0.2773   0.6677   0.6677   0.7052   0.7052   0.8146
     0.8146   0.9027   0.9911   0.9911   1.0717   1.0717   1.1682   1.1682
     1.4013   1.5278   1.5278   1.7642   2.0395   2.0893   2.4773   2.7884
     2.9187   2.9187   4.1150   4.2465   4.2824   4.2824   4.4252   4.4252
     6.0508   6.3819   6.6350   6.7661   6.7661   7.1325   7.1325   7.5919
     7.6033   7.8156   8.1063   8.1063   8.3618   8.8867   9.9420  10.4438
    10.8770  10.8776

[...]

          k =-0.0880-0.0508 0.0000 ( 17464 PWs)   bands (ev):

[...]

     the Fermi energy is     1.4118 ev

!    total energy              =   -2801.00995070 Ry
     Harris-Foulkes estimate   =   -2801.00993123 Ry
     estimated scf accuracy    <       0.00000062 Ry

     The total energy is the sum of the following terms:

     one-electron contribution =  -21537.47290483 Ry
     hartree contribution      =   10795.36142413 Ry
     xc contribution           =    -617.77766062 Ry
     ewald contribution        =    8558.95567631 Ry
     electric field correction =       0.00000000 Ry
     smearing contrib. (-TS)   =      -0.07648568 Ry

     convergence has been achieved in  16 iterations

 BEEF-vdW xc energy contributions
           1 :   -547.606443455973
           2 :    507.682793107229
           3 :   -436.953970810040
           4 :    350.219739314410
           5 :   -263.069068269979
           6 :    187.508519460250
           7 :   -129.538757224412
           8 :    89.1258925297848
[...]
                l(1) =   0
                l(2) =   0
                l(3) =   1
                l(4) =   1
                l(5) =   2
                l(6) =   2
     Q(r) pseudized with  8 coefficients,  rinner =    1.300   1.300   1.300
                                                       1.300   1.300

     PseudoPot. # 2 for Ag read from file:
     /afs/slac.stanford.edu/u/if/mamunm/psp/gbrv1.5pbe/Ag.UPF
     MD5 check sum: d66d668201baa78d5eb5b04ef7011058
     Pseudo is Ultrasoft + core correction, Zval = 19.0
     Generated by new atomic code, or converted to UPF format
     Using radial grid of  887 points,  6 beta functions with:
                l(1) =   0
                l(2) =   0
                l(3) =   1
                l(4) =   1
                l(5) =   2
                l(6) =   2
     Q(r) pseudized with  6 coefficients,  rinner =    1.300   1.300   1.300
                                                       1.300   1.300

     vdW kernel table read from file vdW_kernel_table
     MD5 check sum: 095c7af220d748ca6e76c0b4c6cfb241

     atomic species   valence    mass     pseudopotential
        Pt1           16.00   195.08400     Pt( 1.00)
        Ag1           19.00   107.86820     Ag( 1.00)

     No symmetry found

   Cartesian axes

     site n.     atom                  positions (alat units)
         1           Pt1 tau(   1) = (   0.0000000   0.0000000  10.0000000  )
         2           Pt1 tau(   2) = (  -1.4210199   2.4612786  10.0000000  )
         3           Pt1 tau(   3) = (   1.4210199   2.4612786  10.0000000  )
         4           Ag1 tau(   4) = (   2.8420398   0.0000000  10.0000000  )
         5           Pt1 tau(   5) = (   2.8420398   1.6408524  12.3205157  )
         6           Pt1 tau(   6) = (   1.4210199   4.1021311  12.3205157  )
         7           Pt1 tau(   7) = (  -1.4210199   4.1021311  12.3205157  )
         8           Ag1 tau(   8) = (   0.0000000   1.6408524  12.3205157  )
         9           Pt1 tau(   9) = (   0.0000001   3.2866732  14.5998035  )
        10           Pt1 tau(  10) = (   1.4253204   0.8179546  14.5998039  )
        11           Pt1 tau(  11) = (   4.2587590   0.8179544  14.5998044  )
        12           Ag1 tau(  12) = (   2.8420397   3.2817151  14.9111880  )

     number of k points=    20  Fermi-Dirac smearing, width (Ry)=  0.0110
                       cart. coord. in units 2pi/alat
        k(    1) = (   0.0000000   0.0000000   0.0000000), wk =   0.0555556
        k(    2) = (   0.0000000   0.0338577   0.0000000), wk =   0.1111111
        k(    3) = (   0.0000000   0.0677155   0.0000000), wk =   0.1111111
        k(    4) = (   0.0000000  -0.1015732   0.0000000), wk =   0.0555556
        k(    5) = (   0.0293217   0.0169289   0.0000000), wk =   0.1111111
        k(    6) = (   0.0293217   0.0507866   0.0000000), wk =   0.1111111
        k(    7) = (   0.0293217   0.0846444   0.0000000), wk =   0.1111111
        k(    8) = (   0.0293217  -0.0846444   0.0000000), wk =   0.1111111
        k(    9) = (   0.0293217  -0.0507866   0.0000000), wk =   0.1111111
        k(   10) = (   0.0293217  -0.0169289   0.0000000), wk =   0.1111111
        k(   11) = (   0.0586433   0.0338577   0.0000000), wk =   0.1111111
        k(   12) = (   0.0586433   0.0677155   0.0000000), wk =   0.1111111
        k(   13) = (   0.0586433   0.1015732   0.0000000), wk =   0.1111111
        k(   14) = (   0.0586433  -0.0677155   0.0000000), wk =   0.1111111
        k(   15) = (   0.0586433  -0.0338577   0.0000000), wk =   0.1111111
        k(   16) = (   0.0586433   0.0000000   0.0000000), wk =   0.1111111
        k(   17) = (  -0.0879650  -0.0507866   0.0000000), wk =   0.0555556
        k(   18) = (  -0.0879650  -0.0169289   0.0000000), wk =   0.1111111
        k(   19) = (  -0.0879650   0.0169289   0.0000000), wk =   0.1111111
        k(   20) = (  -0.0879650  -0.1523598   0.0000000), wk =   0.0555556

     Largest allocated arrays     est. size (Mb)     dimensions
     Largest temporary arrays     est. size (Mb)     dimensions

     Check: negative/imaginary core charge=   -0.000001    0.000000

     Initial potential from superposition of free atoms
     Check: negative starting charge=   -1.643698

     starting charge  194.99976, renormalised to  201.00000

[...]

     *
     * You are using vdW-DF for exchange-correlation in this calculation.
     * Please cite the following three references that made this development
     * possible:
     *
     *   M. Dion, H. Rydberg, E. Schroder, D. C. Langreth, and
     *   B. I. Lundqvist, Phys. Rev. Lett. 92, 246401 (2004).
     *
     *   T. Thonhauser, V. R. Cooper, S. Li, A. Puzder, P. Hyldgaard, and
     *   D. C. Langreth, Phys. Rev. B 76, 125112 (2007).
     *
     *   G. Roman-Perez and J. M. Soler, Phys. Rev. Lett. 103, 096102 (2009).
     *
     *
     * If you are using vdW-DF2, please also cite:
     *
     *   K. Lee, E. D. Murray, L. Kong, B. I. Lundqvist, and
     *   D. C. Langreth, Phys. Rev. B 82, 081101(R) (2010).
     *
     *
     * If you are calculating the stress with vdW-DF, please also cite:
     *
     *   R. Sabatini, E. Kucukbenli, B. Kolb, T. Thonhauser, and
     *   S. de Gironcoli, J. Phys.: Condens. Matter 24, 424209 (2012).
     *

     Carrying out vdW-DF run using the following parameters:

     Nqs =      20    Nr_points =    1024   r_max =   100.000
     q_mesh =
               0.00001000     0.04494208     0.09755937     0.15916263
               0.23128650     0.31572767     0.41458969     0.53033537
               0.66584808     0.82450364     1.01025438     1.22772762
               1.48234092     1.78043706     2.12944203     2.53805004
               3.01644009     3.57652955     4.23227104     5.00000000

     Gradients computed in reciprocal space

[...]

     Starting wfc are  147 randomized atomic wfcs

     Self-consistent Calculation

[...]

     total energy              =   -2801.03194987 Ry
     Harris-Foulkes estimate   =   -2801.03194313 Ry
     estimated scf accuracy    <       0.00000117 Ry

     iteration # 16     ecut=    36.75 Ry     beta=0.10
     Davidson diagonalization with overlap
     ethr =  5.83E-10,  avg # of iterations =  2.0

[...]

     negative rho (up, down):  1.582E+00 0.000E+00

     Adding external electric field

     Computed dipole along edir(3) :
        Dipole                0.0245 Ry au,          0.0623 Debye
        Dipole field          0.0001 Ry au

        Potential amp.       -0.0060 Ry
        Total length         45.4007 bohr

     End of self-consistent calculation

[...]

          k = 0.0586 0.0000 0.0000 ( 17525 PWs)   bands (ev):

[...]

          k =-0.0880-0.1524 0.0000 ( 17464 PWs)   bands (ev):

   -90.1212 -89.9688 -89.8361 -53.6306 -53.6290 -53.6135 -53.4956 -53.4941
   -53.4067 -53.3686 -53.3673 -53.2581 -51.0941 -51.0361 -50.9991 -50.9583
   -50.9237 -50.9214 -50.9070 -50.9041 -50.8433 -50.8107 -50.7715 -50.7359
   -50.6952 -50.6892 -50.6789 -50.6600 -50.6493 -50.6439 -50.6233 -50.6133
   -50.5752 -50.5186 -50.5117 -50.5012 -50.4636 -50.4551 -50.4462  -4.8447
    -4.6753  -3.7671  -3.6732  -3.5808  -3.5428  -3.4269  -3.3820  -3.2488
    -3.2142  -3.1948  -3.0313  -2.8643  -2.7930  -2.7780  -2.6544  -2.6331
    -2.5739  -2.4215  -2.3711  -2.3047  -2.2020  -2.1336  -2.0382  -1.9830
    -1.9059  -1.7696  -1.7199  -1.6442  -1.5631  -1.3822  -1.3558  -1.2157
    -1.1293  -1.0873  -1.0032  -0.9825  -0.9663  -0.9431  -0.8565  -0.7742
    -0.6171  -0.4851  -0.4725  -0.3802  -0.3628  -0.1385  -0.1168   0.0171
     0.0351   0.0815   0.2399   0.2984   0.4213   0.5039   0.5105   0.5585
     0.7520   0.8443   0.9026   0.9657   1.1896   1.4686   1.8271   2.5242
     3.0873   3.1731   3.6680   4.0239   4.4016   5.6239   5.8222   6.1417
     6.3115   7.4057   7.4607   8.0282   8.0651   8.0753   8.1070   8.8449
     8.9802   9.0547   9.0736   9.2505   9.2834   9.3084   9.5455   9.6567
     9.7382  10.2940

     the Fermi energy is     1.4469 ev

!    total energy              =   -2801.03197222 Ry
     Harris-Foulkes estimate   =   -2801.03194998 Ry
     estimated scf accuracy    <       0.00000071 Ry

     The total energy is the sum of the following terms:

     one-electron contribution =  -21387.62883412 Ry
     hartree contribution      =   10720.66284073 Ry
     xc contribution           =    -617.76119727 Ry
     ewald contribution        =    8483.77045393 Ry
     electric field correction =       0.00000162 Ry
     smearing contrib. (-TS)   =      -0.07523711 Ry

     convergence has been achieved in  16 iterations

 BEEF-vdW xc energy contributions
           1 :   -547.976380761386
           2 :    508.024349157528
           3 :   -437.261248281450
           4 :    350.514077538287
           5 :   -263.382607736558
           6 :    187.860406522685
           7 :   -129.922646574182
           8 :    89.5173614908115
           9 :   -62.5189579246503
          10 :    43.5238566611143
          11 :   -28.2620386733499
          12 :    14.7729071786421
          13 :   -3.21638064312799
          14 :   -5.21286383055440
          15 :    9.52378407885340
          16 :   -9.72161986339290
          17 :    6.90503910736004
          18 :   -2.80464202062456
          19 :  -0.896992298164605
          20 :    3.11219986263382
          21 :   -3.56637923732819
          22 :    2.67101674149785
          23 :   -1.18522961484007
          24 :  -0.156231085670697
          25 :   0.900104810055836
          26 :  -0.957598266493164
          27 :   0.529898528481112
          28 :   5.161825096911343E-002
          29 :  -0.493092903570869
          30 :   0.650448887359858
          31 :   -46.2297348369336
          32 :   -34.0649230333056

     Forces acting on atoms (Ry/au):

     negative rho (up, down):  1.582E+00 0.000E+00
     atom    1 type  1   force =     0.00000003   -0.00276384    0.00687294
     atom    2 type  1   force =    -0.00239360    0.00138166    0.00687308
     atom    3 type  1   force =     0.00239370    0.00138188    0.00687314
     atom    4 type  2   force =     0.00000002   -0.00000011   -0.03496490
     atom    5 type  1   force =    -0.00000006    0.01215642    0.00658488
     atom    6 type  1   force =     0.01052751   -0.00607774    0.00658542
     atom    7 type  1   force =    -0.01052758   -0.00607772    0.00658549
     atom    8 type  2   force =     0.00000008    0.00000017   -0.00811766
     atom    9 type  1   force =     0.00000001    0.00043549    0.00065601
     atom   10 type  1   force =     0.00037653   -0.00021826    0.00065612
     atom   11 type  1   force =    -0.00037664   -0.00021826    0.00065598
     atom   12 type  2   force =     0.00000001    0.00000030    0.00073950

     Total force =     0.045043     Total SCF correction =     0.006441
     SCF correction compared to forces is large: reduce conv_thr to get better values

     entering subroutine stress ...

     negative rho (up, down):  1.582E+00 0.000E+00
          total   stress  (Ry/bohr**3)                   (kbar)     P=  -15.71
  -0.00015880  -0.00000000  -0.00000000        -23.36     -0.00     -0.00
  -0.00000000  -0.00015881  -0.00000000         -0.00    -23.36     -0.00
  -0.00000000  -0.00000000  -0.00000286         -0.00     -0.00     -0.42

 !ASE

     Writing output data file calc.save

     General routines

     Parallel routines

   This run was terminated on:  15:18:55  31Dec2018

   JOB DONE.
Job  /afs/slac/g/suncat/bin/suncat-tsmpirun -x LD_LIBRARY_PATH -wdir /scratch/qe648786_mXkaM pw.x -in pw.inp

TID   HOST_NAME   COMMAND_LINE            STATUS            TERMINATION_TIME
00000 suncat0068 pw.x -in pw.inp   Done                     12/31/2018 15:18:55
00001 suncat0068 pw.x -in pw.inp   Done                     12/31/2018 15:18:55
00002 suncat0068 pw.x -in pw.inp   Done                     12/31/2018 15:18:55
00003 suncat0068 pw.x -in pw.inp   Done                     12/31/2018 15:18:55
00004 suncat0068 pw.x -in pw.inp   Done                     12/31/2018 15:18:55
00005 suncat0068 pw.x -in pw.inp   Done                     12/31/2018 15:18:55
00006 suncat0068 pw.x -in pw.inp   Done                     12/31/2018 15:18:55
00007 suncat0068 pw.x -in pw.inp   Done                     12/31/2018 15:18:55
00008 suncat0059 pw.x -in pw.inp   Done                     12/31/2018 15:18:55
00009 suncat0059 pw.x -in pw.inp   Done                     12/31/2018 15:18:55
00010 suncat0059 pw.x -in pw.inp   Done                     12/31/2018 15:18:55
00011 suncat0059 pw.x -in pw.inp   Done                     12/31/2018 15:18:55
00012 suncat0059 pw.x -in pw.inp   Done                     12/31/2018 15:18:55
00013 suncat0059 pw.x -in pw.inp   Done                     12/31/2018 15:18:55
00014 suncat0059 pw.x -in pw.inp   Done                     12/31/2018 15:18:55
00015 suncat0059 pw.x -in pw.inp   Done                     12/31/2018 15:18:55
00016 suncat0031 pw.x -in pw.inp   Done                     12/31/2018 15:18:55
00017 suncat0031 pw.x -in pw.inp   Done                     12/31/2018 15:18:55
00018 suncat0031 pw.x -in pw.inp   Done                     12/31/2018 15:18:55
00019 suncat0031 pw.x -in pw.inp   Done                     12/31/2018 15:18:55
00020 suncat0031 pw.x -in pw.inp   Done                     12/31/2018 15:18:55
00021 suncat0031 pw.x -in pw.inp   Done                     12/31/2018 15:18:55
00022 suncat0031 pw.x -in pw.inp   Done                     12/31/2018 15:18:55
00023 suncat0031 pw.x -in pw.inp   Done                     12/31/2018 15:18:55
00024 suncat0030 pw.x -in pw.inp   Done                     12/31/2018 15:18:55
00025 suncat0030 pw.x -in pw.inp   Done                     12/31/2018 15:18:55
00026 suncat0030 pw.x -in pw.inp   Done                     12/31/2018 15:18:55
00027 suncat0030 pw.x -in pw.inp   Done                     12/31/2018 15:18:55
00028 suncat0030 pw.x -in pw.inp   Done                     12/31/2018 15:18:55
00029 suncat0030 pw.x -in pw.inp   Done                     12/31/2018 15:18:55
00030 suncat0030 pw.x -in pw.inp   Done                     12/31/2018 15:18:55
00031 suncat0030 pw.x -in pw.inp   Done                     12/31/2018 15:18:55
00032 suncat0280 pw.x -in pw.inp   Done                     12/31/2018 15:18:55
00033 suncat0280 pw.x -in pw.inp   Done                     12/31/2018 15:18:55
00034 suncat0280 pw.x -in pw.inp   Done                     12/31/2018 15:18:55
00035 suncat0280 pw.x -in pw.inp   Done                     12/31/2018 15:18:55
00036 suncat0280 pw.x -in pw.inp   Done                     12/31/2018 15:18:55
00037 suncat0280 pw.x -in pw.inp   Done                     12/31/2018 15:18:55
00038 suncat0280 pw.x -in pw.inp   Done                     12/31/2018 15:18:55
00039 suncat0280 pw.x -in pw.inp   Done                     12/31/2018 15:18:55
00040 suncat0279 pw.x -in pw.inp   Done                     12/31/2018 15:18:55
00041 suncat0279 pw.x -in pw.inp   Done                     12/31/2018 15:18:55
00042 suncat0279 pw.x -in pw.inp   Done                     12/31/2018 15:18:55
00043 suncat0279 pw.x -in pw.inp   Done                     12/31/2018 15:18:55
00044 suncat0279 pw.x -in pw.inp   Done                     12/31/2018 15:18:55
00045 suncat0279 pw.x -in pw.inp   Done                     12/31/2018 15:18:55
00046 suncat0279 pw.x -in pw.inp   Done                     12/31/2018 15:18:55
00047 suncat0279 pw.x -in pw.inp   Done                     12/31/2018 15:18:55
00048 suncat0278 pw.x -in pw.inp   Done                     12/31/2018 15:18:55
00049 suncat0278 pw.x -in pw.inp   Done                     12/31/2018 15:18:55
00050 suncat0278 pw.x -in pw.inp   Done                     12/31/2018 15:18:55
00051 suncat0278 pw.x -in pw.inp   Done                     12/31/2018 15:18:55
00052 suncat0278 pw.x -in pw.inp   Done                     12/31/2018 15:18:55
00053 suncat0278 pw.x -in pw.inp   Done                     12/31/2018 15:18:55
00054 suncat0278 pw.x -in pw.inp   Done                     12/31/2018 15:18:55
00055 suncat0278 pw.x -in pw.inp   Done                     12/31/2018 15:18:55
00056 suncat0099 pw.x -in pw.inp   Done                     12/31/2018 15:18:55
00057 suncat0099 pw.x -in pw.inp   Done                     12/31/2018 15:18:55
00058 suncat0099 pw.x -in pw.inp   Done                     12/31/2018 15:18:55
00059 suncat0099 pw.x -in pw.inp   Done                     12/31/2018 15:18:55
00060 suncat0099 pw.x -in pw.inp   Done                     12/31/2018 15:18:55
00061 suncat0099 pw.x -in pw.inp   Done                     12/31/2018 15:18:55
00062 suncat0099 pw.x -in pw.inp   Done                     12/31/2018 15:18:55
00063 suncat0099 pw.x -in pw.inp   Done                     12/31/2018 15:18:55