     Program PWSCF v.5.1rc2 (svn rev. 11289) starts on 27Dec2018 at 21:49: 1

     Current dimensions of program PWSCF are:
     Max number of different atomic species (ntypx) = 10
     Max number of k-points (npk) =  40000
     Max angular momentum in pseudopotentials (lmaxx) =  3
     Presently stress not available with electric field

     IMPORTANT: XC functional enforced from input :
     Exchange-correlation      = BEEF-VDW ( 1  4 27 13 2)
     Any further DFT definition will be discarded
     Please, verify this is what you really want

     Subspace diagonalization in iterative solution of the eigenvalue problem:
     a serial algorithm will be used

     bravais-lattice index     =            0
     lattice parameter (alat)  =       1.8897  a.u.
     unit-cell volume          =    4263.8189 (a.u.)^3
     number of atoms/cell      =           12
     number of atomic types    =            2
     number of electrons       =       180.00
     number of Kohn-Sham states=          120
     kinetic-energy cutoff     =      36.7493  Ry
     charge density cutoff     =     367.4932  Ry
     convergence threshold     =      1.0E-06
     mixing beta               =       0.1000
     number of iterations used =           10  plain     mixing
     Exchange-correlation      = BEEF-VDW ( 1  4 27 13 2)
     nstep                     =           50

     celldm(1)=   1.889726  celldm(2)=   0.000000  celldm(3)=   0.000000
     celldm(4)=   0.000000  celldm(5)=   0.000000  celldm(6)=   0.000000

     crystal axes: (cart. coord. in units of alat)
               a(1) = (   5.461521   0.000000   0.000000 )
               a(2) = (  -2.730761   4.729816   0.000000 )
               a(3) = (   0.000000   0.000000  24.459313 )

     reciprocal axes: (cart. coord. in units 2 pi/alat)
               b(1) = (  0.183099  0.105712  0.000000 )
               b(2) = (  0.000000  0.211425  0.000000 )
               b(3) = (  0.000000  0.000000  0.040884 )

     PseudoPot. # 1 for Ru read from file:
     /afs/slac.stanford.edu/u/if/mamunm/psp/gbrv1.5pbe/Ru.UPF
     MD5 check sum: 7158a806dd851261a58e6920c40ebe78
     Pseudo is Ultrasoft + core correction, Zval = 16.0
     Generated by new atomic code, or converted to UPF format
     Using radial grid of  967 points,  6 beta functions with:
                l(1) =   0
                l(2) =   0
                l(3) =   1
                l(4) =   1
                l(5) =   2
                l(6) =   2
     Q(r) pseudized with  8 coefficients,  rinner =    1.300   1.300   1.300
                                                       1.300   1.300

     PseudoPot. # 2 for Ti read from file:
     /afs/slac.stanford.edu/u/if/mamunm/psp/gbrv1.5pbe/Ti.UPF
     MD5 check sum: 88a00a6731bd790ddea75d31a80cb452
     Pseudo is Ultrasoft + core correction, Zval = 12.0
     Generated by new atomic code, or converted to UPF format
     Using radial grid of  851 points,  6 beta functions with:
                l(1) =   0
                l(2) =   0
                l(3) =   1
                l(4) =   1
                l(5) =   2
                l(6) =   2
     Q(r) pseudized with  6 coefficients,  rinner =    1.000   1.000   1.000
                                                       1.000   1.000

     vdW kernel table read from file vdW_kernel_table
     MD5 check sum: 095c7af220d748ca6e76c0b4c6cfb241

     atomic species   valence    mass     pseudopotential
        Ru1           16.00   101.07000     Ru( 1.00)
        Ti1           12.00    47.86700     Ti( 1.00)

     No symmetry found

   Cartesian axes

     site n.     atom                  positions (alat units)
         1           Ru1 tau(   1) = (   0.0000000   0.0000000  10.0000000  )
         2           Ru1 tau(   2) = (  -1.3653803   2.3649081  10.0000000  )
         3           Ru1 tau(   3) = (   1.3653803   2.3649081  10.0000000  )
         4           Ti1 tau(   4) = (   2.7307606   0.0000000  10.0000000  )
         5           Ru1 tau(   5) = (   2.7307606   1.5766054  12.2296567  )
         6           Ru1 tau(   6) = (   1.3653803   3.9415135  12.2296567  )
         7           Ru1 tau(   7) = (  -1.3653803   3.9415135  12.2296567  )
         8           Ti1 tau(   8) = (   0.0000000   1.5766054  12.2296567  )
         9           Ru1 tau(   9) = (  -0.0000000   3.1532108  14.4593134  )
        10           Ru1 tau(  10) = (   1.3653803   0.7883027  14.4593134  )
        11           Ru1 tau(  11) = (   4.0961409   0.7883027  14.4593134  )
        12           Ti1 tau(  12) = (   2.7307606   3.1532108  14.4593134  )

     number of k points=    20  Fermi-Dirac smearing, width (Ry)=  0.0110
                       cart. coord. in units 2pi/alat
        k(    1) = (   0.0000000   0.0000000   0.0000000), wk =   0.0555556
        k(    2) = (   0.0000000   0.0352375   0.0000000), wk =   0.1111111
        k(    3) = (   0.0000000   0.0704749   0.0000000), wk =   0.1111111
        k(    4) = (   0.0000000  -0.1057124   0.0000000), wk =   0.0555556
        k(    5) = (   0.0305165   0.0176187   0.0000000), wk =   0.1111111
        k(    6) = (   0.0305165   0.0528562   0.0000000), wk =   0.1111111
        k(    7) = (   0.0305165   0.0880936   0.0000000), wk =   0.1111111
        k(    8) = (   0.0305165  -0.0880936   0.0000000), wk =   0.1111111
        k(    9) = (   0.0305165  -0.0528562   0.0000000), wk =   0.1111111
        k(   10) = (   0.0305165  -0.0176187   0.0000000), wk =   0.1111111
        k(   11) = (   0.0610331   0.0352375   0.0000000), wk =   0.1111111
        k(   12) = (   0.0610331   0.0704749   0.0000000), wk =   0.1111111
        k(   13) = (   0.0610331   0.1057124   0.0000000), wk =   0.1111111
        k(   14) = (   0.0610331  -0.0704749   0.0000000), wk =   0.1111111
        k(   15) = (   0.0610331  -0.0352375   0.0000000), wk =   0.1111111
        k(   16) = (   0.0610331  -0.0000000   0.0000000), wk =   0.1111111
        k(   17) = (  -0.0915496  -0.0528562   0.0000000), wk =   0.0555556
        k(   18) = (  -0.0915496  -0.0176187   0.0000000), wk =   0.1111111
        k(   19) = (  -0.0915496   0.0176187   0.0000000), wk =   0.1111111
        k(   20) = (  -0.0915496  -0.1585685   0.0000000), wk =   0.0555556

     Largest allocated arrays     est. size (Mb)     dimensions
     Largest temporary arrays     est. size (Mb)     dimensions

     Check: negative/imaginary core charge=   -0.000003    0.000000

     Initial potential from superposition of free atoms
     Check: negative starting charge=   -0.660912

     starting charge  167.99973, renormalised to  180.00000

     negative rho (up, down):  7.081E-01 0.000E+00

     *
     * You are using vdW-DF for exchange-correlation in this calculation.
     * Please cite the following three references that made this development
     * possible:
     *
     *   M. Dion, H. Rydberg, E. Schroder, D. C. Langreth, and
     *   B. I. Lundqvist, Phys. Rev. Lett. 92, 246401 (2004).
     *
     *   T. Thonhauser, V. R. Cooper, S. Li, A. Puzder, P. Hyldgaard, and
     *   D. C. Langreth, Phys. Rev. B 76, 125112 (2007).
     *
     *   G. Roman-Perez and J. M. Soler, Phys. Rev. Lett. 103, 096102 (2009).
     *
     *
     * If you are using vdW-DF2, please also cite:
     *
     *   K. Lee, E. D. Murray, L. Kong, B. I. Lundqvist, and
     *   D. C. Langreth, Phys. Rev. B 82, 081101(R) (2010).
     *
     *
     * If you are calculating the stress with vdW-DF, please also cite:
     *
     *   R. Sabatini, E. Kucukbenli, B. Kolb, T. Thonhauser, and
     *   S. de Gironcoli, J. Phys.: Condens. Matter 24, 424209 (2012).
     *

     Carrying out vdW-DF run using the following parameters:

     Nqs =      20    Nr_points =    1024   r_max =   100.000
     q_mesh =
               0.00001000     0.04494208     0.09755937     0.15916263
               0.23128650     0.31572767     0.41458969     0.53033537
               0.66584808     0.82450364     1.01025438     1.22772762
               1.48234092     1.78043706     2.12944203     2.53805004
               3.01644009     3.57652955     4.23227104     5.00000000

     Gradients computed in reciprocal space

     Adding external electric field

     Computed dipole along edir(3) :
        Dipole                0.0000 Ry au,          0.0000 Debye
        Dipole field          0.0000 Ry au

        Potential amp.       -0.0000 Ry
        Total length         45.0659 bohr

     Starting wfc are  147 randomized atomic wfcs

     Self-consistent Calculation

     iteration #  1     ecut=    36.75 Ry     beta=0.10
     Davidson diagonalization with overlap
     ethr =  1.00E-02,  avg # of iterations =  7.1

[...]

     total energy              =   -2114.31472104 Ry
     Harris-Foulkes estimate   =   -2123.06313897 Ry
     estimated scf accuracy    <      50.51095862 Ry

[...]

     End of self-consistent calculation

          k = 0.0000 0.0000 0.0000 ( 15989 PWs)   bands (ev):

   -70.7353 -70.6637 -70.6637 -70.3777 -70.3745 -70.3082 -70.3082 -70.3075
   -70.3074 -55.1785 -55.1779 -54.8384 -41.0288 -40.8374 -40.8374 -40.8148
   -40.7310 -40.7310 -40.7050 -40.6575 -40.4997 -40.4292 -40.4292 -40.3827
   -40.3827 -40.3573 -40.3572 -40.3396 -40.2747 -40.2746 -40.2494 -40.2199
   -40.2198 -40.0986 -40.0860 -40.0783 -40.0783 -40.0740 -40.0740 -31.5278
   -31.5150 -31.3104 -31.3104 -31.3071 -31.3071 -31.0543 -31.0543 -31.0442
    -4.1870  -2.9411  -2.7920  -2.6489  -2.4728  -2.4619  -2.4619  -2.1829
    -2.1829  -2.1191  -2.0519  -2.0519  -1.9708  -1.6462  -1.6462  -1.0174
    -0.5617  -0.5617  -0.1893  -0.1893   0.0455   0.2291   0.3608   0.4323
     0.7387   0.7387   0.8754   0.8754   1.0911   1.0912   1.1840   1.1840
     1.3272   1.3272   1.7720   1.9771   2.2923   2.2924   2.3169   2.3170
     2.4211   2.5190   2.5190   3.0372   3.2337   3.2936   3.2936   3.3643
     3.7845   3.7845   3.9316   4.2572   4.3144   4.3423   4.3724   4.3724
     4.4567   4.4567   4.5992   4.6247   4.6247   5.0021   5.0021   5.0965
     5.0966   5.2622   5.2622   6.1313   6.3313   6.6598   6.6598   6.7254

[...]

          k =-0.0915-0.0529 0.0000 ( 16072 PWs)   bands (ev):

[...]

     the Fermi energy is     2.1186 ev

!    total energy              =   -2115.81420491 Ry
     Harris-Foulkes estimate   =   -2115.81420599 Ry
     estimated scf accuracy    <       0.00000036 Ry

     The total energy is the sum of the following terms:

     one-electron contribution =  -18920.40602185 Ry
     hartree contribution      =    9457.76512712 Ry
     xc contribution           =    -297.79088349 Ry
     ewald contribution        =    7644.70831125 Ry
     electric field correction =       0.00000001 Ry
     smearing contrib. (-TS)   =      -0.09073795 Ry

     convergence has been achieved in  20 iterations

 BEEF-vdW xc energy contributions
           1 :   -257.921408026444
           2 :    235.645307954434
           3 :   -197.461362687397
           4 :    153.339285286994
           5 :   -112.984100253257
           6 :    82.6919172550537
           7 :   -64.0863687519154
           8 :    54.8279656677964
           9 :   -50.5816208180749
          10 :    47.1840160293831
          11 :   -42.1353874846929
[...]
     MD5 check sum: 7158a806dd851261a58e6920c40ebe78
     Pseudo is Ultrasoft + core correction, Zval = 16.0
     Generated by new atomic code, or converted to UPF format
     Using radial grid of  967 points,  6 beta functions with:
                l(1) =   0
                l(2) =   0
                l(3) =   1
                l(4) =   1
                l(5) =   2
                l(6) =   2
     Q(r) pseudized with  8 coefficients,  rinner =    1.300   1.300   1.300
                                                       1.300   1.300

     PseudoPot. # 2 for Ti read from file:
     /afs/slac.stanford.edu/u/if/mamunm/psp/gbrv1.5pbe/Ti.UPF
     MD5 check sum: 88a00a6731bd790ddea75d31a80cb452
     Pseudo is Ultrasoft + core correction, Zval = 12.0
     Generated by new atomic code, or converted to UPF format
     Using radial grid of  851 points,  6 beta functions with:
                l(1) =   0
                l(2) =   0
                l(3) =   1
                l(4) =   1
                l(5) =   2
                l(6) =   2
     Q(r) pseudized with  6 coefficients,  rinner =    1.000   1.000   1.000
                                                       1.000   1.000

     vdW kernel table read from file vdW_kernel_table
     MD5 check sum: 095c7af220d748ca6e76c0b4c6cfb241

     atomic species   valence    mass     pseudopotential
        Ru1           16.00   101.07000     Ru( 1.00)
        Ti1           12.00    47.86700     Ti( 1.00)

     No symmetry found

   Cartesian axes

     site n.     atom                  positions (alat units)
         1           Ru1 tau(   1) = (   0.0000000   0.0000000  10.0000000  )
         2           Ru1 tau(   2) = (  -1.3653803   2.3649081  10.0000000  )
         3           Ru1 tau(   3) = (   1.3653803   2.3649081  10.0000000  )
         4           Ti1 tau(   4) = (   2.7307606   0.0000000  10.0000000  )
         5           Ru1 tau(   5) = (   2.7307606   1.5766054  12.2296567  )
         6           Ru1 tau(   6) = (   1.3653803   3.9415135  12.2296567  )
         7           Ru1 tau(   7) = (  -1.3653803   3.9415135  12.2296567  )
         8           Ti1 tau(   8) = (   0.0000000   1.5766054  12.2296567  )
         9           Ru1 tau(   9) = (   0.0000011   3.1572514  14.3831576  )
        10           Ru1 tau(  10) = (   1.3688439   0.7863082  14.3831534  )
        11           Ru1 tau(  11) = (   4.0926502   0.7862921  14.3831554  )
        12           Ti1 tau(  12) = (   2.7307708   3.1532087  14.3093880  )

     number of k points=    20  Fermi-Dirac smearing, width (Ry)=  0.0110
                       cart. coord. in units 2pi/alat
        k(    1) = (   0.0000000   0.0000000   0.0000000), wk =   0.0555556
        k(    2) = (   0.0000000   0.0352375   0.0000000), wk =   0.1111111
        k(    3) = (   0.0000000   0.0704749   0.0000000), wk =   0.1111111
        k(    4) = (   0.0000000  -0.1057124   0.0000000), wk =   0.0555556
        k(    5) = (   0.0305165   0.0176187   0.0000000), wk =   0.1111111
        k(    6) = (   0.0305165   0.0528562   0.0000000), wk =   0.1111111
        k(    7) = (   0.0305165   0.0880936   0.0000000), wk =   0.1111111
        k(    8) = (   0.0305165  -0.0880936   0.0000000), wk =   0.1111111
        k(    9) = (   0.0305165  -0.0528562   0.0000000), wk =   0.1111111
        k(   10) = (   0.0305165  -0.0176187   0.0000000), wk =   0.1111111
        k(   11) = (   0.0610331   0.0352375   0.0000000), wk =   0.1111111
        k(   12) = (   0.0610331   0.0704749   0.0000000), wk =   0.1111111
        k(   13) = (   0.0610331   0.1057124   0.0000000), wk =   0.1111111
        k(   14) = (   0.0610331  -0.0704749   0.0000000), wk =   0.1111111
        k(   15) = (   0.0610331  -0.0352375   0.0000000), wk =   0.1111111
        k(   16) = (   0.0610331  -0.0000000   0.0000000), wk =   0.1111111
        k(   17) = (  -0.0915496  -0.0528562   0.0000000), wk =   0.0555556
        k(   18) = (  -0.0915496  -0.0176187   0.0000000), wk =   0.1111111
        k(   19) = (  -0.0915496   0.0176187   0.0000000), wk =   0.1111111
        k(   20) = (  -0.0915496  -0.1585685   0.0000000), wk =   0.0555556

     Largest allocated arrays     est. size (Mb)     dimensions
     Largest temporary arrays     est. size (Mb)     dimensions

     Check: negative/imaginary core charge=   -0.000003    0.000000

     Initial potential from superposition of free atoms
     Check: negative starting charge=   -0.660123

     starting charge  167.99973, renormalised to  180.00000

[...]

     *
     * You are using vdW-DF for exchange-correlation in this calculation.
     * Please cite the following three references that made this development
     * possible:
     *
     *   M. Dion, H. Rydberg, E. Schroder, D. C. Langreth, and
     *   B. I. Lundqvist, Phys. Rev. Lett. 92, 246401 (2004).
     *
     *   T. Thonhauser, V. R. Cooper, S. Li, A. Puzder, P. Hyldgaard, and
     *   D. C. Langreth, Phys. Rev. B 76, 125112 (2007).
     *
     *   G. Roman-Perez and J. M. Soler, Phys. Rev. Lett. 103, 096102 (2009).
     *
     *
     * If you are using vdW-DF2, please also cite:
     *
     *   K. Lee, E. D. Murray, L. Kong, B. I. Lundqvist, and
     *   D. C. Langreth, Phys. Rev. B 82, 081101(R) (2010).
     *
     *
     * If you are calculating the stress with vdW-DF, please also cite:
     *
     *   R. Sabatini, E. Kucukbenli, B. Kolb, T. Thonhauser, and
     *   S. de Gironcoli, J. Phys.: Condens. Matter 24, 424209 (2012).
     *

     Carrying out vdW-DF run using the following parameters:

     Nqs =      20    Nr_points =    1024   r_max =   100.000
     q_mesh =
               0.00001000     0.04494208     0.09755937     0.15916263
               0.23128650     0.31572767     0.41458969     0.53033537
               0.66584808     0.82450364     1.01025438     1.22772762
               1.48234092     1.78043706     2.12944203     2.53805004
               3.01644009     3.57652955     4.23227104     5.00000000

     Gradients computed in reciprocal space

[...]

     Starting wfc are  147 randomized atomic wfcs

     Self-consistent Calculation

[...]

     total energy              =   -2115.82312569 Ry
     Harris-Foulkes estimate   =   -2115.82312693 Ry
     estimated scf accuracy    <       0.00000572 Ry

     iteration # 18     ecut=    36.75 Ry     beta=0.10
     Davidson diagonalization with overlap
     ethr =  3.18E-09,  avg # of iterations =  1.1

[...]

     negative rho (up, down):  6.806E-01 0.000E+00

     Adding external electric field

     Computed dipole along edir(3) :
        Dipole                0.0139 Ry au,          0.0353 Debye
        Dipole field          0.0000 Ry au

        Potential amp.       -0.0037 Ry
        Total length         45.0659 bohr

     End of self-consistent calculation

[...]

          k = 0.0610-0.0000 0.0000 ( 16034 PWs)   bands (ev):

[...]

          k =-0.0915-0.1586 0.0000 ( 16072 PWs)   bands (ev):

   -70.7407 -70.7168 -70.6924 -70.3548 -70.3415 -70.3323 -70.3187 -70.3096
   -70.2958 -55.2066 -55.0308 -54.7823 -40.9572 -40.8612 -40.8165 -40.7898
   -40.7168 -40.7139 -40.6630 -40.6459 -40.5597 -40.5211 -40.4335 -40.3707
   -40.3450 -40.3083 -40.2866 -40.2851 -40.2815 -40.2578 -40.2571 -40.2474
   -40.2378 -40.2271 -40.2165 -40.2036 -40.2008 -40.0856 -40.0710 -31.5590
   -31.3613 -31.3486 -31.3373 -31.2088 -31.1957 -31.0259 -31.0130 -30.9880
    -2.8189  -2.5458  -2.1343  -1.9880  -1.9199  -1.7554  -1.5955  -1.5512
    -1.5349  -1.4655  -1.3244  -1.2831  -1.0157  -0.9848  -0.9200  -0.7427
    -0.6713  -0.5295  -0.5203  -0.3420   0.0869   0.1640   0.2118   0.2902
     0.3885   0.4261   0.5011   0.5273   0.5757   0.6409   0.6798   0.7335
     0.7799   0.8294   1.0639   1.0858   1.2141   1.4252   1.5125   1.5870
     1.6365   1.8245   2.0083   2.1460   2.1889   2.2062   2.4621   2.6392
     2.6463   2.7759   3.1603   3.1736   3.4265   3.5493   3.6802   3.6921
     3.8156   3.9282   4.1438   4.1690   4.2165   4.6082   4.7839   5.1508
     5.2028   5.4299   6.3432   6.8720   6.9453   6.9659   7.0850   7.1514

     the Fermi energy is     2.1203 ev

!    total energy              =   -2115.82312483 Ry
     Harris-Foulkes estimate   =   -2115.82312622 Ry
     estimated scf accuracy    <       0.00000085 Ry

     The total energy is the sum of the following terms:

     one-electron contribution =  -19164.59984208 Ry
     hartree contribution      =    9579.88445643 Ry
     xc contribution           =    -297.98529012 Ry
     ewald contribution        =    7766.96572728 Ry
     electric field correction =       0.00000057 Ry
     smearing contrib. (-TS)   =      -0.08817690 Ry

     convergence has been achieved in  18 iterations

 BEEF-vdW xc energy contributions
           1 :   -258.120948525441
           2 :    235.918178006367
           3 :   -197.826073969398
           4 :    153.740550698070
           5 :   -113.321100910961
           6 :    82.8753182817235
           7 :   -64.0885469013247
           8 :    54.6984610089066
           9 :   -50.4219780101747
          10 :    47.0973595144674
          11 :   -42.1775811916996
          12 :    35.1648995047959
          13 :   -27.1115024565257
          14 :    19.6549222397871
          15 :   -14.1229947639116
          16 :    11.0374844617399
          17 :   -10.0738381468445
          18 :    10.3395994329408
          19 :   -10.7897761985209
          20 :    10.6223777676523
          21 :   -9.54225938188944
          22 :    7.81572449502465
          23 :   -6.10105148451584
          24 :    5.11690830112184
          25 :   -5.28761481831452
          26 :    6.52361620384426
          27 :   -8.24905058551298
          28 :    9.67306322614803
          29 :   -10.1763668853438
          30 :    9.60964353994558
          31 :   -26.8452715042840
          32 :   -20.1257885930785

     Forces acting on atoms (Ry/au):

     negative rho (up, down):  6.806E-01 0.000E+00
     atom    1 type  1   force =    -0.00000011   -0.00176630    0.01227269
     atom    2 type  1   force =    -0.00153019    0.00088405    0.01227262
     atom    3 type  1   force =     0.00152936    0.00088300    0.01227412
     atom    4 type  2   force =    -0.00000026    0.00000058    0.02394347
     atom    5 type  1   force =    -0.00000009   -0.00005386   -0.01769096
     atom    6 type  1   force =    -0.00004706    0.00002846   -0.01768989
     atom    7 type  1   force =     0.00004574    0.00002722   -0.01769399
     atom    8 type  2   force =     0.00000035    0.00000116   -0.00775139
     atom    9 type  1   force =     0.00000131    0.00011771    0.00024581
     atom   10 type  1   force =     0.00010332   -0.00006036    0.00024320
     atom   11 type  1   force =    -0.00010163   -0.00006107    0.00024591
     atom   12 type  2   force =    -0.00000074   -0.00000060   -0.00067160

     Total force =     0.045103     Total SCF correction =     0.003039

     entering subroutine stress ...

     negative rho (up, down):  6.806E-01 0.000E+00
          total   stress  (Ry/bohr**3)                   (kbar)     P=  -17.57
  -0.00014797   0.00000000   0.00000000        -21.77      0.00      0.00
   0.00000000  -0.00014798  -0.00000000          0.00    -21.77     -0.00
   0.00000000  -0.00000000  -0.00006228          0.00     -0.00     -9.16

 !ASE

     Writing output data file calc.save

     General routines

     Parallel routines

   This run was terminated on:  22:45:50  27Dec2018

   JOB DONE.
Job  /afs/slac/g/suncat/bin/suncat-tsmpirun -x LD_LIBRARY_PATH -wdir /scratch/qe110810_S9G6T pw.x -in pw.inp

TID   HOST_NAME   COMMAND_LINE            STATUS            TERMINATION_TIME
00000 suncat0058 pw.x -in pw.inp   Done                     12/27/2018 22:45:50
00001 suncat0058 pw.x -in pw.inp   Done                     12/27/2018 22:45:50
00002 suncat0058 pw.x -in pw.inp   Done                     12/27/2018 22:45:50
00003 suncat0058 pw.x -in pw.inp   Done                     12/27/2018 22:45:50
00004 suncat0058 pw.x -in pw.inp   Done                     12/27/2018 22:45:50
00005 suncat0058 pw.x -in pw.inp   Done                     12/27/2018 22:45:50
00006 suncat0058 pw.x -in pw.inp   Done                     12/27/2018 22:45:50
00007 suncat0058 pw.x -in pw.inp   Done                     12/27/2018 22:45:50
00008 suncat0042 pw.x -in pw.inp   Done                     12/27/2018 22:45:50
00009 suncat0042 pw.x -in pw.inp   Done                     12/27/2018 22:45:50
00010 suncat0042 pw.x -in pw.inp   Done                     12/27/2018 22:45:50
00011 suncat0042 pw.x -in pw.inp   Done                     12/27/2018 22:45:50
00012 suncat0042 pw.x -in pw.inp   Done                     12/27/2018 22:45:50
00013 suncat0042 pw.x -in pw.inp   Done                     12/27/2018 22:45:50
00014 suncat0042 pw.x -in pw.inp   Done                     12/27/2018 22:45:50
00015 suncat0042 pw.x -in pw.inp   Done                     12/27/2018 22:45:50
00016 suncat0034 pw.x -in pw.inp   Done                     12/27/2018 22:45:50
00017 suncat0034 pw.x -in pw.inp   Done                     12/27/2018 22:45:50
00018 suncat0034 pw.x -in pw.inp   Done                     12/27/2018 22:45:50
00019 suncat0034 pw.x -in pw.inp   Done                     12/27/2018 22:45:50
00020 suncat0034 pw.x -in pw.inp   Done                     12/27/2018 22:45:50
00021 suncat0034 pw.x -in pw.inp   Done                     12/27/2018 22:45:50
00022 suncat0034 pw.x -in pw.inp   Done                     12/27/2018 22:45:50
00023 suncat0034 pw.x -in pw.inp   Done                     12/27/2018 22:45:50
00024 suncat0029 pw.x -in pw.inp   Done                     12/27/2018 22:45:50
00025 suncat0029 pw.x -in pw.inp   Done                     12/27/2018 22:45:50
00026 suncat0029 pw.x -in pw.inp   Done                     12/27/2018 22:45:50
00027 suncat0029 pw.x -in pw.inp   Done                     12/27/2018 22:45:50
00028 suncat0029 pw.x -in pw.inp   Done                     12/27/2018 22:45:50
00029 suncat0029 pw.x -in pw.inp   Done                     12/27/2018 22:45:50
00030 suncat0029 pw.x -in pw.inp   Done                     12/27/2018 22:45:50
00031 suncat0029 pw.x -in pw.inp   Done                     12/27/2018 22:45:50
00032 suncat0020 pw.x -in pw.inp   Done                     12/27/2018 22:45:50
00033 suncat0020 pw.x -in pw.inp   Done                     12/27/2018 22:45:50
00034 suncat0020 pw.x -in pw.inp   Done                     12/27/2018 22:45:50
00035 suncat0020 pw.x -in pw.inp   Done                     12/27/2018 22:45:50
00036 suncat0020 pw.x -in pw.inp   Done                     12/27/2018 22:45:50
00037 suncat0020 pw.x -in pw.inp   Done                     12/27/2018 22:45:50
00038 suncat0020 pw.x -in pw.inp   Done                     12/27/2018 22:45:50
00039 suncat0020 pw.x -in pw.inp   Done                     12/27/2018 22:45:50
00040 suncat0199 pw.x -in pw.inp   Done                     12/27/2018 22:45:50
00041 suncat0199 pw.x -in pw.inp   Done                     12/27/2018 22:45:50
00042 suncat0199 pw.x -in pw.inp   Done                     12/27/2018 22:45:50
00043 suncat0199 pw.x -in pw.inp   Done                     12/27/2018 22:45:50
00044 suncat0199 pw.x -in pw.inp   Done                     12/27/2018 22:45:50
00045 suncat0199 pw.x -in pw.inp   Done                     12/27/2018 22:45:50
00046 suncat0199 pw.x -in pw.inp   Done                     12/27/2018 22:45:50
00047 suncat0199 pw.x -in pw.inp   Done                     12/27/2018 22:45:50
00048 suncat0006 pw.x -in pw.inp   Done                     12/27/2018 22:45:50
00049 suncat0006 pw.x -in pw.inp   Done                     12/27/2018 22:45:50
00050 suncat0006 pw.x -in pw.inp   Done                     12/27/2018 22:45:50
00051 suncat0006 pw.x -in pw.inp   Done                     12/27/2018 22:45:50
00052 suncat0006 pw.x -in pw.inp   Done                     12/27/2018 22:45:50
00053 suncat0006 pw.x -in pw.inp   Done                     12/27/2018 22:45:50
00054 suncat0006 pw.x -in pw.inp   Done                     12/27/2018 22:45:50
00055 suncat0006 pw.x -in pw.inp   Done                     12/27/2018 22:45:50
00056 suncat0005 pw.x -in pw.inp   Done                     12/27/2018 22:45:50
00057 suncat0005 pw.x -in pw.inp   Done                     12/27/2018 22:45:50
00058 suncat0005 pw.x -in pw.inp   Done                     12/27/2018 22:45:50
00059 suncat0005 pw.x -in pw.inp   Done                     12/27/2018 22:45:50
00060 suncat0005 pw.x -in pw.inp   Done                     12/27/2018 22:45:50
00061 suncat0005 pw.x -in pw.inp   Done                     12/27/2018 22:45:50
00062 suncat0005 pw.x -in pw.inp   Done                     12/27/2018 22:45:50
00063 suncat0005 pw.x -in pw.inp   Done                     12/27/2018 22:45:50