     Program PWSCF v.5.1rc2 (svn rev. 11289) starts on 26Dec2018 at 14:44:14

     Current dimensions of program PWSCF are:
     Max number of different atomic species (ntypx) = 10
     Max number of k-points (npk) =  40000
     Max angular momentum in pseudopotentials (lmaxx) =  3
     Presently stress not available with electric field

     IMPORTANT: XC functional enforced from input :
     Exchange-correlation      = BEEF-VDW ( 1  4 27 13 2)
     Any further DFT definition will be discarded
     Please, verify this is what you really want

     Subspace diagonalization in iterative solution of the eigenvalue problem:
     a serial algorithm will be used

     bravais-lattice index     =            0
     lattice parameter (alat)  =       1.8897  a.u.
     unit-cell volume          =    6507.6603 (a.u.)^3
     number of atoms/cell      =           12
     number of atomic types    =            2
     number of electrons       =       177.00
     number of Kohn-Sham states=          118
     kinetic-energy cutoff     =      36.7493  Ry
     charge density cutoff     =     367.4932  Ry
     convergence threshold     =      1.0E-06
     mixing beta               =       0.1000
     number of iterations used =           10  plain     mixing
     Exchange-correlation      = BEEF-VDW ( 1  4 27 13 2)
     nstep                     =           50

     celldm(1)=   1.889726  celldm(2)=   0.000000  celldm(3)=   0.000000
     celldm(4)=   0.000000  celldm(5)=   0.000000  celldm(6)=   0.000000

     crystal axes: (cart. coord. in units of alat)
               a(1) = (   6.620406   0.000000   0.000000 )
               a(2) = (  -3.310203   5.733440   0.000000 )
               a(3) = (   0.000000   0.000000  25.405539 )

     reciprocal axes: (cart. coord. in units 2 pi/alat)
               b(1) = (  0.151048  0.087208  0.000000 )
               b(2) = (  0.000000  0.174415  0.000000 )
               b(3) = (  0.000000  0.000000  0.039361 )

     PseudoPot. # 1 for In read from file:
     /afs/slac.stanford.edu/u/if/mamunm/psp/gbrv1.5pbe/In.UPF
     MD5 check sum: 90777abd96fbb83f2e67db2a40c566b9
     Pseudo is Ultrasoft + core correction, Zval = 13.0
     Generated by new atomic code, or converted to UPF format
     Using radial grid of  889 points,  6 beta functions with:
                l(1) =   0
                l(2) =   0
                l(3) =   1
                l(4) =   1
                l(5) =   2
                l(6) =   2
     Q(r) pseudized with  6 coefficients,  rinner =    1.400   1.400   1.400
                                                       1.400   1.400

     PseudoPot. # 2 for Zn read from file:
     /afs/slac.stanford.edu/u/if/mamunm/psp/gbrv1.5pbe/Zn.UPF
     MD5 check sum: df62231357ef9e81f77b2b3087fa5675
     Pseudo is Ultrasoft, Zval = 20.0
     Generated by new atomic code, or converted to UPF format
     Using radial grid of  943 points,  6 beta functions with:
                l(1) =   0
                l(2) =   0
                l(3) =   1
                l(4) =   1
                l(5) =   2
                l(6) =   2
     Q(r) pseudized with  8 coefficients,  rinner =    1.100   1.100   1.100
                                                       1.100   1.100

     vdW kernel table read from file vdW_kernel_table
     MD5 check sum: 095c7af220d748ca6e76c0b4c6cfb241

     atomic species   valence    mass     pseudopotential
        In1           13.00   114.81800     In( 1.00)
        Zn1           20.00    65.38000     Zn( 1.00)

     No symmetry found

   Cartesian axes

     site n.     atom                  positions (alat units)
         1           In1 tau(   1) = (   0.0000000   0.0000000  10.0000000  )
         2           In1 tau(   2) = (  -1.6551015   2.8667198  10.0000000  )
         3           In1 tau(   3) = (   1.6551015   2.8667198  10.0000000  )
         4           Zn1 tau(   4) = (   3.3102029   0.0000000  10.0000000  )
         5           In1 tau(   5) = (   3.3102029   1.9111466  12.7027694  )
         6           In1 tau(   6) = (   1.6551015   4.7778664  12.7027694  )
         7           In1 tau(   7) = (  -1.6551015   4.7778664  12.7027694  )
         8           Zn1 tau(   8) = (   0.0000000   1.9111466  12.7027694  )
         9           In1 tau(   9) = (   0.0000000   3.8222931  15.4055388  )
        10           In1 tau(  10) = (   1.6551015   0.9555733  15.4055388  )
        11           In1 tau(  11) = (   4.9653044   0.9555733  15.4055388  )
        12           Zn1 tau(  12) = (   3.3102029   3.8222931  15.4055388  )

     number of k points=    20  Fermi-Dirac smearing, width (Ry)=  0.0110
                       cart. coord. in units 2pi/alat
        k(    1) = (   0.0000000   0.0000000   0.0000000), wk =   0.0555556
        k(    2) = (   0.0000000   0.0290692   0.0000000), wk =   0.1111111
        k(    3) = (   0.0000000   0.0581385   0.0000000), wk =   0.1111111
        k(    4) = (   0.0000000  -0.0872077   0.0000000), wk =   0.0555556
        k(    5) = (   0.0251747   0.0145346   0.0000000), wk =   0.1111111
        k(    6) = (   0.0251747   0.0436038   0.0000000), wk =   0.1111111
        k(    7) = (   0.0251747   0.0726731   0.0000000), wk =   0.1111111
        k(    8) = (   0.0251747  -0.0726731   0.0000000), wk =   0.1111111
        k(    9) = (   0.0251747  -0.0436038   0.0000000), wk =   0.1111111
        k(   10) = (   0.0251747  -0.0145346   0.0000000), wk =   0.1111111
        k(   11) = (   0.0503494   0.0290692   0.0000000), wk =   0.1111111
        k(   12) = (   0.0503494   0.0581385   0.0000000), wk =   0.1111111
        k(   13) = (   0.0503494   0.0872077   0.0000000), wk =   0.1111111
        k(   14) = (   0.0503494  -0.0581385   0.0000000), wk =   0.1111111
        k(   15) = (   0.0503494  -0.0290692   0.0000000), wk =   0.1111111
        k(   16) = (   0.0503494   0.0000000   0.0000000), wk =   0.1111111
        k(   17) = (  -0.0755241  -0.0436038   0.0000000), wk =   0.0555556
        k(   18) = (  -0.0755241  -0.0145346   0.0000000), wk =   0.1111111
        k(   19) = (  -0.0755241   0.0145346   0.0000000), wk =   0.1111111
        k(   20) = (  -0.0755241  -0.1308115   0.0000000), wk =   0.0555556

     Largest allocated arrays     est. size (Mb)     dimensions
     Largest temporary arrays     est. size (Mb)     dimensions

     Initial potential from superposition of free atoms
     Check: negative starting charge=   -0.000575

     starting charge  163.49957, renormalised to  177.00000

     negative rho (up, down):  6.221E-04 0.000E+00

     *
     * You are using vdW-DF for exchange-correlation in this calculation.
     * Please cite the following three references that made this development
     * possible:
     *
     *   M. Dion, H. Rydberg, E. Schroder, D. C. Langreth, and
     *   B. I. Lundqvist, Phys. Rev. Lett. 92, 246401 (2004).
     *
     *   T. Thonhauser, V. R. Cooper, S. Li, A. Puzder, P. Hyldgaard, and
     *   D. C. Langreth, Phys. Rev. B 76, 125112 (2007).
     *
     *   G. Roman-Perez and J. M. Soler, Phys. Rev. Lett. 103, 096102 (2009).
     *
     *
     * If you are using vdW-DF2, please also cite:
     *
     *   K. Lee, E. D. Murray, L. Kong, B. I. Lundqvist, and
     *   D. C. Langreth, Phys. Rev. B 82, 081101(R) (2010).
     *
     *
     * If you are calculating the stress with vdW-DF, please also cite:
     *
     *   R. Sabatini, E. Kucukbenli, B. Kolb, T. Thonhauser, and
     *   S. de Gironcoli, J. Phys.: Condens. Matter 24, 424209 (2012).
     *

     Carrying out vdW-DF run using the following parameters:

     Nqs =      20    Nr_points =    1024   r_max =   100.000
     q_mesh =
               0.00001000     0.04494208     0.09755937     0.15916263
               0.23128650     0.31572767     0.41458969     0.53033537
               0.66584808     0.82450364     1.01025438     1.22772762
               1.48234092     1.78043706     2.12944203     2.53805004
               3.01644009     3.57652955     4.23227104     5.00000000

     Gradients computed in reciprocal space

     Adding external electric field

     Computed dipole along edir(3) :
        Dipole               -0.0000 Ry au,         -0.0000 Debye
        Dipole field         -0.0000 Ry au

        Potential amp.        0.0000 Ry
        Total length         46.8093 bohr

     Starting wfc are  120 randomized atomic wfcs

     Self-consistent Calculation

     iteration #  1     ecut=    36.75 Ry     beta=0.10
     Davidson diagonalization with overlap
     ethr =  1.00E-02,  avg # of iterations =  8.8

[...]

     total energy              =   -2577.58594511 Ry
     Harris-Foulkes estimate   =   -2663.89709380 Ry
     estimated scf accuracy    <     482.29368964 Ry

[...]

     End of self-consistent calculation

          k = 0.0000 0.0000 0.0000 ( 24381 PWs)   bands (ev):

  -126.1353-125.9879-125.9877 -80.3167 -80.3167 -80.3144 -80.1747 -80.1743
   -80.1676 -80.1676 -80.1674 -80.1674 -14.8926 -14.8705 -14.8705 -14.8513
   -14.8363 -14.8148 -14.7905 -14.7905 -14.7790 -14.7790 -14.7773 -14.7559
   -14.7559 -14.7371 -14.7371 -14.7298 -14.7214 -14.6903 -14.6755 -14.6755
   -14.6419 -14.6250 -14.6175 -14.6175 -14.5957 -14.5957 -14.5957 -14.5815
   -14.5815 -14.5801 -14.5801 -14.5704 -14.5704 -14.5501 -14.5501 -14.5112
   -14.5112 -14.4963 -14.4955 -14.4955 -14.4523 -14.4504 -14.4504 -14.4236
   -14.4178  -8.4269  -7.2221  -7.0726  -7.0567  -7.0567  -7.0271  -7.0271
    -6.8977  -6.8962  -6.8962  -6.8897  -6.8897  -6.8705  -6.8705  -6.8669
    -6.8669  -6.7716  -5.0694  -3.8632  -3.8632  -3.5032  -3.5032  -3.0492
    -2.9995  -2.3293  -2.3293  -2.0097  -1.7469  -1.7469  -1.6489  -1.5101
    -0.2726  -0.2726  -0.0709   0.0041   0.0041   0.0172   1.2756   3.0780
     3.1546   3.1546   3.1883   3.1883   3.5505   3.6176   3.8596   4.4185
     4.7545   5.1864   5.3168   5.3168   5.6696   5.6696   5.8381   6.2604
     6.3233   6.5597   6.5630   6.6147   6.6147   6.7234

[...]

          k =-0.0755-0.0436 0.0000 ( 24480 PWs)   bands (ev):

[...]

     the Fermi energy is     0.2341 ev

!    total energy              =   -2601.24659497 Ry
     Harris-Foulkes estimate   =   -2601.24658633 Ry
     estimated scf accuracy    <       0.00000036 Ry

     The total energy is the sum of the following terms:

     one-electron contribution =  -12922.48645508 Ry
     hartree contribution      =    6514.09262619 Ry
     xc contribution           =    -481.99792400 Ry
     ewald contribution        =    4289.18273537 Ry
     electric field correction =       0.00000000 Ry
     smearing contrib. (-TS)   =      -0.03757747 Ry

     convergence has been achieved in  17 iterations

 BEEF-vdW xc energy contributions
           1 :   -423.868215781617
           2 :    386.257016806521
           3 :   -322.992955900503
           4 :    252.232947400992
           5 :   -190.313960487886
           6 :    145.671685943487
           7 :   -117.407578148544
           8 :    98.5058737752710
           9 :   -81.2854038165161
          10 :    61.7949462581743
          11 :   -40.9729501422980
          12 :    22.6057471059311
          13 :   -10.0004850610905
          14 :    3.69592361614366
[...]
     MD5 check sum: 90777abd96fbb83f2e67db2a40c566b9
     Pseudo is Ultrasoft + core correction, Zval = 13.0
     Generated by new atomic code, or converted to UPF format
     Using radial grid of  889 points,  6 beta functions with:
                l(1) =   0
                l(2) =   0
                l(3) =   1
                l(4) =   1
                l(5) =   2
                l(6) =   2
     Q(r) pseudized with  6 coefficients,  rinner =    1.400   1.400   1.400
                                                       1.400   1.400

     PseudoPot. # 2 for Zn read from file:
     /afs/slac.stanford.edu/u/if/mamunm/psp/gbrv1.5pbe/Zn.UPF
     MD5 check sum: df62231357ef9e81f77b2b3087fa5675
     Pseudo is Ultrasoft, Zval = 20.0
     Generated by new atomic code, or converted to UPF format
     Using radial grid of  943 points,  6 beta functions with:
                l(1) =   0
                l(2) =   0
                l(3) =   1
                l(4) =   1
                l(5) =   2
                l(6) =   2
     Q(r) pseudized with  8 coefficients,  rinner =    1.100   1.100   1.100
                                                       1.100   1.100

     vdW kernel table read from file vdW_kernel_table
     MD5 check sum: 095c7af220d748ca6e76c0b4c6cfb241

     atomic species   valence    mass     pseudopotential
        In1           13.00   114.81800     In( 1.00)
        Zn1           20.00    65.38000     Zn( 1.00)

     No symmetry found

   Cartesian axes

     site n.     atom                  positions (alat units)
         1           In1 tau(   1) = (   0.0000000   0.0000000  10.0000000  )
         2           In1 tau(   2) = (  -1.6551015   2.8667198  10.0000000  )
         3           In1 tau(   3) = (   1.6551015   2.8667198  10.0000000  )
         4           Zn1 tau(   4) = (   3.3102029   0.0000000  10.0000000  )
         5           In1 tau(   5) = (   3.3102029   1.9111466  12.7027694  )
         6           In1 tau(   6) = (   1.6551015   4.7778664  12.7027694  )
         7           In1 tau(   7) = (  -1.6551015   4.7778664  12.7027694  )
         8           Zn1 tau(   8) = (   0.0000000   1.9111466  12.7027694  )
         9           In1 tau(   9) = (  -0.0000011   3.8039892  15.4828306  )
        10           In1 tau(  10) = (   1.6392499   0.9647267  15.4828317  )
        11           In1 tau(  11) = (   4.9811573   0.9647240  15.4828269  )
        12           Zn1 tau(  12) = (   3.3102057   3.8222967  15.3471268  )

     number of k points=    20  Fermi-Dirac smearing, width (Ry)=  0.0110
                       cart. coord. in units 2pi/alat
        k(    1) = (   0.0000000   0.0000000   0.0000000), wk =   0.0555556
        k(    2) = (   0.0000000   0.0290692   0.0000000), wk =   0.1111111
        k(    3) = (   0.0000000   0.0581385   0.0000000), wk =   0.1111111
        k(    4) = (   0.0000000  -0.0872077   0.0000000), wk =   0.0555556
        k(    5) = (   0.0251747   0.0145346   0.0000000), wk =   0.1111111
        k(    6) = (   0.0251747   0.0436038   0.0000000), wk =   0.1111111
        k(    7) = (   0.0251747   0.0726731   0.0000000), wk =   0.1111111
        k(    8) = (   0.0251747  -0.0726731   0.0000000), wk =   0.1111111
        k(    9) = (   0.0251747  -0.0436038   0.0000000), wk =   0.1111111
        k(   10) = (   0.0251747  -0.0145346   0.0000000), wk =   0.1111111
        k(   11) = (   0.0503494   0.0290692   0.0000000), wk =   0.1111111
        k(   12) = (   0.0503494   0.0581385   0.0000000), wk =   0.1111111
        k(   13) = (   0.0503494   0.0872077   0.0000000), wk =   0.1111111
        k(   14) = (   0.0503494  -0.0581385   0.0000000), wk =   0.1111111
        k(   15) = (   0.0503494  -0.0290692   0.0000000), wk =   0.1111111
        k(   16) = (   0.0503494   0.0000000   0.0000000), wk =   0.1111111
        k(   17) = (  -0.0755241  -0.0436038   0.0000000), wk =   0.0555556
        k(   18) = (  -0.0755241  -0.0145346   0.0000000), wk =   0.1111111
        k(   19) = (  -0.0755241   0.0145346   0.0000000), wk =   0.1111111
        k(   20) = (  -0.0755241  -0.1308115   0.0000000), wk =   0.0555556

     Largest allocated arrays     est. size (Mb)     dimensions
     Largest temporary arrays     est. size (Mb)     dimensions

     Initial potential from superposition of free atoms
     Check: negative starting charge=   -0.000566

     starting charge  163.49957, renormalised to  177.00000

[...]

     *
     * You are using vdW-DF for exchange-correlation in this calculation.
     * Please cite the following three references that made this development
     * possible:
     *
     *   M. Dion, H. Rydberg, E. Schroder, D. C. Langreth, and
     *   B. I. Lundqvist, Phys. Rev. Lett. 92, 246401 (2004).
     *
     *   T. Thonhauser, V. R. Cooper, S. Li, A. Puzder, P. Hyldgaard, and
     *   D. C. Langreth, Phys. Rev. B 76, 125112 (2007).
     *
     *   G. Roman-Perez and J. M. Soler, Phys. Rev. Lett. 103, 096102 (2009).
     *
     *
     * If you are using vdW-DF2, please also cite:
     *
     *   K. Lee, E. D. Murray, L. Kong, B. I. Lundqvist, and
     *   D. C. Langreth, Phys. Rev. B 82, 081101(R) (2010).
     *
     *
     * If you are calculating the stress with vdW-DF, please also cite:
     *
     *   R. Sabatini, E. Kucukbenli, B. Kolb, T. Thonhauser, and
     *   S. de Gironcoli, J. Phys.: Condens. Matter 24, 424209 (2012).
     *

     Carrying out vdW-DF run using the following parameters:

     Nqs =      20    Nr_points =    1024   r_max =   100.000
     q_mesh =
               0.00001000     0.04494208     0.09755937     0.15916263
               0.23128650     0.31572767     0.41458969     0.53033537
               0.66584808     0.82450364     1.01025438     1.22772762
               1.48234092     1.78043706     2.12944203     2.53805004
               3.01644009     3.57652955     4.23227104     5.00000000

     Gradients computed in reciprocal space

[...]

     Starting wfc are  120 randomized atomic wfcs

     Self-consistent Calculation

[...]

     total energy              =   -2601.24801231 Ry
     Harris-Foulkes estimate   =   -2601.24801089 Ry
     estimated scf accuracy    <       0.00000142 Ry

     iteration # 19     ecut=    36.75 Ry     beta=0.10
     Davidson diagonalization with overlap
     ethr =  8.01E-10,  avg # of iterations =  2.0

[...]

     negative rho (up, down):  1.151E-03 0.000E+00

     Adding external electric field

     Computed dipole along edir(3) :
        Dipole                0.0112 Ry au,          0.0284 Debye
        Dipole field          0.0000 Ry au

        Potential amp.       -0.0020 Ry
        Total length         46.8093 bohr

     End of self-consistent calculation

[...]

          k = 0.0503 0.0000 0.0000 ( 24498 PWs)   bands (ev):

[...]

          k =-0.0755-0.1308 0.0000 ( 24480 PWs)   bands (ev):

  -126.1006-125.9887-125.9688 -80.2824 -80.2824 -80.2794 -80.1747 -80.1686
   -80.1685 -80.1559 -80.1485 -80.1485 -14.8353 -14.7895 -14.7798 -14.7703
   -14.7597 -14.7368 -14.7351 -14.7314 -14.7169 -14.7045 -14.6975 -14.6928
   -14.6792 -14.6672 -14.6612 -14.6600 -14.6516 -14.6415 -14.6361 -14.6256
   -14.6230 -14.6214 -14.6211 -14.6169 -14.6165 -14.6129 -14.6061 -14.5976
   -14.5949 -14.5884 -14.5862 -14.5851 -14.5738 -14.5571 -14.5556 -14.5531
   -14.5504 -14.5490 -14.5427 -14.5343 -14.5196 -14.5122 -14.4798 -14.4541
   -14.4251  -7.3002  -7.2002  -7.0294  -7.0114  -7.0054  -6.9903  -6.9505
    -6.9044  -6.8892  -6.8886  -6.8790  -6.8752  -6.8679  -6.8672  -6.8526
    -6.8266  -6.7841  -5.9372  -5.6953  -4.7636  -4.5732  -4.0384  -3.5785
    -3.5573  -2.9266  -1.9428  -1.3953  -0.2821  -0.2211   0.1881   0.4493
     0.6199   0.6913   1.3504   1.6265   1.7762   1.8077   2.2275   2.3618
     2.5560   2.7562   2.8802   3.1176   3.5351   3.6237   3.8554   3.8958
     4.0718   4.1313   4.2646   4.4150   4.4777   4.6673   4.8583   4.8960
     5.5061   5.5339   5.7100   5.8502   5.8925   6.0388

     the Fermi energy is     0.2516 ev

!    total energy              =   -2601.24801852 Ry
     Harris-Foulkes estimate   =   -2601.24801257 Ry
     estimated scf accuracy    <       0.00000022 Ry

     The total energy is the sum of the following terms:

     one-electron contribution =  -12870.00791940 Ry
     hartree contribution      =    6487.95401146 Ry
     xc contribution           =    -481.97004445 Ry
     ewald contribution        =    4262.81355260 Ry
     electric field correction =       0.00000024 Ry
     smearing contrib. (-TS)   =      -0.03761897 Ry

     convergence has been achieved in  19 iterations

 BEEF-vdW xc energy contributions
           1 :   -423.838264580868
           2 :    386.207960750167
           3 :   -322.922072828287
           4 :    252.157788844909
           5 :   -190.260535977736
           6 :    145.656165927556
           7 :   -117.424811069425
           8 :    98.5328637010364
           9 :   -81.2971278317269
          10 :    61.7808462392773
          11 :   -40.9422995417180
          12 :    22.5787392482276
          13 :   -9.99286436220729
          14 :    3.70846329179113
          15 :   -1.46720921605629
          16 :   4.674439038785749E-002
          17 :    2.64590535250494
          18 :   -6.63696171225183
          19 :    10.4877349522372
          20 :   -12.7199577265714
          21 :    12.9296594873784
          22 :   -11.8925234116658
          23 :    10.7973561503885
          24 :   -10.3423793908157
          25 :    10.3903115396874
          26 :   -10.3336469220361
          27 :    9.74700298880254
          28 :   -8.75118049902488
          29 :    7.83189585762938
          30 :   -7.34367579843803
          31 :   -36.8395482696744
          32 :   -26.2570847154533

     Forces acting on atoms (Ry/au):

     negative rho (up, down):  1.151E-03 0.000E+00
     atom    1 type  1   force =    -0.00000002    0.00416072   -0.00442319
     atom    2 type  1   force =     0.00360329   -0.00208027   -0.00442299
     atom    3 type  1   force =    -0.00360321   -0.00208023   -0.00442311
     atom    4 type  2   force =    -0.00000002   -0.00000002    0.00236439
     atom    5 type  1   force =     0.00000000   -0.00222570    0.00362673
     atom    6 type  1   force =    -0.00192745    0.00111273    0.00362668
     atom    7 type  1   force =     0.00192758    0.00111273    0.00362669
     atom    8 type  2   force =    -0.00000014    0.00000015    0.00143050
     atom    9 type  1   force =     0.00000001    0.00042956    0.00000153
     atom   10 type  1   force =     0.00037220   -0.00021476    0.00000134
     atom   11 type  1   force =    -0.00037214   -0.00021483    0.00000178
     atom   12 type  2   force =    -0.00000010   -0.00000008   -0.00141034

     Total force =     0.013233     Total SCF correction =     0.002455
     SCF correction compared to forces is large: reduce conv_thr to get better values

     entering subroutine stress ...

     negative rho (up, down):  1.151E-03 0.000E+00
          total   stress  (Ry/bohr**3)                   (kbar)     P=   -4.23
  -0.00004100   0.00000000   0.00000000         -6.03      0.00      0.00
   0.00000000  -0.00004100  -0.00000000          0.00     -6.03     -0.00
   0.00000000  -0.00000000  -0.00000424          0.00     -0.00     -0.62

 !ASE

     Writing output data file calc.save

     General routines

     Parallel routines

   This run was terminated on:  17: 7: 4  26Dec2018

   JOB DONE.
Job  /afs/slac/g/suncat/bin/suncat-tsmpirun -x LD_LIBRARY_PATH -wdir /scratch/qe109915_30FgB pw.x -in pw.inp

TID   HOST_NAME   COMMAND_LINE            STATUS            TERMINATION_TIME
00000 suncat0087 pw.x -in pw.inp   Done                     12/26/2018 17:07:04
00001 suncat0087 pw.x -in pw.inp   Done                     12/26/2018 17:07:04
00002 suncat0087 pw.x -in pw.inp   Done                     12/26/2018 17:07:04
00003 suncat0087 pw.x -in pw.inp   Done                     12/26/2018 17:07:04
00004 suncat0087 pw.x -in pw.inp   Done                     12/26/2018 17:07:04
00005 suncat0087 pw.x -in pw.inp   Done                     12/26/2018 17:07:04
00006 suncat0087 pw.x -in pw.inp   Done                     12/26/2018 17:07:04
00007 suncat0087 pw.x -in pw.inp   Done                     12/26/2018 17:07:04
00008 suncat0086 pw.x -in pw.inp   Done                     12/26/2018 17:07:04
00009 suncat0086 pw.x -in pw.inp   Done                     12/26/2018 17:07:04
00010 suncat0086 pw.x -in pw.inp   Done                     12/26/2018 17:07:04
00011 suncat0086 pw.x -in pw.inp   Done                     12/26/2018 17:07:04
00012 suncat0086 pw.x -in pw.inp   Done                     12/26/2018 17:07:04
00013 suncat0086 pw.x -in pw.inp   Done                     12/26/2018 17:07:04
00014 suncat0086 pw.x -in pw.inp   Done                     12/26/2018 17:07:04
00015 suncat0086 pw.x -in pw.inp   Done                     12/26/2018 17:07:04
00016 suncat0085 pw.x -in pw.inp   Done                     12/26/2018 17:07:04
00017 suncat0085 pw.x -in pw.inp   Done                     12/26/2018 17:07:04
00018 suncat0085 pw.x -in pw.inp   Done                     12/26/2018 17:07:04
00019 suncat0085 pw.x -in pw.inp   Done                     12/26/2018 17:07:04
00020 suncat0085 pw.x -in pw.inp   Done                     12/26/2018 17:07:04
00021 suncat0085 pw.x -in pw.inp   Done                     12/26/2018 17:07:04
00022 suncat0085 pw.x -in pw.inp   Done                     12/26/2018 17:07:04
00023 suncat0085 pw.x -in pw.inp   Done                     12/26/2018 17:07:04
00024 suncat0084 pw.x -in pw.inp   Done                     12/26/2018 17:07:04
00025 suncat0084 pw.x -in pw.inp   Done                     12/26/2018 17:07:04
00026 suncat0084 pw.x -in pw.inp   Done                     12/26/2018 17:07:04
00027 suncat0084 pw.x -in pw.inp   Done                     12/26/2018 17:07:04
00028 suncat0084 pw.x -in pw.inp   Done                     12/26/2018 17:07:04
00029 suncat0084 pw.x -in pw.inp   Done                     12/26/2018 17:07:04
00030 suncat0084 pw.x -in pw.inp   Done                     12/26/2018 17:07:04
00031 suncat0084 pw.x -in pw.inp   Done                     12/26/2018 17:07:04
00032 suncat0073 pw.x -in pw.inp   Done                     12/26/2018 17:07:04
00033 suncat0073 pw.x -in pw.inp   Done                     12/26/2018 17:07:04
00034 suncat0073 pw.x -in pw.inp   Done                     12/26/2018 17:07:04
00035 suncat0073 pw.x -in pw.inp   Done                     12/26/2018 17:07:04
00036 suncat0073 pw.x -in pw.inp   Done                     12/26/2018 17:07:04
00037 suncat0073 pw.x -in pw.inp   Done                     12/26/2018 17:07:04
00038 suncat0073 pw.x -in pw.inp   Done                     12/26/2018 17:07:04
00039 suncat0073 pw.x -in pw.inp   Done                     12/26/2018 17:07:04
00040 suncat0244 pw.x -in pw.inp   Done                     12/26/2018 17:07:04
00041 suncat0244 pw.x -in pw.inp   Done                     12/26/2018 17:07:04
00042 suncat0244 pw.x -in pw.inp   Done                     12/26/2018 17:07:04
00043 suncat0244 pw.x -in pw.inp   Done                     12/26/2018 17:07:04
00044 suncat0244 pw.x -in pw.inp   Done                     12/26/2018 17:07:04
00045 suncat0244 pw.x -in pw.inp   Done                     12/26/2018 17:07:04
00046 suncat0244 pw.x -in pw.inp   Done                     12/26/2018 17:07:04
00047 suncat0244 pw.x -in pw.inp   Done                     12/26/2018 17:07:04
00048 suncat0243 pw.x -in pw.inp   Done                     12/26/2018 17:07:04
00049 suncat0243 pw.x -in pw.inp   Done                     12/26/2018 17:07:04
00050 suncat0243 pw.x -in pw.inp   Done                     12/26/2018 17:07:04
00051 suncat0243 pw.x -in pw.inp   Done                     12/26/2018 17:07:04
00052 suncat0243 pw.x -in pw.inp   Done                     12/26/2018 17:07:04
00053 suncat0243 pw.x -in pw.inp   Done                     12/26/2018 17:07:04
00054 suncat0243 pw.x -in pw.inp   Done                     12/26/2018 17:07:04
00055 suncat0243 pw.x -in pw.inp   Done                     12/26/2018 17:07:04
00056 suncat0242 pw.x -in pw.inp   Done                     12/26/2018 17:07:04
00057 suncat0242 pw.x -in pw.inp   Done                     12/26/2018 17:07:04
00058 suncat0242 pw.x -in pw.inp   Done                     12/26/2018 17:07:04
00059 suncat0242 pw.x -in pw.inp   Done                     12/26/2018 17:07:04
00060 suncat0242 pw.x -in pw.inp   Done                     12/26/2018 17:07:04
00061 suncat0242 pw.x -in pw.inp   Done                     12/26/2018 17:07:04
00062 suncat0242 pw.x -in pw.inp   Done                     12/26/2018 17:07:04
00063 suncat0242 pw.x -in pw.inp   Done                     12/26/2018 17:07:04