     Program PWSCF v.5.1rc2 (svn rev. 11289) starts on 25Dec2018 at 20:29:59

     Current dimensions of program PWSCF are:
     Max number of different atomic species (ntypx) = 10
     Max number of k-points (npk) =  40000
     Max angular momentum in pseudopotentials (lmaxx) =  3
     Presently stress not available with electric field

     IMPORTANT: XC functional enforced from input :
     Exchange-correlation      = BEEF-VDW ( 1  4 27 13 2)
     Any further DFT definition will be discarded
     Please, verify this is what you really want

     Subspace diagonalization in iterative solution of the eigenvalue problem:
     a serial algorithm will be used

     Generating pointlists ...
     new r_m :   0.4125 (alat units)  0.7795 (a.u.) for type    1
     new r_m :   0.4125 (alat units)  0.7795 (a.u.) for type    2

     bravais-lattice index     =            0
     lattice parameter (alat)  =       1.8897  a.u.
     unit-cell volume          =    3956.2390 (a.u.)^3
     number of atoms/cell      =           12
     number of atomic types    =            2
     number of electrons       =       192.00
     number of Kohn-Sham states=          126
     kinetic-energy cutoff     =      36.7493  Ry
     charge density cutoff     =     367.4932  Ry
     convergence threshold     =      1.0E-06
     mixing beta               =       0.1000
     number of iterations used =           10  plain     mixing
     Exchange-correlation      = BEEF-VDW ( 1  4 27 13 2)
     nstep                     =           50

     celldm(1)=   1.889726  celldm(2)=   0.000000  celldm(3)=   0.000000
     celldm(4)=   0.000000  celldm(5)=   0.000000  celldm(6)=   0.000000

     crystal axes: (cart. coord. in units of alat)
               a(1) = (   5.277113   0.000000   0.000000 )
               a(2) = (  -2.638556   4.570114   0.000000 )
               a(3) = (   0.000000   0.000000  24.308745 )

     reciprocal axes: (cart. coord. in units 2 pi/alat)
               b(1) = (  0.189498  0.109406  0.000000 )
               b(2) = (  0.000000  0.218813  0.000000 )
               b(3) = (  0.000000  0.000000  0.041137 )

     PseudoPot. # 1 for Fe read from file:
     /afs/slac.stanford.edu/u/if/mamunm/psp/gbrv1.5pbe/Fe.UPF
     MD5 check sum: a130daea23fe5165f5d574ae7f82ed95
     Pseudo is Ultrasoft + core correction, Zval = 16.0
     Generated by new atomic code, or converted to UPF format
     Using radial grid of  861 points,  6 beta functions with:
                l(1) =   0
                l(2) =   0
                l(3) =   1
                l(4) =   1
                l(5) =   2
                l(6) =   2
     Q(r) pseudized with  8 coefficients,  rinner =    1.000   1.000   1.000
                                                       1.000   1.000

     PseudoPot. # 2 for Pd read from file:
     /afs/slac.stanford.edu/u/if/mamunm/psp/gbrv1.5pbe/Pd.UPF
     MD5 check sum: 2d733d2bc2cbfd217af676df1668a4bc
     Pseudo is Ultrasoft + core correction, Zval = 16.0
     Generated by new atomic code, or converted to UPF format
     Using radial grid of  887 points,  6 beta functions with:
                l(1) =   0
                l(2) =   0
                l(3) =   1
                l(4) =   1
                l(5) =   2
                l(6) =   2
     Q(r) pseudized with  8 coefficients,  rinner =    1.130   1.130   1.130
                                                       1.130   1.130

     vdW kernel table read from file vdW_kernel_table
     MD5 check sum: 095c7af220d748ca6e76c0b4c6cfb241

     atomic species   valence    mass     pseudopotential
        Fe1           16.00    55.84500     Fe( 1.00)
        Pd1           16.00   106.42000     Pd( 1.00)

     Starting magnetic structure
     atomic species   magnetization
        Fe1          0.125
        Pd1          0.125

     No symmetry found

   Cartesian axes

     site n.     atom                  positions (alat units)
         1           Fe1 tau(   1) = (   0.0000000   0.0000000  10.0000000  )
         2           Fe1 tau(   2) = (  -1.3192782   2.2850569  10.0000000  )
         3           Fe1 tau(   3) = (   1.3192782   2.2850569  10.0000000  )
         4           Pd1 tau(   4) = (   2.6385564   0.0000000  10.0000000  )
         5           Fe1 tau(   5) = (   2.6385564   1.5233713  12.1543723  )
         6           Fe1 tau(   6) = (   1.3192782   3.8084281  12.1543723  )
         7           Fe1 tau(   7) = (  -1.3192782   3.8084281  12.1543723  )
         8           Pd1 tau(   8) = (   0.0000000   1.5233713  12.1543723  )
         9           Fe1 tau(   9) = (  -0.0000000   3.0467425  14.3087446  )
        10           Fe1 tau(  10) = (   1.3192782   0.7616856  14.3087446  )
        11           Fe1 tau(  11) = (   3.9578346   0.7616856  14.3087446  )
        12           Pd1 tau(  12) = (   2.6385564   3.0467425  14.3087446  )

     number of k points=    40  Fermi-Dirac smearing, width (Ry)=  0.0110
                       cart. coord. in units 2pi/alat
        k(    1) = (   0.0000000   0.0000000   0.0000000), wk =   0.0277778
        k(    2) = (   0.0000000   0.0364688   0.0000000), wk =   0.0555556
        k(    3) = (   0.0000000   0.0729376   0.0000000), wk =   0.0555556
        k(    4) = (   0.0000000  -0.1094065   0.0000000), wk =   0.0277778
        k(    5) = (   0.0315829   0.0182344   0.0000000), wk =   0.0555556
        k(    6) = (   0.0315829   0.0547032   0.0000000), wk =   0.0555556
        k(    7) = (   0.0315829   0.0911721   0.0000000), wk =   0.0555556
        k(    8) = (   0.0315829  -0.0911721   0.0000000), wk =   0.0555556
        k(    9) = (   0.0315829  -0.0547032   0.0000000), wk =   0.0555556
        k(   10) = (   0.0315829  -0.0182344   0.0000000), wk =   0.0555556
        k(   11) = (   0.0631659   0.0364688   0.0000000), wk =   0.0555556
        k(   12) = (   0.0631659   0.0729376   0.0000000), wk =   0.0555556
        k(   13) = (   0.0631659   0.1094065   0.0000000), wk =   0.0555556
        k(   14) = (   0.0631659  -0.0729376   0.0000000), wk =   0.0555556
        k(   15) = (   0.0631659  -0.0364688   0.0000000), wk =   0.0555556
        k(   16) = (   0.0631659   0.0000000   0.0000000), wk =   0.0555556
        k(   17) = (  -0.0947488  -0.0547032   0.0000000), wk =   0.0277778
        k(   18) = (  -0.0947488  -0.0182344   0.0000000), wk =   0.0555556
        k(   19) = (  -0.0947488   0.0182344   0.0000000), wk =   0.0555556
        k(   20) = (  -0.0947488  -0.1641097   0.0000000), wk =   0.0277778
        k(   21) = (   0.0000000   0.0000000   0.0000000), wk =   0.0277778
        k(   22) = (   0.0000000   0.0364688   0.0000000), wk =   0.0555556
        k(   23) = (   0.0000000   0.0729376   0.0000000), wk =   0.0555556
        k(   24) = (   0.0000000  -0.1094065   0.0000000), wk =   0.0277778
        k(   25) = (   0.0315829   0.0182344   0.0000000), wk =   0.0555556
        k(   26) = (   0.0315829   0.0547032   0.0000000), wk =   0.0555556
        k(   27) = (   0.0315829   0.0911721   0.0000000), wk =   0.0555556
        k(   28) = (   0.0315829  -0.0911721   0.0000000), wk =   0.0555556
        k(   29) = (   0.0315829  -0.0547032   0.0000000), wk =   0.0555556
        k(   30) = (   0.0315829  -0.0182344   0.0000000), wk =   0.0555556
        k(   31) = (   0.0631659   0.0364688   0.0000000), wk =   0.0555556
        k(   32) = (   0.0631659   0.0729376   0.0000000), wk =   0.0555556
        k(   33) = (   0.0631659   0.1094065   0.0000000), wk =   0.0555556
        k(   34) = (   0.0631659  -0.0729376   0.0000000), wk =   0.0555556
        k(   35) = (   0.0631659  -0.0364688   0.0000000), wk =   0.0555556
        k(   36) = (   0.0631659   0.0000000   0.0000000), wk =   0.0555556
        k(   37) = (  -0.0947488  -0.0547032   0.0000000), wk =   0.0277778
        k(   38) = (  -0.0947488  -0.0182344   0.0000000), wk =   0.0555556
        k(   39) = (  -0.0947488   0.0182344   0.0000000), wk =   0.0555556
        k(   40) = (  -0.0947488  -0.1641097   0.0000000), wk =   0.0277778

     Largest allocated arrays     est. size (Mb)     dimensions
     Largest temporary arrays     est. size (Mb)     dimensions

     Check: negative/imaginary core charge=   -0.000006    0.000000

     Initial potential from superposition of free atoms
     Check: negative starting charge=(component1):   -0.127518
     Check: negative starting charge=(component2):   -0.099181

     starting charge  181.49993, renormalised to  192.00000

     negative rho (up, down):  1.349E-01 1.049E-01

     *
     * You are using vdW-DF for exchange-correlation in this calculation.
     * Please cite the following three references that made this development
     * possible:
     *
     *   M. Dion, H. Rydberg, E. Schroder, D. C. Langreth, and
     *   B. I. Lundqvist, Phys. Rev. Lett. 92, 246401 (2004).
     *
     *   T. Thonhauser, V. R. Cooper, S. Li, A. Puzder, P. Hyldgaard, and
     *   D. C. Langreth, Phys. Rev. B 76, 125112 (2007).
     *
     *   G. Roman-Perez and J. M. Soler, Phys. Rev. Lett. 103, 096102 (2009).
     *
     *
     * If you are using vdW-DF2, please also cite:
     *
     *   K. Lee, E. D. Murray, L. Kong, B. I. Lundqvist, and
     *   D. C. Langreth, Phys. Rev. B 82, 081101(R) (2010).
     *
     *
     * If you are calculating the stress with vdW-DF, please also cite:
     *
     *   R. Sabatini, E. Kucukbenli, B. Kolb, T. Thonhauser, and
     *   S. de Gironcoli, J. Phys.: Condens. Matter 24, 424209 (2012).
     *

     Carrying out vdW-DF run using the following parameters:

     Nqs =      20    Nr_points =    1024   r_max =   100.000
     q_mesh =
               0.00001000     0.04494208     0.09755937     0.15916263
               0.23128650     0.31572767     0.41458969     0.53033537
               0.66584808     0.82450364     1.01025438     1.22772762
               1.48234092     1.78043706     2.12944203     2.53805004
               3.01644009     3.57652955     4.23227104     5.00000000

     Gradients computed in reciprocal space

     Adding external electric field

     Computed dipole along edir(3) :
        Dipole               -0.0000 Ry au,         -0.0000 Debye
        Dipole field         -0.0000 Ry au

        Potential amp.        0.0000 Ry
        Total length         44.7884 bohr

[...]

     Starting wfc are  153 randomized atomic wfcs

     Self-consistent Calculation

     iteration #  1     ecut=    36.75 Ry     beta=0.10
     Davidson diagonalization with overlap
     ethr =  1.00E-02,  avg # of iterations =  7.7

[...]

     Magnetic moment per site:
     atom:    1    charge:    7.3413    magn:    0.8758    constr:    0.0000
     atom:    2    charge:    7.3413    magn:    0.8758    constr:    0.0000
     atom:    3    charge:    7.3413    magn:    0.8758    constr:    0.0000
     atom:    4    charge:    3.3446    magn:    0.3927    constr:    0.0000
     atom:    5    charge:    7.3300    magn:    0.8731    constr:    0.0000
     atom:    6    charge:    7.3300    magn:    0.8731    constr:    0.0000
     atom:    7    charge:    7.3300    magn:    0.8731    constr:    0.0000
     atom:    8    charge:    3.3474    magn:    0.3934    constr:    0.0000
[...]
        k(    4) = (   0.0000000  -0.1094065   0.0000000), wk =   0.0277778
        k(    5) = (   0.0315829   0.0182344   0.0000000), wk =   0.0555556
        k(    6) = (   0.0315829   0.0547032   0.0000000), wk =   0.0555556
        k(    7) = (   0.0315829   0.0911721   0.0000000), wk =   0.0555556
        k(    8) = (   0.0315829  -0.0911721   0.0000000), wk =   0.0555556
        k(    9) = (   0.0315829  -0.0547032   0.0000000), wk =   0.0555556
        k(   10) = (   0.0315829  -0.0182344   0.0000000), wk =   0.0555556
        k(   11) = (   0.0631659   0.0364688   0.0000000), wk =   0.0555556
        k(   12) = (   0.0631659   0.0729376   0.0000000), wk =   0.0555556
        k(   13) = (   0.0631659   0.1094065   0.0000000), wk =   0.0555556
        k(   14) = (   0.0631659  -0.0729376   0.0000000), wk =   0.0555556
        k(   15) = (   0.0631659  -0.0364688   0.0000000), wk =   0.0555556
        k(   16) = (   0.0631659   0.0000000   0.0000000), wk =   0.0555556
        k(   17) = (  -0.0947488  -0.0547032   0.0000000), wk =   0.0277778
        k(   18) = (  -0.0947488  -0.0182344   0.0000000), wk =   0.0555556
        k(   19) = (  -0.0947488   0.0182344   0.0000000), wk =   0.0555556
        k(   20) = (  -0.0947488  -0.1641097   0.0000000), wk =   0.0277778
        k(   21) = (   0.0000000   0.0000000   0.0000000), wk =   0.0277778
        k(   22) = (   0.0000000   0.0364688   0.0000000), wk =   0.0555556
        k(   23) = (   0.0000000   0.0729376   0.0000000), wk =   0.0555556
        k(   24) = (   0.0000000  -0.1094065   0.0000000), wk =   0.0277778
        k(   25) = (   0.0315829   0.0182344   0.0000000), wk =   0.0555556
        k(   26) = (   0.0315829   0.0547032   0.0000000), wk =   0.0555556
        k(   27) = (   0.0315829   0.0911721   0.0000000), wk =   0.0555556
        k(   28) = (   0.0315829  -0.0911721   0.0000000), wk =   0.0555556
        k(   29) = (   0.0315829  -0.0547032   0.0000000), wk =   0.0555556
        k(   30) = (   0.0315829  -0.0182344   0.0000000), wk =   0.0555556
        k(   31) = (   0.0631659   0.0364688   0.0000000), wk =   0.0555556
        k(   32) = (   0.0631659   0.0729376   0.0000000), wk =   0.0555556
        k(   33) = (   0.0631659   0.1094065   0.0000000), wk =   0.0555556
        k(   34) = (   0.0631659  -0.0729376   0.0000000), wk =   0.0555556
        k(   35) = (   0.0631659  -0.0364688   0.0000000), wk =   0.0555556
        k(   36) = (   0.0631659   0.0000000   0.0000000), wk =   0.0555556
        k(   37) = (  -0.0947488  -0.0547032   0.0000000), wk =   0.0277778
        k(   38) = (  -0.0947488  -0.0182344   0.0000000), wk =   0.0555556
        k(   39) = (  -0.0947488   0.0182344   0.0000000), wk =   0.0555556
        k(   40) = (  -0.0947488  -0.1641097   0.0000000), wk =   0.0277778

     Largest allocated arrays     est. size (Mb)     dimensions
     Largest temporary arrays     est. size (Mb)     dimensions

     Check: negative/imaginary core charge=   -0.000006    0.000000

     Initial potential from superposition of free atoms
     Check: negative starting charge=(component1):   -0.127438
     Check: negative starting charge=(component2):   -0.099118

     starting charge  181.49993, renormalised to  192.00000

[...]

     *
     * You are using vdW-DF for exchange-correlation in this calculation.
     * Please cite the following three references that made this development
     * possible:
     *
     *   M. Dion, H. Rydberg, E. Schroder, D. C. Langreth, and
     *   B. I. Lundqvist, Phys. Rev. Lett. 92, 246401 (2004).
     *
     *   T. Thonhauser, V. R. Cooper, S. Li, A. Puzder, P. Hyldgaard, and
     *   D. C. Langreth, Phys. Rev. B 76, 125112 (2007).
     *
     *   G. Roman-Perez and J. M. Soler, Phys. Rev. Lett. 103, 096102 (2009).
     *
     *
     * If you are using vdW-DF2, please also cite:
     *
     *   K. Lee, E. D. Murray, L. Kong, B. I. Lundqvist, and
     *   D. C. Langreth, Phys. Rev. B 82, 081101(R) (2010).
     *
     *
     * If you are calculating the stress with vdW-DF, please also cite:
     *
     *   R. Sabatini, E. Kucukbenli, B. Kolb, T. Thonhauser, and
     *   S. de Gironcoli, J. Phys.: Condens. Matter 24, 424209 (2012).
     *

     Carrying out vdW-DF run using the following parameters:

     Nqs =      20    Nr_points =    1024   r_max =   100.000
     q_mesh =
               0.00001000     0.04494208     0.09755937     0.15916263
               0.23128650     0.31572767     0.41458969     0.53033537
               0.66584808     0.82450364     1.01025438     1.22772762
               1.48234092     1.78043706     2.12944203     2.53805004
               3.01644009     3.57652955     4.23227104     5.00000000

     Gradients computed in reciprocal space

[...]

     Starting wfc are  153 randomized atomic wfcs

     Self-consistent Calculation

[...]

     total energy              =   -2861.32980336 Ry
     Harris-Foulkes estimate   =   -2861.32980139 Ry
     estimated scf accuracy    <       0.00000185 Ry

[...]

     iteration # 28     ecut=    36.75 Ry     beta=0.10
     Davidson diagonalization with overlap
     ethr =  9.63E-10,  avg # of iterations =  2.0

[...]

     negative rho (up, down):  1.203E-01 1.192E-01

[...]

     Adding external electric field

     Computed dipole along edir(3) :
        Dipole               -0.0070 Ry au,         -0.0178 Debye
        Dipole field         -0.0000 Ry au

        Potential amp.        0.0020 Ry
        Total length         44.7884 bohr

     Magnetic moment per site:
     atom:    1    charge:    7.0999    magn:    1.4000    constr:    0.0000
     atom:    2    charge:    7.1000    magn:    1.3999    constr:    0.0000
     atom:    3    charge:    7.0998    magn:    1.4000    constr:    0.0000
     atom:    4    charge:    3.3136    magn:    0.0753    constr:    0.0000
     atom:    5    charge:    7.0936    magn:    1.3777    constr:    0.0000
     atom:    6    charge:    7.0936    magn:    1.3776    constr:    0.0000
     atom:    7    charge:    7.0936    magn:    1.3776    constr:    0.0000
     atom:    8    charge:    3.3127    magn:    0.0911    constr:    0.0000
     atom:    9    charge:    7.0945    magn:    1.3962    constr:    0.0000
     atom:   10    charge:    7.0945    magn:    1.3963    constr:    0.0000
     atom:   11    charge:    7.0946    magn:    1.3962    constr:    0.0000
     atom:   12    charge:    3.3048    magn:    0.0734    constr:    0.0000

     End of self-consistent calculation

 ------ SPIN UP ------------

[...]

 ------ SPIN DOWN ----------

[...]

          k = 0.0632 0.0000 0.0000 ( 14893 PWs)   bands (ev):

[...]

          k =-0.0947-0.1641 0.0000 ( 14850 PWs)   bands (ev):

   -84.1684 -84.1672 -84.1598 -84.1574 -84.1517 -84.1505 -84.1285 -84.1224
   -84.1154 -50.3486 -50.3450 -50.3394 -50.3233 -50.3208 -50.3177 -50.3176
   -50.3014 -50.2988 -50.2960 -50.2873 -50.2793 -50.2682 -50.2649 -50.2603
   -50.2508 -50.2359 -50.2284 -50.2263 -50.2236 -50.2188 -50.1900 -50.1703
   -50.1698 -50.1623 -50.1598 -50.1362 -49.4387 -49.4375 -49.4222 -49.1638
   -49.1523 -49.0993 -49.0885 -49.0586 -48.9755  -4.5543  -4.4174  -3.4567
    -3.1096  -2.9832  -2.9404  -2.6042  -2.5578  -2.5023  -2.2909  -2.2726
    -2.1266  -1.9943  -1.9390  -1.8386  -1.7413  -1.5756  -1.3523  -1.2929
    -1.0006  -0.9666  -0.7069  -0.3975  -0.1959  -0.0295   0.1995   0.2882
     0.3343   0.3613   0.4565   0.5238   0.5657   0.6113   0.7470   0.7587
     0.8232   0.9115   1.0191   1.0791   1.2163   1.2908   1.3898   1.4758
     1.6107   1.6480   1.6821   1.8579   1.8945   1.9487   2.0129   2.0974
     2.2077   2.2287   2.3428   2.3653   2.4239   2.4484   2.5593   2.6306
     2.6531   2.7306   2.9419   2.9600   3.1617   3.5625   3.6185   4.0594
     4.3424   4.6147   4.7714   5.2521   5.3289   6.3859   6.4634   6.7982
     6.8012   7.2913   7.3053   7.4727   7.4743   8.5425

     the Fermi energy is     1.1234 ev

!    total energy              =   -2861.32980800 Ry
     Harris-Foulkes estimate   =   -2861.32980362 Ry
     estimated scf accuracy    <       0.00000048 Ry

     The total energy is the sum of the following terms:

     one-electron contribution =  -24074.89167489 Ry
     hartree contribution      =   12048.28437073 Ry
     xc contribution           =    -370.40409037 Ry
     ewald contribution        =    9535.76234932 Ry
     electric field correction =       0.00000016 Ry
     smearing contrib. (-TS)   =      -0.08076294 Ry

     total magnetization       =    27.06 Bohr mag/cell
     absolute magnetization    =    28.48 Bohr mag/cell

     convergence has been achieved in  28 iterations

 BEEF-vdW xc energy contributions
           1 :   -323.881879737741
           2 :    293.740970503143
           3 :   -243.159542339992
           4 :    186.819467656977
           5 :   -137.955640770558
           6 :    103.617017018468
           7 :   -83.6416335060769
           8 :    73.0081773818719
           9 :   -65.6574080759266
          10 :    57.5795886912819
          11 :   -47.9137569552298
          12 :    38.0866610555347
          13 :   -30.0424033949223
          14 :    24.7855539960344
          15 :   -21.9678358366124
          16 :    20.4131030144753
          17 :   -18.9768851786281
          18 :    17.1154788558109
          19 :   -14.9398839096500
          20 :    12.8888943414997
          21 :   -11.3392360399125
          22 :    10.3776709294621
          23 :   -9.81200683944786
          24 :    9.33108766897749
          25 :   -8.69289445152833
          26 :    7.83396394204203
          27 :   -6.87697708120976
          28 :    6.04264188648568
          29 :   -5.51513589224140
          30 :    5.31673990620095
          31 :   -29.2055785597310
          32 :   -20.8728381756648

     Forces acting on atoms (Ry/au):

     negative rho (up, down):  1.203E-01 1.192E-01
     atom    1 type  1   force =     0.00001403   -0.00779313    0.00253749
     atom    2 type  1   force =    -0.00674721    0.00389653    0.00256313
     atom    3 type  1   force =     0.00675312    0.00388428    0.00253427
     atom    4 type  2   force =    -0.00000027    0.00000239   -0.01784409
     atom    5 type  1   force =    -0.00004227    0.00539450    0.00400708
     atom    6 type  1   force =     0.00467100   -0.00272759    0.00396573
     atom    7 type  1   force =    -0.00466167   -0.00267345    0.00401961
     atom    8 type  2   force =     0.00002007    0.00000132    0.00215246
     atom    9 type  1   force =    -0.00002225   -0.00040278   -0.00141124
     atom   10 type  1   force =    -0.00031114    0.00022593   -0.00141631
     atom   11 type  1   force =     0.00030839    0.00024867   -0.00140409
     atom   12 type  2   force =     0.00001820   -0.00005665    0.00029598

     Total force =     0.025813     Total SCF correction =     0.001561

     entering subroutine stress ...

     negative rho (up, down):  1.203E-01 1.192E-01
          total   stress  (Ry/bohr**3)                   (kbar)     P=   -5.22
  -0.00005052  -0.00000001  -0.00000001         -7.43     -0.00     -0.00
  -0.00000001  -0.00005053   0.00000000         -0.00     -7.43      0.00
  -0.00000001   0.00000000  -0.00000548         -0.00      0.00     -0.81

 !ASE

     Writing output data file calc.save

     General routines

     Parallel routines

   This run was terminated on:  23:18:33  25Dec2018

   JOB DONE.
Job  /afs/slac/g/suncat/bin/suncat-tsmpirun -x LD_LIBRARY_PATH -wdir /scratch/qe109636_bg0gY pw.x -in pw.inp

TID   HOST_NAME   COMMAND_LINE            STATUS            TERMINATION_TIME
00000 suncat0163 pw.x -in pw.inp   Done                     12/25/2018 23:18:33
00001 suncat0163 pw.x -in pw.inp   Done                     12/25/2018 23:18:33
00002 suncat0163 pw.x -in pw.inp   Done                     12/25/2018 23:18:33
00003 suncat0163 pw.x -in pw.inp   Done                     12/25/2018 23:18:33
00004 suncat0163 pw.x -in pw.inp   Done                     12/25/2018 23:18:33
00005 suncat0163 pw.x -in pw.inp   Done                     12/25/2018 23:18:33
00006 suncat0163 pw.x -in pw.inp   Done                     12/25/2018 23:18:33
00007 suncat0163 pw.x -in pw.inp   Done                     12/25/2018 23:18:33
00008 suncat0162 pw.x -in pw.inp   Done                     12/25/2018 23:18:33
00009 suncat0162 pw.x -in pw.inp   Done                     12/25/2018 23:18:33
00010 suncat0162 pw.x -in pw.inp   Done                     12/25/2018 23:18:33
00011 suncat0162 pw.x -in pw.inp   Done                     12/25/2018 23:18:33
00012 suncat0162 pw.x -in pw.inp   Done                     12/25/2018 23:18:33
00013 suncat0162 pw.x -in pw.inp   Done                     12/25/2018 23:18:33
00014 suncat0162 pw.x -in pw.inp   Done                     12/25/2018 23:18:33
00015 suncat0162 pw.x -in pw.inp   Done                     12/25/2018 23:18:33
00016 suncat0145 pw.x -in pw.inp   Done                     12/25/2018 23:18:33
00017 suncat0145 pw.x -in pw.inp   Done                     12/25/2018 23:18:33
00018 suncat0145 pw.x -in pw.inp   Done                     12/25/2018 23:18:33
00019 suncat0145 pw.x -in pw.inp   Done                     12/25/2018 23:18:33
00020 suncat0145 pw.x -in pw.inp   Done                     12/25/2018 23:18:33
00021 suncat0145 pw.x -in pw.inp   Done                     12/25/2018 23:18:33
00022 suncat0145 pw.x -in pw.inp   Done                     12/25/2018 23:18:33
00023 suncat0145 pw.x -in pw.inp   Done                     12/25/2018 23:18:33
00024 suncat0144 pw.x -in pw.inp   Done                     12/25/2018 23:18:33
00025 suncat0144 pw.x -in pw.inp   Done                     12/25/2018 23:18:33
00026 suncat0144 pw.x -in pw.inp   Done                     12/25/2018 23:18:33
00027 suncat0144 pw.x -in pw.inp   Done                     12/25/2018 23:18:33
00028 suncat0144 pw.x -in pw.inp   Done                     12/25/2018 23:18:33
00029 suncat0144 pw.x -in pw.inp   Done                     12/25/2018 23:18:33
00030 suncat0144 pw.x -in pw.inp   Done                     12/25/2018 23:18:33
00031 suncat0144 pw.x -in pw.inp   Done                     12/25/2018 23:18:33
00032 suncat0133 pw.x -in pw.inp   Done                     12/25/2018 23:18:33
00033 suncat0133 pw.x -in pw.inp   Done                     12/25/2018 23:18:33
00034 suncat0133 pw.x -in pw.inp   Done                     12/25/2018 23:18:33
00035 suncat0133 pw.x -in pw.inp   Done                     12/25/2018 23:18:33
00036 suncat0133 pw.x -in pw.inp   Done                     12/25/2018 23:18:33
00037 suncat0133 pw.x -in pw.inp   Done                     12/25/2018 23:18:33
00038 suncat0133 pw.x -in pw.inp   Done                     12/25/2018 23:18:33
00039 suncat0133 pw.x -in pw.inp   Done                     12/25/2018 23:18:33
00040 suncat0132 pw.x -in pw.inp   Done                     12/25/2018 23:18:33
00041 suncat0132 pw.x -in pw.inp   Done                     12/25/2018 23:18:33
00042 suncat0132 pw.x -in pw.inp   Done                     12/25/2018 23:18:33
00043 suncat0132 pw.x -in pw.inp   Done                     12/25/2018 23:18:33
00044 suncat0132 pw.x -in pw.inp   Done                     12/25/2018 23:18:33
00045 suncat0132 pw.x -in pw.inp   Done                     12/25/2018 23:18:33
00046 suncat0132 pw.x -in pw.inp   Done                     12/25/2018 23:18:33
00047 suncat0132 pw.x -in pw.inp   Done                     12/25/2018 23:18:33
00048 suncat0131 pw.x -in pw.inp   Done                     12/25/2018 23:18:33
00049 suncat0131 pw.x -in pw.inp   Done                     12/25/2018 23:18:33
00050 suncat0131 pw.x -in pw.inp   Done                     12/25/2018 23:18:33
00051 suncat0131 pw.x -in pw.inp   Done                     12/25/2018 23:18:33
00052 suncat0131 pw.x -in pw.inp   Done                     12/25/2018 23:18:33
00053 suncat0131 pw.x -in pw.inp   Done                     12/25/2018 23:18:33
00054 suncat0131 pw.x -in pw.inp   Done                     12/25/2018 23:18:33
00055 suncat0131 pw.x -in pw.inp   Done                     12/25/2018 23:18:33
00056 suncat0130 pw.x -in pw.inp   Done                     12/25/2018 23:18:33
00057 suncat0130 pw.x -in pw.inp   Done                     12/25/2018 23:18:33
00058 suncat0130 pw.x -in pw.inp   Done                     12/25/2018 23:18:33
00059 suncat0130 pw.x -in pw.inp   Done                     12/25/2018 23:18:33
00060 suncat0130 pw.x -in pw.inp   Done                     12/25/2018 23:18:33
00061 suncat0130 pw.x -in pw.inp   Done                     12/25/2018 23:18:33
00062 suncat0130 pw.x -in pw.inp   Done                     12/25/2018 23:18:33
00063 suncat0130 pw.x -in pw.inp   Done                     12/25/2018 23:18:33