     Program PWSCF v.5.1rc2 (svn rev. 11289) starts on 30Dec2018 at 14:18: 9

     Current dimensions of program PWSCF are:
     Max number of different atomic species (ntypx) = 10
     Max number of k-points (npk) =  40000
     Max angular momentum in pseudopotentials (lmaxx) =  3
     Presently stress not available with electric field

     IMPORTANT: XC functional enforced from input :
     Exchange-correlation      = BEEF-VDW ( 1  4 27 13 2)
     Any further DFT definition will be discarded
     Please, verify this is what you really want

     Subspace diagonalization in iterative solution of the eigenvalue problem:
     a serial algorithm will be used

     Generating pointlists ...
     new r_m :   0.4125 (alat units)  0.7795 (a.u.) for type    1
     new r_m :   0.4125 (alat units)  0.7795 (a.u.) for type    2

     bravais-lattice index     =            0
     lattice parameter (alat)  =       1.8897  a.u.
     unit-cell volume          =    3935.6019 (a.u.)^3
     number of atoms/cell      =           12
     number of atomic types    =            2
     number of electrons       =       192.00
     number of Kohn-Sham states=          126
     kinetic-energy cutoff     =      36.7493  Ry
     charge density cutoff     =     367.4932  Ry
     convergence threshold     =      1.0E-06
     mixing beta               =       0.1000
     number of iterations used =           10  plain     mixing
     Exchange-correlation      = BEEF-VDW ( 1  4 27 13 2)
     nstep                     =           50

     celldm(1)=   1.889726  celldm(2)=   0.000000  celldm(3)=   0.000000
     celldm(4)=   0.000000  celldm(5)=   0.000000  celldm(6)=   0.000000

     crystal axes: (cart. coord. in units of alat)
               a(1) = (   5.264451   0.000000   0.000000 )
               a(2) = (  -2.632225   4.559148   0.000000 )
               a(3) = (   0.000000   0.000000  24.298406 )

     reciprocal axes: (cart. coord. in units 2 pi/alat)
               b(1) = (  0.189953  0.109670  0.000000 )
               b(2) = (  0.000000  0.219339  0.000000 )
               b(3) = (  0.000000  0.000000  0.041155 )

     PseudoPot. # 1 for Mn read from file:
     /afs/slac.stanford.edu/u/if/mamunm/psp/gbrv1.5pbe/Mn.UPF
     MD5 check sum: 82ef2b46521d7a7d9e736dc3972e4928
     Pseudo is Ultrasoft + core correction, Zval = 15.0
     Generated by new atomic code, or converted to UPF format
     Using radial grid of  859 points,  6 beta functions with:
                l(1) =   0
                l(2) =   0
                l(3) =   1
                l(4) =   1
                l(5) =   2
                l(6) =   2
     Q(r) pseudized with  8 coefficients,  rinner =    0.950   0.950   0.950
                                                       0.950   0.950

     PseudoPot. # 2 for Ga read from file:
     /afs/slac.stanford.edu/u/if/mamunm/psp/gbrv1.5pbe/Ga.UPF
     MD5 check sum: ccd671392a58a050fbb373893b4fcd66
     Pseudo is Ultrasoft + core correction, Zval = 19.0
     Generated by new atomic code, or converted to UPF format
     Using radial grid of  871 points,  6 beta functions with:
                l(1) =   0
                l(2) =   0
                l(3) =   1
                l(4) =   1
                l(5) =   2
                l(6) =   2
     Q(r) pseudized with  8 coefficients,  rinner =    1.250   1.250   1.250
                                                       1.250   1.250

     vdW kernel table read from file vdW_kernel_table
     MD5 check sum: 095c7af220d748ca6e76c0b4c6cfb241

     atomic species   valence    mass     pseudopotential
        Mn1           15.00    54.93804     Mn( 1.00)
        Ga1           19.00    69.72300     Ga( 1.00)

     Starting magnetic structure
     atomic species   magnetization
        Mn1          0.133
        Ga1          0.105

     No symmetry found

   Cartesian axes

     site n.     atom                  positions (alat units)
         1           Mn1 tau(   1) = (   0.0000000   0.0000000  10.0000000  )
         2           Mn1 tau(   2) = (  -1.3161127   2.2795741  10.0000000  )
         3           Mn1 tau(   3) = (   1.3161127   2.2795741  10.0000000  )
         4           Ga1 tau(   4) = (   2.6322254   0.0000000  10.0000000  )
         5           Mn1 tau(   5) = (   2.6322254   1.5197160  12.1492030  )
         6           Mn1 tau(   6) = (   1.3161127   3.7992901  12.1492030  )
         7           Mn1 tau(   7) = (  -1.3161127   3.7992901  12.1492030  )
         8           Ga1 tau(   8) = (   0.0000000   1.5197160  12.1492030  )
         9           Mn1 tau(   9) = (  -0.0000000   3.0394321  14.2984061  )
        10           Mn1 tau(  10) = (   1.3161127   0.7598580  14.2984061  )
        11           Mn1 tau(  11) = (   3.9483381   0.7598580  14.2984061  )
        12           Ga1 tau(  12) = (   2.6322254   3.0394321  14.2984061  )

     number of k points=    40  Fermi-Dirac smearing, width (Ry)=  0.0110
                       cart. coord. in units 2pi/alat
        k(    1) = (   0.0000000   0.0000000   0.0000000), wk =   0.0277778
        k(    2) = (   0.0000000   0.0365565   0.0000000), wk =   0.0555556
        k(    3) = (   0.0000000   0.0731131   0.0000000), wk =   0.0555556
        k(    4) = (   0.0000000  -0.1096696   0.0000000), wk =   0.0277778
        k(    5) = (   0.0316589   0.0182783   0.0000000), wk =   0.0555556
        k(    6) = (   0.0316589   0.0548348   0.0000000), wk =   0.0555556
        k(    7) = (   0.0316589   0.0913913   0.0000000), wk =   0.0555556
        k(    8) = (   0.0316589  -0.0913913   0.0000000), wk =   0.0555556
        k(    9) = (   0.0316589  -0.0548348   0.0000000), wk =   0.0555556
        k(   10) = (   0.0316589  -0.0182783   0.0000000), wk =   0.0555556
        k(   11) = (   0.0633178   0.0365565   0.0000000), wk =   0.0555556
        k(   12) = (   0.0633178   0.0731131   0.0000000), wk =   0.0555556
        k(   13) = (   0.0633178   0.1096696   0.0000000), wk =   0.0555556
        k(   14) = (   0.0633178  -0.0731131   0.0000000), wk =   0.0555556
        k(   15) = (   0.0633178  -0.0365565   0.0000000), wk =   0.0555556
        k(   16) = (   0.0633178   0.0000000   0.0000000), wk =   0.0555556
        k(   17) = (  -0.0949767  -0.0548348   0.0000000), wk =   0.0277778
        k(   18) = (  -0.0949767  -0.0182783   0.0000000), wk =   0.0555556
        k(   19) = (  -0.0949767   0.0182783   0.0000000), wk =   0.0555556
        k(   20) = (  -0.0949767  -0.1645044   0.0000000), wk =   0.0277778
        k(   21) = (   0.0000000   0.0000000   0.0000000), wk =   0.0277778
        k(   22) = (   0.0000000   0.0365565   0.0000000), wk =   0.0555556
        k(   23) = (   0.0000000   0.0731131   0.0000000), wk =   0.0555556
        k(   24) = (   0.0000000  -0.1096696   0.0000000), wk =   0.0277778
        k(   25) = (   0.0316589   0.0182783   0.0000000), wk =   0.0555556
        k(   26) = (   0.0316589   0.0548348   0.0000000), wk =   0.0555556
        k(   27) = (   0.0316589   0.0913913   0.0000000), wk =   0.0555556
        k(   28) = (   0.0316589  -0.0913913   0.0000000), wk =   0.0555556
        k(   29) = (   0.0316589  -0.0548348   0.0000000), wk =   0.0555556
        k(   30) = (   0.0316589  -0.0182783   0.0000000), wk =   0.0555556
        k(   31) = (   0.0633178   0.0365565   0.0000000), wk =   0.0555556
        k(   32) = (   0.0633178   0.0731131   0.0000000), wk =   0.0555556
        k(   33) = (   0.0633178   0.1096696   0.0000000), wk =   0.0555556
        k(   34) = (   0.0633178  -0.0731131   0.0000000), wk =   0.0555556
        k(   35) = (   0.0633178  -0.0365565   0.0000000), wk =   0.0555556
        k(   36) = (   0.0633178   0.0000000   0.0000000), wk =   0.0555556
        k(   37) = (  -0.0949767  -0.0548348   0.0000000), wk =   0.0277778
        k(   38) = (  -0.0949767  -0.0182783   0.0000000), wk =   0.0555556
        k(   39) = (  -0.0949767   0.0182783   0.0000000), wk =   0.0555556
        k(   40) = (  -0.0949767  -0.1645044   0.0000000), wk =   0.0277778

     Largest allocated arrays     est. size (Mb)     dimensions
     Largest temporary arrays     est. size (Mb)     dimensions

     Check: negative/imaginary core charge=   -0.000008    0.000000

     Initial potential from superposition of free atoms
     Check: negative starting charge=(component1):   -0.001581
     Check: negative starting charge=(component2):   -0.001211

     starting charge  184.49923, renormalised to  192.00000

     negative rho (up, down):  1.645E-03 1.260E-03

     *
     * You are using vdW-DF for exchange-correlation in this calculation.
     * Please cite the following three references that made this development
     * possible:
     *
     *   M. Dion, H. Rydberg, E. Schroder, D. C. Langreth, and
     *   B. I. Lundqvist, Phys. Rev. Lett. 92, 246401 (2004).
     *
     *   T. Thonhauser, V. R. Cooper, S. Li, A. Puzder, P. Hyldgaard, and
     *   D. C. Langreth, Phys. Rev. B 76, 125112 (2007).
     *
     *   G. Roman-Perez and J. M. Soler, Phys. Rev. Lett. 103, 096102 (2009).
     *
     *
     * If you are using vdW-DF2, please also cite:
     *
     *   K. Lee, E. D. Murray, L. Kong, B. I. Lundqvist, and
     *   D. C. Langreth, Phys. Rev. B 82, 081101(R) (2010).
     *
     *
     * If you are calculating the stress with vdW-DF, please also cite:
     *
     *   R. Sabatini, E. Kucukbenli, B. Kolb, T. Thonhauser, and
     *   S. de Gironcoli, J. Phys.: Condens. Matter 24, 424209 (2012).
     *

     Carrying out vdW-DF run using the following parameters:

     Nqs =      20    Nr_points =    1024   r_max =   100.000
     q_mesh =
               0.00001000     0.04494208     0.09755937     0.15916263
               0.23128650     0.31572767     0.41458969     0.53033537
               0.66584808     0.82450364     1.01025438     1.22772762
               1.48234092     1.78043706     2.12944203     2.53805004
               3.01644009     3.57652955     4.23227104     5.00000000

     Gradients computed in reciprocal space

     Adding external electric field

     Computed dipole along edir(3) :
        Dipole                0.0000 Ry au,          0.0000 Debye
        Dipole field          0.0000 Ry au

        Potential amp.       -0.0000 Ry
        Total length         44.7694 bohr

[...]

     Starting wfc are  153 randomized atomic wfcs

     Self-consistent Calculation

     iteration #  1     ecut=    36.75 Ry     beta=0.10
     Davidson diagonalization with overlap
     ethr =  1.00E-02,  avg # of iterations =  7.9

[...]

     Magnetic moment per site:
     atom:    1    charge:    6.1254    magn:    0.7899    constr:    0.0000
     atom:    2    charge:    6.1254    magn:    0.7899    constr:    0.0000
     atom:    3    charge:    6.1254    magn:    0.7899    constr:    0.0000
     atom:    4    charge:   11.3260    magn:    1.1128    constr:    0.0000
     atom:    5    charge:    6.1354    magn:    0.7914    constr:    0.0000
     atom:    6    charge:    6.1354    magn:    0.7914    constr:    0.0000
     atom:    7    charge:    6.1354    magn:    0.7914    constr:    0.0000
     atom:    8    charge:   11.3236    magn:    1.1135    constr:    0.0000
[...]
        k(    4) = (   0.0000000  -0.1096696   0.0000000), wk =   0.0277778
        k(    5) = (   0.0316589   0.0182783   0.0000000), wk =   0.0555556
        k(    6) = (   0.0316589   0.0548348   0.0000000), wk =   0.0555556
        k(    7) = (   0.0316589   0.0913913   0.0000000), wk =   0.0555556
        k(    8) = (   0.0316589  -0.0913913   0.0000000), wk =   0.0555556
        k(    9) = (   0.0316589  -0.0548348   0.0000000), wk =   0.0555556
        k(   10) = (   0.0316589  -0.0182783   0.0000000), wk =   0.0555556
        k(   11) = (   0.0633178   0.0365565   0.0000000), wk =   0.0555556
        k(   12) = (   0.0633178   0.0731131   0.0000000), wk =   0.0555556
        k(   13) = (   0.0633178   0.1096696   0.0000000), wk =   0.0555556
        k(   14) = (   0.0633178  -0.0731131   0.0000000), wk =   0.0555556
        k(   15) = (   0.0633178  -0.0365565   0.0000000), wk =   0.0555556
        k(   16) = (   0.0633178   0.0000000   0.0000000), wk =   0.0555556
        k(   17) = (  -0.0949767  -0.0548348   0.0000000), wk =   0.0277778
        k(   18) = (  -0.0949767  -0.0182783   0.0000000), wk =   0.0555556
        k(   19) = (  -0.0949767   0.0182783   0.0000000), wk =   0.0555556
        k(   20) = (  -0.0949767  -0.1645044   0.0000000), wk =   0.0277778
        k(   21) = (   0.0000000   0.0000000   0.0000000), wk =   0.0277778
        k(   22) = (   0.0000000   0.0365565   0.0000000), wk =   0.0555556
        k(   23) = (   0.0000000   0.0731131   0.0000000), wk =   0.0555556
        k(   24) = (   0.0000000  -0.1096696   0.0000000), wk =   0.0277778
        k(   25) = (   0.0316589   0.0182783   0.0000000), wk =   0.0555556
        k(   26) = (   0.0316589   0.0548348   0.0000000), wk =   0.0555556
        k(   27) = (   0.0316589   0.0913913   0.0000000), wk =   0.0555556
        k(   28) = (   0.0316589  -0.0913913   0.0000000), wk =   0.0555556
        k(   29) = (   0.0316589  -0.0548348   0.0000000), wk =   0.0555556
        k(   30) = (   0.0316589  -0.0182783   0.0000000), wk =   0.0555556
        k(   31) = (   0.0633178   0.0365565   0.0000000), wk =   0.0555556
        k(   32) = (   0.0633178   0.0731131   0.0000000), wk =   0.0555556
        k(   33) = (   0.0633178   0.1096696   0.0000000), wk =   0.0555556
        k(   34) = (   0.0633178  -0.0731131   0.0000000), wk =   0.0555556
        k(   35) = (   0.0633178  -0.0365565   0.0000000), wk =   0.0555556
        k(   36) = (   0.0633178   0.0000000   0.0000000), wk =   0.0555556
        k(   37) = (  -0.0949767  -0.0548348   0.0000000), wk =   0.0277778
        k(   38) = (  -0.0949767  -0.0182783   0.0000000), wk =   0.0555556
        k(   39) = (  -0.0949767   0.0182783   0.0000000), wk =   0.0555556
        k(   40) = (  -0.0949767  -0.1645044   0.0000000), wk =   0.0277778

     Largest allocated arrays     est. size (Mb)     dimensions
     Largest temporary arrays     est. size (Mb)     dimensions

     Check: negative/imaginary core charge=   -0.000008    0.000000

     Initial potential from superposition of free atoms
     Check: negative starting charge=(component1):   -0.001556
     Check: negative starting charge=(component2):   -0.001192

     starting charge  184.49923, renormalised to  192.00000

[...]

     *
     * You are using vdW-DF for exchange-correlation in this calculation.
     * Please cite the following three references that made this development
     * possible:
     *
     *   M. Dion, H. Rydberg, E. Schroder, D. C. Langreth, and
     *   B. I. Lundqvist, Phys. Rev. Lett. 92, 246401 (2004).
     *
     *   T. Thonhauser, V. R. Cooper, S. Li, A. Puzder, P. Hyldgaard, and
     *   D. C. Langreth, Phys. Rev. B 76, 125112 (2007).
     *
     *   G. Roman-Perez and J. M. Soler, Phys. Rev. Lett. 103, 096102 (2009).
     *
     *
     * If you are using vdW-DF2, please also cite:
     *
     *   K. Lee, E. D. Murray, L. Kong, B. I. Lundqvist, and
     *   D. C. Langreth, Phys. Rev. B 82, 081101(R) (2010).
     *
     *
     * If you are calculating the stress with vdW-DF, please also cite:
     *
     *   R. Sabatini, E. Kucukbenli, B. Kolb, T. Thonhauser, and
     *   S. de Gironcoli, J. Phys.: Condens. Matter 24, 424209 (2012).
     *

     Carrying out vdW-DF run using the following parameters:

     Nqs =      20    Nr_points =    1024   r_max =   100.000
     q_mesh =
               0.00001000     0.04494208     0.09755937     0.15916263
               0.23128650     0.31572767     0.41458969     0.53033537
               0.66584808     0.82450364     1.01025438     1.22772762
               1.48234092     1.78043706     2.12944203     2.53805004
               3.01644009     3.57652955     4.23227104     5.00000000

     Gradients computed in reciprocal space

[...]

     Starting wfc are  153 randomized atomic wfcs

     Self-consistent Calculation

[...]

     total energy              =   -3158.76837713 Ry
     Harris-Foulkes estimate   =   -3158.76837633 Ry
     estimated scf accuracy    <       0.00000163 Ry

[...]

     iteration # 39     ecut=    36.75 Ry     beta=0.10
     Davidson diagonalization with overlap
     ethr =  8.50E-10,  avg # of iterations =  2.1

[...]

     negative rho (up, down):  1.859E-03 1.556E-03

[...]

     Adding external electric field

     Computed dipole along edir(3) :
        Dipole               -0.0020 Ry au,         -0.0051 Debye
        Dipole field         -0.0000 Ry au

        Potential amp.        0.0006 Ry
        Total length         44.7694 bohr

     Magnetic moment per site:
     atom:    1    charge:    6.0151    magn:    1.3216    constr:    0.0000
     atom:    2    charge:    6.0151    magn:    1.3216    constr:    0.0000
     atom:    3    charge:    6.0151    magn:    1.3215    constr:    0.0000
     atom:    4    charge:   11.0410    magn:    0.0053    constr:    0.0000
     atom:    5    charge:    6.0017    magn:    1.0615    constr:    0.0000
     atom:    6    charge:    6.0015    magn:    1.0615    constr:    0.0000
     atom:    7    charge:    6.0017    magn:    1.0615    constr:    0.0000
     atom:    8    charge:   11.0411    magn:    0.0031    constr:    0.0000
     atom:    9    charge:    6.0128    magn:    1.3337    constr:    0.0000
     atom:   10    charge:    6.0128    magn:    1.3336    constr:    0.0000
     atom:   11    charge:    6.0129    magn:    1.3336    constr:    0.0000
     atom:   12    charge:   11.0413    magn:    0.0049    constr:    0.0000

     End of self-consistent calculation

 ------ SPIN UP ------------

[...]

 ------ SPIN DOWN ----------

[...]

          k = 0.0633 0.0000 0.0000 ( 14807 PWs)   bands (ev):

[...]

          k =-0.0950-0.1645 0.0000 ( 14798 PWs)   bands (ev):

   -93.1328 -93.1238 -93.1238 -93.0247 -93.0238 -93.0021 -93.0021 -92.9959
   -92.9959 -76.1666 -76.1530 -76.1399 -75.9485 -75.9356 -75.9337 -75.9225
   -75.9205 -75.9076 -45.0915 -44.9949 -44.9892 -44.9709 -44.9639 -44.9591
   -44.9377 -44.9338 -44.8762 -44.8487 -44.8439 -44.7817 -44.7775 -44.7698
   -44.7613 -44.7541 -44.7538 -44.7415 -44.7369 -44.6760 -44.6706 -44.6570
   -44.6563 -44.6399 -44.6388 -44.6378 -44.6222 -13.5432 -13.5333 -13.5328
   -13.5182 -13.5169 -13.4025 -13.3927 -13.3901 -13.3889 -13.3800 -13.3785
   -13.3776 -13.3745 -13.3675 -13.3641  -6.6845  -6.1083  -5.3532  -3.6364
    -2.4433  -2.4095  -2.3447  -0.9895  -0.9874  -0.8039  -0.4842  -0.3008
    -0.2601  -0.1582   0.3526   0.3818   0.5094   0.5890   0.7729   0.8781
     0.9551   1.1190   1.1401   1.2119   1.2785   1.4260   1.4515   1.7351
     1.7554   1.7900   1.9238   2.0908   2.1943   2.4362   2.5358   2.7123
     2.7813   2.8011   2.8412   2.8694   3.0447   3.0547   3.0603   3.1451
     3.1601   3.2983   3.4213   3.4426   3.5513   3.7628   3.8178   4.0657
     4.1575   4.5737   4.9006   4.9118   5.0846   5.2239   5.6542   6.3141
     6.3377   6.8966   6.9028   7.1580   7.2991   7.3740

     the Fermi energy is     1.1065 ev

!    total energy              =   -3158.76838176 Ry
     Harris-Foulkes estimate   =   -3158.76837753 Ry
     estimated scf accuracy    <       0.00000081 Ry

     The total energy is the sum of the following terms:

     one-electron contribution =  -24519.00191189 Ry
     hartree contribution      =   12261.78211203 Ry
     xc contribution           =    -398.42564258 Ry
     ewald contribution        =    9496.95665718 Ry
     electric field correction =       0.00000001 Ry
     smearing contrib. (-TS)   =      -0.07959652 Ry

     total magnetization       =    28.18 Bohr mag/cell
     absolute magnetization    =    29.57 Bohr mag/cell

     convergence has been achieved in  39 iterations

 BEEF-vdW xc energy contributions
           1 :   -351.067377556017
           2 :    317.987731676058
           3 :   -262.764532275969
           4 :    201.661924517756
           5 :   -148.826624208362
           6 :    111.221715725249
           7 :   -87.9938167624945
           8 :    73.5097359933582
           9 :   -61.6741254281000
          10 :    49.0925066556056
          11 :   -35.7949356109900
          12 :    23.8050546868753
          13 :   -14.9988748941510
          14 :    9.74759198800081
          15 :   -6.94396188330751
          16 :    4.96587940421745
          17 :   -2.70381443866000
          18 :   9.717702198202005E-003
          19 :    2.54054358922468
          20 :   -4.25525172582314
          21 :    4.84427138267989
          22 :   -4.55814735374844
          23 :    3.96392278616275
          24 :   -3.59038139395165
          25 :    3.67331166420644
          26 :   -4.10957381987436
          27 :    4.59244526025873
          28 :   -4.82552422678134
          29 :    4.68612654888665
          30 :   -4.25936763059104
          31 :   -29.4958670634698
          32 :   -20.6733524939941

     Forces acting on atoms (Ry/au):

     negative rho (up, down):  1.859E-03 1.556E-03
     atom    1 type  1   force =    -0.00001417   -0.00089976   -0.00572425
     atom    2 type  1   force =    -0.00078260    0.00045005   -0.00573603
     atom    3 type  1   force =     0.00077447    0.00046176   -0.00571408
     atom    4 type  2   force =     0.00007399   -0.00002782   -0.01572084
     atom    5 type  1   force =    -0.00001256    0.00164412    0.00822293
     atom    6 type  1   force =     0.00143006   -0.00082550    0.00822157
     atom    7 type  1   force =    -0.00143648   -0.00081565    0.00823609
     atom    8 type  2   force =     0.00005861   -0.00004012    0.00722727
     atom    9 type  1   force =    -0.00000301    0.00093481    0.00069449
     atom   10 type  1   force =     0.00081217   -0.00047975    0.00070988
     atom   11 type  1   force =    -0.00081726   -0.00047999    0.00069325
     atom   12 type  2   force =    -0.00008322    0.00007785   -0.00111027

     Total force =     0.024834     Total SCF correction =     0.001652

     entering subroutine stress ...

     negative rho (up, down):  1.859E-03 1.556E-03
          total   stress  (Ry/bohr**3)                   (kbar)     P=    6.08
   0.00005187  -0.00000000  -0.00000001          7.63     -0.00     -0.00
  -0.00000000   0.00005187   0.00000002         -0.00      7.63      0.00
  -0.00000001   0.00000002   0.00002033         -0.00      0.00      2.99

 !ASE

     Writing output data file calc.save

     General routines

     Parallel routines

   This run was terminated on:  19:41:37  30Dec2018

   JOB DONE.
Job  /afs/slac/g/suncat/bin/suncat-tsmpirun -x LD_LIBRARY_PATH -wdir /scratch/qe648574_FeicG pw.x -in pw.inp

TID   HOST_NAME   COMMAND_LINE            STATUS            TERMINATION_TIME
00000 suncat0056 pw.x -in pw.inp   Done                     12/30/2018 19:41:37
00001 suncat0056 pw.x -in pw.inp   Done                     12/30/2018 19:41:37
00002 suncat0056 pw.x -in pw.inp   Done                     12/30/2018 19:41:37
00003 suncat0056 pw.x -in pw.inp   Done                     12/30/2018 19:41:37
00004 suncat0056 pw.x -in pw.inp   Done                     12/30/2018 19:41:37
00005 suncat0056 pw.x -in pw.inp   Done                     12/30/2018 19:41:37
00006 suncat0056 pw.x -in pw.inp   Done                     12/30/2018 19:41:37
00007 suncat0056 pw.x -in pw.inp   Done                     12/30/2018 19:41:37
00008 suncat0052 pw.x -in pw.inp   Done                     12/30/2018 19:41:37
00009 suncat0052 pw.x -in pw.inp   Done                     12/30/2018 19:41:37
00010 suncat0052 pw.x -in pw.inp   Done                     12/30/2018 19:41:37
00011 suncat0052 pw.x -in pw.inp   Done                     12/30/2018 19:41:37
00012 suncat0052 pw.x -in pw.inp   Done                     12/30/2018 19:41:37
00013 suncat0052 pw.x -in pw.inp   Done                     12/30/2018 19:41:37
00014 suncat0052 pw.x -in pw.inp   Done                     12/30/2018 19:41:37
00015 suncat0052 pw.x -in pw.inp   Done                     12/30/2018 19:41:37
00016 suncat0048 pw.x -in pw.inp   Done                     12/30/2018 19:41:37
00017 suncat0048 pw.x -in pw.inp   Done                     12/30/2018 19:41:37
00018 suncat0048 pw.x -in pw.inp   Done                     12/30/2018 19:41:37
00019 suncat0048 pw.x -in pw.inp   Done                     12/30/2018 19:41:37
00020 suncat0048 pw.x -in pw.inp   Done                     12/30/2018 19:41:37
00021 suncat0048 pw.x -in pw.inp   Done                     12/30/2018 19:41:37
00022 suncat0048 pw.x -in pw.inp   Done                     12/30/2018 19:41:37
00023 suncat0048 pw.x -in pw.inp   Done                     12/30/2018 19:41:37
00024 suncat0047 pw.x -in pw.inp   Done                     12/30/2018 19:41:37
00025 suncat0047 pw.x -in pw.inp   Done                     12/30/2018 19:41:37
00026 suncat0047 pw.x -in pw.inp   Done                     12/30/2018 19:41:37
00027 suncat0047 pw.x -in pw.inp   Done                     12/30/2018 19:41:37
00028 suncat0047 pw.x -in pw.inp   Done                     12/30/2018 19:41:37
00029 suncat0047 pw.x -in pw.inp   Done                     12/30/2018 19:41:37
00030 suncat0047 pw.x -in pw.inp   Done                     12/30/2018 19:41:37
00031 suncat0047 pw.x -in pw.inp   Done                     12/30/2018 19:41:37
00032 suncat0041 pw.x -in pw.inp   Done                     12/30/2018 19:41:37
00033 suncat0041 pw.x -in pw.inp   Done                     12/30/2018 19:41:37
00034 suncat0041 pw.x -in pw.inp   Done                     12/30/2018 19:41:37
00035 suncat0041 pw.x -in pw.inp   Done                     12/30/2018 19:41:37
00036 suncat0041 pw.x -in pw.inp   Done                     12/30/2018 19:41:37
00037 suncat0041 pw.x -in pw.inp   Done                     12/30/2018 19:41:37
00038 suncat0041 pw.x -in pw.inp   Done                     12/30/2018 19:41:37
00039 suncat0041 pw.x -in pw.inp   Done                     12/30/2018 19:41:37
00040 suncat0039 pw.x -in pw.inp   Done                     12/30/2018 19:41:37
00041 suncat0039 pw.x -in pw.inp   Done                     12/30/2018 19:41:37
00042 suncat0039 pw.x -in pw.inp   Done                     12/30/2018 19:41:37
00043 suncat0039 pw.x -in pw.inp   Done                     12/30/2018 19:41:37
00044 suncat0039 pw.x -in pw.inp   Done                     12/30/2018 19:41:37
00045 suncat0039 pw.x -in pw.inp   Done                     12/30/2018 19:41:37
00046 suncat0039 pw.x -in pw.inp   Done                     12/30/2018 19:41:37
00047 suncat0039 pw.x -in pw.inp   Done                     12/30/2018 19:41:37
00048 suncat0207 pw.x -in pw.inp   Done                     12/30/2018 19:41:37
00049 suncat0207 pw.x -in pw.inp   Done                     12/30/2018 19:41:37
00050 suncat0207 pw.x -in pw.inp   Done                     12/30/2018 19:41:37
00051 suncat0207 pw.x -in pw.inp   Done                     12/30/2018 19:41:37
00052 suncat0207 pw.x -in pw.inp   Done                     12/30/2018 19:41:37
00053 suncat0207 pw.x -in pw.inp   Done                     12/30/2018 19:41:37
00054 suncat0207 pw.x -in pw.inp   Done                     12/30/2018 19:41:37
00055 suncat0207 pw.x -in pw.inp   Done                     12/30/2018 19:41:37
00056 suncat0206 pw.x -in pw.inp   Done                     12/30/2018 19:41:37
00057 suncat0206 pw.x -in pw.inp   Done                     12/30/2018 19:41:37
00058 suncat0206 pw.x -in pw.inp   Done                     12/30/2018 19:41:37
00059 suncat0206 pw.x -in pw.inp   Done                     12/30/2018 19:41:37
00060 suncat0206 pw.x -in pw.inp   Done                     12/30/2018 19:41:37
00061 suncat0206 pw.x -in pw.inp   Done                     12/30/2018 19:41:37
00062 suncat0206 pw.x -in pw.inp   Done                     12/30/2018 19:41:37
00063 suncat0206 pw.x -in pw.inp   Done                     12/30/2018 19:41:37