     Program PWSCF v.5.1rc2 (svn rev. 11289) starts on  2Jan2019 at 16:38: 2

     Current dimensions of program PWSCF are:
     Max number of different atomic species (ntypx) = 10
     Max number of k-points (npk) =  40000
     Max angular momentum in pseudopotentials (lmaxx) =  3
     Presently stress not available with electric field

     IMPORTANT: XC functional enforced from input :
     Exchange-correlation      = BEEF-VDW ( 1  4 27 13 2)
     Any further DFT definition will be discarded
     Please, verify this is what you really want

     Subspace diagonalization in iterative solution of the eigenvalue problem:
     a serial algorithm will be used

     Generating pointlists ...
     new r_m :   0.4125 (alat units)  0.7795 (a.u.) for type    1
     new r_m :   0.4125 (alat units)  0.7795 (a.u.) for type    2

     bravais-lattice index     =            0
     lattice parameter (alat)  =       1.8897  a.u.
     unit-cell volume          =    4044.3221 (a.u.)^3
     number of atoms/cell      =           12
     number of atomic types    =            2
     number of electrons       =       234.00
     number of Kohn-Sham states=          147
     kinetic-energy cutoff     =      36.7493  Ry
     charge density cutoff     =     367.4932  Ry
     convergence threshold     =      1.0E-06
     mixing beta               =       0.1000
     number of iterations used =           10  plain     mixing
     Exchange-correlation      = BEEF-VDW ( 1  4 27 13 2)
     nstep                     =           50

     celldm(1)=   1.889726  celldm(2)=   0.000000  celldm(3)=   0.000000
     celldm(4)=   0.000000  celldm(5)=   0.000000  celldm(6)=   0.000000

     crystal axes: (cart. coord. in units of alat)
               a(1) = (   5.330737   0.000000   0.000000 )
               a(2) = (  -2.665368   4.616553   0.000000 )
               a(3) = (   0.000000   0.000000  24.352528 )

     reciprocal axes: (cart. coord. in units 2 pi/alat)
               b(1) = (  0.187591  0.108306  0.000000 )
               b(2) = (  0.000000  0.216612  0.000000 )
               b(3) = (  0.000000  0.000000  0.041063 )

     PseudoPot. # 1 for Zn read from file:
     /afs/slac.stanford.edu/u/if/mamunm/psp/gbrv1.5pbe/Zn.UPF
     MD5 check sum: df62231357ef9e81f77b2b3087fa5675
     Pseudo is Ultrasoft, Zval = 20.0
     Generated by new atomic code, or converted to UPF format
     Using radial grid of  943 points,  6 beta functions with:
                l(1) =   0
                l(2) =   0
                l(3) =   1
                l(4) =   1
                l(5) =   2
                l(6) =   2
     Q(r) pseudized with  8 coefficients,  rinner =    1.100   1.100   1.100
                                                       1.100   1.100

     PseudoPot. # 2 for Ni read from file:
     /afs/slac.stanford.edu/u/if/mamunm/psp/gbrv1.5pbe/Ni.UPF
     MD5 check sum: 1ee80287db30b12d2bc1f57a5b5d6409
     Pseudo is Ultrasoft + core correction, Zval = 18.0
     Generated by new atomic code, or converted to UPF format
     Using radial grid of  865 points,  6 beta functions with:
                l(1) =   0
                l(2) =   0
                l(3) =   1
                l(4) =   1
                l(5) =   2
                l(6) =   2
     Q(r) pseudized with 10 coefficients,  rinner =    0.980   0.980   0.980
                                                       0.980   0.980

     vdW kernel table read from file vdW_kernel_table
     MD5 check sum: 095c7af220d748ca6e76c0b4c6cfb241

     atomic species   valence    mass     pseudopotential
        Zn1           20.00    65.38000     Zn( 1.00)
        Ni1           18.00    58.69340     Ni( 1.00)

     Starting magnetic structure
     atomic species   magnetization
        Zn1          0.100
        Ni1          0.111

     No symmetry found

   Cartesian axes

     site n.     atom                  positions (alat units)
         1           Zn1 tau(   1) = (   0.0000000   0.0000000  10.0000000  )
         2           Zn1 tau(   2) = (  -1.3326842   2.3082767  10.0000000  )
         3           Zn1 tau(   3) = (   1.3326842   2.3082767  10.0000000  )
         4           Ni1 tau(   4) = (   2.6653683   0.0000000  10.0000000  )
         5           Zn1 tau(   5) = (   2.6653683   1.5388511  12.1762641  )
         6           Zn1 tau(   6) = (   1.3326842   3.8471278  12.1762641  )
         7           Zn1 tau(   7) = (  -1.3326842   3.8471278  12.1762641  )
         8           Ni1 tau(   8) = (   0.0000000   1.5388511  12.1762641  )
         9           Zn1 tau(   9) = (  -0.0000000   3.0777022  14.3525282  )
        10           Zn1 tau(  10) = (   1.3326842   0.7694256  14.3525282  )
        11           Zn1 tau(  11) = (   3.9980525   0.7694256  14.3525282  )
        12           Ni1 tau(  12) = (   2.6653683   3.0777022  14.3525282  )

     number of k points=    40  Fermi-Dirac smearing, width (Ry)=  0.0110
                       cart. coord. in units 2pi/alat
        k(    1) = (   0.0000000   0.0000000   0.0000000), wk =   0.0277778
        k(    2) = (   0.0000000   0.0361020   0.0000000), wk =   0.0555556
        k(    3) = (   0.0000000   0.0722039   0.0000000), wk =   0.0555556
        k(    4) = (   0.0000000  -0.1083059   0.0000000), wk =   0.0277778
        k(    5) = (   0.0312652   0.0180510   0.0000000), wk =   0.0555556
        k(    6) = (   0.0312652   0.0541530   0.0000000), wk =   0.0555556
        k(    7) = (   0.0312652   0.0902549   0.0000000), wk =   0.0555556
        k(    8) = (   0.0312652  -0.0902549   0.0000000), wk =   0.0555556
        k(    9) = (   0.0312652  -0.0541530   0.0000000), wk =   0.0555556
        k(   10) = (   0.0312652  -0.0180510   0.0000000), wk =   0.0555556
        k(   11) = (   0.0625304   0.0361020   0.0000000), wk =   0.0555556
        k(   12) = (   0.0625304   0.0722039   0.0000000), wk =   0.0555556
        k(   13) = (   0.0625304   0.1083059   0.0000000), wk =   0.0555556
        k(   14) = (   0.0625304  -0.0722039   0.0000000), wk =   0.0555556
        k(   15) = (   0.0625304  -0.0361020   0.0000000), wk =   0.0555556
        k(   16) = (   0.0625304   0.0000000   0.0000000), wk =   0.0555556
        k(   17) = (  -0.0937957  -0.0541530   0.0000000), wk =   0.0277778
        k(   18) = (  -0.0937957  -0.0180510   0.0000000), wk =   0.0555556
        k(   19) = (  -0.0937957   0.0180510   0.0000000), wk =   0.0555556
        k(   20) = (  -0.0937957  -0.1624589   0.0000000), wk =   0.0277778
        k(   21) = (   0.0000000   0.0000000   0.0000000), wk =   0.0277778
        k(   22) = (   0.0000000   0.0361020   0.0000000), wk =   0.0555556
        k(   23) = (   0.0000000   0.0722039   0.0000000), wk =   0.0555556
        k(   24) = (   0.0000000  -0.1083059   0.0000000), wk =   0.0277778
        k(   25) = (   0.0312652   0.0180510   0.0000000), wk =   0.0555556
        k(   26) = (   0.0312652   0.0541530   0.0000000), wk =   0.0555556
        k(   27) = (   0.0312652   0.0902549   0.0000000), wk =   0.0555556
        k(   28) = (   0.0312652  -0.0902549   0.0000000), wk =   0.0555556
        k(   29) = (   0.0312652  -0.0541530   0.0000000), wk =   0.0555556
        k(   30) = (   0.0312652  -0.0180510   0.0000000), wk =   0.0555556
        k(   31) = (   0.0625304   0.0361020   0.0000000), wk =   0.0555556
        k(   32) = (   0.0625304   0.0722039   0.0000000), wk =   0.0555556
        k(   33) = (   0.0625304   0.1083059   0.0000000), wk =   0.0555556
        k(   34) = (   0.0625304  -0.0722039   0.0000000), wk =   0.0555556
        k(   35) = (   0.0625304  -0.0361020   0.0000000), wk =   0.0555556
        k(   36) = (   0.0625304   0.0000000   0.0000000), wk =   0.0555556
        k(   37) = (  -0.0937957  -0.0541530   0.0000000), wk =   0.0277778
        k(   38) = (  -0.0937957  -0.0180510   0.0000000), wk =   0.0555556
        k(   39) = (  -0.0937957   0.0180510   0.0000000), wk =   0.0555556
        k(   40) = (  -0.0937957  -0.1624589   0.0000000), wk =   0.0277778

     Largest allocated arrays     est. size (Mb)     dimensions
     Largest temporary arrays     est. size (Mb)     dimensions

     Initial potential from superposition of free atoms
     Check: negative starting charge=(component1):   -0.000442
     Check: negative starting charge=(component2):   -0.000360

     starting charge  227.99873, renormalised to  234.00000

     negative rho (up, down):  4.532E-04 3.693E-04

     *
     * You are using vdW-DF for exchange-correlation in this calculation.
     * Please cite the following three references that made this development
     * possible:
     *
     *   M. Dion, H. Rydberg, E. Schroder, D. C. Langreth, and
     *   B. I. Lundqvist, Phys. Rev. Lett. 92, 246401 (2004).
     *
     *   T. Thonhauser, V. R. Cooper, S. Li, A. Puzder, P. Hyldgaard, and
     *   D. C. Langreth, Phys. Rev. B 76, 125112 (2007).
     *
     *   G. Roman-Perez and J. M. Soler, Phys. Rev. Lett. 103, 096102 (2009).
     *
     *
     * If you are using vdW-DF2, please also cite:
     *
     *   K. Lee, E. D. Murray, L. Kong, B. I. Lundqvist, and
     *   D. C. Langreth, Phys. Rev. B 82, 081101(R) (2010).
     *
     *
     * If you are calculating the stress with vdW-DF, please also cite:
     *
     *   R. Sabatini, E. Kucukbenli, B. Kolb, T. Thonhauser, and
     *   S. de Gironcoli, J. Phys.: Condens. Matter 24, 424209 (2012).
     *

     Carrying out vdW-DF run using the following parameters:

     Nqs =      20    Nr_points =    1024   r_max =   100.000
     q_mesh =
               0.00001000     0.04494208     0.09755937     0.15916263
               0.23128650     0.31572767     0.41458969     0.53033537
               0.66584808     0.82450364     1.01025438     1.22772762
               1.48234092     1.78043706     2.12944203     2.53805004
               3.01644009     3.57652955     4.23227104     5.00000000

     Gradients computed in reciprocal space

     Adding external electric field

     Computed dipole along edir(3) :
        Dipole               -0.0000 Ry au,         -0.0000 Debye
        Dipole field         -0.0000 Ry au

        Potential amp.        0.0000 Ry
        Total length         44.8691 bohr

[...]

     Starting wfc are  156 randomized atomic wfcs

     Self-consistent Calculation

     iteration #  1     ecut=    36.75 Ry     beta=0.10
     Davidson diagonalization with overlap
     ethr =  1.00E-02,  avg # of iterations =  6.7

[...]

     Magnetic moment per site:
     atom:    1    charge:   11.7573    magn:    1.1556    constr:    0.0000
     atom:    2    charge:   11.7573    magn:    1.1556    constr:    0.0000
     atom:    3    charge:   11.7573    magn:    1.1556    constr:    0.0000
     atom:    4    charge:    9.6002    magn:    0.9737    constr:    0.0000
     atom:    5    charge:   11.7784    magn:    1.1414    constr:    0.0000
     atom:    6    charge:   11.7784    magn:    1.1414    constr:    0.0000
     atom:    7    charge:   11.7784    magn:    1.1414    constr:    0.0000
     atom:    8    charge:    9.5998    magn:    0.9750    constr:    0.0000
     atom:    9    charge:   11.7653    magn:    1.1564    constr:    0.0000
[...]
        k(    5) = (   0.0312652   0.0180510   0.0000000), wk =   0.0555556
        k(    6) = (   0.0312652   0.0541530   0.0000000), wk =   0.0555556
        k(    7) = (   0.0312652   0.0902549   0.0000000), wk =   0.0555556
        k(    8) = (   0.0312652  -0.0902549   0.0000000), wk =   0.0555556
        k(    9) = (   0.0312652  -0.0541530   0.0000000), wk =   0.0555556
        k(   10) = (   0.0312652  -0.0180510   0.0000000), wk =   0.0555556
        k(   11) = (   0.0625304   0.0361020   0.0000000), wk =   0.0555556
        k(   12) = (   0.0625304   0.0722039   0.0000000), wk =   0.0555556
        k(   13) = (   0.0625304   0.1083059   0.0000000), wk =   0.0555556
        k(   14) = (   0.0625304  -0.0722039   0.0000000), wk =   0.0555556
        k(   15) = (   0.0625304  -0.0361020   0.0000000), wk =   0.0555556
        k(   16) = (   0.0625304   0.0000000   0.0000000), wk =   0.0555556
        k(   17) = (  -0.0937957  -0.0541530   0.0000000), wk =   0.0277778
        k(   18) = (  -0.0937957  -0.0180510   0.0000000), wk =   0.0555556
        k(   19) = (  -0.0937957   0.0180510   0.0000000), wk =   0.0555556
        k(   20) = (  -0.0937957  -0.1624589   0.0000000), wk =   0.0277778
        k(   21) = (   0.0000000   0.0000000   0.0000000), wk =   0.0277778
        k(   22) = (   0.0000000   0.0361020   0.0000000), wk =   0.0555556
        k(   23) = (   0.0000000   0.0722039   0.0000000), wk =   0.0555556
        k(   24) = (   0.0000000  -0.1083059   0.0000000), wk =   0.0277778
        k(   25) = (   0.0312652   0.0180510   0.0000000), wk =   0.0555556
        k(   26) = (   0.0312652   0.0541530   0.0000000), wk =   0.0555556
        k(   27) = (   0.0312652   0.0902549   0.0000000), wk =   0.0555556
        k(   28) = (   0.0312652  -0.0902549   0.0000000), wk =   0.0555556
        k(   29) = (   0.0312652  -0.0541530   0.0000000), wk =   0.0555556
        k(   30) = (   0.0312652  -0.0180510   0.0000000), wk =   0.0555556
        k(   31) = (   0.0625304   0.0361020   0.0000000), wk =   0.0555556
        k(   32) = (   0.0625304   0.0722039   0.0000000), wk =   0.0555556
        k(   33) = (   0.0625304   0.1083059   0.0000000), wk =   0.0555556
        k(   34) = (   0.0625304  -0.0722039   0.0000000), wk =   0.0555556
        k(   35) = (   0.0625304  -0.0361020   0.0000000), wk =   0.0555556
        k(   36) = (   0.0625304   0.0000000   0.0000000), wk =   0.0555556
        k(   37) = (  -0.0937957  -0.0541530   0.0000000), wk =   0.0277778
        k(   38) = (  -0.0937957  -0.0180510   0.0000000), wk =   0.0555556
        k(   39) = (  -0.0937957   0.0180510   0.0000000), wk =   0.0555556
        k(   40) = (  -0.0937957  -0.1624589   0.0000000), wk =   0.0277778

     Largest allocated arrays     est. size (Mb)     dimensions
     Largest temporary arrays     est. size (Mb)     dimensions

     Initial potential from superposition of free atoms
     Check: negative starting charge=(component1):   -0.000440
     Check: negative starting charge=(component2):   -0.000359

     starting charge  227.99873, renormalised to  234.00000

[...]

     *
     * You are using vdW-DF for exchange-correlation in this calculation.
     * Please cite the following three references that made this development
     * possible:
     *
     *   M. Dion, H. Rydberg, E. Schroder, D. C. Langreth, and
     *   B. I. Lundqvist, Phys. Rev. Lett. 92, 246401 (2004).
     *
     *   T. Thonhauser, V. R. Cooper, S. Li, A. Puzder, P. Hyldgaard, and
     *   D. C. Langreth, Phys. Rev. B 76, 125112 (2007).
     *
     *   G. Roman-Perez and J. M. Soler, Phys. Rev. Lett. 103, 096102 (2009).
     *
     *
     * If you are using vdW-DF2, please also cite:
     *
     *   K. Lee, E. D. Murray, L. Kong, B. I. Lundqvist, and
     *   D. C. Langreth, Phys. Rev. B 82, 081101(R) (2010).
     *
     *
     * If you are calculating the stress with vdW-DF, please also cite:
     *
     *   R. Sabatini, E. Kucukbenli, B. Kolb, T. Thonhauser, and
     *   S. de Gironcoli, J. Phys.: Condens. Matter 24, 424209 (2012).
     *

     Carrying out vdW-DF run using the following parameters:

     Nqs =      20    Nr_points =    1024   r_max =   100.000
     q_mesh =
               0.00001000     0.04494208     0.09755937     0.15916263
               0.23128650     0.31572767     0.41458969     0.53033537
               0.66584808     0.82450364     1.01025438     1.22772762
               1.48234092     1.78043706     2.12944203     2.53805004
               3.01644009     3.57652955     4.23227104     5.00000000

     Gradients computed in reciprocal space

[...]

     Starting wfc are  156 randomized atomic wfcs

     Self-consistent Calculation

[...]

     total energy              =   -5198.31179253 Ry
     Harris-Foulkes estimate   =   -5198.31179124 Ry
     estimated scf accuracy    <       0.00000158 Ry

[...]

     iteration # 28     ecut=    36.75 Ry     beta=0.10
     Davidson diagonalization with overlap
     ethr =  6.76E-10,  avg # of iterations =  2.0

[...]

     negative rho (up, down):  6.556E-04 6.555E-04

[...]

     Adding external electric field

     Computed dipole along edir(3) :
        Dipole                0.0241 Ry au,          0.0611 Debye
        Dipole field          0.0001 Ry au

        Potential amp.       -0.0067 Ry
        Total length         44.8691 bohr

     Magnetic moment per site:
     atom:    1    charge:   11.6805    magn:    0.0000    constr:    0.0000
     atom:    2    charge:   11.6805    magn:    0.0000    constr:    0.0000
     atom:    3    charge:   11.6805    magn:    0.0000    constr:    0.0000
     atom:    4    charge:    9.3522    magn:    0.0027    constr:    0.0000
     atom:    5    charge:   11.6820    magn:    0.0000    constr:    0.0000
     atom:    6    charge:   11.6820    magn:    0.0000    constr:    0.0000
     atom:    7    charge:   11.6820    magn:    0.0000    constr:    0.0000
     atom:    8    charge:    9.3563    magn:   -0.0020    constr:    0.0000
     atom:    9    charge:   11.6896    magn:    0.0000    constr:    0.0000
     atom:   10    charge:   11.6896    magn:    0.0000    constr:    0.0000
     atom:   11    charge:   11.6896    magn:    0.0000    constr:    0.0000
     atom:   12    charge:    9.3618    magn:    0.0002    constr:    0.0000

     End of self-consistent calculation

 ------ SPIN UP ------------

[...]

 ------ SPIN DOWN ----------

[...]

          k = 0.0625 0.0000 0.0000 ( 15228 PWs)   bands (ev):

[...]

          k =-0.0938-0.1625 0.0000 ( 15226 PWs)   bands (ev):

  -126.1049-126.1043-126.1037-125.8673-125.8666-125.8660-125.8090-125.8083
  -125.8077-102.3776-102.3470-102.2358 -80.3170 -80.3115 -80.3069 -80.2737
   -80.2708 -80.2679 -80.2604 -80.2578 -80.2542 -80.0745 -80.0698 -80.0663
   -80.0474 -80.0437 -80.0397 -80.0170 -80.0145 -80.0121 -80.0111 -80.0068
   -80.0031 -79.9934 -79.9901 -79.9862 -79.9604 -79.9580 -79.9545 -62.8101
   -62.8098 -62.7713 -62.7710 -62.7225 -62.6880 -62.6735 -62.6733 -62.5527
    -7.8885  -7.5847  -7.5051  -7.4441  -7.4004  -7.3318  -7.3021  -7.2761
    -7.2760  -7.2642  -7.2470  -7.2199  -7.1730  -7.1094  -7.0689  -7.0514
    -7.0385  -7.0103  -6.9627  -6.8853  -6.8461  -6.8212  -6.8029  -6.7935
    -6.7882  -6.7880  -6.7734  -6.7523  -6.7431  -6.7149  -6.7042  -6.6829
    -6.6798  -6.6673  -6.6467  -6.6453  -6.6268  -6.5668  -6.5066  -6.4962
    -6.4598  -6.4511  -6.4444  -6.4261  -6.3681  -6.3180  -6.2825  -5.0122
    -4.7399  -3.5646  -2.9528  -2.3688  -2.2261  -1.7934  -1.6912  -1.2615
    -1.2217  -1.0364  -0.9949  -0.9681  -0.9283  -0.8206  -0.7203  -0.6038
    -0.5997  -0.2026  -0.1182  -0.0176   0.1098   0.4268   1.8030   1.8736
     2.1283   2.3374   4.7625   4.8282   4.8916   4.9645   5.1920   5.3544
     5.4337   5.8264   6.0998   6.1227   6.6298   6.6633   6.7320   6.8075
     7.0590   7.0632   7.4906   7.6003   7.6243   7.6465   8.1853   8.4007
     8.6427   8.8426   9.2219

     the Fermi energy is     0.5211 ev

!    total energy              =   -5198.31179755 Ry
     Harris-Foulkes estimate   =   -5198.31179297 Ry
     estimated scf accuracy    <       0.00000096 Ry

     The total energy is the sum of the following terms:

     one-electron contribution =  -36604.69181985 Ry
     hartree contribution      =   18291.13666270 Ry
     xc contribution           =    -501.24722646 Ry
     ewald contribution        =   13616.52393282 Ry
     electric field correction =       0.00000180 Ry
     smearing contrib. (-TS)   =      -0.03334856 Ry

     total magnetization       =     0.00 Bohr mag/cell
     absolute magnetization    =     0.01 Bohr mag/cell

     convergence has been achieved in  28 iterations

 BEEF-vdW xc energy contributions
           1 :   -444.641140139231
           2 :    403.167976966428
           3 :   -333.493203111704
           4 :    255.760398341092
           5 :   -188.009965432674
           6 :    139.423146912571
           7 :   -108.914408776939
           8 :    88.9402137920880
           9 :   -71.5801039556351
          10 :    53.1031546726178
          11 :   -34.7592542284249
          12 :    20.1800449766639
          13 :   -11.8062831333526
          14 :    8.91554673749971
          15 :   -8.30712068229354
          16 :    6.70312974431590
          17 :   -2.89839001020778
          18 :   -1.84576021276592
          19 :    5.20430581432356
          20 :   -5.75369131081709
          21 :    4.01106017931227
          22 :   -1.91225801286896
          23 :    1.28624930469425
          24 :   -2.55766502279721
          25 :    4.60509709987076
          26 :   -5.76798079251085
          27 :    5.14729841872673
          28 :   -3.21868028632571
          29 :    1.36810822965674
          30 :  -0.794885186227361
          31 :   -34.8712274863519
          32 :   -23.9480070784247

     Forces acting on atoms (Ry/au):

     negative rho (up, down):  6.556E-04 6.555E-04
     atom    1 type  1   force =     0.00000002    0.00583987   -0.01693675
     atom    2 type  1   force =     0.00505756   -0.00291988   -0.01693680
     atom    3 type  1   force =    -0.00505744   -0.00291987   -0.01693672
     atom    4 type  2   force =     0.00000001   -0.00000009    0.03383520
     atom    5 type  1   force =    -0.00000011   -0.00964207    0.00289862
     atom    6 type  1   force =    -0.00835057    0.00482098    0.00289862
     atom    7 type  1   force =     0.00835040    0.00482109    0.00289825
     atom    8 type  2   force =    -0.00000001   -0.00000001    0.00770921
     atom    9 type  1   force =     0.00000023    0.00005900   -0.00004229
     atom   10 type  1   force =     0.00005136   -0.00002933   -0.00004257
     atom   11 type  1   force =    -0.00005139   -0.00002966   -0.00004225
     atom   12 type  2   force =    -0.00000006   -0.00000004    0.00069749

     Total force =     0.049717     Total SCF correction =     0.004270

     entering subroutine stress ...

     negative rho (up, down):  6.556E-04 6.555E-04
          total   stress  (Ry/bohr**3)                   (kbar)     P=  -29.86
  -0.00024673  -0.00000000   0.00000000        -36.29     -0.00      0.00
  -0.00000000  -0.00024673  -0.00000000         -0.00    -36.29     -0.00
   0.00000000  -0.00000000  -0.00011547          0.00     -0.00    -16.99

 !ASE

     Writing output data file calc.save

     General routines

     Parallel routines

   This run was terminated on:  22:57:26   2Jan2019

   JOB DONE.
Job  /afs/slac/g/suncat/bin/suncat-tsmpirun -x LD_LIBRARY_PATH -wdir /scratch/qe649493_QNJcH pw.x -in pw.inp

TID   HOST_NAME   COMMAND_LINE            STATUS            TERMINATION_TIME
00000 suncat0163 pw.x -in pw.inp   Done                     01/02/2019 22:57:26
00001 suncat0163 pw.x -in pw.inp   Done                     01/02/2019 22:57:26
00002 suncat0163 pw.x -in pw.inp   Done                     01/02/2019 22:57:26
00003 suncat0163 pw.x -in pw.inp   Done                     01/02/2019 22:57:26
00004 suncat0163 pw.x -in pw.inp   Done                     01/02/2019 22:57:26
00005 suncat0163 pw.x -in pw.inp   Done                     01/02/2019 22:57:26
00006 suncat0163 pw.x -in pw.inp   Done                     01/02/2019 22:57:26
00007 suncat0163 pw.x -in pw.inp   Done                     01/02/2019 22:57:26
00008 suncat0162 pw.x -in pw.inp   Done                     01/02/2019 22:57:26
00009 suncat0162 pw.x -in pw.inp   Done                     01/02/2019 22:57:26
00010 suncat0162 pw.x -in pw.inp   Done                     01/02/2019 22:57:26
00011 suncat0162 pw.x -in pw.inp   Done                     01/02/2019 22:57:26
00012 suncat0162 pw.x -in pw.inp   Done                     01/02/2019 22:57:26
00013 suncat0162 pw.x -in pw.inp   Done                     01/02/2019 22:57:26
00014 suncat0162 pw.x -in pw.inp   Done                     01/02/2019 22:57:26
00015 suncat0162 pw.x -in pw.inp   Done                     01/02/2019 22:57:26
00016 suncat0139 pw.x -in pw.inp   Done                     01/02/2019 22:57:26
00017 suncat0139 pw.x -in pw.inp   Done                     01/02/2019 22:57:26
00018 suncat0139 pw.x -in pw.inp   Done                     01/02/2019 22:57:26
00019 suncat0139 pw.x -in pw.inp   Done                     01/02/2019 22:57:26
00020 suncat0139 pw.x -in pw.inp   Done                     01/02/2019 22:57:26
00021 suncat0139 pw.x -in pw.inp   Done                     01/02/2019 22:57:26
00022 suncat0139 pw.x -in pw.inp   Done                     01/02/2019 22:57:26
00023 suncat0139 pw.x -in pw.inp   Done                     01/02/2019 22:57:26
00024 suncat0133 pw.x -in pw.inp   Done                     01/02/2019 22:57:26
00025 suncat0133 pw.x -in pw.inp   Done                     01/02/2019 22:57:26
00026 suncat0133 pw.x -in pw.inp   Done                     01/02/2019 22:57:26
00027 suncat0133 pw.x -in pw.inp   Done                     01/02/2019 22:57:26
00028 suncat0133 pw.x -in pw.inp   Done                     01/02/2019 22:57:26
00029 suncat0133 pw.x -in pw.inp   Done                     01/02/2019 22:57:26
00030 suncat0133 pw.x -in pw.inp   Done                     01/02/2019 22:57:26
00031 suncat0133 pw.x -in pw.inp   Done                     01/02/2019 22:57:26
00032 suncat0123 pw.x -in pw.inp   Done                     01/02/2019 22:57:26
00033 suncat0123 pw.x -in pw.inp   Done                     01/02/2019 22:57:26
00034 suncat0123 pw.x -in pw.inp   Done                     01/02/2019 22:57:26
00035 suncat0123 pw.x -in pw.inp   Done                     01/02/2019 22:57:26
00036 suncat0123 pw.x -in pw.inp   Done                     01/02/2019 22:57:26
00037 suncat0123 pw.x -in pw.inp   Done                     01/02/2019 22:57:26
00038 suncat0123 pw.x -in pw.inp   Done                     01/02/2019 22:57:26
00039 suncat0123 pw.x -in pw.inp   Done                     01/02/2019 22:57:26
00040 suncat0122 pw.x -in pw.inp   Done                     01/02/2019 22:57:26
00041 suncat0122 pw.x -in pw.inp   Done                     01/02/2019 22:57:26
00042 suncat0122 pw.x -in pw.inp   Done                     01/02/2019 22:57:26
00043 suncat0122 pw.x -in pw.inp   Done                     01/02/2019 22:57:26
00044 suncat0122 pw.x -in pw.inp   Done                     01/02/2019 22:57:26
00045 suncat0122 pw.x -in pw.inp   Done                     01/02/2019 22:57:26
00046 suncat0122 pw.x -in pw.inp   Done                     01/02/2019 22:57:26
00047 suncat0122 pw.x -in pw.inp   Done                     01/02/2019 22:57:26
00048 suncat0207 pw.x -in pw.inp   Done                     01/02/2019 22:57:26
00049 suncat0207 pw.x -in pw.inp   Done                     01/02/2019 22:57:26
00050 suncat0207 pw.x -in pw.inp   Done                     01/02/2019 22:57:26
00051 suncat0207 pw.x -in pw.inp   Done                     01/02/2019 22:57:26
00052 suncat0207 pw.x -in pw.inp   Done                     01/02/2019 22:57:26
00053 suncat0207 pw.x -in pw.inp   Done                     01/02/2019 22:57:26
00054 suncat0207 pw.x -in pw.inp   Done                     01/02/2019 22:57:26
00055 suncat0207 pw.x -in pw.inp   Done                     01/02/2019 22:57:26
00056 suncat0206 pw.x -in pw.inp   Done                     01/02/2019 22:57:26
00057 suncat0206 pw.x -in pw.inp   Done                     01/02/2019 22:57:26
00058 suncat0206 pw.x -in pw.inp   Done                     01/02/2019 22:57:26
00059 suncat0206 pw.x -in pw.inp   Done                     01/02/2019 22:57:26
00060 suncat0206 pw.x -in pw.inp   Done                     01/02/2019 22:57:26
00061 suncat0206 pw.x -in pw.inp   Done                     01/02/2019 22:57:26
00062 suncat0206 pw.x -in pw.inp   Done                     01/02/2019 22:57:26
00063 suncat0206 pw.x -in pw.inp   Done                     01/02/2019 22:57:26