     Program PWSCF v.5.1rc2 (svn rev. 11289) starts on 31Dec2018 at 11:10: 8

     Current dimensions of program PWSCF are:
     Max number of different atomic species (ntypx) = 10
     Max number of k-points (npk) =  40000
     Max angular momentum in pseudopotentials (lmaxx) =  3
     Presently stress not available with electric field

     IMPORTANT: XC functional enforced from input :
     Exchange-correlation      = BEEF-VDW ( 1  4 27 13 2)
     Any further DFT definition will be discarded
     Please, verify this is what you really want

     Subspace diagonalization in iterative solution of the eigenvalue problem:
     a serial algorithm will be used

     bravais-lattice index     =            0
     lattice parameter (alat)  =       1.8897  a.u.
     unit-cell volume          =    4678.2091 (a.u.)^3
     number of atoms/cell      =           12
     number of atomic types    =            2
     number of electrons       =       177.00
     number of Kohn-Sham states=          118
     kinetic-energy cutoff     =      36.7493  Ry
     charge density cutoff     =     367.4932  Ry
     convergence threshold     =      1.0E-06
     mixing beta               =       0.1000
     number of iterations used =           10  plain     mixing
     Exchange-correlation      = BEEF-VDW ( 1  4 27 13 2)
     nstep                     =           50

     celldm(1)=   1.889726  celldm(2)=   0.000000  celldm(3)=   0.000000
     celldm(4)=   0.000000  celldm(5)=   0.000000  celldm(6)=   0.000000

     crystal axes: (cart. coord. in units of alat)
               a(1) = (   5.698290   0.000000   0.000000 )
               a(2) = (  -2.849145   4.934864   0.000000 )
               a(3) = (   0.000000   0.000000  24.652634 )

     reciprocal axes: (cart. coord. in units 2 pi/alat)
               b(1) = (  0.175491  0.101320  0.000000 )
               b(2) = (  0.000000  0.202640  0.000000 )
               b(3) = (  0.000000  0.000000  0.040564 )

     PseudoPot. # 1 for Pd read from file:
     /afs/slac.stanford.edu/u/if/mamunm/psp/gbrv1.5pbe/Pd.UPF
     MD5 check sum: 2d733d2bc2cbfd217af676df1668a4bc
     Pseudo is Ultrasoft + core correction, Zval = 16.0
     Generated by new atomic code, or converted to UPF format
     Using radial grid of  887 points,  6 beta functions with:
                l(1) =   0
                l(2) =   0
                l(3) =   1
                l(4) =   1
                l(5) =   2
                l(6) =   2
     Q(r) pseudized with  8 coefficients,  rinner =    1.130   1.130   1.130
                                                       1.130   1.130

     PseudoPot. # 2 for Au read from file:
     /afs/slac.stanford.edu/u/if/mamunm/psp/gbrv1.5pbe/Au.UPF
     MD5 check sum: 9d7f43293ad2c663164586bc4b293ffc
     Pseudo is Ultrasoft + core correction, Zval = 11.0
     Generated by new atomic code, or converted to UPF format
     Using radial grid of  985 points,  7 beta functions with:
                l(1) =   0
                l(2) =   0
                l(3) =   1
                l(4) =   1
                l(5) =   2
                l(6) =   2
                l(7) =   3
     Q(r) pseudized with  6 coefficients,  rinner =    1.900   1.900   1.900
                                                       1.900   1.900   1.900
                                                       1.900

     vdW kernel table read from file vdW_kernel_table
     MD5 check sum: 095c7af220d748ca6e76c0b4c6cfb241

     atomic species   valence    mass     pseudopotential
        Pd1           16.00   106.42000     Pd( 1.00)
        Au1           11.00   196.96657     Au( 1.00)

     No symmetry found

   Cartesian axes

     site n.     atom                  positions (alat units)
         1           Pd1 tau(   1) = (   0.0000000   0.0000000  10.0000000  )
         2           Pd1 tau(   2) = (  -1.4245725   2.4674319  10.0000000  )
         3           Pd1 tau(   3) = (   1.4245725   2.4674319  10.0000000  )
         4           Au1 tau(   4) = (   2.8491449   0.0000000  10.0000000  )
         5           Pd1 tau(   5) = (   2.8491449   1.6449546  12.3263171  )
         6           Pd1 tau(   6) = (   1.4245725   4.1123864  12.3263171  )
         7           Pd1 tau(   7) = (  -1.4245725   4.1123864  12.3263171  )
         8           Au1 tau(   8) = (   0.0000000   1.6449546  12.3263171  )
         9           Pd1 tau(   9) = (  -0.0000000   3.2899092  14.6526341  )
        10           Pd1 tau(  10) = (   1.4245725   0.8224773  14.6526341  )
        11           Pd1 tau(  11) = (   4.2737174   0.8224773  14.6526341  )
        12           Au1 tau(  12) = (   2.8491449   3.2899092  14.6526341  )

     number of k points=    20  Fermi-Dirac smearing, width (Ry)=  0.0110
                       cart. coord. in units 2pi/alat
        k(    1) = (   0.0000000   0.0000000   0.0000000), wk =   0.0555556
        k(    2) = (   0.0000000   0.0337733   0.0000000), wk =   0.1111111
        k(    3) = (   0.0000000   0.0675466   0.0000000), wk =   0.1111111
        k(    4) = (   0.0000000  -0.1013199   0.0000000), wk =   0.0555556
        k(    5) = (   0.0292485   0.0168867   0.0000000), wk =   0.1111111
        k(    6) = (   0.0292485   0.0506600   0.0000000), wk =   0.1111111
        k(    7) = (   0.0292485   0.0844333   0.0000000), wk =   0.1111111
        k(    8) = (   0.0292485  -0.0844333   0.0000000), wk =   0.1111111
        k(    9) = (   0.0292485  -0.0506600   0.0000000), wk =   0.1111111
        k(   10) = (   0.0292485  -0.0168867   0.0000000), wk =   0.1111111
        k(   11) = (   0.0584971   0.0337733   0.0000000), wk =   0.1111111
        k(   12) = (   0.0584971   0.0675466   0.0000000), wk =   0.1111111
        k(   13) = (   0.0584971   0.1013199   0.0000000), wk =   0.1111111
        k(   14) = (   0.0584971  -0.0675466   0.0000000), wk =   0.1111111
        k(   15) = (   0.0584971  -0.0337733   0.0000000), wk =   0.1111111
        k(   16) = (   0.0584971   0.0000000   0.0000000), wk =   0.1111111
        k(   17) = (  -0.0877456  -0.0506600   0.0000000), wk =   0.0555556
        k(   18) = (  -0.0877456  -0.0168867   0.0000000), wk =   0.1111111
        k(   19) = (  -0.0877456   0.0168867   0.0000000), wk =   0.1111111
        k(   20) = (  -0.0877456  -0.1519799   0.0000000), wk =   0.0555556

     Largest allocated arrays     est. size (Mb)     dimensions
     Largest temporary arrays     est. size (Mb)     dimensions

     Check: negative/imaginary core charge=   -0.000001    0.000000

     Initial potential from superposition of free atoms
     Check: negative starting charge=   -0.673127

     starting charge  172.49957, renormalised to  177.00000

     negative rho (up, down):  6.907E-01 0.000E+00

     *
     * You are using vdW-DF for exchange-correlation in this calculation.
     * Please cite the following three references that made this development
     * possible:
     *
     *   M. Dion, H. Rydberg, E. Schroder, D. C. Langreth, and
     *   B. I. Lundqvist, Phys. Rev. Lett. 92, 246401 (2004).
     *
     *   T. Thonhauser, V. R. Cooper, S. Li, A. Puzder, P. Hyldgaard, and
     *   D. C. Langreth, Phys. Rev. B 76, 125112 (2007).
     *
     *   G. Roman-Perez and J. M. Soler, Phys. Rev. Lett. 103, 096102 (2009).
     *
     *
     * If you are using vdW-DF2, please also cite:
     *
     *   K. Lee, E. D. Murray, L. Kong, B. I. Lundqvist, and
     *   D. C. Langreth, Phys. Rev. B 82, 081101(R) (2010).
     *
     *
     * If you are calculating the stress with vdW-DF, please also cite:
     *
     *   R. Sabatini, E. Kucukbenli, B. Kolb, T. Thonhauser, and
     *   S. de Gironcoli, J. Phys.: Condens. Matter 24, 424209 (2012).
     *

     Carrying out vdW-DF run using the following parameters:

     Nqs =      20    Nr_points =    1024   r_max =   100.000
     q_mesh =
               0.00001000     0.04494208     0.09755937     0.15916263
               0.23128650     0.31572767     0.41458969     0.53033537
               0.66584808     0.82450364     1.01025438     1.22772762
               1.48234092     1.78043706     2.12944203     2.53805004
               3.01644009     3.57652955     4.23227104     5.00000000

     Gradients computed in reciprocal space

     Adding external electric field

     Computed dipole along edir(3) :
        Dipole               -0.0000 Ry au,         -0.0000 Debye
        Dipole field         -0.0000 Ry au

        Potential amp.        0.0000 Ry
        Total length         45.4221 bohr

     Starting wfc are  135 randomized atomic wfcs

     Self-consistent Calculation

     iteration #  1     ecut=    36.75 Ry     beta=0.10
     Davidson diagonalization with overlap
     ethr =  1.00E-02,  avg # of iterations =  7.7

[...]

     total energy              =   -2148.31761913 Ry
     Harris-Foulkes estimate   =   -2150.59095843 Ry
     estimated scf accuracy    <      13.72137378 Ry

[...]

     End of self-consistent calculation

          k = 0.0000 0.0000 0.0000 ( 17663 PWs)   bands (ev):

   -49.1127 -49.0465 -49.0465 -49.0062 -48.9927 -48.9927 -48.9500 -48.9093
   -48.9093 -48.9051 -48.8981 -48.8400 -48.8400 -48.8279 -48.8279 -48.7470
   -48.7444 -48.7144 -48.7144 -48.7137 -48.7137 -48.6295 -48.6167 -48.6095
   -48.6094 -48.6026 -48.6026  -5.8053  -4.5685  -4.4024  -4.3275  -4.3275
    -4.1374  -4.1374  -3.9590  -3.9135  -3.8945  -3.8945  -3.8218  -3.8218
    -3.5266  -3.1584  -3.0073  -3.0073  -2.8005  -2.8005  -2.4163  -2.2690
    -2.1238  -2.0976  -1.9406  -1.9406  -1.8057  -1.8057  -1.6758  -1.6758
    -1.6630  -1.6630  -1.3673  -1.1414  -0.9181  -0.9181  -0.7869  -0.7869
    -0.7720  -0.7720  -0.5380  -0.3840  -0.3658  -0.3658  -0.1192  -0.0846
    -0.0846   0.1121   0.1121   0.2538   0.2538   0.3385   0.3385   0.3680
     0.3680   0.3806   0.5036   0.5036   0.5545   0.6175   0.6175   0.6372
     0.8120   0.8511   2.0756   2.5358   2.5358   2.8170   3.6852   3.8080
     3.8080   3.9506   4.1000   4.1000   5.1075   5.4881   5.6093   6.0302
     6.3339   6.8233   7.3064   7.3064   7.3136   7.4917   7.4917   7.5897
     8.5011   8.5011   9.0831   9.7121  10.0778  10.3386

[...]

          k =-0.0877-0.0507 0.0000 ( 17564 PWs)   bands (ev):

[...]

     the Fermi energy is     0.6168 ev

!    total energy              =   -2148.18332724 Ry
     Harris-Foulkes estimate   =   -2148.18885206 Ry
     estimated scf accuracy    <       0.00000044 Ry

     The total energy is the sum of the following terms:

     one-electron contribution =  -16609.37649779 Ry
     hartree contribution      =    8365.73797251 Ry
     xc contribution           =    -484.77404522 Ry
     ewald contribution        =    6580.31609502 Ry
     electric field correction =       0.00000001 Ry
     smearing contrib. (-TS)   =      -0.08685177 Ry

     convergence has been achieved in  16 iterations

 BEEF-vdW xc energy contributions
           1 :   -426.425996816663
           2 :    392.416716103647
           3 :   -333.401220447711
           4 :    263.644951589764
           5 :   -197.424166329085
           6 :    144.609706568050
           7 :   -108.647056961941
           8 :    87.2418706140665
           9 :   -74.9759758290818
[...]
     Using radial grid of  887 points,  6 beta functions with:
                l(1) =   0
                l(2) =   0
                l(3) =   1
                l(4) =   1
                l(5) =   2
                l(6) =   2
     Q(r) pseudized with  8 coefficients,  rinner =    1.130   1.130   1.130
                                                       1.130   1.130

     PseudoPot. # 2 for Au read from file:
     /afs/slac.stanford.edu/u/if/mamunm/psp/gbrv1.5pbe/Au.UPF
     MD5 check sum: 9d7f43293ad2c663164586bc4b293ffc
     Pseudo is Ultrasoft + core correction, Zval = 11.0
     Generated by new atomic code, or converted to UPF format
     Using radial grid of  985 points,  7 beta functions with:
                l(1) =   0
                l(2) =   0
                l(3) =   1
                l(4) =   1
                l(5) =   2
                l(6) =   2
                l(7) =   3
     Q(r) pseudized with  6 coefficients,  rinner =    1.900   1.900   1.900
                                                       1.900   1.900   1.900
                                                       1.900

     vdW kernel table read from file vdW_kernel_table
     MD5 check sum: 095c7af220d748ca6e76c0b4c6cfb241

     atomic species   valence    mass     pseudopotential
        Pd1           16.00   106.42000     Pd( 1.00)
        Au1           11.00   196.96657     Au( 1.00)

     No symmetry found

   Cartesian axes

     site n.     atom                  positions (alat units)
         1           Pd1 tau(   1) = (   0.0000000   0.0000000  10.0000000  )
         2           Pd1 tau(   2) = (  -1.4245725   2.4674319  10.0000000  )
         3           Pd1 tau(   3) = (   1.4245725   2.4674319  10.0000000  )
         4           Au1 tau(   4) = (   2.8491449   0.0000000  10.0000000  )
         5           Pd1 tau(   5) = (   2.8491449   1.6449546  12.3263171  )
         6           Pd1 tau(   6) = (   1.4245725   4.1123864  12.3263171  )
         7           Pd1 tau(   7) = (  -1.4245725   4.1123864  12.3263171  )
         8           Au1 tau(   8) = (   0.0000000   1.6449546  12.3263171  )
         9           Pd1 tau(   9) = (  -0.0000043   3.2985999  14.6568966  )
        10           Pd1 tau(  10) = (   1.4321001   0.8181253  14.6569005  )
        11           Pd1 tau(  11) = (   4.2661936   0.8181319  14.6568932  )
        12           Au1 tau(  12) = (   2.8491394   3.2899031  14.7301984  )

     number of k points=    20  Fermi-Dirac smearing, width (Ry)=  0.0110
                       cart. coord. in units 2pi/alat
        k(    1) = (   0.0000000   0.0000000   0.0000000), wk =   0.0555556
        k(    2) = (   0.0000000   0.0337733   0.0000000), wk =   0.1111111
        k(    3) = (   0.0000000   0.0675466   0.0000000), wk =   0.1111111
        k(    4) = (   0.0000000  -0.1013199   0.0000000), wk =   0.0555556
        k(    5) = (   0.0292485   0.0168867   0.0000000), wk =   0.1111111
        k(    6) = (   0.0292485   0.0506600   0.0000000), wk =   0.1111111
        k(    7) = (   0.0292485   0.0844333   0.0000000), wk =   0.1111111
        k(    8) = (   0.0292485  -0.0844333   0.0000000), wk =   0.1111111
        k(    9) = (   0.0292485  -0.0506600   0.0000000), wk =   0.1111111
        k(   10) = (   0.0292485  -0.0168867   0.0000000), wk =   0.1111111
        k(   11) = (   0.0584971   0.0337733   0.0000000), wk =   0.1111111
        k(   12) = (   0.0584971   0.0675466   0.0000000), wk =   0.1111111
        k(   13) = (   0.0584971   0.1013199   0.0000000), wk =   0.1111111
        k(   14) = (   0.0584971  -0.0675466   0.0000000), wk =   0.1111111
        k(   15) = (   0.0584971  -0.0337733   0.0000000), wk =   0.1111111
        k(   16) = (   0.0584971   0.0000000   0.0000000), wk =   0.1111111
        k(   17) = (  -0.0877456  -0.0506600   0.0000000), wk =   0.0555556
        k(   18) = (  -0.0877456  -0.0168867   0.0000000), wk =   0.1111111
        k(   19) = (  -0.0877456   0.0168867   0.0000000), wk =   0.1111111
        k(   20) = (  -0.0877456  -0.1519799   0.0000000), wk =   0.0555556

     Largest allocated arrays     est. size (Mb)     dimensions
     Largest temporary arrays     est. size (Mb)     dimensions

     Check: negative/imaginary core charge=   -0.000001    0.000000

     Initial potential from superposition of free atoms
     Check: negative starting charge=   -0.675645

     starting charge  172.49957, renormalised to  177.00000

[...]

     *
     * You are using vdW-DF for exchange-correlation in this calculation.
     * Please cite the following three references that made this development
     * possible:
     *
     *   M. Dion, H. Rydberg, E. Schroder, D. C. Langreth, and
     *   B. I. Lundqvist, Phys. Rev. Lett. 92, 246401 (2004).
     *
     *   T. Thonhauser, V. R. Cooper, S. Li, A. Puzder, P. Hyldgaard, and
     *   D. C. Langreth, Phys. Rev. B 76, 125112 (2007).
     *
     *   G. Roman-Perez and J. M. Soler, Phys. Rev. Lett. 103, 096102 (2009).
     *
     *
     * If you are using vdW-DF2, please also cite:
     *
     *   K. Lee, E. D. Murray, L. Kong, B. I. Lundqvist, and
     *   D. C. Langreth, Phys. Rev. B 82, 081101(R) (2010).
     *
     *
     * If you are calculating the stress with vdW-DF, please also cite:
     *
     *   R. Sabatini, E. Kucukbenli, B. Kolb, T. Thonhauser, and
     *   S. de Gironcoli, J. Phys.: Condens. Matter 24, 424209 (2012).
     *

     Carrying out vdW-DF run using the following parameters:

     Nqs =      20    Nr_points =    1024   r_max =   100.000
     q_mesh =
               0.00001000     0.04494208     0.09755937     0.15916263
               0.23128650     0.31572767     0.41458969     0.53033537
               0.66584808     0.82450364     1.01025438     1.22772762
               1.48234092     1.78043706     2.12944203     2.53805004
               3.01644009     3.57652955     4.23227104     5.00000000

     Gradients computed in reciprocal space

[...]

     Starting wfc are  135 randomized atomic wfcs

     Self-consistent Calculation

[...]

     total energy              =   -2148.19115165 Ry
     Harris-Foulkes estimate   =   -2148.19115163 Ry
     estimated scf accuracy    <       0.00000182 Ry

     iteration # 17     ecut=    36.75 Ry     beta=0.10
     Davidson diagonalization with overlap
     ethr =  1.03E-09,  avg # of iterations =  2.0

[...]

     negative rho (up, down):  7.031E-01 0.000E+00

     Adding external electric field

     Computed dipole along edir(3) :
        Dipole               -0.0071 Ry au,         -0.0180 Debye
        Dipole field         -0.0000 Ry au

        Potential amp.        0.0017 Ry
        Total length         45.4221 bohr

     End of self-consistent calculation

[...]

          k = 0.0585 0.0000 0.0000 ( 17617 PWs)   bands (ev):

[...]

          k =-0.0877-0.1520 0.0000 ( 17564 PWs)   bands (ev):

   -49.0760 -49.0224 -49.0138 -49.0041 -48.9994 -48.9805 -48.9785 -48.9640
   -48.9127 -48.8772 -48.8683 -48.8114 -48.8076 -48.8047 -48.8038 -48.8022
   -48.7984 -48.7965 -48.7920 -48.7332 -48.7313 -48.6298 -48.6273 -48.6266
   -48.6180 -48.6177 -48.6155  -4.6057  -4.2454  -3.8033  -3.7863  -3.7597
    -3.6389  -3.4998  -3.4552  -3.4397  -3.2251  -3.1715  -3.1136  -3.0992
    -3.0703  -2.9782  -2.8201  -2.7686  -2.6304  -2.5870  -2.5407  -2.4821
    -2.3236  -2.2347  -2.1203  -2.0144  -2.0072  -1.9871  -1.8028  -1.7711
    -1.7290  -1.4738  -1.4637  -1.4599  -1.2807  -1.2774  -1.2543  -1.2476
    -1.2244  -1.1335  -1.0792  -1.0309  -0.9332  -0.8483  -0.8392  -0.7729
    -0.7071  -0.6153  -0.5921  -0.5897  -0.4811  -0.3972  -0.3714  -0.3283
    -0.3024  -0.1743  -0.0077   0.0094   0.1236   0.2348   0.3085   0.3129
     0.3659   0.4352   0.6749   2.2131   2.5171   2.8113   2.8976   3.6431
     3.8525   4.9411   4.9993   5.6587   5.8536   6.6068   6.6118   7.1936
     7.2007   7.2311   7.2337   8.1545   8.4000   8.4133   8.4194   8.6618
     8.7386   8.8870   9.1225   9.1731   9.5488   9.5825

     the Fermi energy is     0.6069 ev

!    total energy              =   -2148.19115392 Ry
     Harris-Foulkes estimate   =   -2148.19115176 Ry
     estimated scf accuracy    <       0.00000028 Ry

     The total energy is the sum of the following terms:

     one-electron contribution =  -16567.02152581 Ry
     hartree contribution      =    8344.53108707 Ry
     xc contribution           =    -484.75345628 Ry
     ewald contribution        =    6559.13952132 Ry
     electric field correction =       0.00000014 Ry
     smearing contrib. (-TS)   =      -0.08678036 Ry

     convergence has been achieved in  17 iterations

 BEEF-vdW xc energy contributions
           1 :   -426.598185439190
           2 :    392.569157714394
           3 :   -333.529270863841
           4 :    263.763968633859
           5 :   -197.561657247639
           6 :    144.788961631773
           7 :   -108.872291373651
           8 :    87.4939606016382
           9 :   -75.2219618791667
          10 :    66.6116386356492
          11 :   -58.3851875108020
          12 :    49.9547962986832
          13 :   -42.4870081262270
          14 :    37.3553376808989
          15 :   -34.9485036776305
          16 :    34.3854063366360
          17 :   -34.0913325131822
          18 :    32.7245428490796
          19 :   -29.8571790132559
          20 :    26.0583142989449
          21 :   -22.4307888729049
          22 :    19.9396931294711
          23 :   -18.9301997648236
          24 :    19.0568241888487
          25 :   -19.5898188372813
          26 :    19.8598351075650
          27 :   -19.5703186159567
          28 :    18.8291332185755
          29 :   -17.9443166222842
          30 :    17.1567016406451
          31 :   -38.3152780067737
          32 :   -28.1627194457482

     Forces acting on atoms (Ry/au):

     negative rho (up, down):  7.031E-01 0.000E+00
     atom    1 type  1   force =     0.00000082   -0.00279332   -0.00068050
     atom    2 type  1   force =    -0.00242002    0.00139697   -0.00068067
     atom    3 type  1   force =     0.00241927    0.00139597   -0.00068130
     atom    4 type  2   force =    -0.00000185   -0.00000002   -0.01308234
     atom    5 type  1   force =    -0.00000053    0.00328429    0.00416871
     atom    6 type  1   force =     0.00284515   -0.00164280    0.00416903
     atom    7 type  1   force =    -0.00284414   -0.00164173    0.00416835
     atom    8 type  2   force =     0.00000030   -0.00000020    0.00191879
     atom    9 type  1   force =     0.00000017   -0.00051402    0.00005816
     atom   10 type  1   force =    -0.00044475    0.00025730    0.00005719
     atom   11 type  1   force =     0.00044411    0.00025675    0.00005900
     atom   12 type  2   force =     0.00000147    0.00000081    0.00052558

     Total force =     0.016888     Total SCF correction =     0.003322
     SCF correction compared to forces is large: reduce conv_thr to get better values

     entering subroutine stress ...

     negative rho (up, down):  7.031E-01 0.000E+00
          total   stress  (Ry/bohr**3)                   (kbar)     P=   -8.71
  -0.00009003  -0.00000000   0.00000000        -13.24     -0.00      0.00
  -0.00000000  -0.00009003   0.00000000         -0.00    -13.24      0.00
   0.00000000   0.00000000   0.00000252          0.00      0.00      0.37

 !ASE

     Writing output data file calc.save

     General routines

     Parallel routines

   This run was terminated on:  12:19:12  31Dec2018

   JOB DONE.
Job  /afs/slac/g/suncat/bin/suncat-tsmpirun -x LD_LIBRARY_PATH -wdir /scratch/qe648749_5CWXE pw.x -in pw.inp

TID   HOST_NAME   COMMAND_LINE            STATUS            TERMINATION_TIME
00000 suncat0169 pw.x -in pw.inp   Done                     12/31/2018 12:19:12
00001 suncat0169 pw.x -in pw.inp   Done                     12/31/2018 12:19:12
00002 suncat0169 pw.x -in pw.inp   Done                     12/31/2018 12:19:12
00003 suncat0169 pw.x -in pw.inp   Done                     12/31/2018 12:19:12
00004 suncat0169 pw.x -in pw.inp   Done                     12/31/2018 12:19:12
00005 suncat0169 pw.x -in pw.inp   Done                     12/31/2018 12:19:12
00006 suncat0169 pw.x -in pw.inp   Done                     12/31/2018 12:19:12
00007 suncat0169 pw.x -in pw.inp   Done                     12/31/2018 12:19:12
00008 suncat0168 pw.x -in pw.inp   Done                     12/31/2018 12:19:12
00009 suncat0168 pw.x -in pw.inp   Done                     12/31/2018 12:19:12
00010 suncat0168 pw.x -in pw.inp   Done                     12/31/2018 12:19:12
00011 suncat0168 pw.x -in pw.inp   Done                     12/31/2018 12:19:12
00012 suncat0168 pw.x -in pw.inp   Done                     12/31/2018 12:19:12
00013 suncat0168 pw.x -in pw.inp   Done                     12/31/2018 12:19:12
00014 suncat0168 pw.x -in pw.inp   Done                     12/31/2018 12:19:12
00015 suncat0168 pw.x -in pw.inp   Done                     12/31/2018 12:19:12
00016 suncat0161 pw.x -in pw.inp   Done                     12/31/2018 12:19:12
00017 suncat0161 pw.x -in pw.inp   Done                     12/31/2018 12:19:12
00018 suncat0161 pw.x -in pw.inp   Done                     12/31/2018 12:19:12
00019 suncat0161 pw.x -in pw.inp   Done                     12/31/2018 12:19:12
00020 suncat0161 pw.x -in pw.inp   Done                     12/31/2018 12:19:12
00021 suncat0161 pw.x -in pw.inp   Done                     12/31/2018 12:19:12
00022 suncat0161 pw.x -in pw.inp   Done                     12/31/2018 12:19:12
00023 suncat0161 pw.x -in pw.inp   Done                     12/31/2018 12:19:12
00024 suncat0137 pw.x -in pw.inp   Done                     12/31/2018 12:19:12
00025 suncat0137 pw.x -in pw.inp   Done                     12/31/2018 12:19:12
00026 suncat0137 pw.x -in pw.inp   Done                     12/31/2018 12:19:12
00027 suncat0137 pw.x -in pw.inp   Done                     12/31/2018 12:19:12
00028 suncat0137 pw.x -in pw.inp   Done                     12/31/2018 12:19:12
00029 suncat0137 pw.x -in pw.inp   Done                     12/31/2018 12:19:12
00030 suncat0137 pw.x -in pw.inp   Done                     12/31/2018 12:19:12
00031 suncat0137 pw.x -in pw.inp   Done                     12/31/2018 12:19:12
00032 suncat0117 pw.x -in pw.inp   Done                     12/31/2018 12:19:12
00033 suncat0117 pw.x -in pw.inp   Done                     12/31/2018 12:19:12
00034 suncat0117 pw.x -in pw.inp   Done                     12/31/2018 12:19:12
00035 suncat0117 pw.x -in pw.inp   Done                     12/31/2018 12:19:12
00036 suncat0117 pw.x -in pw.inp   Done                     12/31/2018 12:19:12
00037 suncat0117 pw.x -in pw.inp   Done                     12/31/2018 12:19:12
00038 suncat0117 pw.x -in pw.inp   Done                     12/31/2018 12:19:12
00039 suncat0117 pw.x -in pw.inp   Done                     12/31/2018 12:19:12
00040 suncat0250 pw.x -in pw.inp   Done                     12/31/2018 12:19:12
00041 suncat0250 pw.x -in pw.inp   Done                     12/31/2018 12:19:12
00042 suncat0250 pw.x -in pw.inp   Done                     12/31/2018 12:19:12
00043 suncat0250 pw.x -in pw.inp   Done                     12/31/2018 12:19:12
00044 suncat0250 pw.x -in pw.inp   Done                     12/31/2018 12:19:12
00045 suncat0250 pw.x -in pw.inp   Done                     12/31/2018 12:19:12
00046 suncat0250 pw.x -in pw.inp   Done                     12/31/2018 12:19:12
00047 suncat0250 pw.x -in pw.inp   Done                     12/31/2018 12:19:12
00048 suncat0249 pw.x -in pw.inp   Done                     12/31/2018 12:19:12
00049 suncat0249 pw.x -in pw.inp   Done                     12/31/2018 12:19:12
00050 suncat0249 pw.x -in pw.inp   Done                     12/31/2018 12:19:12
00051 suncat0249 pw.x -in pw.inp   Done                     12/31/2018 12:19:12
00052 suncat0249 pw.x -in pw.inp   Done                     12/31/2018 12:19:12
00053 suncat0249 pw.x -in pw.inp   Done                     12/31/2018 12:19:12
00054 suncat0249 pw.x -in pw.inp   Done                     12/31/2018 12:19:12
00055 suncat0249 pw.x -in pw.inp   Done                     12/31/2018 12:19:12
00056 suncat0231 pw.x -in pw.inp   Done                     12/31/2018 12:19:12
00057 suncat0231 pw.x -in pw.inp   Done                     12/31/2018 12:19:12
00058 suncat0231 pw.x -in pw.inp   Done                     12/31/2018 12:19:12
00059 suncat0231 pw.x -in pw.inp   Done                     12/31/2018 12:19:12
00060 suncat0231 pw.x -in pw.inp   Done                     12/31/2018 12:19:12
00061 suncat0231 pw.x -in pw.inp   Done                     12/31/2018 12:19:12
00062 suncat0231 pw.x -in pw.inp   Done                     12/31/2018 12:19:12
00063 suncat0231 pw.x -in pw.inp   Done                     12/31/2018 12:19:12