     Program PWSCF v.5.1rc2 (svn rev. 11289) starts on 26Dec2018 at 10:13:15

     Current dimensions of program PWSCF are:
     Max number of different atomic species (ntypx) = 10
     Max number of k-points (npk) =  40000
     Max angular momentum in pseudopotentials (lmaxx) =  3
     Presently stress not available with electric field

     IMPORTANT: XC functional enforced from input :
     Exchange-correlation      = BEEF-VDW ( 1  4 27 13 2)
     Any further DFT definition will be discarded
     Please, verify this is what you really want

     Subspace diagonalization in iterative solution of the eigenvalue problem:
     a serial algorithm will be used

     bravais-lattice index     =            0
     lattice parameter (alat)  =       1.8897  a.u.
     unit-cell volume          =    5406.7511 (a.u.)^3
     number of atoms/cell      =           12
     number of atomic types    =            2
     number of electrons       =       153.00
     number of Kohn-Sham states=          106
     kinetic-energy cutoff     =      36.7493  Ry
     charge density cutoff     =     367.4932  Ry
     convergence threshold     =      1.0E-06
     mixing beta               =       0.1000
     number of iterations used =           10  plain     mixing
     Exchange-correlation      = BEEF-VDW ( 1  4 27 13 2)
     nstep                     =           50

     celldm(1)=   1.889726  celldm(2)=   0.000000  celldm(3)=   0.000000
     celldm(4)=   0.000000  celldm(5)=   0.000000  celldm(6)=   0.000000

     crystal axes: (cart. coord. in units of alat)
               a(1) = (   6.086896   0.000000   0.000000 )
               a(2) = (  -3.043448   5.271407   0.000000 )
               a(3) = (   0.000000   0.000000  24.969930 )

     reciprocal axes: (cart. coord. in units 2 pi/alat)
               b(1) = (  0.164287  0.094851  0.000000 )
               b(2) = (  0.000000  0.189703  0.000000 )
               b(3) = (  0.000000  0.000000  0.040048 )

     PseudoPot. # 1 for Hg read from file:
     /afs/slac.stanford.edu/u/if/mamunm/psp/gbrv1.5pbe/Hg.UPF
     MD5 check sum: 8f42caffe07f7fd9c0a564347f8c5498
     Pseudo is Ultrasoft + core correction, Zval = 12.0
     Generated by new atomic code, or converted to UPF format
     Using radial grid of  985 points,  6 beta functions with:
                l(1) =   0
                l(2) =   0
                l(3) =   1
                l(4) =   1
                l(5) =   2
                l(6) =   2
     Q(r) pseudized with  8 coefficients,  rinner =    2.000   2.000   2.000
                                                       2.000   2.000

     PseudoPot. # 2 for Re read from file:
     /afs/slac.stanford.edu/u/if/mamunm/psp/gbrv1.5pbe/Re.UPF
     MD5 check sum: 85f993410f3e006da9d71c142b4ad953
     Pseudo is Ultrasoft + core correction, Zval = 15.0
     Generated by new atomic code, or converted to UPF format
     Using radial grid of  981 points,  8 beta functions with:
                l(1) =   0
                l(2) =   0
                l(3) =   1
                l(4) =   1
                l(5) =   2
                l(6) =   2
                l(7) =   3
                l(8) =   3
     Q(r) pseudized with  8 coefficients,  rinner =    1.150   1.150   1.150
                                                       1.150   1.150   1.150
                                                       1.150

     vdW kernel table read from file vdW_kernel_table
     MD5 check sum: 095c7af220d748ca6e76c0b4c6cfb241

     atomic species   valence    mass     pseudopotential
        Hg1           12.00   200.59200     Hg( 1.00)
        Re1           15.00   186.20700     Re( 1.00)

     No symmetry found

   Cartesian axes

     site n.     atom                  positions (alat units)
         1           Hg1 tau(   1) = (   0.0000000   0.0000000  10.0000000  )
         2           Hg1 tau(   2) = (  -1.5217241   2.6357035  10.0000000  )
         3           Hg1 tau(   3) = (   1.5217241   2.6357035  10.0000000  )
         4           Re1 tau(   4) = (   3.0434482   0.0000000  10.0000000  )
         5           Hg1 tau(   5) = (   3.0434482   1.7571356  12.4849651  )
         6           Hg1 tau(   6) = (   1.5217241   4.3928391  12.4849651  )
         7           Hg1 tau(   7) = (  -1.5217241   4.3928391  12.4849651  )
         8           Re1 tau(   8) = (   0.0000000   1.7571356  12.4849651  )
         9           Hg1 tau(   9) = (  -0.0000000   3.5142713  14.9699301  )
        10           Hg1 tau(  10) = (   1.5217241   0.8785678  14.9699301  )
        11           Hg1 tau(  11) = (   4.5651723   0.8785678  14.9699301  )
        12           Re1 tau(  12) = (   3.0434482   3.5142713  14.9699301  )

     number of k points=    20  Fermi-Dirac smearing, width (Ry)=  0.0110
                       cart. coord. in units 2pi/alat
        k(    1) = (   0.0000000   0.0000000   0.0000000), wk =   0.0555556
        k(    2) = (   0.0000000   0.0316171   0.0000000), wk =   0.1111111
        k(    3) = (   0.0000000   0.0632342   0.0000000), wk =   0.1111111
        k(    4) = (   0.0000000  -0.0948513   0.0000000), wk =   0.0555556
        k(    5) = (   0.0273812   0.0158086   0.0000000), wk =   0.1111111
        k(    6) = (   0.0273812   0.0474257   0.0000000), wk =   0.1111111
        k(    7) = (   0.0273812   0.0790428   0.0000000), wk =   0.1111111
        k(    8) = (   0.0273812  -0.0790428   0.0000000), wk =   0.1111111
        k(    9) = (   0.0273812  -0.0474257   0.0000000), wk =   0.1111111
        k(   10) = (   0.0273812  -0.0158086   0.0000000), wk =   0.1111111
        k(   11) = (   0.0547624   0.0316171   0.0000000), wk =   0.1111111
        k(   12) = (   0.0547624   0.0632342   0.0000000), wk =   0.1111111
        k(   13) = (   0.0547624   0.0948513   0.0000000), wk =   0.1111111
        k(   14) = (   0.0547624  -0.0632342   0.0000000), wk =   0.1111111
        k(   15) = (   0.0547624  -0.0316171   0.0000000), wk =   0.1111111
        k(   16) = (   0.0547624   0.0000000   0.0000000), wk =   0.1111111
        k(   17) = (  -0.0821437  -0.0474257   0.0000000), wk =   0.0555556
        k(   18) = (  -0.0821437  -0.0158086   0.0000000), wk =   0.1111111
        k(   19) = (  -0.0821437   0.0158086   0.0000000), wk =   0.1111111
        k(   20) = (  -0.0821437  -0.1422770   0.0000000), wk =   0.0555556

     Largest allocated arrays     est. size (Mb)     dimensions
     Largest temporary arrays     est. size (Mb)     dimensions

     Initial potential from superposition of free atoms
     Check: negative starting charge=   -0.389657

     starting charge  151.49934, renormalised to  153.00000

     negative rho (up, down):  3.935E-01 0.000E+00

     *
     * You are using vdW-DF for exchange-correlation in this calculation.
     * Please cite the following three references that made this development
     * possible:
     *
     *   M. Dion, H. Rydberg, E. Schroder, D. C. Langreth, and
     *   B. I. Lundqvist, Phys. Rev. Lett. 92, 246401 (2004).
     *
     *   T. Thonhauser, V. R. Cooper, S. Li, A. Puzder, P. Hyldgaard, and
     *   D. C. Langreth, Phys. Rev. B 76, 125112 (2007).
     *
     *   G. Roman-Perez and J. M. Soler, Phys. Rev. Lett. 103, 096102 (2009).
     *
     *
     * If you are using vdW-DF2, please also cite:
     *
     *   K. Lee, E. D. Murray, L. Kong, B. I. Lundqvist, and
     *   D. C. Langreth, Phys. Rev. B 82, 081101(R) (2010).
     *
     *
     * If you are calculating the stress with vdW-DF, please also cite:
     *
     *   R. Sabatini, E. Kucukbenli, B. Kolb, T. Thonhauser, and
     *   S. de Gironcoli, J. Phys.: Condens. Matter 24, 424209 (2012).
     *

     Carrying out vdW-DF run using the following parameters:

     Nqs =      20    Nr_points =    1024   r_max =   100.000
     q_mesh =
               0.00001000     0.04494208     0.09755937     0.15916263
               0.23128650     0.31572767     0.41458969     0.53033537
               0.66584808     0.82450364     1.01025438     1.22772762
               1.48234092     1.78043706     2.12944203     2.53805004
               3.01644009     3.57652955     4.23227104     5.00000000

     Gradients computed in reciprocal space

     Adding external electric field

     Computed dipole along edir(3) :
        Dipole                0.0000 Ry au,          0.0000 Debye
        Dipole field          0.0000 Ry au

        Potential amp.       -0.0000 Ry
        Total length         46.0067 bohr

     Starting wfc are  120 randomized atomic wfcs

     Self-consistent Calculation

     iteration #  1     ecut=    36.75 Ry     beta=0.10
     Davidson diagonalization with overlap
     ethr =  1.00E-02,  avg # of iterations =  9.4

[...]

     total energy              =   -1557.26444973 Ry
     Harris-Foulkes estimate   =   -1558.21611838 Ry
     estimated scf accuracy    <       5.37879479 Ry

[...]

     End of self-consistent calculation

          k = 0.0000 0.0000 0.0000 ( 20335 PWs)   bands (ev):

   -79.0262 -79.0248 -79.0248 -40.7694 -40.7690 -40.7556 -40.7556 -40.7546
   -40.6958 -40.6958 -40.6956 -40.6956  -8.3288  -7.6061  -7.5213  -7.4452
    -7.4451  -7.4171  -7.3724  -7.2102  -7.1784  -7.1784  -7.0386  -7.0386
    -6.8564  -6.8564  -6.8202  -6.5689  -6.5228  -6.5228  -6.3650  -6.2080
    -6.2080  -6.1895  -6.1132  -6.1106  -6.1105  -6.0154  -6.0153  -5.7460
    -5.7460  -5.6734  -5.6734  -5.5588  -5.5588  -5.5454  -5.5387  -5.4721
    -5.4721  -5.4488  -5.4488  -5.2246  -5.2246  -5.1367  -5.0641  -4.9891
    -4.9891  -4.7278  -4.7164  -3.1291  -1.6940  -1.6940  -1.3210  -1.3210
    -1.1596  -0.6002  -0.6001  -0.5500   0.1258   0.1259   0.2487   0.7655
     0.8591   0.8591   1.0142   1.1348   1.1348   1.1759   1.1759   1.9556
     1.9556   2.0841   2.0841   2.0999   2.1911   3.3106   3.3106   3.5162
     3.5162   3.5494   4.2294   4.2294   4.2366   4.5095   4.9267   5.1138
     5.6452   6.5807   6.7572   7.5174   7.5174   7.8166   7.8974   7.8974
     8.2109   8.4586

[...]

          k =-0.0821-0.0474 0.0000 ( 20376 PWs)   bands (ev):

[...]

     the Fermi energy is     1.0251 ev

!    total energy              =   -1557.49750578 Ry
     Harris-Foulkes estimate   =   -1557.49750449 Ry
     estimated scf accuracy    <       0.00000012 Ry

     The total energy is the sum of the following terms:

     one-electron contribution =  -10388.27886498 Ry
     hartree contribution      =    5258.26022962 Ry
     xc contribution           =    -526.09795457 Ry
     ewald contribution        =    4098.69223921 Ry
     electric field correction =       0.00000000 Ry
     smearing contrib. (-TS)   =      -0.07315505 Ry

     convergence has been achieved in  16 iterations

 BEEF-vdW xc energy contributions
           1 :   -463.064472905241
           2 :    427.653377453148
           3 :   -365.319435088714
           4 :    289.790819724668
           5 :   -215.382274227863
           6 :    152.874990103427
           7 :   -107.235377618308
           8 :    77.6475382566858
           9 :   -59.4703666348951
          10 :    47.0479100390992
          11 :   -36.1299171252380
          12 :    25.0224840954081
          13 :   -14.2977823606250
[...]
     /afs/slac.stanford.edu/u/if/mamunm/psp/gbrv1.5pbe/Hg.UPF
     MD5 check sum: 8f42caffe07f7fd9c0a564347f8c5498
     Pseudo is Ultrasoft + core correction, Zval = 12.0
     Generated by new atomic code, or converted to UPF format
     Using radial grid of  985 points,  6 beta functions with:
                l(1) =   0
                l(2) =   0
                l(3) =   1
                l(4) =   1
                l(5) =   2
                l(6) =   2
     Q(r) pseudized with  8 coefficients,  rinner =    2.000   2.000   2.000
                                                       2.000   2.000

     PseudoPot. # 2 for Re read from file:
     /afs/slac.stanford.edu/u/if/mamunm/psp/gbrv1.5pbe/Re.UPF
     MD5 check sum: 85f993410f3e006da9d71c142b4ad953
     Pseudo is Ultrasoft + core correction, Zval = 15.0
     Generated by new atomic code, or converted to UPF format
     Using radial grid of  981 points,  8 beta functions with:
                l(1) =   0
                l(2) =   0
                l(3) =   1
                l(4) =   1
                l(5) =   2
                l(6) =   2
                l(7) =   3
                l(8) =   3
     Q(r) pseudized with  8 coefficients,  rinner =    1.150   1.150   1.150
                                                       1.150   1.150   1.150
                                                       1.150

     vdW kernel table read from file vdW_kernel_table
     MD5 check sum: 095c7af220d748ca6e76c0b4c6cfb241

     atomic species   valence    mass     pseudopotential
        Hg1           12.00   200.59200     Hg( 1.00)
        Re1           15.00   186.20700     Re( 1.00)

     No symmetry found

   Cartesian axes

     site n.     atom                  positions (alat units)
         1           Hg1 tau(   1) = (   0.0000000   0.0000000  10.0000000  )
         2           Hg1 tau(   2) = (  -1.5217241   2.6357035  10.0000000  )
         3           Hg1 tau(   3) = (   1.5217241   2.6357035  10.0000000  )
         4           Re1 tau(   4) = (   3.0434482   0.0000000  10.0000000  )
         5           Hg1 tau(   5) = (   3.0434482   1.7571356  12.4849651  )
         6           Hg1 tau(   6) = (   1.5217241   4.3928391  12.4849651  )
         7           Hg1 tau(   7) = (  -1.5217241   4.3928391  12.4849651  )
         8           Re1 tau(   8) = (   0.0000000   1.7571356  12.4849651  )
         9           Hg1 tau(   9) = (  -0.0000160   3.5082864  15.2413683  )
        10           Hg1 tau(  10) = (   1.5165335   0.8815570  15.2413562  )
        11           Hg1 tau(  11) = (   4.5703336   0.8815600  15.2413651  )
        12           Re1 tau(  12) = (   3.0434347   3.5142632  14.7001705  )

     number of k points=    20  Fermi-Dirac smearing, width (Ry)=  0.0110
                       cart. coord. in units 2pi/alat
        k(    1) = (   0.0000000   0.0000000   0.0000000), wk =   0.0555556
        k(    2) = (   0.0000000   0.0316171   0.0000000), wk =   0.1111111
        k(    3) = (   0.0000000   0.0632342   0.0000000), wk =   0.1111111
        k(    4) = (   0.0000000  -0.0948513   0.0000000), wk =   0.0555556
        k(    5) = (   0.0273812   0.0158086   0.0000000), wk =   0.1111111
        k(    6) = (   0.0273812   0.0474257   0.0000000), wk =   0.1111111
        k(    7) = (   0.0273812   0.0790428   0.0000000), wk =   0.1111111
        k(    8) = (   0.0273812  -0.0790428   0.0000000), wk =   0.1111111
        k(    9) = (   0.0273812  -0.0474257   0.0000000), wk =   0.1111111
        k(   10) = (   0.0273812  -0.0158086   0.0000000), wk =   0.1111111
        k(   11) = (   0.0547624   0.0316171   0.0000000), wk =   0.1111111
        k(   12) = (   0.0547624   0.0632342   0.0000000), wk =   0.1111111
        k(   13) = (   0.0547624   0.0948513   0.0000000), wk =   0.1111111
        k(   14) = (   0.0547624  -0.0632342   0.0000000), wk =   0.1111111
        k(   15) = (   0.0547624  -0.0316171   0.0000000), wk =   0.1111111
        k(   16) = (   0.0547624   0.0000000   0.0000000), wk =   0.1111111
        k(   17) = (  -0.0821437  -0.0474257   0.0000000), wk =   0.0555556
        k(   18) = (  -0.0821437  -0.0158086   0.0000000), wk =   0.1111111
        k(   19) = (  -0.0821437   0.0158086   0.0000000), wk =   0.1111111
        k(   20) = (  -0.0821437  -0.1422770   0.0000000), wk =   0.0555556

     Largest allocated arrays     est. size (Mb)     dimensions
     Largest temporary arrays     est. size (Mb)     dimensions

     Initial potential from superposition of free atoms
     Check: negative starting charge=   -0.389396

     starting charge  151.49934, renormalised to  153.00000

[...]

     *
     * You are using vdW-DF for exchange-correlation in this calculation.
     * Please cite the following three references that made this development
     * possible:
     *
     *   M. Dion, H. Rydberg, E. Schroder, D. C. Langreth, and
     *   B. I. Lundqvist, Phys. Rev. Lett. 92, 246401 (2004).
     *
     *   T. Thonhauser, V. R. Cooper, S. Li, A. Puzder, P. Hyldgaard, and
     *   D. C. Langreth, Phys. Rev. B 76, 125112 (2007).
     *
     *   G. Roman-Perez and J. M. Soler, Phys. Rev. Lett. 103, 096102 (2009).
     *
     *
     * If you are using vdW-DF2, please also cite:
     *
     *   K. Lee, E. D. Murray, L. Kong, B. I. Lundqvist, and
     *   D. C. Langreth, Phys. Rev. B 82, 081101(R) (2010).
     *
     *
     * If you are calculating the stress with vdW-DF, please also cite:
     *
     *   R. Sabatini, E. Kucukbenli, B. Kolb, T. Thonhauser, and
     *   S. de Gironcoli, J. Phys.: Condens. Matter 24, 424209 (2012).
     *

     Carrying out vdW-DF run using the following parameters:

     Nqs =      20    Nr_points =    1024   r_max =   100.000
     q_mesh =
               0.00001000     0.04494208     0.09755937     0.15916263
               0.23128650     0.31572767     0.41458969     0.53033537
               0.66584808     0.82450364     1.01025438     1.22772762
               1.48234092     1.78043706     2.12944203     2.53805004
               3.01644009     3.57652955     4.23227104     5.00000000

     Gradients computed in reciprocal space

[...]

     Starting wfc are  120 randomized atomic wfcs

     Self-consistent Calculation

[...]

     total energy              =   -1557.55842216 Ry
     Harris-Foulkes estimate   =   -1557.55842120 Ry
     estimated scf accuracy    <       0.00000154 Ry

     iteration # 16     ecut=    36.75 Ry     beta=0.10
     Davidson diagonalization with overlap
     ethr =  1.01E-09,  avg # of iterations =  2.0

[...]

     negative rho (up, down):  3.728E-01 0.000E+00

     Adding external electric field

     Computed dipole along edir(3) :
        Dipole               -0.0134 Ry au,         -0.0341 Debye
        Dipole field         -0.0000 Ry au

        Potential amp.        0.0029 Ry
        Total length         46.0067 bohr

     End of self-consistent calculation

[...]

          k = 0.0548 0.0000 0.0000 ( 20341 PWs)   bands (ev):

[...]

          k =-0.0821-0.1423 0.0000 ( 20376 PWs)   bands (ev):

   -79.0875 -79.0235 -78.9572 -40.8401 -40.7540 -40.7538 -40.7525 -40.7515
   -40.7236 -40.6951 -40.6337 -40.6333  -7.3661  -7.0810  -7.0081  -6.8825
    -6.8169  -6.7659  -6.7397  -6.6690  -6.6661  -6.6554  -6.6296  -6.5554
    -6.5076  -6.3627  -6.3237  -6.3062  -6.2462  -6.2040  -6.1613  -6.0623
    -6.0384  -6.0066  -5.9119  -5.9070  -5.8963  -5.8505  -5.8456  -5.8376
    -5.8162  -5.7746  -5.7264  -5.7128  -5.7088  -5.7003  -5.6397  -5.6376
    -5.5949  -5.5010  -5.4965  -5.4706  -5.3779  -5.3330  -5.3192  -5.2628
    -5.1930  -4.9982  -4.8966  -4.3896  -3.9181  -3.1122  -2.1261  -2.0824
    -1.6443  -1.1291  -0.9553  -0.1939  -0.1609  -0.0021   0.1937   0.2873
     0.3241   0.4087   0.6403   0.7296   1.0905   1.2442   1.4825   1.5059
     2.1572   2.4295   2.6209   3.1479   3.1921   3.5612   4.6531   5.1733
     5.2131   5.2385   5.3846   5.5205   6.0617   6.1091   6.2897   6.3853
     6.5682   6.7166   6.8896   6.9351   7.5995   7.6493   7.6830   7.7544
     7.8377   7.9131

     the Fermi energy is     1.0526 ev

!    total energy              =   -1557.55842423 Ry
     Harris-Foulkes estimate   =   -1557.55842229 Ry
     estimated scf accuracy    <       0.00000059 Ry

     The total energy is the sum of the following terms:

     one-electron contribution =  -10208.93435971 Ry
     hartree contribution      =    5169.02683625 Ry
     xc contribution           =    -526.01212785 Ry
     ewald contribution        =    4008.42799065 Ry
     electric field correction =       0.00000042 Ry
     smearing contrib. (-TS)   =      -0.06676399 Ry

     convergence has been achieved in  16 iterations

 BEEF-vdW xc energy contributions
           1 :   -463.254846556117
           2 :    427.751602411384
           3 :   -365.314549576146
           4 :    289.767504700363
           5 :   -215.462567537606
           6 :    153.134448780274
           7 :   -107.649130594577
           8 :    78.0989265119482
           9 :   -59.8175508755367
          10 :    47.2097151145563
          11 :   -36.1389738918764
          12 :    25.0112743978490
          13 :   -14.4230167562789
          14 :    5.90361382909896
          15 :  -0.576341281867144
          16 :   -1.59718463216569
          17 :    1.75136345947521
          18 :   -1.44600406751493
          19 :    1.85895189213272
          20 :   -3.29831372147623
          21 :    5.25046993666831
          22 :   -6.86071128203128
          23 :    7.51629497065511
          24 :   -7.19278430886288
          25 :    6.40178713625488
          26 :   -5.82551887127306
          27 :    5.88628504409110
          28 :   -6.50971753026681
          29 :    7.20359232718374
          30 :   -7.38349056189583
          31 :   -41.6174077483084
          32 :   -30.7010495285780

     Forces acting on atoms (Ry/au):

     negative rho (up, down):  3.728E-01 0.000E+00
     atom    1 type  1   force =     0.00000177    0.00632632   -0.03360343
     atom    2 type  1   force =     0.00547676   -0.00316228   -0.03360273
     atom    3 type  1   force =    -0.00547635   -0.00316404   -0.03360235
     atom    4 type  2   force =     0.00000088   -0.00000074    0.07946799
     atom    5 type  1   force =    -0.00000068   -0.02124844    0.00462317
     atom    6 type  1   force =    -0.01840152    0.01062278    0.00462405
     atom    7 type  1   force =     0.01839931    0.01062245    0.00462418
     atom    8 type  2   force =     0.00000044   -0.00000265    0.00611292
     atom    9 type  1   force =    -0.00000075    0.00015794    0.00086770
     atom   10 type  1   force =     0.00013650   -0.00007846    0.00086709
     atom   11 type  1   force =    -0.00013752   -0.00007761    0.00086879
     atom   12 type  2   force =     0.00000116    0.00000474   -0.00124737

     Total force =     0.106218     Total SCF correction =     0.002440

     entering subroutine stress ...

     negative rho (up, down):  3.728E-01 0.000E+00
          total   stress  (Ry/bohr**3)                   (kbar)     P=   -9.23
  -0.00010209  -0.00000000  -0.00000000        -15.02     -0.00     -0.00
  -0.00000000  -0.00010209   0.00000000         -0.00    -15.02      0.00
  -0.00000000   0.00000000   0.00001594         -0.00      0.00      2.34

 !ASE

     Writing output data file calc.save

     General routines

     Parallel routines

   This run was terminated on:  12: 1:33  26Dec2018

   JOB DONE.
Job  /afs/slac/g/suncat/bin/suncat-tsmpirun -x LD_LIBRARY_PATH -wdir /scratch/qe109826_8RQkS pw.x -in pw.inp

TID   HOST_NAME   COMMAND_LINE            STATUS            TERMINATION_TIME
00000 suncat0163 pw.x -in pw.inp   Done                     12/26/2018 12:01:33
00001 suncat0163 pw.x -in pw.inp   Done                     12/26/2018 12:01:33
00002 suncat0163 pw.x -in pw.inp   Done                     12/26/2018 12:01:33
00003 suncat0163 pw.x -in pw.inp   Done                     12/26/2018 12:01:33
00004 suncat0163 pw.x -in pw.inp   Done                     12/26/2018 12:01:33
00005 suncat0163 pw.x -in pw.inp   Done                     12/26/2018 12:01:33
00006 suncat0163 pw.x -in pw.inp   Done                     12/26/2018 12:01:33
00007 suncat0163 pw.x -in pw.inp   Done                     12/26/2018 12:01:33
00008 suncat0162 pw.x -in pw.inp   Done                     12/26/2018 12:01:33
00009 suncat0162 pw.x -in pw.inp   Done                     12/26/2018 12:01:33
00010 suncat0162 pw.x -in pw.inp   Done                     12/26/2018 12:01:33
00011 suncat0162 pw.x -in pw.inp   Done                     12/26/2018 12:01:33
00012 suncat0162 pw.x -in pw.inp   Done                     12/26/2018 12:01:33
00013 suncat0162 pw.x -in pw.inp   Done                     12/26/2018 12:01:33
00014 suncat0162 pw.x -in pw.inp   Done                     12/26/2018 12:01:33
00015 suncat0162 pw.x -in pw.inp   Done                     12/26/2018 12:01:33
00016 suncat0145 pw.x -in pw.inp   Done                     12/26/2018 12:01:33
00017 suncat0145 pw.x -in pw.inp   Done                     12/26/2018 12:01:33
00018 suncat0145 pw.x -in pw.inp   Done                     12/26/2018 12:01:33
00019 suncat0145 pw.x -in pw.inp   Done                     12/26/2018 12:01:33
00020 suncat0145 pw.x -in pw.inp   Done                     12/26/2018 12:01:33
00021 suncat0145 pw.x -in pw.inp   Done                     12/26/2018 12:01:33
00022 suncat0145 pw.x -in pw.inp   Done                     12/26/2018 12:01:33
00023 suncat0145 pw.x -in pw.inp   Done                     12/26/2018 12:01:33
00024 suncat0144 pw.x -in pw.inp   Done                     12/26/2018 12:01:33
00025 suncat0144 pw.x -in pw.inp   Done                     12/26/2018 12:01:33
00026 suncat0144 pw.x -in pw.inp   Done                     12/26/2018 12:01:33
00027 suncat0144 pw.x -in pw.inp   Done                     12/26/2018 12:01:33
00028 suncat0144 pw.x -in pw.inp   Done                     12/26/2018 12:01:33
00029 suncat0144 pw.x -in pw.inp   Done                     12/26/2018 12:01:33
00030 suncat0144 pw.x -in pw.inp   Done                     12/26/2018 12:01:33
00031 suncat0144 pw.x -in pw.inp   Done                     12/26/2018 12:01:33
00032 suncat0133 pw.x -in pw.inp   Done                     12/26/2018 12:01:33
00033 suncat0133 pw.x -in pw.inp   Done                     12/26/2018 12:01:33
00034 suncat0133 pw.x -in pw.inp   Done                     12/26/2018 12:01:33
00035 suncat0133 pw.x -in pw.inp   Done                     12/26/2018 12:01:33
00036 suncat0133 pw.x -in pw.inp   Done                     12/26/2018 12:01:33
00037 suncat0133 pw.x -in pw.inp   Done                     12/26/2018 12:01:33
00038 suncat0133 pw.x -in pw.inp   Done                     12/26/2018 12:01:33
00039 suncat0133 pw.x -in pw.inp   Done                     12/26/2018 12:01:33
00040 suncat0132 pw.x -in pw.inp   Done                     12/26/2018 12:01:33
00041 suncat0132 pw.x -in pw.inp   Done                     12/26/2018 12:01:33
00042 suncat0132 pw.x -in pw.inp   Done                     12/26/2018 12:01:33
00043 suncat0132 pw.x -in pw.inp   Done                     12/26/2018 12:01:33
00044 suncat0132 pw.x -in pw.inp   Done                     12/26/2018 12:01:33
00045 suncat0132 pw.x -in pw.inp   Done                     12/26/2018 12:01:33
00046 suncat0132 pw.x -in pw.inp   Done                     12/26/2018 12:01:33
00047 suncat0132 pw.x -in pw.inp   Done                     12/26/2018 12:01:33
00048 suncat0131 pw.x -in pw.inp   Done                     12/26/2018 12:01:33
00049 suncat0131 pw.x -in pw.inp   Done                     12/26/2018 12:01:33
00050 suncat0131 pw.x -in pw.inp   Done                     12/26/2018 12:01:33
00051 suncat0131 pw.x -in pw.inp   Done                     12/26/2018 12:01:33
00052 suncat0131 pw.x -in pw.inp   Done                     12/26/2018 12:01:33
00053 suncat0131 pw.x -in pw.inp   Done                     12/26/2018 12:01:33
00054 suncat0131 pw.x -in pw.inp   Done                     12/26/2018 12:01:33
00055 suncat0131 pw.x -in pw.inp   Done                     12/26/2018 12:01:33
00056 suncat0130 pw.x -in pw.inp   Done                     12/26/2018 12:01:33
00057 suncat0130 pw.x -in pw.inp   Done                     12/26/2018 12:01:33
00058 suncat0130 pw.x -in pw.inp   Done                     12/26/2018 12:01:33
00059 suncat0130 pw.x -in pw.inp   Done                     12/26/2018 12:01:33
00060 suncat0130 pw.x -in pw.inp   Done                     12/26/2018 12:01:33
00061 suncat0130 pw.x -in pw.inp   Done                     12/26/2018 12:01:33
00062 suncat0130 pw.x -in pw.inp   Done                     12/26/2018 12:01:33
00063 suncat0130 pw.x -in pw.inp   Done                     12/26/2018 12:01:33