     Program PWSCF v.5.1rc2 (svn rev. 11289) starts on 26Dec2018 at 13: 3:42

     Current dimensions of program PWSCF are:
     Max number of different atomic species (ntypx) = 10
     Max number of k-points (npk) =  40000
     Max angular momentum in pseudopotentials (lmaxx) =  3
     Presently stress not available with electric field

     IMPORTANT: XC functional enforced from input :
     Exchange-correlation      = BEEF-VDW ( 1  4 27 13 2)
     Any further DFT definition will be discarded
     Please, verify this is what you really want

     Subspace diagonalization in iterative solution of the eigenvalue problem:
     a serial algorithm will be used

     bravais-lattice index     =            0
     lattice parameter (alat)  =       1.8897  a.u.
     unit-cell volume          =    5652.8144 (a.u.)^3
     number of atoms/cell      =           12
     number of atomic types    =            2
     number of electrons       =       162.00
     number of Kohn-Sham states=          111
     kinetic-energy cutoff     =      36.7493  Ry
     charge density cutoff     =     367.4932  Ry
     convergence threshold     =      1.0E-06
     mixing beta               =       0.1000
     number of iterations used =           10  plain     mixing
     Exchange-correlation      = BEEF-VDW ( 1  4 27 13 2)
     nstep                     =           50

     celldm(1)=   1.889726  celldm(2)=   0.000000  celldm(3)=   0.000000
     celldm(4)=   0.000000  celldm(5)=   0.000000  celldm(6)=   0.000000

     crystal axes: (cart. coord. in units of alat)
               a(1) = (   6.211249   0.000000   0.000000 )
               a(2) = (  -3.105624   5.379099   0.000000 )
               a(3) = (   0.000000   0.000000  25.071463 )

     reciprocal axes: (cart. coord. in units 2 pi/alat)
               b(1) = (  0.160998  0.092952  0.000000 )
               b(2) = (  0.000000  0.185905  0.000000 )
               b(3) = (  0.000000  0.000000  0.039886 )

     PseudoPot. # 1 for In read from file:
     /afs/slac.stanford.edu/u/if/mamunm/psp/gbrv1.5pbe/In.UPF
     MD5 check sum: 90777abd96fbb83f2e67db2a40c566b9
     Pseudo is Ultrasoft + core correction, Zval = 13.0
     Generated by new atomic code, or converted to UPF format
     Using radial grid of  889 points,  6 beta functions with:
                l(1) =   0
                l(2) =   0
                l(3) =   1
                l(4) =   1
                l(5) =   2
                l(6) =   2
     Q(r) pseudized with  6 coefficients,  rinner =    1.400   1.400   1.400
                                                       1.400   1.400

     PseudoPot. # 2 for Rh read from file:
     /afs/slac.stanford.edu/u/if/mamunm/psp/gbrv1.5pbe/Rh.UPF
     MD5 check sum: 761627e959a2e3a1f56b0b5fe687810e
     Pseudo is Ultrasoft + core correction, Zval = 15.0
     Generated by new atomic code, or converted to UPF format
     Using radial grid of  969 points,  7 beta functions with:
                l(1) =   0
                l(2) =   0
                l(3) =   1
                l(4) =   1
                l(5) =   2
                l(6) =   2
                l(7) =   2
     Q(r) pseudized with  8 coefficients,  rinner =    1.200   1.200   1.200
                                                       1.200   1.200

     vdW kernel table read from file vdW_kernel_table
     MD5 check sum: 095c7af220d748ca6e76c0b4c6cfb241

     atomic species   valence    mass     pseudopotential
        In1           13.00   114.81800     In( 1.00)
        Rh1           15.00   102.90550     Rh( 1.00)

     No symmetry found

   Cartesian axes

     site n.     atom                  positions (alat units)
         1           In1 tau(   1) = (   0.0000000   0.0000000  10.0000000  )
         2           In1 tau(   2) = (  -1.5528121   2.6895495  10.0000000  )
         3           In1 tau(   3) = (   1.5528121   2.6895495  10.0000000  )
         4           Rh1 tau(   4) = (   3.1056243   0.0000000  10.0000000  )
         5           In1 tau(   5) = (   3.1056243   1.7930330  12.5357316  )
         6           In1 tau(   6) = (   1.5528121   4.4825825  12.5357316  )
         7           In1 tau(   7) = (  -1.5528121   4.4825825  12.5357316  )
         8           Rh1 tau(   8) = (   0.0000000   1.7930330  12.5357316  )
         9           In1 tau(   9) = (  -0.0000000   3.5860660  15.0714632  )
        10           In1 tau(  10) = (   1.5528121   0.8965165  15.0714632  )
        11           In1 tau(  11) = (   4.6584364   0.8965165  15.0714632  )
        12           Rh1 tau(  12) = (   3.1056243   3.5860660  15.0714632  )

     number of k points=    20  Fermi-Dirac smearing, width (Ry)=  0.0110
                       cart. coord. in units 2pi/alat
        k(    1) = (   0.0000000   0.0000000   0.0000000), wk =   0.0555556
        k(    2) = (   0.0000000   0.0309841   0.0000000), wk =   0.1111111
        k(    3) = (   0.0000000   0.0619682   0.0000000), wk =   0.1111111
        k(    4) = (   0.0000000  -0.0929524   0.0000000), wk =   0.0555556
        k(    5) = (   0.0268330   0.0154921   0.0000000), wk =   0.1111111
        k(    6) = (   0.0268330   0.0464762   0.0000000), wk =   0.1111111
        k(    7) = (   0.0268330   0.0774603   0.0000000), wk =   0.1111111
        k(    8) = (   0.0268330  -0.0774603   0.0000000), wk =   0.1111111
        k(    9) = (   0.0268330  -0.0464762   0.0000000), wk =   0.1111111
        k(   10) = (   0.0268330  -0.0154921   0.0000000), wk =   0.1111111
        k(   11) = (   0.0536661   0.0309841   0.0000000), wk =   0.1111111
        k(   12) = (   0.0536661   0.0619682   0.0000000), wk =   0.1111111
        k(   13) = (   0.0536661   0.0929524   0.0000000), wk =   0.1111111
        k(   14) = (   0.0536661  -0.0619682   0.0000000), wk =   0.1111111
        k(   15) = (   0.0536661  -0.0309841   0.0000000), wk =   0.1111111
        k(   16) = (   0.0536661   0.0000000   0.0000000), wk =   0.1111111
        k(   17) = (  -0.0804991  -0.0464762   0.0000000), wk =   0.0555556
        k(   18) = (  -0.0804991  -0.0154921   0.0000000), wk =   0.1111111
        k(   19) = (  -0.0804991   0.0154921   0.0000000), wk =   0.1111111
        k(   20) = (  -0.0804991  -0.1394286   0.0000000), wk =   0.0555556

     Largest allocated arrays     est. size (Mb)     dimensions
     Largest temporary arrays     est. size (Mb)     dimensions

     Initial potential from superposition of free atoms
     Check: negative starting charge=   -0.161931

     starting charge  146.99970, renormalised to  162.00000

     negative rho (up, down):  1.785E-01 0.000E+00

     *
     * You are using vdW-DF for exchange-correlation in this calculation.
     * Please cite the following three references that made this development
     * possible:
     *
     *   M. Dion, H. Rydberg, E. Schroder, D. C. Langreth, and
     *   B. I. Lundqvist, Phys. Rev. Lett. 92, 246401 (2004).
     *
     *   T. Thonhauser, V. R. Cooper, S. Li, A. Puzder, P. Hyldgaard, and
     *   D. C. Langreth, Phys. Rev. B 76, 125112 (2007).
     *
     *   G. Roman-Perez and J. M. Soler, Phys. Rev. Lett. 103, 096102 (2009).
     *
     *
     * If you are using vdW-DF2, please also cite:
     *
     *   K. Lee, E. D. Murray, L. Kong, B. I. Lundqvist, and
     *   D. C. Langreth, Phys. Rev. B 82, 081101(R) (2010).
     *
     *
     * If you are calculating the stress with vdW-DF, please also cite:
     *
     *   R. Sabatini, E. Kucukbenli, B. Kolb, T. Thonhauser, and
     *   S. de Gironcoli, J. Phys.: Condens. Matter 24, 424209 (2012).
     *

     Carrying out vdW-DF run using the following parameters:

     Nqs =      20    Nr_points =    1024   r_max =   100.000
     q_mesh =
               0.00001000     0.04494208     0.09755937     0.15916263
               0.23128650     0.31572767     0.41458969     0.53033537
               0.66584808     0.82450364     1.01025438     1.22772762
               1.48234092     1.78043706     2.12944203     2.53805004
               3.01644009     3.57652955     4.23227104     5.00000000

     Gradients computed in reciprocal space

     Adding external electric field

     Computed dipole along edir(3) :
        Dipole               -0.0000 Ry au,         -0.0000 Debye
        Dipole field         -0.0000 Ry au

        Potential amp.        0.0000 Ry
        Total length         46.1937 bohr

     Starting wfc are  117 randomized atomic wfcs

     Self-consistent Calculation

     iteration #  1     ecut=    36.75 Ry     beta=0.10
     Davidson diagonalization with overlap
     ethr =  1.00E-02,  avg # of iterations =  8.3

[...]

     total energy              =   -1716.35304835 Ry
     Harris-Foulkes estimate   =   -1744.67933567 Ry
     estimated scf accuracy    <     164.86996927 Ry

[...]

     End of self-consistent calculation

          k = 0.0000 0.0000 0.0000 ( 21283 PWs)   bands (ev):

   -44.8896 -44.8896 -44.7868 -44.7317 -44.7317 -44.7312 -44.7312 -44.4891
   -44.4885 -14.6218 -14.5611 -14.5611 -14.5590 -14.4680 -14.4556 -14.3889
   -14.3889 -14.3533 -14.3533 -14.3511 -14.3503 -14.3503 -14.2864 -14.2681
   -14.2681 -14.2678 -14.1553 -14.1500 -14.1494 -14.1494 -14.1121 -14.1121
   -14.0982 -14.0982 -14.0932 -14.0089 -14.0089 -13.9999 -13.9999 -13.9973
   -13.9820 -13.9820 -13.9665 -13.9665 -13.9152 -13.9152 -13.8980 -13.8980
   -13.8719 -13.8600 -13.8350 -13.8350 -13.7339 -13.7315  -8.6206  -7.0924
    -4.9924  -3.8563  -3.8563  -3.2257  -3.2257  -2.7298  -2.3445  -2.3445
    -2.0874  -1.5363  -1.3866  -1.3866  -0.9241  -0.7495  -0.7495  -0.2846
    -0.2846  -0.2210  -0.1633  -0.1598  -0.1598  -0.0780  -0.0780   0.1091
     0.1091   0.2786   0.9290   0.9290   1.3152   1.3152   1.5260   1.8971
     1.8971   2.9618   3.0471   3.5906   4.3679   4.8139   4.8878   4.8878
     4.9849   4.9849   5.3507   5.6307   5.9453   6.2401   6.6648   7.2943
     7.2943   7.4243   7.4876   8.1342   8.1621   8.1621   8.3371

[...]

          k =-0.0805-0.0465 0.0000 ( 21272 PWs)   bands (ev):

[...]

     the Fermi energy is     0.7519 ev

!    total energy              =   -1729.57031776 Ry
     Harris-Foulkes estimate   =   -1729.57606710 Ry
     estimated scf accuracy    <       0.00000044 Ry

     The total energy is the sum of the following terms:

     one-electron contribution =  -11395.24337552 Ry
     hartree contribution      =    5768.16099333 Ry
     xc contribution           =    -445.56056720 Ry
     ewald contribution        =    4343.11539702 Ry
     electric field correction =       0.00000006 Ry
     smearing contrib. (-TS)   =      -0.04276544 Ry

     convergence has been achieved in  22 iterations

 BEEF-vdW xc energy contributions
           1 :   -389.729355032710
           2 :    356.673262095060
           3 :   -300.591791172980
           4 :    236.948883553047
           5 :   -180.150151018529
           6 :    138.375777552163
           7 :   -111.921019320094
           8 :    95.2959545043760
           9 :   -81.4888763015776
          10 :    65.9171527324702
          11 :   -48.1312634121969
          12 :    30.8435755390635
          13 :   -17.3925923372944
          14 :    9.41070705639777
          15 :   -6.01097650292246
[...]

     PseudoPot. # 1 for In read from file:
     /afs/slac.stanford.edu/u/if/mamunm/psp/gbrv1.5pbe/In.UPF
     MD5 check sum: 90777abd96fbb83f2e67db2a40c566b9
     Pseudo is Ultrasoft + core correction, Zval = 13.0
     Generated by new atomic code, or converted to UPF format
     Using radial grid of  889 points,  6 beta functions with:
                l(1) =   0
                l(2) =   0
                l(3) =   1
                l(4) =   1
                l(5) =   2
                l(6) =   2
     Q(r) pseudized with  6 coefficients,  rinner =    1.400   1.400   1.400
                                                       1.400   1.400

     PseudoPot. # 2 for Rh read from file:
     /afs/slac.stanford.edu/u/if/mamunm/psp/gbrv1.5pbe/Rh.UPF
     MD5 check sum: 761627e959a2e3a1f56b0b5fe687810e
     Pseudo is Ultrasoft + core correction, Zval = 15.0
     Generated by new atomic code, or converted to UPF format
     Using radial grid of  969 points,  7 beta functions with:
                l(1) =   0
                l(2) =   0
                l(3) =   1
                l(4) =   1
                l(5) =   2
                l(6) =   2
                l(7) =   2
     Q(r) pseudized with  8 coefficients,  rinner =    1.200   1.200   1.200
                                                       1.200   1.200

     vdW kernel table read from file vdW_kernel_table
     MD5 check sum: 095c7af220d748ca6e76c0b4c6cfb241

     atomic species   valence    mass     pseudopotential
        In1           13.00   114.81800     In( 1.00)
        Rh1           15.00   102.90550     Rh( 1.00)

     No symmetry found

   Cartesian axes

     site n.     atom                  positions (alat units)
         1           In1 tau(   1) = (   0.0000000   0.0000000  10.0000000  )
         2           In1 tau(   2) = (  -1.5528121   2.6895495  10.0000000  )
         3           In1 tau(   3) = (   1.5528121   2.6895495  10.0000000  )
         4           Rh1 tau(   4) = (   3.1056243   0.0000000  10.0000000  )
         5           In1 tau(   5) = (   3.1056243   1.7930330  12.5357316  )
         6           In1 tau(   6) = (   1.5528121   4.4825825  12.5357316  )
         7           In1 tau(   7) = (  -1.5528121   4.4825825  12.5357316  )
         8           Rh1 tau(   8) = (   0.0000000   1.7930330  12.5357316  )
         9           In1 tau(   9) = (   0.0000007   3.5600458  15.2861919  )
        10           In1 tau(  10) = (   1.5302779   0.9095269  15.2861898  )
        11           In1 tau(  11) = (   4.6809700   0.9095254  15.2861918  )
        12           Rh1 tau(  12) = (   3.1056236   3.5860654  14.6543713  )

     number of k points=    20  Fermi-Dirac smearing, width (Ry)=  0.0110
                       cart. coord. in units 2pi/alat
        k(    1) = (   0.0000000   0.0000000   0.0000000), wk =   0.0555556
        k(    2) = (   0.0000000   0.0309841   0.0000000), wk =   0.1111111
        k(    3) = (   0.0000000   0.0619682   0.0000000), wk =   0.1111111
        k(    4) = (   0.0000000  -0.0929524   0.0000000), wk =   0.0555556
        k(    5) = (   0.0268330   0.0154921   0.0000000), wk =   0.1111111
        k(    6) = (   0.0268330   0.0464762   0.0000000), wk =   0.1111111
        k(    7) = (   0.0268330   0.0774603   0.0000000), wk =   0.1111111
        k(    8) = (   0.0268330  -0.0774603   0.0000000), wk =   0.1111111
        k(    9) = (   0.0268330  -0.0464762   0.0000000), wk =   0.1111111
        k(   10) = (   0.0268330  -0.0154921   0.0000000), wk =   0.1111111
        k(   11) = (   0.0536661   0.0309841   0.0000000), wk =   0.1111111
        k(   12) = (   0.0536661   0.0619682   0.0000000), wk =   0.1111111
        k(   13) = (   0.0536661   0.0929524   0.0000000), wk =   0.1111111
        k(   14) = (   0.0536661  -0.0619682   0.0000000), wk =   0.1111111
        k(   15) = (   0.0536661  -0.0309841   0.0000000), wk =   0.1111111
        k(   16) = (   0.0536661   0.0000000   0.0000000), wk =   0.1111111
        k(   17) = (  -0.0804991  -0.0464762   0.0000000), wk =   0.0555556
        k(   18) = (  -0.0804991  -0.0154921   0.0000000), wk =   0.1111111
        k(   19) = (  -0.0804991   0.0154921   0.0000000), wk =   0.1111111
        k(   20) = (  -0.0804991  -0.1394286   0.0000000), wk =   0.0555556

     Largest allocated arrays     est. size (Mb)     dimensions
     Largest temporary arrays     est. size (Mb)     dimensions

     Initial potential from superposition of free atoms
     Check: negative starting charge=   -0.162003

     starting charge  146.99970, renormalised to  162.00000

[...]

     *
     * You are using vdW-DF for exchange-correlation in this calculation.
     * Please cite the following three references that made this development
     * possible:
     *
     *   M. Dion, H. Rydberg, E. Schroder, D. C. Langreth, and
     *   B. I. Lundqvist, Phys. Rev. Lett. 92, 246401 (2004).
     *
     *   T. Thonhauser, V. R. Cooper, S. Li, A. Puzder, P. Hyldgaard, and
     *   D. C. Langreth, Phys. Rev. B 76, 125112 (2007).
     *
     *   G. Roman-Perez and J. M. Soler, Phys. Rev. Lett. 103, 096102 (2009).
     *
     *
     * If you are using vdW-DF2, please also cite:
     *
     *   K. Lee, E. D. Murray, L. Kong, B. I. Lundqvist, and
     *   D. C. Langreth, Phys. Rev. B 82, 081101(R) (2010).
     *
     *
     * If you are calculating the stress with vdW-DF, please also cite:
     *
     *   R. Sabatini, E. Kucukbenli, B. Kolb, T. Thonhauser, and
     *   S. de Gironcoli, J. Phys.: Condens. Matter 24, 424209 (2012).
     *

     Carrying out vdW-DF run using the following parameters:

     Nqs =      20    Nr_points =    1024   r_max =   100.000
     q_mesh =
               0.00001000     0.04494208     0.09755937     0.15916263
               0.23128650     0.31572767     0.41458969     0.53033537
               0.66584808     0.82450364     1.01025438     1.22772762
               1.48234092     1.78043706     2.12944203     2.53805004
               3.01644009     3.57652955     4.23227104     5.00000000

     Gradients computed in reciprocal space

[...]

     Starting wfc are  117 randomized atomic wfcs

     Self-consistent Calculation

[...]

     total energy              =   -1729.60486463 Ry
     Harris-Foulkes estimate   =   -1729.60486668 Ry
     estimated scf accuracy    <       0.00005212 Ry

     iteration # 24     ecut=    36.75 Ry     beta=0.10
     Davidson diagonalization with overlap
     ethr =  1.11E-09,  avg # of iterations =  2.0

[...]

     negative rho (up, down):  1.615E-01 0.000E+00

     Adding external electric field

     Computed dipole along edir(3) :
        Dipole                0.1118 Ry au,          0.2841 Debye
        Dipole field          0.0002 Ry au

        Potential amp.       -0.0230 Ry
        Total length         46.1937 bohr

     End of self-consistent calculation

[...]

          k = 0.0537 0.0000 0.0000 ( 21249 PWs)   bands (ev):

[...]

          k =-0.0805-0.1394 0.0000 ( 21272 PWs)   bands (ev):

   -44.7590 -44.7589 -44.7129 -44.7128 -44.6880 -44.6879 -44.6657 -44.5965
   -44.4602 -14.4215 -14.3286 -14.3075 -14.2890 -14.2670 -14.2558 -14.2372
   -14.2082 -14.1931 -14.1860 -14.1473 -14.1382 -14.1019 -14.0966 -14.0871
   -14.0866 -14.0804 -14.0420 -14.0398 -14.0275 -14.0179 -14.0110 -14.0053
   -14.0037 -13.9942 -13.9866 -13.9682 -13.9642 -13.9606 -13.9586 -13.9555
   -13.9480 -13.9408 -13.9379 -13.9340 -13.9291 -13.9051 -13.9037 -13.8729
   -13.8624 -13.8564 -13.8374 -13.7991 -13.7415 -13.7220  -7.2554  -6.8282
    -5.5765  -5.4726  -4.4934  -4.2503  -3.7572  -2.9752  -2.5294  -1.9898
    -1.6502  -1.4541  -1.3039  -1.0297  -1.0252  -0.9595  -0.9013  -0.5968
    -0.5093  -0.3938  -0.1461  -0.0390   0.0518   0.2041   0.2686   0.7080
     0.8407   1.0881   1.4972   2.3750   2.7986   2.9025   2.9338   3.1527
     3.4832   3.7867   3.9644   4.0306   4.1325   4.5719   4.9441   4.9626
     5.2928   5.3107   5.3667   5.5049   5.9834   6.0779   6.1171   6.5114
     6.5404   6.5477   6.6503   7.0457   7.1126   7.1477   7.2845

     the Fermi energy is     0.8485 ev

!    total energy              =   -1729.60486799 Ry
     Harris-Foulkes estimate   =   -1729.60486374 Ry
     estimated scf accuracy    <       0.00000047 Ry

     The total energy is the sum of the following terms:

     one-electron contribution =  -11316.68474607 Ry
     hartree contribution      =    5729.36394493 Ry
     xc contribution           =    -445.54358901 Ry
     ewald contribution        =    4303.30361202 Ry
     electric field correction =       0.00002777 Ry
     smearing contrib. (-TS)   =      -0.04411762 Ry

     convergence has been achieved in  24 iterations

 BEEF-vdW xc energy contributions
           1 :   -389.902687964441
           2 :    356.815670827372
           3 :   -300.686547058485
           4 :    237.000452418712
           5 :   -180.179572081707
           6 :    138.405941844473
           7 :   -111.962709505291
           8 :    95.3459793018793
           9 :   -81.5413149332859
          10 :    65.9760472249195
          11 :   -48.2120133594522
          12 :    30.9604140497813
          13 :   -17.5423927420375
          14 :    9.56881130363922
          15 :   -6.14602835445237
          16 :    4.76039993852851
          17 :   -2.97235878022866
          18 :  -0.263137867808950
          19 :    4.36692855662841
          20 :   -7.91675224145308
          21 :    9.76254957892786
          22 :   -9.73346750797509
          23 :    8.58981347816905
          24 :   -7.41225158907162
          25 :    6.92705622332477
          26 :   -7.19741575785298
          27 :    7.77894088124424
          28 :   -8.12500884979283
          29 :    7.92799850071987
          30 :   -7.21576708331156
          31 :   -35.9724150734497
          32 :   -26.3337224993861

     Forces acting on atoms (Ry/au):

     negative rho (up, down):  1.615E-01 0.000E+00
     atom    1 type  1   force =     0.00000005    0.01794941   -0.01985571
     atom    2 type  1   force =     0.01554449   -0.00897460   -0.01985555
     atom    3 type  1   force =    -0.01554469   -0.00897468   -0.01985541
     atom    4 type  2   force =     0.00000004   -0.00000000    0.04314009
     atom    5 type  1   force =     0.00000011   -0.01786606    0.00435057
     atom    6 type  1   force =    -0.01547240    0.00893294    0.00435078
     atom    7 type  1   force =     0.01547243    0.00893288    0.00435073
     atom    8 type  2   force =    -0.00000003    0.00000003   -0.00271047
     atom    9 type  1   force =    -0.00000023   -0.00131308    0.00138205
     atom   10 type  1   force =    -0.00113705    0.00065641    0.00138222
     atom   11 type  1   force =     0.00113728    0.00065670    0.00138203
     atom   12 type  2   force =     0.00000000    0.00000003    0.00193866

     Total force =     0.071040     Total SCF correction =     0.002442

     entering subroutine stress ...

     negative rho (up, down):  1.615E-01 0.000E+00
          total   stress  (Ry/bohr**3)                   (kbar)     P=  -15.18
  -0.00014683   0.00000000  -0.00000000        -21.60      0.00     -0.00
   0.00000000  -0.00014683   0.00000000          0.00    -21.60      0.00
  -0.00000000   0.00000000  -0.00001593         -0.00      0.00     -2.34

 !ASE

     Writing output data file calc.save

     General routines

     Parallel routines

   This run was terminated on:  15: 9:51  26Dec2018

   JOB DONE.
Job  /afs/slac/g/suncat/bin/suncat-tsmpirun -x LD_LIBRARY_PATH -wdir /scratch/qe109893_8vsNp pw.x -in pw.inp

TID   HOST_NAME   COMMAND_LINE            STATUS            TERMINATION_TIME
00000 suncat0180 pw.x -in pw.inp   Done                     12/26/2018 15:09:51
00001 suncat0180 pw.x -in pw.inp   Done                     12/26/2018 15:09:51
00002 suncat0180 pw.x -in pw.inp   Done                     12/26/2018 15:09:51
00003 suncat0180 pw.x -in pw.inp   Done                     12/26/2018 15:09:51
00004 suncat0180 pw.x -in pw.inp   Done                     12/26/2018 15:09:51
00005 suncat0180 pw.x -in pw.inp   Done                     12/26/2018 15:09:51
00006 suncat0180 pw.x -in pw.inp   Done                     12/26/2018 15:09:51
00007 suncat0180 pw.x -in pw.inp   Done                     12/26/2018 15:09:51
00008 suncat0167 pw.x -in pw.inp   Done                     12/26/2018 15:09:51
00009 suncat0167 pw.x -in pw.inp   Done                     12/26/2018 15:09:51
00010 suncat0167 pw.x -in pw.inp   Done                     12/26/2018 15:09:51
00011 suncat0167 pw.x -in pw.inp   Done                     12/26/2018 15:09:51
00012 suncat0167 pw.x -in pw.inp   Done                     12/26/2018 15:09:51
00013 suncat0167 pw.x -in pw.inp   Done                     12/26/2018 15:09:51
00014 suncat0167 pw.x -in pw.inp   Done                     12/26/2018 15:09:51
00015 suncat0167 pw.x -in pw.inp   Done                     12/26/2018 15:09:51
00016 suncat0166 pw.x -in pw.inp   Done                     12/26/2018 15:09:51
00017 suncat0166 pw.x -in pw.inp   Done                     12/26/2018 15:09:51
00018 suncat0166 pw.x -in pw.inp   Done                     12/26/2018 15:09:51
00019 suncat0166 pw.x -in pw.inp   Done                     12/26/2018 15:09:51
00020 suncat0166 pw.x -in pw.inp   Done                     12/26/2018 15:09:51
00021 suncat0166 pw.x -in pw.inp   Done                     12/26/2018 15:09:51
00022 suncat0166 pw.x -in pw.inp   Done                     12/26/2018 15:09:51
00023 suncat0166 pw.x -in pw.inp   Done                     12/26/2018 15:09:51
00024 suncat0165 pw.x -in pw.inp   Done                     12/26/2018 15:09:51
00025 suncat0165 pw.x -in pw.inp   Done                     12/26/2018 15:09:51
00026 suncat0165 pw.x -in pw.inp   Done                     12/26/2018 15:09:51
00027 suncat0165 pw.x -in pw.inp   Done                     12/26/2018 15:09:51
00028 suncat0165 pw.x -in pw.inp   Done                     12/26/2018 15:09:51
00029 suncat0165 pw.x -in pw.inp   Done                     12/26/2018 15:09:51
00030 suncat0165 pw.x -in pw.inp   Done                     12/26/2018 15:09:51
00031 suncat0165 pw.x -in pw.inp   Done                     12/26/2018 15:09:51
00032 suncat0164 pw.x -in pw.inp   Done                     12/26/2018 15:09:51
00033 suncat0164 pw.x -in pw.inp   Done                     12/26/2018 15:09:51
00034 suncat0164 pw.x -in pw.inp   Done                     12/26/2018 15:09:51
00035 suncat0164 pw.x -in pw.inp   Done                     12/26/2018 15:09:51
00036 suncat0164 pw.x -in pw.inp   Done                     12/26/2018 15:09:51
00037 suncat0164 pw.x -in pw.inp   Done                     12/26/2018 15:09:51
00038 suncat0164 pw.x -in pw.inp   Done                     12/26/2018 15:09:51
00039 suncat0164 pw.x -in pw.inp   Done                     12/26/2018 15:09:51
00040 suncat0149 pw.x -in pw.inp   Done                     12/26/2018 15:09:51
00041 suncat0149 pw.x -in pw.inp   Done                     12/26/2018 15:09:51
00042 suncat0149 pw.x -in pw.inp   Done                     12/26/2018 15:09:51
00043 suncat0149 pw.x -in pw.inp   Done                     12/26/2018 15:09:51
00044 suncat0149 pw.x -in pw.inp   Done                     12/26/2018 15:09:51
00045 suncat0149 pw.x -in pw.inp   Done                     12/26/2018 15:09:51
00046 suncat0149 pw.x -in pw.inp   Done                     12/26/2018 15:09:51
00047 suncat0149 pw.x -in pw.inp   Done                     12/26/2018 15:09:51
00048 suncat0148 pw.x -in pw.inp   Done                     12/26/2018 15:09:51
00049 suncat0148 pw.x -in pw.inp   Done                     12/26/2018 15:09:51
00050 suncat0148 pw.x -in pw.inp   Done                     12/26/2018 15:09:51
00051 suncat0148 pw.x -in pw.inp   Done                     12/26/2018 15:09:51
00052 suncat0148 pw.x -in pw.inp   Done                     12/26/2018 15:09:51
00053 suncat0148 pw.x -in pw.inp   Done                     12/26/2018 15:09:51
00054 suncat0148 pw.x -in pw.inp   Done                     12/26/2018 15:09:51
00055 suncat0148 pw.x -in pw.inp   Done                     12/26/2018 15:09:51
00056 suncat0137 pw.x -in pw.inp   Done                     12/26/2018 15:09:51
00057 suncat0137 pw.x -in pw.inp   Done                     12/26/2018 15:09:51
00058 suncat0137 pw.x -in pw.inp   Done                     12/26/2018 15:09:51
00059 suncat0137 pw.x -in pw.inp   Done                     12/26/2018 15:09:51
00060 suncat0137 pw.x -in pw.inp   Done                     12/26/2018 15:09:51
00061 suncat0137 pw.x -in pw.inp   Done                     12/26/2018 15:09:51
00062 suncat0137 pw.x -in pw.inp   Done                     12/26/2018 15:09:51
00063 suncat0137 pw.x -in pw.inp   Done                     12/26/2018 15:09:51