     Program PWSCF v.5.1rc2 (svn rev. 11289) starts on 27Dec2018 at 18:40:16

     Current dimensions of program PWSCF are:
     Max number of different atomic species (ntypx) = 10
     Max number of k-points (npk) =  40000
     Max angular momentum in pseudopotentials (lmaxx) =  3
     Presently stress not available with electric field

     IMPORTANT: XC functional enforced from input :
     Exchange-correlation      = BEEF-VDW ( 1  4 27 13 2)
     Any further DFT definition will be discarded
     Please, verify this is what you really want

     Subspace diagonalization in iterative solution of the eigenvalue problem:
     a serial algorithm will be used

     bravais-lattice index     =            0
     lattice parameter (alat)  =       1.8897  a.u.
     unit-cell volume          =    4495.7997 (a.u.)^3
     number of atoms/cell      =           12
     number of atomic types    =            2
     number of electrons       =       189.00
     number of Kohn-Sham states=          124
     kinetic-energy cutoff     =      36.7493  Ry
     charge density cutoff     =     367.4932  Ry
     convergence threshold     =      1.0E-06
     mixing beta               =       0.1000
     number of iterations used =           10  plain     mixing
     Exchange-correlation      = BEEF-VDW ( 1  4 27 13 2)
     nstep                     =           50

     celldm(1)=   1.889726  celldm(2)=   0.000000  celldm(3)=   0.000000
     celldm(4)=   0.000000  celldm(5)=   0.000000  celldm(6)=   0.000000

     crystal axes: (cart. coord. in units of alat)
               a(1) = (   5.595616   0.000000   0.000000 )
               a(2) = (  -2.797808   4.845945   0.000000 )
               a(3) = (   0.000000   0.000000  24.568801 )

     reciprocal axes: (cart. coord. in units 2 pi/alat)
               b(1) = (  0.178711  0.103179  0.000000 )
               b(2) = (  0.000000  0.206358  0.000000 )
               b(3) = (  0.000000  0.000000  0.040702 )

     PseudoPot. # 1 for Pt read from file:
     /afs/slac.stanford.edu/u/if/mamunm/psp/gbrv1.5pbe/Pt.UPF
     MD5 check sum: f09d6de1a584b5a045c4fc126da2d0c4
     Pseudo is Ultrasoft + core correction, Zval = 16.0
     Generated by new atomic code, or converted to UPF format
     Using radial grid of  985 points,  6 beta functions with:
                l(1) =   0
                l(2) =   0
                l(3) =   1
                l(4) =   1
                l(5) =   2
                l(6) =   2
     Q(r) pseudized with  8 coefficients,  rinner =    1.300   1.300   1.300
                                                       1.300   1.300

     PseudoPot. # 2 for Re read from file:
     /afs/slac.stanford.edu/u/if/mamunm/psp/gbrv1.5pbe/Re.UPF
     MD5 check sum: 85f993410f3e006da9d71c142b4ad953
     Pseudo is Ultrasoft + core correction, Zval = 15.0
     Generated by new atomic code, or converted to UPF format
     Using radial grid of  981 points,  8 beta functions with:
                l(1) =   0
                l(2) =   0
                l(3) =   1
                l(4) =   1
                l(5) =   2
                l(6) =   2
                l(7) =   3
                l(8) =   3
     Q(r) pseudized with  8 coefficients,  rinner =    1.150   1.150   1.150
                                                       1.150   1.150   1.150
                                                       1.150

     vdW kernel table read from file vdW_kernel_table
     MD5 check sum: 095c7af220d748ca6e76c0b4c6cfb241

     atomic species   valence    mass     pseudopotential
        Pt1           16.00   195.08400     Pt( 1.00)
        Re1           15.00   186.20700     Re( 1.00)

     No symmetry found

   Cartesian axes

     site n.     atom                  positions (alat units)
         1           Pt1 tau(   1) = (   0.0000000   0.0000000  10.0000000  )
         2           Pt1 tau(   2) = (  -1.3989039   2.4229727  10.0000000  )
         3           Pt1 tau(   3) = (   1.3989039   2.4229727  10.0000000  )
         4           Re1 tau(   4) = (   2.7978078   0.0000000  10.0000000  )
         5           Pt1 tau(   5) = (   2.7978078   1.6153151  12.2844005  )
         6           Pt1 tau(   6) = (   1.3989039   4.0382878  12.2844005  )
         7           Pt1 tau(   7) = (  -1.3989039   4.0382878  12.2844005  )
         8           Re1 tau(   8) = (   0.0000000   1.6153151  12.2844005  )
         9           Pt1 tau(   9) = (  -0.0000000   3.2306302  14.5688011  )
        10           Pt1 tau(  10) = (   1.3989039   0.8076576  14.5688011  )
        11           Pt1 tau(  11) = (   4.1967118   0.8076576  14.5688011  )
        12           Re1 tau(  12) = (   2.7978078   3.2306302  14.5688011  )

     number of k points=    20  Fermi-Dirac smearing, width (Ry)=  0.0110
                       cart. coord. in units 2pi/alat
        k(    1) = (   0.0000000   0.0000000   0.0000000), wk =   0.0555556
        k(    2) = (   0.0000000   0.0343930   0.0000000), wk =   0.1111111
        k(    3) = (   0.0000000   0.0687860   0.0000000), wk =   0.1111111
        k(    4) = (   0.0000000  -0.1031790   0.0000000), wk =   0.0555556
        k(    5) = (   0.0297852   0.0171965   0.0000000), wk =   0.1111111
        k(    6) = (   0.0297852   0.0515895   0.0000000), wk =   0.1111111
        k(    7) = (   0.0297852   0.0859825   0.0000000), wk =   0.1111111
        k(    8) = (   0.0297852  -0.0859825   0.0000000), wk =   0.1111111
        k(    9) = (   0.0297852  -0.0515895   0.0000000), wk =   0.1111111
        k(   10) = (   0.0297852  -0.0171965   0.0000000), wk =   0.1111111
        k(   11) = (   0.0595704   0.0343930   0.0000000), wk =   0.1111111
        k(   12) = (   0.0595704   0.0687860   0.0000000), wk =   0.1111111
        k(   13) = (   0.0595704   0.1031790   0.0000000), wk =   0.1111111
        k(   14) = (   0.0595704  -0.0687860   0.0000000), wk =   0.1111111
        k(   15) = (   0.0595704  -0.0343930   0.0000000), wk =   0.1111111
        k(   16) = (   0.0595704   0.0000000   0.0000000), wk =   0.1111111
        k(   17) = (  -0.0893557  -0.0515895   0.0000000), wk =   0.0555556
        k(   18) = (  -0.0893557  -0.0171965   0.0000000), wk =   0.1111111
        k(   19) = (  -0.0893557   0.0171965   0.0000000), wk =   0.1111111
        k(   20) = (  -0.0893557  -0.1547686   0.0000000), wk =   0.0555556

     Largest allocated arrays     est. size (Mb)     dimensions
     Largest temporary arrays     est. size (Mb)     dimensions

     Initial potential from superposition of free atoms
     Check: negative starting charge=   -2.030319

     starting charge  182.99976, renormalised to  189.00000

     negative rho (up, down):  2.097E+00 0.000E+00

     *
     * You are using vdW-DF for exchange-correlation in this calculation.
     * Please cite the following three references that made this development
     * possible:
     *
     *   M. Dion, H. Rydberg, E. Schroder, D. C. Langreth, and
     *   B. I. Lundqvist, Phys. Rev. Lett. 92, 246401 (2004).
     *
     *   T. Thonhauser, V. R. Cooper, S. Li, A. Puzder, P. Hyldgaard, and
     *   D. C. Langreth, Phys. Rev. B 76, 125112 (2007).
     *
     *   G. Roman-Perez and J. M. Soler, Phys. Rev. Lett. 103, 096102 (2009).
     *
     *
     * If you are using vdW-DF2, please also cite:
     *
     *   K. Lee, E. D. Murray, L. Kong, B. I. Lundqvist, and
     *   D. C. Langreth, Phys. Rev. B 82, 081101(R) (2010).
     *
     *
     * If you are calculating the stress with vdW-DF, please also cite:
     *
     *   R. Sabatini, E. Kucukbenli, B. Kolb, T. Thonhauser, and
     *   S. de Gironcoli, J. Phys.: Condens. Matter 24, 424209 (2012).
     *

     Carrying out vdW-DF run using the following parameters:

     Nqs =      20    Nr_points =    1024   r_max =   100.000
     q_mesh =
               0.00001000     0.04494208     0.09755937     0.15916263
               0.23128650     0.31572767     0.41458969     0.53033537
               0.66584808     0.82450364     1.01025438     1.22772762
               1.48234092     1.78043706     2.12944203     2.53805004
               3.01644009     3.57652955     4.23227104     5.00000000

     Gradients computed in reciprocal space

     Adding external electric field

     Computed dipole along edir(3) :
        Dipole                0.0000 Ry au,          0.0000 Debye
        Dipole field          0.0000 Ry au

        Potential amp.       -0.0000 Ry
        Total length         45.2676 bohr

     Starting wfc are  147 randomized atomic wfcs

     Self-consistent Calculation

     iteration #  1     ecut=    36.75 Ry     beta=0.10
     Davidson diagonalization with overlap
     ethr =  1.00E-02,  avg # of iterations =  8.6

[...]

     total energy              =   -2486.85100418 Ry
     Harris-Foulkes estimate   =   -2491.53661058 Ry
     estimated scf accuracy    <      27.42363607 Ry

[...]

     End of self-consistent calculation

          k = 0.0000 0.0000 0.0000 ( 16847 PWs)   bands (ev):

   -79.1910 -78.7429 -78.7428 -51.3207 -51.2252 -51.2251 -51.1389 -51.1388
   -51.1319 -51.0755 -50.9956 -50.9955 -50.9165 -50.9140 -50.9025 -50.9025
   -50.8760 -50.8760 -50.7727 -50.7687 -50.6596 -50.6596 -50.6583 -50.6583
   -50.5953 -50.5715 -50.5490 -50.5490 -50.5384 -50.5383 -40.9239 -40.7712
   -40.7712 -40.3912 -40.3912 -40.3898 -40.3898 -40.3755 -40.3700  -7.0407
    -5.2451  -4.7973  -4.4847  -4.4309  -4.4308  -4.2138  -4.1868  -4.1867
    -3.7355  -3.7159  -3.7159  -3.5843  -3.5062  -3.5062  -2.2498  -2.1110
    -2.1110  -1.8461  -1.8461  -1.6598  -1.4868  -1.3118  -1.3118  -1.2581
    -1.2535  -1.0466  -1.0466  -0.7836  -0.7836  -0.7404  -0.7403  -0.5895
    -0.5895   0.2423   0.3531   0.6038   0.6038   0.6144   0.6144   0.6957
     0.6958   0.9793   1.4352   1.4545   1.6195   1.6195   1.8656   2.1436
     2.1436   2.2106   2.2788   2.5804   2.5804   2.6286   2.9548   2.9935
     2.9935   3.1448   3.1448   3.1483   3.1484   3.2885   3.5092   3.5092
     3.7398   3.7398   5.0574   5.0574   5.1769   5.1769   5.3075   5.6166
     6.7470   7.0012   7.3665   8.2336   8.2336   8.2383   8.2383   8.2909
     8.6101   8.6340   9.0957   9.2672

[...]

          k =-0.0894-0.0516 0.0000 ( 16920 PWs)   bands (ev):

[...]

     the Fermi energy is     2.1497 ev

!    total energy              =   -2487.46658379 Ry
     Harris-Foulkes estimate   =   -2487.46658591 Ry
     estimated scf accuracy    <       0.00000094 Ry

     The total energy is the sum of the following terms:

     one-electron contribution =  -19444.41000226 Ry
     hartree contribution      =    9743.47943089 Ry
     xc contribution           =    -689.41462828 Ry
     ewald contribution        =    7902.97171719 Ry
     electric field correction =       0.00000000 Ry
     smearing contrib. (-TS)   =      -0.09310134 Ry

     convergence has been achieved in  16 iterations

 BEEF-vdW xc energy contributions
           1 :   -613.273394384663
           2 :    570.708666557644
           3 :   -494.256768713687
           4 :    398.362482842654
           5 :   -298.969794145194
           6 :    209.423598793328
           7 :   -137.765164261468
           8 :    86.0058418846040
[...]
     Generated by new atomic code, or converted to UPF format
     Using radial grid of  985 points,  6 beta functions with:
                l(1) =   0
                l(2) =   0
                l(3) =   1
                l(4) =   1
                l(5) =   2
                l(6) =   2
     Q(r) pseudized with  8 coefficients,  rinner =    1.300   1.300   1.300
                                                       1.300   1.300

     PseudoPot. # 2 for Re read from file:
     /afs/slac.stanford.edu/u/if/mamunm/psp/gbrv1.5pbe/Re.UPF
     MD5 check sum: 85f993410f3e006da9d71c142b4ad953
     Pseudo is Ultrasoft + core correction, Zval = 15.0
     Generated by new atomic code, or converted to UPF format
     Using radial grid of  981 points,  8 beta functions with:
                l(1) =   0
                l(2) =   0
                l(3) =   1
                l(4) =   1
                l(5) =   2
                l(6) =   2
                l(7) =   3
                l(8) =   3
     Q(r) pseudized with  8 coefficients,  rinner =    1.150   1.150   1.150
                                                       1.150   1.150   1.150
                                                       1.150

     vdW kernel table read from file vdW_kernel_table
     MD5 check sum: 095c7af220d748ca6e76c0b4c6cfb241

     atomic species   valence    mass     pseudopotential
        Pt1           16.00   195.08400     Pt( 1.00)
        Re1           15.00   186.20700     Re( 1.00)

     No symmetry found

   Cartesian axes

     site n.     atom                  positions (alat units)
         1           Pt1 tau(   1) = (   0.0000000   0.0000000  10.0000000  )
         2           Pt1 tau(   2) = (  -1.3989039   2.4229727  10.0000000  )
         3           Pt1 tau(   3) = (   1.3989039   2.4229727  10.0000000  )
         4           Re1 tau(   4) = (   2.7978078   0.0000000  10.0000000  )
         5           Pt1 tau(   5) = (   2.7978078   1.6153151  12.2844005  )
         6           Pt1 tau(   6) = (   1.3989039   4.0382878  12.2844005  )
         7           Pt1 tau(   7) = (  -1.3989039   4.0382878  12.2844005  )
         8           Re1 tau(   8) = (   0.0000000   1.6153151  12.2844005  )
         9           Pt1 tau(   9) = (  -0.0000002   3.1932967  14.5595522  )
        10           Pt1 tau(  10) = (   1.3665732   0.8263237  14.5595505  )
        11           Pt1 tau(  11) = (   4.2290405   0.8263227  14.5595557  )
        12           Re1 tau(  12) = (   2.7978093   3.2306362  14.4752332  )

     number of k points=    20  Fermi-Dirac smearing, width (Ry)=  0.0110
                       cart. coord. in units 2pi/alat
        k(    1) = (   0.0000000   0.0000000   0.0000000), wk =   0.0555556
        k(    2) = (   0.0000000   0.0343930   0.0000000), wk =   0.1111111
        k(    3) = (   0.0000000   0.0687860   0.0000000), wk =   0.1111111
        k(    4) = (   0.0000000  -0.1031790   0.0000000), wk =   0.0555556
        k(    5) = (   0.0297852   0.0171965   0.0000000), wk =   0.1111111
        k(    6) = (   0.0297852   0.0515895   0.0000000), wk =   0.1111111
        k(    7) = (   0.0297852   0.0859825   0.0000000), wk =   0.1111111
        k(    8) = (   0.0297852  -0.0859825   0.0000000), wk =   0.1111111
        k(    9) = (   0.0297852  -0.0515895   0.0000000), wk =   0.1111111
        k(   10) = (   0.0297852  -0.0171965   0.0000000), wk =   0.1111111
        k(   11) = (   0.0595704   0.0343930   0.0000000), wk =   0.1111111
        k(   12) = (   0.0595704   0.0687860   0.0000000), wk =   0.1111111
        k(   13) = (   0.0595704   0.1031790   0.0000000), wk =   0.1111111
        k(   14) = (   0.0595704  -0.0687860   0.0000000), wk =   0.1111111
        k(   15) = (   0.0595704  -0.0343930   0.0000000), wk =   0.1111111
        k(   16) = (   0.0595704   0.0000000   0.0000000), wk =   0.1111111
        k(   17) = (  -0.0893557  -0.0515895   0.0000000), wk =   0.0555556
        k(   18) = (  -0.0893557  -0.0171965   0.0000000), wk =   0.1111111
        k(   19) = (  -0.0893557   0.0171965   0.0000000), wk =   0.1111111
        k(   20) = (  -0.0893557  -0.1547686   0.0000000), wk =   0.0555556

     Largest allocated arrays     est. size (Mb)     dimensions
     Largest temporary arrays     est. size (Mb)     dimensions

     Initial potential from superposition of free atoms
     Check: negative starting charge=   -2.031856

     starting charge  182.99976, renormalised to  189.00000

[...]

     *
     * You are using vdW-DF for exchange-correlation in this calculation.
     * Please cite the following three references that made this development
     * possible:
     *
     *   M. Dion, H. Rydberg, E. Schroder, D. C. Langreth, and
     *   B. I. Lundqvist, Phys. Rev. Lett. 92, 246401 (2004).
     *
     *   T. Thonhauser, V. R. Cooper, S. Li, A. Puzder, P. Hyldgaard, and
     *   D. C. Langreth, Phys. Rev. B 76, 125112 (2007).
     *
     *   G. Roman-Perez and J. M. Soler, Phys. Rev. Lett. 103, 096102 (2009).
     *
     *
     * If you are using vdW-DF2, please also cite:
     *
     *   K. Lee, E. D. Murray, L. Kong, B. I. Lundqvist, and
     *   D. C. Langreth, Phys. Rev. B 82, 081101(R) (2010).
     *
     *
     * If you are calculating the stress with vdW-DF, please also cite:
     *
     *   R. Sabatini, E. Kucukbenli, B. Kolb, T. Thonhauser, and
     *   S. de Gironcoli, J. Phys.: Condens. Matter 24, 424209 (2012).
     *

     Carrying out vdW-DF run using the following parameters:

     Nqs =      20    Nr_points =    1024   r_max =   100.000
     q_mesh =
               0.00001000     0.04494208     0.09755937     0.15916263
               0.23128650     0.31572767     0.41458969     0.53033537
               0.66584808     0.82450364     1.01025438     1.22772762
               1.48234092     1.78043706     2.12944203     2.53805004
               3.01644009     3.57652955     4.23227104     5.00000000

     Gradients computed in reciprocal space

[...]

     Starting wfc are  147 randomized atomic wfcs

     Self-consistent Calculation

[...]

     total energy              =   -2487.48846290 Ry
     Harris-Foulkes estimate   =   -2487.48846246 Ry
     estimated scf accuracy    <       0.00000710 Ry

     iteration # 17     ecut=    36.75 Ry     beta=0.10
     Davidson diagonalization with overlap
     ethr =  3.76E-09,  avg # of iterations =  3.1

[...]

     negative rho (up, down):  1.973E+00 0.000E+00

     Adding external electric field

     Computed dipole along edir(3) :
        Dipole                0.0107 Ry au,          0.0273 Debye
        Dipole field          0.0000 Ry au

        Potential amp.       -0.0027 Ry
        Total length         45.2676 bohr

     End of self-consistent calculation

[...]

          k = 0.0596 0.0000 0.0000 ( 16908 PWs)   bands (ev):

[...]

          k =-0.0894-0.1548 0.0000 ( 16920 PWs)   bands (ev):

   -79.1796 -78.7455 -78.6913 -51.2982 -51.2280 -51.1959 -51.1919 -51.1648
   -51.1306 -51.1096 -51.0807 -51.0093 -50.9055 -50.8722 -50.8535 -50.8365
   -50.8172 -50.8067 -50.7919 -50.7866 -50.7516 -50.7346 -50.6765 -50.6467
   -50.5890 -50.5715 -50.5553 -50.5497 -50.5358 -50.5212 -40.9301 -40.7669
   -40.7614 -40.4039 -40.3986 -40.3951 -40.3551 -40.3498 -40.3119  -5.3023
    -5.2711  -3.9228  -3.8480  -3.5432  -3.5363  -3.5156  -3.5090  -3.4183
    -3.3534  -3.0591  -2.7909  -2.7812  -2.5337  -2.5229  -2.4925  -2.3258
    -2.3085  -2.2102  -2.0990  -1.8486  -1.6730  -1.5191  -1.3736  -1.3006
    -1.2801  -1.2227  -1.1446  -1.0687  -1.0576  -0.9223  -0.9043  -0.8283
    -0.8187  -0.7777  -0.6524  -0.5210  -0.4551  -0.3027  -0.1443  -0.1291
    -0.0557   0.0617   0.1062   0.3195   0.3655   0.8034   0.8791   0.9090
     0.9675   1.3575   1.4338   1.6325   1.6910   1.8230   1.8305   1.8712
     1.9989   2.3018   2.3540   2.5632   2.7929   2.9397   3.5456   3.8480
     3.9890   4.2040   5.0135   5.4466   5.9500   6.5878   6.8163   7.1514
     7.3867   8.1908   8.2135   8.7878   8.8106   8.8754   8.8849   9.3801
     9.9056   9.9599   9.9667  10.0045

     the Fermi energy is     2.1696 ev

!    total energy              =   -2487.48846705 Ry
     Harris-Foulkes estimate   =   -2487.48846333 Ry
     estimated scf accuracy    <       0.00000080 Ry

     The total energy is the sum of the following terms:

     one-electron contribution =  -19526.31688987 Ry
     hartree contribution      =    9784.45312724 Ry
     xc contribution           =    -689.51272844 Ry
     ewald contribution        =    7943.98029809 Ry
     electric field correction =       0.00000032 Ry
     smearing contrib. (-TS)   =      -0.09227439 Ry

     convergence has been achieved in  17 iterations

 BEEF-vdW xc energy contributions
           1 :   -613.863692983275
           2 :    571.329128382337
           3 :   -494.920804979229
           4 :    399.056449365206
           5 :   -299.655595504770
           6 :    210.055070585130
           7 :   -138.311233741381
           8 :    86.4683330037707
           9 :   -51.7293377673350
          10 :    28.8101908008287
          11 :   -12.4589430916423
          12 :  -0.789272451929833
          13 :    12.0696937698168
          14 :   -20.7615059222112
          15 :    25.6595873828896
          16 :   -26.1190461742566
          17 :    22.6777176894683
          18 :   -16.9819004785895
          19 :    11.1625733910209
          20 :   -7.03037383065623
          21 :    5.46585967737121
          22 :   -6.24529256097969
          23 :    8.31629339621134
          24 :   -10.3531589490410
          25 :    11.3261276531379
          26 :   -10.8570561633206
          27 :    9.24931072868526
          28 :   -7.23314297045147
          29 :    5.57818655386177
          30 :   -4.75925408593559
          31 :   -50.4096631922076
          32 :   -37.3205187007485

     Forces acting on atoms (Ry/au):

     negative rho (up, down):  1.973E+00 0.000E+00
     atom    1 type  1   force =     0.00000070    0.02211951    0.00044595
     atom    2 type  1   force =     0.01915700   -0.01105969    0.00044616
     atom    3 type  1   force =    -0.01915678   -0.01106054    0.00044604
     atom    4 type  2   force =     0.00000101    0.00000131    0.02077579
     atom    5 type  1   force =     0.00000011   -0.00552002   -0.00450318
     atom    6 type  1   force =    -0.00477992    0.00276037   -0.00450357
     atom    7 type  1   force =     0.00478064    0.00276021   -0.00450426
     atom    8 type  2   force =    -0.00000040   -0.00000083   -0.00466234
     atom    9 type  1   force =    -0.00000055    0.00037437   -0.00113364
     atom   10 type  1   force =     0.00032402   -0.00018742   -0.00113293
     atom   11 type  1   force =    -0.00032375   -0.00018705   -0.00113478
     atom   12 type  2   force =    -0.00000208   -0.00000022   -0.00053924

     Total force =     0.045593     Total SCF correction =     0.003280

     entering subroutine stress ...

     negative rho (up, down):  1.973E+00 0.000E+00
          total   stress  (Ry/bohr**3)                   (kbar)     P=  -27.07
  -0.00025480  -0.00000000  -0.00000000        -37.48     -0.00     -0.00
  -0.00000000  -0.00025480  -0.00000000         -0.00    -37.48     -0.00
  -0.00000000  -0.00000000  -0.00004247         -0.00     -0.00     -6.25

 !ASE

     Writing output data file calc.save

     General routines

     Parallel routines

   This run was terminated on:  19:31:30  27Dec2018

   JOB DONE.
Job  /afs/slac/g/suncat/bin/suncat-tsmpirun -x LD_LIBRARY_PATH -wdir /scratch/qe110553_xMEWN pw.x -in pw.inp

TID   HOST_NAME   COMMAND_LINE            STATUS            TERMINATION_TIME
00000 suncat0266 pw.x -in pw.inp   Done                     12/27/2018 19:31:30
00001 suncat0266 pw.x -in pw.inp   Done                     12/27/2018 19:31:30
00002 suncat0266 pw.x -in pw.inp   Done                     12/27/2018 19:31:30
00003 suncat0266 pw.x -in pw.inp   Done                     12/27/2018 19:31:30
00004 suncat0266 pw.x -in pw.inp   Done                     12/27/2018 19:31:30
00005 suncat0266 pw.x -in pw.inp   Done                     12/27/2018 19:31:30
00006 suncat0266 pw.x -in pw.inp   Done                     12/27/2018 19:31:30
00007 suncat0266 pw.x -in pw.inp   Done                     12/27/2018 19:31:30
00008 suncat0264 pw.x -in pw.inp   Done                     12/27/2018 19:31:30
00009 suncat0264 pw.x -in pw.inp   Done                     12/27/2018 19:31:30
00010 suncat0264 pw.x -in pw.inp   Done                     12/27/2018 19:31:30
00011 suncat0264 pw.x -in pw.inp   Done                     12/27/2018 19:31:30
00012 suncat0264 pw.x -in pw.inp   Done                     12/27/2018 19:31:30
00013 suncat0264 pw.x -in pw.inp   Done                     12/27/2018 19:31:30
00014 suncat0264 pw.x -in pw.inp   Done                     12/27/2018 19:31:30
00015 suncat0264 pw.x -in pw.inp   Done                     12/27/2018 19:31:30
00016 suncat0256 pw.x -in pw.inp   Done                     12/27/2018 19:31:30
00017 suncat0256 pw.x -in pw.inp   Done                     12/27/2018 19:31:30
00018 suncat0256 pw.x -in pw.inp   Done                     12/27/2018 19:31:30
00019 suncat0256 pw.x -in pw.inp   Done                     12/27/2018 19:31:30
00020 suncat0256 pw.x -in pw.inp   Done                     12/27/2018 19:31:30
00021 suncat0256 pw.x -in pw.inp   Done                     12/27/2018 19:31:30
00022 suncat0256 pw.x -in pw.inp   Done                     12/27/2018 19:31:30
00023 suncat0256 pw.x -in pw.inp   Done                     12/27/2018 19:31:30
00024 suncat0255 pw.x -in pw.inp   Done                     12/27/2018 19:31:30
00025 suncat0255 pw.x -in pw.inp   Done                     12/27/2018 19:31:30
00026 suncat0255 pw.x -in pw.inp   Done                     12/27/2018 19:31:30
00027 suncat0255 pw.x -in pw.inp   Done                     12/27/2018 19:31:30
00028 suncat0255 pw.x -in pw.inp   Done                     12/27/2018 19:31:30
00029 suncat0255 pw.x -in pw.inp   Done                     12/27/2018 19:31:30
00030 suncat0255 pw.x -in pw.inp   Done                     12/27/2018 19:31:30
00031 suncat0255 pw.x -in pw.inp   Done                     12/27/2018 19:31:30
00032 suncat0234 pw.x -in pw.inp   Done                     12/27/2018 19:31:30
00033 suncat0234 pw.x -in pw.inp   Done                     12/27/2018 19:31:30
00034 suncat0234 pw.x -in pw.inp   Done                     12/27/2018 19:31:30
00035 suncat0234 pw.x -in pw.inp   Done                     12/27/2018 19:31:30
00036 suncat0234 pw.x -in pw.inp   Done                     12/27/2018 19:31:30
00037 suncat0234 pw.x -in pw.inp   Done                     12/27/2018 19:31:30
00038 suncat0234 pw.x -in pw.inp   Done                     12/27/2018 19:31:30
00039 suncat0234 pw.x -in pw.inp   Done                     12/27/2018 19:31:30
00040 suncat0233 pw.x -in pw.inp   Done                     12/27/2018 19:31:30
00041 suncat0233 pw.x -in pw.inp   Done                     12/27/2018 19:31:30
00042 suncat0233 pw.x -in pw.inp   Done                     12/27/2018 19:31:30
00043 suncat0233 pw.x -in pw.inp   Done                     12/27/2018 19:31:30
00044 suncat0233 pw.x -in pw.inp   Done                     12/27/2018 19:31:30
00045 suncat0233 pw.x -in pw.inp   Done                     12/27/2018 19:31:30
00046 suncat0233 pw.x -in pw.inp   Done                     12/27/2018 19:31:30
00047 suncat0233 pw.x -in pw.inp   Done                     12/27/2018 19:31:30
00048 suncat0222 pw.x -in pw.inp   Done                     12/27/2018 19:31:30
00049 suncat0222 pw.x -in pw.inp   Done                     12/27/2018 19:31:30
00050 suncat0222 pw.x -in pw.inp   Done                     12/27/2018 19:31:30
00051 suncat0222 pw.x -in pw.inp   Done                     12/27/2018 19:31:30
00052 suncat0222 pw.x -in pw.inp   Done                     12/27/2018 19:31:30
00053 suncat0222 pw.x -in pw.inp   Done                     12/27/2018 19:31:30
00054 suncat0222 pw.x -in pw.inp   Done                     12/27/2018 19:31:30
00055 suncat0222 pw.x -in pw.inp   Done                     12/27/2018 19:31:30
00056 suncat0221 pw.x -in pw.inp   Done                     12/27/2018 19:31:30
00057 suncat0221 pw.x -in pw.inp   Done                     12/27/2018 19:31:30
00058 suncat0221 pw.x -in pw.inp   Done                     12/27/2018 19:31:30
00059 suncat0221 pw.x -in pw.inp   Done                     12/27/2018 19:31:30
00060 suncat0221 pw.x -in pw.inp   Done                     12/27/2018 19:31:30
00061 suncat0221 pw.x -in pw.inp   Done                     12/27/2018 19:31:30
00062 suncat0221 pw.x -in pw.inp   Done                     12/27/2018 19:31:30
00063 suncat0221 pw.x -in pw.inp   Done                     12/27/2018 19:31:30