     Program PWSCF v.5.1rc2 (svn rev. 11289) starts on  1Jan2019 at 10:30:50

     Current dimensions of program PWSCF are:
     Max number of different atomic species (ntypx) = 10
     Max number of k-points (npk) =  40000
     Max angular momentum in pseudopotentials (lmaxx) =  3
     Presently stress not available with electric field

     IMPORTANT: XC functional enforced from input :
     Exchange-correlation      = BEEF-VDW ( 1  4 27 13 2)
     Any further DFT definition will be discarded
     Please, verify this is what you really want

     Subspace diagonalization in iterative solution of the eigenvalue problem:
     a serial algorithm will be used

     bravais-lattice index     =            0
     lattice parameter (alat)  =       1.8897  a.u.
     unit-cell volume          =    6902.2481 (a.u.)^3
     number of atoms/cell      =           12
     number of atomic types    =            2
     number of electrons       =       162.00
     number of Kohn-Sham states=          111
     kinetic-energy cutoff     =      36.7493  Ry
     charge density cutoff     =     367.4932  Ry
     convergence threshold     =      1.0E-06
     mixing beta               =       0.1000
     number of iterations used =           10  plain     mixing
     Exchange-correlation      = BEEF-VDW ( 1  4 27 13 2)
     nstep                     =           50

     celldm(1)=   1.889726  celldm(2)=   0.000000  celldm(3)=   0.000000
     celldm(4)=   0.000000  celldm(5)=   0.000000  celldm(6)=   0.000000

     crystal axes: (cart. coord. in units of alat)
               a(1) = (   6.798712   0.000000   0.000000 )
               a(2) = (  -3.399356   5.887857   0.000000 )
               a(3) = (   0.000000   0.000000  25.551125 )

     reciprocal axes: (cart. coord. in units 2 pi/alat)
               b(1) = (  0.147087  0.084921  0.000000 )
               b(2) = (  0.000000  0.169841  0.000000 )
               b(3) = (  0.000000  0.000000  0.039137 )

     PseudoPot. # 1 for Sn read from file:
     /afs/slac.stanford.edu/u/if/mamunm/psp/gbrv1.5pbe/Sn.UPF
     MD5 check sum: 469debedee59599fedebd795477fea03
     Pseudo is Ultrasoft + core correction, Zval = 14.0
     Generated by new atomic code, or converted to UPF format
     Using radial grid of  891 points,  6 beta functions with:
                l(1) =   0
                l(2) =   0
                l(3) =   1
                l(4) =   1
                l(5) =   2
                l(6) =   2
     Q(r) pseudized with  8 coefficients,  rinner =    1.350   1.350   1.350
                                                       1.350   1.350

     PseudoPot. # 2 for Cd read from file:
     /afs/slac.stanford.edu/u/if/mamunm/psp/gbrv1.5pbe/Cd.UPF
     MD5 check sum: 17164a7926edb8e0dc231208abae86a6
     Pseudo is Ultrasoft + core correction, Zval = 12.0
     Generated by new atomic code, or converted to UPF format
     Using radial grid of  889 points,  6 beta functions with:
                l(1) =   0
                l(2) =   0
                l(3) =   1
                l(4) =   1
                l(5) =   2
                l(6) =   2
     Q(r) pseudized with  6 coefficients,  rinner =    1.000   1.000   1.000
                                                       1.000   1.000

     vdW kernel table read from file vdW_kernel_table
     MD5 check sum: 095c7af220d748ca6e76c0b4c6cfb241

     atomic species   valence    mass     pseudopotential
        Sn1           14.00   118.71000     Sn( 1.00)
        Cd1           12.00   112.41400     Cd( 1.00)

     No symmetry found

   Cartesian axes

     site n.     atom                  positions (alat units)
         1           Sn1 tau(   1) = (   0.0000000   0.0000000  10.0000000  )
         2           Sn1 tau(   2) = (  -1.6996780   2.9439287  10.0000000  )
         3           Sn1 tau(   3) = (   1.6996780   2.9439287  10.0000000  )
         4           Cd1 tau(   4) = (   3.3993561   0.0000000  10.0000000  )
         5           Sn1 tau(   5) = (   3.3993561   1.9626191  12.7755626  )
         6           Sn1 tau(   6) = (   1.6996780   4.9065478  12.7755626  )
         7           Sn1 tau(   7) = (  -1.6996780   4.9065478  12.7755626  )
         8           Cd1 tau(   8) = (   0.0000000   1.9626191  12.7755626  )
         9           Sn1 tau(   9) = (  -0.0000000   3.9252383  15.5511252  )
        10           Sn1 tau(  10) = (   1.6996780   0.9813096  15.5511252  )
        11           Sn1 tau(  11) = (   5.0990341   0.9813096  15.5511252  )
        12           Cd1 tau(  12) = (   3.3993561   3.9252383  15.5511252  )

     number of k points=    20  Fermi-Dirac smearing, width (Ry)=  0.0110
                       cart. coord. in units 2pi/alat
        k(    1) = (   0.0000000   0.0000000   0.0000000), wk =   0.0555556
        k(    2) = (   0.0000000   0.0283068   0.0000000), wk =   0.1111111
        k(    3) = (   0.0000000   0.0566137   0.0000000), wk =   0.1111111
        k(    4) = (   0.0000000  -0.0849205   0.0000000), wk =   0.0555556
        k(    5) = (   0.0245144   0.0141534   0.0000000), wk =   0.1111111
        k(    6) = (   0.0245144   0.0424603   0.0000000), wk =   0.1111111
        k(    7) = (   0.0245144   0.0707671   0.0000000), wk =   0.1111111
        k(    8) = (   0.0245144  -0.0707671   0.0000000), wk =   0.1111111
        k(    9) = (   0.0245144  -0.0424603   0.0000000), wk =   0.1111111
        k(   10) = (   0.0245144  -0.0141534   0.0000000), wk =   0.1111111
        k(   11) = (   0.0490289   0.0283068   0.0000000), wk =   0.1111111
        k(   12) = (   0.0490289   0.0566137   0.0000000), wk =   0.1111111
        k(   13) = (   0.0490289   0.0849205   0.0000000), wk =   0.1111111
        k(   14) = (   0.0490289  -0.0566137   0.0000000), wk =   0.1111111
        k(   15) = (   0.0490289  -0.0283068   0.0000000), wk =   0.1111111
        k(   16) = (   0.0490289   0.0000000   0.0000000), wk =   0.1111111
        k(   17) = (  -0.0735433  -0.0424603   0.0000000), wk =   0.0555556
        k(   18) = (  -0.0735433  -0.0141534   0.0000000), wk =   0.1111111
        k(   19) = (  -0.0735433   0.0141534   0.0000000), wk =   0.1111111
        k(   20) = (  -0.0735433  -0.1273808   0.0000000), wk =   0.0555556

     Largest allocated arrays     est. size (Mb)     dimensions
     Largest temporary arrays     est. size (Mb)     dimensions

     Initial potential from superposition of free atoms
     Check: negative starting charge=   -0.065497

     starting charge  151.49947, renormalised to  162.00000

     negative rho (up, down):  7.004E-02 0.000E+00

     *
     * You are using vdW-DF for exchange-correlation in this calculation.
     * Please cite the following three references that made this development
     * possible:
     *
     *   M. Dion, H. Rydberg, E. Schroder, D. C. Langreth, and
     *   B. I. Lundqvist, Phys. Rev. Lett. 92, 246401 (2004).
     *
     *   T. Thonhauser, V. R. Cooper, S. Li, A. Puzder, P. Hyldgaard, and
     *   D. C. Langreth, Phys. Rev. B 76, 125112 (2007).
     *
     *   G. Roman-Perez and J. M. Soler, Phys. Rev. Lett. 103, 096102 (2009).
     *
     *
     * If you are using vdW-DF2, please also cite:
     *
     *   K. Lee, E. D. Murray, L. Kong, B. I. Lundqvist, and
     *   D. C. Langreth, Phys. Rev. B 82, 081101(R) (2010).
     *
     *
     * If you are calculating the stress with vdW-DF, please also cite:
     *
     *   R. Sabatini, E. Kucukbenli, B. Kolb, T. Thonhauser, and
     *   S. de Gironcoli, J. Phys.: Condens. Matter 24, 424209 (2012).
     *

     Carrying out vdW-DF run using the following parameters:

     Nqs =      20    Nr_points =    1024   r_max =   100.000
     q_mesh =
               0.00001000     0.04494208     0.09755937     0.15916263
               0.23128650     0.31572767     0.41458969     0.53033537
               0.66584808     0.82450364     1.01025438     1.22772762
               1.48234092     1.78043706     2.12944203     2.53805004
               3.01644009     3.57652955     4.23227104     5.00000000

     Gradients computed in reciprocal space

     Adding external electric field

     Computed dipole along edir(3) :
        Dipole               -0.0000 Ry au,         -0.0000 Debye
        Dipole field         -0.0000 Ry au

        Potential amp.        0.0000 Ry
        Total length         47.0775 bohr

     Starting wfc are  108 randomized atomic wfcs +    3 random wfc

     Self-consistent Calculation

     iteration #  1     ecut=    36.75 Ry     beta=0.10
     Davidson diagonalization with overlap
     ethr =  1.00E-02,  avg # of iterations = 10.1

[...]

     total energy              =   -1796.65375124 Ry
     Harris-Foulkes estimate   =   -1798.41372873 Ry
     estimated scf accuracy    <      10.24309794 Ry

[...]

     End of self-consistent calculation

          k = 0.0000 0.0000 0.0000 ( 26049 PWs)   bands (ev):

   -21.5706 -21.5656 -21.5604 -21.5604 -21.5530 -21.5530 -21.5396 -21.5283
   -21.5277 -21.5277 -21.5233 -21.5143 -21.5130 -21.5130 -21.5080 -21.5013
   -21.5013 -21.4913 -21.4876 -21.4844 -21.4844 -21.4836 -21.4836 -21.4809
   -21.4809 -21.4736 -21.4736 -21.4479 -21.4479 -21.4399 -21.4375 -21.4375
   -21.4187 -21.4167 -21.4167 -21.4087 -21.4050 -21.3973 -21.3973 -21.3829
   -21.3799 -21.3799 -21.3501 -21.3501 -21.3433  -9.4741  -8.5642  -8.5515
    -8.5332  -8.5332  -8.4602  -8.4602  -8.2391  -8.2309  -8.2309  -8.2209
    -8.2209  -8.1714  -8.1714  -8.1707  -8.1707  -7.9839  -6.6565  -5.8190
    -5.8190  -5.4200  -5.4200  -4.5992  -4.5992  -3.6050  -3.3437  -2.8223
    -2.5661  -2.5661  -2.2702  -1.8399  -1.5455  -1.5455  -1.2226  -1.2226
    -0.5050  -0.4246   0.6899   1.7021   1.7021   1.8003   1.8003   2.6516
     3.1277   3.2652   3.2780   3.9424   3.9449   3.9449   4.2676   4.2954
     4.2954   4.5130   4.7356   5.1388   5.1388   5.3940   6.0623   6.0623
     6.1866   6.2100   6.2304   6.2304   6.3094   6.9898   6.9898

[...]

          k =-0.0735-0.0425 0.0000 ( 25938 PWs)   bands (ev):

[...]

     the Fermi energy is     0.4701 ev

!    total energy              =   -1794.47000808 Ry
     Harris-Foulkes estimate   =   -1794.47000895 Ry
     estimated scf accuracy    <       0.00000073 Ry

     The total energy is the sum of the following terms:

     one-electron contribution =   -9364.70623783 Ry
     hartree contribution      =    4751.72758841 Ry
     xc contribution           =    -522.45278702 Ry
     ewald contribution        =    3340.99960644 Ry
     electric field correction =       0.00000000 Ry
     smearing contrib. (-TS)   =      -0.03817808 Ry

     convergence has been achieved in  15 iterations

 BEEF-vdW xc energy contributions
           1 :   -458.809553904687
           2 :    419.752173682042
           3 :   -353.678424947639
           4 :    279.218897495447
           5 :   -213.864668234754
           6 :    167.718450525100
           7 :   -141.327100024957
           8 :    127.997459952168
           9 :   -118.842030707426
          10 :    107.661454786296
          11 :   -93.2694801984464
          12 :    78.5632123329250
          13 :   -67.5164705842769
          14 :    62.2063424085394
          15 :   -61.5974031127150
[...]
     MD5 check sum: 469debedee59599fedebd795477fea03
     Pseudo is Ultrasoft + core correction, Zval = 14.0
     Generated by new atomic code, or converted to UPF format
     Using radial grid of  891 points,  6 beta functions with:
                l(1) =   0
                l(2) =   0
                l(3) =   1
                l(4) =   1
                l(5) =   2
                l(6) =   2
     Q(r) pseudized with  8 coefficients,  rinner =    1.350   1.350   1.350
                                                       1.350   1.350

     PseudoPot. # 2 for Cd read from file:
     /afs/slac.stanford.edu/u/if/mamunm/psp/gbrv1.5pbe/Cd.UPF
     MD5 check sum: 17164a7926edb8e0dc231208abae86a6
     Pseudo is Ultrasoft + core correction, Zval = 12.0
     Generated by new atomic code, or converted to UPF format
     Using radial grid of  889 points,  6 beta functions with:
                l(1) =   0
                l(2) =   0
                l(3) =   1
                l(4) =   1
                l(5) =   2
                l(6) =   2
     Q(r) pseudized with  6 coefficients,  rinner =    1.000   1.000   1.000
                                                       1.000   1.000

     vdW kernel table read from file vdW_kernel_table
     MD5 check sum: 095c7af220d748ca6e76c0b4c6cfb241

     atomic species   valence    mass     pseudopotential
        Sn1           14.00   118.71000     Sn( 1.00)
        Cd1           12.00   112.41400     Cd( 1.00)

     No symmetry found

   Cartesian axes

     site n.     atom                  positions (alat units)
         1           Sn1 tau(   1) = (   0.0000000   0.0000000  10.0000000  )
         2           Sn1 tau(   2) = (  -1.6996780   2.9439287  10.0000000  )
         3           Sn1 tau(   3) = (   1.6996780   2.9439287  10.0000000  )
         4           Cd1 tau(   4) = (   3.3993561   0.0000000  10.0000000  )
         5           Sn1 tau(   5) = (   3.3993561   1.9626191  12.7755626  )
         6           Sn1 tau(   6) = (   1.6996780   4.9065478  12.7755626  )
         7           Sn1 tau(   7) = (  -1.6996780   4.9065478  12.7755626  )
         8           Cd1 tau(   8) = (   0.0000000   1.9626191  12.7755626  )
         9           Sn1 tau(   9) = (   0.0000156   3.9017964  15.4314124  )
        10           Sn1 tau(  10) = (   1.6794071   0.9930101  15.4313742  )
        11           Sn1 tau(  11) = (   5.1193239   0.9930120  15.4313613  )
        12           Cd1 tau(  12) = (   3.3993668   3.9252286  15.6553239  )

     number of k points=    20  Fermi-Dirac smearing, width (Ry)=  0.0110
                       cart. coord. in units 2pi/alat
        k(    1) = (   0.0000000   0.0000000   0.0000000), wk =   0.0555556
        k(    2) = (   0.0000000   0.0283068   0.0000000), wk =   0.1111111
        k(    3) = (   0.0000000   0.0566137   0.0000000), wk =   0.1111111
        k(    4) = (   0.0000000  -0.0849205   0.0000000), wk =   0.0555556
        k(    5) = (   0.0245144   0.0141534   0.0000000), wk =   0.1111111
        k(    6) = (   0.0245144   0.0424603   0.0000000), wk =   0.1111111
        k(    7) = (   0.0245144   0.0707671   0.0000000), wk =   0.1111111
        k(    8) = (   0.0245144  -0.0707671   0.0000000), wk =   0.1111111
        k(    9) = (   0.0245144  -0.0424603   0.0000000), wk =   0.1111111
        k(   10) = (   0.0245144  -0.0141534   0.0000000), wk =   0.1111111
        k(   11) = (   0.0490289   0.0283068   0.0000000), wk =   0.1111111
        k(   12) = (   0.0490289   0.0566137   0.0000000), wk =   0.1111111
        k(   13) = (   0.0490289   0.0849205   0.0000000), wk =   0.1111111
        k(   14) = (   0.0490289  -0.0566137   0.0000000), wk =   0.1111111
        k(   15) = (   0.0490289  -0.0283068   0.0000000), wk =   0.1111111
        k(   16) = (   0.0490289   0.0000000   0.0000000), wk =   0.1111111
        k(   17) = (  -0.0735433  -0.0424603   0.0000000), wk =   0.0555556
        k(   18) = (  -0.0735433  -0.0141534   0.0000000), wk =   0.1111111
        k(   19) = (  -0.0735433   0.0141534   0.0000000), wk =   0.1111111
        k(   20) = (  -0.0735433  -0.1273808   0.0000000), wk =   0.0555556

     Largest allocated arrays     est. size (Mb)     dimensions
     Largest temporary arrays     est. size (Mb)     dimensions

     Initial potential from superposition of free atoms
     Check: negative starting charge=   -0.065638

     starting charge  151.49947, renormalised to  162.00000

[...]

     *
     * You are using vdW-DF for exchange-correlation in this calculation.
     * Please cite the following three references that made this development
     * possible:
     *
     *   M. Dion, H. Rydberg, E. Schroder, D. C. Langreth, and
     *   B. I. Lundqvist, Phys. Rev. Lett. 92, 246401 (2004).
     *
     *   T. Thonhauser, V. R. Cooper, S. Li, A. Puzder, P. Hyldgaard, and
     *   D. C. Langreth, Phys. Rev. B 76, 125112 (2007).
     *
     *   G. Roman-Perez and J. M. Soler, Phys. Rev. Lett. 103, 096102 (2009).
     *
     *
     * If you are using vdW-DF2, please also cite:
     *
     *   K. Lee, E. D. Murray, L. Kong, B. I. Lundqvist, and
     *   D. C. Langreth, Phys. Rev. B 82, 081101(R) (2010).
     *
     *
     * If you are calculating the stress with vdW-DF, please also cite:
     *
     *   R. Sabatini, E. Kucukbenli, B. Kolb, T. Thonhauser, and
     *   S. de Gironcoli, J. Phys.: Condens. Matter 24, 424209 (2012).
     *

     Carrying out vdW-DF run using the following parameters:

     Nqs =      20    Nr_points =    1024   r_max =   100.000
     q_mesh =
               0.00001000     0.04494208     0.09755937     0.15916263
               0.23128650     0.31572767     0.41458969     0.53033537
               0.66584808     0.82450364     1.01025438     1.22772762
               1.48234092     1.78043706     2.12944203     2.53805004
               3.01644009     3.57652955     4.23227104     5.00000000

     Gradients computed in reciprocal space

[...]

     Starting wfc are  108 randomized atomic wfcs +    3 random wfc

     Self-consistent Calculation

[...]

     total energy              =   -1794.47329741 Ry
     Harris-Foulkes estimate   =   -1794.47329617 Ry
     estimated scf accuracy    <       0.00000205 Ry

     iteration # 15     ecut=    36.75 Ry     beta=0.10
     Davidson diagonalization with overlap
     ethr =  1.27E-09,  avg # of iterations =  2.2

[...]

     negative rho (up, down):  6.646E-02 0.000E+00

     Adding external electric field

     Computed dipole along edir(3) :
        Dipole               -0.0073 Ry au,         -0.0185 Debye
        Dipole field         -0.0000 Ry au

        Potential amp.        0.0012 Ry
        Total length         47.0775 bohr

     End of self-consistent calculation

[...]

          k = 0.0490 0.0000 0.0000 ( 25945 PWs)   bands (ev):

[...]

          k =-0.0735-0.1274 0.0000 ( 25938 PWs)   bands (ev):

   -21.5686 -21.5478 -21.5376 -21.5310 -21.5273 -21.5227 -21.5213 -21.5194
   -21.5177 -21.5170 -21.5127 -21.5092 -21.5031 -21.5029 -21.5002 -21.5000
   -21.4963 -21.4948 -21.4937 -21.4899 -21.4888 -21.4864 -21.4859 -21.4838
   -21.4764 -21.4755 -21.4679 -21.4679 -21.4528 -21.4502 -21.4417 -21.4362
   -21.4360 -21.4239 -21.4236 -21.4207 -21.4103 -21.4096 -21.4018 -21.3971
   -21.3900 -21.3893 -21.3837 -21.3752 -21.3492  -8.7544  -8.6698  -8.5617
    -8.5370  -8.5216  -8.4874  -8.3362  -8.2644  -8.2215  -8.2162  -8.1992
    -8.1910  -8.1686  -8.1621  -8.1413  -8.1044  -8.0440  -7.4459  -6.9729
    -6.5946  -6.1038  -5.7617  -5.5433  -4.4016  -3.9561  -3.3183  -2.1424
    -1.1440  -1.1085  -0.9075  -0.8446  -0.6615  -0.6051  -0.1170   0.1689
     0.3707   0.6625   1.2003   1.2298   1.2856   1.3587   1.5756   1.8867
     2.1454   2.4049   2.4105   2.9394   3.1261   3.3621   3.5807   3.9041
     4.1448   4.1552   4.4480   4.6246   4.7711   4.7818   4.8158   4.9908
     5.0159   5.4793   5.5139   5.6972   5.7213   5.7861   6.0455

     the Fermi energy is     0.4552 ev

!    total energy              =   -1794.47329585 Ry
     Harris-Foulkes estimate   =   -1794.47329777 Ry
     estimated scf accuracy    <       0.00000047 Ry

     The total energy is the sum of the following terms:

     one-electron contribution =   -9454.26356661 Ry
     hartree contribution      =    4796.51222119 Ry
     xc contribution           =    -522.50903914 Ry
     ewald contribution        =    3385.82550523 Ry
     electric field correction =       0.00000010 Ry
     smearing contrib. (-TS)   =      -0.03841662 Ry

     convergence has been achieved in  15 iterations

 BEEF-vdW xc energy contributions
           1 :   -458.867586896287
           2 :    419.837685337443
           3 :   -353.798464733621
           4 :    279.350648855001
           5 :   -213.966796320680
           6 :    167.756356450099
           7 :   -141.296101698492
           8 :    127.927432508814
           9 :   -118.779864694752
          10 :    107.642155156493
          11 :   -93.2948618770471
          12 :    78.6027307428029
          13 :   -67.5298054185765
          14 :    62.1719593230588
          15 :   -61.5279558393850
          16 :    62.4183756106796
          17 :   -61.6390224079046
          18 :    57.8450696631617
          19 :   -52.0578182553918
          20 :    46.6679686154374
          21 :   -43.7391958689440
          22 :    43.7329790028882
          23 :   -45.3807891265764
          24 :    46.6362040783617
          25 :   -45.9960312535181
          26 :    43.3424524765381
          27 :   -39.8530285240579
          28 :    37.1368709675662
          29 :   -36.2057456398155
          30 :    36.9181324985069
          31 :   -40.3396585031021
          32 :   -29.3268727179037

     Forces acting on atoms (Ry/au):

     negative rho (up, down):  6.646E-02 0.000E+00
     atom    1 type  1   force =     0.00000094    0.00175980    0.00671166
     atom    2 type  1   force =     0.00152590   -0.00088025    0.00671167
     atom    3 type  1   force =    -0.00152467   -0.00088122    0.00671241
     atom    4 type  2   force =     0.00000025   -0.00000126   -0.00319074
     atom    5 type  1   force =    -0.00000177    0.00212890   -0.00331129
     atom    6 type  1   force =     0.00184418   -0.00106549   -0.00331193
     atom    7 type  1   force =    -0.00184300   -0.00106425   -0.00330997
     atom    8 type  2   force =     0.00000060    0.00000081   -0.00610933
     atom    9 type  1   force =    -0.00000115    0.00005770   -0.00075824
     atom   10 type  1   force =     0.00004668   -0.00002792   -0.00075619
     atom   11 type  1   force =    -0.00004858   -0.00002762   -0.00075464
     atom   12 type  2   force =     0.00000063    0.00000081    0.00136660

     Total force =     0.015557     Total SCF correction =     0.001615
     SCF correction compared to forces is large: reduce conv_thr to get better values

     entering subroutine stress ...

     negative rho (up, down):  6.646E-02 0.000E+00
          total   stress  (Ry/bohr**3)                   (kbar)     P=   -6.21
  -0.00004572   0.00000000  -0.00000000         -6.73      0.00     -0.00
   0.00000000  -0.00004572   0.00000000          0.00     -6.72      0.00
  -0.00000000   0.00000000  -0.00003526         -0.00      0.00     -5.19

 !ASE

     Writing output data file calc.save

     General routines

     Parallel routines

   This run was terminated on:  12:34:32   1Jan2019

   JOB DONE.
Job  /afs/slac/g/suncat/bin/suncat-tsmpirun -x LD_LIBRARY_PATH -wdir /scratch/qe648996_vjede pw.x -in pw.inp

TID   HOST_NAME   COMMAND_LINE            STATUS            TERMINATION_TIME
00000 suncat0146 pw.x -in pw.inp   Done                     01/01/2019 12:34:32
00001 suncat0146 pw.x -in pw.inp   Done                     01/01/2019 12:34:32
00002 suncat0146 pw.x -in pw.inp   Done                     01/01/2019 12:34:32
00003 suncat0146 pw.x -in pw.inp   Done                     01/01/2019 12:34:32
00004 suncat0146 pw.x -in pw.inp   Done                     01/01/2019 12:34:32
00005 suncat0146 pw.x -in pw.inp   Done                     01/01/2019 12:34:32
00006 suncat0146 pw.x -in pw.inp   Done                     01/01/2019 12:34:32
00007 suncat0146 pw.x -in pw.inp   Done                     01/01/2019 12:34:32
00008 suncat0136 pw.x -in pw.inp   Done                     01/01/2019 12:34:32
00009 suncat0136 pw.x -in pw.inp   Done                     01/01/2019 12:34:32
00010 suncat0136 pw.x -in pw.inp   Done                     01/01/2019 12:34:32
00011 suncat0136 pw.x -in pw.inp   Done                     01/01/2019 12:34:32
00012 suncat0136 pw.x -in pw.inp   Done                     01/01/2019 12:34:32
00013 suncat0136 pw.x -in pw.inp   Done                     01/01/2019 12:34:32
00014 suncat0136 pw.x -in pw.inp   Done                     01/01/2019 12:34:32
00015 suncat0136 pw.x -in pw.inp   Done                     01/01/2019 12:34:32
00016 suncat0248 pw.x -in pw.inp   Done                     01/01/2019 12:34:32
00017 suncat0248 pw.x -in pw.inp   Done                     01/01/2019 12:34:32
00018 suncat0248 pw.x -in pw.inp   Done                     01/01/2019 12:34:32
00019 suncat0248 pw.x -in pw.inp   Done                     01/01/2019 12:34:32
00020 suncat0248 pw.x -in pw.inp   Done                     01/01/2019 12:34:32
00021 suncat0248 pw.x -in pw.inp   Done                     01/01/2019 12:34:32
00022 suncat0248 pw.x -in pw.inp   Done                     01/01/2019 12:34:32
00023 suncat0248 pw.x -in pw.inp   Done                     01/01/2019 12:34:32
00024 suncat0247 pw.x -in pw.inp   Done                     01/01/2019 12:34:32
00025 suncat0247 pw.x -in pw.inp   Done                     01/01/2019 12:34:32
00026 suncat0247 pw.x -in pw.inp   Done                     01/01/2019 12:34:32
00027 suncat0247 pw.x -in pw.inp   Done                     01/01/2019 12:34:32
00028 suncat0247 pw.x -in pw.inp   Done                     01/01/2019 12:34:32
00029 suncat0247 pw.x -in pw.inp   Done                     01/01/2019 12:34:32
00030 suncat0247 pw.x -in pw.inp   Done                     01/01/2019 12:34:32
00031 suncat0247 pw.x -in pw.inp   Done                     01/01/2019 12:34:32
00032 suncat0246 pw.x -in pw.inp   Done                     01/01/2019 12:34:32
00033 suncat0246 pw.x -in pw.inp   Done                     01/01/2019 12:34:32
00034 suncat0246 pw.x -in pw.inp   Done                     01/01/2019 12:34:32
00035 suncat0246 pw.x -in pw.inp   Done                     01/01/2019 12:34:32
00036 suncat0246 pw.x -in pw.inp   Done                     01/01/2019 12:34:32
00037 suncat0246 pw.x -in pw.inp   Done                     01/01/2019 12:34:32
00038 suncat0246 pw.x -in pw.inp   Done                     01/01/2019 12:34:32
00039 suncat0246 pw.x -in pw.inp   Done                     01/01/2019 12:34:32
00040 suncat0245 pw.x -in pw.inp   Done                     01/01/2019 12:34:32
00041 suncat0245 pw.x -in pw.inp   Done                     01/01/2019 12:34:32
00042 suncat0245 pw.x -in pw.inp   Done                     01/01/2019 12:34:32
00043 suncat0245 pw.x -in pw.inp   Done                     01/01/2019 12:34:32
00044 suncat0245 pw.x -in pw.inp   Done                     01/01/2019 12:34:32
00045 suncat0245 pw.x -in pw.inp   Done                     01/01/2019 12:34:32
00046 suncat0245 pw.x -in pw.inp   Done                     01/01/2019 12:34:32
00047 suncat0245 pw.x -in pw.inp   Done                     01/01/2019 12:34:32
00048 suncat0214 pw.x -in pw.inp   Done                     01/01/2019 12:34:32
00049 suncat0214 pw.x -in pw.inp   Done                     01/01/2019 12:34:32
00050 suncat0214 pw.x -in pw.inp   Done                     01/01/2019 12:34:32
00051 suncat0214 pw.x -in pw.inp   Done                     01/01/2019 12:34:32
00052 suncat0214 pw.x -in pw.inp   Done                     01/01/2019 12:34:32
00053 suncat0214 pw.x -in pw.inp   Done                     01/01/2019 12:34:32
00054 suncat0214 pw.x -in pw.inp   Done                     01/01/2019 12:34:32
00055 suncat0214 pw.x -in pw.inp   Done                     01/01/2019 12:34:32
00056 suncat0213 pw.x -in pw.inp   Done                     01/01/2019 12:34:32
00057 suncat0213 pw.x -in pw.inp   Done                     01/01/2019 12:34:32
00058 suncat0213 pw.x -in pw.inp   Done                     01/01/2019 12:34:32
00059 suncat0213 pw.x -in pw.inp   Done                     01/01/2019 12:34:32
00060 suncat0213 pw.x -in pw.inp   Done                     01/01/2019 12:34:32
00061 suncat0213 pw.x -in pw.inp   Done                     01/01/2019 12:34:32
00062 suncat0213 pw.x -in pw.inp   Done                     01/01/2019 12:34:32
00063 suncat0213 pw.x -in pw.inp   Done                     01/01/2019 12:34:32