     Program PWSCF v.5.1rc2 (svn rev. 11289) starts on  1Jan2019 at 21:19:30

     Current dimensions of program PWSCF are:
     Max number of different atomic species (ntypx) = 10
     Max number of k-points (npk) =  40000
     Max angular momentum in pseudopotentials (lmaxx) =  3
     Presently stress not available with electric field

     IMPORTANT: XC functional enforced from input :
     Exchange-correlation      = BEEF-VDW ( 1  4 27 13 2)
     Any further DFT definition will be discarded
     Please, verify this is what you really want

     Subspace diagonalization in iterative solution of the eigenvalue problem:
     a serial algorithm will be used

     bravais-lattice index     =            0
     lattice parameter (alat)  =       1.8897  a.u.
     unit-cell volume          =    4895.8130 (a.u.)^3
     number of atoms/cell      =           12
     number of atomic types    =            2
     number of electrons       =       165.00
     number of Kohn-Sham states=          112
     kinetic-energy cutoff     =      36.7493  Ry
     charge density cutoff     =     367.4932  Ry
     convergence threshold     =      1.0E-06
     mixing beta               =       0.1000
     number of iterations used =           10  plain     mixing
     Exchange-correlation      = BEEF-VDW ( 1  4 27 13 2)
     nstep                     =           50

     celldm(1)=   1.889726  celldm(2)=   0.000000  celldm(3)=   0.000000
     celldm(4)=   0.000000  celldm(5)=   0.000000  celldm(6)=   0.000000

     crystal axes: (cart. coord. in units of alat)
               a(1) = (   5.817806   0.000000   0.000000 )
               a(2) = (  -2.908903   5.038368   0.000000 )
               a(3) = (   0.000000   0.000000  24.750219 )

     reciprocal axes: (cart. coord. in units 2 pi/alat)
               b(1) = (  0.171886  0.099238  0.000000 )
               b(2) = (  0.000000  0.198477  0.000000 )
               b(3) = (  0.000000  0.000000  0.040404 )

     PseudoPot. # 1 for Ti read from file:
     /afs/slac.stanford.edu/u/if/mamunm/psp/gbrv1.5pbe/Ti.UPF
     MD5 check sum: 88a00a6731bd790ddea75d31a80cb452
     Pseudo is Ultrasoft + core correction, Zval = 12.0
     Generated by new atomic code, or converted to UPF format
     Using radial grid of  851 points,  6 beta functions with:
                l(1) =   0
                l(2) =   0
                l(3) =   1
                l(4) =   1
                l(5) =   2
                l(6) =   2
     Q(r) pseudized with  6 coefficients,  rinner =    1.000   1.000   1.000
                                                       1.000   1.000

     PseudoPot. # 2 for Ag read from file:
     /afs/slac.stanford.edu/u/if/mamunm/psp/gbrv1.5pbe/Ag.UPF
     MD5 check sum: d66d668201baa78d5eb5b04ef7011058
     Pseudo is Ultrasoft + core correction, Zval = 19.0
     Generated by new atomic code, or converted to UPF format
     Using radial grid of  887 points,  6 beta functions with:
                l(1) =   0
                l(2) =   0
                l(3) =   1
                l(4) =   1
                l(5) =   2
                l(6) =   2
     Q(r) pseudized with  6 coefficients,  rinner =    1.300   1.300   1.300
                                                       1.300   1.300

     vdW kernel table read from file vdW_kernel_table
     MD5 check sum: 095c7af220d748ca6e76c0b4c6cfb241

     atomic species   valence    mass     pseudopotential
        Ti1           12.00    47.86700     Ti( 1.00)
        Ag1           19.00   107.86820     Ag( 1.00)

     No symmetry found

   Cartesian axes

     site n.     atom                  positions (alat units)
         1           Ti1 tau(   1) = (   0.0000000   0.0000000  10.0000000  )
         2           Ti1 tau(   2) = (  -1.4544516   2.5191841  10.0000000  )
         3           Ti1 tau(   3) = (   1.4544516   2.5191841  10.0000000  )
         4           Ag1 tau(   4) = (   2.9089032   0.0000000  10.0000000  )
         5           Ti1 tau(   5) = (   2.9089032   1.6794561  12.3751095  )
         6           Ti1 tau(   6) = (   1.4544516   4.1986402  12.3751095  )
         7           Ti1 tau(   7) = (  -1.4544516   4.1986402  12.3751095  )
         8           Ag1 tau(   8) = (   0.0000000   1.6794561  12.3751095  )
         9           Ti1 tau(   9) = (  -0.0000000   3.3589121  14.7502191  )
        10           Ti1 tau(  10) = (   1.4544516   0.8397280  14.7502191  )
        11           Ti1 tau(  11) = (   4.3633549   0.8397280  14.7502191  )
        12           Ag1 tau(  12) = (   2.9089032   3.3589121  14.7502191  )

     number of k points=    20  Fermi-Dirac smearing, width (Ry)=  0.0110
                       cart. coord. in units 2pi/alat
        k(    1) = (   0.0000000   0.0000000   0.0000000), wk =   0.0555556
        k(    2) = (   0.0000000   0.0330795   0.0000000), wk =   0.1111111
        k(    3) = (   0.0000000   0.0661590   0.0000000), wk =   0.1111111
        k(    4) = (   0.0000000  -0.0992385   0.0000000), wk =   0.0555556
        k(    5) = (   0.0286477   0.0165397   0.0000000), wk =   0.1111111
        k(    6) = (   0.0286477   0.0496192   0.0000000), wk =   0.1111111
        k(    7) = (   0.0286477   0.0826987   0.0000000), wk =   0.1111111
        k(    8) = (   0.0286477  -0.0826987   0.0000000), wk =   0.1111111
        k(    9) = (   0.0286477  -0.0496192   0.0000000), wk =   0.1111111
        k(   10) = (   0.0286477  -0.0165397   0.0000000), wk =   0.1111111
        k(   11) = (   0.0572954   0.0330795   0.0000000), wk =   0.1111111
        k(   12) = (   0.0572954   0.0661590   0.0000000), wk =   0.1111111
        k(   13) = (   0.0572954   0.0992385   0.0000000), wk =   0.1111111
        k(   14) = (   0.0572954  -0.0661590   0.0000000), wk =   0.1111111
        k(   15) = (   0.0572954  -0.0330795   0.0000000), wk =   0.1111111
        k(   16) = (   0.0572954   0.0000000   0.0000000), wk =   0.1111111
        k(   17) = (  -0.0859430  -0.0496192   0.0000000), wk =   0.0555556
        k(   18) = (  -0.0859430  -0.0165397   0.0000000), wk =   0.1111111
        k(   19) = (  -0.0859430   0.0165397   0.0000000), wk =   0.1111111
        k(   20) = (  -0.0859430  -0.1488577   0.0000000), wk =   0.0555556

     Largest allocated arrays     est. size (Mb)     dimensions
     Largest temporary arrays     est. size (Mb)     dimensions

     Check: negative/imaginary core charge=   -0.000005    0.000000

     Initial potential from superposition of free atoms
     Check: negative starting charge=   -0.010190

     starting charge  154.49946, renormalised to  165.00000

     negative rho (up, down):  1.088E-02 0.000E+00

     *
     * You are using vdW-DF for exchange-correlation in this calculation.
     * Please cite the following three references that made this development
     * possible:
     *
     *   M. Dion, H. Rydberg, E. Schroder, D. C. Langreth, and
     *   B. I. Lundqvist, Phys. Rev. Lett. 92, 246401 (2004).
     *
     *   T. Thonhauser, V. R. Cooper, S. Li, A. Puzder, P. Hyldgaard, and
     *   D. C. Langreth, Phys. Rev. B 76, 125112 (2007).
     *
     *   G. Roman-Perez and J. M. Soler, Phys. Rev. Lett. 103, 096102 (2009).
     *
     *
     * If you are using vdW-DF2, please also cite:
     *
     *   K. Lee, E. D. Murray, L. Kong, B. I. Lundqvist, and
     *   D. C. Langreth, Phys. Rev. B 82, 081101(R) (2010).
     *
     *
     * If you are calculating the stress with vdW-DF, please also cite:
     *
     *   R. Sabatini, E. Kucukbenli, B. Kolb, T. Thonhauser, and
     *   S. de Gironcoli, J. Phys.: Condens. Matter 24, 424209 (2012).
     *

     Carrying out vdW-DF run using the following parameters:

     Nqs =      20    Nr_points =    1024   r_max =   100.000
     q_mesh =
               0.00001000     0.04494208     0.09755937     0.15916263
               0.23128650     0.31572767     0.41458969     0.53033537
               0.66584808     0.82450364     1.01025438     1.22772762
               1.48234092     1.78043706     2.12944203     2.53805004
               3.01644009     3.57652955     4.23227104     5.00000000

     Gradients computed in reciprocal space

     Adding external electric field

     Computed dipole along edir(3) :
        Dipole               -0.0000 Ry au,         -0.0000 Debye
        Dipole field         -0.0000 Ry au

        Potential amp.        0.0000 Ry
        Total length         45.6019 bohr

     Starting wfc are  129 randomized atomic wfcs

     Self-consistent Calculation

     iteration #  1     ecut=    36.75 Ry     beta=0.10
     Davidson diagonalization with overlap
     ethr =  1.00E-02,  avg # of iterations =  7.8

[...]

     total energy              =   -1959.06677246 Ry
     Harris-Foulkes estimate   =   -1988.11088428 Ry
     estimated scf accuracy    <     160.33470711 Ry

[...]

     End of self-consistent calculation

          k = 0.0000 0.0000 0.0000 ( 18487 PWs)   bands (ev):

   -91.5634 -91.4256 -91.4254 -56.0671 -56.0643 -56.0064 -56.0064 -56.0058
   -56.0058 -55.8437 -55.7871 -55.7870 -55.0214 -55.0186 -55.0186 -54.9080
   -54.9080 -54.9077 -54.9077 -54.8538 -54.8529 -32.4604 -32.4205 -32.4069
   -32.3926 -32.3926 -32.3733 -32.3733 -32.3713 -32.3520 -32.3520 -32.3374
   -32.3374 -32.2992 -32.1531 -32.1415 -32.1352 -32.1352 -32.0021 -32.0021
   -31.9674 -31.9628 -31.9628 -31.9551 -31.9551 -31.9275 -31.7929 -31.7929
    -4.8948  -4.2176  -4.2176  -4.1520  -4.1414  -4.1414  -4.0647  -3.9856
    -3.9856  -3.9223  -3.9223  -3.8436  -3.6600  -3.6600  -3.5469  -3.5469
    -3.0128  -2.1608  -1.3034  -0.9202  -0.7253   0.1442   0.2504   0.2504
     0.3152   0.5289   0.5289   0.6814   0.6814   0.8148   0.8148   1.0164
     1.0164   1.0469   1.0654   1.3789   1.5002   1.5002   1.6044   1.6621
     1.6621   1.9923   2.0244   2.0244   2.2609   2.4847   2.4964   2.4964
     2.7991   3.0040   3.0040   3.1553   3.1553   3.2254   3.2254   3.3036
     3.3036   3.4907   3.4908   3.6539   3.6539   3.8226   3.8226   3.9073

[...]

          k =-0.0859-0.0496 0.0000 ( 18380 PWs)   bands (ev):

[...]

     the Fermi energy is     1.1059 ev

!    total energy              =   -1968.73754660 Ry
     Harris-Foulkes estimate   =   -1968.73754688 Ry
     estimated scf accuracy    <       0.00000054 Ry

     The total energy is the sum of the following terms:

     one-electron contribution =  -14158.71186083 Ry
     hartree contribution      =    7065.09551954 Ry
     xc contribution           =    -258.51127055 Ry
     ewald contribution        =    5383.51717433 Ry
     electric field correction =       0.00000000 Ry
     smearing contrib. (-TS)   =      -0.12710908 Ry

     convergence has been achieved in  21 iterations

 BEEF-vdW xc energy contributions
           1 :   -222.832955514729
           2 :    200.185550824923
           3 :   -162.754633897902
           4 :    122.149134427123
           5 :   -88.2606909254734
           6 :    65.5391209597994
           7 :   -52.6851225076942
           8 :    45.1417819827556
           9 :   -38.4075765144537
          10 :    30.2328501573634
          11 :   -20.9048702155016
          12 :    12.0501962556122
          13 :   -5.08606089423571
[...]
     Pseudo is Ultrasoft + core correction, Zval = 12.0
     Generated by new atomic code, or converted to UPF format
     Using radial grid of  851 points,  6 beta functions with:
                l(1) =   0
                l(2) =   0
                l(3) =   1
                l(4) =   1
                l(5) =   2
                l(6) =   2
     Q(r) pseudized with  6 coefficients,  rinner =    1.000   1.000   1.000
                                                       1.000   1.000

     PseudoPot. # 2 for Ag read from file:
     /afs/slac.stanford.edu/u/if/mamunm/psp/gbrv1.5pbe/Ag.UPF
     MD5 check sum: d66d668201baa78d5eb5b04ef7011058
     Pseudo is Ultrasoft + core correction, Zval = 19.0
     Generated by new atomic code, or converted to UPF format
     Using radial grid of  887 points,  6 beta functions with:
                l(1) =   0
                l(2) =   0
                l(3) =   1
                l(4) =   1
                l(5) =   2
                l(6) =   2
     Q(r) pseudized with  6 coefficients,  rinner =    1.300   1.300   1.300
                                                       1.300   1.300

     vdW kernel table read from file vdW_kernel_table
     MD5 check sum: 095c7af220d748ca6e76c0b4c6cfb241

     atomic species   valence    mass     pseudopotential
        Ti1           12.00    47.86700     Ti( 1.00)
        Ag1           19.00   107.86820     Ag( 1.00)

     No symmetry found

   Cartesian axes

     site n.     atom                  positions (alat units)
         1           Ti1 tau(   1) = (   0.0000000   0.0000000  10.0000000  )
         2           Ti1 tau(   2) = (  -1.4544516   2.5191841  10.0000000  )
         3           Ti1 tau(   3) = (   1.4544516   2.5191841  10.0000000  )
         4           Ag1 tau(   4) = (   2.9089032   0.0000000  10.0000000  )
         5           Ti1 tau(   5) = (   2.9089032   1.6794561  12.3751095  )
         6           Ti1 tau(   6) = (   1.4544516   4.1986402  12.3751095  )
         7           Ti1 tau(   7) = (  -1.4544516   4.1986402  12.3751095  )
         8           Ag1 tau(   8) = (   0.0000000   1.6794561  12.3751095  )
         9           Ti1 tau(   9) = (  -0.0000037   3.3673376  14.6785307  )
        10           Ti1 tau(  10) = (   1.4617506   0.8355091  14.6784856  )
        11           Ti1 tau(  11) = (   4.3560390   0.8355020  14.6784589  )
        12           Ag1 tau(  12) = (   2.9089319   3.3589474  14.7838392  )

     number of k points=    20  Fermi-Dirac smearing, width (Ry)=  0.0110
                       cart. coord. in units 2pi/alat
        k(    1) = (   0.0000000   0.0000000   0.0000000), wk =   0.0555556
        k(    2) = (   0.0000000   0.0330795   0.0000000), wk =   0.1111111
        k(    3) = (   0.0000000   0.0661590   0.0000000), wk =   0.1111111
        k(    4) = (   0.0000000  -0.0992385   0.0000000), wk =   0.0555556
        k(    5) = (   0.0286477   0.0165397   0.0000000), wk =   0.1111111
        k(    6) = (   0.0286477   0.0496192   0.0000000), wk =   0.1111111
        k(    7) = (   0.0286477   0.0826987   0.0000000), wk =   0.1111111
        k(    8) = (   0.0286477  -0.0826987   0.0000000), wk =   0.1111111
        k(    9) = (   0.0286477  -0.0496192   0.0000000), wk =   0.1111111
        k(   10) = (   0.0286477  -0.0165397   0.0000000), wk =   0.1111111
        k(   11) = (   0.0572954   0.0330795   0.0000000), wk =   0.1111111
        k(   12) = (   0.0572954   0.0661590   0.0000000), wk =   0.1111111
        k(   13) = (   0.0572954   0.0992385   0.0000000), wk =   0.1111111
        k(   14) = (   0.0572954  -0.0661590   0.0000000), wk =   0.1111111
        k(   15) = (   0.0572954  -0.0330795   0.0000000), wk =   0.1111111
        k(   16) = (   0.0572954   0.0000000   0.0000000), wk =   0.1111111
        k(   17) = (  -0.0859430  -0.0496192   0.0000000), wk =   0.0555556
        k(   18) = (  -0.0859430  -0.0165397   0.0000000), wk =   0.1111111
        k(   19) = (  -0.0859430   0.0165397   0.0000000), wk =   0.1111111
        k(   20) = (  -0.0859430  -0.1488577   0.0000000), wk =   0.0555556

     Largest allocated arrays     est. size (Mb)     dimensions
     Largest temporary arrays     est. size (Mb)     dimensions

     Check: negative/imaginary core charge=   -0.000005    0.000000

     Initial potential from superposition of free atoms
     Check: negative starting charge=   -0.010471

     starting charge  154.49946, renormalised to  165.00000

[...]

     *
     * You are using vdW-DF for exchange-correlation in this calculation.
     * Please cite the following three references that made this development
     * possible:
     *
     *   M. Dion, H. Rydberg, E. Schroder, D. C. Langreth, and
     *   B. I. Lundqvist, Phys. Rev. Lett. 92, 246401 (2004).
     *
     *   T. Thonhauser, V. R. Cooper, S. Li, A. Puzder, P. Hyldgaard, and
     *   D. C. Langreth, Phys. Rev. B 76, 125112 (2007).
     *
     *   G. Roman-Perez and J. M. Soler, Phys. Rev. Lett. 103, 096102 (2009).
     *
     *
     * If you are using vdW-DF2, please also cite:
     *
     *   K. Lee, E. D. Murray, L. Kong, B. I. Lundqvist, and
     *   D. C. Langreth, Phys. Rev. B 82, 081101(R) (2010).
     *
     *
     * If you are calculating the stress with vdW-DF, please also cite:
     *
     *   R. Sabatini, E. Kucukbenli, B. Kolb, T. Thonhauser, and
     *   S. de Gironcoli, J. Phys.: Condens. Matter 24, 424209 (2012).
     *

     Carrying out vdW-DF run using the following parameters:

     Nqs =      20    Nr_points =    1024   r_max =   100.000
     q_mesh =
               0.00001000     0.04494208     0.09755937     0.15916263
               0.23128650     0.31572767     0.41458969     0.53033537
               0.66584808     0.82450364     1.01025438     1.22772762
               1.48234092     1.78043706     2.12944203     2.53805004
               3.01644009     3.57652955     4.23227104     5.00000000

     Gradients computed in reciprocal space

[...]

     Starting wfc are  129 randomized atomic wfcs

     Self-consistent Calculation

[...]

     total energy              =   -1968.74298610 Ry
     Harris-Foulkes estimate   =   -1968.74298546 Ry
     estimated scf accuracy    <       0.00000342 Ry

     iteration # 24     ecut=    36.75 Ry     beta=0.10
     Davidson diagonalization with overlap
     ethr =  2.08E-09,  avg # of iterations =  2.0

[...]

     negative rho (up, down):  6.453E-03 0.000E+00

     Adding external electric field

     Computed dipole along edir(3) :
        Dipole               -0.0092 Ry au,         -0.0234 Debye
        Dipole field         -0.0000 Ry au

        Potential amp.        0.0022 Ry
        Total length         45.6019 bohr

     End of self-consistent calculation

[...]

          k = 0.0573 0.0000 0.0000 ( 18421 PWs)   bands (ev):

[...]

          k =-0.0859-0.1489 0.0000 ( 18380 PWs)   bands (ev):

   -91.6206 -91.4441 -91.3972 -56.0617 -56.0409 -56.0214 -56.0203 -55.9987
   -55.9788 -55.7987 -55.7792 -55.7604 -55.0857 -55.0716 -55.0705 -54.9258
   -54.9251 -54.8849 -54.8841 -54.8721 -54.8178 -32.4308 -32.4199 -32.4029
   -32.3813 -32.3709 -32.3529 -32.3454 -32.3445 -32.2864 -32.2483 -32.2470
   -32.2362 -32.2152 -32.2062 -32.1848 -32.1526 -32.1224 -32.0695 -32.0232
   -32.0216 -32.0210 -31.9903 -31.9551 -31.9347 -31.8935 -31.8702 -31.7787
    -4.1676  -4.1025  -4.0778  -4.0419  -3.9788  -3.9652  -3.9021  -3.8138
    -3.7873  -3.7745  -3.7330  -3.7278  -3.6625  -3.6345  -3.5062  -3.0593
    -3.0222  -1.9260  -1.8495  -1.1198  -0.8090  -0.6655  -0.2661   0.0357
     0.2552   0.4482   0.4626   0.5206   0.6193   0.6299   0.7353   0.7712
     0.8274   0.9218   0.9772   1.1246   1.1986   1.2524   1.3142   1.4194
     1.5228   1.6629   1.8350   1.9003   1.9136   2.0090   2.0479   2.0483
     2.3879   2.7095   2.7756   2.8535   2.9384   2.9446   2.9635   3.0033
     3.0533   3.1192   3.1626   3.1894   3.4837   3.5666   3.7799   3.8211

     the Fermi energy is     1.0932 ev

!    total energy              =   -1968.74298798 Ry
     Harris-Foulkes estimate   =   -1968.74298650 Ry
     estimated scf accuracy    <       0.00000040 Ry

     The total energy is the sum of the following terms:

     one-electron contribution =  -14227.16657819 Ry
     hartree contribution      =    7099.31372773 Ry
     xc contribution           =    -258.58339925 Ry
     ewald contribution        =    5417.82014827 Ry
     electric field correction =       0.00000022 Ry
     smearing contrib. (-TS)   =      -0.12688675 Ry

     convergence has been achieved in  24 iterations

 BEEF-vdW xc energy contributions
           1 :   -222.998748937238
           2 :    200.370525635824
           3 :   -162.955124052737
           4 :    122.337947389949
           5 :   -88.4095167549708
           6 :    65.6431551610220
           7 :   -52.7678209831610
           8 :    45.2373633680036
           9 :   -38.5365396904010
          10 :    30.3881196867954
          11 :   -21.0576549328975
          12 :    12.1711035826588
          13 :   -5.16727499104871
          14 :   0.394475086062528
          15 :    2.77279989541205
          16 :   -5.17471709722247
          17 :    7.17589952616464
          18 :   -8.54626225553142
          19 :    8.86059778382344
          20 :   -7.98113514914351
          21 :    6.21026463366456
          22 :   -4.05807992277801
          23 :    1.88203082238658
          24 :   0.288665053495663
          25 :   -2.63811584350287
          26 :    5.29103043522514
          27 :   -8.12208471644612
          28 :    10.7897920340350
          29 :   -12.9491245063867
          30 :    14.4559337551311
          31 :   -23.1377980447733
          32 :   -16.6248089349166

     Forces acting on atoms (Ry/au):

     negative rho (up, down):  6.453E-03 0.000E+00
     atom    1 type  1   force =     0.00000616   -0.00120197    0.00879780
     atom    2 type  1   force =    -0.00103875    0.00060166    0.00879628
     atom    3 type  1   force =     0.00104234    0.00059648    0.00879655
     atom    4 type  2   force =    -0.00001750    0.00000427   -0.00595227
     atom    5 type  1   force =     0.00000350    0.00250839   -0.00291933
     atom    6 type  1   force =     0.00216925   -0.00125546   -0.00291434
     atom    7 type  1   force =    -0.00216556   -0.00125743   -0.00291706
     atom    8 type  2   force =    -0.00001269    0.00000706   -0.00955764
     atom    9 type  1   force =    -0.00000007    0.00003262   -0.00054677
     atom   10 type  1   force =     0.00003151   -0.00001479   -0.00054018
     atom   11 type  1   force =    -0.00002746   -0.00001127   -0.00053677
     atom   12 type  2   force =     0.00000927   -0.00000957   -0.00050627

     Total force =     0.020218     Total SCF correction =     0.003344
     SCF correction compared to forces is large: reduce conv_thr to get better values

     entering subroutine stress ...

     negative rho (up, down):  6.453E-03 0.000E+00
          total   stress  (Ry/bohr**3)                   (kbar)     P=   -8.67
  -0.00007436   0.00000000   0.00000000        -10.94      0.00      0.00
   0.00000000  -0.00007435  -0.00000000          0.00    -10.94     -0.00
   0.00000000  -0.00000000  -0.00002817          0.00     -0.00     -4.14

 !ASE

     Writing output data file calc.save

     General routines

     Parallel routines

   This run was terminated on:  23:14:43   1Jan2019

   JOB DONE.
Job  /afs/slac/g/suncat/bin/suncat-tsmpirun -x LD_LIBRARY_PATH -wdir /scratch/qe649182_lFgh3 pw.x -in pw.inp

TID   HOST_NAME   COMMAND_LINE            STATUS            TERMINATION_TIME
00000 suncat0141 pw.x -in pw.inp   Done                     01/01/2019 23:14:43
00001 suncat0141 pw.x -in pw.inp   Done                     01/01/2019 23:14:43
00002 suncat0141 pw.x -in pw.inp   Done                     01/01/2019 23:14:43
00003 suncat0141 pw.x -in pw.inp   Done                     01/01/2019 23:14:43
00004 suncat0141 pw.x -in pw.inp   Done                     01/01/2019 23:14:43
00005 suncat0141 pw.x -in pw.inp   Done                     01/01/2019 23:14:43
00006 suncat0141 pw.x -in pw.inp   Done                     01/01/2019 23:14:43
00007 suncat0141 pw.x -in pw.inp   Done                     01/01/2019 23:14:43
00008 suncat0140 pw.x -in pw.inp   Done                     01/01/2019 23:14:43
00009 suncat0140 pw.x -in pw.inp   Done                     01/01/2019 23:14:43
00010 suncat0140 pw.x -in pw.inp   Done                     01/01/2019 23:14:43
00011 suncat0140 pw.x -in pw.inp   Done                     01/01/2019 23:14:43
00012 suncat0140 pw.x -in pw.inp   Done                     01/01/2019 23:14:43
00013 suncat0140 pw.x -in pw.inp   Done                     01/01/2019 23:14:43
00014 suncat0140 pw.x -in pw.inp   Done                     01/01/2019 23:14:43
00015 suncat0140 pw.x -in pw.inp   Done                     01/01/2019 23:14:43
00016 suncat0135 pw.x -in pw.inp   Done                     01/01/2019 23:14:43
00017 suncat0135 pw.x -in pw.inp   Done                     01/01/2019 23:14:43
00018 suncat0135 pw.x -in pw.inp   Done                     01/01/2019 23:14:43
00019 suncat0135 pw.x -in pw.inp   Done                     01/01/2019 23:14:43
00020 suncat0135 pw.x -in pw.inp   Done                     01/01/2019 23:14:43
00021 suncat0135 pw.x -in pw.inp   Done                     01/01/2019 23:14:43
00022 suncat0135 pw.x -in pw.inp   Done                     01/01/2019 23:14:43
00023 suncat0135 pw.x -in pw.inp   Done                     01/01/2019 23:14:43
00024 suncat0134 pw.x -in pw.inp   Done                     01/01/2019 23:14:43
00025 suncat0134 pw.x -in pw.inp   Done                     01/01/2019 23:14:43
00026 suncat0134 pw.x -in pw.inp   Done                     01/01/2019 23:14:43
00027 suncat0134 pw.x -in pw.inp   Done                     01/01/2019 23:14:43
00028 suncat0134 pw.x -in pw.inp   Done                     01/01/2019 23:14:43
00029 suncat0134 pw.x -in pw.inp   Done                     01/01/2019 23:14:43
00030 suncat0134 pw.x -in pw.inp   Done                     01/01/2019 23:14:43
00031 suncat0134 pw.x -in pw.inp   Done                     01/01/2019 23:14:43
00032 suncat0272 pw.x -in pw.inp   Done                     01/01/2019 23:14:43
00033 suncat0272 pw.x -in pw.inp   Done                     01/01/2019 23:14:43
00034 suncat0272 pw.x -in pw.inp   Done                     01/01/2019 23:14:43
00035 suncat0272 pw.x -in pw.inp   Done                     01/01/2019 23:14:43
00036 suncat0272 pw.x -in pw.inp   Done                     01/01/2019 23:14:43
00037 suncat0272 pw.x -in pw.inp   Done                     01/01/2019 23:14:43
00038 suncat0272 pw.x -in pw.inp   Done                     01/01/2019 23:14:43
00039 suncat0272 pw.x -in pw.inp   Done                     01/01/2019 23:14:43
00040 suncat0262 pw.x -in pw.inp   Done                     01/01/2019 23:14:43
00041 suncat0262 pw.x -in pw.inp   Done                     01/01/2019 23:14:43
00042 suncat0262 pw.x -in pw.inp   Done                     01/01/2019 23:14:43
00043 suncat0262 pw.x -in pw.inp   Done                     01/01/2019 23:14:43
00044 suncat0262 pw.x -in pw.inp   Done                     01/01/2019 23:14:43
00045 suncat0262 pw.x -in pw.inp   Done                     01/01/2019 23:14:43
00046 suncat0262 pw.x -in pw.inp   Done                     01/01/2019 23:14:43
00047 suncat0262 pw.x -in pw.inp   Done                     01/01/2019 23:14:43
00048 suncat0258 pw.x -in pw.inp   Done                     01/01/2019 23:14:43
00049 suncat0258 pw.x -in pw.inp   Done                     01/01/2019 23:14:43
00050 suncat0258 pw.x -in pw.inp   Done                     01/01/2019 23:14:43
00051 suncat0258 pw.x -in pw.inp   Done                     01/01/2019 23:14:43
00052 suncat0258 pw.x -in pw.inp   Done                     01/01/2019 23:14:43
00053 suncat0258 pw.x -in pw.inp   Done                     01/01/2019 23:14:43
00054 suncat0258 pw.x -in pw.inp   Done                     01/01/2019 23:14:43
00055 suncat0258 pw.x -in pw.inp   Done                     01/01/2019 23:14:43
00056 suncat0257 pw.x -in pw.inp   Done                     01/01/2019 23:14:43
00057 suncat0257 pw.x -in pw.inp   Done                     01/01/2019 23:14:43
00058 suncat0257 pw.x -in pw.inp   Done                     01/01/2019 23:14:43
00059 suncat0257 pw.x -in pw.inp   Done                     01/01/2019 23:14:43
00060 suncat0257 pw.x -in pw.inp   Done                     01/01/2019 23:14:43
00061 suncat0257 pw.x -in pw.inp   Done                     01/01/2019 23:14:43
00062 suncat0257 pw.x -in pw.inp   Done                     01/01/2019 23:14:43
00063 suncat0257 pw.x -in pw.inp   Done                     01/01/2019 23:14:43