     Program PWSCF v.5.1rc2 (svn rev. 11289) starts on 25Dec2018 at 23:50:30

     Current dimensions of program PWSCF are:
     Max number of different atomic species (ntypx) = 10
     Max number of k-points (npk) =  40000
     Max angular momentum in pseudopotentials (lmaxx) =  3
     Presently stress not available with electric field

     IMPORTANT: XC functional enforced from input :
     Exchange-correlation      = BEEF-VDW ( 1  4 27 13 2)
     Any further DFT definition will be discarded
     Please, verify this is what you really want

     Subspace diagonalization in iterative solution of the eigenvalue problem:
     a serial algorithm will be used

     bravais-lattice index     =            0
     lattice parameter (alat)  =       1.8897  a.u.
     unit-cell volume          =    4551.0183 (a.u.)^3
     number of atoms/cell      =           12
     number of atomic types    =            2
     number of electrons       =       216.00
     number of Kohn-Sham states=          138
     kinetic-energy cutoff     =      36.7493  Ry
     charge density cutoff     =     367.4932  Ry
     convergence threshold     =      1.0E-06
     mixing beta               =       0.1000
     number of iterations used =           10  plain     mixing
     Exchange-correlation      = BEEF-VDW ( 1  4 27 13 2)
     nstep                     =           50

     celldm(1)=   1.889726  celldm(2)=   0.000000  celldm(3)=   0.000000
     celldm(4)=   0.000000  celldm(5)=   0.000000  celldm(6)=   0.000000

     crystal axes: (cart. coord. in units of alat)
               a(1) = (   5.626946   0.000000   0.000000 )
               a(2) = (  -2.813473   4.873078   0.000000 )
               a(3) = (   0.000000   0.000000  24.594382 )

     reciprocal axes: (cart. coord. in units 2 pi/alat)
               b(1) = (  0.177716  0.102605  0.000000 )
               b(2) = (  0.000000  0.205209  0.000000 )
               b(3) = (  0.000000  0.000000  0.040660 )

     PseudoPot. # 1 for Ga read from file:
     /afs/slac.stanford.edu/u/if/mamunm/psp/gbrv1.5pbe/Ga.UPF
     MD5 check sum: ccd671392a58a050fbb373893b4fcd66
     Pseudo is Ultrasoft + core correction, Zval = 19.0
     Generated by new atomic code, or converted to UPF format
     Using radial grid of  871 points,  6 beta functions with:
                l(1) =   0
                l(2) =   0
                l(3) =   1
                l(4) =   1
                l(5) =   2
                l(6) =   2
     Q(r) pseudized with  8 coefficients,  rinner =    1.250   1.250   1.250
                                                       1.250   1.250

     PseudoPot. # 2 for Ir read from file:
     /afs/slac.stanford.edu/u/if/mamunm/psp/gbrv1.5pbe/Ir.UPF
     MD5 check sum: 8836f839c3459d2b385c504ce6d91f2c
     Pseudo is Ultrasoft + core correction, Zval = 15.0
     Generated by new atomic code, or converted to UPF format
     Using radial grid of  983 points,  7 beta functions with:
                l(1) =   0
                l(2) =   0
                l(3) =   1
                l(4) =   1
                l(5) =   1
                l(6) =   2
                l(7) =   2
     Q(r) pseudized with  8 coefficients,  rinner =    1.400   1.400   1.400
                                                       1.400   1.400

     vdW kernel table read from file vdW_kernel_table
     MD5 check sum: 095c7af220d748ca6e76c0b4c6cfb241

     atomic species   valence    mass     pseudopotential
        Ga1           19.00    69.72300     Ga( 1.00)
        Ir1           15.00   192.21700     Ir( 1.00)

     No symmetry found

   Cartesian axes

     site n.     atom                  positions (alat units)
         1           Ga1 tau(   1) = (   0.0000000   0.0000000  10.0000000  )
         2           Ga1 tau(   2) = (  -1.4067364   2.4365389  10.0000000  )
         3           Ga1 tau(   3) = (   1.4067364   2.4365389  10.0000000  )
         4           Ir1 tau(   4) = (   2.8134728   0.0000000  10.0000000  )
         5           Ga1 tau(   5) = (   2.8134728   1.6243593  12.2971909  )
         6           Ga1 tau(   6) = (   1.4067364   4.0608982  12.2971909  )
         7           Ga1 tau(   7) = (  -1.4067364   4.0608982  12.2971909  )
         8           Ir1 tau(   8) = (   0.0000000   1.6243593  12.2971909  )
         9           Ga1 tau(   9) = (  -0.0000000   3.2487186  14.5943819  )
        10           Ga1 tau(  10) = (   1.4067364   0.8121796  14.5943819  )
        11           Ga1 tau(  11) = (   4.2202092   0.8121796  14.5943819  )
        12           Ir1 tau(  12) = (   2.8134728   3.2487186  14.5943819  )

     number of k points=    20  Fermi-Dirac smearing, width (Ry)=  0.0110
                       cart. coord. in units 2pi/alat
        k(    1) = (   0.0000000   0.0000000   0.0000000), wk =   0.0555556
        k(    2) = (   0.0000000   0.0342015   0.0000000), wk =   0.1111111
        k(    3) = (   0.0000000   0.0684030   0.0000000), wk =   0.1111111
        k(    4) = (   0.0000000  -0.1026046   0.0000000), wk =   0.0555556
        k(    5) = (   0.0296194   0.0171008   0.0000000), wk =   0.1111111
        k(    6) = (   0.0296194   0.0513023   0.0000000), wk =   0.1111111
        k(    7) = (   0.0296194   0.0855038   0.0000000), wk =   0.1111111
        k(    8) = (   0.0296194  -0.0855038   0.0000000), wk =   0.1111111
        k(    9) = (   0.0296194  -0.0513023   0.0000000), wk =   0.1111111
        k(   10) = (   0.0296194  -0.0171008   0.0000000), wk =   0.1111111
        k(   11) = (   0.0592388   0.0342015   0.0000000), wk =   0.1111111
        k(   12) = (   0.0592388   0.0684030   0.0000000), wk =   0.1111111
        k(   13) = (   0.0592388   0.1026046   0.0000000), wk =   0.1111111
        k(   14) = (   0.0592388  -0.0684030   0.0000000), wk =   0.1111111
        k(   15) = (   0.0592388  -0.0342015   0.0000000), wk =   0.1111111
        k(   16) = (   0.0592388   0.0000000   0.0000000), wk =   0.1111111
        k(   17) = (  -0.0888582  -0.0513023   0.0000000), wk =   0.0555556
        k(   18) = (  -0.0888582  -0.0171008   0.0000000), wk =   0.1111111
        k(   19) = (  -0.0888582   0.0171008   0.0000000), wk =   0.1111111
        k(   20) = (  -0.0888582  -0.1539068   0.0000000), wk =   0.0555556

     Largest allocated arrays     est. size (Mb)     dimensions
     Largest temporary arrays     est. size (Mb)     dimensions

     Initial potential from superposition of free atoms
     Check: negative starting charge=   -1.102677

     starting charge  205.49990, renormalised to  216.00000

     negative rho (up, down):  1.159E+00 0.000E+00

     *
     * You are using vdW-DF for exchange-correlation in this calculation.
     * Please cite the following three references that made this development
     * possible:
     *
     *   M. Dion, H. Rydberg, E. Schroder, D. C. Langreth, and
     *   B. I. Lundqvist, Phys. Rev. Lett. 92, 246401 (2004).
     *
     *   T. Thonhauser, V. R. Cooper, S. Li, A. Puzder, P. Hyldgaard, and
     *   D. C. Langreth, Phys. Rev. B 76, 125112 (2007).
     *
     *   G. Roman-Perez and J. M. Soler, Phys. Rev. Lett. 103, 096102 (2009).
     *
     *
     * If you are using vdW-DF2, please also cite:
     *
     *   K. Lee, E. D. Murray, L. Kong, B. I. Lundqvist, and
     *   D. C. Langreth, Phys. Rev. B 82, 081101(R) (2010).
     *
     *
     * If you are calculating the stress with vdW-DF, please also cite:
     *
     *   R. Sabatini, E. Kucukbenli, B. Kolb, T. Thonhauser, and
     *   S. de Gironcoli, J. Phys.: Condens. Matter 24, 424209 (2012).
     *

     Carrying out vdW-DF run using the following parameters:

     Nqs =      20    Nr_points =    1024   r_max =   100.000
     q_mesh =
               0.00001000     0.04494208     0.09755937     0.15916263
               0.23128650     0.31572767     0.41458969     0.53033537
               0.66584808     0.82450364     1.01025438     1.22772762
               1.48234092     1.78043706     2.12944203     2.53805004
               3.01644009     3.57652955     4.23227104     5.00000000

     Gradients computed in reciprocal space

     Adding external electric field

     Computed dipole along edir(3) :
        Dipole                0.0000 Ry au,          0.0000 Debye
        Dipole field          0.0000 Ry au

        Potential amp.       -0.0000 Ry
        Total length         45.3147 bohr

     Starting wfc are  144 randomized atomic wfcs

     Self-consistent Calculation

     iteration #  1     ecut=    36.75 Ry     beta=0.10
     Davidson diagonalization with overlap
     ethr =  1.00E-02,  avg # of iterations =  7.3

[...]

     total energy              =   -4294.99602526 Ry
     Harris-Foulkes estimate   =   -4314.89876846 Ry
     estimated scf accuracy    <     111.17807979 Ry

[...]

     End of self-consistent calculation

          k = 0.0000 0.0000 0.0000 ( 17111 PWs)   bands (ev):

   -94.1443 -94.1409 -94.1409 -94.0940 -94.0923 -94.0923 -94.0882 -94.0882
   -94.0865 -93.9507 -93.9503 -93.9488 -93.9488 -93.9484 -93.9484 -93.9290
   -93.9286 -93.9256 -93.9256 -93.9252 -93.9252 -93.8852 -93.8852 -93.8849
   -93.8849 -93.8834 -93.8830 -47.8777 -47.8777 -47.7607 -47.6680 -47.6680
   -47.6679 -47.6679 -47.3809 -47.3807 -14.7290 -14.6734 -14.6734 -14.6711
   -14.5660 -14.5504 -14.5504 -14.5146 -14.5107 -14.5056 -14.5056 -14.4519
   -14.4270 -14.4270 -14.4128 -14.4128 -14.3979 -14.3868 -14.3868 -14.3727
   -14.3727 -14.3433 -14.3232 -14.3002 -14.3002 -14.2937 -14.2272 -14.2227
   -14.2227 -14.2032 -14.2032 -14.1902 -14.1902 -14.1887 -14.1845 -14.1845
   -14.1678 -14.1678 -14.1523 -14.1523 -14.1302 -14.1115 -14.1115 -14.0187
   -14.0179 -10.3465  -8.4904  -6.2236  -5.1348  -5.1348  -4.2524  -4.2524
    -3.5591  -3.5402  -3.5402  -3.0204  -2.1567  -2.1567  -2.1488  -1.3436
    -1.3436  -1.2961  -0.6529  -0.5862  -0.5862  -0.4218  -0.4218  -0.3972
    -0.2402  -0.2402   0.1294   0.1294   0.2628   1.1183   1.5403   1.5403
     1.7141   1.7141   2.3862   2.3862   2.6404   2.9322   3.7284   4.7476
     5.1290   5.6328   5.6328   5.6735   5.8503   5.8503   6.1046   6.4360
     6.7846   7.0539   7.8570   8.0671   8.2573   8.2573   8.9207   9.1308
     9.6045   9.6045

[...]

          k =-0.0889-0.0513 0.0000 ( 17160 PWs)   bands (ev):

[...]

     the Fermi energy is     0.8798 ev

!    total energy              =   -4299.28699697 Ry
     Harris-Foulkes estimate   =   -4299.28699852 Ry
     estimated scf accuracy    <       0.00000096 Ry

     The total energy is the sum of the following terms:

     one-electron contribution =  -27730.81058591 Ry
     hartree contribution      =   13878.52622320 Ry
     xc contribution           =    -603.99358000 Ry
     ewald contribution        =   10157.02330189 Ry
     electric field correction =       0.00000000 Ry
     smearing contrib. (-TS)   =      -0.03235615 Ry

     convergence has been achieved in  17 iterations

 BEEF-vdW xc energy contributions
           1 :   -538.247203445877
           2 :    492.131425550803
           3 :   -413.638758917401
           4 :    323.858492101820
           5 :   -242.244074113675
           6 :    179.701009442909
           7 :   -136.803832056074
[...]
     Using radial grid of  871 points,  6 beta functions with:
                l(1) =   0
                l(2) =   0
                l(3) =   1
                l(4) =   1
                l(5) =   2
                l(6) =   2
     Q(r) pseudized with  8 coefficients,  rinner =    1.250   1.250   1.250
                                                       1.250   1.250

     PseudoPot. # 2 for Ir read from file:
     /afs/slac.stanford.edu/u/if/mamunm/psp/gbrv1.5pbe/Ir.UPF
     MD5 check sum: 8836f839c3459d2b385c504ce6d91f2c
     Pseudo is Ultrasoft + core correction, Zval = 15.0
     Generated by new atomic code, or converted to UPF format
     Using radial grid of  983 points,  7 beta functions with:
                l(1) =   0
                l(2) =   0
                l(3) =   1
                l(4) =   1
                l(5) =   1
                l(6) =   2
                l(7) =   2
     Q(r) pseudized with  8 coefficients,  rinner =    1.400   1.400   1.400
                                                       1.400   1.400

     vdW kernel table read from file vdW_kernel_table
     MD5 check sum: 095c7af220d748ca6e76c0b4c6cfb241

     atomic species   valence    mass     pseudopotential
        Ga1           19.00    69.72300     Ga( 1.00)
        Ir1           15.00   192.21700     Ir( 1.00)

     No symmetry found

   Cartesian axes

     site n.     atom                  positions (alat units)
         1           Ga1 tau(   1) = (   0.0000000   0.0000000  10.0000000  )
         2           Ga1 tau(   2) = (  -1.4067364   2.4365389  10.0000000  )
         3           Ga1 tau(   3) = (   1.4067364   2.4365389  10.0000000  )
         4           Ir1 tau(   4) = (   2.8134728   0.0000000  10.0000000  )
         5           Ga1 tau(   5) = (   2.8134728   1.6243593  12.2971909  )
         6           Ga1 tau(   6) = (   1.4067364   4.0608982  12.2971909  )
         7           Ga1 tau(   7) = (  -1.4067364   4.0608982  12.2971909  )
         8           Ir1 tau(   8) = (   0.0000000   1.6243593  12.2971909  )
         9           Ga1 tau(   9) = (  -0.0000036   3.2081839  14.7546216  )
        10           Ga1 tau(  10) = (   1.3716283   0.8324446  14.7546292  )
        11           Ga1 tau(  11) = (   4.2553047   0.8324469  14.7546428  )
        12           Ir1 tau(  12) = (   2.8134699   3.2487133  14.4178196  )

     number of k points=    20  Fermi-Dirac smearing, width (Ry)=  0.0110
                       cart. coord. in units 2pi/alat
        k(    1) = (   0.0000000   0.0000000   0.0000000), wk =   0.0555556
        k(    2) = (   0.0000000   0.0342015   0.0000000), wk =   0.1111111
        k(    3) = (   0.0000000   0.0684030   0.0000000), wk =   0.1111111
        k(    4) = (   0.0000000  -0.1026046   0.0000000), wk =   0.0555556
        k(    5) = (   0.0296194   0.0171008   0.0000000), wk =   0.1111111
        k(    6) = (   0.0296194   0.0513023   0.0000000), wk =   0.1111111
        k(    7) = (   0.0296194   0.0855038   0.0000000), wk =   0.1111111
        k(    8) = (   0.0296194  -0.0855038   0.0000000), wk =   0.1111111
        k(    9) = (   0.0296194  -0.0513023   0.0000000), wk =   0.1111111
        k(   10) = (   0.0296194  -0.0171008   0.0000000), wk =   0.1111111
        k(   11) = (   0.0592388   0.0342015   0.0000000), wk =   0.1111111
        k(   12) = (   0.0592388   0.0684030   0.0000000), wk =   0.1111111
        k(   13) = (   0.0592388   0.1026046   0.0000000), wk =   0.1111111
        k(   14) = (   0.0592388  -0.0684030   0.0000000), wk =   0.1111111
        k(   15) = (   0.0592388  -0.0342015   0.0000000), wk =   0.1111111
        k(   16) = (   0.0592388   0.0000000   0.0000000), wk =   0.1111111
        k(   17) = (  -0.0888582  -0.0513023   0.0000000), wk =   0.0555556
        k(   18) = (  -0.0888582  -0.0171008   0.0000000), wk =   0.1111111
        k(   19) = (  -0.0888582   0.0171008   0.0000000), wk =   0.1111111
        k(   20) = (  -0.0888582  -0.1539068   0.0000000), wk =   0.0555556

     Largest allocated arrays     est. size (Mb)     dimensions
     Largest temporary arrays     est. size (Mb)     dimensions

     Initial potential from superposition of free atoms
     Check: negative starting charge=   -1.101714

     starting charge  205.49990, renormalised to  216.00000

[...]

     *
     * You are using vdW-DF for exchange-correlation in this calculation.
     * Please cite the following three references that made this development
     * possible:
     *
     *   M. Dion, H. Rydberg, E. Schroder, D. C. Langreth, and
     *   B. I. Lundqvist, Phys. Rev. Lett. 92, 246401 (2004).
     *
     *   T. Thonhauser, V. R. Cooper, S. Li, A. Puzder, P. Hyldgaard, and
     *   D. C. Langreth, Phys. Rev. B 76, 125112 (2007).
     *
     *   G. Roman-Perez and J. M. Soler, Phys. Rev. Lett. 103, 096102 (2009).
     *
     *
     * If you are using vdW-DF2, please also cite:
     *
     *   K. Lee, E. D. Murray, L. Kong, B. I. Lundqvist, and
     *   D. C. Langreth, Phys. Rev. B 82, 081101(R) (2010).
     *
     *
     * If you are calculating the stress with vdW-DF, please also cite:
     *
     *   R. Sabatini, E. Kucukbenli, B. Kolb, T. Thonhauser, and
     *   S. de Gironcoli, J. Phys.: Condens. Matter 24, 424209 (2012).
     *

     Carrying out vdW-DF run using the following parameters:

     Nqs =      20    Nr_points =    1024   r_max =   100.000
     q_mesh =
               0.00001000     0.04494208     0.09755937     0.15916263
               0.23128650     0.31572767     0.41458969     0.53033537
               0.66584808     0.82450364     1.01025438     1.22772762
               1.48234092     1.78043706     2.12944203     2.53805004
               3.01644009     3.57652955     4.23227104     5.00000000

     Gradients computed in reciprocal space

[...]

     Starting wfc are  144 randomized atomic wfcs

     Self-consistent Calculation

[...]

     total energy              =   -4299.32329388 Ry
     Harris-Foulkes estimate   =   -4299.32329166 Ry
     estimated scf accuracy    <       0.00000205 Ry

     iteration # 17     ecut=    36.75 Ry     beta=0.10
     Davidson diagonalization with overlap
     ethr =  9.49E-10,  avg # of iterations =  3.9

[...]

     negative rho (up, down):  1.006E+00 0.000E+00

     Adding external electric field

     Computed dipole along edir(3) :
        Dipole                0.0903 Ry au,          0.2295 Debye
        Dipole field          0.0002 Ry au

        Potential amp.       -0.0226 Ry
        Total length         45.3147 bohr

     End of self-consistent calculation

[...]

          k = 0.0592 0.0000 0.0000 ( 17106 PWs)   bands (ev):

[...]

          k =-0.0889-0.1539 0.0000 ( 17160 PWs)   bands (ev):

   -94.0186 -94.0174 -94.0162 -93.9613 -93.9606 -93.9599 -93.9587 -93.9581
   -93.9574 -93.8583 -93.8579 -93.8576 -93.8571 -93.8563 -93.8557 -93.8389
   -93.8365 -93.8362 -93.8354 -93.8351 -93.8343 -93.7985 -93.7980 -93.7969
   -93.7957 -93.7951 -93.7943 -47.6898 -47.6897 -47.6609 -47.6607 -47.6006
   -47.6004 -47.5575 -47.4602 -47.3062 -14.5390 -14.4744 -14.4504 -14.4280
   -14.4052 -14.3878 -14.3850 -14.3815 -14.3705 -14.3651 -14.3561 -14.3248
   -14.3212 -14.3154 -14.2810 -14.2551 -14.2518 -14.2481 -14.2335 -14.2262
   -14.2141 -14.1984 -14.1896 -14.1857 -14.1815 -14.1692 -14.1630 -14.1621
   -14.1552 -14.1541 -14.1518 -14.1445 -14.1439 -14.1404 -14.1401 -14.1314
   -14.1298 -14.1189 -14.0884 -14.0774 -14.0757 -14.0742 -14.0687 -14.0039
   -13.9986  -8.6230  -8.3064  -6.7976  -6.7140  -5.6728  -5.2652  -4.6419
    -3.9516  -3.8152  -3.1393  -2.3560  -2.3272  -2.2213  -1.8069  -1.7789
    -1.6838  -1.6327  -1.0987  -1.0817  -0.6502  -0.2658  -0.1591  -0.1082
     0.2030   0.3769   0.8632   1.0366   1.2447   1.7643   2.3671   3.0029
     3.1531   3.3422   3.7735   3.9268   3.9926   4.3990   4.4349   4.7155
     4.8380   5.3361   5.8864   5.9894   6.0410   6.2169   6.3810   6.5754
     6.6901   6.9658   7.1108   7.2442   7.3828   7.6457   7.6942   7.8704
     8.0301   8.3617

     the Fermi energy is     0.9863 ev

!    total energy              =   -4299.32329631 Ry
     Harris-Foulkes estimate   =   -4299.32329393 Ry
     estimated scf accuracy    <       0.00000058 Ry

     The total energy is the sum of the following terms:

     one-electron contribution =  -27401.95427306 Ry
     hartree contribution      =   13714.82712003 Ry
     xc contribution           =    -603.96760334 Ry
     ewald contribution        =    9991.80493166 Ry
     electric field correction =       0.00002251 Ry
     smearing contrib. (-TS)   =      -0.03349410 Ry

     convergence has been achieved in  17 iterations

 BEEF-vdW xc energy contributions
           1 :   -538.870110771553
           2 :    492.722332417114
           3 :   -414.180493834649
           4 :    324.355691558688
           5 :   -242.718029086172
           6 :    180.175471770430
           7 :   -137.291786332031
           8 :    107.638425061508
           9 :   -83.5618550021026
          10 :    60.7595467001623
          11 :   -39.4087116351807
          12 :    22.0769908546778
          13 :   -10.5930566487234
          14 :    4.26467021931444
          15 :  -0.440714161395022
          16 :   -3.43584945109080
          17 :    8.08213362903643
          18 :   -12.2513467168542
          19 :    14.1529482598985
          20 :   -13.1751141343774
          21 :    10.5439939938233
          22 :   -8.47269221206443
          23 :    8.53177700591914
          24 :   -10.5297587751210
          25 :    12.7382157425387
          26 :   -13.2431592570135
          27 :    11.3688365337094
          28 :   -8.12311799029180
          29 :    5.39311550709374
          30 :   -4.55845005535696
          31 :   -41.2990432971807
          32 :   -28.9765916501052

     Forces acting on atoms (Ry/au):

     negative rho (up, down):  1.006E+00 0.000E+00
     atom    1 type  1   force =     0.00000156    0.01308049   -0.01620202
     atom    2 type  1   force =     0.01133130   -0.00653996   -0.01619960
     atom    3 type  1   force =    -0.01132792   -0.00653934   -0.01619738
     atom    4 type  2   force =    -0.00000014   -0.00000065    0.02918011
     atom    5 type  1   force =    -0.00000111   -0.01143442    0.00644770
     atom    6 type  1   force =    -0.00990429    0.00571851    0.00644960
     atom    7 type  1   force =     0.00990235    0.00571722    0.00644660
     atom    8 type  2   force =    -0.00000008   -0.00000097   -0.00340770
     atom    9 type  1   force =    -0.00000012    0.00071095    0.00071376
     atom   10 type  1   force =     0.00061414   -0.00035529    0.00071364
     atom   11 type  1   force =    -0.00061550   -0.00035601    0.00071574
     atom   12 type  2   force =    -0.00000019   -0.00000054    0.00133954

     Total force =     0.051823     Total SCF correction =     0.004592

     entering subroutine stress ...

     negative rho (up, down):  1.006E+00 0.000E+00
          total   stress  (Ry/bohr**3)                   (kbar)     P=  -24.53
  -0.00025051   0.00000000   0.00000000        -36.85      0.00      0.00
   0.00000000  -0.00025051  -0.00000000          0.00    -36.85     -0.00
   0.00000000  -0.00000000   0.00000069          0.00     -0.00      0.10

 !ASE

     Writing output data file calc.save

     General routines

     Parallel routines

   This run was terminated on:   7: 0:31  26Dec2018

   JOB DONE.
Job  /afs/slac/g/suncat/bin/suncat-tsmpirun -x LD_LIBRARY_PATH -wdir /scratch/qe109679_kHIS0 pw.x -in pw.inp

TID   HOST_NAME   COMMAND_LINE            STATUS            TERMINATION_TIME
00000 suncat0183 pw.x -in pw.inp   Done                     12/26/2018 07:00:31
00001 suncat0183 pw.x -in pw.inp   Done                     12/26/2018 07:00:31
00002 suncat0183 pw.x -in pw.inp   Done                     12/26/2018 07:00:31
00003 suncat0183 pw.x -in pw.inp   Done                     12/26/2018 07:00:31
00004 suncat0183 pw.x -in pw.inp   Done                     12/26/2018 07:00:31
00005 suncat0183 pw.x -in pw.inp   Done                     12/26/2018 07:00:31
00006 suncat0183 pw.x -in pw.inp   Done                     12/26/2018 07:00:31
00007 suncat0183 pw.x -in pw.inp   Done                     12/26/2018 07:00:31
00008 suncat0182 pw.x -in pw.inp   Done                     12/26/2018 07:00:31
00009 suncat0182 pw.x -in pw.inp   Done                     12/26/2018 07:00:31
00010 suncat0182 pw.x -in pw.inp   Done                     12/26/2018 07:00:31
00011 suncat0182 pw.x -in pw.inp   Done                     12/26/2018 07:00:31
00012 suncat0182 pw.x -in pw.inp   Done                     12/26/2018 07:00:31
00013 suncat0182 pw.x -in pw.inp   Done                     12/26/2018 07:00:31
00014 suncat0182 pw.x -in pw.inp   Done                     12/26/2018 07:00:31
00015 suncat0182 pw.x -in pw.inp   Done                     12/26/2018 07:00:31
00016 suncat0181 pw.x -in pw.inp   Done                     12/26/2018 07:00:31
00017 suncat0181 pw.x -in pw.inp   Done                     12/26/2018 07:00:31
00018 suncat0181 pw.x -in pw.inp   Done                     12/26/2018 07:00:31
00019 suncat0181 pw.x -in pw.inp   Done                     12/26/2018 07:00:31
00020 suncat0181 pw.x -in pw.inp   Done                     12/26/2018 07:00:31
00021 suncat0181 pw.x -in pw.inp   Done                     12/26/2018 07:00:31
00022 suncat0181 pw.x -in pw.inp   Done                     12/26/2018 07:00:31
00023 suncat0181 pw.x -in pw.inp   Done                     12/26/2018 07:00:31
00024 suncat0252 pw.x -in pw.inp   Done                     12/26/2018 07:00:31
00025 suncat0252 pw.x -in pw.inp   Done                     12/26/2018 07:00:31
00026 suncat0252 pw.x -in pw.inp   Done                     12/26/2018 07:00:31
00027 suncat0252 pw.x -in pw.inp   Done                     12/26/2018 07:00:31
00028 suncat0252 pw.x -in pw.inp   Done                     12/26/2018 07:00:31
00029 suncat0252 pw.x -in pw.inp   Done                     12/26/2018 07:00:31
00030 suncat0252 pw.x -in pw.inp   Done                     12/26/2018 07:00:31
00031 suncat0252 pw.x -in pw.inp   Done                     12/26/2018 07:00:31
00032 suncat0226 pw.x -in pw.inp   Done                     12/26/2018 07:00:31
00033 suncat0226 pw.x -in pw.inp   Done                     12/26/2018 07:00:31
00034 suncat0226 pw.x -in pw.inp   Done                     12/26/2018 07:00:31
00035 suncat0226 pw.x -in pw.inp   Done                     12/26/2018 07:00:31
00036 suncat0226 pw.x -in pw.inp   Done                     12/26/2018 07:00:31
00037 suncat0226 pw.x -in pw.inp   Done                     12/26/2018 07:00:31
00038 suncat0226 pw.x -in pw.inp   Done                     12/26/2018 07:00:31
00039 suncat0226 pw.x -in pw.inp   Done                     12/26/2018 07:00:31
00040 suncat0225 pw.x -in pw.inp   Done                     12/26/2018 07:00:31
00041 suncat0225 pw.x -in pw.inp   Done                     12/26/2018 07:00:31
00042 suncat0225 pw.x -in pw.inp   Done                     12/26/2018 07:00:31
00043 suncat0225 pw.x -in pw.inp   Done                     12/26/2018 07:00:31
00044 suncat0225 pw.x -in pw.inp   Done                     12/26/2018 07:00:31
00045 suncat0225 pw.x -in pw.inp   Done                     12/26/2018 07:00:31
00046 suncat0225 pw.x -in pw.inp   Done                     12/26/2018 07:00:31
00047 suncat0225 pw.x -in pw.inp   Done                     12/26/2018 07:00:31
00048 suncat0224 pw.x -in pw.inp   Done                     12/26/2018 07:00:31
00049 suncat0224 pw.x -in pw.inp   Done                     12/26/2018 07:00:31
00050 suncat0224 pw.x -in pw.inp   Done                     12/26/2018 07:00:31
00051 suncat0224 pw.x -in pw.inp   Done                     12/26/2018 07:00:31
00052 suncat0224 pw.x -in pw.inp   Done                     12/26/2018 07:00:31
00053 suncat0224 pw.x -in pw.inp   Done                     12/26/2018 07:00:31
00054 suncat0224 pw.x -in pw.inp   Done                     12/26/2018 07:00:31
00055 suncat0224 pw.x -in pw.inp   Done                     12/26/2018 07:00:31
00056 suncat0223 pw.x -in pw.inp   Done                     12/26/2018 07:00:31
00057 suncat0223 pw.x -in pw.inp   Done                     12/26/2018 07:00:31
00058 suncat0223 pw.x -in pw.inp   Done                     12/26/2018 07:00:31
00059 suncat0223 pw.x -in pw.inp   Done                     12/26/2018 07:00:31
00060 suncat0223 pw.x -in pw.inp   Done                     12/26/2018 07:00:31
00061 suncat0223 pw.x -in pw.inp   Done                     12/26/2018 07:00:31
00062 suncat0223 pw.x -in pw.inp   Done                     12/26/2018 07:00:31
00063 suncat0223 pw.x -in pw.inp   Done                     12/26/2018 07:00:31