     Program PWSCF v.5.1rc2 (svn rev. 11289) starts on 30Dec2018 at  7:53:43

     Current dimensions of program PWSCF are:
     Max number of different atomic species (ntypx) = 10
     Max number of k-points (npk) =  40000
     Max angular momentum in pseudopotentials (lmaxx) =  3
     Presently stress not available with electric field

     IMPORTANT: XC functional enforced from input :
     Exchange-correlation      = BEEF-VDW ( 1  4 27 13 2)
     Any further DFT definition will be discarded
     Please, verify this is what you really want

     Subspace diagonalization in iterative solution of the eigenvalue problem:
     a serial algorithm will be used

     bravais-lattice index     =            0
     lattice parameter (alat)  =       1.8897  a.u.
     unit-cell volume          =    6214.9079 (a.u.)^3
     number of atoms/cell      =           12
     number of atomic types    =            2
     number of electrons       =       141.00
     number of Kohn-Sham states=          100
     kinetic-energy cutoff     =      36.7493  Ry
     charge density cutoff     =     367.4932  Ry
     convergence threshold     =      1.0E-06
     mixing beta               =       0.1000
     number of iterations used =           10  plain     mixing
     Exchange-correlation      = BEEF-VDW ( 1  4 27 13 2)
     nstep                     =           50

     celldm(1)=   1.889726  celldm(2)=   0.000000  celldm(3)=   0.000000
     celldm(4)=   0.000000  celldm(5)=   0.000000  celldm(6)=   0.000000

     crystal axes: (cart. coord. in units of alat)
               a(1) = (   6.484008   0.000000   0.000000 )
               a(2) = (  -3.242004   5.615315   0.000000 )
               a(3) = (   0.000000   0.000000  25.294170 )

     reciprocal axes: (cart. coord. in units 2 pi/alat)
               b(1) = (  0.154226  0.089042  0.000000 )
               b(2) = (  0.000000  0.178084  0.000000 )
               b(3) = (  0.000000  0.000000  0.039535 )

     PseudoPot. # 1 for Hg read from file:
     /afs/slac.stanford.edu/u/if/mamunm/psp/gbrv1.5pbe/Hg.UPF
     MD5 check sum: 8f42caffe07f7fd9c0a564347f8c5498
     Pseudo is Ultrasoft + core correction, Zval = 12.0
     Generated by new atomic code, or converted to UPF format
     Using radial grid of  985 points,  6 beta functions with:
                l(1) =   0
                l(2) =   0
                l(3) =   1
                l(4) =   1
                l(5) =   2
                l(6) =   2
     Q(r) pseudized with  8 coefficients,  rinner =    2.000   2.000   2.000
                                                       2.000   2.000

     PseudoPot. # 2 for Au read from file:
     /afs/slac.stanford.edu/u/if/mamunm/psp/gbrv1.5pbe/Au.UPF
     MD5 check sum: 9d7f43293ad2c663164586bc4b293ffc
     Pseudo is Ultrasoft + core correction, Zval = 11.0
     Generated by new atomic code, or converted to UPF format
     Using radial grid of  985 points,  7 beta functions with:
                l(1) =   0
                l(2) =   0
                l(3) =   1
                l(4) =   1
                l(5) =   2
                l(6) =   2
                l(7) =   3
     Q(r) pseudized with  6 coefficients,  rinner =    1.900   1.900   1.900
                                                       1.900   1.900   1.900
                                                       1.900

     vdW kernel table read from file vdW_kernel_table
     MD5 check sum: 095c7af220d748ca6e76c0b4c6cfb241

     atomic species   valence    mass     pseudopotential
        Hg1           12.00   200.59200     Hg( 1.00)
        Au1           11.00   196.96657     Au( 1.00)

     No symmetry found

   Cartesian axes

     site n.     atom                  positions (alat units)
         1           Hg1 tau(   1) = (   0.0000000   0.0000000  10.0000000  )
         2           Hg1 tau(   2) = (  -1.6210019   2.8076576  10.0000000  )
         3           Hg1 tau(   3) = (   1.6210019   2.8076576  10.0000000  )
         4           Au1 tau(   4) = (   3.2420038   0.0000000  10.0000000  )
         5           Hg1 tau(   5) = (   3.2420038   1.8717718  12.6470850  )
         6           Hg1 tau(   6) = (   1.6210019   4.6794294  12.6470850  )
         7           Hg1 tau(   7) = (  -1.6210019   4.6794294  12.6470850  )
         8           Au1 tau(   8) = (   0.0000000   1.8717718  12.6470850  )
         9           Hg1 tau(   9) = (  -0.0000000   3.7435435  15.2941700  )
        10           Hg1 tau(  10) = (   1.6210019   0.9358859  15.2941700  )
        11           Hg1 tau(  11) = (   4.8630057   0.9358859  15.2941700  )
        12           Au1 tau(  12) = (   3.2420038   3.7435435  15.2941700  )

     number of k points=    20  Fermi-Dirac smearing, width (Ry)=  0.0110
                       cart. coord. in units 2pi/alat
        k(    1) = (   0.0000000   0.0000000   0.0000000), wk =   0.0555556
        k(    2) = (   0.0000000   0.0296807   0.0000000), wk =   0.1111111
        k(    3) = (   0.0000000   0.0593615   0.0000000), wk =   0.1111111
        k(    4) = (   0.0000000  -0.0890422   0.0000000), wk =   0.0555556
        k(    5) = (   0.0257043   0.0148404   0.0000000), wk =   0.1111111
        k(    6) = (   0.0257043   0.0445211   0.0000000), wk =   0.1111111
        k(    7) = (   0.0257043   0.0742018   0.0000000), wk =   0.1111111
        k(    8) = (   0.0257043  -0.0742018   0.0000000), wk =   0.1111111
        k(    9) = (   0.0257043  -0.0445211   0.0000000), wk =   0.1111111
        k(   10) = (   0.0257043  -0.0148404   0.0000000), wk =   0.1111111
        k(   11) = (   0.0514085   0.0296807   0.0000000), wk =   0.1111111
        k(   12) = (   0.0514085   0.0593615   0.0000000), wk =   0.1111111
        k(   13) = (   0.0514085   0.0890422   0.0000000), wk =   0.1111111
        k(   14) = (   0.0514085  -0.0593615   0.0000000), wk =   0.1111111
        k(   15) = (   0.0514085  -0.0296807   0.0000000), wk =   0.1111111
        k(   16) = (   0.0514085   0.0000000   0.0000000), wk =   0.1111111
        k(   17) = (  -0.0771128  -0.0445211   0.0000000), wk =   0.0555556
        k(   18) = (  -0.0771128  -0.0148404   0.0000000), wk =   0.1111111
        k(   19) = (  -0.0771128   0.0148404   0.0000000), wk =   0.1111111
        k(   20) = (  -0.0771128  -0.1335633   0.0000000), wk =   0.0555556

     Largest allocated arrays     est. size (Mb)     dimensions
     Largest temporary arrays     est. size (Mb)     dimensions

     Initial potential from superposition of free atoms

     starting charge  140.99911, renormalised to  141.00000

     negative rho (up, down):  9.411E-05 0.000E+00

     *
     * You are using vdW-DF for exchange-correlation in this calculation.
     * Please cite the following three references that made this development
     * possible:
     *
     *   M. Dion, H. Rydberg, E. Schroder, D. C. Langreth, and
     *   B. I. Lundqvist, Phys. Rev. Lett. 92, 246401 (2004).
     *
     *   T. Thonhauser, V. R. Cooper, S. Li, A. Puzder, P. Hyldgaard, and
     *   D. C. Langreth, Phys. Rev. B 76, 125112 (2007).
     *
     *   G. Roman-Perez and J. M. Soler, Phys. Rev. Lett. 103, 096102 (2009).
     *
     *
     * If you are using vdW-DF2, please also cite:
     *
     *   K. Lee, E. D. Murray, L. Kong, B. I. Lundqvist, and
     *   D. C. Langreth, Phys. Rev. B 82, 081101(R) (2010).
     *
     *
     * If you are calculating the stress with vdW-DF, please also cite:
     *
     *   R. Sabatini, E. Kucukbenli, B. Kolb, T. Thonhauser, and
     *   S. de Gironcoli, J. Phys.: Condens. Matter 24, 424209 (2012).
     *

     Carrying out vdW-DF run using the following parameters:

     Nqs =      20    Nr_points =    1024   r_max =   100.000
     q_mesh =
               0.00001000     0.04494208     0.09755937     0.15916263
               0.23128650     0.31572767     0.41458969     0.53033537
               0.66584808     0.82450364     1.01025438     1.22772762
               1.48234092     1.78043706     2.12944203     2.53805004
               3.01644009     3.57652955     4.23227104     5.00000000

     Gradients computed in reciprocal space

     Adding external electric field

     Computed dipole along edir(3) :
        Dipole               -0.0000 Ry au,         -0.0000 Debye
        Dipole field         -0.0000 Ry au

        Potential amp.        0.0000 Ry
        Total length         46.6041 bohr

     Starting wfc are  108 randomized atomic wfcs

     Self-consistent Calculation

     iteration #  1     ecut=    36.75 Ry     beta=0.10
     Davidson diagonalization with overlap
     ethr =  1.00E-02,  avg # of iterations =  9.2

     Threshold (ethr) on eigenvalues was too large:
     Diagonalizing with lowered threshold

     Davidson diagonalization with overlap
     ethr =  6.61E-05,  avg # of iterations =  8.7

[...]

     total energy              =   -1331.97876654 Ry
     Harris-Foulkes estimate   =   -1331.98928313 Ry
     estimated scf accuracy    <       0.08496848 Ry

[...]

     End of self-consistent calculation

          k = 0.0000 0.0000 0.0000 ( 23391 PWs)   bands (ev):

    -7.8589  -7.4989  -7.4674  -7.4201  -7.4140  -7.4138  -7.3845  -7.3160
    -7.2689  -7.2689  -7.1353  -7.1351  -7.0932  -7.0932  -6.9963  -6.8934
    -6.8689  -6.8689  -6.7438  -6.6526  -6.6526  -6.6166  -6.5666  -6.5218
    -6.5216  -6.4719  -6.4718  -6.3506  -6.3506  -6.2993  -6.2992  -6.2445
    -6.1961  -6.1961  -6.1717  -6.1717  -6.1666  -6.1665  -5.9834  -5.9833
    -5.9305  -5.8477  -5.8364  -5.8364  -5.8352  -5.6891  -5.6780  -4.1066
    -3.5800  -3.5800  -3.3172  -3.3172  -3.2141  -3.2141  -3.0633  -3.0101
    -2.9757  -2.9757  -2.9312  -2.9312  -2.8279  -2.8279  -2.3628  -1.1593
    -1.1593  -1.1192  -1.1192  -0.8236  -0.6590  -0.0010  -0.0010   0.0164
     0.2321   0.2673   0.2673   0.7081   1.7848   1.7849   2.0883   2.2166
     2.2166   2.3646   3.0072   4.0457   4.2591   5.2884   5.2968   5.8387
     5.8387   5.8556   5.8557   6.1030   6.3197   6.9979   7.4137   7.7462
     7.7463   7.7676   7.9557   7.9625

[...]

          k =-0.0771-0.0445 0.0000 ( 23400 PWs)   bands (ev):

[...]

     the Fermi energy is    -0.0213 ev

!    total energy              =   -1331.96189854 Ry
     Harris-Foulkes estimate   =   -1331.96189610 Ry
     estimated scf accuracy    <       0.00000055 Ry

     The total energy is the sum of the following terms:

     one-electron contribution =   -7555.69515326 Ry
     hartree contribution      =    3870.01079494 Ry
     xc contribution           =    -555.83920083 Ry
     ewald contribution        =    2909.58872152 Ry
     electric field correction =       0.00000000 Ry
     smearing contrib. (-TS)   =      -0.02706091 Ry

     convergence has been achieved in  12 iterations

 BEEF-vdW xc energy contributions
           1 :   -490.464184145088
           2 :    452.446552801214
           3 :   -386.067398734254
           4 :    306.582791248974
           5 :   -229.296066025565
           6 :    164.997848651422
           7 :   -117.906621724636
           8 :    86.3677746148929
           9 :   -65.4924580563663
          10 :    50.2287060584642
          11 :   -37.4518241746716
          12 :    26.3845525657343
[...]
     MD5 check sum: 8f42caffe07f7fd9c0a564347f8c5498
     Pseudo is Ultrasoft + core correction, Zval = 12.0
     Generated by new atomic code, or converted to UPF format
     Using radial grid of  985 points,  6 beta functions with:
                l(1) =   0
                l(2) =   0
                l(3) =   1
                l(4) =   1
                l(5) =   2
                l(6) =   2
     Q(r) pseudized with  8 coefficients,  rinner =    2.000   2.000   2.000
                                                       2.000   2.000

     PseudoPot. # 2 for Au read from file:
     /afs/slac.stanford.edu/u/if/mamunm/psp/gbrv1.5pbe/Au.UPF
     MD5 check sum: 9d7f43293ad2c663164586bc4b293ffc
     Pseudo is Ultrasoft + core correction, Zval = 11.0
     Generated by new atomic code, or converted to UPF format
     Using radial grid of  985 points,  7 beta functions with:
                l(1) =   0
                l(2) =   0
                l(3) =   1
                l(4) =   1
                l(5) =   2
                l(6) =   2
                l(7) =   3
     Q(r) pseudized with  6 coefficients,  rinner =    1.900   1.900   1.900
                                                       1.900   1.900   1.900
                                                       1.900

     vdW kernel table read from file vdW_kernel_table
     MD5 check sum: 095c7af220d748ca6e76c0b4c6cfb241

     atomic species   valence    mass     pseudopotential
        Hg1           12.00   200.59200     Hg( 1.00)
        Au1           11.00   196.96657     Au( 1.00)

     No symmetry found

   Cartesian axes

     site n.     atom                  positions (alat units)
         1           Hg1 tau(   1) = (   0.0000000   0.0000000  10.0000000  )
         2           Hg1 tau(   2) = (  -1.6210019   2.8076576  10.0000000  )
         3           Hg1 tau(   3) = (   1.6210019   2.8076576  10.0000000  )
         4           Au1 tau(   4) = (   3.2420038   0.0000000  10.0000000  )
         5           Hg1 tau(   5) = (   3.2420038   1.8717718  12.6470850  )
         6           Hg1 tau(   6) = (   1.6210019   4.6794294  12.6470850  )
         7           Hg1 tau(   7) = (  -1.6210019   4.6794294  12.6470850  )
         8           Au1 tau(   8) = (   0.0000000   1.8717718  12.6470850  )
         9           Hg1 tau(   9) = (   0.0000511   3.7312355  15.8372551  )
        10           Hg1 tau(  10) = (   1.6105161   0.9419607  15.8373499  )
        11           Hg1 tau(  11) = (   4.8734710   0.9420292  15.8373610  )
        12           Au1 tau(  12) = (   3.2419791   3.7442249  15.0166312  )

     number of k points=    20  Fermi-Dirac smearing, width (Ry)=  0.0110
                       cart. coord. in units 2pi/alat
        k(    1) = (   0.0000000   0.0000000   0.0000000), wk =   0.0555556
        k(    2) = (   0.0000000   0.0296807   0.0000000), wk =   0.1111111
        k(    3) = (   0.0000000   0.0593615   0.0000000), wk =   0.1111111
        k(    4) = (   0.0000000  -0.0890422   0.0000000), wk =   0.0555556
        k(    5) = (   0.0257043   0.0148404   0.0000000), wk =   0.1111111
        k(    6) = (   0.0257043   0.0445211   0.0000000), wk =   0.1111111
        k(    7) = (   0.0257043   0.0742018   0.0000000), wk =   0.1111111
        k(    8) = (   0.0257043  -0.0742018   0.0000000), wk =   0.1111111
        k(    9) = (   0.0257043  -0.0445211   0.0000000), wk =   0.1111111
        k(   10) = (   0.0257043  -0.0148404   0.0000000), wk =   0.1111111
        k(   11) = (   0.0514085   0.0296807   0.0000000), wk =   0.1111111
        k(   12) = (   0.0514085   0.0593615   0.0000000), wk =   0.1111111
        k(   13) = (   0.0514085   0.0890422   0.0000000), wk =   0.1111111
        k(   14) = (   0.0514085  -0.0593615   0.0000000), wk =   0.1111111
        k(   15) = (   0.0514085  -0.0296807   0.0000000), wk =   0.1111111
        k(   16) = (   0.0514085   0.0000000   0.0000000), wk =   0.1111111
        k(   17) = (  -0.0771128  -0.0445211   0.0000000), wk =   0.0555556
        k(   18) = (  -0.0771128  -0.0148404   0.0000000), wk =   0.1111111
        k(   19) = (  -0.0771128   0.0148404   0.0000000), wk =   0.1111111
        k(   20) = (  -0.0771128  -0.1335633   0.0000000), wk =   0.0555556

     Largest allocated arrays     est. size (Mb)     dimensions
     Largest temporary arrays     est. size (Mb)     dimensions

     Initial potential from superposition of free atoms

     starting charge  140.99911, renormalised to  141.00000

[...]

     *
     * You are using vdW-DF for exchange-correlation in this calculation.
     * Please cite the following three references that made this development
     * possible:
     *
     *   M. Dion, H. Rydberg, E. Schroder, D. C. Langreth, and
     *   B. I. Lundqvist, Phys. Rev. Lett. 92, 246401 (2004).
     *
     *   T. Thonhauser, V. R. Cooper, S. Li, A. Puzder, P. Hyldgaard, and
     *   D. C. Langreth, Phys. Rev. B 76, 125112 (2007).
     *
     *   G. Roman-Perez and J. M. Soler, Phys. Rev. Lett. 103, 096102 (2009).
     *
     *
     * If you are using vdW-DF2, please also cite:
     *
     *   K. Lee, E. D. Murray, L. Kong, B. I. Lundqvist, and
     *   D. C. Langreth, Phys. Rev. B 82, 081101(R) (2010).
     *
     *
     * If you are calculating the stress with vdW-DF, please also cite:
     *
     *   R. Sabatini, E. Kucukbenli, B. Kolb, T. Thonhauser, and
     *   S. de Gironcoli, J. Phys.: Condens. Matter 24, 424209 (2012).
     *

     Carrying out vdW-DF run using the following parameters:

     Nqs =      20    Nr_points =    1024   r_max =   100.000
     q_mesh =
               0.00001000     0.04494208     0.09755937     0.15916263
               0.23128650     0.31572767     0.41458969     0.53033537
               0.66584808     0.82450364     1.01025438     1.22772762
               1.48234092     1.78043706     2.12944203     2.53805004
               3.01644009     3.57652955     4.23227104     5.00000000

     Gradients computed in reciprocal space

[...]

     Starting wfc are  108 randomized atomic wfcs

     Self-consistent Calculation

[...]

     Threshold (ethr) on eigenvalues was too large:
     Diagonalizing with lowered threshold

     Davidson diagonalization with overlap
     ethr =  6.21E-05,  avg # of iterations =  8.0

[...]

     total energy              =   -1331.97952725 Ry
     Harris-Foulkes estimate   =   -1331.97952597 Ry
     estimated scf accuracy    <       0.00000135 Ry

     iteration # 12     ecut=    36.75 Ry     beta=0.10
     Davidson diagonalization with overlap
     ethr =  9.58E-10,  avg # of iterations =  2.0

[...]

     negative rho (up, down):  1.236E-04 0.000E+00

     Adding external electric field

     Computed dipole along edir(3) :
        Dipole                0.0638 Ry au,          0.1623 Debye
        Dipole field          0.0001 Ry au

        Potential amp.       -0.0120 Ry
        Total length         46.6041 bohr

     End of self-consistent calculation

[...]

          k = 0.0514 0.0000 0.0000 ( 23346 PWs)   bands (ev):

[...]

          k =-0.0771-0.1336 0.0000 ( 23400 PWs)   bands (ev):

    -7.3135  -7.1699  -7.1206  -7.0276  -6.9582  -6.9162  -6.8967  -6.8923
    -6.8671  -6.8614  -6.8017  -6.7886  -6.7823  -6.6593  -6.6451  -6.5645
    -6.5435  -6.5286  -6.5230  -6.5050  -6.4854  -6.4737  -6.3985  -6.3938
    -6.3769  -6.3568  -6.3389  -6.3106  -6.2868  -6.2833  -6.2698  -6.2409
    -6.2148  -6.2148  -6.2140  -6.1899  -6.1836  -6.1533  -6.1262  -6.0580
    -5.9934  -5.9548  -5.9199  -5.8765  -5.8281  -5.7447  -5.5658  -4.6108
    -4.3770  -4.0318  -3.4501  -3.3735  -3.3603  -3.2046  -3.1973  -3.1539
    -3.1161  -3.0583  -3.0379  -3.0196  -2.9899  -2.9505  -2.8567  -2.7424
    -2.3872  -2.1497  -1.7369  -1.5668  -1.4241  -0.6477  -0.1936   0.4828
     1.7390   1.9287   2.9521   3.1083   3.4387   3.5185   3.6252   3.7605
     4.1231   4.2312   4.6446   4.6636   5.1176   5.1348   5.3654   5.3863
     5.6944   5.8420   6.1063   6.1160   6.2177   6.2272   6.3591   6.4664
     6.5230   6.7340   6.7440   6.9205

     the Fermi energy is    -0.0064 ev

!    total energy              =   -1331.97953008 Ry
     Harris-Foulkes estimate   =   -1331.97952807 Ry
     estimated scf accuracy    <       0.00000054 Ry

     The total energy is the sum of the following terms:

     one-electron contribution =   -7163.16943642 Ry
     hartree contribution      =    3674.21934381 Ry
     xc contribution           =    -555.73292717 Ry
     ewald contribution        =    2712.72876460 Ry
     electric field correction =       0.00000824 Ry
     smearing contrib. (-TS)   =      -0.02528315 Ry

     convergence has been achieved in  12 iterations

 BEEF-vdW xc energy contributions
           1 :   -490.375052038341
           2 :    452.175438126009
           3 :   -385.608568354024
           4 :    306.133062237411
           5 :   -229.109251878298
           6 :    165.184724757576
           7 :   -118.334640397946
           8 :    86.7415397445931
           9 :   -65.5599937574572
          10 :    49.9628487706847
          11 :   -37.0721393097705
          12 :    26.2008750330492
          13 :   -17.8258462099822
          14 :    12.2637914041875
          15 :   -8.94060612663793
          16 :    6.55427768311688
          17 :   -3.82194376785071
          18 :   0.203594278873879
          19 :    3.86956248167780
          20 :   -7.36585077442226
          21 :    9.34527742069645
          22 :   -9.53639818542479
          23 :    8.46772811409051
          24 :   -7.12312214630094
          25 :    6.36780077967592
          26 :   -6.50169694101146
          27 :    7.18054493950285
          28 :   -7.71254359859881
          29 :    7.52344070034940
          30 :   -6.51101080184469
          31 :   -43.1498153228044
          32 :   -31.4724716530214

     Forces acting on atoms (Ry/au):

     negative rho (up, down):  1.236E-04 0.000E+00
     atom    1 type  1   force =    -0.00000065    0.00513729   -0.01278431
     atom    2 type  1   force =     0.00445021   -0.00257017   -0.01278541
     atom    3 type  1   force =    -0.00445171   -0.00257170   -0.01278569
     atom    4 type  2   force =     0.00000140   -0.00000137    0.00487925
     atom    5 type  1   force =     0.00000058   -0.01086876    0.01127025
     atom    6 type  1   force =    -0.00942491    0.00543751    0.01125372
     atom    7 type  1   force =     0.00942502    0.00543621    0.01125416
     atom    8 type  2   force =     0.00000057   -0.00000408    0.00009632
     atom    9 type  1   force =     0.00000054    0.00002900    0.00002821
     atom   10 type  1   force =     0.00002522   -0.00001385    0.00002452
     atom   11 type  1   force =    -0.00002504   -0.00000989    0.00002373
     atom   12 type  2   force =    -0.00000123   -0.00000018   -0.00047476

     Total force =     0.036454     Total SCF correction =     0.001855

     entering subroutine stress ...

     negative rho (up, down):  1.236E-04 0.000E+00
          total   stress  (Ry/bohr**3)                   (kbar)     P=    0.15
  -0.00001255   0.00000000   0.00000000         -1.85      0.00      0.00
   0.00000000  -0.00001253  -0.00000001          0.00     -1.84     -0.00
   0.00000000  -0.00000001   0.00002808          0.00     -0.00      4.13

 !ASE

     Writing output data file calc.save

     General routines

     Parallel routines

   This run was terminated on:   9:44:34  30Dec2018

   JOB DONE.
Job  /afs/slac/g/suncat/bin/suncat-tsmpirun -x LD_LIBRARY_PATH -wdir /scratch/qe648476_E3F3O pw.x -in pw.inp

TID   HOST_NAME   COMMAND_LINE            STATUS            TERMINATION_TIME
00000 suncat0062 pw.x -in pw.inp   Done                     12/30/2018 09:44:34
00001 suncat0062 pw.x -in pw.inp   Done                     12/30/2018 09:44:34
00002 suncat0062 pw.x -in pw.inp   Done                     12/30/2018 09:44:34
00003 suncat0062 pw.x -in pw.inp   Done                     12/30/2018 09:44:34
00004 suncat0062 pw.x -in pw.inp   Done                     12/30/2018 09:44:34
00005 suncat0062 pw.x -in pw.inp   Done                     12/30/2018 09:44:34
00006 suncat0062 pw.x -in pw.inp   Done                     12/30/2018 09:44:34
00007 suncat0062 pw.x -in pw.inp   Done                     12/30/2018 09:44:34
00008 suncat0061 pw.x -in pw.inp   Done                     12/30/2018 09:44:34
00009 suncat0061 pw.x -in pw.inp   Done                     12/30/2018 09:44:34
00010 suncat0061 pw.x -in pw.inp   Done                     12/30/2018 09:44:34
00011 suncat0061 pw.x -in pw.inp   Done                     12/30/2018 09:44:34
00012 suncat0061 pw.x -in pw.inp   Done                     12/30/2018 09:44:34
00013 suncat0061 pw.x -in pw.inp   Done                     12/30/2018 09:44:34
00014 suncat0061 pw.x -in pw.inp   Done                     12/30/2018 09:44:34
00015 suncat0061 pw.x -in pw.inp   Done                     12/30/2018 09:44:34
00016 suncat0057 pw.x -in pw.inp   Done                     12/30/2018 09:44:34
00017 suncat0057 pw.x -in pw.inp   Done                     12/30/2018 09:44:34
00018 suncat0057 pw.x -in pw.inp   Done                     12/30/2018 09:44:34
00019 suncat0057 pw.x -in pw.inp   Done                     12/30/2018 09:44:34
00020 suncat0057 pw.x -in pw.inp   Done                     12/30/2018 09:44:34
00021 suncat0057 pw.x -in pw.inp   Done                     12/30/2018 09:44:34
00022 suncat0057 pw.x -in pw.inp   Done                     12/30/2018 09:44:34
00023 suncat0057 pw.x -in pw.inp   Done                     12/30/2018 09:44:34
00024 suncat0165 pw.x -in pw.inp   Done                     12/30/2018 09:44:34
00025 suncat0165 pw.x -in pw.inp   Done                     12/30/2018 09:44:34
00026 suncat0165 pw.x -in pw.inp   Done                     12/30/2018 09:44:34
00027 suncat0165 pw.x -in pw.inp   Done                     12/30/2018 09:44:34
00028 suncat0165 pw.x -in pw.inp   Done                     12/30/2018 09:44:34
00029 suncat0165 pw.x -in pw.inp   Done                     12/30/2018 09:44:34
00030 suncat0165 pw.x -in pw.inp   Done                     12/30/2018 09:44:34
00031 suncat0165 pw.x -in pw.inp   Done                     12/30/2018 09:44:34
00032 suncat0106 pw.x -in pw.inp   Done                     12/30/2018 09:44:34
00033 suncat0106 pw.x -in pw.inp   Done                     12/30/2018 09:44:34
00034 suncat0106 pw.x -in pw.inp   Done                     12/30/2018 09:44:34
00035 suncat0106 pw.x -in pw.inp   Done                     12/30/2018 09:44:34
00036 suncat0106 pw.x -in pw.inp   Done                     12/30/2018 09:44:34
00037 suncat0106 pw.x -in pw.inp   Done                     12/30/2018 09:44:34
00038 suncat0106 pw.x -in pw.inp   Done                     12/30/2018 09:44:34
00039 suncat0106 pw.x -in pw.inp   Done                     12/30/2018 09:44:34
00040 suncat0105 pw.x -in pw.inp   Done                     12/30/2018 09:44:34
00041 suncat0105 pw.x -in pw.inp   Done                     12/30/2018 09:44:34
00042 suncat0105 pw.x -in pw.inp   Done                     12/30/2018 09:44:34
00043 suncat0105 pw.x -in pw.inp   Done                     12/30/2018 09:44:34
00044 suncat0105 pw.x -in pw.inp   Done                     12/30/2018 09:44:34
00045 suncat0105 pw.x -in pw.inp   Done                     12/30/2018 09:44:34
00046 suncat0105 pw.x -in pw.inp   Done                     12/30/2018 09:44:34
00047 suncat0105 pw.x -in pw.inp   Done                     12/30/2018 09:44:34
00048 suncat0277 pw.x -in pw.inp   Done                     12/30/2018 09:44:34
00049 suncat0277 pw.x -in pw.inp   Done                     12/30/2018 09:44:34
00050 suncat0277 pw.x -in pw.inp   Done                     12/30/2018 09:44:34
00051 suncat0277 pw.x -in pw.inp   Done                     12/30/2018 09:44:34
00052 suncat0277 pw.x -in pw.inp   Done                     12/30/2018 09:44:34
00053 suncat0277 pw.x -in pw.inp   Done                     12/30/2018 09:44:34
00054 suncat0277 pw.x -in pw.inp   Done                     12/30/2018 09:44:34
00055 suncat0277 pw.x -in pw.inp   Done                     12/30/2018 09:44:34
00056 suncat0276 pw.x -in pw.inp   Done                     12/30/2018 09:44:34
00057 suncat0276 pw.x -in pw.inp   Done                     12/30/2018 09:44:34
00058 suncat0276 pw.x -in pw.inp   Done                     12/30/2018 09:44:34
00059 suncat0276 pw.x -in pw.inp   Done                     12/30/2018 09:44:34
00060 suncat0276 pw.x -in pw.inp   Done                     12/30/2018 09:44:34
00061 suncat0276 pw.x -in pw.inp   Done                     12/30/2018 09:44:34
00062 suncat0276 pw.x -in pw.inp   Done                     12/30/2018 09:44:34
00063 suncat0276 pw.x -in pw.inp   Done                     12/30/2018 09:44:34