     Program PWSCF v.5.1rc2 (svn rev. 11289) starts on 25Dec2018 at 16:30:23

     Current dimensions of program PWSCF are:
     Max number of different atomic species (ntypx) = 10
     Max number of k-points (npk) =  40000
     Max angular momentum in pseudopotentials (lmaxx) =  3
     Presently stress not available with electric field

     IMPORTANT: XC functional enforced from input :
     Exchange-correlation      = BEEF-VDW ( 1  4 27 13 2)
     Any further DFT definition will be discarded
     Please, verify this is what you really want

     Subspace diagonalization in iterative solution of the eigenvalue problem:
     a serial algorithm will be used

     bravais-lattice index     =            0
     lattice parameter (alat)  =       1.8897  a.u.
     unit-cell volume          =    5457.5463 (a.u.)^3
     number of atoms/cell      =           12
     number of atomic types    =            2
     number of electrons       =       204.00
     number of Kohn-Sham states=          132
     kinetic-energy cutoff     =      36.7493  Ry
     charge density cutoff     =     367.4932  Ry
     convergence threshold     =      1.0E-06
     mixing beta               =       0.1000
     number of iterations used =           10  plain     mixing
     Exchange-correlation      = BEEF-VDW ( 1  4 27 13 2)
     nstep                     =           50

     celldm(1)=   1.889726  celldm(2)=   0.000000  celldm(3)=   0.000000
     celldm(4)=   0.000000  celldm(5)=   0.000000  celldm(6)=   0.000000

     crystal axes: (cart. coord. in units of alat)
               a(1) = (   6.112831   0.000000   0.000000 )
               a(2) = (  -3.056415   5.293867   0.000000 )
               a(3) = (   0.000000   0.000000  24.991105 )

     reciprocal axes: (cart. coord. in units 2 pi/alat)
               b(1) = (  0.163590  0.094449  0.000000 )
               b(2) = (  0.000000  0.188898  0.000000 )
               b(3) = (  0.000000  0.000000  0.040014 )

     PseudoPot. # 1 for Cu read from file:
     /afs/slac.stanford.edu/u/if/mamunm/psp/gbrv1.5pbe/Cu.UPF
     MD5 check sum: 6e991ff952a84172a2a52a1c1e996048
     Pseudo is Ultrasoft + core correction, Zval = 19.0
     Generated by new atomic code, or converted to UPF format
     Using radial grid of  867 points,  6 beta functions with:
                l(1) =   0
                l(2) =   0
                l(3) =   1
                l(4) =   1
                l(5) =   2
                l(6) =   2
     Q(r) pseudized with  8 coefficients,  rinner =    1.150   1.150   1.150
                                                       1.150   1.150

     PseudoPot. # 2 for La read from file:
     /afs/slac.stanford.edu/u/if/mamunm/psp/gbrv1.5pbe/La.UPF
     MD5 check sum: 5937b0c7494ba0601a847275249473aa
     Pseudo is Ultrasoft + core correction, Zval = 11.0
     Generated by new atomic code, or converted to UPF format
     Using radial grid of  995 points,  8 beta functions with:
                l(1) =   0
                l(2) =   0
                l(3) =   1
                l(4) =   1
                l(5) =   2
                l(6) =   2
                l(7) =   3
                l(8) =   3
     Q(r) pseudized with  8 coefficients,  rinner =    1.700   1.700   1.700
                                                       1.700   1.700   1.700
                                                       1.700

     vdW kernel table read from file vdW_kernel_table
     MD5 check sum: 095c7af220d748ca6e76c0b4c6cfb241

     atomic species   valence    mass     pseudopotential
        Cu1           19.00    63.54600     Cu( 1.00)
        La1           11.00   138.90547     La( 1.00)

     No symmetry found

   Cartesian axes

     site n.     atom                  positions (alat units)
         1           Cu1 tau(   1) = (   0.0000000   0.0000000  10.0000000  )
         2           Cu1 tau(   2) = (  -1.5282077   2.6469333  10.0000000  )
         3           Cu1 tau(   3) = (   1.5282077   2.6469333  10.0000000  )
         4           La1 tau(   4) = (   3.0564153   0.0000000  10.0000000  )
         5           Cu1 tau(   5) = (   3.0564153   1.7646222  12.4955527  )
         6           Cu1 tau(   6) = (   1.5282077   4.4115556  12.4955527  )
         7           Cu1 tau(   7) = (  -1.5282077   4.4115556  12.4955527  )
         8           La1 tau(   8) = (   0.0000000   1.7646222  12.4955527  )
         9           Cu1 tau(   9) = (  -0.0000000   3.5292444  14.9911054  )
        10           Cu1 tau(  10) = (   1.5282077   0.8823111  14.9911054  )
        11           Cu1 tau(  11) = (   4.5846230   0.8823111  14.9911054  )
        12           La1 tau(  12) = (   3.0564153   3.5292444  14.9911054  )

     number of k points=    20  Fermi-Dirac smearing, width (Ry)=  0.0110
                       cart. coord. in units 2pi/alat
        k(    1) = (   0.0000000   0.0000000   0.0000000), wk =   0.0555556
        k(    2) = (   0.0000000   0.0314830   0.0000000), wk =   0.1111111
        k(    3) = (   0.0000000   0.0629659   0.0000000), wk =   0.1111111
        k(    4) = (   0.0000000  -0.0944489   0.0000000), wk =   0.0555556
        k(    5) = (   0.0272651   0.0157415   0.0000000), wk =   0.1111111
        k(    6) = (   0.0272651   0.0472245   0.0000000), wk =   0.1111111
        k(    7) = (   0.0272651   0.0787074   0.0000000), wk =   0.1111111
        k(    8) = (   0.0272651  -0.0787074   0.0000000), wk =   0.1111111
        k(    9) = (   0.0272651  -0.0472245   0.0000000), wk =   0.1111111
        k(   10) = (   0.0272651  -0.0157415   0.0000000), wk =   0.1111111
        k(   11) = (   0.0545301   0.0314830   0.0000000), wk =   0.1111111
        k(   12) = (   0.0545301   0.0629659   0.0000000), wk =   0.1111111
        k(   13) = (   0.0545301   0.0944489   0.0000000), wk =   0.1111111
        k(   14) = (   0.0545301  -0.0629659   0.0000000), wk =   0.1111111
        k(   15) = (   0.0545301  -0.0314830   0.0000000), wk =   0.1111111
        k(   16) = (   0.0545301   0.0000000   0.0000000), wk =   0.1111111
        k(   17) = (  -0.0817952  -0.0472245   0.0000000), wk =   0.0555556
        k(   18) = (  -0.0817952  -0.0157415   0.0000000), wk =   0.1111111
        k(   19) = (  -0.0817952   0.0157415   0.0000000), wk =   0.1111111
        k(   20) = (  -0.0817952  -0.1416734   0.0000000), wk =   0.0555556

     Largest allocated arrays     est. size (Mb)     dimensions
     Largest temporary arrays     est. size (Mb)     dimensions

     Initial potential from superposition of free atoms
     Check: negative starting charge=   -0.213628

     starting charge  194.90378, renormalised to  204.00000

     negative rho (up, down):  2.236E-01 0.000E+00

     *
     * You are using vdW-DF for exchange-correlation in this calculation.
     * Please cite the following three references that made this development
     * possible:
     *
     *   M. Dion, H. Rydberg, E. Schroder, D. C. Langreth, and
     *   B. I. Lundqvist, Phys. Rev. Lett. 92, 246401 (2004).
     *
     *   T. Thonhauser, V. R. Cooper, S. Li, A. Puzder, P. Hyldgaard, and
     *   D. C. Langreth, Phys. Rev. B 76, 125112 (2007).
     *
     *   G. Roman-Perez and J. M. Soler, Phys. Rev. Lett. 103, 096102 (2009).
     *
     *
     * If you are using vdW-DF2, please also cite:
     *
     *   K. Lee, E. D. Murray, L. Kong, B. I. Lundqvist, and
     *   D. C. Langreth, Phys. Rev. B 82, 081101(R) (2010).
     *
     *
     * If you are calculating the stress with vdW-DF, please also cite:
     *
     *   R. Sabatini, E. Kucukbenli, B. Kolb, T. Thonhauser, and
     *   S. de Gironcoli, J. Phys.: Condens. Matter 24, 424209 (2012).
     *

     Carrying out vdW-DF run using the following parameters:

     Nqs =      20    Nr_points =    1024   r_max =   100.000
     q_mesh =
               0.00001000     0.04494208     0.09755937     0.15916263
               0.23128650     0.31572767     0.41458969     0.53033537
               0.66584808     0.82450364     1.01025438     1.22772762
               1.48234092     1.78043706     2.12944203     2.53805004
               3.01644009     3.57652955     4.23227104     5.00000000

     Gradients computed in reciprocal space

     Adding external electric field

     Computed dipole along edir(3) :
        Dipole               -0.0000 Ry au,         -0.0000 Debye
        Dipole field         -0.0000 Ry au

        Potential amp.        0.0000 Ry
        Total length         46.0457 bohr

     Starting wfc are  177 randomized atomic wfcs

     Self-consistent Calculation

     iteration #  1     ecut=    36.75 Ry     beta=0.10
     Davidson diagonalization with overlap
     ethr =  1.00E-02,  avg # of iterations =  3.0

[...]

     total energy              =   -3945.79964963 Ry
     Harris-Foulkes estimate   =   -3962.42431898 Ry
     estimated scf accuracy    <      92.60705450 Ry

[...]

     End of self-consistent calculation

          k = 0.0000 0.0000 0.0000 ( 20515 PWs)   bands (ev):

  -111.6062-111.6058-111.6058-111.3777-111.3774-111.3774-111.3773-111.3769
  -111.3769 -69.0801 -69.0772 -69.0772 -69.0482 -69.0482 -69.0455 -68.8923
   -68.8923 -68.8919 -68.8919 -68.8896 -68.8891 -68.8816 -68.8771 -68.8771
   -68.7693 -68.7689 -68.7665 -68.7665 -68.7661 -68.7661 -68.6789 -68.6785
   -68.6746 -68.6746 -68.6741 -68.6741 -32.5241 -32.5232 -31.7669 -16.2098
   -16.1962 -16.1037 -16.1037 -16.1026 -16.1026 -15.4563 -15.4563 -15.4430
    -4.6365  -3.4451  -2.9451  -2.7428  -2.7428  -2.6819  -2.6819  -2.3250
    -2.3250  -2.2841  -2.2555  -2.2555  -2.1267  -2.0744  -1.9958  -1.8421
    -1.8421  -1.8413  -1.8413  -1.7520  -1.7302  -1.7302  -1.7258  -1.6731
    -1.5758  -1.5758  -1.5582  -1.5365  -1.5365  -1.5059  -1.4973  -1.4973
    -1.4033  -1.3255  -1.3255  -1.2775  -1.2685  -1.2685  -1.2008  -1.2008
    -1.1912  -1.1912  -1.1483  -1.0539  -1.0539  -1.0136  -1.0029  -0.7315
     0.3726   0.3726   0.4952   0.7205   0.7205   1.0859   1.1001   1.1001
     1.4595   1.7932   1.9733   1.9733   2.1021   2.2748   2.2748   2.2800
     2.2800   2.3105   2.3105   2.3338   2.3589   2.3697   2.3697   2.3785
     2.3977   2.8056   2.8174   2.9454   2.9454   3.0490   3.1898   3.1898
     3.2000   3.2304   3.2304   3.4441

[...]

          k =-0.0818-0.0472 0.0000 ( 20540 PWs)   bands (ev):

[...]

     the Fermi energy is     0.9651 ev

!    total energy              =   -3956.39814373 Ry
     Harris-Foulkes estimate   =   -3956.39814562 Ry
     estimated scf accuracy    <       0.00000053 Ry

     The total energy is the sum of the following terms:

     one-electron contribution =  -21263.09172625 Ry
     hartree contribution      =   10647.30934062 Ry
     xc contribution           =    -511.74881737 Ry
     ewald contribution        =    7171.17391353 Ry
     electric field correction =       0.00000000 Ry
     smearing contrib. (-TS)   =      -0.04085426 Ry

     convergence has been achieved in  23 iterations

 BEEF-vdW xc energy contributions
           1 :   -453.371331768412
           2 :    412.262237253332
           3 :   -342.008479198486
           4 :    261.039191870301
           5 :   -186.578173787853
           6 :    128.782177748888
[...]
     Using radial grid of  867 points,  6 beta functions with:
                l(1) =   0
                l(2) =   0
                l(3) =   1
                l(4) =   1
                l(5) =   2
                l(6) =   2
     Q(r) pseudized with  8 coefficients,  rinner =    1.150   1.150   1.150
                                                       1.150   1.150

     PseudoPot. # 2 for La read from file:
     /afs/slac.stanford.edu/u/if/mamunm/psp/gbrv1.5pbe/La.UPF
     MD5 check sum: 5937b0c7494ba0601a847275249473aa
     Pseudo is Ultrasoft + core correction, Zval = 11.0
     Generated by new atomic code, or converted to UPF format
     Using radial grid of  995 points,  8 beta functions with:
                l(1) =   0
                l(2) =   0
                l(3) =   1
                l(4) =   1
                l(5) =   2
                l(6) =   2
                l(7) =   3
                l(8) =   3
     Q(r) pseudized with  8 coefficients,  rinner =    1.700   1.700   1.700
                                                       1.700   1.700   1.700
                                                       1.700

     vdW kernel table read from file vdW_kernel_table
     MD5 check sum: 095c7af220d748ca6e76c0b4c6cfb241

     atomic species   valence    mass     pseudopotential
        Cu1           19.00    63.54600     Cu( 1.00)
        La1           11.00   138.90547     La( 1.00)

     No symmetry found

   Cartesian axes

     site n.     atom                  positions (alat units)
         1           Cu1 tau(   1) = (   0.0000000   0.0000000  10.0000000  )
         2           Cu1 tau(   2) = (  -1.5282077   2.6469333  10.0000000  )
         3           Cu1 tau(   3) = (   1.5282077   2.6469333  10.0000000  )
         4           La1 tau(   4) = (   3.0564153   0.0000000  10.0000000  )
         5           Cu1 tau(   5) = (   3.0564153   1.7646222  12.4955527  )
         6           Cu1 tau(   6) = (   1.5282077   4.4115556  12.4955527  )
         7           Cu1 tau(   7) = (  -1.5282077   4.4115556  12.4955527  )
         8           La1 tau(   8) = (   0.0000000   1.7646222  12.4955527  )
         9           Cu1 tau(   9) = (   0.0000058   3.8638420  14.6008948  )
        10           Cu1 tau(  10) = (   1.8179675   0.7150289  14.6009203  )
        11           Cu1 tau(  11) = (   4.2948871   0.7150368  14.6009399  )
        12           La1 tau(  12) = (   3.0564154   3.5292584  15.1344685  )

     number of k points=    20  Fermi-Dirac smearing, width (Ry)=  0.0110
                       cart. coord. in units 2pi/alat
        k(    1) = (   0.0000000   0.0000000   0.0000000), wk =   0.0555556
        k(    2) = (   0.0000000   0.0314830   0.0000000), wk =   0.1111111
        k(    3) = (   0.0000000   0.0629659   0.0000000), wk =   0.1111111
        k(    4) = (   0.0000000  -0.0944489   0.0000000), wk =   0.0555556
        k(    5) = (   0.0272651   0.0157415   0.0000000), wk =   0.1111111
        k(    6) = (   0.0272651   0.0472245   0.0000000), wk =   0.1111111
        k(    7) = (   0.0272651   0.0787074   0.0000000), wk =   0.1111111
        k(    8) = (   0.0272651  -0.0787074   0.0000000), wk =   0.1111111
        k(    9) = (   0.0272651  -0.0472245   0.0000000), wk =   0.1111111
        k(   10) = (   0.0272651  -0.0157415   0.0000000), wk =   0.1111111
        k(   11) = (   0.0545301   0.0314830   0.0000000), wk =   0.1111111
        k(   12) = (   0.0545301   0.0629659   0.0000000), wk =   0.1111111
        k(   13) = (   0.0545301   0.0944489   0.0000000), wk =   0.1111111
        k(   14) = (   0.0545301  -0.0629659   0.0000000), wk =   0.1111111
        k(   15) = (   0.0545301  -0.0314830   0.0000000), wk =   0.1111111
        k(   16) = (   0.0545301   0.0000000   0.0000000), wk =   0.1111111
        k(   17) = (  -0.0817952  -0.0472245   0.0000000), wk =   0.0555556
        k(   18) = (  -0.0817952  -0.0157415   0.0000000), wk =   0.1111111
        k(   19) = (  -0.0817952   0.0157415   0.0000000), wk =   0.1111111
        k(   20) = (  -0.0817952  -0.1416734   0.0000000), wk =   0.0555556

     Largest allocated arrays     est. size (Mb)     dimensions
     Largest temporary arrays     est. size (Mb)     dimensions

     Initial potential from superposition of free atoms
     Check: negative starting charge=   -0.213315

     starting charge  194.90378, renormalised to  204.00000

[...]

     *
     * You are using vdW-DF for exchange-correlation in this calculation.
     * Please cite the following three references that made this development
     * possible:
     *
     *   M. Dion, H. Rydberg, E. Schroder, D. C. Langreth, and
     *   B. I. Lundqvist, Phys. Rev. Lett. 92, 246401 (2004).
     *
     *   T. Thonhauser, V. R. Cooper, S. Li, A. Puzder, P. Hyldgaard, and
     *   D. C. Langreth, Phys. Rev. B 76, 125112 (2007).
     *
     *   G. Roman-Perez and J. M. Soler, Phys. Rev. Lett. 103, 096102 (2009).
     *
     *
     * If you are using vdW-DF2, please also cite:
     *
     *   K. Lee, E. D. Murray, L. Kong, B. I. Lundqvist, and
     *   D. C. Langreth, Phys. Rev. B 82, 081101(R) (2010).
     *
     *
     * If you are calculating the stress with vdW-DF, please also cite:
     *
     *   R. Sabatini, E. Kucukbenli, B. Kolb, T. Thonhauser, and
     *   S. de Gironcoli, J. Phys.: Condens. Matter 24, 424209 (2012).
     *

     Carrying out vdW-DF run using the following parameters:

     Nqs =      20    Nr_points =    1024   r_max =   100.000
     q_mesh =
               0.00001000     0.04494208     0.09755937     0.15916263
               0.23128650     0.31572767     0.41458969     0.53033537
               0.66584808     0.82450364     1.01025438     1.22772762
               1.48234092     1.78043706     2.12944203     2.53805004
               3.01644009     3.57652955     4.23227104     5.00000000

     Gradients computed in reciprocal space

[...]

     Starting wfc are  177 randomized atomic wfcs

     Self-consistent Calculation

[...]

     total energy              =   -3956.45308742 Ry
     Harris-Foulkes estimate   =   -3956.45308815 Ry
     estimated scf accuracy    <       0.00000136 Ry

     iteration # 21     ecut=    36.75 Ry     beta=0.10
     Davidson diagonalization with overlap
     ethr =  6.68E-10,  avg # of iterations =  3.3

[...]

     negative rho (up, down):  1.519E-01 0.000E+00

     Adding external electric field

     Computed dipole along edir(3) :
        Dipole                0.1918 Ry au,          0.4875 Debye
        Dipole field          0.0004 Ry au

        Potential amp.       -0.0407 Ry
        Total length         46.0457 bohr

     End of self-consistent calculation

[...]

          k = 0.0545 0.0000 0.0000 ( 20489 PWs)   bands (ev):

[...]

          k =-0.0818-0.1417 0.0000 ( 20540 PWs)   bands (ev):

  -111.4733-111.4732-111.4731-111.3886-111.3831-111.3831-111.2105-111.2104
  -111.2102 -68.9193 -68.9182 -68.9176 -68.9166 -68.9158 -68.9147 -68.8482
   -68.8481 -68.8264 -68.8260 -68.7941 -68.7939 -68.7742 -68.7708 -68.7690
   -68.7257 -68.7248 -68.7239 -68.7085 -68.6883 -68.6882 -68.5999 -68.5990
   -68.5982 -68.5100 -68.5085 -68.5070 -32.5299 -32.3363 -31.5457 -16.2053
   -16.0718 -16.0571 -16.0209 -15.9486 -15.9290 -15.2921 -15.2728 -15.2139
    -3.9798  -3.2506  -2.5875  -2.4807  -2.3750  -2.2976  -2.2721  -2.1970
    -2.1706  -2.1379  -2.0678  -2.0441  -1.9864  -1.9594  -1.9318  -1.8735
    -1.7850  -1.7701  -1.7168  -1.6832  -1.6396  -1.6318  -1.6065  -1.5145
    -1.5013  -1.5012  -1.4746  -1.4003  -1.4000  -1.3923  -1.3883  -1.3554
    -1.3415  -1.3216  -1.2970  -1.2948  -1.2472  -1.2276  -1.2083  -1.1804
    -1.1311  -1.1199  -1.1084  -1.0671  -1.0154  -1.0072  -0.8817  -0.8641
    -0.6657  -0.2030   0.2253   0.3651   0.4741   0.8204   1.0115   1.5186
     1.8079   1.9279   1.9542   2.0496   2.0837   2.2615   2.3363   2.3418
     2.3555   2.4288   2.4288   2.4452   2.5079   2.5344   2.5841   2.5844
     2.6423   2.6854   2.7338   2.7533   2.8909   3.0522   3.0627   3.3310
     3.3411   3.3697   3.4128   3.4612

     the Fermi energy is     1.1317 ev

!    total energy              =   -3956.45308873 Ry
     Harris-Foulkes estimate   =   -3956.45308750 Ry
     estimated scf accuracy    <       0.00000026 Ry

     The total energy is the sum of the following terms:

     one-electron contribution =  -22135.12092339 Ry
     hartree contribution      =   11084.05804729 Ry
     xc contribution           =    -511.84536957 Ry
     ewald contribution        =    7606.49660634 Ry
     electric field correction =       0.00008471 Ry
     smearing contrib. (-TS)   =      -0.04153411 Ry

     convergence has been achieved in  21 iterations

 BEEF-vdW xc energy contributions
           1 :   -453.631972550199
           2 :    412.680726217043
           3 :   -342.598347325778
           4 :    261.640666586277
           5 :   -186.969202704592
           6 :    128.850566056193
           7 :   -88.9766322879869
           8 :    62.8590129547745
           9 :   -44.2766293065667
          10 :    29.0472258645153
          11 :   -16.2703271817453
          12 :    7.01432292171864
          13 :   -2.00580870170950
          14 :   0.194136577434222
          15 :   0.892627735535029
          16 :   -3.50867316816675
          17 :    8.13936235589711
          18 :   -13.2215499050351
          19 :    16.3081575594936
          20 :   -15.8113151123887
          21 :    12.1029090180315
          22 :   -7.27136602324748
          23 :    3.78105553425712
          24 :   -2.99185869926004
          25 :    4.50541999112829
          26 :   -6.67580508245334
          27 :    7.82335331111915
          28 :   -7.28417167768669
          29 :    5.63761678512952
          30 :   -4.08121793195335
          31 :   -36.7464575492688
          32 :   -25.3523336170782

     Forces acting on atoms (Ry/au):

     negative rho (up, down):  1.519E-01 0.000E+00
     atom    1 type  1   force =     0.00000032   -0.01218323    0.01429321
     atom    2 type  1   force =    -0.01055022    0.00609252    0.01429424
     atom    3 type  1   force =     0.01055084    0.00609153    0.01429366
     atom    4 type  2   force =    -0.00000024    0.00000059   -0.01545167
     atom    5 type  1   force =    -0.00000025    0.00999961   -0.00252692
     atom    6 type  1   force =     0.00865896   -0.00499918   -0.00252772
     atom    7 type  1   force =    -0.00865832   -0.00499965   -0.00252730
     atom    8 type  2   force =    -0.00000027   -0.00000014   -0.01348709
     atom    9 type  1   force =    -0.00000072    0.00040483   -0.00154679
     atom   10 type  1   force =     0.00035219   -0.00020336   -0.00154771
     atom   11 type  1   force =    -0.00035250   -0.00020293   -0.00154982
     atom   12 type  2   force =     0.00000021   -0.00000058   -0.00171609

     Total force =     0.042527     Total SCF correction =     0.002708

     entering subroutine stress ...

     negative rho (up, down):  1.519E-01 0.000E+00
          total   stress  (Ry/bohr**3)                   (kbar)     P=  -12.55
  -0.00009283  -0.00000000  -0.00000000        -13.66     -0.00     -0.00
  -0.00000000  -0.00009283  -0.00000000         -0.00    -13.66     -0.00
  -0.00000000  -0.00000000  -0.00007038         -0.00     -0.00    -10.35

 !ASE

     Writing output data file calc.save

     General routines

     Parallel routines

   This run was terminated on:   6:46:29  26Dec2018

   JOB DONE.
Job  /afs/slac/g/suncat/bin/suncat-tsmpirun -x LD_LIBRARY_PATH -wdir /scratch/qe109572_UwZf0 pw.x -in pw.inp

TID   HOST_NAME   COMMAND_LINE            STATUS            TERMINATION_TIME
00000 suncat0108 pw.x -in pw.inp   Done                     12/26/2018 06:46:29
00001 suncat0108 pw.x -in pw.inp   Done                     12/26/2018 06:46:29
00002 suncat0108 pw.x -in pw.inp   Done                     12/26/2018 06:46:29
00003 suncat0108 pw.x -in pw.inp   Done                     12/26/2018 06:46:29
00004 suncat0108 pw.x -in pw.inp   Done                     12/26/2018 06:46:29
00005 suncat0108 pw.x -in pw.inp   Done                     12/26/2018 06:46:29
00006 suncat0108 pw.x -in pw.inp   Done                     12/26/2018 06:46:29
00007 suncat0108 pw.x -in pw.inp   Done                     12/26/2018 06:46:29
00008 suncat0107 pw.x -in pw.inp   Done                     12/26/2018 06:46:29
00009 suncat0107 pw.x -in pw.inp   Done                     12/26/2018 06:46:29
00010 suncat0107 pw.x -in pw.inp   Done                     12/26/2018 06:46:29
00011 suncat0107 pw.x -in pw.inp   Done                     12/26/2018 06:46:29
00012 suncat0107 pw.x -in pw.inp   Done                     12/26/2018 06:46:29
00013 suncat0107 pw.x -in pw.inp   Done                     12/26/2018 06:46:29
00014 suncat0107 pw.x -in pw.inp   Done                     12/26/2018 06:46:29
00015 suncat0107 pw.x -in pw.inp   Done                     12/26/2018 06:46:29
00016 suncat0106 pw.x -in pw.inp   Done                     12/26/2018 06:46:29
00017 suncat0106 pw.x -in pw.inp   Done                     12/26/2018 06:46:29
00018 suncat0106 pw.x -in pw.inp   Done                     12/26/2018 06:46:29
00019 suncat0106 pw.x -in pw.inp   Done                     12/26/2018 06:46:29
00020 suncat0106 pw.x -in pw.inp   Done                     12/26/2018 06:46:29
00021 suncat0106 pw.x -in pw.inp   Done                     12/26/2018 06:46:29
00022 suncat0106 pw.x -in pw.inp   Done                     12/26/2018 06:46:29
00023 suncat0106 pw.x -in pw.inp   Done                     12/26/2018 06:46:29
00024 suncat0105 pw.x -in pw.inp   Done                     12/26/2018 06:46:29
00025 suncat0105 pw.x -in pw.inp   Done                     12/26/2018 06:46:29
00026 suncat0105 pw.x -in pw.inp   Done                     12/26/2018 06:46:29
00027 suncat0105 pw.x -in pw.inp   Done                     12/26/2018 06:46:29
00028 suncat0105 pw.x -in pw.inp   Done                     12/26/2018 06:46:29
00029 suncat0105 pw.x -in pw.inp   Done                     12/26/2018 06:46:29
00030 suncat0105 pw.x -in pw.inp   Done                     12/26/2018 06:46:29
00031 suncat0105 pw.x -in pw.inp   Done                     12/26/2018 06:46:29
00032 suncat0238 pw.x -in pw.inp   Done                     12/26/2018 06:46:29
00033 suncat0238 pw.x -in pw.inp   Done                     12/26/2018 06:46:29
00034 suncat0238 pw.x -in pw.inp   Done                     12/26/2018 06:46:29
00035 suncat0238 pw.x -in pw.inp   Done                     12/26/2018 06:46:29
00036 suncat0238 pw.x -in pw.inp   Done                     12/26/2018 06:46:29
00037 suncat0238 pw.x -in pw.inp   Done                     12/26/2018 06:46:29
00038 suncat0238 pw.x -in pw.inp   Done                     12/26/2018 06:46:29
00039 suncat0238 pw.x -in pw.inp   Done                     12/26/2018 06:46:29
00040 suncat0237 pw.x -in pw.inp   Done                     12/26/2018 06:46:29
00041 suncat0237 pw.x -in pw.inp   Done                     12/26/2018 06:46:29
00042 suncat0237 pw.x -in pw.inp   Done                     12/26/2018 06:46:29
00043 suncat0237 pw.x -in pw.inp   Done                     12/26/2018 06:46:29
00044 suncat0237 pw.x -in pw.inp   Done                     12/26/2018 06:46:29
00045 suncat0237 pw.x -in pw.inp   Done                     12/26/2018 06:46:29
00046 suncat0237 pw.x -in pw.inp   Done                     12/26/2018 06:46:29
00047 suncat0237 pw.x -in pw.inp   Done                     12/26/2018 06:46:29
00048 suncat0236 pw.x -in pw.inp   Done                     12/26/2018 06:46:29
00049 suncat0236 pw.x -in pw.inp   Done                     12/26/2018 06:46:29
00050 suncat0236 pw.x -in pw.inp   Done                     12/26/2018 06:46:29
00051 suncat0236 pw.x -in pw.inp   Done                     12/26/2018 06:46:29
00052 suncat0236 pw.x -in pw.inp   Done                     12/26/2018 06:46:29
00053 suncat0236 pw.x -in pw.inp   Done                     12/26/2018 06:46:29
00054 suncat0236 pw.x -in pw.inp   Done                     12/26/2018 06:46:29
00055 suncat0236 pw.x -in pw.inp   Done                     12/26/2018 06:46:29
00056 suncat0235 pw.x -in pw.inp   Done                     12/26/2018 06:46:29
00057 suncat0235 pw.x -in pw.inp   Done                     12/26/2018 06:46:29
00058 suncat0235 pw.x -in pw.inp   Done                     12/26/2018 06:46:29
00059 suncat0235 pw.x -in pw.inp   Done                     12/26/2018 06:46:29
00060 suncat0235 pw.x -in pw.inp   Done                     12/26/2018 06:46:29
00061 suncat0235 pw.x -in pw.inp   Done                     12/26/2018 06:46:29
00062 suncat0235 pw.x -in pw.inp   Done                     12/26/2018 06:46:29
00063 suncat0235 pw.x -in pw.inp   Done                     12/26/2018 06:46:29