     Program PWSCF v.5.1rc2 (svn rev. 11289) starts on 30Dec2018 at 22:29:33

     Current dimensions of program PWSCF are:
     Max number of different atomic species (ntypx) = 10
     Max number of k-points (npk) =  40000
     Max angular momentum in pseudopotentials (lmaxx) =  3
     Presently stress not available with electric field

     IMPORTANT: XC functional enforced from input :
     Exchange-correlation      = BEEF-VDW ( 1  4 27 13 2)
     Any further DFT definition will be discarded
     Please, verify this is what you really want

     Subspace diagonalization in iterative solution of the eigenvalue problem:
     a serial algorithm will be used

     Generating pointlists ...
     new r_m :   0.4125 (alat units)  0.7795 (a.u.) for type    1
     new r_m :   0.4125 (alat units)  0.7795 (a.u.) for type    2

     bravais-lattice index     =            0
     lattice parameter (alat)  =       1.8897  a.u.
     unit-cell volume          =    3615.5041 (a.u.)^3
     number of atoms/cell      =           12
     number of atomic types    =            2
     number of electrons       =       171.00
     number of Kohn-Sham states=          115
     kinetic-energy cutoff     =      36.7493  Ry
     charge density cutoff     =     367.4932  Ry
     convergence threshold     =      1.0E-06
     mixing beta               =       0.1000
     number of iterations used =           10  plain     mixing
     Exchange-correlation      = BEEF-VDW ( 1  4 27 13 2)
     nstep                     =           50

     celldm(1)=   1.889726  celldm(2)=   0.000000  celldm(3)=   0.000000
     celldm(4)=   0.000000  celldm(5)=   0.000000  celldm(6)=   0.000000

     crystal axes: (cart. coord. in units of alat)
               a(1) = (   5.062989   0.000000   0.000000 )
               a(2) = (  -2.531494   4.384677   0.000000 )
               a(3) = (   0.000000   0.000000  24.133913 )

     reciprocal axes: (cart. coord. in units 2 pi/alat)
               b(1) = (  0.197512  0.114033  0.000000 )
               b(2) = (  0.000000  0.228067  0.000000 )
               b(3) = (  0.000000  0.000000  0.041435 )

     PseudoPot. # 1 for Ni read from file:
     /afs/slac.stanford.edu/u/if/mamunm/psp/gbrv1.5pbe/Ni.UPF
     MD5 check sum: 1ee80287db30b12d2bc1f57a5b5d6409
     Pseudo is Ultrasoft + core correction, Zval = 18.0
     Generated by new atomic code, or converted to UPF format
     Using radial grid of  865 points,  6 beta functions with:
                l(1) =   0
                l(2) =   0
                l(3) =   1
                l(4) =   1
                l(5) =   2
                l(6) =   2
     Q(r) pseudized with 10 coefficients,  rinner =    0.980   0.980   0.980
                                                       0.980   0.980

     PseudoPot. # 2 for Al read from file:
     /afs/slac.stanford.edu/u/if/mamunm/psp/gbrv1.5pbe/Al.UPF
     MD5 check sum: 0a6289f5291fc8f409219462bc851e1f
     Pseudo is Ultrasoft + core correction, Zval =  3.0
     Generated by new atomic code, or converted to UPF format
     Using radial grid of  893 points,  3 beta functions with:
                l(1) =   0
                l(2) =   1
                l(3) =   2
     Q(r) pseudized with  8 coefficients,  rinner =    0.900   0.900   0.900
                                                       0.900   0.900

     vdW kernel table read from file vdW_kernel_table
     MD5 check sum: 095c7af220d748ca6e76c0b4c6cfb241

     atomic species   valence    mass     pseudopotential
        Ni1           18.00    58.69340     Ni( 1.00)
        Al1            3.00    26.98154     Al( 1.00)

     Starting magnetic structure
     atomic species   magnetization
        Ni1          0.111
        Al1          0.667

     No symmetry found

   Cartesian axes

     site n.     atom                  positions (alat units)
         1           Ni1 tau(   1) = (   0.0000000   0.0000000  10.0000000  )
         2           Ni1 tau(   2) = (  -1.2657471   2.1923383  10.0000000  )
         3           Ni1 tau(   3) = (   1.2657471   2.1923383  10.0000000  )
         4           Al1 tau(   4) = (   2.5314943   0.0000000  10.0000000  )
         5           Ni1 tau(   5) = (   2.5314943   1.4615589  12.0669564  )
         6           Ni1 tau(   6) = (   1.2657471   3.6538972  12.0669564  )
         7           Ni1 tau(   7) = (  -1.2657471   3.6538972  12.0669564  )
         8           Al1 tau(   8) = (   0.0000000   1.4615589  12.0669564  )
         9           Ni1 tau(   9) = (  -0.0000000   2.9231178  14.1339128  )
        10           Ni1 tau(  10) = (   1.2657471   0.7307794  14.1339128  )
        11           Ni1 tau(  11) = (   3.7972414   0.7307794  14.1339128  )
        12           Al1 tau(  12) = (   2.5314943   2.9231178  14.1339128  )

     number of k points=    40  Fermi-Dirac smearing, width (Ry)=  0.0110
                       cart. coord. in units 2pi/alat
        k(    1) = (   0.0000000   0.0000000   0.0000000), wk =   0.0277778
        k(    2) = (   0.0000000   0.0380112   0.0000000), wk =   0.0555556
        k(    3) = (   0.0000000   0.0760223   0.0000000), wk =   0.0555556
        k(    4) = (   0.0000000  -0.1140335   0.0000000), wk =   0.0277778
        k(    5) = (   0.0329186   0.0190056   0.0000000), wk =   0.0555556
        k(    6) = (   0.0329186   0.0570167   0.0000000), wk =   0.0555556
        k(    7) = (   0.0329186   0.0950279   0.0000000), wk =   0.0555556
        k(    8) = (   0.0329186  -0.0950279   0.0000000), wk =   0.0555556
        k(    9) = (   0.0329186  -0.0570167   0.0000000), wk =   0.0555556
        k(   10) = (   0.0329186  -0.0190056   0.0000000), wk =   0.0555556
        k(   11) = (   0.0658373   0.0380112   0.0000000), wk =   0.0555556
        k(   12) = (   0.0658373   0.0760223   0.0000000), wk =   0.0555556
        k(   13) = (   0.0658373   0.1140335   0.0000000), wk =   0.0555556
        k(   14) = (   0.0658373  -0.0760223   0.0000000), wk =   0.0555556
        k(   15) = (   0.0658373  -0.0380112   0.0000000), wk =   0.0555556
        k(   16) = (   0.0658373   0.0000000   0.0000000), wk =   0.0555556
        k(   17) = (  -0.0987559  -0.0570167   0.0000000), wk =   0.0277778
        k(   18) = (  -0.0987559  -0.0190056   0.0000000), wk =   0.0555556
        k(   19) = (  -0.0987559   0.0190056   0.0000000), wk =   0.0555556
        k(   20) = (  -0.0987559  -0.1710502   0.0000000), wk =   0.0277778
        k(   21) = (   0.0000000   0.0000000   0.0000000), wk =   0.0277778
        k(   22) = (   0.0000000   0.0380112   0.0000000), wk =   0.0555556
        k(   23) = (   0.0000000   0.0760223   0.0000000), wk =   0.0555556
        k(   24) = (   0.0000000  -0.1140335   0.0000000), wk =   0.0277778
        k(   25) = (   0.0329186   0.0190056   0.0000000), wk =   0.0555556
        k(   26) = (   0.0329186   0.0570167   0.0000000), wk =   0.0555556
        k(   27) = (   0.0329186   0.0950279   0.0000000), wk =   0.0555556
        k(   28) = (   0.0329186  -0.0950279   0.0000000), wk =   0.0555556
        k(   29) = (   0.0329186  -0.0570167   0.0000000), wk =   0.0555556
        k(   30) = (   0.0329186  -0.0190056   0.0000000), wk =   0.0555556
        k(   31) = (   0.0658373   0.0380112   0.0000000), wk =   0.0555556
        k(   32) = (   0.0658373   0.0760223   0.0000000), wk =   0.0555556
        k(   33) = (   0.0658373   0.1140335   0.0000000), wk =   0.0555556
        k(   34) = (   0.0658373  -0.0760223   0.0000000), wk =   0.0555556
        k(   35) = (   0.0658373  -0.0380112   0.0000000), wk =   0.0555556
        k(   36) = (   0.0658373   0.0000000   0.0000000), wk =   0.0555556
        k(   37) = (  -0.0987559  -0.0570167   0.0000000), wk =   0.0277778
        k(   38) = (  -0.0987559  -0.0190056   0.0000000), wk =   0.0555556
        k(   39) = (  -0.0987559   0.0190056   0.0000000), wk =   0.0555556
        k(   40) = (  -0.0987559  -0.1710502   0.0000000), wk =   0.0277778

     Largest allocated arrays     est. size (Mb)     dimensions
     Largest temporary arrays     est. size (Mb)     dimensions

     Check: negative/imaginary core charge=   -0.000002    0.000000

     Initial potential from superposition of free atoms
     Check: negative starting charge=(component1):   -0.000311
     Check: negative starting charge=(component2):   -0.000248

     starting charge  152.99260, renormalised to  171.00000

     negative rho (up, down):  3.471E-04 2.776E-04

     *
     * You are using vdW-DF for exchange-correlation in this calculation.
     * Please cite the following three references that made this development
     * possible:
     *
     *   M. Dion, H. Rydberg, E. Schroder, D. C. Langreth, and
     *   B. I. Lundqvist, Phys. Rev. Lett. 92, 246401 (2004).
     *
     *   T. Thonhauser, V. R. Cooper, S. Li, A. Puzder, P. Hyldgaard, and
     *   D. C. Langreth, Phys. Rev. B 76, 125112 (2007).
     *
     *   G. Roman-Perez and J. M. Soler, Phys. Rev. Lett. 103, 096102 (2009).
     *
     *
     * If you are using vdW-DF2, please also cite:
     *
     *   K. Lee, E. D. Murray, L. Kong, B. I. Lundqvist, and
     *   D. C. Langreth, Phys. Rev. B 82, 081101(R) (2010).
     *
     *
     * If you are calculating the stress with vdW-DF, please also cite:
     *
     *   R. Sabatini, E. Kucukbenli, B. Kolb, T. Thonhauser, and
     *   S. de Gironcoli, J. Phys.: Condens. Matter 24, 424209 (2012).
     *

     Carrying out vdW-DF run using the following parameters:

     Nqs =      20    Nr_points =    1024   r_max =   100.000
     q_mesh =
               0.00001000     0.04494208     0.09755937     0.15916263
               0.23128650     0.31572767     0.41458969     0.53033537
               0.66584808     0.82450364     1.01025438     1.22772762
               1.48234092     1.78043706     2.12944203     2.53805004
               3.01644009     3.57652955     4.23227104     5.00000000

     Gradients computed in reciprocal space

     Adding external electric field

     Computed dipole along edir(3) :
        Dipole                0.0000 Ry au,          0.0000 Debye
        Dipole field          0.0000 Ry au

        Potential amp.       -0.0000 Ry
        Total length         44.4663 bohr

[...]

     Starting wfc are  129 randomized atomic wfcs

     Self-consistent Calculation

     iteration #  1     ecut=    36.75 Ry     beta=0.10
     Davidson diagonalization with overlap
     ethr =  1.00E-02,  avg # of iterations =  7.8

[...]

     Magnetic moment per site:
     atom:    1    charge:    9.8973    magn:    1.0532    constr:    0.0000
     atom:    2    charge:    9.8973    magn:    1.0532    constr:    0.0000
     atom:    3    charge:    9.8973    magn:    1.0532    constr:    0.0000
     atom:    4    charge:    0.1095    magn:    0.0534    constr:    0.0000
     atom:    5    charge:    9.9012    magn:    1.0550    constr:    0.0000
     atom:    6    charge:    9.9012    magn:    1.0550    constr:    0.0000
     atom:    7    charge:    9.9012    magn:    1.0550    constr:    0.0000
     atom:    8    charge:    0.1102    magn:    0.0537    constr:    0.0000
     atom:    9    charge:    9.8973    magn:    1.0532    constr:    0.0000
[...]
        k(    3) = (   0.0000000   0.0760223   0.0000000), wk =   0.0555556
        k(    4) = (   0.0000000  -0.1140335   0.0000000), wk =   0.0277778
        k(    5) = (   0.0329186   0.0190056   0.0000000), wk =   0.0555556
        k(    6) = (   0.0329186   0.0570167   0.0000000), wk =   0.0555556
        k(    7) = (   0.0329186   0.0950279   0.0000000), wk =   0.0555556
        k(    8) = (   0.0329186  -0.0950279   0.0000000), wk =   0.0555556
        k(    9) = (   0.0329186  -0.0570167   0.0000000), wk =   0.0555556
        k(   10) = (   0.0329186  -0.0190056   0.0000000), wk =   0.0555556
        k(   11) = (   0.0658373   0.0380112   0.0000000), wk =   0.0555556
        k(   12) = (   0.0658373   0.0760223   0.0000000), wk =   0.0555556
        k(   13) = (   0.0658373   0.1140335   0.0000000), wk =   0.0555556
        k(   14) = (   0.0658373  -0.0760223   0.0000000), wk =   0.0555556
        k(   15) = (   0.0658373  -0.0380112   0.0000000), wk =   0.0555556
        k(   16) = (   0.0658373   0.0000000   0.0000000), wk =   0.0555556
        k(   17) = (  -0.0987559  -0.0570167   0.0000000), wk =   0.0277778
        k(   18) = (  -0.0987559  -0.0190056   0.0000000), wk =   0.0555556
        k(   19) = (  -0.0987559   0.0190056   0.0000000), wk =   0.0555556
        k(   20) = (  -0.0987559  -0.1710502   0.0000000), wk =   0.0277778
        k(   21) = (   0.0000000   0.0000000   0.0000000), wk =   0.0277778
        k(   22) = (   0.0000000   0.0380112   0.0000000), wk =   0.0555556
        k(   23) = (   0.0000000   0.0760223   0.0000000), wk =   0.0555556
        k(   24) = (   0.0000000  -0.1140335   0.0000000), wk =   0.0277778
        k(   25) = (   0.0329186   0.0190056   0.0000000), wk =   0.0555556
        k(   26) = (   0.0329186   0.0570167   0.0000000), wk =   0.0555556
        k(   27) = (   0.0329186   0.0950279   0.0000000), wk =   0.0555556
        k(   28) = (   0.0329186  -0.0950279   0.0000000), wk =   0.0555556
        k(   29) = (   0.0329186  -0.0570167   0.0000000), wk =   0.0555556
        k(   30) = (   0.0329186  -0.0190056   0.0000000), wk =   0.0555556
        k(   31) = (   0.0658373   0.0380112   0.0000000), wk =   0.0555556
        k(   32) = (   0.0658373   0.0760223   0.0000000), wk =   0.0555556
        k(   33) = (   0.0658373   0.1140335   0.0000000), wk =   0.0555556
        k(   34) = (   0.0658373  -0.0760223   0.0000000), wk =   0.0555556
        k(   35) = (   0.0658373  -0.0380112   0.0000000), wk =   0.0555556
        k(   36) = (   0.0658373   0.0000000   0.0000000), wk =   0.0555556
        k(   37) = (  -0.0987559  -0.0570167   0.0000000), wk =   0.0277778
        k(   38) = (  -0.0987559  -0.0190056   0.0000000), wk =   0.0555556
        k(   39) = (  -0.0987559   0.0190056   0.0000000), wk =   0.0555556
        k(   40) = (  -0.0987559  -0.1710502   0.0000000), wk =   0.0277778

     Largest allocated arrays     est. size (Mb)     dimensions
     Largest temporary arrays     est. size (Mb)     dimensions

     Check: negative/imaginary core charge=   -0.000002    0.000000

     Initial potential from superposition of free atoms
     Check: negative starting charge=(component1):   -0.000320
     Check: negative starting charge=(component2):   -0.000256

     starting charge  152.99260, renormalised to  171.00000

[...]

     *
     * You are using vdW-DF for exchange-correlation in this calculation.
     * Please cite the following three references that made this development
     * possible:
     *
     *   M. Dion, H. Rydberg, E. Schroder, D. C. Langreth, and
     *   B. I. Lundqvist, Phys. Rev. Lett. 92, 246401 (2004).
     *
     *   T. Thonhauser, V. R. Cooper, S. Li, A. Puzder, P. Hyldgaard, and
     *   D. C. Langreth, Phys. Rev. B 76, 125112 (2007).
     *
     *   G. Roman-Perez and J. M. Soler, Phys. Rev. Lett. 103, 096102 (2009).
     *
     *
     * If you are using vdW-DF2, please also cite:
     *
     *   K. Lee, E. D. Murray, L. Kong, B. I. Lundqvist, and
     *   D. C. Langreth, Phys. Rev. B 82, 081101(R) (2010).
     *
     *
     * If you are calculating the stress with vdW-DF, please also cite:
     *
     *   R. Sabatini, E. Kucukbenli, B. Kolb, T. Thonhauser, and
     *   S. de Gironcoli, J. Phys.: Condens. Matter 24, 424209 (2012).
     *

     Carrying out vdW-DF run using the following parameters:

     Nqs =      20    Nr_points =    1024   r_max =   100.000
     q_mesh =
               0.00001000     0.04494208     0.09755937     0.15916263
               0.23128650     0.31572767     0.41458969     0.53033537
               0.66584808     0.82450364     1.01025438     1.22772762
               1.48234092     1.78043706     2.12944203     2.53805004
               3.01644009     3.57652955     4.23227104     5.00000000

     Gradients computed in reciprocal space

[...]

     Starting wfc are  129 randomized atomic wfcs

     Self-consistent Calculation

[...]

     total energy              =   -3120.66885694 Ry
     Harris-Foulkes estimate   =   -3120.66885485 Ry
     estimated scf accuracy    <       0.00000165 Ry

[...]

     iteration # 47     ecut=    36.75 Ry     beta=0.10
     Davidson diagonalization with overlap
     ethr =  9.67E-10,  avg # of iterations =  2.0

[...]

     negative rho (up, down):  8.024E-04 8.000E-04

[...]

     Adding external electric field

     Computed dipole along edir(3) :
        Dipole                0.0050 Ry au,          0.0126 Debye
        Dipole field          0.0000 Ry au

        Potential amp.       -0.0015 Ry
        Total length         44.4663 bohr

     Magnetic moment per site:
     atom:    1    charge:    9.3470    magn:    0.0078    constr:    0.0000
     atom:    2    charge:    9.3471    magn:    0.0078    constr:    0.0000
     atom:    3    charge:    9.3470    magn:    0.0078    constr:    0.0000
     atom:    4    charge:    0.0797    magn:   -0.0000    constr:    0.0000
     atom:    5    charge:    9.3442    magn:    0.0078    constr:    0.0000
     atom:    6    charge:    9.3441    magn:    0.0078    constr:    0.0000
     atom:    7    charge:    9.3441    magn:    0.0078    constr:    0.0000
     atom:    8    charge:    0.0792    magn:   -0.0001    constr:    0.0000
     atom:    9    charge:    9.3514    magn:    0.0063    constr:    0.0000
     atom:   10    charge:    9.3514    magn:    0.0062    constr:    0.0000
     atom:   11    charge:    9.3514    magn:    0.0062    constr:    0.0000
     atom:   12    charge:    0.0795    magn:   -0.0000    constr:    0.0000

     End of self-consistent calculation

 ------ SPIN UP ------------

[...]

 ------ SPIN DOWN ----------

[...]

          k = 0.0658 0.0000 0.0000 ( 13617 PWs)   bands (ev):

[...]

          k =-0.0988-0.1711 0.0000 ( 13630 PWs)   bands (ev):

  -102.9395-102.9350-102.9305-102.7216-102.7172-102.7127-102.6937-102.6895
  -102.6848 -63.3692 -63.3590 -63.3525 -63.3493 -63.3263 -63.3157 -63.3112
   -63.2879 -63.2469 -63.1921 -63.1697 -63.1547 -63.1522 -63.1458 -63.1447
   -63.1311 -63.1278 -63.1227 -63.1217 -63.1003 -63.0775 -63.0172 -63.0135
   -63.0095 -62.9819 -62.9779 -62.9740  -7.2687  -6.9456  -5.4454  -5.0810
    -4.1024  -3.9394  -3.6804  -3.1064  -2.8979  -2.8294  -2.7350  -2.5365
    -2.4572  -2.4077  -2.3279  -2.1821  -2.0935  -2.0320  -1.9937  -1.9772
    -1.8959  -1.7250  -1.6549  -1.6079  -1.5393  -1.4510  -1.4325  -1.3750
    -1.3483  -1.2524  -1.2079  -1.1935  -1.1561  -0.9901  -0.8627  -0.8338
    -0.8100  -0.7936  -0.7570  -0.6894  -0.6046  -0.5956  -0.5379  -0.4932
    -0.4647  -0.2785  -0.2051  -0.1547   0.0086   0.1917   0.5824   0.7049
     1.2078   1.2784   1.6566   2.4404   2.8484   3.4097   3.5717   5.5723
     5.6551   6.0988   6.2401   6.3577   6.3758   6.6837   6.6962   6.7875
     6.8469   6.9661   7.0330   7.6925   7.7243   7.9206   7.9569   7.9939
     8.1557   8.4739   8.7168

     the Fermi energy is     0.1907 ev

!    total energy              =   -3120.66888000 Ry
     Harris-Foulkes estimate   =   -3120.66885840 Ry
     estimated scf accuracy    <       0.00000086 Ry

     The total energy is the sum of the following terms:

     one-electron contribution =  -22271.86866136 Ry
     hartree contribution      =   11144.93740907 Ry
     xc contribution           =    -344.63037925 Ry
     ewald contribution        =    8350.97105934 Ry
     electric field correction =       0.00000009 Ry
     smearing contrib. (-TS)   =      -0.07830789 Ry

     total magnetization       =     0.10 Bohr mag/cell
     absolute magnetization    =     0.13 Bohr mag/cell

     convergence has been achieved in  47 iterations

 BEEF-vdW xc energy contributions
           1 :   -302.878399111590
           2 :    274.140252962247
           3 :   -225.944544676646
           4 :    172.424766908562
           5 :   -126.394765643149
           6 :    94.6331184041233
           7 :   -76.7164273129658
           8 :    67.3516291207009
           9 :   -60.3864342726472
          10 :    52.1005071643380
          11 :   -42.2558005127310
          12 :    32.9102824079075
          13 :   -26.2544823775798
          14 :    22.9708939601556
          15 :   -21.9746550269841
          16 :    21.3606888181936
          17 :   -19.7068952726193
          18 :    16.8353246946808
          19 :   -13.6564903367589
          20 :    11.3432698668727
          21 :   -10.4689392554101
          22 :    10.6639293792128
          23 :   -10.9538470129555
          24 :    10.4698902129035
          25 :   -9.02382818290289
          26 :    7.17083386150875
          27 :   -5.76656519944726
          28 :    5.35107208014898
          29 :   -5.79292724505700
          30 :    6.41670871438134
          31 :   -25.8384432017988
          32 :   -18.1316319850956

     Forces acting on atoms (Ry/au):

     negative rho (up, down):  8.024E-04 8.000E-04
     atom    1 type  1   force =     0.00000030   -0.00090692    0.00824005
     atom    2 type  1   force =    -0.00076554    0.00045940    0.00824413
     atom    3 type  1   force =     0.00077207    0.00046171    0.00822876
     atom    4 type  2   force =     0.00000127   -0.00000042   -0.00439194
     atom    5 type  1   force =    -0.00001301    0.00249685   -0.00457901
     atom    6 type  1   force =     0.00217368   -0.00125094   -0.00460070
     atom    7 type  1   force =    -0.00216798   -0.00123360   -0.00457576
     atom    8 type  2   force =     0.00000109    0.00000221   -0.00858418
     atom    9 type  1   force =     0.00000538    0.00048628    0.00072632
     atom   10 type  1   force =     0.00038004   -0.00026082    0.00074979
     atom   11 type  1   force =    -0.00037998   -0.00026637    0.00074985
     atom   12 type  2   force =    -0.00000732    0.00001262   -0.00020732

     Total force =     0.019574     Total SCF correction =     0.003660
     SCF correction compared to forces is large: reduce conv_thr to get better values

     entering subroutine stress ...

     negative rho (up, down):  8.024E-04 8.000E-04
          total   stress  (Ry/bohr**3)                   (kbar)     P=  -58.41
  -0.00042072   0.00000000  -0.00000000        -61.89      0.00     -0.00
   0.00000000  -0.00042072  -0.00000000          0.00    -61.89     -0.00
  -0.00000000  -0.00000000  -0.00034973         -0.00     -0.00    -51.45

 !ASE

     Writing output data file calc.save

     General routines

     Parallel routines

   This run was terminated on:   4: 4:38  31Dec2018

   JOB DONE.
Job  /afs/slac/g/suncat/bin/suncat-tsmpirun -x LD_LIBRARY_PATH -wdir /scratch/qe648647_gcGb9 pw.x -in pw.inp

TID   HOST_NAME   COMMAND_LINE            STATUS            TERMINATION_TIME
00000 suncat0040 pw.x -in pw.inp   Done                     12/31/2018 04:04:38
00001 suncat0040 pw.x -in pw.inp   Done                     12/31/2018 04:04:38
00002 suncat0040 pw.x -in pw.inp   Done                     12/31/2018 04:04:38
00003 suncat0040 pw.x -in pw.inp   Done                     12/31/2018 04:04:38
00004 suncat0040 pw.x -in pw.inp   Done                     12/31/2018 04:04:38
00005 suncat0040 pw.x -in pw.inp   Done                     12/31/2018 04:04:38
00006 suncat0040 pw.x -in pw.inp   Done                     12/31/2018 04:04:38
00007 suncat0040 pw.x -in pw.inp   Done                     12/31/2018 04:04:38
00008 suncat0017 pw.x -in pw.inp   Done                     12/31/2018 04:04:38
00009 suncat0017 pw.x -in pw.inp   Done                     12/31/2018 04:04:38
00010 suncat0017 pw.x -in pw.inp   Done                     12/31/2018 04:04:38
00011 suncat0017 pw.x -in pw.inp   Done                     12/31/2018 04:04:38
00012 suncat0017 pw.x -in pw.inp   Done                     12/31/2018 04:04:38
00013 suncat0017 pw.x -in pw.inp   Done                     12/31/2018 04:04:38
00014 suncat0017 pw.x -in pw.inp   Done                     12/31/2018 04:04:38
00015 suncat0017 pw.x -in pw.inp   Done                     12/31/2018 04:04:38
00016 suncat0195 pw.x -in pw.inp   Done                     12/31/2018 04:04:38
00017 suncat0195 pw.x -in pw.inp   Done                     12/31/2018 04:04:38
00018 suncat0195 pw.x -in pw.inp   Done                     12/31/2018 04:04:38
00019 suncat0195 pw.x -in pw.inp   Done                     12/31/2018 04:04:38
00020 suncat0195 pw.x -in pw.inp   Done                     12/31/2018 04:04:38
00021 suncat0195 pw.x -in pw.inp   Done                     12/31/2018 04:04:38
00022 suncat0195 pw.x -in pw.inp   Done                     12/31/2018 04:04:38
00023 suncat0195 pw.x -in pw.inp   Done                     12/31/2018 04:04:38
00024 suncat0003 pw.x -in pw.inp   Done                     12/31/2018 04:04:38
00025 suncat0003 pw.x -in pw.inp   Done                     12/31/2018 04:04:38
00026 suncat0003 pw.x -in pw.inp   Done                     12/31/2018 04:04:38
00027 suncat0003 pw.x -in pw.inp   Done                     12/31/2018 04:04:38
00028 suncat0003 pw.x -in pw.inp   Done                     12/31/2018 04:04:38
00029 suncat0003 pw.x -in pw.inp   Done                     12/31/2018 04:04:38
00030 suncat0003 pw.x -in pw.inp   Done                     12/31/2018 04:04:38
00031 suncat0003 pw.x -in pw.inp   Done                     12/31/2018 04:04:38
00032 suncat0002 pw.x -in pw.inp   Done                     12/31/2018 04:04:38
00033 suncat0002 pw.x -in pw.inp   Done                     12/31/2018 04:04:38
00034 suncat0002 pw.x -in pw.inp   Done                     12/31/2018 04:04:38
00035 suncat0002 pw.x -in pw.inp   Done                     12/31/2018 04:04:38
00036 suncat0002 pw.x -in pw.inp   Done                     12/31/2018 04:04:38
00037 suncat0002 pw.x -in pw.inp   Done                     12/31/2018 04:04:38
00038 suncat0002 pw.x -in pw.inp   Done                     12/31/2018 04:04:38
00039 suncat0002 pw.x -in pw.inp   Done                     12/31/2018 04:04:38
00040 suncat0179 pw.x -in pw.inp   Done                     12/31/2018 04:04:38
00041 suncat0179 pw.x -in pw.inp   Done                     12/31/2018 04:04:38
00042 suncat0179 pw.x -in pw.inp   Done                     12/31/2018 04:04:38
00043 suncat0179 pw.x -in pw.inp   Done                     12/31/2018 04:04:38
00044 suncat0179 pw.x -in pw.inp   Done                     12/31/2018 04:04:38
00045 suncat0179 pw.x -in pw.inp   Done                     12/31/2018 04:04:38
00046 suncat0179 pw.x -in pw.inp   Done                     12/31/2018 04:04:38
00047 suncat0179 pw.x -in pw.inp   Done                     12/31/2018 04:04:38
00048 suncat0283 pw.x -in pw.inp   Done                     12/31/2018 04:04:38
00049 suncat0283 pw.x -in pw.inp   Done                     12/31/2018 04:04:38
00050 suncat0283 pw.x -in pw.inp   Done                     12/31/2018 04:04:38
00051 suncat0283 pw.x -in pw.inp   Done                     12/31/2018 04:04:38
00052 suncat0283 pw.x -in pw.inp   Done                     12/31/2018 04:04:38
00053 suncat0283 pw.x -in pw.inp   Done                     12/31/2018 04:04:38
00054 suncat0283 pw.x -in pw.inp   Done                     12/31/2018 04:04:38
00055 suncat0283 pw.x -in pw.inp   Done                     12/31/2018 04:04:38
00056 suncat0282 pw.x -in pw.inp   Done                     12/31/2018 04:04:38
00057 suncat0282 pw.x -in pw.inp   Done                     12/31/2018 04:04:38
00058 suncat0282 pw.x -in pw.inp   Done                     12/31/2018 04:04:38
00059 suncat0282 pw.x -in pw.inp   Done                     12/31/2018 04:04:38
00060 suncat0282 pw.x -in pw.inp   Done                     12/31/2018 04:04:38
00061 suncat0282 pw.x -in pw.inp   Done                     12/31/2018 04:04:38
00062 suncat0282 pw.x -in pw.inp   Done                     12/31/2018 04:04:38
00063 suncat0282 pw.x -in pw.inp   Done                     12/31/2018 04:04:38