     Program PWSCF v.5.1rc2 (svn rev. 11289) starts on 26Dec2018 at 21:17:48

     Current dimensions of program PWSCF are:
     Max number of different atomic species (ntypx) = 10
     Max number of k-points (npk) =  40000
     Max angular momentum in pseudopotentials (lmaxx) =  3
     Presently stress not available with electric field

     IMPORTANT: XC functional enforced from input :
     Exchange-correlation      = BEEF-VDW ( 1  4 27 13 2)
     Any further DFT definition will be discarded
     Please, verify this is what you really want

     Subspace diagonalization in iterative solution of the eigenvalue problem:
     a serial algorithm will be used

     Generating pointlists ...
     new r_m :   0.4125 (alat units)  0.7795 (a.u.) for type    1
     new r_m :   0.4125 (alat units)  0.7795 (a.u.) for type    2

     bravais-lattice index     =            0
     lattice parameter (alat)  =       1.8897  a.u.
     unit-cell volume          =    3861.3190 (a.u.)^3
     number of atoms/cell      =           12
     number of atomic types    =            2
     number of electrons       =       180.00
     number of Kohn-Sham states=          120
     kinetic-energy cutoff     =      36.7493  Ry
     charge density cutoff     =     367.4932  Ry
     convergence threshold     =      1.0E-06
     mixing beta               =       0.1000
     number of iterations used =           10  plain     mixing
     Exchange-correlation      = BEEF-VDW ( 1  4 27 13 2)
     nstep                     =           50

     celldm(1)=   1.889726  celldm(2)=   0.000000  celldm(3)=   0.000000
     celldm(4)=   0.000000  celldm(5)=   0.000000  celldm(6)=   0.000000

     crystal axes: (cart. coord. in units of alat)
               a(1) = (   5.218557   0.000000   0.000000 )
               a(2) = (  -2.609279   4.519403   0.000000 )
               a(3) = (   0.000000   0.000000  24.260934 )

     reciprocal axes: (cart. coord. in units 2 pi/alat)
               b(1) = (  0.191624  0.110634  0.000000 )
               b(2) = (  0.000000  0.221268  0.000000 )
               b(3) = (  0.000000  0.000000  0.041219 )

     PseudoPot. # 1 for Mn read from file:
     /afs/slac.stanford.edu/u/if/mamunm/psp/gbrv1.5pbe/Mn.UPF
     MD5 check sum: 82ef2b46521d7a7d9e736dc3972e4928
     Pseudo is Ultrasoft + core correction, Zval = 15.0
     Generated by new atomic code, or converted to UPF format
     Using radial grid of  859 points,  6 beta functions with:
                l(1) =   0
                l(2) =   0
                l(3) =   1
                l(4) =   1
                l(5) =   2
                l(6) =   2
     Q(r) pseudized with  8 coefficients,  rinner =    0.950   0.950   0.950
                                                       0.950   0.950

     PseudoPot. # 2 for Rh read from file:
     /afs/slac.stanford.edu/u/if/mamunm/psp/gbrv1.5pbe/Rh.UPF
     MD5 check sum: 761627e959a2e3a1f56b0b5fe687810e
     Pseudo is Ultrasoft + core correction, Zval = 15.0
     Generated by new atomic code, or converted to UPF format
     Using radial grid of  969 points,  7 beta functions with:
                l(1) =   0
                l(2) =   0
                l(3) =   1
                l(4) =   1
                l(5) =   2
                l(6) =   2
                l(7) =   2
     Q(r) pseudized with  8 coefficients,  rinner =    1.200   1.200   1.200
                                                       1.200   1.200

     vdW kernel table read from file vdW_kernel_table
     MD5 check sum: 095c7af220d748ca6e76c0b4c6cfb241

     atomic species   valence    mass     pseudopotential
        Mn1           15.00    54.93804     Mn( 1.00)
        Rh1           15.00   102.90550     Rh( 1.00)

     Starting magnetic structure
     atomic species   magnetization
        Mn1          0.133
        Rh1          0.133

     No symmetry found

   Cartesian axes

     site n.     atom                  positions (alat units)
         1           Mn1 tau(   1) = (   0.0000000   0.0000000  10.0000000  )
         2           Mn1 tau(   2) = (  -1.3046393   2.2597016  10.0000000  )
         3           Mn1 tau(   3) = (   1.3046393   2.2597016  10.0000000  )
         4           Rh1 tau(   4) = (   2.6092787   0.0000000  10.0000000  )
         5           Mn1 tau(   5) = (   2.6092787   1.5064678  12.1304671  )
         6           Mn1 tau(   6) = (   1.3046393   3.7661694  12.1304671  )
         7           Mn1 tau(   7) = (  -1.3046393   3.7661694  12.1304671  )
         8           Rh1 tau(   8) = (   0.0000000   1.5064678  12.1304671  )
         9           Mn1 tau(   9) = (  -0.0000000   3.0129355  14.2609343  )
        10           Mn1 tau(  10) = (   1.3046393   0.7532339  14.2609343  )
        11           Mn1 tau(  11) = (   3.9139180   0.7532339  14.2609343  )
        12           Rh1 tau(  12) = (   2.6092787   3.0129355  14.2609343  )

     number of k points=    40  Fermi-Dirac smearing, width (Ry)=  0.0110
                       cart. coord. in units 2pi/alat
        k(    1) = (   0.0000000   0.0000000   0.0000000), wk =   0.0277778
        k(    2) = (   0.0000000   0.0368780   0.0000000), wk =   0.0555556
        k(    3) = (   0.0000000   0.0737561   0.0000000), wk =   0.0555556
        k(    4) = (   0.0000000  -0.1106341   0.0000000), wk =   0.0277778
        k(    5) = (   0.0319373   0.0184390   0.0000000), wk =   0.0555556
        k(    6) = (   0.0319373   0.0553170   0.0000000), wk =   0.0555556
        k(    7) = (   0.0319373   0.0921951   0.0000000), wk =   0.0555556
        k(    8) = (   0.0319373  -0.0921951   0.0000000), wk =   0.0555556
        k(    9) = (   0.0319373  -0.0553170   0.0000000), wk =   0.0555556
        k(   10) = (   0.0319373  -0.0184390   0.0000000), wk =   0.0555556
        k(   11) = (   0.0638746   0.0368780   0.0000000), wk =   0.0555556
        k(   12) = (   0.0638746   0.0737561   0.0000000), wk =   0.0555556
        k(   13) = (   0.0638746   0.1106341   0.0000000), wk =   0.0555556
        k(   14) = (   0.0638746  -0.0737561   0.0000000), wk =   0.0555556
        k(   15) = (   0.0638746  -0.0368780   0.0000000), wk =   0.0555556
        k(   16) = (   0.0638746   0.0000000   0.0000000), wk =   0.0555556
        k(   17) = (  -0.0958119  -0.0553170   0.0000000), wk =   0.0277778
        k(   18) = (  -0.0958119  -0.0184390   0.0000000), wk =   0.0555556
        k(   19) = (  -0.0958119   0.0184390   0.0000000), wk =   0.0555556
        k(   20) = (  -0.0958119  -0.1659511   0.0000000), wk =   0.0277778
        k(   21) = (   0.0000000   0.0000000   0.0000000), wk =   0.0277778
        k(   22) = (   0.0000000   0.0368780   0.0000000), wk =   0.0555556
        k(   23) = (   0.0000000   0.0737561   0.0000000), wk =   0.0555556
        k(   24) = (   0.0000000  -0.1106341   0.0000000), wk =   0.0277778
        k(   25) = (   0.0319373   0.0184390   0.0000000), wk =   0.0555556
        k(   26) = (   0.0319373   0.0553170   0.0000000), wk =   0.0555556
        k(   27) = (   0.0319373   0.0921951   0.0000000), wk =   0.0555556
        k(   28) = (   0.0319373  -0.0921951   0.0000000), wk =   0.0555556
        k(   29) = (   0.0319373  -0.0553170   0.0000000), wk =   0.0555556
        k(   30) = (   0.0319373  -0.0184390   0.0000000), wk =   0.0555556
        k(   31) = (   0.0638746   0.0368780   0.0000000), wk =   0.0555556
        k(   32) = (   0.0638746   0.0737561   0.0000000), wk =   0.0555556
        k(   33) = (   0.0638746   0.1106341   0.0000000), wk =   0.0555556
        k(   34) = (   0.0638746  -0.0737561   0.0000000), wk =   0.0555556
        k(   35) = (   0.0638746  -0.0368780   0.0000000), wk =   0.0555556
        k(   36) = (   0.0638746   0.0000000   0.0000000), wk =   0.0555556
        k(   37) = (  -0.0958119  -0.0553170   0.0000000), wk =   0.0277778
        k(   38) = (  -0.0958119  -0.0184390   0.0000000), wk =   0.0555556
        k(   39) = (  -0.0958119   0.0184390   0.0000000), wk =   0.0555556
        k(   40) = (  -0.0958119  -0.1659511   0.0000000), wk =   0.0277778

     Largest allocated arrays     est. size (Mb)     dimensions
     Largest temporary arrays     est. size (Mb)     dimensions

     Check: negative/imaginary core charge=   -0.000007    0.000000

     Initial potential from superposition of free atoms
     Check: negative starting charge=(component1):   -0.093880
     Check: negative starting charge=(component2):   -0.071791

     starting charge  173.99894, renormalised to  180.00000

     negative rho (up, down):  9.712E-02 7.427E-02

     *
     * You are using vdW-DF for exchange-correlation in this calculation.
     * Please cite the following three references that made this development
     * possible:
     *
     *   M. Dion, H. Rydberg, E. Schroder, D. C. Langreth, and
     *   B. I. Lundqvist, Phys. Rev. Lett. 92, 246401 (2004).
     *
     *   T. Thonhauser, V. R. Cooper, S. Li, A. Puzder, P. Hyldgaard, and
     *   D. C. Langreth, Phys. Rev. B 76, 125112 (2007).
     *
     *   G. Roman-Perez and J. M. Soler, Phys. Rev. Lett. 103, 096102 (2009).
     *
     *
     * If you are using vdW-DF2, please also cite:
     *
     *   K. Lee, E. D. Murray, L. Kong, B. I. Lundqvist, and
     *   D. C. Langreth, Phys. Rev. B 82, 081101(R) (2010).
     *
     *
     * If you are calculating the stress with vdW-DF, please also cite:
     *
     *   R. Sabatini, E. Kucukbenli, B. Kolb, T. Thonhauser, and
     *   S. de Gironcoli, J. Phys.: Condens. Matter 24, 424209 (2012).
     *

     Carrying out vdW-DF run using the following parameters:

     Nqs =      20    Nr_points =    1024   r_max =   100.000
     q_mesh =
               0.00001000     0.04494208     0.09755937     0.15916263
               0.23128650     0.31572767     0.41458969     0.53033537
               0.66584808     0.82450364     1.01025438     1.22772762
               1.48234092     1.78043706     2.12944203     2.53805004
               3.01644009     3.57652955     4.23227104     5.00000000

     Gradients computed in reciprocal space

     Adding external electric field

     Computed dipole along edir(3) :
        Dipole                0.0000 Ry au,          0.0000 Debye
        Dipole field          0.0000 Ry au

        Potential amp.       -0.0000 Ry
        Total length         44.7004 bohr

[...]

     Starting wfc are  153 randomized atomic wfcs

     Self-consistent Calculation

     iteration #  1     ecut=    36.75 Ry     beta=0.10
     Davidson diagonalization with overlap
     ethr =  1.00E-02,  avg # of iterations =  5.8

[...]

     Magnetic moment per site:
     atom:    1    charge:    6.0795    magn:    0.7840    constr:    0.0000
     atom:    2    charge:    6.0795    magn:    0.7840    constr:    0.0000
     atom:    3    charge:    6.0795    magn:    0.7840    constr:    0.0000
     atom:    4    charge:    2.7650    magn:    0.3427    constr:    0.0000
     atom:    5    charge:    6.1100    magn:    0.7826    constr:    0.0000
     atom:    6    charge:    6.1100    magn:    0.7826    constr:    0.0000
     atom:    7    charge:    6.1100    magn:    0.7826    constr:    0.0000
[...]
        k(    3) = (   0.0000000   0.0737561   0.0000000), wk =   0.0555556
        k(    4) = (   0.0000000  -0.1106341   0.0000000), wk =   0.0277778
        k(    5) = (   0.0319373   0.0184390   0.0000000), wk =   0.0555556
        k(    6) = (   0.0319373   0.0553170   0.0000000), wk =   0.0555556
        k(    7) = (   0.0319373   0.0921951   0.0000000), wk =   0.0555556
        k(    8) = (   0.0319373  -0.0921951   0.0000000), wk =   0.0555556
        k(    9) = (   0.0319373  -0.0553170   0.0000000), wk =   0.0555556
        k(   10) = (   0.0319373  -0.0184390   0.0000000), wk =   0.0555556
        k(   11) = (   0.0638746   0.0368780   0.0000000), wk =   0.0555556
        k(   12) = (   0.0638746   0.0737561   0.0000000), wk =   0.0555556
        k(   13) = (   0.0638746   0.1106341   0.0000000), wk =   0.0555556
        k(   14) = (   0.0638746  -0.0737561   0.0000000), wk =   0.0555556
        k(   15) = (   0.0638746  -0.0368780   0.0000000), wk =   0.0555556
        k(   16) = (   0.0638746   0.0000000   0.0000000), wk =   0.0555556
        k(   17) = (  -0.0958119  -0.0553170   0.0000000), wk =   0.0277778
        k(   18) = (  -0.0958119  -0.0184390   0.0000000), wk =   0.0555556
        k(   19) = (  -0.0958119   0.0184390   0.0000000), wk =   0.0555556
        k(   20) = (  -0.0958119  -0.1659511   0.0000000), wk =   0.0277778
        k(   21) = (   0.0000000   0.0000000   0.0000000), wk =   0.0277778
        k(   22) = (   0.0000000   0.0368780   0.0000000), wk =   0.0555556
        k(   23) = (   0.0000000   0.0737561   0.0000000), wk =   0.0555556
        k(   24) = (   0.0000000  -0.1106341   0.0000000), wk =   0.0277778
        k(   25) = (   0.0319373   0.0184390   0.0000000), wk =   0.0555556
        k(   26) = (   0.0319373   0.0553170   0.0000000), wk =   0.0555556
        k(   27) = (   0.0319373   0.0921951   0.0000000), wk =   0.0555556
        k(   28) = (   0.0319373  -0.0921951   0.0000000), wk =   0.0555556
        k(   29) = (   0.0319373  -0.0553170   0.0000000), wk =   0.0555556
        k(   30) = (   0.0319373  -0.0184390   0.0000000), wk =   0.0555556
        k(   31) = (   0.0638746   0.0368780   0.0000000), wk =   0.0555556
        k(   32) = (   0.0638746   0.0737561   0.0000000), wk =   0.0555556
        k(   33) = (   0.0638746   0.1106341   0.0000000), wk =   0.0555556
        k(   34) = (   0.0638746  -0.0737561   0.0000000), wk =   0.0555556
        k(   35) = (   0.0638746  -0.0368780   0.0000000), wk =   0.0555556
        k(   36) = (   0.0638746   0.0000000   0.0000000), wk =   0.0555556
        k(   37) = (  -0.0958119  -0.0553170   0.0000000), wk =   0.0277778
        k(   38) = (  -0.0958119  -0.0184390   0.0000000), wk =   0.0555556
        k(   39) = (  -0.0958119   0.0184390   0.0000000), wk =   0.0555556
        k(   40) = (  -0.0958119  -0.1659511   0.0000000), wk =   0.0277778

     Largest allocated arrays     est. size (Mb)     dimensions
     Largest temporary arrays     est. size (Mb)     dimensions

     Check: negative/imaginary core charge=   -0.000007    0.000000

     Initial potential from superposition of free atoms
     Check: negative starting charge=(component1):   -0.094074
     Check: negative starting charge=(component2):   -0.071939

     starting charge  173.99894, renormalised to  180.00000

[...]

     *
     * You are using vdW-DF for exchange-correlation in this calculation.
     * Please cite the following three references that made this development
     * possible:
     *
     *   M. Dion, H. Rydberg, E. Schroder, D. C. Langreth, and
     *   B. I. Lundqvist, Phys. Rev. Lett. 92, 246401 (2004).
     *
     *   T. Thonhauser, V. R. Cooper, S. Li, A. Puzder, P. Hyldgaard, and
     *   D. C. Langreth, Phys. Rev. B 76, 125112 (2007).
     *
     *   G. Roman-Perez and J. M. Soler, Phys. Rev. Lett. 103, 096102 (2009).
     *
     *
     * If you are using vdW-DF2, please also cite:
     *
     *   K. Lee, E. D. Murray, L. Kong, B. I. Lundqvist, and
     *   D. C. Langreth, Phys. Rev. B 82, 081101(R) (2010).
     *
     *
     * If you are calculating the stress with vdW-DF, please also cite:
     *
     *   R. Sabatini, E. Kucukbenli, B. Kolb, T. Thonhauser, and
     *   S. de Gironcoli, J. Phys.: Condens. Matter 24, 424209 (2012).
     *

     Carrying out vdW-DF run using the following parameters:

     Nqs =      20    Nr_points =    1024   r_max =   100.000
     q_mesh =
               0.00001000     0.04494208     0.09755937     0.15916263
               0.23128650     0.31572767     0.41458969     0.53033537
               0.66584808     0.82450364     1.01025438     1.22772762
               1.48234092     1.78043706     2.12944203     2.53805004
               3.01644009     3.57652955     4.23227104     5.00000000

     Gradients computed in reciprocal space

[...]

     Starting wfc are  153 randomized atomic wfcs

     Self-consistent Calculation

[...]

     total energy              =   -2425.53036144 Ry
     Harris-Foulkes estimate   =   -2425.53036120 Ry
     estimated scf accuracy    <       0.00000122 Ry

[...]

     iteration # 59     ecut=    36.75 Ry     beta=0.10
     Davidson diagonalization with overlap
     ethr =  6.78E-10,  avg # of iterations =  1.5

[...]

     negative rho (up, down):  8.731E-02 8.913E-02

[...]

     Adding external electric field

     Computed dipole along edir(3) :
        Dipole                0.0034 Ry au,          0.0086 Debye
        Dipole field          0.0000 Ry au

        Potential amp.       -0.0010 Ry
        Total length         44.7004 bohr

     Magnetic moment per site:
     atom:    1    charge:    5.9941    magn:    1.2768    constr:    0.0000
     atom:    2    charge:    5.9941    magn:    1.2767    constr:    0.0000
     atom:    3    charge:    5.9941    magn:    1.2768    constr:    0.0000
     atom:    4    charge:    2.6934    magn:    0.0167    constr:    0.0000
     atom:    5    charge:    5.9896    magn:    0.5293    constr:    0.0000
     atom:    6    charge:    5.9895    magn:    0.5206    constr:    0.0000
     atom:    7    charge:    5.9895    magn:    0.5201    constr:    0.0000
     atom:    8    charge:    2.7113    magn:    0.0373    constr:    0.0000
     atom:    9    charge:    6.0066    magn:    1.2956    constr:    0.0000
     atom:   10    charge:    6.0066    magn:    1.2956    constr:    0.0000
     atom:   11    charge:    6.0066    magn:    1.2957    constr:    0.0000
     atom:   12    charge:    2.7061    magn:    0.0169    constr:    0.0000

     End of self-consistent calculation

 ------ SPIN UP ------------

[...]

 ------ SPIN DOWN ----------

[...]

          k = 0.0639 0.0000 0.0000 ( 14559 PWs)   bands (ev):

[...]

          k =-0.0958-0.1660 0.0000 ( 14446 PWs)   bands (ev):

   -77.0320 -77.0221 -77.0013 -75.7945 -75.7798 -75.7653 -75.7635 -75.7460
   -75.7323 -45.9478 -45.8456 -45.7985 -45.7837 -45.7744 -45.7661 -45.7519
   -45.7378 -45.6412 -45.1647 -45.1478 -45.1082 -44.9890 -44.9746 -44.8959
   -44.8912 -44.7705 -44.7572 -44.7502 -44.7208 -44.6504 -44.6342 -44.6285
   -44.6120 -44.5995 -44.5681 -44.5507 -44.5260 -44.4936 -44.4605 -44.4583
   -44.4454 -44.4367 -44.4242 -44.4060 -44.4032  -3.8569  -3.7130  -2.7518
    -2.4215  -2.3595  -2.3346  -1.9820  -1.8998  -1.7605  -1.7234  -1.5382
    -1.4453  -1.2814  -1.2219  -1.1965  -1.0312  -0.8675  -0.7587  -0.6604
    -0.3681  -0.1270  -0.1168  -0.0613   0.3583   0.3855   0.6383   0.8283
     0.8721   0.9949   1.0369   1.2553   1.2988   1.3508   1.3883   1.4329
     1.4779   1.5438   1.7239   1.8092   1.8099   1.9012   2.0204   2.1527
     2.3148   2.4925   2.5782   2.7310   2.8639   2.9284   2.9374   3.0109
     3.0342   3.0583   3.0903   3.1695   3.2534   3.3951   3.5085   3.5829
     3.5835   3.8276   3.8733   3.8991   4.0246   4.5715   4.6168   5.3531
     5.5166   5.8694   6.0706   6.0792   6.0919   7.2367   7.2643   7.4367

     the Fermi energy is     1.4518 ev

!    total energy              =   -2425.53036284 Ry
     Harris-Foulkes estimate   =   -2425.53036154 Ry
     estimated scf accuracy    <       0.00000085 Ry

     The total energy is the sum of the following terms:

     one-electron contribution =  -21415.47428060 Ry
     hartree contribution      =   10716.27191958 Ry
     xc contribution           =    -341.52691847 Ry
     ewald contribution        =    8615.32539969 Ry
     electric field correction =       0.00000004 Ry
     smearing contrib. (-TS)   =      -0.12648308 Ry

     total magnetization       =    24.19 Bohr mag/cell
     absolute magnetization    =    24.62 Bohr mag/cell

     convergence has been achieved in  59 iterations

 BEEF-vdW xc energy contributions
           1 :   -297.940264830434
           2 :    270.462372578755
           3 :   -224.214292711926
           4 :    172.333822359256
           5 :   -126.674876395579
           6 :    93.7577659917578
           7 :   -73.9045364232844
           8 :    63.1047289051278
           9 :   -56.0694107067372
          10 :    48.8573964348947
          11 :   -40.0670000871720
          12 :    30.4602237978495
          13 :   -21.6827630226205
          14 :    15.0155693652812
          15 :   -10.7768249359308
          16 :    8.41767825550369
          17 :   -7.00084673722085
          18 :    5.70603282472973
          19 :   -4.13862834069664
          20 :    2.36153368177804
          21 :  -0.708883095525721
          22 :  -0.480533782949124
          23 :    1.06723648215518
          24 :   -1.17727070228852
          25 :    1.11888024784832
          26 :   -1.20112404850096
          27 :    1.55538696182259
          28 :   -2.07537000632965
          29 :    2.51545291325772
          30 :   -2.67779627828776
          31 :   -27.7237807444088
          32 :   -20.0009374716929

     Forces acting on atoms (Ry/au):

     negative rho (up, down):  8.731E-02 8.913E-02
     atom    1 type  1   force =     0.00000383   -0.01374736   -0.00635304
     atom    2 type  1   force =    -0.01182424    0.00693966   -0.00643994
     atom    3 type  1   force =     0.01181361    0.00692804   -0.00646093
     atom    4 type  2   force =    -0.00000214   -0.00003468    0.00207839
     atom    5 type  1   force =    -0.00000560   -0.00046847    0.00081348
     atom    6 type  1   force =    -0.00040782    0.00022755    0.00081980
     atom    7 type  1   force =     0.00041134    0.00023342    0.00080611
     atom    8 type  2   force =    -0.00000026    0.00000104    0.01116653
     atom    9 type  1   force =     0.00003400   -0.00075445    0.00148409
     atom   10 type  1   force =    -0.00073067    0.00033594    0.00157141
     atom   11 type  1   force =     0.00073585    0.00029934    0.00159345
     atom   12 type  2   force =    -0.00002791    0.00003998   -0.00107937

     Total force =     0.028809     Total SCF correction =     0.001926

     entering subroutine stress ...

     negative rho (up, down):  8.731E-02 8.913E-02
          total   stress  (Ry/bohr**3)                   (kbar)     P=   -3.25
  -0.00001557  -0.00000000   0.00000001         -2.29     -0.00      0.00
  -0.00000000  -0.00001551  -0.00000019         -0.00     -2.28     -0.03
   0.00000001  -0.00000019  -0.00003526          0.00     -0.03     -5.19

 !ASE

     Writing output data file calc.save

     General routines

     Parallel routines

   This run was terminated on:   0:51:28  27Dec2018

   JOB DONE.
Job  /afs/slac/g/suncat/bin/suncat-tsmpirun -x LD_LIBRARY_PATH -wdir /scratch/qe110084_klF2E pw.x -in pw.inp

TID   HOST_NAME   COMMAND_LINE            STATUS            TERMINATION_TIME
00000 suncat0006 pw.x -in pw.inp   Done                     12/27/2018 00:51:28
00001 suncat0006 pw.x -in pw.inp   Done                     12/27/2018 00:51:28
00002 suncat0006 pw.x -in pw.inp   Done                     12/27/2018 00:51:28
00003 suncat0006 pw.x -in pw.inp   Done                     12/27/2018 00:51:28
00004 suncat0006 pw.x -in pw.inp   Done                     12/27/2018 00:51:28
00005 suncat0006 pw.x -in pw.inp   Done                     12/27/2018 00:51:28
00006 suncat0006 pw.x -in pw.inp   Done                     12/27/2018 00:51:28
00007 suncat0006 pw.x -in pw.inp   Done                     12/27/2018 00:51:28
00008 suncat0005 pw.x -in pw.inp   Done                     12/27/2018 00:51:28
00009 suncat0005 pw.x -in pw.inp   Done                     12/27/2018 00:51:28
00010 suncat0005 pw.x -in pw.inp   Done                     12/27/2018 00:51:28
00011 suncat0005 pw.x -in pw.inp   Done                     12/27/2018 00:51:28
00012 suncat0005 pw.x -in pw.inp   Done                     12/27/2018 00:51:28
00013 suncat0005 pw.x -in pw.inp   Done                     12/27/2018 00:51:28
00014 suncat0005 pw.x -in pw.inp   Done                     12/27/2018 00:51:28
00015 suncat0005 pw.x -in pw.inp   Done                     12/27/2018 00:51:28
00016 suncat0180 pw.x -in pw.inp   Done                     12/27/2018 00:51:28
00017 suncat0180 pw.x -in pw.inp   Done                     12/27/2018 00:51:28
00018 suncat0180 pw.x -in pw.inp   Done                     12/27/2018 00:51:28
00019 suncat0180 pw.x -in pw.inp   Done                     12/27/2018 00:51:28
00020 suncat0180 pw.x -in pw.inp   Done                     12/27/2018 00:51:28
00021 suncat0180 pw.x -in pw.inp   Done                     12/27/2018 00:51:28
00022 suncat0180 pw.x -in pw.inp   Done                     12/27/2018 00:51:28
00023 suncat0180 pw.x -in pw.inp   Done                     12/27/2018 00:51:28
00024 suncat0167 pw.x -in pw.inp   Done                     12/27/2018 00:51:28
00025 suncat0167 pw.x -in pw.inp   Done                     12/27/2018 00:51:28
00026 suncat0167 pw.x -in pw.inp   Done                     12/27/2018 00:51:28
00027 suncat0167 pw.x -in pw.inp   Done                     12/27/2018 00:51:28
00028 suncat0167 pw.x -in pw.inp   Done                     12/27/2018 00:51:28
00029 suncat0167 pw.x -in pw.inp   Done                     12/27/2018 00:51:28
00030 suncat0167 pw.x -in pw.inp   Done                     12/27/2018 00:51:28
00031 suncat0167 pw.x -in pw.inp   Done                     12/27/2018 00:51:28
00032 suncat0166 pw.x -in pw.inp   Done                     12/27/2018 00:51:28
00033 suncat0166 pw.x -in pw.inp   Done                     12/27/2018 00:51:28
00034 suncat0166 pw.x -in pw.inp   Done                     12/27/2018 00:51:28
00035 suncat0166 pw.x -in pw.inp   Done                     12/27/2018 00:51:28
00036 suncat0166 pw.x -in pw.inp   Done                     12/27/2018 00:51:28
00037 suncat0166 pw.x -in pw.inp   Done                     12/27/2018 00:51:28
00038 suncat0166 pw.x -in pw.inp   Done                     12/27/2018 00:51:28
00039 suncat0166 pw.x -in pw.inp   Done                     12/27/2018 00:51:28
00040 suncat0165 pw.x -in pw.inp   Done                     12/27/2018 00:51:28
00041 suncat0165 pw.x -in pw.inp   Done                     12/27/2018 00:51:28
00042 suncat0165 pw.x -in pw.inp   Done                     12/27/2018 00:51:28
00043 suncat0165 pw.x -in pw.inp   Done                     12/27/2018 00:51:28
00044 suncat0165 pw.x -in pw.inp   Done                     12/27/2018 00:51:28
00045 suncat0165 pw.x -in pw.inp   Done                     12/27/2018 00:51:28
00046 suncat0165 pw.x -in pw.inp   Done                     12/27/2018 00:51:28
00047 suncat0165 pw.x -in pw.inp   Done                     12/27/2018 00:51:28
00048 suncat0164 pw.x -in pw.inp   Done                     12/27/2018 00:51:28
00049 suncat0164 pw.x -in pw.inp   Done                     12/27/2018 00:51:28
00050 suncat0164 pw.x -in pw.inp   Done                     12/27/2018 00:51:28
00051 suncat0164 pw.x -in pw.inp   Done                     12/27/2018 00:51:28
00052 suncat0164 pw.x -in pw.inp   Done                     12/27/2018 00:51:28
00053 suncat0164 pw.x -in pw.inp   Done                     12/27/2018 00:51:28
00054 suncat0164 pw.x -in pw.inp   Done                     12/27/2018 00:51:28
00055 suncat0164 pw.x -in pw.inp   Done                     12/27/2018 00:51:28
00056 suncat0143 pw.x -in pw.inp   Done                     12/27/2018 00:51:28
00057 suncat0143 pw.x -in pw.inp   Done                     12/27/2018 00:51:28
00058 suncat0143 pw.x -in pw.inp   Done                     12/27/2018 00:51:28
00059 suncat0143 pw.x -in pw.inp   Done                     12/27/2018 00:51:28
00060 suncat0143 pw.x -in pw.inp   Done                     12/27/2018 00:51:28
00061 suncat0143 pw.x -in pw.inp   Done                     12/27/2018 00:51:28
00062 suncat0143 pw.x -in pw.inp   Done                     12/27/2018 00:51:28
00063 suncat0143 pw.x -in pw.inp   Done                     12/27/2018 00:51:28