     Program PWSCF v.5.1rc2 (svn rev. 11289) starts on  1Jan2019 at 17: 7:11

     Current dimensions of program PWSCF are:
     Max number of different atomic species (ntypx) = 10
     Max number of k-points (npk) =  40000
     Max angular momentum in pseudopotentials (lmaxx) =  3
     Presently stress not available with electric field

     IMPORTANT: XC functional enforced from input :
     Exchange-correlation      = BEEF-VDW ( 1  4 27 13 2)
     Any further DFT definition will be discarded
     Please, verify this is what you really want

     Subspace diagonalization in iterative solution of the eigenvalue problem:
     a serial algorithm will be used

     Generating pointlists ...
     new r_m :   0.4125 (alat units)  0.7795 (a.u.) for type    1
     new r_m :   0.4125 (alat units)  0.7795 (a.u.) for type    2

     bravais-lattice index     =            0
     lattice parameter (alat)  =       1.8897  a.u.
     unit-cell volume          =    4898.3675 (a.u.)^3
     number of atoms/cell      =           12
     number of atomic types    =            2
     number of electrons       =       162.00
     number of Kohn-Sham states=          111
     kinetic-energy cutoff     =      36.7493  Ry
     charge density cutoff     =     367.4932  Ry
     convergence threshold     =      1.0E-06
     mixing beta               =       0.1000
     number of iterations used =           10  plain     mixing
     Exchange-correlation      = BEEF-VDW ( 1  4 27 13 2)
     nstep                     =           50

     celldm(1)=   1.889726  celldm(2)=   0.000000  celldm(3)=   0.000000
     celldm(4)=   0.000000  celldm(5)=   0.000000  celldm(6)=   0.000000

     crystal axes: (cart. coord. in units of alat)
               a(1) = (   5.819191   0.000000   0.000000 )
               a(2) = (  -2.909596   5.039567   0.000000 )
               a(3) = (   0.000000   0.000000  24.751350 )

     reciprocal axes: (cart. coord. in units 2 pi/alat)
               b(1) = (  0.171845  0.099215  0.000000 )
               b(2) = (  0.000000  0.198430  0.000000 )
               b(3) = (  0.000000  0.000000  0.040402 )

     PseudoPot. # 1 for Ta read from file:
     /afs/slac.stanford.edu/u/if/mamunm/psp/gbrv1.5pbe/Ta.UPF
     MD5 check sum: f8bbe9446314a3b8ea5d9f3e3836c939
     Pseudo is Ultrasoft + core correction, Zval = 13.0
     Generated by new atomic code, or converted to UPF format
     Using radial grid of  921 points,  7 beta functions with:
                l(1) =   0
                l(2) =   0
                l(3) =   1
                l(4) =   1
                l(5) =   2
                l(6) =   2
                l(7) =   3
     Q(r) pseudized with  6 coefficients,  rinner =    1.300   1.300   1.300
                                                       1.300   1.300   1.300
                                                       1.300

     PseudoPot. # 2 for Mn read from file:
     /afs/slac.stanford.edu/u/if/mamunm/psp/gbrv1.5pbe/Mn.UPF
     MD5 check sum: 82ef2b46521d7a7d9e736dc3972e4928
     Pseudo is Ultrasoft + core correction, Zval = 15.0
     Generated by new atomic code, or converted to UPF format
     Using radial grid of  859 points,  6 beta functions with:
                l(1) =   0
                l(2) =   0
                l(3) =   1
                l(4) =   1
                l(5) =   2
                l(6) =   2
     Q(r) pseudized with  8 coefficients,  rinner =    0.950   0.950   0.950
                                                       0.950   0.950

     vdW kernel table read from file vdW_kernel_table
     MD5 check sum: 095c7af220d748ca6e76c0b4c6cfb241

     atomic species   valence    mass     pseudopotential
        Ta1           13.00   180.94788     Ta( 1.00)
        Mn1           15.00    54.93804     Mn( 1.00)

     Starting magnetic structure
     atomic species   magnetization
        Ta1          0.154
        Mn1          0.133

     No symmetry found

   Cartesian axes

     site n.     atom                  positions (alat units)
         1           Ta1 tau(   1) = (   0.0000000   0.0000000  10.0000000  )
         2           Ta1 tau(   2) = (  -1.4547978   2.5197837  10.0000000  )
         3           Ta1 tau(   3) = (   1.4547978   2.5197837  10.0000000  )
         4           Mn1 tau(   4) = (   2.9095956   0.0000000  10.0000000  )
         5           Ta1 tau(   5) = (   2.9095956   1.6798558  12.3756748  )
         6           Ta1 tau(   6) = (   1.4547978   4.1996395  12.3756748  )
         7           Ta1 tau(   7) = (  -1.4547978   4.1996395  12.3756748  )
         8           Mn1 tau(   8) = (   0.0000000   1.6798558  12.3756748  )
         9           Ta1 tau(   9) = (  -0.0000000   3.3597116  14.7513497  )
        10           Ta1 tau(  10) = (   1.4547978   0.8399279  14.7513497  )
        11           Ta1 tau(  11) = (   4.3643934   0.8399279  14.7513497  )
        12           Mn1 tau(  12) = (   2.9095956   3.3597116  14.7513497  )

     number of k points=    40  Fermi-Dirac smearing, width (Ry)=  0.0110
                       cart. coord. in units 2pi/alat
        k(    1) = (   0.0000000   0.0000000   0.0000000), wk =   0.0277778
        k(    2) = (   0.0000000   0.0330716   0.0000000), wk =   0.0555556
        k(    3) = (   0.0000000   0.0661432   0.0000000), wk =   0.0555556
        k(    4) = (   0.0000000  -0.0992149   0.0000000), wk =   0.0277778
        k(    5) = (   0.0286409   0.0165358   0.0000000), wk =   0.0555556
        k(    6) = (   0.0286409   0.0496074   0.0000000), wk =   0.0555556
        k(    7) = (   0.0286409   0.0826791   0.0000000), wk =   0.0555556
        k(    8) = (   0.0286409  -0.0826791   0.0000000), wk =   0.0555556
        k(    9) = (   0.0286409  -0.0496074   0.0000000), wk =   0.0555556
        k(   10) = (   0.0286409  -0.0165358   0.0000000), wk =   0.0555556
        k(   11) = (   0.0572817   0.0330716   0.0000000), wk =   0.0555556
        k(   12) = (   0.0572817   0.0661432   0.0000000), wk =   0.0555556
        k(   13) = (   0.0572817   0.0992149   0.0000000), wk =   0.0555556
        k(   14) = (   0.0572817  -0.0661432   0.0000000), wk =   0.0555556
        k(   15) = (   0.0572817  -0.0330716   0.0000000), wk =   0.0555556
        k(   16) = (   0.0572817   0.0000000   0.0000000), wk =   0.0555556
        k(   17) = (  -0.0859226  -0.0496074   0.0000000), wk =   0.0277778
        k(   18) = (  -0.0859226  -0.0165358   0.0000000), wk =   0.0555556
        k(   19) = (  -0.0859226   0.0165358   0.0000000), wk =   0.0555556
        k(   20) = (  -0.0859226  -0.1488223   0.0000000), wk =   0.0277778
        k(   21) = (   0.0000000   0.0000000   0.0000000), wk =   0.0277778
        k(   22) = (   0.0000000   0.0330716   0.0000000), wk =   0.0555556
        k(   23) = (   0.0000000   0.0661432   0.0000000), wk =   0.0555556
        k(   24) = (   0.0000000  -0.0992149   0.0000000), wk =   0.0277778
        k(   25) = (   0.0286409   0.0165358   0.0000000), wk =   0.0555556
        k(   26) = (   0.0286409   0.0496074   0.0000000), wk =   0.0555556
        k(   27) = (   0.0286409   0.0826791   0.0000000), wk =   0.0555556
        k(   28) = (   0.0286409  -0.0826791   0.0000000), wk =   0.0555556
        k(   29) = (   0.0286409  -0.0496074   0.0000000), wk =   0.0555556
        k(   30) = (   0.0286409  -0.0165358   0.0000000), wk =   0.0555556
        k(   31) = (   0.0572817   0.0330716   0.0000000), wk =   0.0555556
        k(   32) = (   0.0572817   0.0661432   0.0000000), wk =   0.0555556
        k(   33) = (   0.0572817   0.0992149   0.0000000), wk =   0.0555556
        k(   34) = (   0.0572817  -0.0661432   0.0000000), wk =   0.0555556
        k(   35) = (   0.0572817  -0.0330716   0.0000000), wk =   0.0555556
        k(   36) = (   0.0572817   0.0000000   0.0000000), wk =   0.0555556
        k(   37) = (  -0.0859226  -0.0496074   0.0000000), wk =   0.0277778
        k(   38) = (  -0.0859226  -0.0165358   0.0000000), wk =   0.0555556
        k(   39) = (  -0.0859226   0.0165358   0.0000000), wk =   0.0555556
        k(   40) = (  -0.0859226  -0.1488223   0.0000000), wk =   0.0277778

     Largest allocated arrays     est. size (Mb)     dimensions
     Largest temporary arrays     est. size (Mb)     dimensions

     Check: negative/imaginary core charge=   -0.000002    0.000000

     Initial potential from superposition of free atoms
     Check: negative starting charge=(component1):   -0.484684
     Check: negative starting charge=(component2):   -0.355434

     starting charge  160.48974, renormalised to  162.00000

     negative rho (up, down):  4.892E-01 3.588E-01

     *
     * You are using vdW-DF for exchange-correlation in this calculation.
     * Please cite the following three references that made this development
     * possible:
     *
     *   M. Dion, H. Rydberg, E. Schroder, D. C. Langreth, and
     *   B. I. Lundqvist, Phys. Rev. Lett. 92, 246401 (2004).
     *
     *   T. Thonhauser, V. R. Cooper, S. Li, A. Puzder, P. Hyldgaard, and
     *   D. C. Langreth, Phys. Rev. B 76, 125112 (2007).
     *
     *   G. Roman-Perez and J. M. Soler, Phys. Rev. Lett. 103, 096102 (2009).
     *
     *
     * If you are using vdW-DF2, please also cite:
     *
     *   K. Lee, E. D. Murray, L. Kong, B. I. Lundqvist, and
     *   D. C. Langreth, Phys. Rev. B 82, 081101(R) (2010).
     *
     *
     * If you are calculating the stress with vdW-DF, please also cite:
     *
     *   R. Sabatini, E. Kucukbenli, B. Kolb, T. Thonhauser, and
     *   S. de Gironcoli, J. Phys.: Condens. Matter 24, 424209 (2012).
     *

     Carrying out vdW-DF run using the following parameters:

     Nqs =      20    Nr_points =    1024   r_max =   100.000
     q_mesh =
               0.00001000     0.04494208     0.09755937     0.15916263
               0.23128650     0.31572767     0.41458969     0.53033537
               0.66584808     0.82450364     1.01025438     1.22772762
               1.48234092     1.78043706     2.12944203     2.53805004
               3.01644009     3.57652955     4.23227104     5.00000000

     Gradients computed in reciprocal space

     Adding external electric field

     Computed dipole along edir(3) :
        Dipole               -0.0000 Ry au,         -0.0000 Debye
        Dipole field         -0.0000 Ry au

        Potential amp.        0.0000 Ry
        Total length         45.6039 bohr

[...]

     Starting wfc are  156 randomized atomic wfcs

     Self-consistent Calculation

     iteration #  1     ecut=    36.75 Ry     beta=0.10
     Davidson diagonalization with overlap
     ethr =  1.00E-02,  avg # of iterations =  2.0

[...]

     Magnetic moment per site:
     atom:    1    charge:    1.3590    magn:    0.1903    constr:    0.0000
     atom:    2    charge:    1.3590    magn:    0.1903    constr:    0.0000
     atom:    3    charge:    1.3590    magn:    0.1903    constr:    0.0000
     atom:    4    charge:    6.0530    magn:    0.7980    constr:    0.0000
     atom:    5    charge:    1.3629    magn:    0.1903    constr:    0.0000
     atom:    6    charge:    1.3629    magn:    0.1903    constr:    0.0000
[...]
        k(    2) = (   0.0000000   0.0330716   0.0000000), wk =   0.0555556
        k(    3) = (   0.0000000   0.0661432   0.0000000), wk =   0.0555556
        k(    4) = (   0.0000000  -0.0992149   0.0000000), wk =   0.0277778
        k(    5) = (   0.0286409   0.0165358   0.0000000), wk =   0.0555556
        k(    6) = (   0.0286409   0.0496074   0.0000000), wk =   0.0555556
        k(    7) = (   0.0286409   0.0826791   0.0000000), wk =   0.0555556
        k(    8) = (   0.0286409  -0.0826791   0.0000000), wk =   0.0555556
        k(    9) = (   0.0286409  -0.0496074   0.0000000), wk =   0.0555556
        k(   10) = (   0.0286409  -0.0165358   0.0000000), wk =   0.0555556
        k(   11) = (   0.0572817   0.0330716   0.0000000), wk =   0.0555556
        k(   12) = (   0.0572817   0.0661432   0.0000000), wk =   0.0555556
        k(   13) = (   0.0572817   0.0992149   0.0000000), wk =   0.0555556
        k(   14) = (   0.0572817  -0.0661432   0.0000000), wk =   0.0555556
        k(   15) = (   0.0572817  -0.0330716   0.0000000), wk =   0.0555556
        k(   16) = (   0.0572817   0.0000000   0.0000000), wk =   0.0555556
        k(   17) = (  -0.0859226  -0.0496074   0.0000000), wk =   0.0277778
        k(   18) = (  -0.0859226  -0.0165358   0.0000000), wk =   0.0555556
        k(   19) = (  -0.0859226   0.0165358   0.0000000), wk =   0.0555556
        k(   20) = (  -0.0859226  -0.1488223   0.0000000), wk =   0.0277778
        k(   21) = (   0.0000000   0.0000000   0.0000000), wk =   0.0277778
        k(   22) = (   0.0000000   0.0330716   0.0000000), wk =   0.0555556
        k(   23) = (   0.0000000   0.0661432   0.0000000), wk =   0.0555556
        k(   24) = (   0.0000000  -0.0992149   0.0000000), wk =   0.0277778
        k(   25) = (   0.0286409   0.0165358   0.0000000), wk =   0.0555556
        k(   26) = (   0.0286409   0.0496074   0.0000000), wk =   0.0555556
        k(   27) = (   0.0286409   0.0826791   0.0000000), wk =   0.0555556
        k(   28) = (   0.0286409  -0.0826791   0.0000000), wk =   0.0555556
        k(   29) = (   0.0286409  -0.0496074   0.0000000), wk =   0.0555556
        k(   30) = (   0.0286409  -0.0165358   0.0000000), wk =   0.0555556
        k(   31) = (   0.0572817   0.0330716   0.0000000), wk =   0.0555556
        k(   32) = (   0.0572817   0.0661432   0.0000000), wk =   0.0555556
        k(   33) = (   0.0572817   0.0992149   0.0000000), wk =   0.0555556
        k(   34) = (   0.0572817  -0.0661432   0.0000000), wk =   0.0555556
        k(   35) = (   0.0572817  -0.0330716   0.0000000), wk =   0.0555556
        k(   36) = (   0.0572817   0.0000000   0.0000000), wk =   0.0555556
        k(   37) = (  -0.0859226  -0.0496074   0.0000000), wk =   0.0277778
        k(   38) = (  -0.0859226  -0.0165358   0.0000000), wk =   0.0555556
        k(   39) = (  -0.0859226   0.0165358   0.0000000), wk =   0.0555556
        k(   40) = (  -0.0859226  -0.1488223   0.0000000), wk =   0.0277778

     Largest allocated arrays     est. size (Mb)     dimensions
     Largest temporary arrays     est. size (Mb)     dimensions

     Check: negative/imaginary core charge=   -0.000002    0.000000

     Initial potential from superposition of free atoms
     Check: negative starting charge=(component1):   -0.487112
     Check: negative starting charge=(component2):   -0.357215

     starting charge  160.48974, renormalised to  162.00000

[...]

     *
     * You are using vdW-DF for exchange-correlation in this calculation.
     * Please cite the following three references that made this development
     * possible:
     *
     *   M. Dion, H. Rydberg, E. Schroder, D. C. Langreth, and
     *   B. I. Lundqvist, Phys. Rev. Lett. 92, 246401 (2004).
     *
     *   T. Thonhauser, V. R. Cooper, S. Li, A. Puzder, P. Hyldgaard, and
     *   D. C. Langreth, Phys. Rev. B 76, 125112 (2007).
     *
     *   G. Roman-Perez and J. M. Soler, Phys. Rev. Lett. 103, 096102 (2009).
     *
     *
     * If you are using vdW-DF2, please also cite:
     *
     *   K. Lee, E. D. Murray, L. Kong, B. I. Lundqvist, and
     *   D. C. Langreth, Phys. Rev. B 82, 081101(R) (2010).
     *
     *
     * If you are calculating the stress with vdW-DF, please also cite:
     *
     *   R. Sabatini, E. Kucukbenli, B. Kolb, T. Thonhauser, and
     *   S. de Gironcoli, J. Phys.: Condens. Matter 24, 424209 (2012).
     *

     Carrying out vdW-DF run using the following parameters:

     Nqs =      20    Nr_points =    1024   r_max =   100.000
     q_mesh =
               0.00001000     0.04494208     0.09755937     0.15916263
               0.23128650     0.31572767     0.41458969     0.53033537
               0.66584808     0.82450364     1.01025438     1.22772762
               1.48234092     1.78043706     2.12944203     2.53805004
               3.01644009     3.57652955     4.23227104     5.00000000

     Gradients computed in reciprocal space

[...]

     Starting wfc are  156 randomized atomic wfcs

     Self-consistent Calculation

[...]

     total energy              =   -1924.99161498 Ry
     Harris-Foulkes estimate   =   -1924.99161175 Ry
     estimated scf accuracy    <       0.00000172 Ry

[...]

     iteration # 27     ecut=    36.75 Ry     beta=0.10
     Davidson diagonalization with overlap
     ethr =  1.06E-09,  avg # of iterations =  3.6

[...]

     negative rho (up, down):  4.419E-01 4.417E-01

[...]

     Adding external electric field

     Computed dipole along edir(3) :
        Dipole                0.0133 Ry au,          0.0338 Debye
        Dipole field          0.0000 Ry au

        Potential amp.       -0.0031 Ry
        Total length         45.6039 bohr

     Magnetic moment per site:
     atom:    1    charge:    1.3551    magn:   -0.0046    constr:    0.0000
     atom:    2    charge:    1.3551    magn:   -0.0046    constr:    0.0000
     atom:    3    charge:    1.3551    magn:   -0.0046    constr:    0.0000
     atom:    4    charge:    5.9928    magn:    1.3318    constr:    0.0000
     atom:    5    charge:    1.3568    magn:   -0.0005    constr:    0.0000
     atom:    6    charge:    1.3568    magn:   -0.0005    constr:    0.0000
     atom:    7    charge:    1.3568    magn:   -0.0005    constr:    0.0000
     atom:    8    charge:    5.9798    magn:    1.2179    constr:    0.0000
     atom:    9    charge:    1.3612    magn:   -0.0032    constr:    0.0000
     atom:   10    charge:    1.3612    magn:   -0.0032    constr:    0.0000
     atom:   11    charge:    1.3612    magn:   -0.0032    constr:    0.0000
     atom:   12    charge:    5.9987    magn:    1.3482    constr:    0.0000

     End of self-consistent calculation

 ------ SPIN UP ------------

[...]

 ------ SPIN DOWN ----------

[...]

          k = 0.0573 0.0000 0.0000 ( 18429 PWs)   bands (ev):

[...]

          k =-0.0859-0.1488 0.0000 ( 18396 PWs)   bands (ev):

   -75.7669 -75.5733 -75.5685 -66.5454 -66.5259 -66.5062 -66.5029 -66.4794
   -66.4600 -66.3163 -66.2986 -66.2799 -44.5522 -44.5187 -44.5181 -44.3507
   -44.3500 -44.3493 -44.3487 -44.3389 -44.3318 -33.2030 -33.1891 -33.1395
   -33.0839 -33.0608 -33.0376 -32.9996 -32.9625 -32.9536 -32.9239 -32.8897
   -32.8833 -32.8564 -32.8275 -32.8012 -32.7935 -32.7552 -32.7069 -32.6114
   -32.6048 -32.5907 -32.4746 -32.4528 -32.4490 -32.4211 -32.4201 -32.3025
    -3.8928  -3.6813  -2.5102  -2.1255  -1.5503  -1.4183  -1.3811  -1.1350
    -0.9594  -0.7673  -0.5405  -0.1715  -0.0890   0.1243   0.1473   0.2657
     0.2967   0.4265   0.4913   0.5042   0.8029   0.8964   0.9604   1.0875
     1.1304   1.1852   1.2638   1.3638   1.4378   1.5031   1.7147   1.7727
     2.0056   2.1888   2.2100   2.2225   2.2526   2.3769   2.7278   2.9131
     3.0145   3.1999   3.2132   3.3835   3.4847   3.5908   3.7038   3.7144
     3.7875   3.9935   4.0715   4.2250   4.3068   4.3356   4.6582   4.8932
     4.9399   4.9474   5.0106   5.3294   5.5469   5.5696   5.9369

     the Fermi energy is     1.7501 ev

!    total energy              =   -1924.99162039 Ry
     Harris-Foulkes estimate   =   -1924.99161688 Ry
     estimated scf accuracy    <       0.00000073 Ry

     The total energy is the sum of the following terms:

     one-electron contribution =  -13396.40213931 Ry
     hartree contribution      =    6683.79413912 Ry
     xc contribution           =    -474.98490401 Ry
     ewald contribution        =    5262.70309487 Ry
     electric field correction =       0.00000045 Ry
     smearing contrib. (-TS)   =      -0.10181152 Ry

     total magnetization       =     9.11 Bohr mag/cell
     absolute magnetization    =    11.97 Bohr mag/cell

     convergence has been achieved in  27 iterations

 BEEF-vdW xc energy contributions
           1 :   -417.684013734412
           2 :    384.233493467167
           3 :   -326.368958137020
           4 :    258.213177858966
           5 :   -193.446888485024
           6 :    140.956426911922
           7 :   -103.304928311154
           8 :    78.0152082620569
           9 :   -60.3876943739633
          10 :    46.2255092995194
          11 :   -33.3392529237333
          12 :    21.5723327481018
          13 :   -11.8377421113553
          14 :    4.95930234334253
          15 :  -0.951610309954049
          16 :   -1.03456483482091
          17 :    2.24503211505964
          18 :   -3.67790743465571
          19 :    5.62438781556676
          20 :   -7.63386348133758
          21 :    8.90811958425058
          22 :   -8.88456878303134
          23 :    7.64910686697044
          24 :   -5.92650581871305
          25 :    4.66327753805615
          26 :   -4.47503231558159
          27 :    5.30672503391486
          28 :   -6.51099008292795
          29 :    7.27670463640982
          30 :   -7.12185935868172
          31 :   -37.3025488659312
          32 :   -27.4682898847499

     Forces acting on atoms (Ry/au):

     negative rho (up, down):  4.419E-01 4.417E-01
     atom    1 type  1   force =    -0.00000254    0.01244644    0.01245864
     atom    2 type  1   force =     0.01078496   -0.00622030    0.01245079
     atom    3 type  1   force =    -0.01078529   -0.00621738    0.01245332
     atom    4 type  2   force =    -0.00000142    0.00000414    0.00129726
     atom    5 type  1   force =    -0.00000012    0.00340327   -0.00858140
     atom    6 type  1   force =     0.00294835   -0.00170132   -0.00858223
     atom    7 type  1   force =    -0.00294838   -0.00170105   -0.00858138
     atom    8 type  2   force =     0.00000004    0.00000050   -0.01366738
     atom    9 type  1   force =     0.00000208    0.00016884   -0.00017969
     atom   10 type  1   force =     0.00014059   -0.00008842   -0.00017276
     atom   11 type  1   force =    -0.00013981   -0.00009039   -0.00017448
     atom   12 type  2   force =     0.00000153   -0.00000432    0.00127931

     Total force =     0.037097     Total SCF correction =     0.002279

     entering subroutine stress ...

     negative rho (up, down):  4.419E-01 4.417E-01
          total   stress  (Ry/bohr**3)                   (kbar)     P=  -21.44
  -0.00018084   0.00000000   0.00000000        -26.60      0.00      0.00
   0.00000000  -0.00018083  -0.00000001          0.00    -26.60     -0.00
   0.00000000  -0.00000001  -0.00007550          0.00     -0.00    -11.11

 !ASE

     Writing output data file calc.save

     General routines

     Parallel routines

   This run was terminated on:  20:16:25   1Jan2019

   JOB DONE.
Job  /afs/slac/g/suncat/bin/suncat-tsmpirun -x LD_LIBRARY_PATH -wdir /scratch/qe649110_x66Yr pw.x -in pw.inp

TID   HOST_NAME   COMMAND_LINE            STATUS            TERMINATION_TIME
00000 suncat0178 pw.x -in pw.inp   Done                     01/01/2019 20:16:25
00001 suncat0178 pw.x -in pw.inp   Done                     01/01/2019 20:16:25
00002 suncat0178 pw.x -in pw.inp   Done                     01/01/2019 20:16:25
00003 suncat0178 pw.x -in pw.inp   Done                     01/01/2019 20:16:25
00004 suncat0178 pw.x -in pw.inp   Done                     01/01/2019 20:16:25
00005 suncat0178 pw.x -in pw.inp   Done                     01/01/2019 20:16:25
00006 suncat0178 pw.x -in pw.inp   Done                     01/01/2019 20:16:25
00007 suncat0178 pw.x -in pw.inp   Done                     01/01/2019 20:16:25
00008 suncat0177 pw.x -in pw.inp   Done                     01/01/2019 20:16:25
00009 suncat0177 pw.x -in pw.inp   Done                     01/01/2019 20:16:25
00010 suncat0177 pw.x -in pw.inp   Done                     01/01/2019 20:16:25
00011 suncat0177 pw.x -in pw.inp   Done                     01/01/2019 20:16:25
00012 suncat0177 pw.x -in pw.inp   Done                     01/01/2019 20:16:25
00013 suncat0177 pw.x -in pw.inp   Done                     01/01/2019 20:16:25
00014 suncat0177 pw.x -in pw.inp   Done                     01/01/2019 20:16:25
00015 suncat0177 pw.x -in pw.inp   Done                     01/01/2019 20:16:25
00016 suncat0113 pw.x -in pw.inp   Done                     01/01/2019 20:16:25
00017 suncat0113 pw.x -in pw.inp   Done                     01/01/2019 20:16:25
00018 suncat0113 pw.x -in pw.inp   Done                     01/01/2019 20:16:25
00019 suncat0113 pw.x -in pw.inp   Done                     01/01/2019 20:16:25
00020 suncat0113 pw.x -in pw.inp   Done                     01/01/2019 20:16:25
00021 suncat0113 pw.x -in pw.inp   Done                     01/01/2019 20:16:25
00022 suncat0113 pw.x -in pw.inp   Done                     01/01/2019 20:16:25
00023 suncat0113 pw.x -in pw.inp   Done                     01/01/2019 20:16:25
00024 suncat0267 pw.x -in pw.inp   Done                     01/01/2019 20:16:25
00025 suncat0267 pw.x -in pw.inp   Done                     01/01/2019 20:16:25
00026 suncat0267 pw.x -in pw.inp   Done                     01/01/2019 20:16:25
00027 suncat0267 pw.x -in pw.inp   Done                     01/01/2019 20:16:25
00028 suncat0267 pw.x -in pw.inp   Done                     01/01/2019 20:16:25
00029 suncat0267 pw.x -in pw.inp   Done                     01/01/2019 20:16:25
00030 suncat0267 pw.x -in pw.inp   Done                     01/01/2019 20:16:25
00031 suncat0267 pw.x -in pw.inp   Done                     01/01/2019 20:16:25
00032 suncat0254 pw.x -in pw.inp   Done                     01/01/2019 20:16:25
00033 suncat0254 pw.x -in pw.inp   Done                     01/01/2019 20:16:25
00034 suncat0254 pw.x -in pw.inp   Done                     01/01/2019 20:16:25
00035 suncat0254 pw.x -in pw.inp   Done                     01/01/2019 20:16:25
00036 suncat0254 pw.x -in pw.inp   Done                     01/01/2019 20:16:25
00037 suncat0254 pw.x -in pw.inp   Done                     01/01/2019 20:16:25
00038 suncat0254 pw.x -in pw.inp   Done                     01/01/2019 20:16:25
00039 suncat0254 pw.x -in pw.inp   Done                     01/01/2019 20:16:25
00040 suncat0253 pw.x -in pw.inp   Done                     01/01/2019 20:16:25
00041 suncat0253 pw.x -in pw.inp   Done                     01/01/2019 20:16:25
00042 suncat0253 pw.x -in pw.inp   Done                     01/01/2019 20:16:25
00043 suncat0253 pw.x -in pw.inp   Done                     01/01/2019 20:16:25
00044 suncat0253 pw.x -in pw.inp   Done                     01/01/2019 20:16:25
00045 suncat0253 pw.x -in pw.inp   Done                     01/01/2019 20:16:25
00046 suncat0253 pw.x -in pw.inp   Done                     01/01/2019 20:16:25
00047 suncat0253 pw.x -in pw.inp   Done                     01/01/2019 20:16:25
00048 suncat0228 pw.x -in pw.inp   Done                     01/01/2019 20:16:25
00049 suncat0228 pw.x -in pw.inp   Done                     01/01/2019 20:16:25
00050 suncat0228 pw.x -in pw.inp   Done                     01/01/2019 20:16:25
00051 suncat0228 pw.x -in pw.inp   Done                     01/01/2019 20:16:25
00052 suncat0228 pw.x -in pw.inp   Done                     01/01/2019 20:16:25
00053 suncat0228 pw.x -in pw.inp   Done                     01/01/2019 20:16:25
00054 suncat0228 pw.x -in pw.inp   Done                     01/01/2019 20:16:25
00055 suncat0228 pw.x -in pw.inp   Done                     01/01/2019 20:16:25
00056 suncat0227 pw.x -in pw.inp   Done                     01/01/2019 20:16:25
00057 suncat0227 pw.x -in pw.inp   Done                     01/01/2019 20:16:25
00058 suncat0227 pw.x -in pw.inp   Done                     01/01/2019 20:16:25
00059 suncat0227 pw.x -in pw.inp   Done                     01/01/2019 20:16:25
00060 suncat0227 pw.x -in pw.inp   Done                     01/01/2019 20:16:25
00061 suncat0227 pw.x -in pw.inp   Done                     01/01/2019 20:16:25
00062 suncat0227 pw.x -in pw.inp   Done                     01/01/2019 20:16:25
00063 suncat0227 pw.x -in pw.inp   Done                     01/01/2019 20:16:25