     Program PWSCF v.5.1rc2 (svn rev. 11289) starts on  2Jan2019 at 20:54: 8

     Current dimensions of program PWSCF are:
     Max number of different atomic species (ntypx) = 10
     Max number of k-points (npk) =  40000
     Max angular momentum in pseudopotentials (lmaxx) =  3
     Presently stress not available with electric field

     IMPORTANT: XC functional enforced from input :
     Exchange-correlation      = BEEF-VDW ( 1  4 27 13 2)
     Any further DFT definition will be discarded
     Please, verify this is what you really want

     Subspace diagonalization in iterative solution of the eigenvalue problem:
     a serial algorithm will be used

     bravais-lattice index     =            0
     lattice parameter (alat)  =       1.8897  a.u.
     unit-cell volume          =    5538.1588 (a.u.)^3
     number of atoms/cell      =           12
     number of atomic types    =            2
     number of electrons       =       156.00
     number of Kohn-Sham states=          108
     kinetic-energy cutoff     =      36.7493  Ry
     charge density cutoff     =     367.4932  Ry
     convergence threshold     =      1.0E-06
     mixing beta               =       0.1000
     number of iterations used =           10  plain     mixing
     Exchange-correlation      = BEEF-VDW ( 1  4 27 13 2)
     nstep                     =           50

     celldm(1)=   1.889726  celldm(2)=   0.000000  celldm(3)=   0.000000
     celldm(4)=   0.000000  celldm(5)=   0.000000  celldm(6)=   0.000000

     crystal axes: (cart. coord. in units of alat)
               a(1) = (   6.153704   0.000000   0.000000 )
               a(2) = (  -3.076852   5.329264   0.000000 )
               a(3) = (   0.000000   0.000000  25.024478 )

     reciprocal axes: (cart. coord. in units 2 pi/alat)
               b(1) = (  0.162504  0.093822  0.000000 )
               b(2) = (  0.000000  0.187643  0.000000 )
               b(3) = (  0.000000  0.000000  0.039961 )

     PseudoPot. # 1 for Zr read from file:
     /afs/slac.stanford.edu/u/if/mamunm/psp/gbrv1.5pbe/Zr.UPF
     MD5 check sum: 5db81b1e868ab7776c4564c113de050b
     Pseudo is Ultrasoft + core correction, Zval = 12.0
     Generated by new atomic code, or converted to UPF format
     Using radial grid of  887 points,  6 beta functions with:
                l(1) =   0
                l(2) =   0
                l(3) =   1
                l(4) =   1
                l(5) =   2
                l(6) =   2
     Q(r) pseudized with  6 coefficients,  rinner =    1.200   1.200   1.200
                                                       1.200   1.200

     PseudoPot. # 2 for Pt read from file:
     /afs/slac.stanford.edu/u/if/mamunm/psp/gbrv1.5pbe/Pt.UPF
     MD5 check sum: f09d6de1a584b5a045c4fc126da2d0c4
     Pseudo is Ultrasoft + core correction, Zval = 16.0
     Generated by new atomic code, or converted to UPF format
     Using radial grid of  985 points,  6 beta functions with:
                l(1) =   0
                l(2) =   0
                l(3) =   1
                l(4) =   1
                l(5) =   2
                l(6) =   2
     Q(r) pseudized with  8 coefficients,  rinner =    1.300   1.300   1.300
                                                       1.300   1.300

     vdW kernel table read from file vdW_kernel_table
     MD5 check sum: 095c7af220d748ca6e76c0b4c6cfb241

     atomic species   valence    mass     pseudopotential
        Zr1           12.00    91.22400     Zr( 1.00)
        Pt1           16.00   195.08400     Pt( 1.00)

     No symmetry found

   Cartesian axes

     site n.     atom                  positions (alat units)
         1           Zr1 tau(   1) = (   0.0000000   0.0000000  10.0000000  )
         2           Zr1 tau(   2) = (   4.6152777   2.6646318  10.0000000  )
         3           Zr1 tau(   3) = (   1.5384259   2.6646318  10.0000000  )
         4           Pt1 tau(   4) = (   3.0768518   0.0000000  10.0000000  )
         5           Zr1 tau(   5) = (   3.0768518   1.7764212  12.5122390  )
         6           Zr1 tau(   6) = (   1.5384259   4.4410530  12.5122390  )
         7           Zr1 tau(   7) = (  -1.5384259   4.4410530  12.5122390  )
         8           Pt1 tau(   8) = (   0.0000000   1.7764212  12.5122390  )
         9           Zr1 tau(   9) = (  -0.0000000   3.5528424  15.0244779  )
        10           Zr1 tau(  10) = (   1.5384259   0.8882106  15.0244779  )
        11           Zr1 tau(  11) = (   4.6152777   0.8882106  15.0244779  )
        12           Pt1 tau(  12) = (   3.0768518   3.5528424  15.0244779  )

     number of k points=    20  Fermi-Dirac smearing, width (Ry)=  0.0110
                       cart. coord. in units 2pi/alat
        k(    1) = (   0.0000000   0.0000000   0.0000000), wk =   0.0555556
        k(    2) = (   0.0000000   0.0312739   0.0000000), wk =   0.1111111
        k(    3) = (   0.0000000   0.0625477   0.0000000), wk =   0.1111111
        k(    4) = (   0.0000000  -0.0938216   0.0000000), wk =   0.0555556
        k(    5) = (   0.0270840   0.0156369   0.0000000), wk =   0.1111111
        k(    6) = (   0.0270840   0.0469108   0.0000000), wk =   0.1111111
        k(    7) = (   0.0270840   0.0781847   0.0000000), wk =   0.1111111
        k(    8) = (   0.0270840  -0.0781847   0.0000000), wk =   0.1111111
        k(    9) = (   0.0270840  -0.0469108   0.0000000), wk =   0.1111111
        k(   10) = (   0.0270840  -0.0156369   0.0000000), wk =   0.1111111
        k(   11) = (   0.0541679   0.0312739   0.0000000), wk =   0.1111111
        k(   12) = (   0.0541679   0.0625477   0.0000000), wk =   0.1111111
        k(   13) = (   0.0541679   0.0938216   0.0000000), wk =   0.1111111
        k(   14) = (   0.0541679  -0.0625477   0.0000000), wk =   0.1111111
        k(   15) = (   0.0541679  -0.0312739   0.0000000), wk =   0.1111111
        k(   16) = (   0.0541679   0.0000000   0.0000000), wk =   0.1111111
        k(   17) = (  -0.0812519  -0.0469108   0.0000000), wk =   0.0555556
        k(   18) = (  -0.0812519  -0.0156369   0.0000000), wk =   0.1111111
        k(   19) = (  -0.0812519   0.0156369   0.0000000), wk =   0.1111111
        k(   20) = (  -0.0812519  -0.1407324   0.0000000), wk =   0.0555556

     Largest allocated arrays     est. size (Mb)     dimensions
     Largest temporary arrays     est. size (Mb)     dimensions

     Initial potential from superposition of free atoms
     Check: negative starting charge=   -1.104053

     starting charge  154.48062, renormalised to  156.00000

     negative rho (up, down):  1.115E+00 0.000E+00

     *
     * You are using vdW-DF for exchange-correlation in this calculation.
     * Please cite the following three references that made this development
     * possible:
     *
     *   M. Dion, H. Rydberg, E. Schroder, D. C. Langreth, and
     *   B. I. Lundqvist, Phys. Rev. Lett. 92, 246401 (2004).
     *
     *   T. Thonhauser, V. R. Cooper, S. Li, A. Puzder, P. Hyldgaard, and
     *   D. C. Langreth, Phys. Rev. B 76, 125112 (2007).
     *
     *   G. Roman-Perez and J. M. Soler, Phys. Rev. Lett. 103, 096102 (2009).
     *
     *
     * If you are using vdW-DF2, please also cite:
     *
     *   K. Lee, E. D. Murray, L. Kong, B. I. Lundqvist, and
     *   D. C. Langreth, Phys. Rev. B 82, 081101(R) (2010).
     *
     *
     * If you are calculating the stress with vdW-DF, please also cite:
     *
     *   R. Sabatini, E. Kucukbenli, B. Kolb, T. Thonhauser, and
     *   S. de Gironcoli, J. Phys.: Condens. Matter 24, 424209 (2012).
     *

     Carrying out vdW-DF run using the following parameters:

     Nqs =      20    Nr_points =    1024   r_max =   100.000
     q_mesh =
               0.00001000     0.04494208     0.09755937     0.15916263
               0.23128650     0.31572767     0.41458969     0.53033537
               0.66584808     0.82450364     1.01025438     1.22772762
               1.48234092     1.78043706     2.12944203     2.53805004
               3.01644009     3.57652955     4.23227104     5.00000000

     Gradients computed in reciprocal space

     Adding external electric field

     Computed dipole along edir(3) :
        Dipole                0.0000 Ry au,          0.0000 Debye
        Dipole field          0.0000 Ry au

        Potential amp.       -0.0000 Ry
        Total length         46.1072 bohr

     Starting wfc are  153 randomized atomic wfcs

     Self-consistent Calculation

     iteration #  1     ecut=    36.75 Ry     beta=0.10
     Davidson diagonalization with overlap
     ethr =  1.00E-02,  avg # of iterations =  2.0

[...]

     total energy              =   -1534.29590327 Ry
     Harris-Foulkes estimate   =   -1536.07954939 Ry
     estimated scf accuracy    <      10.24388060 Ry

[...]

     End of self-consistent calculation

          k = 0.0000 0.0000 0.0000 ( 20851 PWs)   bands (ev):

   -51.0664 -51.0389 -51.0389 -50.6468 -50.6468 -50.6467 -50.6467 -50.6030
   -50.6027 -47.4129 -47.4043 -47.2996 -47.2996 -47.2976 -47.2976 -47.0945
   -46.9920 -46.9920 -25.8326 -25.7739 -25.6676 -25.5825 -25.5825 -25.5338
   -25.5338 -25.5305 -25.5042 -25.5042 -25.4880 -25.3700 -25.3700 -25.1526
   -25.1526 -25.0974 -25.0622 -24.8994 -24.8796 -24.8796 -24.8713 -24.8713
   -24.8602 -24.8602 -24.7693 -24.6269 -24.6269  -4.1074  -2.9226  -2.5832
    -2.1981  -2.1981  -1.9690  -1.9690  -1.9484  -1.6671  -1.6671  -1.6441
    -1.6266  -1.6266  -1.3193  -0.9596  -0.9596  -0.8857  -0.7839  -0.7839
    -0.5514   0.3748   0.5565   1.0405   1.3399   1.3399   1.6010   1.6010
     1.6889   1.6889   1.8191   1.8440   2.1354   2.1354   2.3002   2.3002
     2.4526   2.4526   2.6226   2.7750   2.8488   2.8488   3.1392   3.2858
     3.2858   3.5690   3.7775   3.7775   4.0007   4.5545   4.9174   4.9174
     5.1225   5.1226   5.4157   5.4434   5.4434   5.6663   5.6663   5.7010
     5.7341   5.7341   5.9966   5.9967

[...]

          k =-0.0813-0.0469 0.0000 ( 20804 PWs)   bands (ev):

[...]

     the Fermi energy is     1.9045 ev

!    total energy              =   -1535.02623365 Ry
     Harris-Foulkes estimate   =   -1535.02624552 Ry
     estimated scf accuracy    <       0.00000075 Ry

     The total energy is the sum of the following terms:

     one-electron contribution =  -10650.08865960 Ry
     hartree contribution      =    5328.81039986 Ry
     xc contribution           =    -341.40593405 Ry
     ewald contribution        =    4127.75992638 Ry
     electric field correction =       0.00000000 Ry
     smearing contrib. (-TS)   =      -0.10196623 Ry

     convergence has been achieved in  16 iterations

 BEEF-vdW xc energy contributions
           1 :   -298.305899760230
           2 :    274.085697292072
           3 :   -231.961708526998
           4 :    181.866667292692
           5 :   -133.584248008801
           6 :    93.7064724893556
           7 :   -64.4609027942596
           8 :    44.4377944741937
           9 :   -30.4384118437928
          10 :    19.3889407107529
          11 :   -9.54160800606496
          12 :   0.676553801745001
          13 :    6.48069221121375
          14 :   -11.1349503625338
          15 :    13.0734401188810
          16 :   -12.8160978780565
[...]
               b(3) = (  0.000000  0.000000  0.039961 )

     PseudoPot. # 1 for Zr read from file:
     /afs/slac.stanford.edu/u/if/mamunm/psp/gbrv1.5pbe/Zr.UPF
     MD5 check sum: 5db81b1e868ab7776c4564c113de050b
     Pseudo is Ultrasoft + core correction, Zval = 12.0
     Generated by new atomic code, or converted to UPF format
     Using radial grid of  887 points,  6 beta functions with:
                l(1) =   0
                l(2) =   0
                l(3) =   1
                l(4) =   1
                l(5) =   2
                l(6) =   2
     Q(r) pseudized with  6 coefficients,  rinner =    1.200   1.200   1.200
                                                       1.200   1.200

     PseudoPot. # 2 for Pt read from file:
     /afs/slac.stanford.edu/u/if/mamunm/psp/gbrv1.5pbe/Pt.UPF
     MD5 check sum: f09d6de1a584b5a045c4fc126da2d0c4
     Pseudo is Ultrasoft + core correction, Zval = 16.0
     Generated by new atomic code, or converted to UPF format
     Using radial grid of  985 points,  6 beta functions with:
                l(1) =   0
                l(2) =   0
                l(3) =   1
                l(4) =   1
                l(5) =   2
                l(6) =   2
     Q(r) pseudized with  8 coefficients,  rinner =    1.300   1.300   1.300
                                                       1.300   1.300

     vdW kernel table read from file vdW_kernel_table
     MD5 check sum: 095c7af220d748ca6e76c0b4c6cfb241

     atomic species   valence    mass     pseudopotential
        Zr1           12.00    91.22400     Zr( 1.00)
        Pt1           16.00   195.08400     Pt( 1.00)

     No symmetry found

   Cartesian axes

     site n.     atom                  positions (alat units)
         1           Zr1 tau(   1) = (   0.0000000   0.0000000  10.0000000  )
         2           Zr1 tau(   2) = (   4.6152777   2.6646318  10.0000000  )
         3           Zr1 tau(   3) = (   1.5384259   2.6646318  10.0000000  )
         4           Pt1 tau(   4) = (   3.0768518   0.0000000  10.0000000  )
         5           Zr1 tau(   5) = (   3.0768518   1.7764212  12.5122390  )
         6           Zr1 tau(   6) = (   1.5384259   4.4410530  12.5122390  )
         7           Zr1 tau(   7) = (  -1.5384259   4.4410530  12.5122390  )
         8           Pt1 tau(   8) = (   0.0000000   1.7764212  12.5122390  )
         9           Zr1 tau(   9) = (   0.0000028   3.4973839  15.0277403  )
        10           Zr1 tau(  10) = (   1.4903995   0.9159428  15.0277434  )
        11           Zr1 tau(  11) = (   4.6633076   0.9159395  15.0277452  )
        12           Pt1 tau(  12) = (   3.0768534   3.5528434  14.8222129  )

     number of k points=    20  Fermi-Dirac smearing, width (Ry)=  0.0110
                       cart. coord. in units 2pi/alat
        k(    1) = (   0.0000000   0.0000000   0.0000000), wk =   0.0555556
        k(    2) = (   0.0000000   0.0312739   0.0000000), wk =   0.1111111
        k(    3) = (   0.0000000   0.0625477   0.0000000), wk =   0.1111111
        k(    4) = (   0.0000000  -0.0938216   0.0000000), wk =   0.0555556
        k(    5) = (   0.0270840   0.0156369   0.0000000), wk =   0.1111111
        k(    6) = (   0.0270840   0.0469108   0.0000000), wk =   0.1111111
        k(    7) = (   0.0270840   0.0781847   0.0000000), wk =   0.1111111
        k(    8) = (   0.0270840  -0.0781847   0.0000000), wk =   0.1111111
        k(    9) = (   0.0270840  -0.0469108   0.0000000), wk =   0.1111111
        k(   10) = (   0.0270840  -0.0156369   0.0000000), wk =   0.1111111
        k(   11) = (   0.0541679   0.0312739   0.0000000), wk =   0.1111111
        k(   12) = (   0.0541679   0.0625477   0.0000000), wk =   0.1111111
        k(   13) = (   0.0541679   0.0938216   0.0000000), wk =   0.1111111
        k(   14) = (   0.0541679  -0.0625477   0.0000000), wk =   0.1111111
        k(   15) = (   0.0541679  -0.0312739   0.0000000), wk =   0.1111111
        k(   16) = (   0.0541679   0.0000000   0.0000000), wk =   0.1111111
        k(   17) = (  -0.0812519  -0.0469108   0.0000000), wk =   0.0555556
        k(   18) = (  -0.0812519  -0.0156369   0.0000000), wk =   0.1111111
        k(   19) = (  -0.0812519   0.0156369   0.0000000), wk =   0.1111111
        k(   20) = (  -0.0812519  -0.1407324   0.0000000), wk =   0.0555556

     Largest allocated arrays     est. size (Mb)     dimensions
     Largest temporary arrays     est. size (Mb)     dimensions

     Initial potential from superposition of free atoms
     Check: negative starting charge=   -1.100336

     starting charge  154.48062, renormalised to  156.00000

[...]

     *
     * You are using vdW-DF for exchange-correlation in this calculation.
     * Please cite the following three references that made this development
     * possible:
     *
     *   M. Dion, H. Rydberg, E. Schroder, D. C. Langreth, and
     *   B. I. Lundqvist, Phys. Rev. Lett. 92, 246401 (2004).
     *
     *   T. Thonhauser, V. R. Cooper, S. Li, A. Puzder, P. Hyldgaard, and
     *   D. C. Langreth, Phys. Rev. B 76, 125112 (2007).
     *
     *   G. Roman-Perez and J. M. Soler, Phys. Rev. Lett. 103, 096102 (2009).
     *
     *
     * If you are using vdW-DF2, please also cite:
     *
     *   K. Lee, E. D. Murray, L. Kong, B. I. Lundqvist, and
     *   D. C. Langreth, Phys. Rev. B 82, 081101(R) (2010).
     *
     *
     * If you are calculating the stress with vdW-DF, please also cite:
     *
     *   R. Sabatini, E. Kucukbenli, B. Kolb, T. Thonhauser, and
     *   S. de Gironcoli, J. Phys.: Condens. Matter 24, 424209 (2012).
     *

     Carrying out vdW-DF run using the following parameters:

     Nqs =      20    Nr_points =    1024   r_max =   100.000
     q_mesh =
               0.00001000     0.04494208     0.09755937     0.15916263
               0.23128650     0.31572767     0.41458969     0.53033537
               0.66584808     0.82450364     1.01025438     1.22772762
               1.48234092     1.78043706     2.12944203     2.53805004
               3.01644009     3.57652955     4.23227104     5.00000000

     Gradients computed in reciprocal space

[...]

     Starting wfc are  153 randomized atomic wfcs

     Self-consistent Calculation

[...]

     total energy              =   -1535.04221295 Ry
     Harris-Foulkes estimate   =   -1535.04221402 Ry
     estimated scf accuracy    <       0.00000168 Ry

     iteration # 17     ecut=    36.75 Ry     beta=0.10
     Davidson diagonalization with overlap
     ethr =  1.08E-09,  avg # of iterations =  2.6

[...]

     negative rho (up, down):  1.090E+00 0.000E+00

     Adding external electric field

     Computed dipole along edir(3) :
        Dipole                0.0435 Ry au,          0.1105 Debye
        Dipole field          0.0001 Ry au

        Potential amp.       -0.0091 Ry
        Total length         46.1072 bohr

     End of self-consistent calculation

[...]

          k = 0.0542 0.0000 0.0000 ( 20821 PWs)   bands (ev):

[...]

          k =-0.0813-0.1407 0.0000 ( 20804 PWs)   bands (ev):

   -51.0162 -50.9874 -50.9872 -50.7575 -50.7572 -50.7523 -50.6018 -50.6015
   -50.5605 -47.3233 -47.3126 -47.2783 -47.2712 -47.2403 -47.2384 -47.0214
   -46.9891 -46.9540 -25.6131 -25.5719 -25.5532 -25.4789 -25.4723 -25.4096
   -25.3790 -25.3684 -25.3462 -25.3171 -25.3047 -25.2725 -25.2707 -25.2121
   -25.1996 -25.1770 -25.1420 -25.0400 -24.9724 -24.9549 -24.9400 -24.8490
   -24.8156 -24.8144 -24.8007 -24.7968 -24.6182  -2.8852  -2.5891  -1.9896
    -1.7595  -1.6718  -1.6107  -1.4244  -1.3758  -1.3734  -1.2706  -1.1947
    -1.1229  -1.0926  -0.9033  -0.8986  -0.8409  -0.7867  -0.6418  -0.6192
    -0.3086  -0.2536   0.2927   0.5485   0.8159   0.9586   1.1367   1.3404
     1.4114   1.5519   1.5694   1.6317   1.6522   1.7011   1.8700   1.9474
     2.0624   2.0773   2.2197   2.3878   2.5896   2.5953   3.0803   3.0822
     3.1099   3.2690   3.3560   3.3971   3.5149   3.5914   4.2486   4.2524
     4.3986   4.5387   4.6320   4.7171   4.8186   4.9508   5.0499   5.0633
     5.1273   5.3934   5.5711   5.7897

     the Fermi energy is     1.9568 ev

!    total energy              =   -1535.04220519 Ry
     Harris-Foulkes estimate   =   -1535.04221356 Ry
     estimated scf accuracy    <       0.00000047 Ry

     The total energy is the sum of the following terms:

     one-electron contribution =  -10740.57728692 Ry
     hartree contribution      =    5374.21669794 Ry
     xc contribution           =    -341.46850124 Ry
     ewald contribution        =    4172.88889207 Ry
     electric field correction =       0.00000429 Ry
     smearing contrib. (-TS)   =      -0.10201132 Ry

     convergence has been achieved in  17 iterations

 BEEF-vdW xc energy contributions
           1 :   -298.560326253473
           2 :    274.374070539547
           3 :   -232.291570637171
           4 :    182.210596883058
           5 :   -133.892405874435
           6 :    93.9330110200317
           7 :   -64.5903781982563
           8 :    44.4963487803660
           9 :   -30.4818723311848
          10 :    19.4740123644933
          11 :   -9.69758558253534
          12 :   0.895107419707301
          13 :    6.23369087514328
          14 :   -10.8971098431281
          15 :    12.8686011284439
          16 :   -12.6501928460654
          17 :    11.1781101134372
          18 :   -9.36005506621871
          19 :    7.75060251586706
          20 :   -6.50723842121738
          21 :    5.55459882558591
          22 :   -4.78722941215585
          23 :    4.17391907938975
          24 :   -3.73973857832806
          25 :    3.48532290293156
          26 :   -3.33163346013441
          27 :    3.13974910783793
          28 :   -2.79617415676125
          29 :    2.29918701700637
          30 :   -1.77853820135692
          31 :   -29.2215456758463
          32 :   -21.7032752368272

     Forces acting on atoms (Ry/au):

     negative rho (up, down):  1.090E+00 0.000E+00
     atom    1 type  1   force =    -0.00000020    0.02210934   -0.00401358
     atom    2 type  1   force =     0.01914719   -0.01105471   -0.00401398
     atom    3 type  1   force =    -0.01914700   -0.01105454   -0.00401329
     atom    4 type  2   force =     0.00000011   -0.00000002    0.03129960
     atom    5 type  1   force =    -0.00000084   -0.00508673   -0.00350974
     atom    6 type  1   force =    -0.00440519    0.00254272   -0.00351053
     atom    7 type  1   force =     0.00440551    0.00254398   -0.00350981
     atom    8 type  2   force =    -0.00000010   -0.00000009   -0.00488204
     atom    9 type  1   force =    -0.00000003    0.00081673   -0.00135785
     atom   10 type  1   force =     0.00070745   -0.00040845   -0.00135862
     atom   11 type  1   force =    -0.00070696   -0.00040830   -0.00135795
     atom   12 type  2   force =     0.00000005    0.00000009    0.00022778

     Total force =     0.051385     Total SCF correction =     0.001844

     entering subroutine stress ...

     negative rho (up, down):  1.090E+00 0.000E+00
          total   stress  (Ry/bohr**3)                   (kbar)     P=  -13.09
  -0.00012130   0.00000000  -0.00000000        -17.84      0.00     -0.00
   0.00000000  -0.00012131  -0.00000000          0.00    -17.84     -0.00
  -0.00000000  -0.00000000  -0.00002431         -0.00     -0.00     -3.58

 !ASE

     Writing output data file calc.save

     General routines

     Parallel routines

   This run was terminated on:  21:43:53   2Jan2019

   JOB DONE.
Job  /afs/slac/g/suncat/bin/suncat-tsmpirun -x LD_LIBRARY_PATH -wdir /scratch/qe649559_bxDDL pw.x -in pw.inp

TID   HOST_NAME   COMMAND_LINE            STATUS            TERMINATION_TIME
00000 suncat0182 pw.x -in pw.inp   Done                     01/02/2019 21:43:53
00001 suncat0182 pw.x -in pw.inp   Done                     01/02/2019 21:43:53
00002 suncat0182 pw.x -in pw.inp   Done                     01/02/2019 21:43:53
00003 suncat0182 pw.x -in pw.inp   Done                     01/02/2019 21:43:53
00004 suncat0182 pw.x -in pw.inp   Done                     01/02/2019 21:43:53
00005 suncat0182 pw.x -in pw.inp   Done                     01/02/2019 21:43:53
00006 suncat0182 pw.x -in pw.inp   Done                     01/02/2019 21:43:53
00007 suncat0182 pw.x -in pw.inp   Done                     01/02/2019 21:43:53
00008 suncat0181 pw.x -in pw.inp   Done                     01/02/2019 21:43:53
00009 suncat0181 pw.x -in pw.inp   Done                     01/02/2019 21:43:53
00010 suncat0181 pw.x -in pw.inp   Done                     01/02/2019 21:43:53
00011 suncat0181 pw.x -in pw.inp   Done                     01/02/2019 21:43:53
00012 suncat0181 pw.x -in pw.inp   Done                     01/02/2019 21:43:53
00013 suncat0181 pw.x -in pw.inp   Done                     01/02/2019 21:43:53
00014 suncat0181 pw.x -in pw.inp   Done                     01/02/2019 21:43:53
00015 suncat0181 pw.x -in pw.inp   Done                     01/02/2019 21:43:53
00016 suncat0132 pw.x -in pw.inp   Done                     01/02/2019 21:43:53
00017 suncat0132 pw.x -in pw.inp   Done                     01/02/2019 21:43:53
00018 suncat0132 pw.x -in pw.inp   Done                     01/02/2019 21:43:53
00019 suncat0132 pw.x -in pw.inp   Done                     01/02/2019 21:43:53
00020 suncat0132 pw.x -in pw.inp   Done                     01/02/2019 21:43:53
00021 suncat0132 pw.x -in pw.inp   Done                     01/02/2019 21:43:53
00022 suncat0132 pw.x -in pw.inp   Done                     01/02/2019 21:43:53
00023 suncat0132 pw.x -in pw.inp   Done                     01/02/2019 21:43:53
00024 suncat0131 pw.x -in pw.inp   Done                     01/02/2019 21:43:53
00025 suncat0131 pw.x -in pw.inp   Done                     01/02/2019 21:43:53
00026 suncat0131 pw.x -in pw.inp   Done                     01/02/2019 21:43:53
00027 suncat0131 pw.x -in pw.inp   Done                     01/02/2019 21:43:53
00028 suncat0131 pw.x -in pw.inp   Done                     01/02/2019 21:43:53
00029 suncat0131 pw.x -in pw.inp   Done                     01/02/2019 21:43:53
00030 suncat0131 pw.x -in pw.inp   Done                     01/02/2019 21:43:53
00031 suncat0131 pw.x -in pw.inp   Done                     01/02/2019 21:43:53
00032 suncat0130 pw.x -in pw.inp   Done                     01/02/2019 21:43:53
00033 suncat0130 pw.x -in pw.inp   Done                     01/02/2019 21:43:53
00034 suncat0130 pw.x -in pw.inp   Done                     01/02/2019 21:43:53
00035 suncat0130 pw.x -in pw.inp   Done                     01/02/2019 21:43:53
00036 suncat0130 pw.x -in pw.inp   Done                     01/02/2019 21:43:53
00037 suncat0130 pw.x -in pw.inp   Done                     01/02/2019 21:43:53
00038 suncat0130 pw.x -in pw.inp   Done                     01/02/2019 21:43:53
00039 suncat0130 pw.x -in pw.inp   Done                     01/02/2019 21:43:53
00040 suncat0124 pw.x -in pw.inp   Done                     01/02/2019 21:43:53
00041 suncat0124 pw.x -in pw.inp   Done                     01/02/2019 21:43:53
00042 suncat0124 pw.x -in pw.inp   Done                     01/02/2019 21:43:53
00043 suncat0124 pw.x -in pw.inp   Done                     01/02/2019 21:43:53
00044 suncat0124 pw.x -in pw.inp   Done                     01/02/2019 21:43:53
00045 suncat0124 pw.x -in pw.inp   Done                     01/02/2019 21:43:53
00046 suncat0124 pw.x -in pw.inp   Done                     01/02/2019 21:43:53
00047 suncat0124 pw.x -in pw.inp   Done                     01/02/2019 21:43:53
00048 suncat0280 pw.x -in pw.inp   Done                     01/02/2019 21:43:53
00049 suncat0280 pw.x -in pw.inp   Done                     01/02/2019 21:43:53
00050 suncat0280 pw.x -in pw.inp   Done                     01/02/2019 21:43:53
00051 suncat0280 pw.x -in pw.inp   Done                     01/02/2019 21:43:53
00052 suncat0280 pw.x -in pw.inp   Done                     01/02/2019 21:43:53
00053 suncat0280 pw.x -in pw.inp   Done                     01/02/2019 21:43:53
00054 suncat0280 pw.x -in pw.inp   Done                     01/02/2019 21:43:53
00055 suncat0280 pw.x -in pw.inp   Done                     01/02/2019 21:43:53
00056 suncat0279 pw.x -in pw.inp   Done                     01/02/2019 21:43:53
00057 suncat0279 pw.x -in pw.inp   Done                     01/02/2019 21:43:53
00058 suncat0279 pw.x -in pw.inp   Done                     01/02/2019 21:43:53
00059 suncat0279 pw.x -in pw.inp   Done                     01/02/2019 21:43:53
00060 suncat0279 pw.x -in pw.inp   Done                     01/02/2019 21:43:53
00061 suncat0279 pw.x -in pw.inp   Done                     01/02/2019 21:43:53
00062 suncat0279 pw.x -in pw.inp   Done                     01/02/2019 21:43:53
00063 suncat0279 pw.x -in pw.inp   Done                     01/02/2019 21:43:53