     Program PWSCF v.5.1rc2 (svn rev. 11289) starts on 31Dec2018 at  8:38:24

     Current dimensions of program PWSCF are:
     Max number of different atomic species (ntypx) = 10
     Max number of k-points (npk) =  40000
     Max angular momentum in pseudopotentials (lmaxx) =  3
     Presently stress not available with electric field

     IMPORTANT: XC functional enforced from input :
     Exchange-correlation      = BEEF-VDW ( 1  4 27 13 2)
     Any further DFT definition will be discarded
     Please, verify this is what you really want

     Subspace diagonalization in iterative solution of the eigenvalue problem:
     a serial algorithm will be used

     bravais-lattice index     =            0
     lattice parameter (alat)  =       1.8897  a.u.
     unit-cell volume          =    6624.0030 (a.u.)^3
     number of atoms/cell      =           12
     number of atomic types    =            2
     number of electrons       =       168.00
     number of Kohn-Sham states=          114
     kinetic-energy cutoff     =      36.7493  Ry
     charge density cutoff     =     367.4932  Ry
     convergence threshold     =      1.0E-06
     mixing beta               =       0.1000
     number of iterations used =           10  plain     mixing
     Exchange-correlation      = BEEF-VDW ( 1  4 27 13 2)
     nstep                     =           50

     celldm(1)=   1.889726  celldm(2)=   0.000000  celldm(3)=   0.000000
     celldm(4)=   0.000000  celldm(5)=   0.000000  celldm(6)=   0.000000

     crystal axes: (cart. coord. in units of alat)
               a(1) = (   6.673619   0.000000   0.000000 )
               a(2) = (  -3.336809   5.779523   0.000000 )
               a(3) = (   0.000000   0.000000  25.448987 )

     reciprocal axes: (cart. coord. in units 2 pi/alat)
               b(1) = (  0.149844  0.086512  0.000000 )
               b(2) = (  0.000000  0.173025  0.000000 )
               b(3) = (  0.000000  0.000000  0.039294 )

     PseudoPot. # 1 for Pb read from file:
     /afs/slac.stanford.edu/u/if/mamunm/psp/gbrv1.5pbe/Pb.UPF
     MD5 check sum: 3d1c1779aa92214d1e8f3a7db79003e2
     Pseudo is Ultrasoft + core correction, Zval = 14.0
     Generated by new atomic code, or converted to UPF format
     Using radial grid of  899 points,  6 beta functions with:
                l(1) =   0
                l(2) =   0
                l(3) =   1
                l(4) =   1
                l(5) =   2
                l(6) =   2
     Q(r) pseudized with  6 coefficients,  rinner =    1.000   1.000   1.000
                                                       1.000   1.000

     PseudoPot. # 2 for Cr read from file:
     /afs/slac.stanford.edu/u/if/mamunm/psp/gbrv1.5pbe/Cr.UPF
     MD5 check sum: 0d52af634a40206e4dee301ad30da4bf
     Pseudo is Ultrasoft + core correction, Zval = 14.0
     Generated by new atomic code, or converted to UPF format
     Using radial grid of  857 points,  6 beta functions with:
                l(1) =   0
                l(2) =   0
                l(3) =   1
                l(4) =   1
                l(5) =   2
                l(6) =   2
     Q(r) pseudized with  8 coefficients,  rinner =    0.950   0.950   0.950
                                                       0.950   0.950

     vdW kernel table read from file vdW_kernel_table
     MD5 check sum: 095c7af220d748ca6e76c0b4c6cfb241

     atomic species   valence    mass     pseudopotential
        Pb1           14.00   207.20000     Pb( 1.00)
        Cr1           14.00    51.99610     Cr( 1.00)

     No symmetry found

   Cartesian axes

     site n.     atom                  positions (alat units)
         1           Pb1 tau(   1) = (   0.0000000   0.0000000  10.0000000  )
         2           Pb1 tau(   2) = (  -1.6684047   2.8897617  10.0000000  )
         3           Pb1 tau(   3) = (   1.6684047   2.8897617  10.0000000  )
         4           Cr1 tau(   4) = (   3.3368094   0.0000000  10.0000000  )
         5           Pb1 tau(   5) = (   3.3368094   1.9265078  12.7244935  )
         6           Pb1 tau(   6) = (   1.6684047   4.8162695  12.7244935  )
         7           Pb1 tau(   7) = (  -1.6684047   4.8162695  12.7244935  )
         8           Cr1 tau(   8) = (   0.0000000   1.9265078  12.7244935  )
         9           Pb1 tau(   9) = (  -0.0000000   3.8530156  15.4489869  )
        10           Pb1 tau(  10) = (   1.6684047   0.9632539  15.4489869  )
        11           Pb1 tau(  11) = (   5.0052141   0.9632539  15.4489869  )
        12           Cr1 tau(  12) = (   3.3368094   3.8530156  15.4489869  )

     number of k points=    20  Fermi-Dirac smearing, width (Ry)=  0.0110
                       cart. coord. in units 2pi/alat
        k(    1) = (   0.0000000   0.0000000   0.0000000), wk =   0.0555556
        k(    2) = (   0.0000000   0.0288374   0.0000000), wk =   0.1111111
        k(    3) = (   0.0000000   0.0576749   0.0000000), wk =   0.1111111
        k(    4) = (   0.0000000  -0.0865123   0.0000000), wk =   0.0555556
        k(    5) = (   0.0249740   0.0144187   0.0000000), wk =   0.1111111
        k(    6) = (   0.0249740   0.0432562   0.0000000), wk =   0.1111111
        k(    7) = (   0.0249740   0.0720936   0.0000000), wk =   0.1111111
        k(    8) = (   0.0249740  -0.0720936   0.0000000), wk =   0.1111111
        k(    9) = (   0.0249740  -0.0432562   0.0000000), wk =   0.1111111
        k(   10) = (   0.0249740  -0.0144187   0.0000000), wk =   0.1111111
        k(   11) = (   0.0499479   0.0288374   0.0000000), wk =   0.1111111
        k(   12) = (   0.0499479   0.0576749   0.0000000), wk =   0.1111111
        k(   13) = (   0.0499479   0.0865123   0.0000000), wk =   0.1111111
        k(   14) = (   0.0499479  -0.0576749   0.0000000), wk =   0.1111111
        k(   15) = (   0.0499479  -0.0288374   0.0000000), wk =   0.1111111
        k(   16) = (   0.0499479   0.0000000   0.0000000), wk =   0.1111111
        k(   17) = (  -0.0749219  -0.0432562   0.0000000), wk =   0.0555556
        k(   18) = (  -0.0749219  -0.0144187   0.0000000), wk =   0.1111111
        k(   19) = (  -0.0749219   0.0144187   0.0000000), wk =   0.1111111
        k(   20) = (  -0.0749219  -0.1297685   0.0000000), wk =   0.0555556

     Largest allocated arrays     est. size (Mb)     dimensions
     Largest temporary arrays     est. size (Mb)     dimensions

     Check: negative/imaginary core charge=   -0.000002    0.000000

     Initial potential from superposition of free atoms
     Check: negative starting charge=   -0.154585

     starting charge  164.97879, renormalised to  168.00000

     negative rho (up, down):  1.574E-01 0.000E+00

     *
     * You are using vdW-DF for exchange-correlation in this calculation.
     * Please cite the following three references that made this development
     * possible:
     *
     *   M. Dion, H. Rydberg, E. Schroder, D. C. Langreth, and
     *   B. I. Lundqvist, Phys. Rev. Lett. 92, 246401 (2004).
     *
     *   T. Thonhauser, V. R. Cooper, S. Li, A. Puzder, P. Hyldgaard, and
     *   D. C. Langreth, Phys. Rev. B 76, 125112 (2007).
     *
     *   G. Roman-Perez and J. M. Soler, Phys. Rev. Lett. 103, 096102 (2009).
     *
     *
     * If you are using vdW-DF2, please also cite:
     *
     *   K. Lee, E. D. Murray, L. Kong, B. I. Lundqvist, and
     *   D. C. Langreth, Phys. Rev. B 82, 081101(R) (2010).
     *
     *
     * If you are calculating the stress with vdW-DF, please also cite:
     *
     *   R. Sabatini, E. Kucukbenli, B. Kolb, T. Thonhauser, and
     *   S. de Gironcoli, J. Phys.: Condens. Matter 24, 424209 (2012).
     *

     Carrying out vdW-DF run using the following parameters:

     Nqs =      20    Nr_points =    1024   r_max =   100.000
     q_mesh =
               0.00001000     0.04494208     0.09755937     0.15916263
               0.23128650     0.31572767     0.41458969     0.53033537
               0.66584808     0.82450364     1.01025438     1.22772762
               1.48234092     1.78043706     2.12944203     2.53805004
               3.01644009     3.57652955     4.23227104     5.00000000

     Gradients computed in reciprocal space

     Adding external electric field

     Computed dipole along edir(3) :
        Dipole                0.0000 Ry au,          0.0000 Debye
        Dipole field          0.0000 Ry au

        Potential amp.       -0.0000 Ry
        Total length         46.8893 bohr

     Starting wfc are  111 randomized atomic wfcs +    3 random wfc

     Self-consistent Calculation

     iteration #  1     ecut=    36.75 Ry     beta=0.10
     Davidson diagonalization with overlap
     ethr =  1.00E-02,  avg # of iterations =  5.1

[...]

     total energy              =   -2017.04862818 Ry
     Harris-Foulkes estimate   =   -2025.36727481 Ry
     estimated scf accuracy    <      45.81270435 Ry

[...]

     End of self-consistent calculation

          k = 0.0000 0.0000 0.0000 ( 24813 PWs)   bands (ev):

   -70.5060 -70.4992 -70.4991 -41.8582 -41.8582 -41.8455 -41.8455 -41.8364
   -41.8364 -41.8364 -41.8364 -41.7841 -16.4828 -16.4454 -16.4454 -16.4352
   -16.4345 -16.4056 -16.3592 -16.3592 -16.3425 -16.3425 -16.3012 -16.3010
   -16.3010 -16.2785 -16.2491 -16.2491 -16.2461 -16.2059 -16.2059 -16.2025
   -16.1725 -16.1393 -16.1209 -16.1209 -16.1198 -16.1198 -16.1114 -16.1113
   -16.1073 -16.0952 -16.0952 -16.0942 -16.0942 -16.0730 -16.0730 -16.0457
   -16.0456 -15.9901 -15.9901 -15.9710 -15.9652 -15.9652 -15.9373 -15.9214
   -15.9166 -10.1798  -9.0707  -7.6689  -6.8351  -6.8351  -6.2614  -6.2614
    -5.5301  -5.5300  -3.0440  -2.3641  -2.0519  -1.8336  -1.8336  -1.5868
    -0.8200  -0.8200  -0.5560  -0.5560  -0.2024   0.7477   0.7477   0.7522
     0.7522   1.0373   1.0529   1.0529   1.1043   1.1185   1.1185   1.1306
     1.1306   1.2417   1.2417   1.2463   1.5799   1.8073   2.6771   3.1758
     3.1758   3.2269   3.2269   3.9045   4.2982   4.3656   4.4467   4.8630
     5.2683   5.2683   5.3677   5.5174   5.7514   5.7514   5.7923   6.5428
     6.7245   6.7245

[...]

          k =-0.0749-0.0433 0.0000 ( 24974 PWs)   bands (ev):

[...]

     the Fermi energy is     1.0503 ev

!    total energy              =   -2022.29121459 Ry
     Harris-Foulkes estimate   =   -2022.29126506 Ry
     estimated scf accuracy    <       0.00000081 Ry

     The total energy is the sum of the following terms:

     one-electron contribution =  -10425.56777755 Ry
     hartree contribution      =    5262.72111600 Ry
     xc contribution           =    -657.39543994 Ry
     ewald contribution        =    3798.09894125 Ry
     electric field correction =       0.00000003 Ry
     smearing contrib. (-TS)   =      -0.14805438 Ry

     convergence has been achieved in  21 iterations

 BEEF-vdW xc energy contributions
           1 :   -584.256764106369
           2 :    540.748170323403
           3 :   -464.899326670052
           4 :    374.407623756447
           5 :   -286.863165253688
           6 :    214.214789405295
           7 :   -160.421407331299
           8 :    122.636173236248
           9 :   -94.6855083041354
          10 :    70.8308467734360
          11 :   -48.1294833204945
          12 :    26.7526561558925
[...]
     MD5 check sum: 3d1c1779aa92214d1e8f3a7db79003e2
     Pseudo is Ultrasoft + core correction, Zval = 14.0
     Generated by new atomic code, or converted to UPF format
     Using radial grid of  899 points,  6 beta functions with:
                l(1) =   0
                l(2) =   0
                l(3) =   1
                l(4) =   1
                l(5) =   2
                l(6) =   2
     Q(r) pseudized with  6 coefficients,  rinner =    1.000   1.000   1.000
                                                       1.000   1.000

     PseudoPot. # 2 for Cr read from file:
     /afs/slac.stanford.edu/u/if/mamunm/psp/gbrv1.5pbe/Cr.UPF
     MD5 check sum: 0d52af634a40206e4dee301ad30da4bf
     Pseudo is Ultrasoft + core correction, Zval = 14.0
     Generated by new atomic code, or converted to UPF format
     Using radial grid of  857 points,  6 beta functions with:
                l(1) =   0
                l(2) =   0
                l(3) =   1
                l(4) =   1
                l(5) =   2
                l(6) =   2
     Q(r) pseudized with  8 coefficients,  rinner =    0.950   0.950   0.950
                                                       0.950   0.950

     vdW kernel table read from file vdW_kernel_table
     MD5 check sum: 095c7af220d748ca6e76c0b4c6cfb241

     atomic species   valence    mass     pseudopotential
        Pb1           14.00   207.20000     Pb( 1.00)
        Cr1           14.00    51.99610     Cr( 1.00)

     No symmetry found

   Cartesian axes

     site n.     atom                  positions (alat units)
         1           Pb1 tau(   1) = (   0.0000000   0.0000000  10.0000000  )
         2           Pb1 tau(   2) = (  -1.6684047   2.8897617  10.0000000  )
         3           Pb1 tau(   3) = (   1.6684047   2.8897617  10.0000000  )
         4           Cr1 tau(   4) = (   3.3368094   0.0000000  10.0000000  )
         5           Pb1 tau(   5) = (   3.3368094   1.9265078  12.7244935  )
         6           Pb1 tau(   6) = (   1.6684047   4.8162695  12.7244935  )
         7           Pb1 tau(   7) = (  -1.6684047   4.8162695  12.7244935  )
         8           Cr1 tau(   8) = (   0.0000000   1.9265078  12.7244935  )
         9           Pb1 tau(   9) = (  -0.0000250   3.7903544  15.5563844  )
        10           Pb1 tau(  10) = (   1.6140807   0.9946292  15.5562350  )
        11           Pb1 tau(  11) = (   5.0594790   0.9946277  15.5563262  )
        12           Cr1 tau(  12) = (   3.3368137   3.8530172  14.7820743  )

     number of k points=    20  Fermi-Dirac smearing, width (Ry)=  0.0110
                       cart. coord. in units 2pi/alat
        k(    1) = (   0.0000000   0.0000000   0.0000000), wk =   0.0555556
        k(    2) = (   0.0000000   0.0288374   0.0000000), wk =   0.1111111
        k(    3) = (   0.0000000   0.0576749   0.0000000), wk =   0.1111111
        k(    4) = (   0.0000000  -0.0865123   0.0000000), wk =   0.0555556
        k(    5) = (   0.0249740   0.0144187   0.0000000), wk =   0.1111111
        k(    6) = (   0.0249740   0.0432562   0.0000000), wk =   0.1111111
        k(    7) = (   0.0249740   0.0720936   0.0000000), wk =   0.1111111
        k(    8) = (   0.0249740  -0.0720936   0.0000000), wk =   0.1111111
        k(    9) = (   0.0249740  -0.0432562   0.0000000), wk =   0.1111111
        k(   10) = (   0.0249740  -0.0144187   0.0000000), wk =   0.1111111
        k(   11) = (   0.0499479   0.0288374   0.0000000), wk =   0.1111111
        k(   12) = (   0.0499479   0.0576749   0.0000000), wk =   0.1111111
        k(   13) = (   0.0499479   0.0865123   0.0000000), wk =   0.1111111
        k(   14) = (   0.0499479  -0.0576749   0.0000000), wk =   0.1111111
        k(   15) = (   0.0499479  -0.0288374   0.0000000), wk =   0.1111111
        k(   16) = (   0.0499479   0.0000000   0.0000000), wk =   0.1111111
        k(   17) = (  -0.0749219  -0.0432562   0.0000000), wk =   0.0555556
        k(   18) = (  -0.0749219  -0.0144187   0.0000000), wk =   0.1111111
        k(   19) = (  -0.0749219   0.0144187   0.0000000), wk =   0.1111111
        k(   20) = (  -0.0749219  -0.1297685   0.0000000), wk =   0.0555556

     Largest allocated arrays     est. size (Mb)     dimensions
     Largest temporary arrays     est. size (Mb)     dimensions

     Check: negative/imaginary core charge=   -0.000002    0.000000

     Initial potential from superposition of free atoms
     Check: negative starting charge=   -0.153928

     starting charge  164.97879, renormalised to  168.00000

[...]

     *
     * You are using vdW-DF for exchange-correlation in this calculation.
     * Please cite the following three references that made this development
     * possible:
     *
     *   M. Dion, H. Rydberg, E. Schroder, D. C. Langreth, and
     *   B. I. Lundqvist, Phys. Rev. Lett. 92, 246401 (2004).
     *
     *   T. Thonhauser, V. R. Cooper, S. Li, A. Puzder, P. Hyldgaard, and
     *   D. C. Langreth, Phys. Rev. B 76, 125112 (2007).
     *
     *   G. Roman-Perez and J. M. Soler, Phys. Rev. Lett. 103, 096102 (2009).
     *
     *
     * If you are using vdW-DF2, please also cite:
     *
     *   K. Lee, E. D. Murray, L. Kong, B. I. Lundqvist, and
     *   D. C. Langreth, Phys. Rev. B 82, 081101(R) (2010).
     *
     *
     * If you are calculating the stress with vdW-DF, please also cite:
     *
     *   R. Sabatini, E. Kucukbenli, B. Kolb, T. Thonhauser, and
     *   S. de Gironcoli, J. Phys.: Condens. Matter 24, 424209 (2012).
     *

     Carrying out vdW-DF run using the following parameters:

     Nqs =      20    Nr_points =    1024   r_max =   100.000
     q_mesh =
               0.00001000     0.04494208     0.09755937     0.15916263
               0.23128650     0.31572767     0.41458969     0.53033537
               0.66584808     0.82450364     1.01025438     1.22772762
               1.48234092     1.78043706     2.12944203     2.53805004
               3.01644009     3.57652955     4.23227104     5.00000000

     Gradients computed in reciprocal space

[...]

     Starting wfc are  111 randomized atomic wfcs +    3 random wfc

     Self-consistent Calculation

[...]

     total energy              =   -2022.33244380 Ry
     Harris-Foulkes estimate   =   -2022.33244659 Ry
     estimated scf accuracy    <       0.00000109 Ry

     iteration # 31     ecut=    36.75 Ry     beta=0.10
     Davidson diagonalization with overlap
     ethr =  6.51E-10,  avg # of iterations =  5.3

[...]

     negative rho (up, down):  1.646E-01 0.000E+00

     Adding external electric field

     Computed dipole along edir(3) :
        Dipole                0.0481 Ry au,          0.1223 Debye
        Dipole field          0.0001 Ry au

        Potential amp.       -0.0086 Ry
        Total length         46.8893 bohr

     End of self-consistent calculation

[...]

          k = 0.0499 0.0000 0.0000 ( 24894 PWs)   bands (ev):

[...]

          k =-0.0749-0.1298 0.0000 ( 24974 PWs)   bands (ev):

   -70.5577 -70.5458 -70.5030 -41.9285 -41.8905 -41.8905 -41.8820 -41.8819
   -41.8558 -41.8557 -41.8374 -41.8303 -16.4454 -16.4082 -16.3769 -16.3643
   -16.3450 -16.3292 -16.3134 -16.3042 -16.2969 -16.2873 -16.2726 -16.2537
   -16.2405 -16.2388 -16.2296 -16.2194 -16.2095 -16.2084 -16.2033 -16.2023
   -16.1851 -16.1817 -16.1731 -16.1721 -16.1631 -16.1613 -16.1534 -16.1495
   -16.1495 -16.1364 -16.1284 -16.1239 -16.1148 -16.1064 -16.1036 -16.1021
   -16.1001 -16.0911 -16.0788 -16.0699 -16.0631 -16.0449 -15.9999 -15.9865
   -15.9545  -9.2875  -8.9338  -8.1846  -7.6898  -7.1913  -7.1649  -6.7363
    -6.2862  -5.4496  -2.7682  -2.2263  -1.5242  -0.7348  -0.5287  -0.4716
    -0.3215  -0.2317  -0.0929   0.2426   0.2793   0.3558   0.6972   0.7104
     0.9114   0.9300   0.9644   1.0087   1.0627   1.0941   1.1474   1.2270
     1.3551   1.4267   1.7458   1.8460   1.8817   2.1611   2.2846   2.4540
     2.7356   3.2343   3.2714   3.3487   3.5428   4.1761   4.3441   4.4305
     4.6914   4.9358   5.1147   5.2987   5.3659   5.5105   5.8752   5.9690
     5.9901   6.1230

     the Fermi energy is     1.0232 ev

!    total energy              =   -2022.33242913 Ry
     Harris-Foulkes estimate   =   -2022.33244435 Ry
     estimated scf accuracy    <       0.00000067 Ry

     The total energy is the sum of the following terms:

     one-electron contribution =  -10533.68072257 Ry
     hartree contribution      =    5316.65404408 Ry
     xc contribution           =    -657.44817303 Ry
     ewald contribution        =    3852.27736804 Ry
     electric field correction =       0.00000439 Ry
     smearing contrib. (-TS)   =      -0.13495003 Ry

     convergence has been achieved in  31 iterations

 BEEF-vdW xc energy contributions
           1 :   -584.315018618368
           2 :    540.837254515585
           3 :   -465.024867736047
           4 :    374.539223993716
           5 :   -286.950214176051
           6 :    214.221930184018
           7 :   -160.353916370182
           8 :    122.534102176136
           9 :   -94.5941203941445
          10 :    70.7734653887492
          11 :   -48.1026539853339
          12 :    26.7422348691566
          13 :   -8.72249137306403
          14 :   -3.87288541127884
          15 :    10.2820869820382
          16 :   -11.4865558018846
          17 :    9.71146225652149
          18 :   -7.41447303056100
          19 :    6.28675646259148
          20 :   -6.70634535128590
          21 :    7.85170527853245
          22 :   -8.38208220280444
          23 :    7.31716894705585
          24 :   -4.65047486226842
          25 :    1.37128673229245
          26 :    1.10156118850182
          27 :   -1.73945847958885
          28 :   0.494375834932612
          29 :    1.68671456334937
          30 :   -3.42665730625629
          31 :   -47.7688585539395
          32 :   -34.8824817008128

     Forces acting on atoms (Ry/au):

     negative rho (up, down):  1.646E-01 0.000E+00
     atom    1 type  1   force =     0.00000049    0.01737456   -0.01081518
     atom    2 type  1   force =     0.01504562   -0.00868700   -0.01081770
     atom    3 type  1   force =    -0.01504608   -0.00868808   -0.01081692
     atom    4 type  2   force =     0.00000014   -0.00000024    0.04952223
     atom    5 type  1   force =     0.00000100   -0.01163783   -0.00478113
     atom    6 type  1   force =    -0.01007960    0.00581838   -0.00477463
     atom    7 type  1   force =     0.01007993    0.00581701   -0.00477855
     atom    8 type  2   force =     0.00000027   -0.00000023    0.00354858
     atom    9 type  1   force =    -0.00000017    0.00012764   -0.00165744
     atom   10 type  1   force =     0.00010709   -0.00006245   -0.00165343
     atom   11 type  1   force =    -0.00010894   -0.00006172   -0.00165590
     atom   12 type  2   force =     0.00000024   -0.00000005   -0.00131994

     Total force =     0.064857     Total SCF correction =     0.002465

     entering subroutine stress ...

     negative rho (up, down):  1.646E-01 0.000E+00
          total   stress  (Ry/bohr**3)                   (kbar)     P=   -6.24
  -0.00005362   0.00000000  -0.00000000         -7.89      0.00     -0.00
   0.00000000  -0.00005362   0.00000000          0.00     -7.89      0.00
  -0.00000000   0.00000000  -0.00001999         -0.00      0.00     -2.94

 !ASE

     Writing output data file calc.save

     General routines

     Parallel routines

   This run was terminated on:  11:35:47  31Dec2018

   JOB DONE.
Job  /afs/slac/g/suncat/bin/suncat-tsmpirun -x LD_LIBRARY_PATH -wdir /scratch/qe648719_4uWgo pw.x -in pw.inp

TID   HOST_NAME   COMMAND_LINE            STATUS            TERMINATION_TIME
00000 suncat0056 pw.x -in pw.inp   Done                     12/31/2018 11:35:47
00001 suncat0056 pw.x -in pw.inp   Done                     12/31/2018 11:35:47
00002 suncat0056 pw.x -in pw.inp   Done                     12/31/2018 11:35:47
00003 suncat0056 pw.x -in pw.inp   Done                     12/31/2018 11:35:47
00004 suncat0056 pw.x -in pw.inp   Done                     12/31/2018 11:35:47
00005 suncat0056 pw.x -in pw.inp   Done                     12/31/2018 11:35:47
00006 suncat0056 pw.x -in pw.inp   Done                     12/31/2018 11:35:47
00007 suncat0056 pw.x -in pw.inp   Done                     12/31/2018 11:35:47
00008 suncat0052 pw.x -in pw.inp   Done                     12/31/2018 11:35:47
00009 suncat0052 pw.x -in pw.inp   Done                     12/31/2018 11:35:47
00010 suncat0052 pw.x -in pw.inp   Done                     12/31/2018 11:35:47
00011 suncat0052 pw.x -in pw.inp   Done                     12/31/2018 11:35:47
00012 suncat0052 pw.x -in pw.inp   Done                     12/31/2018 11:35:47
00013 suncat0052 pw.x -in pw.inp   Done                     12/31/2018 11:35:47
00014 suncat0052 pw.x -in pw.inp   Done                     12/31/2018 11:35:47
00015 suncat0052 pw.x -in pw.inp   Done                     12/31/2018 11:35:47
00016 suncat0048 pw.x -in pw.inp   Done                     12/31/2018 11:35:47
00017 suncat0048 pw.x -in pw.inp   Done                     12/31/2018 11:35:47
00018 suncat0048 pw.x -in pw.inp   Done                     12/31/2018 11:35:47
00019 suncat0048 pw.x -in pw.inp   Done                     12/31/2018 11:35:47
00020 suncat0048 pw.x -in pw.inp   Done                     12/31/2018 11:35:47
00021 suncat0048 pw.x -in pw.inp   Done                     12/31/2018 11:35:47
00022 suncat0048 pw.x -in pw.inp   Done                     12/31/2018 11:35:47
00023 suncat0048 pw.x -in pw.inp   Done                     12/31/2018 11:35:47
00024 suncat0047 pw.x -in pw.inp   Done                     12/31/2018 11:35:47
00025 suncat0047 pw.x -in pw.inp   Done                     12/31/2018 11:35:47
00026 suncat0047 pw.x -in pw.inp   Done                     12/31/2018 11:35:47
00027 suncat0047 pw.x -in pw.inp   Done                     12/31/2018 11:35:47
00028 suncat0047 pw.x -in pw.inp   Done                     12/31/2018 11:35:47
00029 suncat0047 pw.x -in pw.inp   Done                     12/31/2018 11:35:47
00030 suncat0047 pw.x -in pw.inp   Done                     12/31/2018 11:35:47
00031 suncat0047 pw.x -in pw.inp   Done                     12/31/2018 11:35:47
00032 suncat0041 pw.x -in pw.inp   Done                     12/31/2018 11:35:47
00033 suncat0041 pw.x -in pw.inp   Done                     12/31/2018 11:35:47
00034 suncat0041 pw.x -in pw.inp   Done                     12/31/2018 11:35:47
00035 suncat0041 pw.x -in pw.inp   Done                     12/31/2018 11:35:47
00036 suncat0041 pw.x -in pw.inp   Done                     12/31/2018 11:35:47
00037 suncat0041 pw.x -in pw.inp   Done                     12/31/2018 11:35:47
00038 suncat0041 pw.x -in pw.inp   Done                     12/31/2018 11:35:47
00039 suncat0041 pw.x -in pw.inp   Done                     12/31/2018 11:35:47
00040 suncat0039 pw.x -in pw.inp   Done                     12/31/2018 11:35:47
00041 suncat0039 pw.x -in pw.inp   Done                     12/31/2018 11:35:47
00042 suncat0039 pw.x -in pw.inp   Done                     12/31/2018 11:35:47
00043 suncat0039 pw.x -in pw.inp   Done                     12/31/2018 11:35:47
00044 suncat0039 pw.x -in pw.inp   Done                     12/31/2018 11:35:47
00045 suncat0039 pw.x -in pw.inp   Done                     12/31/2018 11:35:47
00046 suncat0039 pw.x -in pw.inp   Done                     12/31/2018 11:35:47
00047 suncat0039 pw.x -in pw.inp   Done                     12/31/2018 11:35:47
00048 suncat0207 pw.x -in pw.inp   Done                     12/31/2018 11:35:47
00049 suncat0207 pw.x -in pw.inp   Done                     12/31/2018 11:35:47
00050 suncat0207 pw.x -in pw.inp   Done                     12/31/2018 11:35:47
00051 suncat0207 pw.x -in pw.inp   Done                     12/31/2018 11:35:47
00052 suncat0207 pw.x -in pw.inp   Done                     12/31/2018 11:35:47
00053 suncat0207 pw.x -in pw.inp   Done                     12/31/2018 11:35:47
00054 suncat0207 pw.x -in pw.inp   Done                     12/31/2018 11:35:47
00055 suncat0207 pw.x -in pw.inp   Done                     12/31/2018 11:35:47
00056 suncat0206 pw.x -in pw.inp   Done                     12/31/2018 11:35:47
00057 suncat0206 pw.x -in pw.inp   Done                     12/31/2018 11:35:47
00058 suncat0206 pw.x -in pw.inp   Done                     12/31/2018 11:35:47
00059 suncat0206 pw.x -in pw.inp   Done                     12/31/2018 11:35:47
00060 suncat0206 pw.x -in pw.inp   Done                     12/31/2018 11:35:47
00061 suncat0206 pw.x -in pw.inp   Done                     12/31/2018 11:35:47
00062 suncat0206 pw.x -in pw.inp   Done                     12/31/2018 11:35:47
00063 suncat0206 pw.x -in pw.inp   Done                     12/31/2018 11:35:47