     Program PWSCF v.5.1rc2 (svn rev. 11289) starts on  1Jan2019 at 18:53:29

     Current dimensions of program PWSCF are:
     Max number of different atomic species (ntypx) = 10
     Max number of k-points (npk) =  40000
     Max angular momentum in pseudopotentials (lmaxx) =  3
     Presently stress not available with electric field

     IMPORTANT: XC functional enforced from input :
     Exchange-correlation      = BEEF-VDW ( 1  4 27 13 2)
     Any further DFT definition will be discarded
     Please, verify this is what you really want

     Subspace diagonalization in iterative solution of the eigenvalue problem:
     a serial algorithm will be used

     bravais-lattice index     =            0
     lattice parameter (alat)  =       1.8897  a.u.
     unit-cell volume          =    4638.4224 (a.u.)^3
     number of atoms/cell      =           12
     number of atomic types    =            2
     number of electrons       =       171.00
     number of Kohn-Sham states=          115
     kinetic-energy cutoff     =      36.7493  Ry
     charge density cutoff     =     367.4932  Ry
     convergence threshold     =      1.0E-06
     mixing beta               =       0.1000
     number of iterations used =           10  plain     mixing
     Exchange-correlation      = BEEF-VDW ( 1  4 27 13 2)
     nstep                     =           50

     celldm(1)=   1.889726  celldm(2)=   0.000000  celldm(3)=   0.000000
     celldm(4)=   0.000000  celldm(5)=   0.000000  celldm(6)=   0.000000

     crystal axes: (cart. coord. in units of alat)
               a(1) = (   5.676094   0.000000   0.000000 )
               a(2) = (  -2.838047   4.915641   0.000000 )
               a(3) = (   0.000000   0.000000  24.634511 )

     reciprocal axes: (cart. coord. in units 2 pi/alat)
               b(1) = (  0.176177  0.101716  0.000000 )
               b(2) = (  0.000000  0.203432  0.000000 )
               b(3) = (  0.000000  0.000000  0.040593 )

     PseudoPot. # 1 for Tc read from file:
     /afs/slac.stanford.edu/u/if/mamunm/psp/gbrv1.5pbe/Tc.UPF
     MD5 check sum: 9eb49e5b028550b2339a02317eb7b844
     Pseudo is Ultrasoft + core correction, Zval = 15.0
     Generated by new atomic code, or converted to UPF format
     Using radial grid of  965 points,  6 beta functions with:
                l(1) =   0
                l(2) =   0
                l(3) =   1
                l(4) =   1
                l(5) =   2
                l(6) =   2
     Q(r) pseudized with  8 coefficients,  rinner =    1.300   1.300   1.300
                                                       1.300   1.300

     PseudoPot. # 2 for Hf read from file:
     /afs/slac.stanford.edu/u/if/mamunm/psp/gbrv1.5pbe/Hf.UPF
     MD5 check sum: 8ee9378dfe14276e333edf04c5e4aa26
     Pseudo is Ultrasoft + core correction, Zval = 12.0
     Generated by new atomic code, or converted to UPF format
     Using radial grid of  921 points,  8 beta functions with:
                l(1) =   0
                l(2) =   0
                l(3) =   0
                l(4) =   1
                l(5) =   1
                l(6) =   2
                l(7) =   2
                l(8) =   3
     Q(r) pseudized with  6 coefficients,  rinner =    1.200   1.200   1.200
                                                       1.200   1.200   1.200
                                                       1.200

     vdW kernel table read from file vdW_kernel_table
     MD5 check sum: 095c7af220d748ca6e76c0b4c6cfb241

     atomic species   valence    mass     pseudopotential
        Tc1           15.00    97.90721     Tc( 1.00)
        Hf1           12.00   178.49000     Hf( 1.00)

     No symmetry found

   Cartesian axes

     site n.     atom                  positions (alat units)
         1           Tc1 tau(   1) = (   0.0000000   0.0000000  10.0000000  )
         2           Tc1 tau(   2) = (  -1.4190234   2.4578207  10.0000000  )
         3           Tc1 tau(   3) = (   1.4190234   2.4578207  10.0000000  )
         4           Hf1 tau(   4) = (   2.8380469   0.0000000  10.0000000  )
         5           Tc1 tau(   5) = (   2.8380469   1.6385471  12.3172556  )
         6           Tc1 tau(   6) = (   1.4190234   4.0963678  12.3172556  )
         7           Tc1 tau(   7) = (  -1.4190234   4.0963678  12.3172556  )
         8           Hf1 tau(   8) = (   0.0000000   1.6385471  12.3172556  )
         9           Tc1 tau(   9) = (  -0.0000000   3.2770942  14.6345111  )
        10           Tc1 tau(  10) = (   1.4190234   0.8192736  14.6345111  )
        11           Tc1 tau(  11) = (   4.2570703   0.8192736  14.6345111  )
        12           Hf1 tau(  12) = (   2.8380469   3.2770942  14.6345111  )

     number of k points=    20  Fermi-Dirac smearing, width (Ry)=  0.0110
                       cart. coord. in units 2pi/alat
        k(    1) = (   0.0000000   0.0000000   0.0000000), wk =   0.0555556
        k(    2) = (   0.0000000   0.0339054   0.0000000), wk =   0.1111111
        k(    3) = (   0.0000000   0.0678108   0.0000000), wk =   0.1111111
        k(    4) = (   0.0000000  -0.1017161   0.0000000), wk =   0.0555556
        k(    5) = (   0.0293629   0.0169527   0.0000000), wk =   0.1111111
        k(    6) = (   0.0293629   0.0508581   0.0000000), wk =   0.1111111
        k(    7) = (   0.0293629   0.0847634   0.0000000), wk =   0.1111111
        k(    8) = (   0.0293629  -0.0847634   0.0000000), wk =   0.1111111
        k(    9) = (   0.0293629  -0.0508581   0.0000000), wk =   0.1111111
        k(   10) = (   0.0293629  -0.0169527   0.0000000), wk =   0.1111111
        k(   11) = (   0.0587258   0.0339054   0.0000000), wk =   0.1111111
        k(   12) = (   0.0587258   0.0678108   0.0000000), wk =   0.1111111
        k(   13) = (   0.0587258   0.1017161   0.0000000), wk =   0.1111111
        k(   14) = (   0.0587258  -0.0678108   0.0000000), wk =   0.1111111
        k(   15) = (   0.0587258  -0.0339054   0.0000000), wk =   0.1111111
        k(   16) = (   0.0587258   0.0000000   0.0000000), wk =   0.1111111
        k(   17) = (  -0.0880887  -0.0508581   0.0000000), wk =   0.0555556
        k(   18) = (  -0.0880887  -0.0169527   0.0000000), wk =   0.1111111
        k(   19) = (  -0.0880887   0.0169527   0.0000000), wk =   0.1111111
        k(   20) = (  -0.0880887  -0.1525742   0.0000000), wk =   0.0555556

     Largest allocated arrays     est. size (Mb)     dimensions
     Largest temporary arrays     est. size (Mb)     dimensions

     Check: negative/imaginary core charge=   -0.000016    0.000000

     Initial potential from superposition of free atoms
     Check: negative starting charge=   -1.457216

     starting charge  155.99974, renormalised to  171.00000

     negative rho (up, down):  1.597E+00 0.000E+00

     *
     * You are using vdW-DF for exchange-correlation in this calculation.
     * Please cite the following three references that made this development
     * possible:
     *
     *   M. Dion, H. Rydberg, E. Schroder, D. C. Langreth, and
     *   B. I. Lundqvist, Phys. Rev. Lett. 92, 246401 (2004).
     *
     *   T. Thonhauser, V. R. Cooper, S. Li, A. Puzder, P. Hyldgaard, and
     *   D. C. Langreth, Phys. Rev. B 76, 125112 (2007).
     *
     *   G. Roman-Perez and J. M. Soler, Phys. Rev. Lett. 103, 096102 (2009).
     *
     *
     * If you are using vdW-DF2, please also cite:
     *
     *   K. Lee, E. D. Murray, L. Kong, B. I. Lundqvist, and
     *   D. C. Langreth, Phys. Rev. B 82, 081101(R) (2010).
     *
     *
     * If you are calculating the stress with vdW-DF, please also cite:
     *
     *   R. Sabatini, E. Kucukbenli, B. Kolb, T. Thonhauser, and
     *   S. de Gironcoli, J. Phys.: Condens. Matter 24, 424209 (2012).
     *

     Carrying out vdW-DF run using the following parameters:

     Nqs =      20    Nr_points =    1024   r_max =   100.000
     q_mesh =
               0.00001000     0.04494208     0.09755937     0.15916263
               0.23128650     0.31572767     0.41458969     0.53033537
               0.66584808     0.82450364     1.01025438     1.22772762
               1.48234092     1.78043706     2.12944203     2.53805004
               3.01644009     3.57652955     4.23227104     5.00000000

     Gradients computed in reciprocal space

     Adding external electric field

     Computed dipole along edir(3) :
        Dipole                0.0000 Ry au,          0.0000 Debye
        Dipole field          0.0000 Ry au

        Potential amp.       -0.0000 Ry
        Total length         45.3887 bohr

     Starting wfc are  156 randomized atomic wfcs

     Self-consistent Calculation

     iteration #  1     ecut=    36.75 Ry     beta=0.10
     Davidson diagonalization with overlap
     ethr =  1.00E-02,  avg # of iterations =  8.4

[...]

     total energy              =   -2052.36135769 Ry
     Harris-Foulkes estimate   =   -2068.47752906 Ry
     estimated scf accuracy    <      94.61145575 Ry

[...]

     End of self-consistent calculation

          k = 0.0000 0.0000 0.0000 ( 17531 PWs)   bands (ev):

   -64.6385 -64.5667 -64.5667 -64.4691 -64.4630 -64.4022 -64.4022 -64.4008
   -64.4007 -59.9853 -59.9848 -59.3068 -36.9906 -36.8210 -36.8206 -36.8206
   -36.7996 -36.7382 -36.7136 -36.7136 -36.5554 -36.5554 -36.5188 -36.4738
   -36.4652 -36.4652 -36.4493 -36.4492 -36.3624 -36.3624 -36.3612 -36.3276
   -36.3275 -36.2299 -36.2101 -36.1996 -36.1996 -36.1949 -36.1949 -28.6664
   -28.6407 -28.4702 -28.4702 -28.4637 -28.4637 -27.9403 -27.9092 -27.9092
    -4.1646  -2.7534  -2.3738  -2.2396  -2.1254  -2.1254  -1.9639  -1.7632
    -1.7632  -1.5287  -1.5065  -1.5064  -1.4494  -1.2701  -1.2701  -0.3022
    -0.1274  -0.1273   0.5208   0.5208   0.7163   0.7616   0.9950   1.2059
     1.4194   1.4194   1.5619   1.5619   1.6960   1.6961   1.7946   1.7946
     1.9341   1.9571   1.9571   2.6297   2.7358   2.9089   2.9089   3.0084
     3.0084   3.1880   3.3127   3.3127   3.6754   3.9521   3.9521   4.1222
     4.6255   4.6255   4.7044   4.7831   4.9981   5.0797   5.4573   5.4574
     5.5978   5.8234   5.8234   5.8428   6.0194   6.5415   6.5857   6.5857
     6.6398   6.6400   6.7759

[...]

          k =-0.0881-0.0509 0.0000 ( 17444 PWs)   bands (ev):

[...]

     the Fermi energy is     2.1699 ev

!    total energy              =   -2059.15330747 Ry
     Harris-Foulkes estimate   =   -2059.15330477 Ry
     estimated scf accuracy    <       0.00000062 Ry

     The total energy is the sum of the following terms:

     one-electron contribution =  -15485.51654040 Ry
     hartree contribution      =    7739.44045006 Ry
     xc contribution           =    -529.96670230 Ry
     ewald contribution        =    6216.99216787 Ry
     electric field correction =       0.00000000 Ry
     smearing contrib. (-TS)   =      -0.10268270 Ry

     convergence has been achieved in  21 iterations

 BEEF-vdW xc energy contributions
           1 :   -470.489845585539
           2 :    434.662668560588
           3 :   -370.945444289611
           4 :    292.201973440649
           5 :   -212.119854286184
           6 :    141.368792091892
           7 :   -85.5803022112586
           8 :    45.3978512669486
           9 :   -18.1558426998045
[...]
     Generated by new atomic code, or converted to UPF format
     Using radial grid of  965 points,  6 beta functions with:
                l(1) =   0
                l(2) =   0
                l(3) =   1
                l(4) =   1
                l(5) =   2
                l(6) =   2
     Q(r) pseudized with  8 coefficients,  rinner =    1.300   1.300   1.300
                                                       1.300   1.300

     PseudoPot. # 2 for Hf read from file:
     /afs/slac.stanford.edu/u/if/mamunm/psp/gbrv1.5pbe/Hf.UPF
     MD5 check sum: 8ee9378dfe14276e333edf04c5e4aa26
     Pseudo is Ultrasoft + core correction, Zval = 12.0
     Generated by new atomic code, or converted to UPF format
     Using radial grid of  921 points,  8 beta functions with:
                l(1) =   0
                l(2) =   0
                l(3) =   0
                l(4) =   1
                l(5) =   1
                l(6) =   2
                l(7) =   2
                l(8) =   3
     Q(r) pseudized with  6 coefficients,  rinner =    1.200   1.200   1.200
                                                       1.200   1.200   1.200
                                                       1.200

     vdW kernel table read from file vdW_kernel_table
     MD5 check sum: 095c7af220d748ca6e76c0b4c6cfb241

     atomic species   valence    mass     pseudopotential
        Tc1           15.00    97.90721     Tc( 1.00)
        Hf1           12.00   178.49000     Hf( 1.00)

     No symmetry found

   Cartesian axes

     site n.     atom                  positions (alat units)
         1           Tc1 tau(   1) = (   0.0000000   0.0000000  10.0000000  )
         2           Tc1 tau(   2) = (  -1.4190234   2.4578207  10.0000000  )
         3           Tc1 tau(   3) = (   1.4190234   2.4578207  10.0000000  )
         4           Hf1 tau(   4) = (   2.8380469   0.0000000  10.0000000  )
         5           Tc1 tau(   5) = (   2.8380469   1.6385471  12.3172556  )
         6           Tc1 tau(   6) = (   1.4190234   4.0963678  12.3172556  )
         7           Tc1 tau(   7) = (  -1.4190234   4.0963678  12.3172556  )
         8           Hf1 tau(   8) = (   0.0000000   1.6385471  12.3172556  )
         9           Tc1 tau(   9) = (   0.0000001   3.3610179  14.4730353  )
        10           Tc1 tau(  10) = (   1.4917795   0.7772698  14.4730327  )
        11           Tc1 tau(  11) = (   4.1843581   0.7772926  14.4730269  )
        12           Hf1 tau(  12) = (   2.8380202   3.2770837  14.7763520  )

     number of k points=    20  Fermi-Dirac smearing, width (Ry)=  0.0110
                       cart. coord. in units 2pi/alat
        k(    1) = (   0.0000000   0.0000000   0.0000000), wk =   0.0555556
        k(    2) = (   0.0000000   0.0339054   0.0000000), wk =   0.1111111
        k(    3) = (   0.0000000   0.0678108   0.0000000), wk =   0.1111111
        k(    4) = (   0.0000000  -0.1017161   0.0000000), wk =   0.0555556
        k(    5) = (   0.0293629   0.0169527   0.0000000), wk =   0.1111111
        k(    6) = (   0.0293629   0.0508581   0.0000000), wk =   0.1111111
        k(    7) = (   0.0293629   0.0847634   0.0000000), wk =   0.1111111
        k(    8) = (   0.0293629  -0.0847634   0.0000000), wk =   0.1111111
        k(    9) = (   0.0293629  -0.0508581   0.0000000), wk =   0.1111111
        k(   10) = (   0.0293629  -0.0169527   0.0000000), wk =   0.1111111
        k(   11) = (   0.0587258   0.0339054   0.0000000), wk =   0.1111111
        k(   12) = (   0.0587258   0.0678108   0.0000000), wk =   0.1111111
        k(   13) = (   0.0587258   0.1017161   0.0000000), wk =   0.1111111
        k(   14) = (   0.0587258  -0.0678108   0.0000000), wk =   0.1111111
        k(   15) = (   0.0587258  -0.0339054   0.0000000), wk =   0.1111111
        k(   16) = (   0.0587258   0.0000000   0.0000000), wk =   0.1111111
        k(   17) = (  -0.0880887  -0.0508581   0.0000000), wk =   0.0555556
        k(   18) = (  -0.0880887  -0.0169527   0.0000000), wk =   0.1111111
        k(   19) = (  -0.0880887   0.0169527   0.0000000), wk =   0.1111111
        k(   20) = (  -0.0880887  -0.1525742   0.0000000), wk =   0.0555556

     Largest allocated arrays     est. size (Mb)     dimensions
     Largest temporary arrays     est. size (Mb)     dimensions

     Check: negative/imaginary core charge=   -0.000015    0.000000

     Initial potential from superposition of free atoms
     Check: negative starting charge=   -1.455283

     starting charge  155.99974, renormalised to  171.00000

[...]

     *
     * You are using vdW-DF for exchange-correlation in this calculation.
     * Please cite the following three references that made this development
     * possible:
     *
     *   M. Dion, H. Rydberg, E. Schroder, D. C. Langreth, and
     *   B. I. Lundqvist, Phys. Rev. Lett. 92, 246401 (2004).
     *
     *   T. Thonhauser, V. R. Cooper, S. Li, A. Puzder, P. Hyldgaard, and
     *   D. C. Langreth, Phys. Rev. B 76, 125112 (2007).
     *
     *   G. Roman-Perez and J. M. Soler, Phys. Rev. Lett. 103, 096102 (2009).
     *
     *
     * If you are using vdW-DF2, please also cite:
     *
     *   K. Lee, E. D. Murray, L. Kong, B. I. Lundqvist, and
     *   D. C. Langreth, Phys. Rev. B 82, 081101(R) (2010).
     *
     *
     * If you are calculating the stress with vdW-DF, please also cite:
     *
     *   R. Sabatini, E. Kucukbenli, B. Kolb, T. Thonhauser, and
     *   S. de Gironcoli, J. Phys.: Condens. Matter 24, 424209 (2012).
     *

     Carrying out vdW-DF run using the following parameters:

     Nqs =      20    Nr_points =    1024   r_max =   100.000
     q_mesh =
               0.00001000     0.04494208     0.09755937     0.15916263
               0.23128650     0.31572767     0.41458969     0.53033537
               0.66584808     0.82450364     1.01025438     1.22772762
               1.48234092     1.78043706     2.12944203     2.53805004
               3.01644009     3.57652955     4.23227104     5.00000000

     Gradients computed in reciprocal space

[...]

     Starting wfc are  156 randomized atomic wfcs

     Self-consistent Calculation

[...]

     total energy              =   -2059.18484365 Ry
     Harris-Foulkes estimate   =   -2059.18484330 Ry
     estimated scf accuracy    <       0.00000121 Ry

     iteration # 23     ecut=    36.75 Ry     beta=0.10
     Davidson diagonalization with overlap
     ethr =  7.05E-10,  avg # of iterations =  2.0

[...]

     negative rho (up, down):  1.522E+00 0.000E+00

     Adding external electric field

     Computed dipole along edir(3) :
        Dipole                0.0874 Ry au,          0.2220 Debye
        Dipole field          0.0002 Ry au

        Potential amp.       -0.0215 Ry
        Total length         45.3887 bohr

     End of self-consistent calculation

[...]

          k = 0.0587 0.0000 0.0000 ( 17471 PWs)   bands (ev):

[...]

          k =-0.0881-0.1526 0.0000 ( 17444 PWs)   bands (ev):

   -64.5656 -64.5407 -64.5152 -64.3398 -64.3383 -64.3169 -64.2963 -64.2953
   -64.2807 -60.1867 -59.8609 -59.1000 -36.8891 -36.8019 -36.7262 -36.7163
   -36.6354 -36.6224 -36.5763 -36.5673 -36.5382 -36.5347 -36.4150 -36.3720
   -36.3553 -36.3489 -36.3253 -36.3226 -36.2979 -36.2923 -36.2836 -36.2461
   -36.2356 -36.1965 -36.1923 -36.1802 -36.1789 -36.0948 -36.0698 -28.8817
   -28.6540 -28.6316 -28.5310 -28.3819 -28.3560 -27.7662 -27.7500 -27.7404
    -2.4393  -2.3947  -1.6269  -1.4710  -1.3220  -1.2043  -1.0520  -1.0082
    -0.9889  -0.8873  -0.6934  -0.5382  -0.4502  -0.4204  -0.2181  -0.1238
     0.0745   0.0879   0.2318   0.3145   0.5229   0.6026   0.7565   0.9755
     1.0120   1.0433   1.1662   1.1953   1.2421   1.2834   1.3062   1.4294
     1.5290   1.5661   1.8184   1.9037   1.9645   2.1537   2.1873   2.3738
     2.3996   2.5247   2.7965   2.8568   2.9731   2.9810   3.1375   3.1727
     3.4950   3.7051   3.9019   3.9952   4.1902   4.7499   4.9283   4.9810
     5.2652   5.3039   5.4336   5.8237   5.9053   6.0415   6.1309   6.1950
     6.6531   6.9358   7.0527

     the Fermi energy is     2.2984 ev

!    total energy              =   -2059.18484576 Ry
     Harris-Foulkes estimate   =   -2059.18484394 Ry
     estimated scf accuracy    <       0.00000033 Ry

     The total energy is the sum of the following terms:

     one-electron contribution =  -15701.26367485 Ry
     hartree contribution      =    7847.78439814 Ry
     xc contribution           =    -530.15242525 Ry
     ewald contribution        =    6324.54207920 Ry
     electric field correction =       0.00002067 Ry
     smearing contrib. (-TS)   =      -0.09524368 Ry

     convergence has been achieved in  23 iterations

 BEEF-vdW xc energy contributions
           1 :   -471.175821391824
           2 :    435.431531442520
           3 :   -371.826092069725
           4 :    293.145641729221
           5 :   -213.012690142883
           6 :    142.087029667505
           7 :   -86.0612102821892
           8 :    45.6856074922119
           9 :   -18.3841463265729
          10 :   0.378275325353400
          11 :    11.5583948636058
          12 :   -19.2880741670220
          13 :    23.4069180924106
          14 :   -23.9229065316637
          15 :    20.9819218641248
          16 :   -15.2882312535077
          17 :    8.07094737848269
          18 :  -0.747861041446811
          19 :   -5.48805989263684
          20 :    9.92919282459394
          21 :   -12.3852960846787
          22 :    13.0158916404475
          23 :   -12.0973321797252
          24 :    9.83965750586987
          25 :   -6.33616372516104
          26 :    1.64009843321622
          27 :    4.08097347926929
          28 :   -10.4021599387921
          29 :    16.5841352002710
          30 :   -21.6483605858771
          31 :   -39.8358501675332
          32 :   -28.9959670165241

     Forces acting on atoms (Ry/au):

     negative rho (up, down):  1.522E+00 0.000E+00
     atom    1 type  1   force =     0.00000183   -0.01662173    0.01461502
     atom    2 type  1   force =    -0.01439311    0.00831247    0.01461546
     atom    3 type  1   force =     0.01439318    0.00831007    0.01461179
     atom    4 type  2   force =    -0.00000720   -0.00000625   -0.01580707
     atom    5 type  1   force =    -0.00000853    0.01231486    0.00018813
     atom    6 type  1   force =     0.01066142   -0.00616471    0.00018974
     atom    7 type  1   force =    -0.01066347   -0.00615623    0.00019829
     atom    8 type  2   force =     0.00002478    0.00001161   -0.03291734
     atom    9 type  1   force =    -0.00000777   -0.00016751    0.00092133
     atom   10 type  1   force =    -0.00015289    0.00007699    0.00092106
     atom   11 type  1   force =     0.00014426    0.00008152    0.00092215
     atom   12 type  2   force =     0.00000749    0.00000893    0.00154144

     Total force =     0.057122     Total SCF correction =     0.002462

     entering subroutine stress ...

     negative rho (up, down):  1.522E+00 0.000E+00
          total   stress  (Ry/bohr**3)                   (kbar)     P=  -22.12
  -0.00020608  -0.00000000  -0.00000000        -30.32     -0.00     -0.00
  -0.00000000  -0.00020608   0.00000000         -0.00    -30.31      0.00
  -0.00000000   0.00000000  -0.00003900         -0.00      0.00     -5.74

 !ASE

     Writing output data file calc.save

     General routines

     Parallel routines

   This run was terminated on:  20:33:55   1Jan2019

   JOB DONE.
Job  /afs/slac/g/suncat/bin/suncat-tsmpirun -x LD_LIBRARY_PATH -wdir /scratch/qe649149_Lox5a pw.x -in pw.inp

TID   HOST_NAME   COMMAND_LINE            STATUS            TERMINATION_TIME
00000 suncat0068 pw.x -in pw.inp   Done                     01/01/2019 20:33:55
00001 suncat0068 pw.x -in pw.inp   Done                     01/01/2019 20:33:55
00002 suncat0068 pw.x -in pw.inp   Done                     01/01/2019 20:33:55
00003 suncat0068 pw.x -in pw.inp   Done                     01/01/2019 20:33:55
00004 suncat0068 pw.x -in pw.inp   Done                     01/01/2019 20:33:55
00005 suncat0068 pw.x -in pw.inp   Done                     01/01/2019 20:33:55
00006 suncat0068 pw.x -in pw.inp   Done                     01/01/2019 20:33:55
00007 suncat0068 pw.x -in pw.inp   Done                     01/01/2019 20:33:55
00008 suncat0065 pw.x -in pw.inp   Done                     01/01/2019 20:33:55
00009 suncat0065 pw.x -in pw.inp   Done                     01/01/2019 20:33:55
00010 suncat0065 pw.x -in pw.inp   Done                     01/01/2019 20:33:55
00011 suncat0065 pw.x -in pw.inp   Done                     01/01/2019 20:33:55
00012 suncat0065 pw.x -in pw.inp   Done                     01/01/2019 20:33:55
00013 suncat0065 pw.x -in pw.inp   Done                     01/01/2019 20:33:55
00014 suncat0065 pw.x -in pw.inp   Done                     01/01/2019 20:33:55
00015 suncat0065 pw.x -in pw.inp   Done                     01/01/2019 20:33:55
00016 suncat0064 pw.x -in pw.inp   Done                     01/01/2019 20:33:55
00017 suncat0064 pw.x -in pw.inp   Done                     01/01/2019 20:33:55
00018 suncat0064 pw.x -in pw.inp   Done                     01/01/2019 20:33:55
00019 suncat0064 pw.x -in pw.inp   Done                     01/01/2019 20:33:55
00020 suncat0064 pw.x -in pw.inp   Done                     01/01/2019 20:33:55
00021 suncat0064 pw.x -in pw.inp   Done                     01/01/2019 20:33:55
00022 suncat0064 pw.x -in pw.inp   Done                     01/01/2019 20:33:55
00023 suncat0064 pw.x -in pw.inp   Done                     01/01/2019 20:33:55
00024 suncat0059 pw.x -in pw.inp   Done                     01/01/2019 20:33:55
00025 suncat0059 pw.x -in pw.inp   Done                     01/01/2019 20:33:55
00026 suncat0059 pw.x -in pw.inp   Done                     01/01/2019 20:33:55
00027 suncat0059 pw.x -in pw.inp   Done                     01/01/2019 20:33:55
00028 suncat0059 pw.x -in pw.inp   Done                     01/01/2019 20:33:55
00029 suncat0059 pw.x -in pw.inp   Done                     01/01/2019 20:33:55
00030 suncat0059 pw.x -in pw.inp   Done                     01/01/2019 20:33:55
00031 suncat0059 pw.x -in pw.inp   Done                     01/01/2019 20:33:55
00032 suncat0169 pw.x -in pw.inp   Done                     01/01/2019 20:33:55
00033 suncat0169 pw.x -in pw.inp   Done                     01/01/2019 20:33:55
00034 suncat0169 pw.x -in pw.inp   Done                     01/01/2019 20:33:55
00035 suncat0169 pw.x -in pw.inp   Done                     01/01/2019 20:33:55
00036 suncat0169 pw.x -in pw.inp   Done                     01/01/2019 20:33:55
00037 suncat0169 pw.x -in pw.inp   Done                     01/01/2019 20:33:55
00038 suncat0169 pw.x -in pw.inp   Done                     01/01/2019 20:33:55
00039 suncat0169 pw.x -in pw.inp   Done                     01/01/2019 20:33:55
00040 suncat0168 pw.x -in pw.inp   Done                     01/01/2019 20:33:55
00041 suncat0168 pw.x -in pw.inp   Done                     01/01/2019 20:33:55
00042 suncat0168 pw.x -in pw.inp   Done                     01/01/2019 20:33:55
00043 suncat0168 pw.x -in pw.inp   Done                     01/01/2019 20:33:55
00044 suncat0168 pw.x -in pw.inp   Done                     01/01/2019 20:33:55
00045 suncat0168 pw.x -in pw.inp   Done                     01/01/2019 20:33:55
00046 suncat0168 pw.x -in pw.inp   Done                     01/01/2019 20:33:55
00047 suncat0168 pw.x -in pw.inp   Done                     01/01/2019 20:33:55
00048 suncat0156 pw.x -in pw.inp   Done                     01/01/2019 20:33:55
00049 suncat0156 pw.x -in pw.inp   Done                     01/01/2019 20:33:55
00050 suncat0156 pw.x -in pw.inp   Done                     01/01/2019 20:33:55
00051 suncat0156 pw.x -in pw.inp   Done                     01/01/2019 20:33:55
00052 suncat0156 pw.x -in pw.inp   Done                     01/01/2019 20:33:55
00053 suncat0156 pw.x -in pw.inp   Done                     01/01/2019 20:33:55
00054 suncat0156 pw.x -in pw.inp   Done                     01/01/2019 20:33:55
00055 suncat0156 pw.x -in pw.inp   Done                     01/01/2019 20:33:55
00056 suncat0153 pw.x -in pw.inp   Done                     01/01/2019 20:33:55
00057 suncat0153 pw.x -in pw.inp   Done                     01/01/2019 20:33:55
00058 suncat0153 pw.x -in pw.inp   Done                     01/01/2019 20:33:55
00059 suncat0153 pw.x -in pw.inp   Done                     01/01/2019 20:33:55
00060 suncat0153 pw.x -in pw.inp   Done                     01/01/2019 20:33:55
00061 suncat0153 pw.x -in pw.inp   Done                     01/01/2019 20:33:55
00062 suncat0153 pw.x -in pw.inp   Done                     01/01/2019 20:33:55
00063 suncat0153 pw.x -in pw.inp   Done                     01/01/2019 20:33:55