     Program PWSCF v.5.1rc2 (svn rev. 11289) starts on  1Jan2019 at 17:38:36

     Current dimensions of program PWSCF are:
     Max number of different atomic species (ntypx) = 10
     Max number of k-points (npk) =  40000
     Max angular momentum in pseudopotentials (lmaxx) =  3
     Presently stress not available with electric field

     IMPORTANT: XC functional enforced from input :
     Exchange-correlation      = BEEF-VDW ( 1  4 27 13 2)
     Any further DFT definition will be discarded
     Please, verify this is what you really want

     Subspace diagonalization in iterative solution of the eigenvalue problem:
     a serial algorithm will be used

     bravais-lattice index     =            0
     lattice parameter (alat)  =       1.8897  a.u.
     unit-cell volume          =    5308.9520 (a.u.)^3
     number of atoms/cell      =           12
     number of atomic types    =            2
     number of electrons       =       159.00
     number of Kohn-Sham states=          109
     kinetic-energy cutoff     =      36.7493  Ry
     charge density cutoff     =     367.4932  Ry
     convergence threshold     =      1.0E-06
     mixing beta               =       0.1000
     number of iterations used =           10  plain     mixing
     Exchange-correlation      = BEEF-VDW ( 1  4 27 13 2)
     nstep                     =           50

     celldm(1)=   1.889726  celldm(2)=   0.000000  celldm(3)=   0.000000
     celldm(4)=   0.000000  celldm(5)=   0.000000  celldm(6)=   0.000000

     crystal axes: (cart. coord. in units of alat)
               a(1) = (   6.036564   0.000000   0.000000 )
               a(2) = (  -3.018282   5.227818   0.000000 )
               a(3) = (   0.000000   0.000000  24.928834 )

     reciprocal axes: (cart. coord. in units 2 pi/alat)
               b(1) = (  0.165657  0.095642  0.000000 )
               b(2) = (  0.000000  0.191284  0.000000 )
               b(3) = (  0.000000  0.000000  0.040114 )

     PseudoPot. # 1 for Ta read from file:
     /afs/slac.stanford.edu/u/if/mamunm/psp/gbrv1.5pbe/Ta.UPF
     MD5 check sum: f8bbe9446314a3b8ea5d9f3e3836c939
     Pseudo is Ultrasoft + core correction, Zval = 13.0
     Generated by new atomic code, or converted to UPF format
     Using radial grid of  921 points,  7 beta functions with:
                l(1) =   0
                l(2) =   0
                l(3) =   1
                l(4) =   1
                l(5) =   2
                l(6) =   2
                l(7) =   3
     Q(r) pseudized with  6 coefficients,  rinner =    1.300   1.300   1.300
                                                       1.300   1.300   1.300
                                                       1.300

     PseudoPot. # 2 for Pb read from file:
     /afs/slac.stanford.edu/u/if/mamunm/psp/gbrv1.5pbe/Pb.UPF
     MD5 check sum: 3d1c1779aa92214d1e8f3a7db79003e2
     Pseudo is Ultrasoft + core correction, Zval = 14.0
     Generated by new atomic code, or converted to UPF format
     Using radial grid of  899 points,  6 beta functions with:
                l(1) =   0
                l(2) =   0
                l(3) =   1
                l(4) =   1
                l(5) =   2
                l(6) =   2
     Q(r) pseudized with  6 coefficients,  rinner =    1.000   1.000   1.000
                                                       1.000   1.000

     vdW kernel table read from file vdW_kernel_table
     MD5 check sum: 095c7af220d748ca6e76c0b4c6cfb241

     atomic species   valence    mass     pseudopotential
        Ta1           13.00   180.94788     Ta( 1.00)
        Pb1           14.00   207.20000     Pb( 1.00)

     No symmetry found

   Cartesian axes

     site n.     atom                  positions (alat units)
         1           Ta1 tau(   1) = (   0.0000000   0.0000000  10.0000000  )
         2           Ta1 tau(   2) = (  -1.5091410   2.6139088  10.0000000  )
         3           Ta1 tau(   3) = (   1.5091410   2.6139088  10.0000000  )
         4           Pb1 tau(   4) = (   3.0182819   0.0000000  10.0000000  )
         5           Ta1 tau(   5) = (   3.0182819   1.7426059  12.4644169  )
         6           Ta1 tau(   6) = (   1.5091410   4.3565147  12.4644169  )
         7           Ta1 tau(   7) = (  -1.5091410   4.3565147  12.4644169  )
         8           Pb1 tau(   8) = (   0.0000000   1.7426059  12.4644169  )
         9           Ta1 tau(   9) = (  -0.0000000   3.4852118  14.9288338  )
        10           Ta1 tau(  10) = (   1.5091410   0.8713029  14.9288338  )
        11           Ta1 tau(  11) = (   4.5274229   0.8713029  14.9288338  )
        12           Pb1 tau(  12) = (   3.0182819   3.4852118  14.9288338  )

     number of k points=    20  Fermi-Dirac smearing, width (Ry)=  0.0110
                       cart. coord. in units 2pi/alat
        k(    1) = (   0.0000000   0.0000000   0.0000000), wk =   0.0555556
        k(    2) = (   0.0000000   0.0318807   0.0000000), wk =   0.1111111
        k(    3) = (   0.0000000   0.0637615   0.0000000), wk =   0.1111111
        k(    4) = (   0.0000000  -0.0956422   0.0000000), wk =   0.0555556
        k(    5) = (   0.0276095   0.0159404   0.0000000), wk =   0.1111111
        k(    6) = (   0.0276095   0.0478211   0.0000000), wk =   0.1111111
        k(    7) = (   0.0276095   0.0797018   0.0000000), wk =   0.1111111
        k(    8) = (   0.0276095  -0.0797018   0.0000000), wk =   0.1111111
        k(    9) = (   0.0276095  -0.0478211   0.0000000), wk =   0.1111111
        k(   10) = (   0.0276095  -0.0159404   0.0000000), wk =   0.1111111
        k(   11) = (   0.0552191   0.0318807   0.0000000), wk =   0.1111111
        k(   12) = (   0.0552191   0.0637615   0.0000000), wk =   0.1111111
        k(   13) = (   0.0552191   0.0956422   0.0000000), wk =   0.1111111
        k(   14) = (   0.0552191  -0.0637615   0.0000000), wk =   0.1111111
        k(   15) = (   0.0552191  -0.0318807   0.0000000), wk =   0.1111111
        k(   16) = (   0.0552191   0.0000000   0.0000000), wk =   0.1111111
        k(   17) = (  -0.0828286  -0.0478211   0.0000000), wk =   0.0555556
        k(   18) = (  -0.0828286  -0.0159404   0.0000000), wk =   0.1111111
        k(   19) = (  -0.0828286   0.0159404   0.0000000), wk =   0.1111111
        k(   20) = (  -0.0828286  -0.1434633   0.0000000), wk =   0.0555556

     Largest allocated arrays     est. size (Mb)     dimensions
     Largest temporary arrays     est. size (Mb)     dimensions

     Initial potential from superposition of free atoms
     Check: negative starting charge=   -0.888373

     starting charge  158.98294, renormalised to  159.00000

     negative rho (up, down):  8.885E-01 0.000E+00

     *
     * You are using vdW-DF for exchange-correlation in this calculation.
     * Please cite the following three references that made this development
     * possible:
     *
     *   M. Dion, H. Rydberg, E. Schroder, D. C. Langreth, and
     *   B. I. Lundqvist, Phys. Rev. Lett. 92, 246401 (2004).
     *
     *   T. Thonhauser, V. R. Cooper, S. Li, A. Puzder, P. Hyldgaard, and
     *   D. C. Langreth, Phys. Rev. B 76, 125112 (2007).
     *
     *   G. Roman-Perez and J. M. Soler, Phys. Rev. Lett. 103, 096102 (2009).
     *
     *
     * If you are using vdW-DF2, please also cite:
     *
     *   K. Lee, E. D. Murray, L. Kong, B. I. Lundqvist, and
     *   D. C. Langreth, Phys. Rev. B 82, 081101(R) (2010).
     *
     *
     * If you are calculating the stress with vdW-DF, please also cite:
     *
     *   R. Sabatini, E. Kucukbenli, B. Kolb, T. Thonhauser, and
     *   S. de Gironcoli, J. Phys.: Condens. Matter 24, 424209 (2012).
     *

     Carrying out vdW-DF run using the following parameters:

     Nqs =      20    Nr_points =    1024   r_max =   100.000
     q_mesh =
               0.00001000     0.04494208     0.09755937     0.15916263
               0.23128650     0.31572767     0.41458969     0.53033537
               0.66584808     0.82450364     1.01025438     1.22772762
               1.48234092     1.78043706     2.12944203     2.53805004
               3.01644009     3.57652955     4.23227104     5.00000000

     Gradients computed in reciprocal space

     Adding external electric field

     Computed dipole along edir(3) :
        Dipole               -0.0000 Ry au,         -0.0000 Debye
        Dipole field         -0.0000 Ry au

        Potential amp.        0.0000 Ry
        Total length         45.9310 bohr

     Starting wfc are  144 randomized atomic wfcs

     Self-consistent Calculation

     iteration #  1     ecut=    36.75 Ry     beta=0.10
     Davidson diagonalization with overlap
     ethr =  1.00E-02,  avg # of iterations =  2.0

[...]

     total energy              =   -1786.39896429 Ry
     Harris-Foulkes estimate   =   -1786.82749938 Ry
     estimated scf accuracy    <       2.59932524 Ry

[...]

     End of self-consistent calculation

          k = 0.0000 0.0000 0.0000 ( 19759 PWs)   bands (ev):

   -66.5168 -66.5156 -66.4806 -66.4806 -66.4803 -66.4803 -66.2666 -66.2313
   -66.2312 -33.0527 -33.0326 -33.0285 -33.0285 -33.0185 -32.9904 -32.9904
   -32.9899 -32.9899 -32.9105 -32.8941 -32.8794 -32.8794 -32.7413 -32.7413
   -32.7403 -32.7171 -32.5149 -32.5040 -32.5039 -32.4626 -32.4224 -32.4224
   -32.4139 -32.4138 -32.2590 -32.2589 -15.3409 -15.3409 -15.3298 -15.2861
   -15.2861 -14.8547 -14.8424 -14.8424 -14.8398 -14.8360 -14.8360 -14.7996
   -14.7996 -14.7866 -14.7866  -8.6799  -7.3495  -7.2090  -2.6408  -2.5891
    -2.1447  -1.3666  -1.3666  -1.1265  -1.1264  -0.6931  -0.6930  -0.5142
    -0.3748  -0.0336  -0.0336   0.3223   0.3223   0.8196   0.9399   1.0876
     1.2359   1.2359   1.3776   1.3776   1.7151   1.7151   1.8020   1.8020
     2.1117   2.3946   2.4796   3.1632   3.3550   3.8685   3.8685   3.9666
     4.0342   4.0828   4.0828   4.2513   4.2513   4.3259   4.4786   4.5134
     4.5134   4.6220   4.6220   4.9343   4.9343   5.3495   5.3495   5.5442
     5.5442   5.6723   6.0577   6.1432   6.2404

[...]

          k =-0.0828-0.0478 0.0000 ( 20008 PWs)   bands (ev):

[...]

     the Fermi energy is     2.0221 ev

!    total energy              =   -1786.56204709 Ry
     Harris-Foulkes estimate   =   -1786.56737102 Ry
     estimated scf accuracy    <       0.00000034 Ry

     The total energy is the sum of the following terms:

     one-electron contribution =  -11479.52610311 Ry
     hartree contribution      =    5745.12258561 Ry
     xc contribution           =    -588.34449679 Ry
     ewald contribution        =    4536.26465676 Ry
     electric field correction =       0.00000000 Ry
     smearing contrib. (-TS)   =      -0.07868956 Ry

     convergence has been achieved in  15 iterations

 BEEF-vdW xc energy contributions
           1 :   -519.988742850805
           2 :    481.484395327455
           3 :   -413.842699834843
           4 :    332.141469872368
           5 :   -251.823534246290
           6 :    184.015460016540
           7 :   -133.224711866685
           8 :    97.9175531469573
           9 :   -73.1703967782437
          10 :    53.8253028399049
          11 :   -36.6831182875827
          12 :    21.0418314523873
          13 :   -7.83797274276196
[...]
     /afs/slac.stanford.edu/u/if/mamunm/psp/gbrv1.5pbe/Ta.UPF
     MD5 check sum: f8bbe9446314a3b8ea5d9f3e3836c939
     Pseudo is Ultrasoft + core correction, Zval = 13.0
     Generated by new atomic code, or converted to UPF format
     Using radial grid of  921 points,  7 beta functions with:
                l(1) =   0
                l(2) =   0
                l(3) =   1
                l(4) =   1
                l(5) =   2
                l(6) =   2
                l(7) =   3
     Q(r) pseudized with  6 coefficients,  rinner =    1.300   1.300   1.300
                                                       1.300   1.300   1.300
                                                       1.300

     PseudoPot. # 2 for Pb read from file:
     /afs/slac.stanford.edu/u/if/mamunm/psp/gbrv1.5pbe/Pb.UPF
     MD5 check sum: 3d1c1779aa92214d1e8f3a7db79003e2
     Pseudo is Ultrasoft + core correction, Zval = 14.0
     Generated by new atomic code, or converted to UPF format
     Using radial grid of  899 points,  6 beta functions with:
                l(1) =   0
                l(2) =   0
                l(3) =   1
                l(4) =   1
                l(5) =   2
                l(6) =   2
     Q(r) pseudized with  6 coefficients,  rinner =    1.000   1.000   1.000
                                                       1.000   1.000

     vdW kernel table read from file vdW_kernel_table
     MD5 check sum: 095c7af220d748ca6e76c0b4c6cfb241

     atomic species   valence    mass     pseudopotential
        Ta1           13.00   180.94788     Ta( 1.00)
        Pb1           14.00   207.20000     Pb( 1.00)

     No symmetry found

   Cartesian axes

     site n.     atom                  positions (alat units)
         1           Ta1 tau(   1) = (   0.0000000   0.0000000  10.0000000  )
         2           Ta1 tau(   2) = (  -1.5091410   2.6139088  10.0000000  )
         3           Ta1 tau(   3) = (   1.5091410   2.6139088  10.0000000  )
         4           Pb1 tau(   4) = (   3.0182819   0.0000000  10.0000000  )
         5           Ta1 tau(   5) = (   3.0182819   1.7426059  12.4644169  )
         6           Ta1 tau(   6) = (   1.5091410   4.3565147  12.4644169  )
         7           Ta1 tau(   7) = (  -1.5091410   4.3565147  12.4644169  )
         8           Pb1 tau(   8) = (   0.0000000   1.7426059  12.4644169  )
         9           Ta1 tau(   9) = (   0.0000035   3.5681341  14.7827325  )
        10           Ta1 tau(  10) = (   1.5809836   0.8298284  14.7827183  )
        11           Ta1 tau(  11) = (   4.4556218   0.8298465  14.7827347  )
        12           Pb1 tau(  12) = (   3.0183010   3.4852205  15.4328761  )

     number of k points=    20  Fermi-Dirac smearing, width (Ry)=  0.0110
                       cart. coord. in units 2pi/alat
        k(    1) = (   0.0000000   0.0000000   0.0000000), wk =   0.0555556
        k(    2) = (   0.0000000   0.0318807   0.0000000), wk =   0.1111111
        k(    3) = (   0.0000000   0.0637615   0.0000000), wk =   0.1111111
        k(    4) = (   0.0000000  -0.0956422   0.0000000), wk =   0.0555556
        k(    5) = (   0.0276095   0.0159404   0.0000000), wk =   0.1111111
        k(    6) = (   0.0276095   0.0478211   0.0000000), wk =   0.1111111
        k(    7) = (   0.0276095   0.0797018   0.0000000), wk =   0.1111111
        k(    8) = (   0.0276095  -0.0797018   0.0000000), wk =   0.1111111
        k(    9) = (   0.0276095  -0.0478211   0.0000000), wk =   0.1111111
        k(   10) = (   0.0276095  -0.0159404   0.0000000), wk =   0.1111111
        k(   11) = (   0.0552191   0.0318807   0.0000000), wk =   0.1111111
        k(   12) = (   0.0552191   0.0637615   0.0000000), wk =   0.1111111
        k(   13) = (   0.0552191   0.0956422   0.0000000), wk =   0.1111111
        k(   14) = (   0.0552191  -0.0637615   0.0000000), wk =   0.1111111
        k(   15) = (   0.0552191  -0.0318807   0.0000000), wk =   0.1111111
        k(   16) = (   0.0552191   0.0000000   0.0000000), wk =   0.1111111
        k(   17) = (  -0.0828286  -0.0478211   0.0000000), wk =   0.0555556
        k(   18) = (  -0.0828286  -0.0159404   0.0000000), wk =   0.1111111
        k(   19) = (  -0.0828286   0.0159404   0.0000000), wk =   0.1111111
        k(   20) = (  -0.0828286  -0.1434633   0.0000000), wk =   0.0555556

     Largest allocated arrays     est. size (Mb)     dimensions
     Largest temporary arrays     est. size (Mb)     dimensions

     Initial potential from superposition of free atoms
     Check: negative starting charge=   -0.893085

     starting charge  158.98294, renormalised to  159.00000

[...]

     *
     * You are using vdW-DF for exchange-correlation in this calculation.
     * Please cite the following three references that made this development
     * possible:
     *
     *   M. Dion, H. Rydberg, E. Schroder, D. C. Langreth, and
     *   B. I. Lundqvist, Phys. Rev. Lett. 92, 246401 (2004).
     *
     *   T. Thonhauser, V. R. Cooper, S. Li, A. Puzder, P. Hyldgaard, and
     *   D. C. Langreth, Phys. Rev. B 76, 125112 (2007).
     *
     *   G. Roman-Perez and J. M. Soler, Phys. Rev. Lett. 103, 096102 (2009).
     *
     *
     * If you are using vdW-DF2, please also cite:
     *
     *   K. Lee, E. D. Murray, L. Kong, B. I. Lundqvist, and
     *   D. C. Langreth, Phys. Rev. B 82, 081101(R) (2010).
     *
     *
     * If you are calculating the stress with vdW-DF, please also cite:
     *
     *   R. Sabatini, E. Kucukbenli, B. Kolb, T. Thonhauser, and
     *   S. de Gironcoli, J. Phys.: Condens. Matter 24, 424209 (2012).
     *

     Carrying out vdW-DF run using the following parameters:

     Nqs =      20    Nr_points =    1024   r_max =   100.000
     q_mesh =
               0.00001000     0.04494208     0.09755937     0.15916263
               0.23128650     0.31572767     0.41458969     0.53033537
               0.66584808     0.82450364     1.01025438     1.22772762
               1.48234092     1.78043706     2.12944203     2.53805004
               3.01644009     3.57652955     4.23227104     5.00000000

     Gradients computed in reciprocal space

[...]

     Starting wfc are  144 randomized atomic wfcs

     Self-consistent Calculation

[...]

     total energy              =   -1786.63106735 Ry
     Harris-Foulkes estimate   =   -1786.63107083 Ry
     estimated scf accuracy    <       0.00000145 Ry

     iteration # 16     ecut=    36.75 Ry     beta=0.10
     Davidson diagonalization with overlap
     ethr =  9.14E-10,  avg # of iterations =  4.2

[...]

     negative rho (up, down):  9.392E-01 0.000E+00

     Adding external electric field

     Computed dipole along edir(3) :
        Dipole                0.0588 Ry au,          0.1494 Debye
        Dipole field          0.0001 Ry au

        Potential amp.       -0.0128 Ry
        Total length         45.9310 bohr

     End of self-consistent calculation

[...]

          k = 0.0552 0.0000 0.0000 ( 19969 PWs)   bands (ev):

[...]

          k =-0.0828-0.1435 0.0000 ( 20008 PWs)   bands (ev):

   -66.4616 -66.4498 -66.4379 -66.3379 -66.3096 -66.3013 -66.1712 -66.1601
   -66.1488 -32.9882 -32.9705 -32.9586 -32.8931 -32.8796 -32.8676 -32.8662
   -32.8415 -32.8234 -32.7893 -32.7752 -32.7693 -32.7300 -32.6790 -32.6645
   -32.6041 -32.5421 -32.5281 -32.5142 -32.5037 -32.4371 -32.4009 -32.3670
   -32.2920 -32.2917 -32.2620 -32.1857 -15.3250 -15.3046 -15.2958 -15.2698
   -15.2673 -14.8069 -14.7803 -14.7738 -14.7603 -14.7550 -14.7537 -14.7207
   -14.7162 -14.7082 -14.6980  -7.8095  -6.9905  -6.4583  -3.7686  -2.8357
    -2.6491  -2.3992  -1.2059  -0.9045  -0.8991  -0.7538  -0.5387  -0.4482
    -0.2550   0.2523   0.4163   0.5731   0.6291   0.8074   0.8447   0.8676
     0.9504   1.2447   1.3083   1.3755   1.5607   1.7133   1.9778   2.0843
     2.1773   2.3815   2.5121   2.5699   3.0115   3.2716   3.5101   3.7060
     3.8195   3.8598   3.9393   3.9975   4.1727   4.2861   4.3057   4.3569
     4.4323   4.6135   4.6209   4.7182   4.8927   5.1033   5.5897   5.6281
     5.8228   6.4466   6.5394   6.8081   6.8504

     the Fermi energy is     2.0779 ev

!    total energy              =   -1786.63099055 Ry
     Harris-Foulkes estimate   =   -1786.63106790 Ry
     estimated scf accuracy    <       0.00000068 Ry

     The total energy is the sum of the following terms:

     one-electron contribution =  -11422.72742141 Ry
     hartree contribution      =    5717.12761806 Ry
     xc contribution           =    -588.41874189 Ry
     ewald contribution        =    4507.46298559 Ry
     electric field correction =       0.00000818 Ry
     smearing contrib. (-TS)   =      -0.07543907 Ry

     convergence has been achieved in  16 iterations

 BEEF-vdW xc energy contributions
           1 :   -520.431765927030
           2 :    481.910663746581
           3 :   -414.244349269464
           4 :    332.517787448713
           5 :   -252.175456139635
           6 :    184.343778474389
           7 :   -133.529529602209
           8 :    98.1957507906524
           9 :   -73.4143487500116
          10 :    54.0277659757049
          11 :   -36.8461119813878
          12 :    21.1806376390219
          13 :   -7.97433276582512
          14 :   -1.60543270288008
          15 :    7.22710217553049
          16 :   -9.65634782328300
          17 :    10.3071165829275
          18 :   -10.5154587664498
          19 :    10.9951505180952
          20 :   -11.7234354687804
          21 :    12.2239617514831
          22 :   -12.0167889619045
          23 :    10.9654958367853
          24 :   -9.36049756612272
          25 :    7.74636242495262
          26 :   -6.63194703279464
          27 :    6.25396410058261
          28 :   -6.50404422454733
          29 :    7.02630674840384
          30 :   -7.40915574034216
          31 :   -44.7564677334940
          32 :   -33.1915166874313

     Forces acting on atoms (Ry/au):

     negative rho (up, down):  9.392E-01 0.000E+00
     atom    1 type  1   force =     0.00000005   -0.01595635    0.03422646
     atom    2 type  1   force =    -0.01381920    0.00797904    0.03422764
     atom    3 type  1   force =     0.01381915    0.00797820    0.03422735
     atom    4 type  2   force =     0.00000030   -0.00000930   -0.07941817
     atom    5 type  1   force =     0.00000137    0.02353743    0.00172690
     atom    6 type  1   force =     0.02038332   -0.01176784    0.00172685
     atom    7 type  1   force =    -0.02038319   -0.01176800    0.00172687
     atom    8 type  2   force =     0.00000309    0.00000173   -0.02820259
     atom    9 type  1   force =     0.00000432    0.00006748   -0.00017988
     atom   10 type  1   force =     0.00005425   -0.00002814   -0.00017816
     atom   11 type  1   force =    -0.00005839   -0.00003394   -0.00018070
     atom   12 type  2   force =    -0.00000508   -0.00000032    0.00029744

     Total force =     0.114246     Total SCF correction =     0.003157

     entering subroutine stress ...

     negative rho (up, down):  9.392E-01 0.000E+00
          total   stress  (Ry/bohr**3)                   (kbar)     P=  -21.25
  -0.00018940   0.00000000  -0.00000000        -27.86      0.00     -0.00
   0.00000000  -0.00018940  -0.00000000          0.00    -27.86     -0.00
  -0.00000000  -0.00000000  -0.00005463         -0.00     -0.00     -8.04

 !ASE

     Writing output data file calc.save

     General routines

     Parallel routines

   This run was terminated on:  18:53:12   1Jan2019

   JOB DONE.
Job  /afs/slac/g/suncat/bin/suncat-tsmpirun -x LD_LIBRARY_PATH -wdir /scratch/qe649119_iAS2O pw.x -in pw.inp

TID   HOST_NAME   COMMAND_LINE            STATUS            TERMINATION_TIME
00000 suncat0068 pw.x -in pw.inp   Done                     01/01/2019 18:53:12
00001 suncat0068 pw.x -in pw.inp   Done                     01/01/2019 18:53:12
00002 suncat0068 pw.x -in pw.inp   Done                     01/01/2019 18:53:12
00003 suncat0068 pw.x -in pw.inp   Done                     01/01/2019 18:53:12
00004 suncat0068 pw.x -in pw.inp   Done                     01/01/2019 18:53:12
00005 suncat0068 pw.x -in pw.inp   Done                     01/01/2019 18:53:12
00006 suncat0068 pw.x -in pw.inp   Done                     01/01/2019 18:53:12
00007 suncat0068 pw.x -in pw.inp   Done                     01/01/2019 18:53:12
00008 suncat0065 pw.x -in pw.inp   Done                     01/01/2019 18:53:12
00009 suncat0065 pw.x -in pw.inp   Done                     01/01/2019 18:53:12
00010 suncat0065 pw.x -in pw.inp   Done                     01/01/2019 18:53:12
00011 suncat0065 pw.x -in pw.inp   Done                     01/01/2019 18:53:12
00012 suncat0065 pw.x -in pw.inp   Done                     01/01/2019 18:53:12
00013 suncat0065 pw.x -in pw.inp   Done                     01/01/2019 18:53:12
00014 suncat0065 pw.x -in pw.inp   Done                     01/01/2019 18:53:12
00015 suncat0065 pw.x -in pw.inp   Done                     01/01/2019 18:53:12
00016 suncat0064 pw.x -in pw.inp   Done                     01/01/2019 18:53:12
00017 suncat0064 pw.x -in pw.inp   Done                     01/01/2019 18:53:12
00018 suncat0064 pw.x -in pw.inp   Done                     01/01/2019 18:53:12
00019 suncat0064 pw.x -in pw.inp   Done                     01/01/2019 18:53:12
00020 suncat0064 pw.x -in pw.inp   Done                     01/01/2019 18:53:12
00021 suncat0064 pw.x -in pw.inp   Done                     01/01/2019 18:53:12
00022 suncat0064 pw.x -in pw.inp   Done                     01/01/2019 18:53:12
00023 suncat0064 pw.x -in pw.inp   Done                     01/01/2019 18:53:12
00024 suncat0059 pw.x -in pw.inp   Done                     01/01/2019 18:53:12
00025 suncat0059 pw.x -in pw.inp   Done                     01/01/2019 18:53:12
00026 suncat0059 pw.x -in pw.inp   Done                     01/01/2019 18:53:12
00027 suncat0059 pw.x -in pw.inp   Done                     01/01/2019 18:53:12
00028 suncat0059 pw.x -in pw.inp   Done                     01/01/2019 18:53:12
00029 suncat0059 pw.x -in pw.inp   Done                     01/01/2019 18:53:12
00030 suncat0059 pw.x -in pw.inp   Done                     01/01/2019 18:53:12
00031 suncat0059 pw.x -in pw.inp   Done                     01/01/2019 18:53:12
00032 suncat0169 pw.x -in pw.inp   Done                     01/01/2019 18:53:12
00033 suncat0169 pw.x -in pw.inp   Done                     01/01/2019 18:53:12
00034 suncat0169 pw.x -in pw.inp   Done                     01/01/2019 18:53:12
00035 suncat0169 pw.x -in pw.inp   Done                     01/01/2019 18:53:12
00036 suncat0169 pw.x -in pw.inp   Done                     01/01/2019 18:53:12
00037 suncat0169 pw.x -in pw.inp   Done                     01/01/2019 18:53:12
00038 suncat0169 pw.x -in pw.inp   Done                     01/01/2019 18:53:12
00039 suncat0169 pw.x -in pw.inp   Done                     01/01/2019 18:53:12
00040 suncat0168 pw.x -in pw.inp   Done                     01/01/2019 18:53:12
00041 suncat0168 pw.x -in pw.inp   Done                     01/01/2019 18:53:12
00042 suncat0168 pw.x -in pw.inp   Done                     01/01/2019 18:53:12
00043 suncat0168 pw.x -in pw.inp   Done                     01/01/2019 18:53:12
00044 suncat0168 pw.x -in pw.inp   Done                     01/01/2019 18:53:12
00045 suncat0168 pw.x -in pw.inp   Done                     01/01/2019 18:53:12
00046 suncat0168 pw.x -in pw.inp   Done                     01/01/2019 18:53:12
00047 suncat0168 pw.x -in pw.inp   Done                     01/01/2019 18:53:12
00048 suncat0156 pw.x -in pw.inp   Done                     01/01/2019 18:53:12
00049 suncat0156 pw.x -in pw.inp   Done                     01/01/2019 18:53:12
00050 suncat0156 pw.x -in pw.inp   Done                     01/01/2019 18:53:12
00051 suncat0156 pw.x -in pw.inp   Done                     01/01/2019 18:53:12
00052 suncat0156 pw.x -in pw.inp   Done                     01/01/2019 18:53:12
00053 suncat0156 pw.x -in pw.inp   Done                     01/01/2019 18:53:12
00054 suncat0156 pw.x -in pw.inp   Done                     01/01/2019 18:53:12
00055 suncat0156 pw.x -in pw.inp   Done                     01/01/2019 18:53:12
00056 suncat0153 pw.x -in pw.inp   Done                     01/01/2019 18:53:12
00057 suncat0153 pw.x -in pw.inp   Done                     01/01/2019 18:53:12
00058 suncat0153 pw.x -in pw.inp   Done                     01/01/2019 18:53:12
00059 suncat0153 pw.x -in pw.inp   Done                     01/01/2019 18:53:12
00060 suncat0153 pw.x -in pw.inp   Done                     01/01/2019 18:53:12
00061 suncat0153 pw.x -in pw.inp   Done                     01/01/2019 18:53:12
00062 suncat0153 pw.x -in pw.inp   Done                     01/01/2019 18:53:12
00063 suncat0153 pw.x -in pw.inp   Done                     01/01/2019 18:53:12