     Program PWSCF v.5.1rc2 (svn rev. 11289) starts on  2Jan2019 at 18:52:30

     Current dimensions of program PWSCF are:
     Max number of different atomic species (ntypx) = 10
     Max number of k-points (npk) =  40000
     Max angular momentum in pseudopotentials (lmaxx) =  3
     Presently stress not available with electric field

     IMPORTANT: XC functional enforced from input :
     Exchange-correlation      = BEEF-VDW ( 1  4 27 13 2)
     Any further DFT definition will be discarded
     Please, verify this is what you really want

     Subspace diagonalization in iterative solution of the eigenvalue problem:
     a serial algorithm will be used

     bravais-lattice index     =            0
     lattice parameter (alat)  =       1.8897  a.u.
     unit-cell volume          =    5750.1595 (a.u.)^3
     number of atoms/cell      =           12
     number of atomic types    =            2
     number of electrons       =       165.00
     number of Kohn-Sham states=          112
     kinetic-energy cutoff     =      36.7493  Ry
     charge density cutoff     =     367.4932  Ry
     convergence threshold     =      1.0E-06
     mixing beta               =       0.1000
     number of iterations used =           10  plain     mixing
     Exchange-correlation      = BEEF-VDW ( 1  4 27 13 2)
     nstep                     =           50

     celldm(1)=   1.889726  celldm(2)=   0.000000  celldm(3)=   0.000000
     celldm(4)=   0.000000  celldm(5)=   0.000000  celldm(6)=   0.000000

     crystal axes: (cart. coord. in units of alat)
               a(1) = (   6.259577   0.000000   0.000000 )
               a(2) = (  -3.129789   5.420953   0.000000 )
               a(3) = (   0.000000   0.000000  25.110923 )

     reciprocal axes: (cart. coord. in units 2 pi/alat)
               b(1) = (  0.159755  0.092235  0.000000 )
               b(2) = (  0.000000  0.184469  0.000000 )
               b(3) = (  0.000000  0.000000  0.039823 )

     PseudoPot. # 1 for Zr read from file:
     /afs/slac.stanford.edu/u/if/mamunm/psp/gbrv1.5pbe/Zr.UPF
     MD5 check sum: 5db81b1e868ab7776c4564c113de050b
     Pseudo is Ultrasoft + core correction, Zval = 12.0
     Generated by new atomic code, or converted to UPF format
     Using radial grid of  887 points,  6 beta functions with:
                l(1) =   0
                l(2) =   0
                l(3) =   1
                l(4) =   1
                l(5) =   2
                l(6) =   2
     Q(r) pseudized with  6 coefficients,  rinner =    1.200   1.200   1.200
                                                       1.200   1.200

     PseudoPot. # 2 for Ag read from file:
     /afs/slac.stanford.edu/u/if/mamunm/psp/gbrv1.5pbe/Ag.UPF
     MD5 check sum: d66d668201baa78d5eb5b04ef7011058
     Pseudo is Ultrasoft + core correction, Zval = 19.0
     Generated by new atomic code, or converted to UPF format
     Using radial grid of  887 points,  6 beta functions with:
                l(1) =   0
                l(2) =   0
                l(3) =   1
                l(4) =   1
                l(5) =   2
                l(6) =   2
     Q(r) pseudized with  6 coefficients,  rinner =    1.300   1.300   1.300
                                                       1.300   1.300

     vdW kernel table read from file vdW_kernel_table
     MD5 check sum: 095c7af220d748ca6e76c0b4c6cfb241

     atomic species   valence    mass     pseudopotential
        Zr1           12.00    91.22400     Zr( 1.00)
        Ag1           19.00   107.86820     Ag( 1.00)

     No symmetry found

   Cartesian axes

     site n.     atom                  positions (alat units)
         1           Zr1 tau(   1) = (   0.0000000   0.0000000  10.0000000  )
         2           Zr1 tau(   2) = (  -1.5648943   2.7104764  10.0000000  )
         3           Zr1 tau(   3) = (   1.5648943   2.7104764  10.0000000  )
         4           Ag1 tau(   4) = (   3.1297885   0.0000000  10.0000000  )
         5           Zr1 tau(   5) = (   3.1297885   1.8069842  12.5554616  )
         6           Zr1 tau(   6) = (   1.5648943   4.5174606  12.5554616  )
         7           Zr1 tau(   7) = (  -1.5648943   4.5174606  12.5554616  )
         8           Ag1 tau(   8) = (  -0.0000000   1.8069842  12.5554616  )
         9           Zr1 tau(   9) = (  -0.0000000   3.6139685  15.1109232  )
        10           Zr1 tau(  10) = (   1.5648943   0.9034921  15.1109232  )
        11           Zr1 tau(  11) = (   4.6946828   0.9034921  15.1109232  )
        12           Ag1 tau(  12) = (   3.1297885   3.6139685  15.1109232  )

     number of k points=    20  Fermi-Dirac smearing, width (Ry)=  0.0110
                       cart. coord. in units 2pi/alat
        k(    1) = (   0.0000000   0.0000000   0.0000000), wk =   0.0555556
        k(    2) = (   0.0000000   0.0307449   0.0000000), wk =   0.1111111
        k(    3) = (   0.0000000   0.0614898   0.0000000), wk =   0.1111111
        k(    4) = (   0.0000000  -0.0922347   0.0000000), wk =   0.0555556
        k(    5) = (   0.0266259   0.0153725   0.0000000), wk =   0.1111111
        k(    6) = (   0.0266259   0.0461174   0.0000000), wk =   0.1111111
        k(    7) = (   0.0266259   0.0768623   0.0000000), wk =   0.1111111
        k(    8) = (   0.0266259  -0.0768623   0.0000000), wk =   0.1111111
        k(    9) = (   0.0266259  -0.0461174   0.0000000), wk =   0.1111111
        k(   10) = (   0.0266259  -0.0153725   0.0000000), wk =   0.1111111
        k(   11) = (   0.0532517   0.0307449   0.0000000), wk =   0.1111111
        k(   12) = (   0.0532517   0.0614898   0.0000000), wk =   0.1111111
        k(   13) = (   0.0532517   0.0922347   0.0000000), wk =   0.1111111
        k(   14) = (   0.0532517  -0.0614898   0.0000000), wk =   0.1111111
        k(   15) = (   0.0532517  -0.0307449   0.0000000), wk =   0.1111111
        k(   16) = (   0.0532517   0.0000000   0.0000000), wk =   0.1111111
        k(   17) = (  -0.0798776  -0.0461174   0.0000000), wk =   0.0555556
        k(   18) = (  -0.0798776  -0.0153725   0.0000000), wk =   0.1111111
        k(   19) = (  -0.0798776   0.0153725   0.0000000), wk =   0.1111111
        k(   20) = (  -0.0798776  -0.1383521   0.0000000), wk =   0.0555556

     Largest allocated arrays     est. size (Mb)     dimensions
     Largest temporary arrays     est. size (Mb)     dimensions

     Initial potential from superposition of free atoms
     Check: negative starting charge=   -0.548521

     starting charge  163.48051, renormalised to  165.00000

     negative rho (up, down):  5.536E-01 0.000E+00

     *
     * You are using vdW-DF for exchange-correlation in this calculation.
     * Please cite the following three references that made this development
     * possible:
     *
     *   M. Dion, H. Rydberg, E. Schroder, D. C. Langreth, and
     *   B. I. Lundqvist, Phys. Rev. Lett. 92, 246401 (2004).
     *
     *   T. Thonhauser, V. R. Cooper, S. Li, A. Puzder, P. Hyldgaard, and
     *   D. C. Langreth, Phys. Rev. B 76, 125112 (2007).
     *
     *   G. Roman-Perez and J. M. Soler, Phys. Rev. Lett. 103, 096102 (2009).
     *
     *
     * If you are using vdW-DF2, please also cite:
     *
     *   K. Lee, E. D. Murray, L. Kong, B. I. Lundqvist, and
     *   D. C. Langreth, Phys. Rev. B 82, 081101(R) (2010).
     *
     *
     * If you are calculating the stress with vdW-DF, please also cite:
     *
     *   R. Sabatini, E. Kucukbenli, B. Kolb, T. Thonhauser, and
     *   S. de Gironcoli, J. Phys.: Condens. Matter 24, 424209 (2012).
     *

     Carrying out vdW-DF run using the following parameters:

     Nqs =      20    Nr_points =    1024   r_max =   100.000
     q_mesh =
               0.00001000     0.04494208     0.09755937     0.15916263
               0.23128650     0.31572767     0.41458969     0.53033537
               0.66584808     0.82450364     1.01025438     1.22772762
               1.48234092     1.78043706     2.12944203     2.53805004
               3.01644009     3.57652955     4.23227104     5.00000000

     Gradients computed in reciprocal space

     Adding external electric field

     Computed dipole along edir(3) :
        Dipole               -0.0000 Ry au,         -0.0000 Debye
        Dipole field         -0.0000 Ry au

        Potential amp.        0.0000 Ry
        Total length         46.2664 bohr

     Starting wfc are  156 randomized atomic wfcs

     Self-consistent Calculation

     iteration #  1     ecut=    36.75 Ry     beta=0.10
     Davidson diagonalization with overlap
     ethr =  1.00E-02,  avg # of iterations =  2.0

[...]

     total energy              =   -1787.12591069 Ry
     Harris-Foulkes estimate   =   -1788.37457311 Ry
     estimated scf accuracy    <       7.11131412 Ry

[...]

     End of self-consistent calculation

          k = 0.0000 0.0000 0.0000 ( 21727 PWs)   bands (ev):

   -90.6673 -90.5925 -90.5924 -54.1287 -54.1227 -54.1227 -54.0725 -54.0725
   -54.0724 -54.0724 -54.0343 -54.0342 -47.6436 -47.6390 -47.5528 -47.5528
   -47.5518 -47.5518 -47.2695 -47.1840 -47.1838 -25.9608 -25.9222 -25.8434
   -25.7751 -25.7751 -25.7247 -25.7247 -25.7211 -25.7211 -25.7172 -25.6521
   -25.6190 -25.6189 -25.3677 -25.3467 -25.3419 -25.3418 -25.1536 -25.1536
   -25.1428 -25.1428 -25.1139 -25.0942 -25.0941 -24.9887 -24.8556 -24.8555
    -3.7685  -3.2911  -3.2911  -3.2188  -3.2038  -3.2038  -3.1582  -3.1235
    -3.1235  -3.0826  -3.0826  -3.0288  -2.8214  -2.8214  -2.7484  -2.7484
    -2.1553  -1.8546  -1.2567  -0.7141  -0.4102   0.4603   0.5283   0.5305
     0.5305   0.9494   0.9494   0.9706   0.9706   1.1538   1.1538   1.6079
     1.6113   1.6113   1.6287   2.1609   2.1609   2.2925   2.4040   2.4167
     2.4167   2.8604   2.8604   2.9287   3.0621   3.3130   3.3130   3.5600
     4.2058   4.3606   4.3606   4.6272   4.6272   4.7395   4.7395   4.8041
     4.8041   4.8313   5.0581   5.1116   5.1116   5.2598   5.4404   5.4404

[...]

          k =-0.0799-0.0461 0.0000 ( 21616 PWs)   bands (ev):

[...]

     the Fermi energy is     1.6853 ev

!    total energy              =   -1787.53591607 Ry
     Harris-Foulkes estimate   =   -1787.53591831 Ry
     estimated scf accuracy    <       0.00000053 Ry

     The total energy is the sum of the following terms:

     one-electron contribution =  -11809.38168935 Ry
     hartree contribution      =    5896.35899192 Ry
     xc contribution           =    -255.51938891 Ry
     ewald contribution        =    4381.10873240 Ry
     electric field correction =       0.00000000 Ry
     smearing contrib. (-TS)   =      -0.10256212 Ry

     convergence has been achieved in  16 iterations

 BEEF-vdW xc energy contributions
           1 :   -219.874267441999
           2 :    199.278170421110
           3 :   -164.510402786927
           4 :    125.413483848821
           5 :   -91.0733924921941
           6 :    66.6054468176801
           7 :   -52.2269808707423
           8 :    44.5955198032943
           9 :   -39.3308498626303
          10 :    33.3033791266676
          11 :   -25.7014493088832
          12 :    17.6762541434816
          13 :   -11.0837522415186
          14 :    7.16668917070129
          15 :   -5.88667714413728
[...]

     PseudoPot. # 1 for Zr read from file:
     /afs/slac.stanford.edu/u/if/mamunm/psp/gbrv1.5pbe/Zr.UPF
     MD5 check sum: 5db81b1e868ab7776c4564c113de050b
     Pseudo is Ultrasoft + core correction, Zval = 12.0
     Generated by new atomic code, or converted to UPF format
     Using radial grid of  887 points,  6 beta functions with:
                l(1) =   0
                l(2) =   0
                l(3) =   1
                l(4) =   1
                l(5) =   2
                l(6) =   2
     Q(r) pseudized with  6 coefficients,  rinner =    1.200   1.200   1.200
                                                       1.200   1.200

     PseudoPot. # 2 for Ag read from file:
     /afs/slac.stanford.edu/u/if/mamunm/psp/gbrv1.5pbe/Ag.UPF
     MD5 check sum: d66d668201baa78d5eb5b04ef7011058
     Pseudo is Ultrasoft + core correction, Zval = 19.0
     Generated by new atomic code, or converted to UPF format
     Using radial grid of  887 points,  6 beta functions with:
                l(1) =   0
                l(2) =   0
                l(3) =   1
                l(4) =   1
                l(5) =   2
                l(6) =   2
     Q(r) pseudized with  6 coefficients,  rinner =    1.300   1.300   1.300
                                                       1.300   1.300

     vdW kernel table read from file vdW_kernel_table
     MD5 check sum: 095c7af220d748ca6e76c0b4c6cfb241

     atomic species   valence    mass     pseudopotential
        Zr1           12.00    91.22400     Zr( 1.00)
        Ag1           19.00   107.86820     Ag( 1.00)

     No symmetry found

   Cartesian axes

     site n.     atom                  positions (alat units)
         1           Zr1 tau(   1) = (   0.0000000   0.0000000  10.0000000  )
         2           Zr1 tau(   2) = (  -1.5648943   2.7104764  10.0000000  )
         3           Zr1 tau(   3) = (   1.5648943   2.7104764  10.0000000  )
         4           Ag1 tau(   4) = (   3.1297885   0.0000000  10.0000000  )
         5           Zr1 tau(   5) = (   3.1297885   1.8069842  12.5554616  )
         6           Zr1 tau(   6) = (   1.5648943   4.5174606  12.5554616  )
         7           Zr1 tau(   7) = (  -1.5648943   4.5174606  12.5554616  )
         8           Ag1 tau(   8) = (  -0.0000000   1.8069842  12.5554616  )
         9           Zr1 tau(   9) = (  -0.0000000   3.5856240  15.0548857  )
        10           Zr1 tau(  10) = (   1.5403548   0.9176701  15.0548770  )
        11           Zr1 tau(  11) = (   4.7192269   0.9176735  15.0548737  )
        12           Ag1 tau(  12) = (   3.1297936   3.6139829  15.0700989  )

     number of k points=    20  Fermi-Dirac smearing, width (Ry)=  0.0110
                       cart. coord. in units 2pi/alat
        k(    1) = (   0.0000000   0.0000000   0.0000000), wk =   0.0555556
        k(    2) = (   0.0000000   0.0307449   0.0000000), wk =   0.1111111
        k(    3) = (   0.0000000   0.0614898   0.0000000), wk =   0.1111111
        k(    4) = (   0.0000000  -0.0922347   0.0000000), wk =   0.0555556
        k(    5) = (   0.0266259   0.0153725   0.0000000), wk =   0.1111111
        k(    6) = (   0.0266259   0.0461174   0.0000000), wk =   0.1111111
        k(    7) = (   0.0266259   0.0768623   0.0000000), wk =   0.1111111
        k(    8) = (   0.0266259  -0.0768623   0.0000000), wk =   0.1111111
        k(    9) = (   0.0266259  -0.0461174   0.0000000), wk =   0.1111111
        k(   10) = (   0.0266259  -0.0153725   0.0000000), wk =   0.1111111
        k(   11) = (   0.0532517   0.0307449   0.0000000), wk =   0.1111111
        k(   12) = (   0.0532517   0.0614898   0.0000000), wk =   0.1111111
        k(   13) = (   0.0532517   0.0922347   0.0000000), wk =   0.1111111
        k(   14) = (   0.0532517  -0.0614898   0.0000000), wk =   0.1111111
        k(   15) = (   0.0532517  -0.0307449   0.0000000), wk =   0.1111111
        k(   16) = (   0.0532517   0.0000000   0.0000000), wk =   0.1111111
        k(   17) = (  -0.0798776  -0.0461174   0.0000000), wk =   0.0555556
        k(   18) = (  -0.0798776  -0.0153725   0.0000000), wk =   0.1111111
        k(   19) = (  -0.0798776   0.0153725   0.0000000), wk =   0.1111111
        k(   20) = (  -0.0798776  -0.1383521   0.0000000), wk =   0.0555556

     Largest allocated arrays     est. size (Mb)     dimensions
     Largest temporary arrays     est. size (Mb)     dimensions

     Initial potential from superposition of free atoms
     Check: negative starting charge=   -0.549305

     starting charge  163.48051, renormalised to  165.00000

[...]

     *
     * You are using vdW-DF for exchange-correlation in this calculation.
     * Please cite the following three references that made this development
     * possible:
     *
     *   M. Dion, H. Rydberg, E. Schroder, D. C. Langreth, and
     *   B. I. Lundqvist, Phys. Rev. Lett. 92, 246401 (2004).
     *
     *   T. Thonhauser, V. R. Cooper, S. Li, A. Puzder, P. Hyldgaard, and
     *   D. C. Langreth, Phys. Rev. B 76, 125112 (2007).
     *
     *   G. Roman-Perez and J. M. Soler, Phys. Rev. Lett. 103, 096102 (2009).
     *
     *
     * If you are using vdW-DF2, please also cite:
     *
     *   K. Lee, E. D. Murray, L. Kong, B. I. Lundqvist, and
     *   D. C. Langreth, Phys. Rev. B 82, 081101(R) (2010).
     *
     *
     * If you are calculating the stress with vdW-DF, please also cite:
     *
     *   R. Sabatini, E. Kucukbenli, B. Kolb, T. Thonhauser, and
     *   S. de Gironcoli, J. Phys.: Condens. Matter 24, 424209 (2012).
     *

     Carrying out vdW-DF run using the following parameters:

     Nqs =      20    Nr_points =    1024   r_max =   100.000
     q_mesh =
               0.00001000     0.04494208     0.09755937     0.15916263
               0.23128650     0.31572767     0.41458969     0.53033537
               0.66584808     0.82450364     1.01025438     1.22772762
               1.48234092     1.78043706     2.12944203     2.53805004
               3.01644009     3.57652955     4.23227104     5.00000000

     Gradients computed in reciprocal space

[...]

     Starting wfc are  156 randomized atomic wfcs

     Self-consistent Calculation

[...]

     total energy              =   -1787.53821757 Ry
     Harris-Foulkes estimate   =   -1787.53821766 Ry
     estimated scf accuracy    <       0.00000140 Ry

     iteration # 17     ecut=    36.75 Ry     beta=0.10
     Davidson diagonalization with overlap
     ethr =  8.46E-10,  avg # of iterations =  2.1

[...]

     negative rho (up, down):  5.591E-01 0.000E+00

     Adding external electric field

     Computed dipole along edir(3) :
        Dipole                0.0037 Ry au,          0.0094 Debye
        Dipole field          0.0000 Ry au

        Potential amp.       -0.0008 Ry
        Total length         46.2664 bohr

     End of self-consistent calculation

[...]

          k = 0.0533 0.0000 0.0000 ( 21647 PWs)   bands (ev):

[...]

          k =-0.0799-0.1384 0.0000 ( 21616 PWs)   bands (ev):

   -90.6995 -90.6127 -90.5931 -54.1671 -54.1516 -54.1515 -54.0915 -54.0914
   -54.0729 -54.0728 -54.0588 -54.0350 -47.6118 -47.5826 -47.5746 -47.5525
   -47.5419 -47.5124 -47.2102 -47.1824 -47.1534 -25.8252 -25.7869 -25.7808
   -25.7264 -25.7142 -25.6746 -25.6442 -25.6362 -25.5806 -25.5802 -25.5574
   -25.5354 -25.5118 -25.4900 -25.4776 -25.4455 -25.4299 -25.2249 -25.2072
   -25.1719 -25.1697 -25.1440 -25.0935 -25.0318 -25.0281 -25.0212 -24.8507
    -3.1610  -3.1336  -3.1063  -3.0884  -3.0696  -3.0124  -3.0038  -2.9744
    -2.9436  -2.8929  -2.8913  -2.8748  -2.8251  -2.8099  -2.7154  -2.1219
    -2.0991  -1.1815  -1.0883  -0.6458  -0.4131   0.0579   0.0825   0.5515
     0.6809   0.8917   0.9289   1.0492   1.0765   1.1511   1.1985   1.2960
     1.4446   1.5113   1.6451   1.6589   1.7720   1.8300   1.9173   2.0484
     2.1701   2.3752   2.6274   2.6861   2.7248   2.8532   2.8620   2.9596
     3.2864   3.9357   3.9378   4.0445   4.1133   4.1839   4.3002   4.3109
     4.4022   4.4518   4.6602   4.7042   4.7595   5.1054   5.1688   5.2008

     the Fermi energy is     1.6868 ev

!    total energy              =   -1787.53821616 Ry
     Harris-Foulkes estimate   =   -1787.53821783 Ry
     estimated scf accuracy    <       0.00000030 Ry

     The total energy is the sum of the following terms:

     one-electron contribution =  -11893.38468165 Ry
     hartree contribution      =    5938.42939169 Ry
     xc contribution           =    -255.58679316 Ry
     ewald contribution        =    4423.10582173 Ry
     electric field correction =       0.00000003 Ry
     smearing contrib. (-TS)   =      -0.10195479 Ry

     convergence has been achieved in  17 iterations

 BEEF-vdW xc energy contributions
           1 :   -219.956586832390
           2 :    199.388772920080
           3 :   -164.652282110692
           4 :    125.557879751783
           5 :   -91.1773782526417
           6 :    66.6412736868449
           7 :   -52.2026618531634
           8 :    44.5519768288902
           9 :   -39.3170581399690
          10 :    33.3457325110476
          11 :   -25.7875836693917
          12 :    17.7639977080273
          13 :   -11.1294660633706
          14 :    7.15441773713641
          15 :   -5.83858872431847
          16 :    6.09655938139289
          17 :   -6.53980698967845
          18 :    6.28461239452972
          19 :   -5.30472481634885
          20 :    4.20521151894886
          21 :   -3.66811940201890
          22 :    3.96700287212656
          23 :   -4.83089956388781
          24 :    5.67415175639812
          25 :   -5.99054963064825
          26 :    5.64641015256606
          27 :   -4.91099075866686
          28 :    4.24014171555618
          29 :   -3.97587285203295
          30 :    4.15376655313739
          31 :   -24.1764831017317
          32 :   -17.9231063863826

     Forces acting on atoms (Ry/au):

     negative rho (up, down):  5.591E-01 0.000E+00
     atom    1 type  1   force =    -0.00000122    0.00766567    0.00578084
     atom    2 type  1   force =     0.00663928   -0.00383410    0.00578207
     atom    3 type  1   force =    -0.00663859   -0.00383264    0.00578221
     atom    4 type  2   force =    -0.00000123   -0.00000216    0.00454525
     atom    5 type  1   force =    -0.00000032    0.00118027   -0.00466782
     atom    6 type  1   force =     0.00102192   -0.00059113   -0.00466732
     atom    7 type  1   force =    -0.00102164   -0.00059075   -0.00466725
     atom    8 type  2   force =     0.00000015    0.00000293   -0.00770853
     atom    9 type  1   force =     0.00000185   -0.00005486    0.00011924
     atom   10 type  1   force =    -0.00004910    0.00002859    0.00011831
     atom   11 type  1   force =     0.00004890    0.00002661    0.00011882
     atom   12 type  2   force =     0.00000001    0.00000158   -0.00053581

     Total force =     0.020653     Total SCF correction =     0.001408

     entering subroutine stress ...

     negative rho (up, down):  5.591E-01 0.000E+00
          total   stress  (Ry/bohr**3)                   (kbar)     P=   -8.09
  -0.00007060   0.00000000   0.00000000        -10.39      0.00      0.00
   0.00000000  -0.00007065  -0.00000000          0.00    -10.39     -0.00
   0.00000000  -0.00000000  -0.00002382          0.00     -0.00     -3.50

 !ASE

     Writing output data file calc.save

     General routines

     Parallel routines

   This run was terminated on:  20: 8:29   2Jan2019

   JOB DONE.
Job  /afs/slac/g/suncat/bin/suncat-tsmpirun -x LD_LIBRARY_PATH -wdir /scratch/qe649525_Cv7rl pw.x -in pw.inp

TID   HOST_NAME   COMMAND_LINE            STATUS            TERMINATION_TIME
00000 suncat0047 pw.x -in pw.inp   Done                     01/02/2019 20:08:29
00001 suncat0047 pw.x -in pw.inp   Done                     01/02/2019 20:08:29
00002 suncat0047 pw.x -in pw.inp   Done                     01/02/2019 20:08:29
00003 suncat0047 pw.x -in pw.inp   Done                     01/02/2019 20:08:29
00004 suncat0047 pw.x -in pw.inp   Done                     01/02/2019 20:08:29
00005 suncat0047 pw.x -in pw.inp   Done                     01/02/2019 20:08:29
00006 suncat0047 pw.x -in pw.inp   Done                     01/02/2019 20:08:29
00007 suncat0047 pw.x -in pw.inp   Done                     01/02/2019 20:08:29
00008 suncat0141 pw.x -in pw.inp   Done                     01/02/2019 20:08:29
00009 suncat0141 pw.x -in pw.inp   Done                     01/02/2019 20:08:29
00010 suncat0141 pw.x -in pw.inp   Done                     01/02/2019 20:08:29
00011 suncat0141 pw.x -in pw.inp   Done                     01/02/2019 20:08:29
00012 suncat0141 pw.x -in pw.inp   Done                     01/02/2019 20:08:29
00013 suncat0141 pw.x -in pw.inp   Done                     01/02/2019 20:08:29
00014 suncat0141 pw.x -in pw.inp   Done                     01/02/2019 20:08:29
00015 suncat0141 pw.x -in pw.inp   Done                     01/02/2019 20:08:29
00016 suncat0140 pw.x -in pw.inp   Done                     01/02/2019 20:08:29
00017 suncat0140 pw.x -in pw.inp   Done                     01/02/2019 20:08:29
00018 suncat0140 pw.x -in pw.inp   Done                     01/02/2019 20:08:29
00019 suncat0140 pw.x -in pw.inp   Done                     01/02/2019 20:08:29
00020 suncat0140 pw.x -in pw.inp   Done                     01/02/2019 20:08:29
00021 suncat0140 pw.x -in pw.inp   Done                     01/02/2019 20:08:29
00022 suncat0140 pw.x -in pw.inp   Done                     01/02/2019 20:08:29
00023 suncat0140 pw.x -in pw.inp   Done                     01/02/2019 20:08:29
00024 suncat0135 pw.x -in pw.inp   Done                     01/02/2019 20:08:29
00025 suncat0135 pw.x -in pw.inp   Done                     01/02/2019 20:08:29
00026 suncat0135 pw.x -in pw.inp   Done                     01/02/2019 20:08:29
00027 suncat0135 pw.x -in pw.inp   Done                     01/02/2019 20:08:29
00028 suncat0135 pw.x -in pw.inp   Done                     01/02/2019 20:08:29
00029 suncat0135 pw.x -in pw.inp   Done                     01/02/2019 20:08:29
00030 suncat0135 pw.x -in pw.inp   Done                     01/02/2019 20:08:29
00031 suncat0135 pw.x -in pw.inp   Done                     01/02/2019 20:08:29
00032 suncat0134 pw.x -in pw.inp   Done                     01/02/2019 20:08:29
00033 suncat0134 pw.x -in pw.inp   Done                     01/02/2019 20:08:29
00034 suncat0134 pw.x -in pw.inp   Done                     01/02/2019 20:08:29
00035 suncat0134 pw.x -in pw.inp   Done                     01/02/2019 20:08:29
00036 suncat0134 pw.x -in pw.inp   Done                     01/02/2019 20:08:29
00037 suncat0134 pw.x -in pw.inp   Done                     01/02/2019 20:08:29
00038 suncat0134 pw.x -in pw.inp   Done                     01/02/2019 20:08:29
00039 suncat0134 pw.x -in pw.inp   Done                     01/02/2019 20:08:29
00040 suncat0121 pw.x -in pw.inp   Done                     01/02/2019 20:08:29
00041 suncat0121 pw.x -in pw.inp   Done                     01/02/2019 20:08:29
00042 suncat0121 pw.x -in pw.inp   Done                     01/02/2019 20:08:29
00043 suncat0121 pw.x -in pw.inp   Done                     01/02/2019 20:08:29
00044 suncat0121 pw.x -in pw.inp   Done                     01/02/2019 20:08:29
00045 suncat0121 pw.x -in pw.inp   Done                     01/02/2019 20:08:29
00046 suncat0121 pw.x -in pw.inp   Done                     01/02/2019 20:08:29
00047 suncat0121 pw.x -in pw.inp   Done                     01/02/2019 20:08:29
00048 suncat0115 pw.x -in pw.inp   Done                     01/02/2019 20:08:29
00049 suncat0115 pw.x -in pw.inp   Done                     01/02/2019 20:08:29
00050 suncat0115 pw.x -in pw.inp   Done                     01/02/2019 20:08:29
00051 suncat0115 pw.x -in pw.inp   Done                     01/02/2019 20:08:29
00052 suncat0115 pw.x -in pw.inp   Done                     01/02/2019 20:08:29
00053 suncat0115 pw.x -in pw.inp   Done                     01/02/2019 20:08:29
00054 suncat0115 pw.x -in pw.inp   Done                     01/02/2019 20:08:29
00055 suncat0115 pw.x -in pw.inp   Done                     01/02/2019 20:08:29
00056 suncat0272 pw.x -in pw.inp   Done                     01/02/2019 20:08:29
00057 suncat0272 pw.x -in pw.inp   Done                     01/02/2019 20:08:29
00058 suncat0272 pw.x -in pw.inp   Done                     01/02/2019 20:08:29
00059 suncat0272 pw.x -in pw.inp   Done                     01/02/2019 20:08:29
00060 suncat0272 pw.x -in pw.inp   Done                     01/02/2019 20:08:29
00061 suncat0272 pw.x -in pw.inp   Done                     01/02/2019 20:08:29
00062 suncat0272 pw.x -in pw.inp   Done                     01/02/2019 20:08:29
00063 suncat0272 pw.x -in pw.inp   Done                     01/02/2019 20:08:29