     Program PWSCF v.5.1rc2 (svn rev. 11289) starts on 26Dec2018 at 15:28:37

     Current dimensions of program PWSCF are:
     Max number of different atomic species (ntypx) = 10
     Max number of k-points (npk) =  40000
     Max angular momentum in pseudopotentials (lmaxx) =  3
     Presently stress not available with electric field

     IMPORTANT: XC functional enforced from input :
     Exchange-correlation      = BEEF-VDW ( 1  4 27 13 2)
     Any further DFT definition will be discarded
     Please, verify this is what you really want

     Subspace diagonalization in iterative solution of the eigenvalue problem:
     a serial algorithm will be used

     bravais-lattice index     =            0
     lattice parameter (alat)  =       1.8897  a.u.
     unit-cell volume          =    4289.7841 (a.u.)^3
     number of atoms/cell      =           12
     number of atomic types    =            2
     number of electrons       =       183.00
     number of Kohn-Sham states=          121
     kinetic-energy cutoff     =      36.7493  Ry
     charge density cutoff     =     367.4932  Ry
     convergence threshold     =      1.0E-06
     mixing beta               =       0.1000
     number of iterations used =           10  plain     mixing
     Exchange-correlation      = BEEF-VDW ( 1  4 27 13 2)
     nstep                     =           50

     celldm(1)=   1.889726  celldm(2)=   0.000000  celldm(3)=   0.000000
     celldm(4)=   0.000000  celldm(5)=   0.000000  celldm(6)=   0.000000

     crystal axes: (cart. coord. in units of alat)
               a(1) = (   5.476735   0.000000   0.000000 )
               a(2) = (  -2.738367   4.742992   0.000000 )
               a(3) = (   0.000000   0.000000  24.471735 )

     reciprocal axes: (cart. coord. in units 2 pi/alat)
               b(1) = (  0.182591  0.105419  0.000000 )
               b(2) = (  0.000000  0.210837  0.000000 )
               b(3) = (  0.000000  0.000000  0.040863 )

     PseudoPot. # 1 for Ir read from file:
     /afs/slac.stanford.edu/u/if/mamunm/psp/gbrv1.5pbe/Ir.UPF
     MD5 check sum: 8836f839c3459d2b385c504ce6d91f2c
     Pseudo is Ultrasoft + core correction, Zval = 15.0
     Generated by new atomic code, or converted to UPF format
     Using radial grid of  983 points,  7 beta functions with:
                l(1) =   0
                l(2) =   0
                l(3) =   1
                l(4) =   1
                l(5) =   1
                l(6) =   2
                l(7) =   2
     Q(r) pseudized with  8 coefficients,  rinner =    1.400   1.400   1.400
                                                       1.400   1.400

     PseudoPot. # 2 for Os read from file:
     /afs/slac.stanford.edu/u/if/mamunm/psp/gbrv1.5pbe/Os.UPF
     MD5 check sum: a3fb40a04f0c37c25c34bbc47164c9a8
     Pseudo is Ultrasoft + core correction, Zval = 16.0
     Generated by new atomic code, or converted to UPF format
     Using radial grid of  983 points,  8 beta functions with:
                l(1) =   0
                l(2) =   0
                l(3) =   1
                l(4) =   1
                l(5) =   2
                l(6) =   2
                l(7) =   3
                l(8) =   3
     Q(r) pseudized with  8 coefficients,  rinner =    1.150   1.150   1.150
                                                       1.150   1.150   1.150
                                                       1.150

     vdW kernel table read from file vdW_kernel_table
     MD5 check sum: 095c7af220d748ca6e76c0b4c6cfb241

     atomic species   valence    mass     pseudopotential
        Ir1           15.00   192.21700     Ir( 1.00)
        Os1           16.00   190.23000     Os( 1.00)

     No symmetry found

   Cartesian axes

     site n.     atom                  positions (alat units)
         1           Ir1 tau(   1) = (   0.0000000   0.0000000  10.0000000  )
         2           Ir1 tau(   2) = (  -1.3691837   2.3714958  10.0000000  )
         3           Ir1 tau(   3) = (   1.3691837   2.3714958  10.0000000  )
         4           Os1 tau(   4) = (   2.7383675   0.0000000  10.0000000  )
         5           Ir1 tau(   5) = (   2.7383675   1.5809972  12.2358677  )
         6           Ir1 tau(   6) = (   1.3691837   3.9524930  12.2358677  )
         7           Ir1 tau(   7) = (  -1.3691837   3.9524930  12.2358677  )
         8           Os1 tau(   8) = (   0.0000000   1.5809972  12.2358677  )
         9           Ir1 tau(   9) = (  -0.0000000   3.1619944  14.4717353  )
        10           Ir1 tau(  10) = (   1.3691837   0.7904986  14.4717353  )
        11           Ir1 tau(  11) = (   4.1075512   0.7904986  14.4717353  )
        12           Os1 tau(  12) = (   2.7383675   3.1619944  14.4717353  )

     number of k points=    20  Fermi-Dirac smearing, width (Ry)=  0.0110
                       cart. coord. in units 2pi/alat
        k(    1) = (   0.0000000   0.0000000   0.0000000), wk =   0.0555556
        k(    2) = (   0.0000000   0.0351396   0.0000000), wk =   0.1111111
        k(    3) = (   0.0000000   0.0702791   0.0000000), wk =   0.1111111
        k(    4) = (   0.0000000  -0.1054187   0.0000000), wk =   0.0555556
        k(    5) = (   0.0304318   0.0175698   0.0000000), wk =   0.1111111
        k(    6) = (   0.0304318   0.0527093   0.0000000), wk =   0.1111111
        k(    7) = (   0.0304318   0.0878489   0.0000000), wk =   0.1111111
        k(    8) = (   0.0304318  -0.0878489   0.0000000), wk =   0.1111111
        k(    9) = (   0.0304318  -0.0527093   0.0000000), wk =   0.1111111
        k(   10) = (   0.0304318  -0.0175698   0.0000000), wk =   0.1111111
        k(   11) = (   0.0608635   0.0351396   0.0000000), wk =   0.1111111
        k(   12) = (   0.0608635   0.0702791   0.0000000), wk =   0.1111111
        k(   13) = (   0.0608635   0.1054187   0.0000000), wk =   0.1111111
        k(   14) = (   0.0608635  -0.0702791   0.0000000), wk =   0.1111111
        k(   15) = (   0.0608635  -0.0351396   0.0000000), wk =   0.1111111
        k(   16) = (   0.0608635   0.0000000   0.0000000), wk =   0.1111111
        k(   17) = (  -0.0912953  -0.0527093   0.0000000), wk =   0.0555556
        k(   18) = (  -0.0912953  -0.0175698   0.0000000), wk =   0.1111111
        k(   19) = (  -0.0912953   0.0175698   0.0000000), wk =   0.1111111
        k(   20) = (  -0.0912953  -0.1581280   0.0000000), wk =   0.0555556

     Largest allocated arrays     est. size (Mb)     dimensions
     Largest temporary arrays     est. size (Mb)     dimensions

     Initial potential from superposition of free atoms
     Check: negative starting charge=   -3.645477

     starting charge  176.99961, renormalised to  183.00000

     negative rho (up, down):  3.769E+00 0.000E+00

     *
     * You are using vdW-DF for exchange-correlation in this calculation.
     * Please cite the following three references that made this development
     * possible:
     *
     *   M. Dion, H. Rydberg, E. Schroder, D. C. Langreth, and
     *   B. I. Lundqvist, Phys. Rev. Lett. 92, 246401 (2004).
     *
     *   T. Thonhauser, V. R. Cooper, S. Li, A. Puzder, P. Hyldgaard, and
     *   D. C. Langreth, Phys. Rev. B 76, 125112 (2007).
     *
     *   G. Roman-Perez and J. M. Soler, Phys. Rev. Lett. 103, 096102 (2009).
     *
     *
     * If you are using vdW-DF2, please also cite:
     *
     *   K. Lee, E. D. Murray, L. Kong, B. I. Lundqvist, and
     *   D. C. Langreth, Phys. Rev. B 82, 081101(R) (2010).
     *
     *
     * If you are calculating the stress with vdW-DF, please also cite:
     *
     *   R. Sabatini, E. Kucukbenli, B. Kolb, T. Thonhauser, and
     *   S. de Gironcoli, J. Phys.: Condens. Matter 24, 424209 (2012).
     *

     Carrying out vdW-DF run using the following parameters:

     Nqs =      20    Nr_points =    1024   r_max =   100.000
     q_mesh =
               0.00001000     0.04494208     0.09755937     0.15916263
               0.23128650     0.31572767     0.41458969     0.53033537
               0.66584808     0.82450364     1.01025438     1.22772762
               1.48234092     1.78043706     2.12944203     2.53805004
               3.01644009     3.57652955     4.23227104     5.00000000

     Gradients computed in reciprocal space

     Adding external electric field

     Computed dipole along edir(3) :
        Dipole                0.0000 Ry au,          0.0000 Debye
        Dipole field          0.0000 Ry au

        Potential amp.       -0.0000 Ry
        Total length         45.0888 bohr

     Starting wfc are  147 randomized atomic wfcs

     Self-consistent Calculation

     iteration #  1     ecut=    36.75 Ry     beta=0.10
     Davidson diagonalization with overlap
     ethr =  1.00E-02,  avg # of iterations =  7.7

[...]

     total energy              =   -2249.38268800 Ry
     Harris-Foulkes estimate   =   -2252.62888890 Ry
     estimated scf accuracy    <      19.55174905 Ry

[...]

     End of self-consistent calculation

          k = 0.0000 0.0000 0.0000 ( 16037 PWs)   bands (ev):

   -84.5968 -84.1190 -84.1190 -47.5876 -47.4196 -47.4196 -47.3844 -47.3143
   -47.3143 -47.1493 -47.0931 -47.0931 -47.0658 -47.0598 -46.9533 -46.9533
   -46.9141 -46.9141 -46.7363 -46.7086 -46.7009 -46.6887 -46.6835 -46.6835
   -46.6567 -46.6567 -46.5915 -46.5915 -46.5896 -46.5896 -43.8843 -43.8030
   -43.8030 -43.3616 -43.3616 -43.3583 -43.3583 -43.3471 -43.3332  -7.0191
    -5.0931  -4.7145  -4.4152  -4.3791  -4.3791  -4.1111  -4.0760  -4.0760
    -3.5722  -3.5701  -3.5701  -3.3123  -3.2728  -3.2728  -1.8465  -1.7756
    -1.7756  -1.2293  -1.2293  -1.1751  -0.9820  -0.7947  -0.7947  -0.7340
    -0.4591  -0.3598  -0.3598  -0.2059  -0.2059  -0.0435  -0.0435   0.1138
     0.1138   0.4243   1.3757   1.5242   1.5495   1.5495   1.6264   1.6264
     1.6859   1.6859   1.7618   2.5430   2.5430   2.8910   2.8910   2.9331
     2.9395   3.3164   3.3582   3.3582   3.4797   3.4919   3.4919   3.7802
     3.7802   3.8214   3.9659   3.9659   3.9716   4.0384   4.4441   4.4441
     4.5368   4.5368   5.8730   5.8730   5.9760   6.1656   6.1656   6.3805
     7.1181   7.3484   7.7524   8.6611   9.4579   9.4579   9.4906   9.4906
     9.5423

[...]

          k =-0.0913-0.0527 0.0000 ( 16164 PWs)   bands (ev):

[...]

     the Fermi energy is     2.5661 ev

!    total energy              =   -2249.11758768 Ry
     Harris-Foulkes estimate   =   -2249.11758137 Ry
     estimated scf accuracy    <       0.00000080 Ry

     The total energy is the sum of the following terms:

     one-electron contribution =  -19070.57001402 Ry
     hartree contribution      =    9552.29921657 Ry
     xc contribution           =    -583.64044266 Ry
     ewald contribution        =    7852.88027097 Ry
     electric field correction =       0.00000000 Ry
     smearing contrib. (-TS)   =      -0.08661853 Ry

     convergence has been achieved in  17 iterations

 BEEF-vdW xc energy contributions
           1 :   -515.939131854520
           2 :    479.713003022952
           3 :   -415.031846575204
           4 :    334.828755066092
           5 :   -253.334808267765
           6 :    182.333365228831
           7 :   -128.612687267585
           8 :    93.2116491849247
[...]
                l(7) =   2
     Q(r) pseudized with  8 coefficients,  rinner =    1.400   1.400   1.400
                                                       1.400   1.400

     PseudoPot. # 2 for Os read from file:
     /afs/slac.stanford.edu/u/if/mamunm/psp/gbrv1.5pbe/Os.UPF
     MD5 check sum: a3fb40a04f0c37c25c34bbc47164c9a8
     Pseudo is Ultrasoft + core correction, Zval = 16.0
     Generated by new atomic code, or converted to UPF format
     Using radial grid of  983 points,  8 beta functions with:
                l(1) =   0
                l(2) =   0
                l(3) =   1
                l(4) =   1
                l(5) =   2
                l(6) =   2
                l(7) =   3
                l(8) =   3
     Q(r) pseudized with  8 coefficients,  rinner =    1.150   1.150   1.150
                                                       1.150   1.150   1.150
                                                       1.150

     vdW kernel table read from file vdW_kernel_table
     MD5 check sum: 095c7af220d748ca6e76c0b4c6cfb241

     atomic species   valence    mass     pseudopotential
        Ir1           15.00   192.21700     Ir( 1.00)
        Os1           16.00   190.23000     Os( 1.00)

     No symmetry found

   Cartesian axes

     site n.     atom                  positions (alat units)
         1           Ir1 tau(   1) = (   0.0000000   0.0000000  10.0000000  )
         2           Ir1 tau(   2) = (  -1.3691837   2.3714958  10.0000000  )
         3           Ir1 tau(   3) = (   1.3691837   2.3714958  10.0000000  )
         4           Os1 tau(   4) = (   2.7383675   0.0000000  10.0000000  )
         5           Ir1 tau(   5) = (   2.7383675   1.5809972  12.2358677  )
         6           Ir1 tau(   6) = (   1.3691837   3.9524930  12.2358677  )
         7           Ir1 tau(   7) = (  -1.3691837   3.9524930  12.2358677  )
         8           Os1 tau(   8) = (   0.0000000   1.5809972  12.2358677  )
         9           Ir1 tau(   9) = (   0.0000010   3.1315099  14.3987934  )
        10           Ir1 tau(  10) = (   1.3427845   0.8057409  14.3987924  )
        11           Ir1 tau(  11) = (   4.1339510   0.8057394  14.3987926  )
        12           Os1 tau(  12) = (   2.7383684   3.1619963  14.4136303  )

     number of k points=    20  Fermi-Dirac smearing, width (Ry)=  0.0110
                       cart. coord. in units 2pi/alat
        k(    1) = (   0.0000000   0.0000000   0.0000000), wk =   0.0555556
        k(    2) = (   0.0000000   0.0351396   0.0000000), wk =   0.1111111
        k(    3) = (   0.0000000   0.0702791   0.0000000), wk =   0.1111111
        k(    4) = (   0.0000000  -0.1054187   0.0000000), wk =   0.0555556
        k(    5) = (   0.0304318   0.0175698   0.0000000), wk =   0.1111111
        k(    6) = (   0.0304318   0.0527093   0.0000000), wk =   0.1111111
        k(    7) = (   0.0304318   0.0878489   0.0000000), wk =   0.1111111
        k(    8) = (   0.0304318  -0.0878489   0.0000000), wk =   0.1111111
        k(    9) = (   0.0304318  -0.0527093   0.0000000), wk =   0.1111111
        k(   10) = (   0.0304318  -0.0175698   0.0000000), wk =   0.1111111
        k(   11) = (   0.0608635   0.0351396   0.0000000), wk =   0.1111111
        k(   12) = (   0.0608635   0.0702791   0.0000000), wk =   0.1111111
        k(   13) = (   0.0608635   0.1054187   0.0000000), wk =   0.1111111
        k(   14) = (   0.0608635  -0.0702791   0.0000000), wk =   0.1111111
        k(   15) = (   0.0608635  -0.0351396   0.0000000), wk =   0.1111111
        k(   16) = (   0.0608635   0.0000000   0.0000000), wk =   0.1111111
        k(   17) = (  -0.0912953  -0.0527093   0.0000000), wk =   0.0555556
        k(   18) = (  -0.0912953  -0.0175698   0.0000000), wk =   0.1111111
        k(   19) = (  -0.0912953   0.0175698   0.0000000), wk =   0.1111111
        k(   20) = (  -0.0912953  -0.1581280   0.0000000), wk =   0.0555556

     Largest allocated arrays     est. size (Mb)     dimensions
     Largest temporary arrays     est. size (Mb)     dimensions

     Initial potential from superposition of free atoms
     Check: negative starting charge=   -3.640407

     starting charge  176.99961, renormalised to  183.00000

[...]

     *
     * You are using vdW-DF for exchange-correlation in this calculation.
     * Please cite the following three references that made this development
     * possible:
     *
     *   M. Dion, H. Rydberg, E. Schroder, D. C. Langreth, and
     *   B. I. Lundqvist, Phys. Rev. Lett. 92, 246401 (2004).
     *
     *   T. Thonhauser, V. R. Cooper, S. Li, A. Puzder, P. Hyldgaard, and
     *   D. C. Langreth, Phys. Rev. B 76, 125112 (2007).
     *
     *   G. Roman-Perez and J. M. Soler, Phys. Rev. Lett. 103, 096102 (2009).
     *
     *
     * If you are using vdW-DF2, please also cite:
     *
     *   K. Lee, E. D. Murray, L. Kong, B. I. Lundqvist, and
     *   D. C. Langreth, Phys. Rev. B 82, 081101(R) (2010).
     *
     *
     * If you are calculating the stress with vdW-DF, please also cite:
     *
     *   R. Sabatini, E. Kucukbenli, B. Kolb, T. Thonhauser, and
     *   S. de Gironcoli, J. Phys.: Condens. Matter 24, 424209 (2012).
     *

     Carrying out vdW-DF run using the following parameters:

     Nqs =      20    Nr_points =    1024   r_max =   100.000
     q_mesh =
               0.00001000     0.04494208     0.09755937     0.15916263
               0.23128650     0.31572767     0.41458969     0.53033537
               0.66584808     0.82450364     1.01025438     1.22772762
               1.48234092     1.78043706     2.12944203     2.53805004
               3.01644009     3.57652955     4.23227104     5.00000000

     Gradients computed in reciprocal space

[...]

     Starting wfc are  147 randomized atomic wfcs

     Self-consistent Calculation

[...]

     iteration #  7     ecut=    36.75 Ry     beta=0.10
     Davidson diagonalization with overlap
     c_bands:  3 eigenvalues not converged
     c_bands:  3 eigenvalues not converged
     c_bands:  3 eigenvalues not converged
     ethr =  1.57E-04,  avg # of iterations =  4.2

[...]

     total energy              =   -2249.12569725 Ry
     Harris-Foulkes estimate   =   -2249.12569275 Ry
     estimated scf accuracy    <       0.00000846 Ry

     iteration # 18     ecut=    36.75 Ry     beta=0.10
     Davidson diagonalization with overlap
     ethr =  4.63E-09,  avg # of iterations =  1.4

[...]

     negative rho (up, down):  3.268E+00 0.000E+00

     Adding external electric field

     Computed dipole along edir(3) :
        Dipole                0.0067 Ry au,          0.0170 Debye
        Dipole field          0.0000 Ry au

        Potential amp.       -0.0018 Ry
        Total length         45.0888 bohr

     End of self-consistent calculation

[...]

          k = 0.0609 0.0000 0.0000 ( 16168 PWs)   bands (ev):

[...]

          k =-0.0913-0.1581 0.0000 ( 16164 PWs)   bands (ev):

   -84.6454 -84.1313 -84.0656 -47.5110 -47.4038 -47.3865 -47.3541 -47.3379
   -47.3284 -47.3252 -47.2980 -47.1309 -47.0409 -46.9285 -46.9095 -46.8938
   -46.8315 -46.8257 -46.7896 -46.7817 -46.7797 -46.7599 -46.7512 -46.7368
   -46.7343 -46.6667 -46.6483 -46.6264 -46.6183 -46.5581 -43.9542 -43.8704
   -43.8549 -43.3976 -43.3823 -43.3663 -43.3326 -43.3176 -43.2851  -5.2267
    -5.2047  -3.7242  -3.7087  -3.4200  -3.4037  -3.3523  -3.2982  -3.2978
    -3.2474  -2.7827  -2.6890  -2.4373  -2.2818  -2.2253  -2.2008  -1.9655
    -1.9100  -1.8611  -1.7502  -1.4961  -1.2923  -0.9518  -0.8428  -0.6402
    -0.6227  -0.5686  -0.4688  -0.4220  -0.3875  -0.2361  -0.2236  -0.1628
    -0.1258  -0.0540   0.0015   0.0425   0.0654   0.1152   0.1483   0.6322
     0.8078   0.9406   1.2056   1.2424   1.2482   1.3606   1.5230   1.6830
     1.7566   1.9684   2.0802   2.1404   2.2394   2.3102   2.3839   2.6139
     2.6597   3.0706   3.2651   3.5047   3.6308   3.7273   4.1331   4.8181
     4.9102   5.6410   6.1621   6.3962   6.7485   7.3548   7.4661   8.2419
     8.3447   8.7015   8.7087   9.3070   9.3226   9.3817   9.3869  10.5140
    10.5214

     the Fermi energy is     2.5949 ev

!    total energy              =   -2249.12570507 Ry
     Harris-Foulkes estimate   =   -2249.12569749 Ry
     estimated scf accuracy    <       0.00000073 Ry

     The total energy is the sum of the following terms:

     one-electron contribution =  -19261.14380068 Ry
     hartree contribution      =    9647.48864785 Ry
     xc contribution           =    -583.81650871 Ry
     ewald contribution        =    7948.42956360 Ry
     electric field correction =       0.00000013 Ry
     smearing contrib. (-TS)   =      -0.08360726 Ry

     convergence has been achieved in  18 iterations

 BEEF-vdW xc energy contributions
           1 :   -516.120351020648
           2 :    479.968565181875
           3 :   -415.393595328332
           4 :    335.264930961206
           5 :   -253.760109938806
           6 :    182.645838935557
           7 :   -128.741242055513
           8 :    93.1525542898335
           9 :   -72.2987930208711
          10 :    60.1489455522143
          11 :   -50.7561182717590
          12 :    40.1894344455676
          13 :   -27.3303651610755
          14 :    13.4854470780742
          15 :   -1.19316511005275
          16 :   -7.19436001558995
          17 :    10.5898272718056
          18 :   -9.56112607601517
          19 :    5.98754399204017
          20 :   -2.22613619165418
          21 :   0.180219669937173
          22 :  -0.649517279308384
          23 :    3.18431010564927
          24 :   -6.44981152794139
          25 :    8.90304857208150
          26 :   -9.48036942871261
          27 :    8.01013123663574
          28 :   -5.20629950020634
          29 :    2.28493422446104
          30 :  -0.401904955909345
          31 :   -45.0724428290598
          32 :   -33.9493899441782

     Forces acting on atoms (Ry/au):

     negative rho (up, down):  3.268E+00 0.000E+00
     atom    1 type  1   force =     0.00000003    0.01554710    0.02054809
     atom    2 type  1   force =     0.01346351   -0.00777371    0.02054745
     atom    3 type  1   force =    -0.01346448   -0.00777351    0.02054733
     atom    4 type  2   force =    -0.00000050   -0.00000086    0.01683663
     atom    5 type  1   force =    -0.00000038   -0.00010573   -0.01835619
     atom    6 type  1   force =    -0.00009063    0.00005233   -0.01835610
     atom    7 type  1   force =     0.00009118    0.00005372   -0.01835599
     atom    8 type  2   force =    -0.00000012    0.00000188   -0.02394082
     atom    9 type  1   force =     0.00000050    0.00018662    0.00021947
     atom   10 type  1   force =     0.00016117   -0.00009301    0.00021956
     atom   11 type  1   force =    -0.00016065   -0.00009314    0.00022001
     atom   12 type  2   force =     0.00000039   -0.00000168   -0.00012945

     Total force =     0.062125     Total SCF correction =     0.003060

     entering subroutine stress ...

     negative rho (up, down):  3.268E+00 0.000E+00
          total   stress  (Ry/bohr**3)                   (kbar)     P=  -30.43
  -0.00025314   0.00000000  -0.00000000        -37.24      0.00     -0.00
   0.00000000  -0.00025315   0.00000000          0.00    -37.24      0.00
  -0.00000000   0.00000000  -0.00011422         -0.00      0.00    -16.80

 !ASE

     Writing output data file calc.save

     General routines

     Parallel routines

   This run was terminated on:  16:21:23  26Dec2018

   JOB DONE.
Job  /afs/slac/g/suncat/bin/suncat-tsmpirun -x LD_LIBRARY_PATH -wdir /scratch/qe109950_VFYQC pw.x -in pw.inp

TID   HOST_NAME   COMMAND_LINE            STATUS            TERMINATION_TIME
00000 suncat0024 pw.x -in pw.inp   Done                     12/26/2018 16:21:23
00001 suncat0024 pw.x -in pw.inp   Done                     12/26/2018 16:21:23
00002 suncat0024 pw.x -in pw.inp   Done                     12/26/2018 16:21:23
00003 suncat0024 pw.x -in pw.inp   Done                     12/26/2018 16:21:23
00004 suncat0024 pw.x -in pw.inp   Done                     12/26/2018 16:21:23
00005 suncat0024 pw.x -in pw.inp   Done                     12/26/2018 16:21:23
00006 suncat0024 pw.x -in pw.inp   Done                     12/26/2018 16:21:23
00007 suncat0024 pw.x -in pw.inp   Done                     12/26/2018 16:21:23
00008 suncat0023 pw.x -in pw.inp   Done                     12/26/2018 16:21:23
00009 suncat0023 pw.x -in pw.inp   Done                     12/26/2018 16:21:23
00010 suncat0023 pw.x -in pw.inp   Done                     12/26/2018 16:21:23
00011 suncat0023 pw.x -in pw.inp   Done                     12/26/2018 16:21:23
00012 suncat0023 pw.x -in pw.inp   Done                     12/26/2018 16:21:23
00013 suncat0023 pw.x -in pw.inp   Done                     12/26/2018 16:21:23
00014 suncat0023 pw.x -in pw.inp   Done                     12/26/2018 16:21:23
00015 suncat0023 pw.x -in pw.inp   Done                     12/26/2018 16:21:23
00016 suncat0022 pw.x -in pw.inp   Done                     12/26/2018 16:21:23
00017 suncat0022 pw.x -in pw.inp   Done                     12/26/2018 16:21:23
00018 suncat0022 pw.x -in pw.inp   Done                     12/26/2018 16:21:23
00019 suncat0022 pw.x -in pw.inp   Done                     12/26/2018 16:21:23
00020 suncat0022 pw.x -in pw.inp   Done                     12/26/2018 16:21:23
00021 suncat0022 pw.x -in pw.inp   Done                     12/26/2018 16:21:23
00022 suncat0022 pw.x -in pw.inp   Done                     12/26/2018 16:21:23
00023 suncat0022 pw.x -in pw.inp   Done                     12/26/2018 16:21:23
00024 suncat0018 pw.x -in pw.inp   Done                     12/26/2018 16:21:23
00025 suncat0018 pw.x -in pw.inp   Done                     12/26/2018 16:21:23
00026 suncat0018 pw.x -in pw.inp   Done                     12/26/2018 16:21:23
00027 suncat0018 pw.x -in pw.inp   Done                     12/26/2018 16:21:23
00028 suncat0018 pw.x -in pw.inp   Done                     12/26/2018 16:21:23
00029 suncat0018 pw.x -in pw.inp   Done                     12/26/2018 16:21:23
00030 suncat0018 pw.x -in pw.inp   Done                     12/26/2018 16:21:23
00031 suncat0018 pw.x -in pw.inp   Done                     12/26/2018 16:21:23
00032 suncat0017 pw.x -in pw.inp   Done                     12/26/2018 16:21:23
00033 suncat0017 pw.x -in pw.inp   Done                     12/26/2018 16:21:23
00034 suncat0017 pw.x -in pw.inp   Done                     12/26/2018 16:21:23
00035 suncat0017 pw.x -in pw.inp   Done                     12/26/2018 16:21:23
00036 suncat0017 pw.x -in pw.inp   Done                     12/26/2018 16:21:23
00037 suncat0017 pw.x -in pw.inp   Done                     12/26/2018 16:21:23
00038 suncat0017 pw.x -in pw.inp   Done                     12/26/2018 16:21:23
00039 suncat0017 pw.x -in pw.inp   Done                     12/26/2018 16:21:23
00040 suncat0016 pw.x -in pw.inp   Done                     12/26/2018 16:21:23
00041 suncat0016 pw.x -in pw.inp   Done                     12/26/2018 16:21:23
00042 suncat0016 pw.x -in pw.inp   Done                     12/26/2018 16:21:23
00043 suncat0016 pw.x -in pw.inp   Done                     12/26/2018 16:21:23
00044 suncat0016 pw.x -in pw.inp   Done                     12/26/2018 16:21:23
00045 suncat0016 pw.x -in pw.inp   Done                     12/26/2018 16:21:23
00046 suncat0016 pw.x -in pw.inp   Done                     12/26/2018 16:21:23
00047 suncat0016 pw.x -in pw.inp   Done                     12/26/2018 16:21:23
00048 suncat0014 pw.x -in pw.inp   Done                     12/26/2018 16:21:23
00049 suncat0014 pw.x -in pw.inp   Done                     12/26/2018 16:21:23
00050 suncat0014 pw.x -in pw.inp   Done                     12/26/2018 16:21:23
00051 suncat0014 pw.x -in pw.inp   Done                     12/26/2018 16:21:23
00052 suncat0014 pw.x -in pw.inp   Done                     12/26/2018 16:21:23
00053 suncat0014 pw.x -in pw.inp   Done                     12/26/2018 16:21:23
00054 suncat0014 pw.x -in pw.inp   Done                     12/26/2018 16:21:23
00055 suncat0014 pw.x -in pw.inp   Done                     12/26/2018 16:21:23
00056 suncat0198 pw.x -in pw.inp   Done                     12/26/2018 16:21:23
00057 suncat0198 pw.x -in pw.inp   Done                     12/26/2018 16:21:23
00058 suncat0198 pw.x -in pw.inp   Done                     12/26/2018 16:21:23
00059 suncat0198 pw.x -in pw.inp   Done                     12/26/2018 16:21:23
00060 suncat0198 pw.x -in pw.inp   Done                     12/26/2018 16:21:23
00061 suncat0198 pw.x -in pw.inp   Done                     12/26/2018 16:21:23
00062 suncat0198 pw.x -in pw.inp   Done                     12/26/2018 16:21:23
00063 suncat0198 pw.x -in pw.inp   Done                     12/26/2018 16:21:23