     Program PWSCF v.5.1rc2 (svn rev. 11289) starts on 25Dec2018 at  8:28:52

     Current dimensions of program PWSCF are:
     Max number of different atomic species (ntypx) = 10
     Max number of k-points (npk) =  40000
     Max angular momentum in pseudopotentials (lmaxx) =  3
     Presently stress not available with electric field

     IMPORTANT: XC functional enforced from input :
     Exchange-correlation      = BEEF-VDW ( 1  4 27 13 2)
     Any further DFT definition will be discarded
     Please, verify this is what you really want

     Subspace diagonalization in iterative solution of the eigenvalue problem:
     a serial algorithm will be used

     Found symmetry operation: I + ( -0.5000  0.0000  0.0000)
     This is a supercell, fractional translations are disabled

     bravais-lattice index     =            0
     lattice parameter (alat)  =       1.8897  a.u.
     unit-cell volume          =    5290.2041 (a.u.)^3
     number of atoms/cell      =           12
     number of atomic types    =            2
     number of electrons       =       156.00
     number of Kohn-Sham states=          108
     kinetic-energy cutoff     =      36.7493  Ry
     charge density cutoff     =     367.4932  Ry
     convergence threshold     =      1.0E-06
     mixing beta               =       0.1000
     number of iterations used =           10  plain     mixing
     Exchange-correlation      = BEEF-VDW ( 1  4 27 13 2)
     nstep                     =           50

     celldm(1)=   1.889726  celldm(2)=   0.000000  celldm(3)=   0.000000
     celldm(4)=   0.000000  celldm(5)=   0.000000  celldm(6)=   0.000000

     crystal axes: (cart. coord. in units of alat)
               a(1) = (   5.566917   0.000000   0.000000 )
               a(2) = (  -2.783459   5.666957   0.000000 )
               a(3) = (   0.000000   0.000000  24.849129 )

     reciprocal axes: (cart. coord. in units 2 pi/alat)
               b(1) = (  0.179633  0.088231  0.000000 )
               b(2) = (  0.000000  0.176462  0.000000 )
               b(3) = (  0.000000  0.000000  0.040243 )

     PseudoPot. # 1 for Zr read from file:
     /afs/slac.stanford.edu/u/if/mamunm/psp/gbrv1.5pbe/Zr.UPF
     MD5 check sum: 5db81b1e868ab7776c4564c113de050b
     Pseudo is Ultrasoft + core correction, Zval = 12.0
     Generated by new atomic code, or converted to UPF format
     Using radial grid of  887 points,  6 beta functions with:
                l(1) =   0
                l(2) =   0
                l(3) =   1
                l(4) =   1
                l(5) =   2
                l(6) =   2
     Q(r) pseudized with  6 coefficients,  rinner =    1.200   1.200   1.200
                                                       1.200   1.200

     PseudoPot. # 2 for W  read from file:
     /afs/slac.stanford.edu/u/if/mamunm/psp/gbrv1.5pbe/W.UPF
     MD5 check sum: 9c083fa34c2a2ea0f02f1f893e16e1c8
     Pseudo is Ultrasoft + core correction, Zval = 14.0
     Generated by new atomic code, or converted to UPF format
     Using radial grid of  923 points,  8 beta functions with:
                l(1) =   0
                l(2) =   0
                l(3) =   0
                l(4) =   1
                l(5) =   1
                l(6) =   2
                l(7) =   2
                l(8) =   3
     Q(r) pseudized with  6 coefficients,  rinner =    1.350   1.350   1.350
                                                       1.350   1.350   1.350
                                                       1.350

     vdW kernel table read from file vdW_kernel_table
     MD5 check sum: 095c7af220d748ca6e76c0b4c6cfb241

     atomic species   valence    mass     pseudopotential
        Zr1           12.00    91.22400     Zr( 1.00)
        W1            14.00   183.84000     W ( 1.00)

     No symmetry found

   Cartesian axes

     site n.     atom                  positions (alat units)
         1           Zr1 tau(   1) = (   0.0000000   0.0000000  10.0000000  )
         2           Zr1 tau(   2) = (   2.7834586   0.0000000  10.0000000  )
         3           W1  tau(   3) = (   1.3917293   2.8334783  10.0000000  )
         4           W1  tau(   4) = (  -1.3917293   2.8334783  10.0000000  )
         5           Zr1 tau(   5) = (   2.7834586   1.3671609  12.4245645  )
         6           Zr1 tau(   6) = (  -0.0000000   1.3671609  12.4245645  )
         7           W1  tau(   7) = (  -1.3917293   4.2006393  12.4245645  )
         8           W1  tau(   8) = (   1.3917293   4.2006393  12.4245645  )
         9           Zr1 tau(   9) = (   0.0000000   2.7343219  14.8491289  )
        10           Zr1 tau(  10) = (   2.7834586   2.7343219  14.8491289  )
        11           W1  tau(  11) = (   1.3917293   5.5678002  14.8491289  )
        12           W1  tau(  12) = (  -1.3917293   5.5678002  14.8491289  )

     number of k points=    20  Fermi-Dirac smearing, width (Ry)=  0.0110
                       cart. coord. in units 2pi/alat
        k(    1) = (   0.0000000   0.0000000   0.0000000), wk =   0.0555556
        k(    2) = (   0.0000000   0.0294103   0.0000000), wk =   0.1111111
        k(    3) = (   0.0000000   0.0588205   0.0000000), wk =   0.1111111
        k(    4) = (   0.0000000  -0.0882308   0.0000000), wk =   0.0555556
        k(    5) = (   0.0299388   0.0147051   0.0000000), wk =   0.1111111
        k(    6) = (   0.0299388   0.0441154   0.0000000), wk =   0.1111111
        k(    7) = (   0.0299388   0.0735256   0.0000000), wk =   0.1111111
        k(    8) = (   0.0299388  -0.0735256   0.0000000), wk =   0.1111111
        k(    9) = (   0.0299388  -0.0441154   0.0000000), wk =   0.1111111
        k(   10) = (   0.0299388  -0.0147051   0.0000000), wk =   0.1111111
        k(   11) = (   0.0598775   0.0294103   0.0000000), wk =   0.1111111
        k(   12) = (   0.0598775   0.0588205   0.0000000), wk =   0.1111111
        k(   13) = (   0.0598775   0.0882308   0.0000000), wk =   0.1111111
        k(   14) = (   0.0598775  -0.0588205   0.0000000), wk =   0.1111111
        k(   15) = (   0.0598775  -0.0294103   0.0000000), wk =   0.1111111
        k(   16) = (   0.0598775   0.0000000   0.0000000), wk =   0.1111111
        k(   17) = (  -0.0898163  -0.0441154   0.0000000), wk =   0.0555556
        k(   18) = (  -0.0898163  -0.0147051   0.0000000), wk =   0.1111111
        k(   19) = (  -0.0898163   0.0147051   0.0000000), wk =   0.1111111
        k(   20) = (  -0.0898163  -0.1323462   0.0000000), wk =   0.0555556

     Largest allocated arrays     est. size (Mb)     dimensions
     Largest temporary arrays     est. size (Mb)     dimensions

     Initial potential from superposition of free atoms
     Check: negative starting charge=   -0.738805

     starting charge  155.38506, renormalised to  156.00000

     negative rho (up, down):  7.417E-01 0.000E+00

     *
     * You are using vdW-DF for exchange-correlation in this calculation.
     * Please cite the following three references that made this development
     * possible:
     *
     *   M. Dion, H. Rydberg, E. Schroder, D. C. Langreth, and
     *   B. I. Lundqvist, Phys. Rev. Lett. 92, 246401 (2004).
     *
     *   T. Thonhauser, V. R. Cooper, S. Li, A. Puzder, P. Hyldgaard, and
     *   D. C. Langreth, Phys. Rev. B 76, 125112 (2007).
     *
     *   G. Roman-Perez and J. M. Soler, Phys. Rev. Lett. 103, 096102 (2009).
     *
     *
     * If you are using vdW-DF2, please also cite:
     *
     *   K. Lee, E. D. Murray, L. Kong, B. I. Lundqvist, and
     *   D. C. Langreth, Phys. Rev. B 82, 081101(R) (2010).
     *
     *
     * If you are calculating the stress with vdW-DF, please also cite:
     *
     *   R. Sabatini, E. Kucukbenli, B. Kolb, T. Thonhauser, and
     *   S. de Gironcoli, J. Phys.: Condens. Matter 24, 424209 (2012).
     *

     Carrying out vdW-DF run using the following parameters:

     Nqs =      20    Nr_points =    1024   r_max =   100.000
     q_mesh =
               0.00001000     0.04494208     0.09755937     0.15916263
               0.23128650     0.31572767     0.41458969     0.53033537
               0.66584808     0.82450364     1.01025438     1.22772762
               1.48234092     1.78043706     2.12944203     2.53805004
               3.01644009     3.57652955     4.23227104     5.00000000

     Gradients computed in reciprocal space

     Adding external electric field

     Computed dipole along edir(3) :
        Dipole                0.0000 Ry au,          0.0000 Debye
        Dipole field          0.0000 Ry au

        Potential amp.       -0.0000 Ry
        Total length         45.7841 bohr

     Starting wfc are  156 randomized atomic wfcs

     Self-consistent Calculation

     iteration #  1     ecut=    36.75 Ry     beta=0.10
     Davidson diagonalization with overlap
     ethr =  1.00E-02,  avg # of iterations =  2.0

[...]

     total energy              =   -1560.15836565 Ry
     Harris-Foulkes estimate   =   -1561.18294401 Ry
     estimated scf accuracy    <       5.82919690 Ry

[...]

     iteration #  9     ecut=    36.75 Ry     beta=0.10
     Davidson diagonalization with overlap
     c_bands:  1 eigenvalues not converged
     ethr =  1.79E-06,  avg # of iterations =  7.4

[...]

     End of self-consistent calculation

          k = 0.0000 0.0000 0.0000 ( 19953 PWs)   bands (ev):

   -72.4496 -72.4037 -72.3173 -72.3153 -72.2718 -72.2698 -47.0912 -47.0739
   -46.8739 -46.8579 -46.7348 -46.5178 -36.8468 -36.7388 -36.6509 -36.6461
   -36.6413 -36.5078 -36.4498 -36.4255 -36.3872 -36.3757 -36.3743 -36.3070
   -36.2952 -36.2106 -36.1425 -36.1259 -35.9313 -35.9289 -25.8071 -25.7838
   -25.6155 -25.4980 -25.3830 -25.1969 -25.0068 -24.9928 -24.9801 -24.8044
   -24.7768 -24.6745 -24.4686 -24.4253 -24.2523 -24.2108 -24.2006 -23.9177
    -4.6807  -3.2299  -2.5667  -2.0065  -1.8940  -1.6831  -1.6693  -1.4473
    -1.4390  -0.9749  -0.9483  -0.9089  -0.8836  -0.8799  -0.8063  -0.1222
     0.1612   0.3222   0.3380   0.7270   0.8259   0.9770   1.2501   1.4009
     1.6668   1.6877   1.8672   2.1280   2.2846   2.2864   2.5424   2.7004
     2.7354   2.9910   3.1240   3.1820   3.2478   3.3077   3.3383   3.4746
     3.8614   3.9084   3.9529   4.2409   4.2933   4.3989   4.5019   4.5022
     4.5783   4.6823   5.0388   5.1808   5.1941   5.4909   5.8034   5.9792
     6.1298   6.1763   6.2053   6.2850

[...]

          k =-0.0898-0.0441 0.0000 ( 19908 PWs)   bands (ev):

[...]

     the Fermi energy is     1.9007 ev

!    total energy              =   -1560.66288275 Ry
     Harris-Foulkes estimate   =   -1560.66288188 Ry
     estimated scf accuracy    <       0.00000055 Ry

     The total energy is the sum of the following terms:

     one-electron contribution =  -11167.12861624 Ry
     hartree contribution      =    5570.64911860 Ry
     xc contribution           =    -365.54329651 Ry
     ewald contribution        =    4401.45796832 Ry
     electric field correction =       0.00000000 Ry
     smearing contrib. (-TS)   =      -0.09805692 Ry

     convergence has been achieved in  16 iterations

 BEEF-vdW xc energy contributions
           1 :   -319.169986367474
           2 :    293.490186387103
           3 :   -248.788982662593
[...]
     Using radial grid of  887 points,  6 beta functions with:
                l(1) =   0
                l(2) =   0
                l(3) =   1
                l(4) =   1
                l(5) =   2
                l(6) =   2
     Q(r) pseudized with  6 coefficients,  rinner =    1.200   1.200   1.200
                                                       1.200   1.200

     PseudoPot. # 2 for W  read from file:
     /afs/slac.stanford.edu/u/if/mamunm/psp/gbrv1.5pbe/W.UPF
     MD5 check sum: 9c083fa34c2a2ea0f02f1f893e16e1c8
     Pseudo is Ultrasoft + core correction, Zval = 14.0
     Generated by new atomic code, or converted to UPF format
     Using radial grid of  923 points,  8 beta functions with:
                l(1) =   0
                l(2) =   0
                l(3) =   0
                l(4) =   1
                l(5) =   1
                l(6) =   2
                l(7) =   2
                l(8) =   3
     Q(r) pseudized with  6 coefficients,  rinner =    1.350   1.350   1.350
                                                       1.350   1.350   1.350
                                                       1.350

     vdW kernel table read from file vdW_kernel_table
     MD5 check sum: 095c7af220d748ca6e76c0b4c6cfb241

     atomic species   valence    mass     pseudopotential
        Zr1           12.00    91.22400     Zr( 1.00)
        W1            14.00   183.84000     W ( 1.00)

     No symmetry found

   Cartesian axes

     site n.     atom                  positions (alat units)
         1           Zr1 tau(   1) = (   0.0000000   0.0000000  10.0000000  )
         2           Zr1 tau(   2) = (   2.7834586   0.0000000  10.0000000  )
         3           W1  tau(   3) = (   1.3917293   2.8334783  10.0000000  )
         4           W1  tau(   4) = (  -1.3917293   2.8334783  10.0000000  )
         5           Zr1 tau(   5) = (   2.7834586   1.3671609  12.4245645  )
         6           Zr1 tau(   6) = (  -0.0000000   1.3671609  12.4245645  )
         7           W1  tau(   7) = (  -1.3917293   4.2006393  12.4245645  )
         8           W1  tau(   8) = (   1.3917293   4.2006393  12.4245645  )
         9           Zr1 tau(   9) = (  -0.0000021   2.9156299  14.9833667  )
        10           Zr1 tau(  10) = (   2.7834516   2.9156036  14.9833641  )
        11           W1  tau(  11) = (   1.3917164   5.5935275  14.6267808  )
        12           W1  tau(  12) = (  -1.3916993   5.5935313  14.6267783  )

     number of k points=    20  Fermi-Dirac smearing, width (Ry)=  0.0110
                       cart. coord. in units 2pi/alat
        k(    1) = (   0.0000000   0.0000000   0.0000000), wk =   0.0555556
        k(    2) = (   0.0000000   0.0294103   0.0000000), wk =   0.1111111
        k(    3) = (   0.0000000   0.0588205   0.0000000), wk =   0.1111111
        k(    4) = (   0.0000000  -0.0882308   0.0000000), wk =   0.0555556
        k(    5) = (   0.0299388   0.0147051   0.0000000), wk =   0.1111111
        k(    6) = (   0.0299388   0.0441154   0.0000000), wk =   0.1111111
        k(    7) = (   0.0299388   0.0735256   0.0000000), wk =   0.1111111
        k(    8) = (   0.0299388  -0.0735256   0.0000000), wk =   0.1111111
        k(    9) = (   0.0299388  -0.0441154   0.0000000), wk =   0.1111111
        k(   10) = (   0.0299388  -0.0147051   0.0000000), wk =   0.1111111
        k(   11) = (   0.0598775   0.0294103   0.0000000), wk =   0.1111111
        k(   12) = (   0.0598775   0.0588205   0.0000000), wk =   0.1111111
        k(   13) = (   0.0598775   0.0882308   0.0000000), wk =   0.1111111
        k(   14) = (   0.0598775  -0.0588205   0.0000000), wk =   0.1111111
        k(   15) = (   0.0598775  -0.0294103   0.0000000), wk =   0.1111111
        k(   16) = (   0.0598775   0.0000000   0.0000000), wk =   0.1111111
        k(   17) = (  -0.0898163  -0.0441154   0.0000000), wk =   0.0555556
        k(   18) = (  -0.0898163  -0.0147051   0.0000000), wk =   0.1111111
        k(   19) = (  -0.0898163   0.0147051   0.0000000), wk =   0.1111111
        k(   20) = (  -0.0898163  -0.1323462   0.0000000), wk =   0.0555556

     Largest allocated arrays     est. size (Mb)     dimensions
     Largest temporary arrays     est. size (Mb)     dimensions

     Initial potential from superposition of free atoms
     Check: negative starting charge=   -0.740625

     starting charge  155.38506, renormalised to  156.00000

[...]

     *
     * You are using vdW-DF for exchange-correlation in this calculation.
     * Please cite the following three references that made this development
     * possible:
     *
     *   M. Dion, H. Rydberg, E. Schroder, D. C. Langreth, and
     *   B. I. Lundqvist, Phys. Rev. Lett. 92, 246401 (2004).
     *
     *   T. Thonhauser, V. R. Cooper, S. Li, A. Puzder, P. Hyldgaard, and
     *   D. C. Langreth, Phys. Rev. B 76, 125112 (2007).
     *
     *   G. Roman-Perez and J. M. Soler, Phys. Rev. Lett. 103, 096102 (2009).
     *
     *
     * If you are using vdW-DF2, please also cite:
     *
     *   K. Lee, E. D. Murray, L. Kong, B. I. Lundqvist, and
     *   D. C. Langreth, Phys. Rev. B 82, 081101(R) (2010).
     *
     *
     * If you are calculating the stress with vdW-DF, please also cite:
     *
     *   R. Sabatini, E. Kucukbenli, B. Kolb, T. Thonhauser, and
     *   S. de Gironcoli, J. Phys.: Condens. Matter 24, 424209 (2012).
     *

     Carrying out vdW-DF run using the following parameters:

     Nqs =      20    Nr_points =    1024   r_max =   100.000
     q_mesh =
               0.00001000     0.04494208     0.09755937     0.15916263
               0.23128650     0.31572767     0.41458969     0.53033537
               0.66584808     0.82450364     1.01025438     1.22772762
               1.48234092     1.78043706     2.12944203     2.53805004
               3.01644009     3.57652955     4.23227104     5.00000000

     Gradients computed in reciprocal space

[...]

     Starting wfc are  156 randomized atomic wfcs

     Self-consistent Calculation

[...]

     iteration # 11     ecut=    36.75 Ry     beta=0.10
     Davidson diagonalization with overlap
     c_bands:  1 eigenvalues not converged
     ethr =  2.96E-07,  avg # of iterations =  2.9

[...]

     total energy              =   -1560.70481839 Ry
     Harris-Foulkes estimate   =   -1560.70481765 Ry
     estimated scf accuracy    <       0.00000108 Ry

     iteration # 16     ecut=    36.75 Ry     beta=0.10
     Davidson diagonalization with overlap
     ethr =  6.93E-10,  avg # of iterations =  2.5

[...]

     negative rho (up, down):  7.637E-01 0.000E+00

     Adding external electric field

     Computed dipole along edir(3) :
        Dipole                0.1275 Ry au,          0.3242 Debye
        Dipole field          0.0003 Ry au

        Potential amp.       -0.0277 Ry
        Total length         45.7841 bohr

     End of self-consistent calculation

[...]

          k = 0.0599 0.0000 0.0000 ( 19954 PWs)   bands (ev):

[...]

          k =-0.0898-0.1323 0.0000 ( 19908 PWs)   bands (ev):

   -72.2504 -72.2504 -72.1640 -72.1640 -72.0180 -72.0180 -46.9660 -46.9660
   -46.8417 -46.8417 -46.5069 -46.5069 -36.6437 -36.6437 -36.3363 -36.3363
   -36.2939 -36.2939 -36.2693 -36.2693 -36.1898 -36.1898 -36.1667 -36.1667
   -36.0795 -36.0795 -36.0686 -36.0685 -35.8793 -35.8793 -25.2880 -25.2880
   -25.0554 -25.0554 -24.9890 -24.9890 -24.9034 -24.9034 -24.8919 -24.8918
   -24.7647 -24.7647 -24.6358 -24.6358 -24.4709 -24.4709 -24.3001 -24.3001
    -2.8315  -2.8315  -1.5534  -1.5534  -0.8730  -0.8730  -0.6930  -0.6929
    -0.5490  -0.5489  -0.1674  -0.1674   0.1977   0.1977   0.3557   0.3557
     0.5689   0.5689   0.8311   0.8311   1.1135   1.1135   1.2315   1.2315
     1.4295   1.4296   1.5454   1.5455   1.8499   1.8499   2.0477   2.0477
     2.2440   2.2440   2.4103   2.4103   2.6904   2.6905   3.1369   3.1369
     3.5522   3.5523   3.6556   3.6556   4.0086   4.0087   4.0540   4.0540
     4.3276   4.3276   4.3995   4.3995   4.4471   4.4471   4.8368   4.8369
     5.3156   5.3156   5.6120   5.6120

     the Fermi energy is     2.0445 ev

!    total energy              =   -1560.70482016 Ry
     Harris-Foulkes estimate   =   -1560.70481944 Ry
     estimated scf accuracy    <       0.00000073 Ry

     The total energy is the sum of the following terms:

     one-electron contribution =  -11257.53242690 Ry
     hartree contribution      =    5616.59274461 Ry
     xc contribution           =    -365.68604041 Ry
     ewald contribution        =    4446.01532220 Ry
     electric field correction =       0.00003864 Ry
     smearing contrib. (-TS)   =      -0.09445831 Ry

     convergence has been achieved in  16 iterations

 BEEF-vdW xc energy contributions
           1 :   -319.313299739182
           2 :    293.677049614989
           3 :   -249.038766576869
           4 :    195.945432260837
           5 :   -144.955710442415
           6 :    103.351813617377
           7 :   -73.6594858507480
           8 :    54.2214831029945
           9 :   -41.1652245135305
          10 :    30.6646556021042
          11 :   -20.5089274980349
          12 :    10.4890185214104
          13 :   -1.72596454880068
          14 :   -4.48475814757325
          15 :    7.62487602339337
          16 :   -8.25056326113588
          17 :    7.61318140648802
          18 :   -6.94958393464060
          19 :    6.90159158637101
          20 :   -7.36289881917304
          21 :    7.75833408232205
          22 :   -7.52345489936721
          23 :    6.48579896958273
          24 :   -4.95370179946144
          25 :    3.50866538396986
          26 :   -2.65931754320485
          27 :    2.56961617000286
          28 :   -3.00701501921611
          29 :    3.51577049961975
          30 :   -3.69173361220612
          31 :   -31.2269176490510
          32 :   -23.3490957067419

     Forces acting on atoms (Ry/au):

     negative rho (up, down):  7.637E-01 0.000E+00
     atom    1 type  1   force =     0.00000049   -0.03006481   -0.03809701
     atom    2 type  1   force =     0.00000026   -0.03006448   -0.03809670
     atom    3 type  2   force =     0.00000043    0.00914318    0.05103926
     atom    4 type  2   force =    -0.00000055    0.00914361    0.05103880
     atom    5 type  1   force =    -0.00000055    0.02691488    0.00873158
     atom    6 type  1   force =     0.00000022    0.02691529    0.00873550
     atom    7 type  2   force =    -0.00000149   -0.00599317   -0.02008230
     atom    8 type  2   force =     0.00000061   -0.00599297   -0.02008322
     atom    9 type  1   force =    -0.00000038    0.00071927   -0.00053130
     atom   10 type  1   force =     0.00000150    0.00072148   -0.00053169
     atom   11 type  2   force =     0.00000154   -0.00072110   -0.00106192
     atom   12 type  2   force =    -0.00000209   -0.00072118   -0.00106102

     Total force =     0.112127     Total SCF correction =     0.002350

     entering subroutine stress ...

     negative rho (up, down):  7.637E-01 0.000E+00
          total   stress  (Ry/bohr**3)                   (kbar)     P=  -23.74
  -0.00018806  -0.00000000   0.00000000        -27.66     -0.00      0.00
  -0.00000000  -0.00023563   0.00003682         -0.00    -34.66      5.42
   0.00000000   0.00003682  -0.00006054          0.00      5.42     -8.91

 !ASE

     Writing output data file calc.save

     General routines

     Parallel routines

   This run was terminated on:  11:20:37  25Dec2018

   JOB DONE.
Job  /afs/slac/g/suncat/bin/suncat-tsmpirun -x LD_LIBRARY_PATH -wdir /scratch/qe109320_aWLR2 pw.x -in pw.inp

TID   HOST_NAME   COMMAND_LINE            STATUS            TERMINATION_TIME
00000 suncat0086 pw.x -in pw.inp   Done                     12/25/2018 11:20:37
00001 suncat0086 pw.x -in pw.inp   Done                     12/25/2018 11:20:37
00002 suncat0086 pw.x -in pw.inp   Done                     12/25/2018 11:20:37
00003 suncat0086 pw.x -in pw.inp   Done                     12/25/2018 11:20:37
00004 suncat0086 pw.x -in pw.inp   Done                     12/25/2018 11:20:37
00005 suncat0086 pw.x -in pw.inp   Done                     12/25/2018 11:20:37
00006 suncat0086 pw.x -in pw.inp   Done                     12/25/2018 11:20:37
00007 suncat0086 pw.x -in pw.inp   Done                     12/25/2018 11:20:37
00008 suncat0085 pw.x -in pw.inp   Done                     12/25/2018 11:20:37
00009 suncat0085 pw.x -in pw.inp   Done                     12/25/2018 11:20:37
00010 suncat0085 pw.x -in pw.inp   Done                     12/25/2018 11:20:37
00011 suncat0085 pw.x -in pw.inp   Done                     12/25/2018 11:20:37
00012 suncat0085 pw.x -in pw.inp   Done                     12/25/2018 11:20:37
00013 suncat0085 pw.x -in pw.inp   Done                     12/25/2018 11:20:37
00014 suncat0085 pw.x -in pw.inp   Done                     12/25/2018 11:20:37
00015 suncat0085 pw.x -in pw.inp   Done                     12/25/2018 11:20:37
00016 suncat0076 pw.x -in pw.inp   Done                     12/25/2018 11:20:37
00017 suncat0076 pw.x -in pw.inp   Done                     12/25/2018 11:20:37
00018 suncat0076 pw.x -in pw.inp   Done                     12/25/2018 11:20:37
00019 suncat0076 pw.x -in pw.inp   Done                     12/25/2018 11:20:37
00020 suncat0076 pw.x -in pw.inp   Done                     12/25/2018 11:20:37
00021 suncat0076 pw.x -in pw.inp   Done                     12/25/2018 11:20:37
00022 suncat0076 pw.x -in pw.inp   Done                     12/25/2018 11:20:37
00023 suncat0076 pw.x -in pw.inp   Done                     12/25/2018 11:20:37
00024 suncat0064 pw.x -in pw.inp   Done                     12/25/2018 11:20:37
00025 suncat0064 pw.x -in pw.inp   Done                     12/25/2018 11:20:37
00026 suncat0064 pw.x -in pw.inp   Done                     12/25/2018 11:20:37
00027 suncat0064 pw.x -in pw.inp   Done                     12/25/2018 11:20:37
00028 suncat0064 pw.x -in pw.inp   Done                     12/25/2018 11:20:37
00029 suncat0064 pw.x -in pw.inp   Done                     12/25/2018 11:20:37
00030 suncat0064 pw.x -in pw.inp   Done                     12/25/2018 11:20:37
00031 suncat0064 pw.x -in pw.inp   Done                     12/25/2018 11:20:37
00032 suncat0063 pw.x -in pw.inp   Done                     12/25/2018 11:20:37
00033 suncat0063 pw.x -in pw.inp   Done                     12/25/2018 11:20:37
00034 suncat0063 pw.x -in pw.inp   Done                     12/25/2018 11:20:37
00035 suncat0063 pw.x -in pw.inp   Done                     12/25/2018 11:20:37
00036 suncat0063 pw.x -in pw.inp   Done                     12/25/2018 11:20:37
00037 suncat0063 pw.x -in pw.inp   Done                     12/25/2018 11:20:37
00038 suncat0063 pw.x -in pw.inp   Done                     12/25/2018 11:20:37
00039 suncat0063 pw.x -in pw.inp   Done                     12/25/2018 11:20:37
00040 suncat0051 pw.x -in pw.inp   Done                     12/25/2018 11:20:37
00041 suncat0051 pw.x -in pw.inp   Done                     12/25/2018 11:20:37
00042 suncat0051 pw.x -in pw.inp   Done                     12/25/2018 11:20:37
00043 suncat0051 pw.x -in pw.inp   Done                     12/25/2018 11:20:37
00044 suncat0051 pw.x -in pw.inp   Done                     12/25/2018 11:20:37
00045 suncat0051 pw.x -in pw.inp   Done                     12/25/2018 11:20:37
00046 suncat0051 pw.x -in pw.inp   Done                     12/25/2018 11:20:37
00047 suncat0051 pw.x -in pw.inp   Done                     12/25/2018 11:20:37
00048 suncat0117 pw.x -in pw.inp   Done                     12/25/2018 11:20:37
00049 suncat0117 pw.x -in pw.inp   Done                     12/25/2018 11:20:37
00050 suncat0117 pw.x -in pw.inp   Done                     12/25/2018 11:20:37
00051 suncat0117 pw.x -in pw.inp   Done                     12/25/2018 11:20:37
00052 suncat0117 pw.x -in pw.inp   Done                     12/25/2018 11:20:37
00053 suncat0117 pw.x -in pw.inp   Done                     12/25/2018 11:20:37
00054 suncat0117 pw.x -in pw.inp   Done                     12/25/2018 11:20:37
00055 suncat0117 pw.x -in pw.inp   Done                     12/25/2018 11:20:37
00056 suncat0116 pw.x -in pw.inp   Done                     12/25/2018 11:20:37
00057 suncat0116 pw.x -in pw.inp   Done                     12/25/2018 11:20:37
00058 suncat0116 pw.x -in pw.inp   Done                     12/25/2018 11:20:37
00059 suncat0116 pw.x -in pw.inp   Done                     12/25/2018 11:20:37
00060 suncat0116 pw.x -in pw.inp   Done                     12/25/2018 11:20:37
00061 suncat0116 pw.x -in pw.inp   Done                     12/25/2018 11:20:37
00062 suncat0116 pw.x -in pw.inp   Done                     12/25/2018 11:20:37
00063 suncat0116 pw.x -in pw.inp   Done                     12/25/2018 11:20:37