     Program PWSCF v.5.1rc2 (svn rev. 11289) starts on 31Dec2018 at 16: 5: 3

     Current dimensions of program PWSCF are:
     Max number of different atomic species (ntypx) = 10
     Max number of k-points (npk) =  40000
     Max angular momentum in pseudopotentials (lmaxx) =  3
     Presently stress not available with electric field

     IMPORTANT: XC functional enforced from input :
     Exchange-correlation      = BEEF-VDW ( 1  4 27 13 2)
     Any further DFT definition will be discarded
     Please, verify this is what you really want

     Subspace diagonalization in iterative solution of the eigenvalue problem:
     a serial algorithm will be used

     bravais-lattice index     =            0
     lattice parameter (alat)  =       1.8897  a.u.
     unit-cell volume          =    5287.5588 (a.u.)^3
     number of atoms/cell      =           12
     number of atomic types    =            2
     number of electrons       =       177.00
     number of Kohn-Sham states=          118
     kinetic-energy cutoff     =      36.7493  Ry
     charge density cutoff     =     367.4932  Ry
     convergence threshold     =      1.0E-06
     mixing beta               =       0.1000
     number of iterations used =           10  plain     mixing
     Exchange-correlation      = BEEF-VDW ( 1  4 27 13 2)
     nstep                     =           50

     celldm(1)=   1.889726  celldm(2)=   0.000000  celldm(3)=   0.000000
     celldm(4)=   0.000000  celldm(5)=   0.000000  celldm(6)=   0.000000

     crystal axes: (cart. coord. in units of alat)
               a(1) = (   6.025483   0.000000   0.000000 )
               a(2) = (  -3.012741   5.218221   0.000000 )
               a(3) = (   0.000000   0.000000  24.919786 )

     reciprocal axes: (cart. coord. in units 2 pi/alat)
               b(1) = (  0.165962  0.095818  0.000000 )
               b(2) = (  0.000000  0.191636  0.000000 )
               b(3) = (  0.000000  0.000000  0.040129 )

     PseudoPot. # 1 for Pt read from file:
     /afs/slac.stanford.edu/u/if/mamunm/psp/gbrv1.5pbe/Pt.UPF
     MD5 check sum: f09d6de1a584b5a045c4fc126da2d0c4
     Pseudo is Ultrasoft + core correction, Zval = 16.0
     Generated by new atomic code, or converted to UPF format
     Using radial grid of  985 points,  6 beta functions with:
                l(1) =   0
                l(2) =   0
                l(3) =   1
                l(4) =   1
                l(5) =   2
                l(6) =   2
     Q(r) pseudized with  8 coefficients,  rinner =    1.300   1.300   1.300
                                                       1.300   1.300

     PseudoPot. # 2 for La read from file:
     /afs/slac.stanford.edu/u/if/mamunm/psp/gbrv1.5pbe/La.UPF
     MD5 check sum: 5937b0c7494ba0601a847275249473aa
     Pseudo is Ultrasoft + core correction, Zval = 11.0
     Generated by new atomic code, or converted to UPF format
     Using radial grid of  995 points,  8 beta functions with:
                l(1) =   0
                l(2) =   0
                l(3) =   1
                l(4) =   1
                l(5) =   2
                l(6) =   2
                l(7) =   3
                l(8) =   3
     Q(r) pseudized with  8 coefficients,  rinner =    1.700   1.700   1.700
                                                       1.700   1.700   1.700
                                                       1.700

     vdW kernel table read from file vdW_kernel_table
     MD5 check sum: 095c7af220d748ca6e76c0b4c6cfb241

     atomic species   valence    mass     pseudopotential
        Pt1           16.00   195.08400     Pt( 1.00)
        La1           11.00   138.90547     La( 1.00)

     No symmetry found

   Cartesian axes

     site n.     atom                  positions (alat units)
         1           Pt1 tau(   1) = (   0.0000000   0.0000000  10.0000000  )
         2           Pt1 tau(   2) = (  -1.5063706   2.6091105  10.0000000  )
         3           Pt1 tau(   3) = (   1.5063706   2.6091105  10.0000000  )
         4           La1 tau(   4) = (   3.0127413   0.0000000  10.0000000  )
         5           Pt1 tau(   5) = (   3.0127413   1.7394070  12.4598930  )
         6           Pt1 tau(   6) = (   1.5063706   4.3485175  12.4598930  )
         7           Pt1 tau(   7) = (  -1.5063706   4.3485175  12.4598930  )
         8           La1 tau(   8) = (   0.0000000   1.7394070  12.4598930  )
         9           Pt1 tau(   9) = (  -0.0000000   3.4788140  14.9197859  )
        10           Pt1 tau(  10) = (   1.5063706   0.8697035  14.9197859  )
        11           Pt1 tau(  11) = (   4.5191119   0.8697035  14.9197859  )
        12           La1 tau(  12) = (   3.0127413   3.4788140  14.9197859  )

     number of k points=    20  Fermi-Dirac smearing, width (Ry)=  0.0110
                       cart. coord. in units 2pi/alat
        k(    1) = (   0.0000000   0.0000000   0.0000000), wk =   0.0555556
        k(    2) = (   0.0000000   0.0319394   0.0000000), wk =   0.1111111
        k(    3) = (   0.0000000   0.0638787   0.0000000), wk =   0.1111111
        k(    4) = (   0.0000000  -0.0958181   0.0000000), wk =   0.0555556
        k(    5) = (   0.0276603   0.0159697   0.0000000), wk =   0.1111111
        k(    6) = (   0.0276603   0.0479090   0.0000000), wk =   0.1111111
        k(    7) = (   0.0276603   0.0798484   0.0000000), wk =   0.1111111
        k(    8) = (   0.0276603  -0.0798484   0.0000000), wk =   0.1111111
        k(    9) = (   0.0276603  -0.0479090   0.0000000), wk =   0.1111111
        k(   10) = (   0.0276603  -0.0159697   0.0000000), wk =   0.1111111
        k(   11) = (   0.0553206   0.0319394   0.0000000), wk =   0.1111111
        k(   12) = (   0.0553206   0.0638787   0.0000000), wk =   0.1111111
        k(   13) = (   0.0553206   0.0958181   0.0000000), wk =   0.1111111
        k(   14) = (   0.0553206  -0.0638787   0.0000000), wk =   0.1111111
        k(   15) = (   0.0553206  -0.0319394   0.0000000), wk =   0.1111111
        k(   16) = (   0.0553206   0.0000000   0.0000000), wk =   0.1111111
        k(   17) = (  -0.0829809  -0.0479090   0.0000000), wk =   0.0555556
        k(   18) = (  -0.0829809  -0.0159697   0.0000000), wk =   0.1111111
        k(   19) = (  -0.0829809   0.0159697   0.0000000), wk =   0.1111111
        k(   20) = (  -0.0829809  -0.1437271   0.0000000), wk =   0.0555556

     Largest allocated arrays     est. size (Mb)     dimensions
     Largest temporary arrays     est. size (Mb)     dimensions

     Initial potential from superposition of free atoms
     Check: negative starting charge=   -1.840946

     starting charge  172.40369, renormalised to  177.00000

     negative rho (up, down):  1.890E+00 0.000E+00

     *
     * You are using vdW-DF for exchange-correlation in this calculation.
     * Please cite the following three references that made this development
     * possible:
     *
     *   M. Dion, H. Rydberg, E. Schroder, D. C. Langreth, and
     *   B. I. Lundqvist, Phys. Rev. Lett. 92, 246401 (2004).
     *
     *   T. Thonhauser, V. R. Cooper, S. Li, A. Puzder, P. Hyldgaard, and
     *   D. C. Langreth, Phys. Rev. B 76, 125112 (2007).
     *
     *   G. Roman-Perez and J. M. Soler, Phys. Rev. Lett. 103, 096102 (2009).
     *
     *
     * If you are using vdW-DF2, please also cite:
     *
     *   K. Lee, E. D. Murray, L. Kong, B. I. Lundqvist, and
     *   D. C. Langreth, Phys. Rev. B 82, 081101(R) (2010).
     *
     *
     * If you are calculating the stress with vdW-DF, please also cite:
     *
     *   R. Sabatini, E. Kucukbenli, B. Kolb, T. Thonhauser, and
     *   S. de Gironcoli, J. Phys.: Condens. Matter 24, 424209 (2012).
     *

     Carrying out vdW-DF run using the following parameters:

     Nqs =      20    Nr_points =    1024   r_max =   100.000
     q_mesh =
               0.00001000     0.04494208     0.09755937     0.15916263
               0.23128650     0.31572767     0.41458969     0.53033537
               0.66584808     0.82450364     1.01025438     1.22772762
               1.48234092     1.78043706     2.12944203     2.53805004
               3.01644009     3.57652955     4.23227104     5.00000000

     Gradients computed in reciprocal space

     Adding external electric field

     Computed dipole along edir(3) :
        Dipole                0.0000 Ry au,          0.0000 Debye
        Dipole field          0.0000 Ry au

        Potential amp.       -0.0000 Ry
        Total length         45.9143 bohr

     Starting wfc are  168 randomized atomic wfcs

     Self-consistent Calculation

     iteration #  1     ecut=    36.75 Ry     beta=0.10
     Davidson diagonalization with overlap
     ethr =  1.00E-02,  avg # of iterations =  2.0

[...]

     total energy              =   -2215.63792255 Ry
     Harris-Foulkes estimate   =   -2227.61178291 Ry
     estimated scf accuracy    <      66.72614782 Ry

[...]

     End of self-consistent calculation

          k = 0.0000 0.0000 0.0000 ( 19711 PWs)   bands (ev):

   -50.3198 -50.2587 -50.2587 -50.2176 -50.2092 -50.2092 -50.1540 -50.1476
   -50.1476 -50.0058 -50.0057 -50.0013 -50.0013 -49.9724 -49.9704 -49.9528
   -49.9516 -49.8586 -49.8585 -49.8582 -49.8581 -49.7810 -49.7763 -49.7675
   -49.7675 -49.7649 -49.7649 -30.3759 -30.3705 -29.5117 -14.2020 -14.1144
   -14.0737 -14.0737 -14.0548 -14.0548 -13.3720 -13.3668 -13.3668  -4.2791
    -3.0688  -3.0552  -2.7712  -2.7712  -2.6674  -2.6674  -2.1915  -2.1125
    -2.1124  -2.0832  -2.0832  -1.9388  -1.5757  -1.5731  -0.9061  -0.9061
    -0.9003  -0.9003  -0.8838  -0.4985  -0.4707  -0.3258  -0.2243  -0.2243
    -0.1397  -0.1397  -0.0388   0.0564   0.0564   0.2386   0.2386   0.3935
     0.3935   0.5791   0.9633   0.9633   0.9956   0.9957   1.2387   1.2387
     1.3846   1.4337   1.6433   1.6433   1.8155   2.0420   2.0874   2.3384
     3.1487   3.5359   3.9387   4.0281   4.0281   4.1371   4.1371   4.5622
     4.5622   4.5688   4.5688   4.6191   4.6260   4.6260   4.6465   4.6871
     4.7014   4.7234   4.7234   4.8621   4.8621   4.8708   4.9118   4.9118
     5.1479   5.2849   5.3497   5.3497   5.5134   5.6140

[...]

          k =-0.0830-0.0479 0.0000 ( 19930 PWs)   bands (ev):

[...]

     the Fermi energy is     1.9839 ev

!    total energy              =   -2223.86988401 Ry
     Harris-Foulkes estimate   =   -2223.86987840 Ry
     estimated scf accuracy    <       0.00000048 Ry

     The total energy is the sum of the following terms:

     one-electron contribution =  -14429.81750188 Ry
     hartree contribution      =    7250.35407562 Ry
     xc contribution           =    -680.51770584 Ry
     ewald contribution        =    5636.15654381 Ry
     electric field correction =       0.00000000 Ry
     smearing contrib. (-TS)   =      -0.04529571 Ry

     convergence has been achieved in  16 iterations

 BEEF-vdW xc energy contributions
           1 :   -604.794401929990
           2 :    561.243341480353
           3 :   -483.352139540696
           4 :    386.326062721301
           5 :   -286.752736288442
           6 :    198.329097575312
           7 :   -129.143004672244
           8 :    80.9798065577125
           9 :   -50.5608725698899
          10 :    31.9982182983084
[...]
                l(4) =   1
                l(5) =   2
                l(6) =   2
     Q(r) pseudized with  8 coefficients,  rinner =    1.300   1.300   1.300
                                                       1.300   1.300

     PseudoPot. # 2 for La read from file:
     /afs/slac.stanford.edu/u/if/mamunm/psp/gbrv1.5pbe/La.UPF
     MD5 check sum: 5937b0c7494ba0601a847275249473aa
     Pseudo is Ultrasoft + core correction, Zval = 11.0
     Generated by new atomic code, or converted to UPF format
     Using radial grid of  995 points,  8 beta functions with:
                l(1) =   0
                l(2) =   0
                l(3) =   1
                l(4) =   1
                l(5) =   2
                l(6) =   2
                l(7) =   3
                l(8) =   3
     Q(r) pseudized with  8 coefficients,  rinner =    1.700   1.700   1.700
                                                       1.700   1.700   1.700
                                                       1.700

     vdW kernel table read from file vdW_kernel_table
     MD5 check sum: 095c7af220d748ca6e76c0b4c6cfb241

     atomic species   valence    mass     pseudopotential
        Pt1           16.00   195.08400     Pt( 1.00)
        La1           11.00   138.90547     La( 1.00)

     No symmetry found

   Cartesian axes

     site n.     atom                  positions (alat units)
         1           Pt1 tau(   1) = (   0.0000000   0.0000000  10.0000000  )
         2           Pt1 tau(   2) = (  -1.5063706   2.6091105  10.0000000  )
         3           Pt1 tau(   3) = (   1.5063706   2.6091105  10.0000000  )
         4           La1 tau(   4) = (   3.0127413   0.0000000  10.0000000  )
         5           Pt1 tau(   5) = (   3.0127413   1.7394070  12.4598930  )
         6           Pt1 tau(   6) = (   1.5063706   4.3485175  12.4598930  )
         7           Pt1 tau(   7) = (  -1.5063706   4.3485175  12.4598930  )
         8           La1 tau(   8) = (   0.0000000   1.7394070  12.4598930  )
         9           Pt1 tau(   9) = (  -0.0000044   3.4789350  14.8639195  )
        10           Pt1 tau(  10) = (   1.5064709   0.8696404  14.8639210  )
        11           Pt1 tau(  11) = (   4.5190164   0.8696438  14.8639192  )
        12           La1 tau(  12) = (   3.0127372   3.4788082  15.1310733  )

     number of k points=    20  Fermi-Dirac smearing, width (Ry)=  0.0110
                       cart. coord. in units 2pi/alat
        k(    1) = (   0.0000000   0.0000000   0.0000000), wk =   0.0555556
        k(    2) = (   0.0000000   0.0319394   0.0000000), wk =   0.1111111
        k(    3) = (   0.0000000   0.0638787   0.0000000), wk =   0.1111111
        k(    4) = (   0.0000000  -0.0958181   0.0000000), wk =   0.0555556
        k(    5) = (   0.0276603   0.0159697   0.0000000), wk =   0.1111111
        k(    6) = (   0.0276603   0.0479090   0.0000000), wk =   0.1111111
        k(    7) = (   0.0276603   0.0798484   0.0000000), wk =   0.1111111
        k(    8) = (   0.0276603  -0.0798484   0.0000000), wk =   0.1111111
        k(    9) = (   0.0276603  -0.0479090   0.0000000), wk =   0.1111111
        k(   10) = (   0.0276603  -0.0159697   0.0000000), wk =   0.1111111
        k(   11) = (   0.0553206   0.0319394   0.0000000), wk =   0.1111111
        k(   12) = (   0.0553206   0.0638787   0.0000000), wk =   0.1111111
        k(   13) = (   0.0553206   0.0958181   0.0000000), wk =   0.1111111
        k(   14) = (   0.0553206  -0.0638787   0.0000000), wk =   0.1111111
        k(   15) = (   0.0553206  -0.0319394   0.0000000), wk =   0.1111111
        k(   16) = (   0.0553206   0.0000000   0.0000000), wk =   0.1111111
        k(   17) = (  -0.0829809  -0.0479090   0.0000000), wk =   0.0555556
        k(   18) = (  -0.0829809  -0.0159697   0.0000000), wk =   0.1111111
        k(   19) = (  -0.0829809   0.0159697   0.0000000), wk =   0.1111111
        k(   20) = (  -0.0829809  -0.1437271   0.0000000), wk =   0.0555556

     Largest allocated arrays     est. size (Mb)     dimensions
     Largest temporary arrays     est. size (Mb)     dimensions

     Initial potential from superposition of free atoms
     Check: negative starting charge=   -1.846379

     starting charge  172.40369, renormalised to  177.00000

[...]

     *
     * You are using vdW-DF for exchange-correlation in this calculation.
     * Please cite the following three references that made this development
     * possible:
     *
     *   M. Dion, H. Rydberg, E. Schroder, D. C. Langreth, and
     *   B. I. Lundqvist, Phys. Rev. Lett. 92, 246401 (2004).
     *
     *   T. Thonhauser, V. R. Cooper, S. Li, A. Puzder, P. Hyldgaard, and
     *   D. C. Langreth, Phys. Rev. B 76, 125112 (2007).
     *
     *   G. Roman-Perez and J. M. Soler, Phys. Rev. Lett. 103, 096102 (2009).
     *
     *
     * If you are using vdW-DF2, please also cite:
     *
     *   K. Lee, E. D. Murray, L. Kong, B. I. Lundqvist, and
     *   D. C. Langreth, Phys. Rev. B 82, 081101(R) (2010).
     *
     *
     * If you are calculating the stress with vdW-DF, please also cite:
     *
     *   R. Sabatini, E. Kucukbenli, B. Kolb, T. Thonhauser, and
     *   S. de Gironcoli, J. Phys.: Condens. Matter 24, 424209 (2012).
     *

     Carrying out vdW-DF run using the following parameters:

     Nqs =      20    Nr_points =    1024   r_max =   100.000
     q_mesh =
               0.00001000     0.04494208     0.09755937     0.15916263
               0.23128650     0.31572767     0.41458969     0.53033537
               0.66584808     0.82450364     1.01025438     1.22772762
               1.48234092     1.78043706     2.12944203     2.53805004
               3.01644009     3.57652955     4.23227104     5.00000000

     Gradients computed in reciprocal space

[...]

     Starting wfc are  168 randomized atomic wfcs

     Self-consistent Calculation

[...]

     iteration # 10     ecut=    36.75 Ry     beta=0.10
     Davidson diagonalization with overlap
     c_bands:  1 eigenvalues not converged
     c_bands:  1 eigenvalues not converged
     c_bands:  1 eigenvalues not converged
     ethr =  1.64E-05,  avg # of iterations =  7.0

[...]

     total energy              =   -2223.89694834 Ry
     Harris-Foulkes estimate   =   -2223.89694819 Ry
     estimated scf accuracy    <       0.00000133 Ry

     iteration # 18     ecut=    36.75 Ry     beta=0.10
     Davidson diagonalization with overlap
     ethr =  7.50E-10,  avg # of iterations =  2.5

[...]

     negative rho (up, down):  1.707E+00 0.000E+00

     Adding external electric field

     Computed dipole along edir(3) :
        Dipole                0.1453 Ry au,          0.3692 Debye
        Dipole field          0.0003 Ry au

        Potential amp.       -0.0317 Ry
        Total length         45.9143 bohr

     End of self-consistent calculation

[...]

          k = 0.0553 0.0000 0.0000 ( 19911 PWs)   bands (ev):

[...]

          k =-0.0830-0.1437 0.0000 ( 19930 PWs)   bands (ev):

   -50.0654 -50.0376 -50.0248 -50.0139 -49.9947 -49.9911 -49.9839 -49.9835
   -49.9506 -49.9019 -49.8831 -49.8725 -49.8368 -49.8323 -49.8163 -49.8050
   -49.8030 -49.7656 -49.7647 -49.7356 -49.6971 -49.6877 -49.6837 -49.6797
   -49.6084 -49.6041 -49.5998 -30.4880 -30.1807 -29.2983 -14.2423 -14.2291
   -14.1643 -14.0178 -13.9755 -13.9316 -13.3128 -13.2218 -13.1981  -2.8075
    -2.6075  -1.8715  -1.7942  -1.7205  -1.7072  -1.6098  -1.4919  -1.4618
    -1.3134  -1.2176  -1.1537  -1.1285  -1.1163  -0.8696  -0.8033  -0.6736
    -0.6053  -0.5377  -0.4536  -0.3432  -0.2350  -0.1753  -0.1561  -0.1401
    -0.0803  -0.0777  -0.0441   0.0920   0.1426   0.1506   0.1816   0.1829
     0.2935   0.3342   0.4572   0.4624   0.5067   0.5439   0.5605   0.5917
     0.6437   0.7806   0.8535   1.2465   1.4210   1.4939   1.6917   1.7383
     2.0369   2.4182   2.7891   2.9536   3.7264   3.8653   4.1287   4.3703
     4.4881   4.4924   4.5744   4.6113   4.6436   4.6792   4.7566   4.7755
     4.7963   4.8498   4.9216   4.9219   4.9969   5.0138   5.0668   5.1180
     5.1424   5.2864   5.2955   5.3173   5.5839   5.6448

     the Fermi energy is     2.1504 ev

!    total energy              =   -2223.89695552 Ry
     Harris-Foulkes estimate   =   -2223.89694747 Ry
     estimated scf accuracy    <       0.00000055 Ry

     The total energy is the sum of the following terms:

     one-electron contribution =  -14440.49890296 Ry
     hartree contribution      =    7256.58534321 Ry
     xc contribution           =    -680.48301483 Ry
     ewald contribution        =    5640.54625589 Ry
     electric field correction =       0.00005014 Ry
     smearing contrib. (-TS)   =      -0.04668697 Ry

     convergence has been achieved in  18 iterations

 BEEF-vdW xc energy contributions
           1 :   -605.330550909175
           2 :    561.773851470600
           3 :   -483.876569205188
           4 :    386.850147145874
           5 :   -287.285790039057
           6 :    198.882140841309
           7 :   -129.725849990408
           8 :    81.5948871442147
           9 :   -51.1988535086978
          10 :    32.6403730480853
          11 :   -20.0522223389264
          12 :    9.44650094503004
          13 :   0.674314187201958
          14 :   -9.83852913433145
          15 :    16.7321875872475
          16 :   -20.3185287590185
          17 :    20.4869038640835
          18 :   -18.0866443392140
          19 :    14.4890021354212
          20 :   -11.0043421242237
          21 :    8.45719847533405
          22 :   -7.07358912022482
          23 :    6.63722379992919
          24 :   -6.76254705624774
          25 :    7.11819311784154
          26 :   -7.51468778285448
          27 :    7.86519774024293
          28 :   -8.10116031868677
          29 :    8.12368865516601
          30 :   -7.83032449090865
          31 :   -49.9222736370505
          32 :   -36.5621329354461

     Forces acting on atoms (Ry/au):

     negative rho (up, down):  1.707E+00 0.000E+00
     atom    1 type  1   force =     0.00000056   -0.00039191    0.00744601
     atom    2 type  1   force =    -0.00033976    0.00019651    0.00744579
     atom    3 type  1   force =     0.00034011    0.00019629    0.00744585
     atom    4 type  2   force =     0.00000009   -0.00000048   -0.02955886
     atom    5 type  1   force =    -0.00000077    0.00827039    0.00730335
     atom    6 type  1   force =     0.00716233   -0.00413537    0.00730322
     atom    7 type  1   force =    -0.00716255   -0.00413542    0.00730297
     atom    8 type  2   force =     0.00000016    0.00000012   -0.01143709
     atom    9 type  1   force =     0.00000025    0.00050850   -0.00093161
     atom   10 type  1   force =     0.00044011   -0.00025414   -0.00093194
     atom   11 type  1   force =    -0.00044087   -0.00025470   -0.00093190
     atom   12 type  2   force =     0.00000034    0.00000021   -0.00045578

     Total force =     0.039244     Total SCF correction =     0.002252

     entering subroutine stress ...

     negative rho (up, down):  1.707E+00 0.000E+00
          total   stress  (Ry/bohr**3)                   (kbar)     P=  -13.55
  -0.00013354   0.00000000  -0.00000000        -19.64      0.00     -0.00
   0.00000000  -0.00013354  -0.00000000          0.00    -19.64     -0.00
  -0.00000000  -0.00000000  -0.00000934         -0.00     -0.00     -1.37

 !ASE

     Writing output data file calc.save

     General routines

     Parallel routines

   This run was terminated on:  17: 5:45  31Dec2018

   JOB DONE.
Job  /afs/slac/g/suncat/bin/suncat-tsmpirun -x LD_LIBRARY_PATH -wdir /scratch/qe648808_ImQQw pw.x -in pw.inp

TID   HOST_NAME   COMMAND_LINE            STATUS            TERMINATION_TIME
00000 suncat0086 pw.x -in pw.inp   Done                     12/31/2018 17:05:45
00001 suncat0086 pw.x -in pw.inp   Done                     12/31/2018 17:05:45
00002 suncat0086 pw.x -in pw.inp   Done                     12/31/2018 17:05:45
00003 suncat0086 pw.x -in pw.inp   Done                     12/31/2018 17:05:45
00004 suncat0086 pw.x -in pw.inp   Done                     12/31/2018 17:05:45
00005 suncat0086 pw.x -in pw.inp   Done                     12/31/2018 17:05:45
00006 suncat0086 pw.x -in pw.inp   Done                     12/31/2018 17:05:45
00007 suncat0086 pw.x -in pw.inp   Done                     12/31/2018 17:05:45
00008 suncat0085 pw.x -in pw.inp   Done                     12/31/2018 17:05:45
00009 suncat0085 pw.x -in pw.inp   Done                     12/31/2018 17:05:45
00010 suncat0085 pw.x -in pw.inp   Done                     12/31/2018 17:05:45
00011 suncat0085 pw.x -in pw.inp   Done                     12/31/2018 17:05:45
00012 suncat0085 pw.x -in pw.inp   Done                     12/31/2018 17:05:45
00013 suncat0085 pw.x -in pw.inp   Done                     12/31/2018 17:05:45
00014 suncat0085 pw.x -in pw.inp   Done                     12/31/2018 17:05:45
00015 suncat0085 pw.x -in pw.inp   Done                     12/31/2018 17:05:45
00016 suncat0084 pw.x -in pw.inp   Done                     12/31/2018 17:05:45
00017 suncat0084 pw.x -in pw.inp   Done                     12/31/2018 17:05:45
00018 suncat0084 pw.x -in pw.inp   Done                     12/31/2018 17:05:45
00019 suncat0084 pw.x -in pw.inp   Done                     12/31/2018 17:05:45
00020 suncat0084 pw.x -in pw.inp   Done                     12/31/2018 17:05:45
00021 suncat0084 pw.x -in pw.inp   Done                     12/31/2018 17:05:45
00022 suncat0084 pw.x -in pw.inp   Done                     12/31/2018 17:05:45
00023 suncat0084 pw.x -in pw.inp   Done                     12/31/2018 17:05:45
00024 suncat0083 pw.x -in pw.inp   Done                     12/31/2018 17:05:45
00025 suncat0083 pw.x -in pw.inp   Done                     12/31/2018 17:05:45
00026 suncat0083 pw.x -in pw.inp   Done                     12/31/2018 17:05:45
00027 suncat0083 pw.x -in pw.inp   Done                     12/31/2018 17:05:45
00028 suncat0083 pw.x -in pw.inp   Done                     12/31/2018 17:05:45
00029 suncat0083 pw.x -in pw.inp   Done                     12/31/2018 17:05:45
00030 suncat0083 pw.x -in pw.inp   Done                     12/31/2018 17:05:45
00031 suncat0083 pw.x -in pw.inp   Done                     12/31/2018 17:05:45
00032 suncat0234 pw.x -in pw.inp   Done                     12/31/2018 17:05:45
00033 suncat0234 pw.x -in pw.inp   Done                     12/31/2018 17:05:45
00034 suncat0234 pw.x -in pw.inp   Done                     12/31/2018 17:05:45
00035 suncat0234 pw.x -in pw.inp   Done                     12/31/2018 17:05:45
00036 suncat0234 pw.x -in pw.inp   Done                     12/31/2018 17:05:45
00037 suncat0234 pw.x -in pw.inp   Done                     12/31/2018 17:05:45
00038 suncat0234 pw.x -in pw.inp   Done                     12/31/2018 17:05:45
00039 suncat0234 pw.x -in pw.inp   Done                     12/31/2018 17:05:45
00040 suncat0233 pw.x -in pw.inp   Done                     12/31/2018 17:05:45
00041 suncat0233 pw.x -in pw.inp   Done                     12/31/2018 17:05:45
00042 suncat0233 pw.x -in pw.inp   Done                     12/31/2018 17:05:45
00043 suncat0233 pw.x -in pw.inp   Done                     12/31/2018 17:05:45
00044 suncat0233 pw.x -in pw.inp   Done                     12/31/2018 17:05:45
00045 suncat0233 pw.x -in pw.inp   Done                     12/31/2018 17:05:45
00046 suncat0233 pw.x -in pw.inp   Done                     12/31/2018 17:05:45
00047 suncat0233 pw.x -in pw.inp   Done                     12/31/2018 17:05:45
00048 suncat0222 pw.x -in pw.inp   Done                     12/31/2018 17:05:45
00049 suncat0222 pw.x -in pw.inp   Done                     12/31/2018 17:05:45
00050 suncat0222 pw.x -in pw.inp   Done                     12/31/2018 17:05:45
00051 suncat0222 pw.x -in pw.inp   Done                     12/31/2018 17:05:45
00052 suncat0222 pw.x -in pw.inp   Done                     12/31/2018 17:05:45
00053 suncat0222 pw.x -in pw.inp   Done                     12/31/2018 17:05:45
00054 suncat0222 pw.x -in pw.inp   Done                     12/31/2018 17:05:45
00055 suncat0222 pw.x -in pw.inp   Done                     12/31/2018 17:05:45
00056 suncat0221 pw.x -in pw.inp   Done                     12/31/2018 17:05:45
00057 suncat0221 pw.x -in pw.inp   Done                     12/31/2018 17:05:45
00058 suncat0221 pw.x -in pw.inp   Done                     12/31/2018 17:05:45
00059 suncat0221 pw.x -in pw.inp   Done                     12/31/2018 17:05:45
00060 suncat0221 pw.x -in pw.inp   Done                     12/31/2018 17:05:45
00061 suncat0221 pw.x -in pw.inp   Done                     12/31/2018 17:05:45
00062 suncat0221 pw.x -in pw.inp   Done                     12/31/2018 17:05:45
00063 suncat0221 pw.x -in pw.inp   Done                     12/31/2018 17:05:45