     Program PWSCF v.5.1rc2 (svn rev. 11289) starts on  1Jan2019 at  0:40:36

     Current dimensions of program PWSCF are:
     Max number of different atomic species (ntypx) = 10
     Max number of k-points (npk) =  40000
     Max angular momentum in pseudopotentials (lmaxx) =  3
     Presently stress not available with electric field

     IMPORTANT: XC functional enforced from input :
     Exchange-correlation      = BEEF-VDW ( 1  4 27 13 2)
     Any further DFT definition will be discarded
     Please, verify this is what you really want

     Subspace diagonalization in iterative solution of the eigenvalue problem:
     a serial algorithm will be used

     bravais-lattice index     =            0
     lattice parameter (alat)  =       1.8897  a.u.
     unit-cell volume          =    4522.5497 (a.u.)^3
     number of atoms/cell      =           12
     number of atomic types    =            2
     number of electrons       =       180.00
     number of Kohn-Sham states=          120
     kinetic-energy cutoff     =      36.7493  Ry
     charge density cutoff     =     367.4932  Ry
     convergence threshold     =      1.0E-06
     mixing beta               =       0.1000
     number of iterations used =           10  plain     mixing
     Exchange-correlation      = BEEF-VDW ( 1  4 27 13 2)
     nstep                     =           50

     celldm(1)=   1.889726  celldm(2)=   0.000000  celldm(3)=   0.000000
     celldm(4)=   0.000000  celldm(5)=   0.000000  celldm(6)=   0.000000

     crystal axes: (cart. coord. in units of alat)
               a(1) = (   5.610821   0.000000   0.000000 )
               a(2) = (  -2.805410   4.859113   0.000000 )
               a(3) = (   0.000000   0.000000  24.581216 )

     reciprocal axes: (cart. coord. in units 2 pi/alat)
               b(1) = (  0.178227  0.102899  0.000000 )
               b(2) = (  0.000000  0.205799  0.000000 )
               b(3) = (  0.000000  0.000000  0.040681 )

     PseudoPot. # 1 for Ru read from file:
     /afs/slac.stanford.edu/u/if/mamunm/psp/gbrv1.5pbe/Ru.UPF
     MD5 check sum: 7158a806dd851261a58e6920c40ebe78
     Pseudo is Ultrasoft + core correction, Zval = 16.0
     Generated by new atomic code, or converted to UPF format
     Using radial grid of  967 points,  6 beta functions with:
                l(1) =   0
                l(2) =   0
                l(3) =   1
                l(4) =   1
                l(5) =   2
                l(6) =   2
     Q(r) pseudized with  8 coefficients,  rinner =    1.300   1.300   1.300
                                                       1.300   1.300

     PseudoPot. # 2 for Hg read from file:
     /afs/slac.stanford.edu/u/if/mamunm/psp/gbrv1.5pbe/Hg.UPF
     MD5 check sum: 8f42caffe07f7fd9c0a564347f8c5498
     Pseudo is Ultrasoft + core correction, Zval = 12.0
     Generated by new atomic code, or converted to UPF format
     Using radial grid of  985 points,  6 beta functions with:
                l(1) =   0
                l(2) =   0
                l(3) =   1
                l(4) =   1
                l(5) =   2
                l(6) =   2
     Q(r) pseudized with  8 coefficients,  rinner =    2.000   2.000   2.000
                                                       2.000   2.000

     vdW kernel table read from file vdW_kernel_table
     MD5 check sum: 095c7af220d748ca6e76c0b4c6cfb241

     atomic species   valence    mass     pseudopotential
        Ru1           16.00   101.07000     Ru( 1.00)
        Hg1           12.00   200.59200     Hg( 1.00)

     No symmetry found

   Cartesian axes

     site n.     atom                  positions (alat units)
         1           Ru1 tau(   1) = (   0.0000000   0.0000000  10.0000000  )
         2           Ru1 tau(   2) = (  -1.4027051   2.4295566  10.0000000  )
         3           Ru1 tau(   3) = (   1.4027051   2.4295566  10.0000000  )
         4           Hg1 tau(   4) = (   2.8054103   0.0000000  10.0000000  )
         5           Ru1 tau(   5) = (   2.8054103   1.6197044  12.2906079  )
         6           Ru1 tau(   6) = (   1.4027051   4.0492610  12.2906079  )
         7           Ru1 tau(   7) = (  -1.4027051   4.0492610  12.2906079  )
         8           Hg1 tau(   8) = (   0.0000000   1.6197044  12.2906079  )
         9           Ru1 tau(   9) = (  -0.0000000   3.2394088  14.5812158  )
        10           Ru1 tau(  10) = (   1.4027051   0.8098522  14.5812158  )
        11           Ru1 tau(  11) = (   4.2081154   0.8098522  14.5812158  )
        12           Hg1 tau(  12) = (   2.8054103   3.2394088  14.5812158  )

     number of k points=    20  Fermi-Dirac smearing, width (Ry)=  0.0110
                       cart. coord. in units 2pi/alat
        k(    1) = (   0.0000000   0.0000000   0.0000000), wk =   0.0555556
        k(    2) = (   0.0000000   0.0342998   0.0000000), wk =   0.1111111
        k(    3) = (   0.0000000   0.0685996   0.0000000), wk =   0.1111111
        k(    4) = (   0.0000000  -0.1028994   0.0000000), wk =   0.0555556
        k(    5) = (   0.0297045   0.0171499   0.0000000), wk =   0.1111111
        k(    6) = (   0.0297045   0.0514497   0.0000000), wk =   0.1111111
        k(    7) = (   0.0297045   0.0857495   0.0000000), wk =   0.1111111
        k(    8) = (   0.0297045  -0.0857495   0.0000000), wk =   0.1111111
        k(    9) = (   0.0297045  -0.0514497   0.0000000), wk =   0.1111111
        k(   10) = (   0.0297045  -0.0171499   0.0000000), wk =   0.1111111
        k(   11) = (   0.0594090   0.0342998   0.0000000), wk =   0.1111111
        k(   12) = (   0.0594090   0.0685996   0.0000000), wk =   0.1111111
        k(   13) = (   0.0594090   0.1028994   0.0000000), wk =   0.1111111
        k(   14) = (   0.0594090  -0.0685996   0.0000000), wk =   0.1111111
        k(   15) = (   0.0594090  -0.0342998   0.0000000), wk =   0.1111111
        k(   16) = (   0.0594090   0.0000000   0.0000000), wk =   0.1111111
        k(   17) = (  -0.0891135  -0.0514497   0.0000000), wk =   0.0555556
        k(   18) = (  -0.0891135  -0.0171499   0.0000000), wk =   0.1111111
        k(   19) = (  -0.0891135   0.0171499   0.0000000), wk =   0.1111111
        k(   20) = (  -0.0891135  -0.1543492   0.0000000), wk =   0.0555556

     Largest allocated arrays     est. size (Mb)     dimensions
     Largest temporary arrays     est. size (Mb)     dimensions

     Initial potential from superposition of free atoms
     Check: negative starting charge=   -0.663982

     starting charge  170.99968, renormalised to  180.00000

     negative rho (up, down):  6.989E-01 0.000E+00

     *
     * You are using vdW-DF for exchange-correlation in this calculation.
     * Please cite the following three references that made this development
     * possible:
     *
     *   M. Dion, H. Rydberg, E. Schroder, D. C. Langreth, and
     *   B. I. Lundqvist, Phys. Rev. Lett. 92, 246401 (2004).
     *
     *   T. Thonhauser, V. R. Cooper, S. Li, A. Puzder, P. Hyldgaard, and
     *   D. C. Langreth, Phys. Rev. B 76, 125112 (2007).
     *
     *   G. Roman-Perez and J. M. Soler, Phys. Rev. Lett. 103, 096102 (2009).
     *
     *
     * If you are using vdW-DF2, please also cite:
     *
     *   K. Lee, E. D. Murray, L. Kong, B. I. Lundqvist, and
     *   D. C. Langreth, Phys. Rev. B 82, 081101(R) (2010).
     *
     *
     * If you are calculating the stress with vdW-DF, please also cite:
     *
     *   R. Sabatini, E. Kucukbenli, B. Kolb, T. Thonhauser, and
     *   S. de Gironcoli, J. Phys.: Condens. Matter 24, 424209 (2012).
     *

     Carrying out vdW-DF run using the following parameters:

     Nqs =      20    Nr_points =    1024   r_max =   100.000
     q_mesh =
               0.00001000     0.04494208     0.09755937     0.15916263
               0.23128650     0.31572767     0.41458969     0.53033537
               0.66584808     0.82450364     1.01025438     1.22772762
               1.48234092     1.78043706     2.12944203     2.53805004
               3.01644009     3.57652955     4.23227104     5.00000000

     Gradients computed in reciprocal space

     Adding external electric field

     Computed dipole along edir(3) :
        Dipole                0.0000 Ry au,          0.0000 Debye
        Dipole field          0.0000 Ry au

        Potential amp.       -0.0000 Ry
        Total length         45.2905 bohr

     Starting wfc are  144 randomized atomic wfcs

     Self-consistent Calculation

     iteration #  1     ecut=    36.75 Ry     beta=0.10
     Davidson diagonalization with overlap
     ethr =  1.00E-02,  avg # of iterations =  7.7

[...]

     total energy              =   -2083.75810097 Ry
     Harris-Foulkes estimate   =   -2085.76266568 Ry
     estimated scf accuracy    <      12.45922637 Ry

[...]

     End of self-consistent calculation

          k = 0.0000 0.0000 0.0000 ( 16955 PWs)   bands (ev):

   -71.0327 -70.9820 -70.9820 -70.7774 -70.7752 -70.7282 -70.7282 -70.7277
   -70.7276 -41.2640 -41.1125 -41.1125 -41.0750 -41.0478 -41.0221 -41.0221
   -40.9895 -40.8649 -40.8348 -40.8348 -40.7814 -40.7814 -40.7449 -40.7449
   -40.6722 -40.6234 -40.6233 -40.6061 -40.5908 -40.5896 -40.5895 -40.5801
   -40.5700 -40.5700 -40.5625 -40.5625  -6.3908  -6.2411  -6.2411  -6.1122
    -6.1122  -6.0705  -5.8260  -5.8260  -5.8196  -5.8196  -5.7638  -5.7123
    -5.3327  -5.3327  -5.3096  -5.3096  -4.5715  -4.2412  -3.1008  -2.5050
    -1.9838  -1.5560  -1.3570  -1.3570  -1.2945  -1.2124  -1.2123  -0.8666
    -0.8666  -0.6369  -0.6369  -0.3195  -0.3194  -0.1914  -0.1914  -0.0881
     0.1204   0.3061   0.5233   0.5233   0.8361   1.0124   1.0124   1.4877
     1.5001   1.6954   1.6954   1.8702   1.8703   1.8819   1.8820   2.0930
     2.0931   2.1923   2.1923   2.2678   2.3498   2.3498   2.7278   2.8023
     2.8023   2.8771   2.8771   3.2062   3.4343   3.4963   3.5827   4.5662
     4.5730   4.8809   4.8809   4.9315   4.9315   5.9036   6.1872   6.6723
     6.9509   7.0298   7.8626   7.9556   8.8152   8.9137   8.9138   8.9198

[...]

          k =-0.0891-0.0514 0.0000 ( 17060 PWs)   bands (ev):

[...]

     the Fermi energy is     1.7525 ev

!    total energy              =   -2082.76529394 Ry
     Harris-Foulkes estimate   =   -2082.76529334 Ry
     estimated scf accuracy    <       0.00000054 Ry

     The total energy is the sum of the following terms:

     one-electron contribution =  -17696.19867938 Ry
     hartree contribution      =    8870.61870635 Ry
     xc contribution           =    -362.77240765 Ry
     ewald contribution        =    7105.70459853 Ry
     electric field correction =       0.00000000 Ry
     smearing contrib. (-TS)   =      -0.11751178 Ry

     convergence has been achieved in  20 iterations

 BEEF-vdW xc energy contributions
           1 :   -315.756812929808
           2 :    290.199465687386
           3 :   -245.801430673201
           4 :    193.331899866616
           5 :   -143.794527224196
           6 :    105.073985880693
           7 :   -80.1478184747349
           8 :    67.2619520254563
           9 :   -61.7023985197611
          10 :    58.2404202151019
          11 :   -53.2066139670811
          12 :    45.4593657168547
          13 :   -36.0931544956304
[...]
     /afs/slac.stanford.edu/u/if/mamunm/psp/gbrv1.5pbe/Ru.UPF
     MD5 check sum: 7158a806dd851261a58e6920c40ebe78
     Pseudo is Ultrasoft + core correction, Zval = 16.0
     Generated by new atomic code, or converted to UPF format
     Using radial grid of  967 points,  6 beta functions with:
                l(1) =   0
                l(2) =   0
                l(3) =   1
                l(4) =   1
                l(5) =   2
                l(6) =   2
     Q(r) pseudized with  8 coefficients,  rinner =    1.300   1.300   1.300
                                                       1.300   1.300

     PseudoPot. # 2 for Hg read from file:
     /afs/slac.stanford.edu/u/if/mamunm/psp/gbrv1.5pbe/Hg.UPF
     MD5 check sum: 8f42caffe07f7fd9c0a564347f8c5498
     Pseudo is Ultrasoft + core correction, Zval = 12.0
     Generated by new atomic code, or converted to UPF format
     Using radial grid of  985 points,  6 beta functions with:
                l(1) =   0
                l(2) =   0
                l(3) =   1
                l(4) =   1
                l(5) =   2
                l(6) =   2
     Q(r) pseudized with  8 coefficients,  rinner =    2.000   2.000   2.000
                                                       2.000   2.000

     vdW kernel table read from file vdW_kernel_table
     MD5 check sum: 095c7af220d748ca6e76c0b4c6cfb241

     atomic species   valence    mass     pseudopotential
        Ru1           16.00   101.07000     Ru( 1.00)
        Hg1           12.00   200.59200     Hg( 1.00)

     No symmetry found

   Cartesian axes

     site n.     atom                  positions (alat units)
         1           Ru1 tau(   1) = (   0.0000000   0.0000000  10.0000000  )
         2           Ru1 tau(   2) = (  -1.4027051   2.4295566  10.0000000  )
         3           Ru1 tau(   3) = (   1.4027051   2.4295566  10.0000000  )
         4           Hg1 tau(   4) = (   2.8054103   0.0000000  10.0000000  )
         5           Ru1 tau(   5) = (   2.8054103   1.6197044  12.2906079  )
         6           Ru1 tau(   6) = (   1.4027051   4.0492610  12.2906079  )
         7           Ru1 tau(   7) = (  -1.4027051   4.0492610  12.2906079  )
         8           Hg1 tau(   8) = (   0.0000000   1.6197044  12.2906079  )
         9           Ru1 tau(   9) = (   0.0000054   3.3782573  14.4497089  )
        10           Ru1 tau(  10) = (   1.5229478   0.7404382  14.4497042  )
        11           Ru1 tau(  11) = (   4.0878694   0.7404308  14.4497054  )
        12           Hg1 tau(  12) = (   2.8054194   3.2394098  14.9628830  )

     number of k points=    20  Fermi-Dirac smearing, width (Ry)=  0.0110
                       cart. coord. in units 2pi/alat
        k(    1) = (   0.0000000   0.0000000   0.0000000), wk =   0.0555556
        k(    2) = (   0.0000000   0.0342998   0.0000000), wk =   0.1111111
        k(    3) = (   0.0000000   0.0685996   0.0000000), wk =   0.1111111
        k(    4) = (   0.0000000  -0.1028994   0.0000000), wk =   0.0555556
        k(    5) = (   0.0297045   0.0171499   0.0000000), wk =   0.1111111
        k(    6) = (   0.0297045   0.0514497   0.0000000), wk =   0.1111111
        k(    7) = (   0.0297045   0.0857495   0.0000000), wk =   0.1111111
        k(    8) = (   0.0297045  -0.0857495   0.0000000), wk =   0.1111111
        k(    9) = (   0.0297045  -0.0514497   0.0000000), wk =   0.1111111
        k(   10) = (   0.0297045  -0.0171499   0.0000000), wk =   0.1111111
        k(   11) = (   0.0594090   0.0342998   0.0000000), wk =   0.1111111
        k(   12) = (   0.0594090   0.0685996   0.0000000), wk =   0.1111111
        k(   13) = (   0.0594090   0.1028994   0.0000000), wk =   0.1111111
        k(   14) = (   0.0594090  -0.0685996   0.0000000), wk =   0.1111111
        k(   15) = (   0.0594090  -0.0342998   0.0000000), wk =   0.1111111
        k(   16) = (   0.0594090   0.0000000   0.0000000), wk =   0.1111111
        k(   17) = (  -0.0891135  -0.0514497   0.0000000), wk =   0.0555556
        k(   18) = (  -0.0891135  -0.0171499   0.0000000), wk =   0.1111111
        k(   19) = (  -0.0891135   0.0171499   0.0000000), wk =   0.1111111
        k(   20) = (  -0.0891135  -0.1543492   0.0000000), wk =   0.0555556

     Largest allocated arrays     est. size (Mb)     dimensions
     Largest temporary arrays     est. size (Mb)     dimensions

     Initial potential from superposition of free atoms
     Check: negative starting charge=   -0.667065

     starting charge  170.99968, renormalised to  180.00000

[...]

     *
     * You are using vdW-DF for exchange-correlation in this calculation.
     * Please cite the following three references that made this development
     * possible:
     *
     *   M. Dion, H. Rydberg, E. Schroder, D. C. Langreth, and
     *   B. I. Lundqvist, Phys. Rev. Lett. 92, 246401 (2004).
     *
     *   T. Thonhauser, V. R. Cooper, S. Li, A. Puzder, P. Hyldgaard, and
     *   D. C. Langreth, Phys. Rev. B 76, 125112 (2007).
     *
     *   G. Roman-Perez and J. M. Soler, Phys. Rev. Lett. 103, 096102 (2009).
     *
     *
     * If you are using vdW-DF2, please also cite:
     *
     *   K. Lee, E. D. Murray, L. Kong, B. I. Lundqvist, and
     *   D. C. Langreth, Phys. Rev. B 82, 081101(R) (2010).
     *
     *
     * If you are calculating the stress with vdW-DF, please also cite:
     *
     *   R. Sabatini, E. Kucukbenli, B. Kolb, T. Thonhauser, and
     *   S. de Gironcoli, J. Phys.: Condens. Matter 24, 424209 (2012).
     *

     Carrying out vdW-DF run using the following parameters:

     Nqs =      20    Nr_points =    1024   r_max =   100.000
     q_mesh =
               0.00001000     0.04494208     0.09755937     0.15916263
               0.23128650     0.31572767     0.41458969     0.53033537
               0.66584808     0.82450364     1.01025438     1.22772762
               1.48234092     1.78043706     2.12944203     2.53805004
               3.01644009     3.57652955     4.23227104     5.00000000

     Gradients computed in reciprocal space

[...]

     Starting wfc are  144 randomized atomic wfcs

     Self-consistent Calculation

[...]

     total energy              =   -2082.80869575 Ry
     Harris-Foulkes estimate   =   -2082.80869577 Ry
     estimated scf accuracy    <       0.00000412 Ry

     iteration # 20     ecut=    36.75 Ry     beta=0.10
     Davidson diagonalization with overlap
     ethr =  1.36E-09,  avg # of iterations =  1.1

[...]

     negative rho (up, down):  6.876E-01 0.000E+00

     Adding external electric field

     Computed dipole along edir(3) :
        Dipole                0.0347 Ry au,          0.0881 Debye
        Dipole field          0.0001 Ry au

        Potential amp.       -0.0087 Ry
        Total length         45.2905 bohr

     End of self-consistent calculation

[...]

          k = 0.0594 0.0000 0.0000 ( 16990 PWs)   bands (ev):

[...]

          k =-0.0891-0.1543 0.0000 ( 17060 PWs)   bands (ev):

   -71.0297 -71.0093 -70.9902 -70.9216 -70.8631 -70.8556 -70.6927 -70.6766
   -70.6603 -41.3093 -41.2287 -41.1518 -41.1479 -41.1022 -41.0317 -40.9776
   -40.9677 -40.9379 -40.8833 -40.8735 -40.8536 -40.7537 -40.7502 -40.7286
   -40.7218 -40.7135 -40.7086 -40.7072 -40.6511 -40.6494 -40.6445 -40.6231
   -40.5515 -40.5323 -40.5294 -40.5097  -6.1424  -6.0075  -5.9335  -5.8832
    -5.8758  -5.6996  -5.4580  -5.4102  -5.3492  -5.3385  -5.2973  -5.1605
    -5.1245  -5.0052  -4.9594  -4.6105  -4.1223  -3.3689  -2.8282  -2.4545
    -2.2446  -2.1976  -1.6108  -1.5569  -1.4547  -1.2964  -1.2865  -1.2188
    -1.0438  -0.9267  -0.8107  -0.7748  -0.5417  -0.4143  -0.3829  -0.1939
    -0.1930   0.0561   0.0628   0.1601   0.2372   0.3136   0.3797   0.4848
     0.6363   0.6615   0.7408   0.7828   1.0488   1.1782   1.2910   1.4962
     1.5063   1.5834   1.6239   1.6755   1.7173   1.7499   1.9973   2.0068
     2.2065   2.5226   2.8323   3.2590   3.2812   3.5383   3.8572   4.7400
     5.0360   5.3776   5.5419   6.1085   6.5461   6.8923   7.4504   7.4613
     8.0907   8.1703   8.3965   8.4326   8.8422   9.3548   9.4455   9.4944

     the Fermi energy is     1.7937 ev

!    total energy              =   -2082.80869584 Ry
     Harris-Foulkes estimate   =   -2082.80869515 Ry
     estimated scf accuracy    <       0.00000053 Ry

     The total energy is the sum of the following terms:

     one-electron contribution =  -17763.63887946 Ry
     hartree contribution      =    8904.26484189 Ry
     xc contribution           =    -362.86305092 Ry
     ewald contribution        =    7139.54483830 Ry
     electric field correction =       0.00000334 Ry
     smearing contrib. (-TS)   =      -0.11644899 Ry

     convergence has been achieved in  20 iterations

 BEEF-vdW xc energy contributions
           1 :   -315.932583776515
           2 :    290.386187020891
           3 :   -246.005092774184
           4 :    193.542059811151
           5 :   -143.978694553194
           6 :    105.187277795433
           7 :   -80.1532327719095
           8 :    67.1510924764847
           9 :   -61.5071921898827
          10 :    58.0287684836080
          11 :   -53.0599771926953
          12 :    45.4384637596029
          13 :   -36.2068668290227
          14 :    27.4758873495120
          15 :   -21.1077813931583
          16 :    17.8221726357231
          17 :   -17.0233598558364
          18 :    17.2789748639792
          19 :   -17.1124221283231
          20 :    15.6870971741455
          21 :   -13.0746594397705
          22 :    10.0424059024461
          23 :   -7.53877606473645
          24 :    6.17406286259092
          25 :   -5.95127111384659
          26 :    6.34347026080150
          27 :   -6.63128698317325
          28 :    6.29448127858956
          29 :   -5.25007573698332
          30 :    3.83307771554507
          31 :   -31.5905716204646
          32 :   -23.7527514589135

     Forces acting on atoms (Ry/au):

     negative rho (up, down):  6.876E-01 0.000E+00
     atom    1 type  1   force =    -0.00000121   -0.02750574    0.01794776
     atom    2 type  1   force =    -0.02382165    0.01375194    0.01794703
     atom    3 type  1   force =     0.02382150    0.01375333    0.01795308
     atom    4 type  2   force =    -0.00000840   -0.00000239   -0.05907870
     atom    5 type  1   force =    -0.00000095    0.02501111    0.00160078
     atom    6 type  1   force =     0.02166219   -0.01250676    0.00160122
     atom    7 type  1   force =    -0.02166349   -0.01250693    0.00160309
     atom    8 type  2   force =    -0.00000129    0.00000122   -0.00296094
     atom    9 type  1   force =     0.00000201   -0.00099141    0.00051705
     atom   10 type  1   force =    -0.00085641    0.00049529    0.00052114
     atom   11 type  1   force =     0.00086350    0.00049684    0.00051146
     atom   12 type  2   force =     0.00000419    0.00000351    0.00183703

     Total force =     0.092882     Total SCF correction =     0.004078

     entering subroutine stress ...

     negative rho (up, down):  6.876E-01 0.000E+00
          total   stress  (Ry/bohr**3)                   (kbar)     P=  -14.62
  -0.00015174   0.00000000  -0.00000000        -22.32      0.00     -0.00
   0.00000000  -0.00015174  -0.00000000          0.00    -22.32     -0.00
  -0.00000000  -0.00000000   0.00000541         -0.00     -0.00      0.80

 !ASE

     Writing output data file calc.save

     General routines

     Parallel routines

   This run was terminated on:   2:28:23   1Jan2019

   JOB DONE.
Job  /afs/slac/g/suncat/bin/suncat-tsmpirun -x LD_LIBRARY_PATH -wdir /scratch/qe648916_fpNkB pw.x -in pw.inp

TID   HOST_NAME   COMMAND_LINE            STATUS            TERMINATION_TIME
00000 suncat0271 pw.x -in pw.inp   Done                     01/01/2019 02:28:23
00001 suncat0271 pw.x -in pw.inp   Done                     01/01/2019 02:28:23
00002 suncat0271 pw.x -in pw.inp   Done                     01/01/2019 02:28:23
00003 suncat0271 pw.x -in pw.inp   Done                     01/01/2019 02:28:23
00004 suncat0271 pw.x -in pw.inp   Done                     01/01/2019 02:28:23
00005 suncat0271 pw.x -in pw.inp   Done                     01/01/2019 02:28:23
00006 suncat0271 pw.x -in pw.inp   Done                     01/01/2019 02:28:23
00007 suncat0271 pw.x -in pw.inp   Done                     01/01/2019 02:28:23
00008 suncat0266 pw.x -in pw.inp   Done                     01/01/2019 02:28:23
00009 suncat0266 pw.x -in pw.inp   Done                     01/01/2019 02:28:23
00010 suncat0266 pw.x -in pw.inp   Done                     01/01/2019 02:28:23
00011 suncat0266 pw.x -in pw.inp   Done                     01/01/2019 02:28:23
00012 suncat0266 pw.x -in pw.inp   Done                     01/01/2019 02:28:23
00013 suncat0266 pw.x -in pw.inp   Done                     01/01/2019 02:28:23
00014 suncat0266 pw.x -in pw.inp   Done                     01/01/2019 02:28:23
00015 suncat0266 pw.x -in pw.inp   Done                     01/01/2019 02:28:23
00016 suncat0264 pw.x -in pw.inp   Done                     01/01/2019 02:28:23
00017 suncat0264 pw.x -in pw.inp   Done                     01/01/2019 02:28:23
00018 suncat0264 pw.x -in pw.inp   Done                     01/01/2019 02:28:23
00019 suncat0264 pw.x -in pw.inp   Done                     01/01/2019 02:28:23
00020 suncat0264 pw.x -in pw.inp   Done                     01/01/2019 02:28:23
00021 suncat0264 pw.x -in pw.inp   Done                     01/01/2019 02:28:23
00022 suncat0264 pw.x -in pw.inp   Done                     01/01/2019 02:28:23
00023 suncat0264 pw.x -in pw.inp   Done                     01/01/2019 02:28:23
00024 suncat0260 pw.x -in pw.inp   Done                     01/01/2019 02:28:23
00025 suncat0260 pw.x -in pw.inp   Done                     01/01/2019 02:28:23
00026 suncat0260 pw.x -in pw.inp   Done                     01/01/2019 02:28:23
00027 suncat0260 pw.x -in pw.inp   Done                     01/01/2019 02:28:23
00028 suncat0260 pw.x -in pw.inp   Done                     01/01/2019 02:28:23
00029 suncat0260 pw.x -in pw.inp   Done                     01/01/2019 02:28:23
00030 suncat0260 pw.x -in pw.inp   Done                     01/01/2019 02:28:23
00031 suncat0260 pw.x -in pw.inp   Done                     01/01/2019 02:28:23
00032 suncat0241 pw.x -in pw.inp   Done                     01/01/2019 02:28:23
00033 suncat0241 pw.x -in pw.inp   Done                     01/01/2019 02:28:23
00034 suncat0241 pw.x -in pw.inp   Done                     01/01/2019 02:28:23
00035 suncat0241 pw.x -in pw.inp   Done                     01/01/2019 02:28:23
00036 suncat0241 pw.x -in pw.inp   Done                     01/01/2019 02:28:23
00037 suncat0241 pw.x -in pw.inp   Done                     01/01/2019 02:28:23
00038 suncat0241 pw.x -in pw.inp   Done                     01/01/2019 02:28:23
00039 suncat0241 pw.x -in pw.inp   Done                     01/01/2019 02:28:23
00040 suncat0240 pw.x -in pw.inp   Done                     01/01/2019 02:28:23
00041 suncat0240 pw.x -in pw.inp   Done                     01/01/2019 02:28:23
00042 suncat0240 pw.x -in pw.inp   Done                     01/01/2019 02:28:23
00043 suncat0240 pw.x -in pw.inp   Done                     01/01/2019 02:28:23
00044 suncat0240 pw.x -in pw.inp   Done                     01/01/2019 02:28:23
00045 suncat0240 pw.x -in pw.inp   Done                     01/01/2019 02:28:23
00046 suncat0240 pw.x -in pw.inp   Done                     01/01/2019 02:28:23
00047 suncat0240 pw.x -in pw.inp   Done                     01/01/2019 02:28:23
00048 suncat0239 pw.x -in pw.inp   Done                     01/01/2019 02:28:23
00049 suncat0239 pw.x -in pw.inp   Done                     01/01/2019 02:28:23
00050 suncat0239 pw.x -in pw.inp   Done                     01/01/2019 02:28:23
00051 suncat0239 pw.x -in pw.inp   Done                     01/01/2019 02:28:23
00052 suncat0239 pw.x -in pw.inp   Done                     01/01/2019 02:28:23
00053 suncat0239 pw.x -in pw.inp   Done                     01/01/2019 02:28:23
00054 suncat0239 pw.x -in pw.inp   Done                     01/01/2019 02:28:23
00055 suncat0239 pw.x -in pw.inp   Done                     01/01/2019 02:28:23
00056 suncat0098 pw.x -in pw.inp   Done                     01/01/2019 02:28:23
00057 suncat0098 pw.x -in pw.inp   Done                     01/01/2019 02:28:23
00058 suncat0098 pw.x -in pw.inp   Done                     01/01/2019 02:28:23
00059 suncat0098 pw.x -in pw.inp   Done                     01/01/2019 02:28:23
00060 suncat0098 pw.x -in pw.inp   Done                     01/01/2019 02:28:23
00061 suncat0098 pw.x -in pw.inp   Done                     01/01/2019 02:28:23
00062 suncat0098 pw.x -in pw.inp   Done                     01/01/2019 02:28:23
00063 suncat0098 pw.x -in pw.inp   Done                     01/01/2019 02:28:23