     Program PWSCF v.5.1rc2 (svn rev. 11289) starts on 30Dec2018 at 16: 6:28

     Current dimensions of program PWSCF are:
     Max number of different atomic species (ntypx) = 10
     Max number of k-points (npk) =  40000
     Max angular momentum in pseudopotentials (lmaxx) =  3
     Presently stress not available with electric field

     IMPORTANT: XC functional enforced from input :
     Exchange-correlation      = BEEF-VDW ( 1  4 27 13 2)
     Any further DFT definition will be discarded
     Please, verify this is what you really want

     Subspace diagonalization in iterative solution of the eigenvalue problem:
     a serial algorithm will be used

     bravais-lattice index     =            0
     lattice parameter (alat)  =       1.8897  a.u.
     unit-cell volume          =    4629.0859 (a.u.)^3
     number of atoms/cell      =           12
     number of atomic types    =            2
     number of electrons       =       183.00
     number of Kohn-Sham states=          121
     kinetic-energy cutoff     =      36.7493  Ry
     charge density cutoff     =     367.4932  Ry
     convergence threshold     =      1.0E-06
     mixing beta               =       0.1000
     number of iterations used =           10  plain     mixing
     Exchange-correlation      = BEEF-VDW ( 1  4 27 13 2)
     nstep                     =           50

     celldm(1)=   1.889726  celldm(2)=   0.000000  celldm(3)=   0.000000
     celldm(4)=   0.000000  celldm(5)=   0.000000  celldm(6)=   0.000000

     crystal axes: (cart. coord. in units of alat)
               a(1) = (   5.670869   0.000000   0.000000 )
               a(2) = (  -2.835435   4.911117   0.000000 )
               a(3) = (   0.000000   0.000000  24.630245 )

     reciprocal axes: (cart. coord. in units 2 pi/alat)
               b(1) = (  0.176340  0.101810  0.000000 )
               b(2) = (  0.000000  0.203620  0.000000 )
               b(3) = (  0.000000  0.000000  0.040600 )

     PseudoPot. # 1 for Mo read from file:
     /afs/slac.stanford.edu/u/if/mamunm/psp/gbrv1.5pbe/Mo.UPF
     MD5 check sum: 30c4dcd161f5d35cd49bb5239c51a633
     Pseudo is Ultrasoft + core correction, Zval = 14.0
     Generated by new atomic code, or converted to UPF format
     Using radial grid of  889 points,  6 beta functions with:
                l(1) =   0
                l(2) =   0
                l(3) =   1
                l(4) =   1
                l(5) =   2
                l(6) =   2
     Q(r) pseudized with  6 coefficients,  rinner =    1.000   1.000   1.000
                                                       1.000   1.000

     PseudoPot. # 2 for Ag read from file:
     /afs/slac.stanford.edu/u/if/mamunm/psp/gbrv1.5pbe/Ag.UPF
     MD5 check sum: d66d668201baa78d5eb5b04ef7011058
     Pseudo is Ultrasoft + core correction, Zval = 19.0
     Generated by new atomic code, or converted to UPF format
     Using radial grid of  887 points,  6 beta functions with:
                l(1) =   0
                l(2) =   0
                l(3) =   1
                l(4) =   1
                l(5) =   2
                l(6) =   2
     Q(r) pseudized with  6 coefficients,  rinner =    1.300   1.300   1.300
                                                       1.300   1.300

     vdW kernel table read from file vdW_kernel_table
     MD5 check sum: 095c7af220d748ca6e76c0b4c6cfb241

     atomic species   valence    mass     pseudopotential
        Mo1           14.00    95.95000     Mo( 1.00)
        Ag1           19.00   107.86820     Ag( 1.00)

     No symmetry found

   Cartesian axes

     site n.     atom                  positions (alat units)
         1           Mo1 tau(   1) = (   0.0000000   0.0000000  10.0000000  )
         2           Mo1 tau(   2) = (  -1.4177173   2.4555584  10.0000000  )
         3           Mo1 tau(   3) = (   1.4177173   2.4555584  10.0000000  )
         4           Ag1 tau(   4) = (   2.8354346   0.0000000  10.0000000  )
         5           Mo1 tau(   5) = (   2.8354346   1.6370389  12.3151227  )
         6           Mo1 tau(   6) = (   1.4177173   4.0925974  12.3151227  )
         7           Mo1 tau(   7) = (  -1.4177173   4.0925974  12.3151227  )
         8           Ag1 tau(   8) = (   0.0000000   1.6370389  12.3151227  )
         9           Mo1 tau(   9) = (  -0.0000000   3.2740779  14.6302454  )
        10           Mo1 tau(  10) = (   1.4177173   0.8185195  14.6302454  )
        11           Mo1 tau(  11) = (   4.2531519   0.8185195  14.6302454  )
        12           Ag1 tau(  12) = (   2.8354346   3.2740779  14.6302454  )

     number of k points=    20  Fermi-Dirac smearing, width (Ry)=  0.0110
                       cart. coord. in units 2pi/alat
        k(    1) = (   0.0000000   0.0000000   0.0000000), wk =   0.0555556
        k(    2) = (   0.0000000   0.0339366   0.0000000), wk =   0.1111111
        k(    3) = (   0.0000000   0.0678732   0.0000000), wk =   0.1111111
        k(    4) = (   0.0000000  -0.1018098   0.0000000), wk =   0.0555556
        k(    5) = (   0.0293900   0.0169683   0.0000000), wk =   0.1111111
        k(    6) = (   0.0293900   0.0509049   0.0000000), wk =   0.1111111
        k(    7) = (   0.0293900   0.0848415   0.0000000), wk =   0.1111111
        k(    8) = (   0.0293900  -0.0848415   0.0000000), wk =   0.1111111
        k(    9) = (   0.0293900  -0.0509049   0.0000000), wk =   0.1111111
        k(   10) = (   0.0293900  -0.0169683   0.0000000), wk =   0.1111111
        k(   11) = (   0.0587799   0.0339366   0.0000000), wk =   0.1111111
        k(   12) = (   0.0587799   0.0678732   0.0000000), wk =   0.1111111
        k(   13) = (   0.0587799   0.1018098   0.0000000), wk =   0.1111111
        k(   14) = (   0.0587799  -0.0678732   0.0000000), wk =   0.1111111
        k(   15) = (   0.0587799  -0.0339366   0.0000000), wk =   0.1111111
        k(   16) = (   0.0587799  -0.0000000   0.0000000), wk =   0.1111111
        k(   17) = (  -0.0881699  -0.0509049   0.0000000), wk =   0.0555556
        k(   18) = (  -0.0881699  -0.0169683   0.0000000), wk =   0.1111111
        k(   19) = (  -0.0881699   0.0169683   0.0000000), wk =   0.1111111
        k(   20) = (  -0.0881699  -0.1527148   0.0000000), wk =   0.0555556

     Largest allocated arrays     est. size (Mb)     dimensions
     Largest temporary arrays     est. size (Mb)     dimensions

     Initial potential from superposition of free atoms
     Check: negative starting charge=   -0.004648

     starting charge  181.49029, renormalised to  183.00000

     negative rho (up, down):  4.687E-03 0.000E+00

     *
     * You are using vdW-DF for exchange-correlation in this calculation.
     * Please cite the following three references that made this development
     * possible:
     *
     *   M. Dion, H. Rydberg, E. Schroder, D. C. Langreth, and
     *   B. I. Lundqvist, Phys. Rev. Lett. 92, 246401 (2004).
     *
     *   T. Thonhauser, V. R. Cooper, S. Li, A. Puzder, P. Hyldgaard, and
     *   D. C. Langreth, Phys. Rev. B 76, 125112 (2007).
     *
     *   G. Roman-Perez and J. M. Soler, Phys. Rev. Lett. 103, 096102 (2009).
     *
     *
     * If you are using vdW-DF2, please also cite:
     *
     *   K. Lee, E. D. Murray, L. Kong, B. I. Lundqvist, and
     *   D. C. Langreth, Phys. Rev. B 82, 081101(R) (2010).
     *
     *
     * If you are calculating the stress with vdW-DF, please also cite:
     *
     *   R. Sabatini, E. Kucukbenli, B. Kolb, T. Thonhauser, and
     *   S. de Gironcoli, J. Phys.: Condens. Matter 24, 424209 (2012).
     *

     Carrying out vdW-DF run using the following parameters:

     Nqs =      20    Nr_points =    1024   r_max =   100.000
     q_mesh =
               0.00001000     0.04494208     0.09755937     0.15916263
               0.23128650     0.31572767     0.41458969     0.53033537
               0.66584808     0.82450364     1.01025438     1.22772762
               1.48234092     1.78043706     2.12944203     2.53805004
               3.01644009     3.57652955     4.23227104     5.00000000

     Gradients computed in reciprocal space

     Adding external electric field

     Computed dipole along edir(3) :
        Dipole               -0.0000 Ry au,         -0.0000 Debye
        Dipole field         -0.0000 Ry au

        Potential amp.        0.0000 Ry
        Total length         45.3808 bohr

     Starting wfc are  156 randomized atomic wfcs

     Self-consistent Calculation

     iteration #  1     ecut=    36.75 Ry     beta=0.10
     Davidson diagonalization with overlap
     ethr =  1.00E-02,  avg # of iterations =  2.0

[...]

     total energy              =   -2148.66628634 Ry
     Harris-Foulkes estimate   =   -2150.12563689 Ry
     estimated scf accuracy    <       8.26746766 Ry

[...]

     End of self-consistent calculation

          k = 0.0000 0.0000 0.0000 ( 17507 PWs)   bands (ev):

   -90.7802 -90.5313 -90.5313 -59.1472 -59.0284 -59.0284 -59.0112 -58.9926
   -58.9067 -58.9067 -58.9018 -58.9018 -54.2568 -54.2568 -54.2340 -54.0286
   -54.0286 -54.0284 -54.0284 -53.9498 -53.9489 -33.6435 -33.4513 -33.4031
   -33.3882 -33.3882 -33.3377 -33.3252 -33.3252 -33.1791 -33.1791 -33.0838
   -33.0115 -33.0115 -32.9800 -32.9800 -32.9306 -32.7926 -32.7926 -32.7926
   -32.7722 -32.7214 -32.7214 -32.7120 -32.5670 -32.5670 -32.5615 -32.5615
    -4.4764  -3.9572  -3.9572  -3.7652  -3.7417  -3.7417  -3.5488  -3.5211
    -3.5211  -3.4911  -3.4684  -3.4684  -2.9085  -2.9085  -2.8234  -2.8234
    -2.7152  -2.4247  -2.2233  -1.4812  -0.9631  -0.4782  -0.3912  -0.1833
    -0.1833  -0.0427  -0.0427   0.3258   0.3258   0.6623   0.6623   0.9751
     0.9751   1.0053   1.0309   1.0310   1.4826   1.6207   1.8314   1.8314
     2.1982   2.5140   2.5345   2.5345   2.8385   3.2017   3.5447   3.5447
     3.7701   3.7701   3.7965   3.7965   3.9008   3.9008   4.1172   4.1172
     4.2354   4.2354   4.3544   4.4123   4.4123   4.8719   4.8719   4.9618
     5.7729   5.8060   5.9871   6.0558   6.1052   6.1455   6.3062   6.3062
     6.3420

[...]

          k =-0.0882-0.0509 0.0000 ( 17412 PWs)   bands (ev):

[...]

     the Fermi energy is     2.0454 ev

!    total energy              =   -2149.10920978 Ry
     Harris-Foulkes estimate   =   -2149.10920956 Ry
     estimated scf accuracy    <       0.00000014 Ry

     The total energy is the sum of the following terms:

     one-electron contribution =  -17999.12637520 Ry
     hartree contribution      =    8991.27978298 Ry
     xc contribution           =    -269.86867646 Ry
     ewald contribution        =    7128.69829790 Ry
     electric field correction =       0.00000000 Ry
     smearing contrib. (-TS)   =      -0.09223900 Ry

     convergence has been achieved in  20 iterations

 BEEF-vdW xc energy contributions
           1 :   -232.516976719513
           2 :    211.976836859620
           3 :   -176.950694007165
           4 :    136.988299852877
           5 :   -101.522159437191
           6 :    76.7175190625227
           7 :   -64.0200719582145
           8 :    60.6894293122197
           9 :   -61.7991748999606
          10 :    62.6278489515769
          11 :   -60.4218159282133
          12 :    54.9306931431762
          13 :   -47.7722248823828
[...]
                l(3) =   1
                l(4) =   1
                l(5) =   2
                l(6) =   2
     Q(r) pseudized with  6 coefficients,  rinner =    1.000   1.000   1.000
                                                       1.000   1.000

     PseudoPot. # 2 for Ag read from file:
     /afs/slac.stanford.edu/u/if/mamunm/psp/gbrv1.5pbe/Ag.UPF
     MD5 check sum: d66d668201baa78d5eb5b04ef7011058
     Pseudo is Ultrasoft + core correction, Zval = 19.0
     Generated by new atomic code, or converted to UPF format
     Using radial grid of  887 points,  6 beta functions with:
                l(1) =   0
                l(2) =   0
                l(3) =   1
                l(4) =   1
                l(5) =   2
                l(6) =   2
     Q(r) pseudized with  6 coefficients,  rinner =    1.300   1.300   1.300
                                                       1.300   1.300

     vdW kernel table read from file vdW_kernel_table
     MD5 check sum: 095c7af220d748ca6e76c0b4c6cfb241

     atomic species   valence    mass     pseudopotential
        Mo1           14.00    95.95000     Mo( 1.00)
        Ag1           19.00   107.86820     Ag( 1.00)

     No symmetry found

   Cartesian axes

     site n.     atom                  positions (alat units)
         1           Mo1 tau(   1) = (   0.0000000   0.0000000  10.0000000  )
         2           Mo1 tau(   2) = (  -1.4177173   2.4555584  10.0000000  )
         3           Mo1 tau(   3) = (   1.4177173   2.4555584  10.0000000  )
         4           Ag1 tau(   4) = (   2.8354346   0.0000000  10.0000000  )
         5           Mo1 tau(   5) = (   2.8354346   1.6370389  12.3151227  )
         6           Mo1 tau(   6) = (   1.4177173   4.0925974  12.3151227  )
         7           Mo1 tau(   7) = (  -1.4177173   4.0925974  12.3151227  )
         8           Ag1 tau(   8) = (   0.0000000   1.6370389  12.3151227  )
         9           Mo1 tau(   9) = (  -0.0000019   3.4284988  14.5067372  )
        10           Mo1 tau(  10) = (   1.5514502   0.7413104  14.5067406  )
        11           Mo1 tau(  11) = (   4.1194171   0.7413111  14.5067397  )
        12           Ag1 tau(  12) = (   2.8354325   3.2740815  14.9258849  )

     number of k points=    20  Fermi-Dirac smearing, width (Ry)=  0.0110
                       cart. coord. in units 2pi/alat
        k(    1) = (   0.0000000   0.0000000   0.0000000), wk =   0.0555556
        k(    2) = (   0.0000000   0.0339366   0.0000000), wk =   0.1111111
        k(    3) = (   0.0000000   0.0678732   0.0000000), wk =   0.1111111
        k(    4) = (   0.0000000  -0.1018098   0.0000000), wk =   0.0555556
        k(    5) = (   0.0293900   0.0169683   0.0000000), wk =   0.1111111
        k(    6) = (   0.0293900   0.0509049   0.0000000), wk =   0.1111111
        k(    7) = (   0.0293900   0.0848415   0.0000000), wk =   0.1111111
        k(    8) = (   0.0293900  -0.0848415   0.0000000), wk =   0.1111111
        k(    9) = (   0.0293900  -0.0509049   0.0000000), wk =   0.1111111
        k(   10) = (   0.0293900  -0.0169683   0.0000000), wk =   0.1111111
        k(   11) = (   0.0587799   0.0339366   0.0000000), wk =   0.1111111
        k(   12) = (   0.0587799   0.0678732   0.0000000), wk =   0.1111111
        k(   13) = (   0.0587799   0.1018098   0.0000000), wk =   0.1111111
        k(   14) = (   0.0587799  -0.0678732   0.0000000), wk =   0.1111111
        k(   15) = (   0.0587799  -0.0339366   0.0000000), wk =   0.1111111
        k(   16) = (   0.0587799  -0.0000000   0.0000000), wk =   0.1111111
        k(   17) = (  -0.0881699  -0.0509049   0.0000000), wk =   0.0555556
        k(   18) = (  -0.0881699  -0.0169683   0.0000000), wk =   0.1111111
        k(   19) = (  -0.0881699   0.0169683   0.0000000), wk =   0.1111111
        k(   20) = (  -0.0881699  -0.1527148   0.0000000), wk =   0.0555556

     Largest allocated arrays     est. size (Mb)     dimensions
     Largest temporary arrays     est. size (Mb)     dimensions

     Initial potential from superposition of free atoms
     Check: negative starting charge=   -0.004591

     starting charge  181.49029, renormalised to  183.00000

[...]

     *
     * You are using vdW-DF for exchange-correlation in this calculation.
     * Please cite the following three references that made this development
     * possible:
     *
     *   M. Dion, H. Rydberg, E. Schroder, D. C. Langreth, and
     *   B. I. Lundqvist, Phys. Rev. Lett. 92, 246401 (2004).
     *
     *   T. Thonhauser, V. R. Cooper, S. Li, A. Puzder, P. Hyldgaard, and
     *   D. C. Langreth, Phys. Rev. B 76, 125112 (2007).
     *
     *   G. Roman-Perez and J. M. Soler, Phys. Rev. Lett. 103, 096102 (2009).
     *
     *
     * If you are using vdW-DF2, please also cite:
     *
     *   K. Lee, E. D. Murray, L. Kong, B. I. Lundqvist, and
     *   D. C. Langreth, Phys. Rev. B 82, 081101(R) (2010).
     *
     *
     * If you are calculating the stress with vdW-DF, please also cite:
     *
     *   R. Sabatini, E. Kucukbenli, B. Kolb, T. Thonhauser, and
     *   S. de Gironcoli, J. Phys.: Condens. Matter 24, 424209 (2012).
     *

     Carrying out vdW-DF run using the following parameters:

     Nqs =      20    Nr_points =    1024   r_max =   100.000
     q_mesh =
               0.00001000     0.04494208     0.09755937     0.15916263
               0.23128650     0.31572767     0.41458969     0.53033537
               0.66584808     0.82450364     1.01025438     1.22772762
               1.48234092     1.78043706     2.12944203     2.53805004
               3.01644009     3.57652955     4.23227104     5.00000000

     Gradients computed in reciprocal space

[...]

     Starting wfc are  156 randomized atomic wfcs

     Self-consistent Calculation

[...]

     iteration #  9     ecut=    36.75 Ry     beta=0.10
     Davidson diagonalization with overlap
     c_bands:  1 eigenvalues not converged
     c_bands:  1 eigenvalues not converged
     c_bands:  1 eigenvalues not converged
     c_bands:  1 eigenvalues not converged
     ethr =  8.32E-06,  avg # of iterations =  8.8

[...]

     total energy              =   -2149.14588656 Ry
     Harris-Foulkes estimate   =   -2149.14588417 Ry
     estimated scf accuracy    <       0.00000141 Ry

     iteration # 17     ecut=    36.75 Ry     beta=0.10
     Davidson diagonalization with overlap
     ethr =  7.69E-10,  avg # of iterations =  2.0

[...]

     negative rho (up, down):  4.498E-03 0.000E+00

     Adding external electric field

     Computed dipole along edir(3) :
        Dipole               -0.0226 Ry au,         -0.0573 Debye
        Dipole field         -0.0001 Ry au

        Potential amp.        0.0056 Ry
        Total length         45.3808 bohr

     End of self-consistent calculation

[...]

          k = 0.0588-0.0000 0.0000 ( 17441 PWs)   bands (ev):

[...]

          k =-0.0882-0.1527 0.0000 ( 17412 PWs)   bands (ev):

   -90.8116 -90.5765 -90.2022 -59.1329 -59.0936 -59.0430 -59.0216 -58.9956
   -58.9609 -58.9451 -58.8220 -58.8061 -54.2902 -54.2894 -54.2641 -54.0742
   -54.0734 -53.9938 -53.7236 -53.7230 -53.5864 -33.6510 -33.5300 -33.4316
   -33.4006 -33.3801 -33.2680 -33.2638 -33.2470 -33.1853 -33.1650 -33.1257
   -33.0711 -33.0516 -33.0408 -32.9960 -32.9744 -32.9686 -32.8687 -32.8590
   -32.7826 -32.7163 -32.6828 -32.6798 -32.6534 -32.6477 -32.5786 -32.4425
    -3.7147  -3.5500  -3.4422  -3.4337  -3.3859  -3.3545  -3.1645  -3.1249
    -3.0402  -2.9929  -2.9330  -2.8259  -2.6964  -2.5690  -2.5142  -2.3438
    -2.2632  -1.7704  -1.5759  -1.2561  -1.2359  -1.1294  -0.5409  -0.4658
    -0.4055  -0.1677  -0.0629  -0.0319   0.0919   0.2219   0.4539   0.5049
     0.6270   0.7996   0.8524   1.0776   1.0955   1.1348   1.3735   1.4395
     1.4471   1.5363   1.6457   1.8491   1.8680   2.0533   2.1244   2.1403
     2.6693   2.7884   2.9417   3.2818   3.3192   3.3556   3.3766   3.5267
     3.6201   3.6621   3.7183   3.9601   4.2801   4.6559   4.9406   4.9579
     5.0882   5.2974   5.6910   6.1984   6.5312   7.1665   7.3294   7.4755
     7.6302

     the Fermi energy is     1.9883 ev

!    total energy              =   -2149.14588702 Ry
     Harris-Foulkes estimate   =   -2149.14588695 Ry
     estimated scf accuracy    <       0.00000063 Ry

     The total energy is the sum of the following terms:

     one-electron contribution =  -17974.59172644 Ry
     hartree contribution      =    8979.13959413 Ry
     xc contribution           =    -270.12852834 Ry
     ewald contribution        =    7116.52067261 Ry
     electric field correction =       0.00000138 Ry
     smearing contrib. (-TS)   =      -0.08590037 Ry

     convergence has been achieved in  17 iterations

 BEEF-vdW xc energy contributions
           1 :   -232.800586483181
           2 :    212.277547435991
           3 :   -177.279627199463
           4 :    137.334850465491
           5 :   -101.836328185218
           6 :    76.9114308976501
           7 :   -63.9982532792570
           8 :    60.3995969346818
           9 :   -61.2781266952574
          10 :    62.0128237171337
          11 :   -59.9084575436696
          12 :    54.6875329583047
          13 :   -47.8509509175597
          14 :    41.4393477331071
          15 :   -36.8843272131305
          16 :    34.4299528135196
          17 :   -33.2641935156504
          18 :    32.1390640172609
          19 :   -30.0887358089038
          20 :    26.8702149226203
          21 :   -22.9615023485621
          22 :    19.1903160880289
          23 :   -16.2468596951055
          24 :    14.3472802292031
          25 :   -13.1998467659579
          26 :    12.2381476929711
          27 :   -10.9583003197397
          28 :    9.16385787070539
          29 :   -7.00817696478293
          30 :    4.84554922126586
          31 :   -25.4038278032959
          32 :   -19.2155735041846

     Forces acting on atoms (Ry/au):

     negative rho (up, down):  4.498E-03 0.000E+00
     atom    1 type  1   force =     0.00000050   -0.01612188    0.02807482
     atom    2 type  1   force =    -0.01396146    0.00806159    0.02807814
     atom    3 type  1   force =     0.01396165    0.00806127    0.02808245
     atom    4 type  2   force =     0.00000094    0.00000148   -0.03557245
     atom    5 type  1   force =     0.00000110    0.01674564   -0.01243439
     atom    6 type  1   force =     0.01450358   -0.00837064   -0.01243323
     atom    7 type  1   force =    -0.01450334   -0.00837156   -0.01243236
     atom    8 type  2   force =    -0.00000709   -0.00001465   -0.01056007
     atom    9 type  1   force =     0.00000040   -0.00042427   -0.00058000
     atom   10 type  1   force =    -0.00036952    0.00021510   -0.00058021
     atom   11 type  1   force =     0.00037214    0.00021604   -0.00057922
     atom   12 type  2   force =     0.00000110    0.00000187    0.00093652

     Total force =     0.076350     Total SCF correction =     0.002307

     entering subroutine stress ...

     negative rho (up, down):  4.498E-03 0.000E+00
          total   stress  (Ry/bohr**3)                   (kbar)     P=  -12.65
  -0.00010379   0.00000000   0.00000000        -15.27      0.00      0.00
   0.00000000  -0.00010380  -0.00000000          0.00    -15.27     -0.00
   0.00000000  -0.00000000  -0.00005036          0.00     -0.00     -7.41

 !ASE

     Writing output data file calc.save

     General routines

     Parallel routines

   This run was terminated on:  18:56:48  30Dec2018

   JOB DONE.
Job  /afs/slac/g/suncat/bin/suncat-tsmpirun -x LD_LIBRARY_PATH -wdir /scratch/qe648586_SZcM0 pw.x -in pw.inp

TID   HOST_NAME   COMMAND_LINE            STATUS            TERMINATION_TIME
00000 suncat0092 pw.x -in pw.inp   Done                     12/30/2018 18:56:48
00001 suncat0092 pw.x -in pw.inp   Done                     12/30/2018 18:56:48
00002 suncat0092 pw.x -in pw.inp   Done                     12/30/2018 18:56:48
00003 suncat0092 pw.x -in pw.inp   Done                     12/30/2018 18:56:48
00004 suncat0092 pw.x -in pw.inp   Done                     12/30/2018 18:56:48
00005 suncat0092 pw.x -in pw.inp   Done                     12/30/2018 18:56:48
00006 suncat0092 pw.x -in pw.inp   Done                     12/30/2018 18:56:48
00007 suncat0092 pw.x -in pw.inp   Done                     12/30/2018 18:56:48
00008 suncat0091 pw.x -in pw.inp   Done                     12/30/2018 18:56:48
00009 suncat0091 pw.x -in pw.inp   Done                     12/30/2018 18:56:48
00010 suncat0091 pw.x -in pw.inp   Done                     12/30/2018 18:56:48
00011 suncat0091 pw.x -in pw.inp   Done                     12/30/2018 18:56:48
00012 suncat0091 pw.x -in pw.inp   Done                     12/30/2018 18:56:48
00013 suncat0091 pw.x -in pw.inp   Done                     12/30/2018 18:56:48
00014 suncat0091 pw.x -in pw.inp   Done                     12/30/2018 18:56:48
00015 suncat0091 pw.x -in pw.inp   Done                     12/30/2018 18:56:48
00016 suncat0089 pw.x -in pw.inp   Done                     12/30/2018 18:56:48
00017 suncat0089 pw.x -in pw.inp   Done                     12/30/2018 18:56:48
00018 suncat0089 pw.x -in pw.inp   Done                     12/30/2018 18:56:48
00019 suncat0089 pw.x -in pw.inp   Done                     12/30/2018 18:56:48
00020 suncat0089 pw.x -in pw.inp   Done                     12/30/2018 18:56:48
00021 suncat0089 pw.x -in pw.inp   Done                     12/30/2018 18:56:48
00022 suncat0089 pw.x -in pw.inp   Done                     12/30/2018 18:56:48
00023 suncat0089 pw.x -in pw.inp   Done                     12/30/2018 18:56:48
00024 suncat0085 pw.x -in pw.inp   Done                     12/30/2018 18:56:48
00025 suncat0085 pw.x -in pw.inp   Done                     12/30/2018 18:56:48
00026 suncat0085 pw.x -in pw.inp   Done                     12/30/2018 18:56:48
00027 suncat0085 pw.x -in pw.inp   Done                     12/30/2018 18:56:48
00028 suncat0085 pw.x -in pw.inp   Done                     12/30/2018 18:56:48
00029 suncat0085 pw.x -in pw.inp   Done                     12/30/2018 18:56:48
00030 suncat0085 pw.x -in pw.inp   Done                     12/30/2018 18:56:48
00031 suncat0085 pw.x -in pw.inp   Done                     12/30/2018 18:56:48
00032 suncat0139 pw.x -in pw.inp   Done                     12/30/2018 18:56:48
00033 suncat0139 pw.x -in pw.inp   Done                     12/30/2018 18:56:48
00034 suncat0139 pw.x -in pw.inp   Done                     12/30/2018 18:56:48
00035 suncat0139 pw.x -in pw.inp   Done                     12/30/2018 18:56:48
00036 suncat0139 pw.x -in pw.inp   Done                     12/30/2018 18:56:48
00037 suncat0139 pw.x -in pw.inp   Done                     12/30/2018 18:56:48
00038 suncat0139 pw.x -in pw.inp   Done                     12/30/2018 18:56:48
00039 suncat0139 pw.x -in pw.inp   Done                     12/30/2018 18:56:48
00040 suncat0124 pw.x -in pw.inp   Done                     12/30/2018 18:56:48
00041 suncat0124 pw.x -in pw.inp   Done                     12/30/2018 18:56:48
00042 suncat0124 pw.x -in pw.inp   Done                     12/30/2018 18:56:48
00043 suncat0124 pw.x -in pw.inp   Done                     12/30/2018 18:56:48
00044 suncat0124 pw.x -in pw.inp   Done                     12/30/2018 18:56:48
00045 suncat0124 pw.x -in pw.inp   Done                     12/30/2018 18:56:48
00046 suncat0124 pw.x -in pw.inp   Done                     12/30/2018 18:56:48
00047 suncat0124 pw.x -in pw.inp   Done                     12/30/2018 18:56:48
00048 suncat0123 pw.x -in pw.inp   Done                     12/30/2018 18:56:48
00049 suncat0123 pw.x -in pw.inp   Done                     12/30/2018 18:56:48
00050 suncat0123 pw.x -in pw.inp   Done                     12/30/2018 18:56:48
00051 suncat0123 pw.x -in pw.inp   Done                     12/30/2018 18:56:48
00052 suncat0123 pw.x -in pw.inp   Done                     12/30/2018 18:56:48
00053 suncat0123 pw.x -in pw.inp   Done                     12/30/2018 18:56:48
00054 suncat0123 pw.x -in pw.inp   Done                     12/30/2018 18:56:48
00055 suncat0123 pw.x -in pw.inp   Done                     12/30/2018 18:56:48
00056 suncat0122 pw.x -in pw.inp   Done                     12/30/2018 18:56:48
00057 suncat0122 pw.x -in pw.inp   Done                     12/30/2018 18:56:48
00058 suncat0122 pw.x -in pw.inp   Done                     12/30/2018 18:56:48
00059 suncat0122 pw.x -in pw.inp   Done                     12/30/2018 18:56:48
00060 suncat0122 pw.x -in pw.inp   Done                     12/30/2018 18:56:48
00061 suncat0122 pw.x -in pw.inp   Done                     12/30/2018 18:56:48
00062 suncat0122 pw.x -in pw.inp   Done                     12/30/2018 18:56:48
00063 suncat0122 pw.x -in pw.inp   Done                     12/30/2018 18:56:48