     Program PWSCF v.5.1rc2 (svn rev. 11289) starts on 27Dec2018 at  3:57: 4

     Current dimensions of program PWSCF are:
     Max number of different atomic species (ntypx) = 10
     Max number of k-points (npk) =  40000
     Max angular momentum in pseudopotentials (lmaxx) =  3
     Presently stress not available with electric field

     IMPORTANT: XC functional enforced from input :
     Exchange-correlation      = BEEF-VDW ( 1  4 27 13 2)
     Any further DFT definition will be discarded
     Please, verify this is what you really want

     Subspace diagonalization in iterative solution of the eigenvalue problem:
     a serial algorithm will be used

     bravais-lattice index     =            0
     lattice parameter (alat)  =       1.8897  a.u.
     unit-cell volume          =    4504.6338 (a.u.)^3
     number of atoms/cell      =           12
     number of atomic types    =            2
     number of electrons       =       174.00
     number of Kohn-Sham states=          117
     kinetic-energy cutoff     =      36.7493  Ry
     charge density cutoff     =     367.4932  Ry
     convergence threshold     =      1.0E-06
     mixing beta               =       0.1000
     number of iterations used =           10  plain     mixing
     Exchange-correlation      = BEEF-VDW ( 1  4 27 13 2)
     nstep                     =           50

     celldm(1)=   1.889726  celldm(2)=   0.000000  celldm(3)=   0.000000
     celldm(4)=   0.000000  celldm(5)=   0.000000  celldm(6)=   0.000000

     crystal axes: (cart. coord. in units of alat)
               a(1) = (   5.600643   0.000000   0.000000 )
               a(2) = (  -2.800321   4.850299   0.000000 )
               a(3) = (   0.000000   0.000000  24.572906 )

     reciprocal axes: (cart. coord. in units 2 pi/alat)
               b(1) = (  0.178551  0.103086  0.000000 )
               b(2) = (  0.000000  0.206173  0.000000 )
               b(3) = (  0.000000  0.000000  0.040695 )

     PseudoPot. # 1 for Mo read from file:
     /afs/slac.stanford.edu/u/if/mamunm/psp/gbrv1.5pbe/Mo.UPF
     MD5 check sum: 30c4dcd161f5d35cd49bb5239c51a633
     Pseudo is Ultrasoft + core correction, Zval = 14.0
     Generated by new atomic code, or converted to UPF format
     Using radial grid of  889 points,  6 beta functions with:
                l(1) =   0
                l(2) =   0
                l(3) =   1
                l(4) =   1
                l(5) =   2
                l(6) =   2
     Q(r) pseudized with  6 coefficients,  rinner =    1.000   1.000   1.000
                                                       1.000   1.000

     PseudoPot. # 2 for Ru read from file:
     /afs/slac.stanford.edu/u/if/mamunm/psp/gbrv1.5pbe/Ru.UPF
     MD5 check sum: 7158a806dd851261a58e6920c40ebe78
     Pseudo is Ultrasoft + core correction, Zval = 16.0
     Generated by new atomic code, or converted to UPF format
     Using radial grid of  967 points,  6 beta functions with:
                l(1) =   0
                l(2) =   0
                l(3) =   1
                l(4) =   1
                l(5) =   2
                l(6) =   2
     Q(r) pseudized with  8 coefficients,  rinner =    1.300   1.300   1.300
                                                       1.300   1.300

     vdW kernel table read from file vdW_kernel_table
     MD5 check sum: 095c7af220d748ca6e76c0b4c6cfb241

     atomic species   valence    mass     pseudopotential
        Mo1           14.00    95.95000     Mo( 1.00)
        Ru1           16.00   101.07000     Ru( 1.00)

     No symmetry found

   Cartesian axes

     site n.     atom                  positions (alat units)
         1           Mo1 tau(   1) = (   0.0000000   0.0000000  10.0000000  )
         2           Mo1 tau(   2) = (  -1.4001607   2.4251495  10.0000000  )
         3           Mo1 tau(   3) = (   1.4001607   2.4251495  10.0000000  )
         4           Ru1 tau(   4) = (   2.8003214   0.0000000  10.0000000  )
         5           Mo1 tau(   5) = (   2.8003214   1.6167663  12.2864528  )
         6           Mo1 tau(   6) = (   1.4001607   4.0419158  12.2864528  )
         7           Mo1 tau(   7) = (  -1.4001607   4.0419158  12.2864528  )
         8           Ru1 tau(   8) = (   0.0000000   1.6167663  12.2864528  )
         9           Mo1 tau(   9) = (  -0.0000000   3.2335326  14.5729057  )
        10           Mo1 tau(  10) = (   1.4001607   0.8083832  14.5729057  )
        11           Mo1 tau(  11) = (   4.2004821   0.8083832  14.5729057  )
        12           Ru1 tau(  12) = (   2.8003214   3.2335326  14.5729057  )

     number of k points=    20  Fermi-Dirac smearing, width (Ry)=  0.0110
                       cart. coord. in units 2pi/alat
        k(    1) = (   0.0000000   0.0000000   0.0000000), wk =   0.0555556
        k(    2) = (   0.0000000   0.0343621   0.0000000), wk =   0.1111111
        k(    3) = (   0.0000000   0.0687243   0.0000000), wk =   0.1111111
        k(    4) = (   0.0000000  -0.1030864   0.0000000), wk =   0.0555556
        k(    5) = (   0.0297585   0.0171811   0.0000000), wk =   0.1111111
        k(    6) = (   0.0297585   0.0515432   0.0000000), wk =   0.1111111
        k(    7) = (   0.0297585   0.0859054   0.0000000), wk =   0.1111111
        k(    8) = (   0.0297585  -0.0859054   0.0000000), wk =   0.1111111
        k(    9) = (   0.0297585  -0.0515432   0.0000000), wk =   0.1111111
        k(   10) = (   0.0297585  -0.0171811   0.0000000), wk =   0.1111111
        k(   11) = (   0.0595170   0.0343621   0.0000000), wk =   0.1111111
        k(   12) = (   0.0595170   0.0687243   0.0000000), wk =   0.1111111
        k(   13) = (   0.0595170   0.1030864   0.0000000), wk =   0.1111111
        k(   14) = (   0.0595170  -0.0687243   0.0000000), wk =   0.1111111
        k(   15) = (   0.0595170  -0.0343621   0.0000000), wk =   0.1111111
        k(   16) = (   0.0595170   0.0000000   0.0000000), wk =   0.1111111
        k(   17) = (  -0.0892755  -0.0515432   0.0000000), wk =   0.0555556
        k(   18) = (  -0.0892755  -0.0171811   0.0000000), wk =   0.1111111
        k(   19) = (  -0.0892755   0.0171811   0.0000000), wk =   0.1111111
        k(   20) = (  -0.0892755  -0.1546296   0.0000000), wk =   0.0555556

     Largest allocated arrays     est. size (Mb)     dimensions
     Largest temporary arrays     est. size (Mb)     dimensions

     Initial potential from superposition of free atoms
     Check: negative starting charge=   -0.224378

     starting charge  170.99038, renormalised to  174.00000

     negative rho (up, down):  2.283E-01 0.000E+00

     *
     * You are using vdW-DF for exchange-correlation in this calculation.
     * Please cite the following three references that made this development
     * possible:
     *
     *   M. Dion, H. Rydberg, E. Schroder, D. C. Langreth, and
     *   B. I. Lundqvist, Phys. Rev. Lett. 92, 246401 (2004).
     *
     *   T. Thonhauser, V. R. Cooper, S. Li, A. Puzder, P. Hyldgaard, and
     *   D. C. Langreth, Phys. Rev. B 76, 125112 (2007).
     *
     *   G. Roman-Perez and J. M. Soler, Phys. Rev. Lett. 103, 096102 (2009).
     *
     *
     * If you are using vdW-DF2, please also cite:
     *
     *   K. Lee, E. D. Murray, L. Kong, B. I. Lundqvist, and
     *   D. C. Langreth, Phys. Rev. B 82, 081101(R) (2010).
     *
     *
     * If you are calculating the stress with vdW-DF, please also cite:
     *
     *   R. Sabatini, E. Kucukbenli, B. Kolb, T. Thonhauser, and
     *   S. de Gironcoli, J. Phys.: Condens. Matter 24, 424209 (2012).
     *

     Carrying out vdW-DF run using the following parameters:

     Nqs =      20    Nr_points =    1024   r_max =   100.000
     q_mesh =
               0.00001000     0.04494208     0.09755937     0.15916263
               0.23128650     0.31572767     0.41458969     0.53033537
               0.66584808     0.82450364     1.01025438     1.22772762
               1.48234092     1.78043706     2.12944203     2.53805004
               3.01644009     3.57652955     4.23227104     5.00000000

     Gradients computed in reciprocal space

     Adding external electric field

     Computed dipole along edir(3) :
        Dipole               -0.0000 Ry au,         -0.0000 Debye
        Dipole field         -0.0000 Ry au

        Potential amp.        0.0000 Ry
        Total length         45.2752 bohr

     Starting wfc are  156 randomized atomic wfcs

     Self-consistent Calculation

     iteration #  1     ecut=    36.75 Ry     beta=0.10
     Davidson diagonalization with overlap
     ethr =  1.00E-02,  avg # of iterations =  2.0

[...]

     total energy              =   -1844.65404750 Ry
     Harris-Foulkes estimate   =   -1845.49990317 Ry
     estimated scf accuracy    <       4.96215856 Ry

[...]

     End of self-consistent calculation

          k = 0.0000 0.0000 0.0000 ( 16883 PWs)   bands (ev):

   -70.4520 -70.1942 -70.1939 -58.8475 -58.7874 -58.7324 -58.6968 -58.6968
   -58.6666 -58.6665 -58.6405 -58.6404 -40.4507 -40.3976 -40.3976 -40.1823
   -40.1759 -40.1542 -40.1542 -40.1525 -40.1525 -33.4302 -33.2365 -33.2272
   -33.1154 -33.1154 -33.1018 -33.0520 -33.0520 -32.9301 -32.9301 -32.8915
   -32.7725 -32.7725 -32.7231 -32.7231 -32.5980 -32.4895 -32.4806 -32.4806
   -32.4790 -32.3786 -32.3566 -32.3566 -32.2909 -32.2909 -32.2828 -32.2828
    -3.8315  -2.4878  -2.3883  -2.3827  -2.3827  -2.3607  -1.9920  -1.9514
    -1.9514  -1.7795  -1.7681  -1.7681  -1.5060  -1.5060  -1.4567  -0.4147
    -0.4147  -0.2498   0.3725   0.3725   0.4909   0.6515   0.7907   1.1985
     1.1985   1.3849   1.3849   1.4114   1.4114   1.6128   1.6128   1.6147
     1.8973   2.0888   2.1121   2.1121   2.7640   2.7640   2.8641   3.1179
     3.1179   3.3208   3.3208   3.3222   3.5114   3.9907   4.1954   4.1954
     4.5803   4.5803   4.8056   4.8056   4.8863   4.9128   4.9128   5.1196
     5.1196   5.4241   5.4560   5.4560   5.5942   5.5942   5.7796   5.7796
     6.2894   6.3073   6.4648   6.5260   6.6082

[...]

          k =-0.0893-0.0515 0.0000 ( 16960 PWs)   bands (ev):

[...]

     the Fermi energy is     2.2765 ev

!    total energy              =   -1844.79642871 Ry
     Harris-Foulkes estimate   =   -1844.79642877 Ry
     estimated scf accuracy    <       0.00000040 Ry

     The total energy is the sum of the following terms:

     one-electron contribution =  -16518.97377070 Ry
     hartree contribution      =    8254.66594214 Ry
     xc contribution           =    -260.32581269 Ry
     ewald contribution        =    6679.92099335 Ry
     electric field correction =       0.00000001 Ry
     smearing contrib. (-TS)   =      -0.08378082 Ry

     convergence has been achieved in  17 iterations

 BEEF-vdW xc energy contributions
           1 :   -224.249437202707
           2 :    205.160895198342
           3 :   -172.345115879893
           4 :    134.332097423252
           5 :   -99.7231419300160
           6 :    74.4385232563366
           7 :   -60.3399586376665
           8 :    55.4972245845927
           9 :   -55.7398522152406
          10 :    56.6671184244961
          11 :   -55.2917957153425
          12 :    50.7657414406594
          13 :   -44.1167762160665
          14 :    37.2966738030863
[...]
     PseudoPot. # 1 for Mo read from file:
     /afs/slac.stanford.edu/u/if/mamunm/psp/gbrv1.5pbe/Mo.UPF
     MD5 check sum: 30c4dcd161f5d35cd49bb5239c51a633
     Pseudo is Ultrasoft + core correction, Zval = 14.0
     Generated by new atomic code, or converted to UPF format
     Using radial grid of  889 points,  6 beta functions with:
                l(1) =   0
                l(2) =   0
                l(3) =   1
                l(4) =   1
                l(5) =   2
                l(6) =   2
     Q(r) pseudized with  6 coefficients,  rinner =    1.000   1.000   1.000
                                                       1.000   1.000

     PseudoPot. # 2 for Ru read from file:
     /afs/slac.stanford.edu/u/if/mamunm/psp/gbrv1.5pbe/Ru.UPF
     MD5 check sum: 7158a806dd851261a58e6920c40ebe78
     Pseudo is Ultrasoft + core correction, Zval = 16.0
     Generated by new atomic code, or converted to UPF format
     Using radial grid of  967 points,  6 beta functions with:
                l(1) =   0
                l(2) =   0
                l(3) =   1
                l(4) =   1
                l(5) =   2
                l(6) =   2
     Q(r) pseudized with  8 coefficients,  rinner =    1.300   1.300   1.300
                                                       1.300   1.300

     vdW kernel table read from file vdW_kernel_table
     MD5 check sum: 095c7af220d748ca6e76c0b4c6cfb241

     atomic species   valence    mass     pseudopotential
        Mo1           14.00    95.95000     Mo( 1.00)
        Ru1           16.00   101.07000     Ru( 1.00)

     No symmetry found

   Cartesian axes

     site n.     atom                  positions (alat units)
         1           Mo1 tau(   1) = (   0.0000000   0.0000000  10.0000000  )
         2           Mo1 tau(   2) = (  -1.4001607   2.4251495  10.0000000  )
         3           Mo1 tau(   3) = (   1.4001607   2.4251495  10.0000000  )
         4           Ru1 tau(   4) = (   2.8003214   0.0000000  10.0000000  )
         5           Mo1 tau(   5) = (   2.8003214   1.6167663  12.2864528  )
         6           Mo1 tau(   6) = (   1.4001607   4.0419158  12.2864528  )
         7           Mo1 tau(   7) = (  -1.4001607   4.0419158  12.2864528  )
         8           Ru1 tau(   8) = (   0.0000000   1.6167663  12.2864528  )
         9           Mo1 tau(   9) = (   0.0000002   3.2202849  14.4563165  )
        10           Mo1 tau(  10) = (   1.3886886   0.8150070  14.4563169  )
        11           Mo1 tau(  11) = (   4.2119551   0.8150066  14.4563164  )
        12           Ru1 tau(  12) = (   2.8003222   3.2335328  14.5163430  )

     number of k points=    20  Fermi-Dirac smearing, width (Ry)=  0.0110
                       cart. coord. in units 2pi/alat
        k(    1) = (   0.0000000   0.0000000   0.0000000), wk =   0.0555556
        k(    2) = (   0.0000000   0.0343621   0.0000000), wk =   0.1111111
        k(    3) = (   0.0000000   0.0687243   0.0000000), wk =   0.1111111
        k(    4) = (   0.0000000  -0.1030864   0.0000000), wk =   0.0555556
        k(    5) = (   0.0297585   0.0171811   0.0000000), wk =   0.1111111
        k(    6) = (   0.0297585   0.0515432   0.0000000), wk =   0.1111111
        k(    7) = (   0.0297585   0.0859054   0.0000000), wk =   0.1111111
        k(    8) = (   0.0297585  -0.0859054   0.0000000), wk =   0.1111111
        k(    9) = (   0.0297585  -0.0515432   0.0000000), wk =   0.1111111
        k(   10) = (   0.0297585  -0.0171811   0.0000000), wk =   0.1111111
        k(   11) = (   0.0595170   0.0343621   0.0000000), wk =   0.1111111
        k(   12) = (   0.0595170   0.0687243   0.0000000), wk =   0.1111111
        k(   13) = (   0.0595170   0.1030864   0.0000000), wk =   0.1111111
        k(   14) = (   0.0595170  -0.0687243   0.0000000), wk =   0.1111111
        k(   15) = (   0.0595170  -0.0343621   0.0000000), wk =   0.1111111
        k(   16) = (   0.0595170   0.0000000   0.0000000), wk =   0.1111111
        k(   17) = (  -0.0892755  -0.0515432   0.0000000), wk =   0.0555556
        k(   18) = (  -0.0892755  -0.0171811   0.0000000), wk =   0.1111111
        k(   19) = (  -0.0892755   0.0171811   0.0000000), wk =   0.1111111
        k(   20) = (  -0.0892755  -0.1546296   0.0000000), wk =   0.0555556

     Largest allocated arrays     est. size (Mb)     dimensions
     Largest temporary arrays     est. size (Mb)     dimensions

     Initial potential from superposition of free atoms
     Check: negative starting charge=   -0.223415

     starting charge  170.99038, renormalised to  174.00000

[...]

     *
     * You are using vdW-DF for exchange-correlation in this calculation.
     * Please cite the following three references that made this development
     * possible:
     *
     *   M. Dion, H. Rydberg, E. Schroder, D. C. Langreth, and
     *   B. I. Lundqvist, Phys. Rev. Lett. 92, 246401 (2004).
     *
     *   T. Thonhauser, V. R. Cooper, S. Li, A. Puzder, P. Hyldgaard, and
     *   D. C. Langreth, Phys. Rev. B 76, 125112 (2007).
     *
     *   G. Roman-Perez and J. M. Soler, Phys. Rev. Lett. 103, 096102 (2009).
     *
     *
     * If you are using vdW-DF2, please also cite:
     *
     *   K. Lee, E. D. Murray, L. Kong, B. I. Lundqvist, and
     *   D. C. Langreth, Phys. Rev. B 82, 081101(R) (2010).
     *
     *
     * If you are calculating the stress with vdW-DF, please also cite:
     *
     *   R. Sabatini, E. Kucukbenli, B. Kolb, T. Thonhauser, and
     *   S. de Gironcoli, J. Phys.: Condens. Matter 24, 424209 (2012).
     *

     Carrying out vdW-DF run using the following parameters:

     Nqs =      20    Nr_points =    1024   r_max =   100.000
     q_mesh =
               0.00001000     0.04494208     0.09755937     0.15916263
               0.23128650     0.31572767     0.41458969     0.53033537
               0.66584808     0.82450364     1.01025438     1.22772762
               1.48234092     1.78043706     2.12944203     2.53805004
               3.01644009     3.57652955     4.23227104     5.00000000

     Gradients computed in reciprocal space

[...]

     Starting wfc are  156 randomized atomic wfcs

     Self-consistent Calculation

[...]

     total energy              =   -1844.80860067 Ry
     Harris-Foulkes estimate   =   -1844.80860062 Ry
     estimated scf accuracy    <       0.00000299 Ry

     iteration # 18     ecut=    36.75 Ry     beta=0.10
     Davidson diagonalization with overlap
     ethr =  6.62E-10,  avg # of iterations =  1.0

[...]

     negative rho (up, down):  2.338E-01 0.000E+00

     Adding external electric field

     Computed dipole along edir(3) :
        Dipole                0.0320 Ry au,          0.0815 Debye
        Dipole field          0.0001 Ry au

        Potential amp.       -0.0081 Ry
        Total length         45.2752 bohr

     End of self-consistent calculation

[...]

          k = 0.0595 0.0000 0.0000 ( 16946 PWs)   bands (ev):

[...]

          k =-0.0893-0.1546 0.0000 ( 16960 PWs)   bands (ev):

   -70.4594 -70.1928 -70.1352 -58.7818 -58.7488 -58.7058 -58.6930 -58.6722
   -58.6225 -58.6072 -58.5783 -58.5472 -40.4710 -40.4124 -40.4064 -40.1775
   -40.1488 -40.1428 -40.1177 -40.1042 -40.0982 -33.2370 -33.1837 -33.0833
   -33.0282 -32.9943 -32.9405 -32.9178 -32.9087 -32.8437 -32.7964 -32.7886
   -32.7512 -32.7108 -32.6966 -32.6937 -32.6905 -32.6629 -32.6202 -32.5413
   -32.5223 -32.4907 -32.3767 -32.3683 -32.3363 -32.3110 -32.2951 -32.2226
    -2.3069  -2.2388  -1.6121  -1.5546  -1.5417  -1.4006  -1.2361  -1.2153
    -1.1546  -0.9297  -0.8989  -0.7595  -0.6879  -0.5460  -0.4778  -0.4363
    -0.1726   0.0281   0.0472   0.0699   0.3443   0.4430   0.6422   0.7862
     0.7942   0.8716   0.9126   1.1132   1.1952   1.2118   1.3741   1.4616
     1.4818   1.4925   1.5772   1.6188   1.6647   1.7540   1.7926   1.9162
     2.3876   2.4539   2.6391   2.8541   2.8601   3.0520   3.0773   3.1616
     3.3220   3.4408   3.5980   3.7237   3.7960   3.8401   3.9641   4.0792
     4.2603   4.6037   4.6211   4.7694   5.2096   5.4314   5.5544   5.7600
     5.9823   6.2268   7.2424   7.3984   7.5057

     the Fermi energy is     2.2850 ev

!    total energy              =   -1844.80860120 Ry
     Harris-Foulkes estimate   =   -1844.80859988 Ry
     estimated scf accuracy    <       0.00000081 Ry

     The total energy is the sum of the following terms:

     one-electron contribution =  -16756.31844425 Ry
     hartree contribution      =    8373.53357860 Ry
     xc contribution           =    -260.56902062 Ry
     ewald contribution        =    6798.62446219 Ry
     electric field correction =       0.00000286 Ry
     smearing contrib. (-TS)   =      -0.07917999 Ry

     convergence has been achieved in  18 iterations

 BEEF-vdW xc energy contributions
           1 :   -224.535440740189
           2 :    205.525867047549
           3 :   -172.815252607683
           4 :    134.855943527255
           5 :   -100.190040270420
           6 :    74.7325710942804
           7 :   -60.4028099245870
           8 :    55.3656768746054
           9 :   -55.5347297531208
          10 :    56.5371317649884
          11 :   -55.3417318375022
          12 :    51.0060407390197
          13 :   -44.4599210636782
          14 :    37.6022740327909
          15 :   -32.2095708895272
          16 :    29.1217679501165
          17 :   -28.0000853061140
          18 :    27.6621809944865
          19 :   -26.7661298745752
          20 :    24.4775705864373
          21 :   -20.8122622233613
          22 :    16.5257892653593
          23 :   -12.6608397205392
          24 :    10.0056715992745
          25 :   -8.73609001962109
          26 :    8.38853509027780
          27 :   -8.14355677171039
          28 :    7.25012395759410
          29 :   -5.37782401345046
          30 :    2.73471219842074
          31 :   -24.8546914532683
          32 :   -19.0122561466846

     Forces acting on atoms (Ry/au):

     negative rho (up, down):  2.338E-01 0.000E+00
     atom    1 type  1   force =    -0.00000003    0.00696808    0.02503912
     atom    2 type  1   force =     0.00603479   -0.00348398    0.02503943
     atom    3 type  1   force =    -0.00603478   -0.00348420    0.02503934
     atom    4 type  2   force =    -0.00000032    0.00000014    0.00507870
     atom    5 type  1   force =     0.00000002    0.00270464   -0.01739407
     atom    6 type  1   force =     0.00234241   -0.00135239   -0.01739409
     atom    7 type  1   force =    -0.00234230   -0.00135239   -0.01739401
     atom    8 type  2   force =     0.00000046    0.00000025   -0.02741083
     atom    9 type  1   force =    -0.00000001   -0.00012869   -0.00009261
     atom   10 type  1   force =    -0.00011148    0.00006429   -0.00009247
     atom   11 type  1   force =     0.00011130    0.00006438   -0.00009225
     atom   12 type  2   force =    -0.00000005   -0.00000014   -0.00032625

     Total force =     0.061102     Total SCF correction =     0.005389

     entering subroutine stress ...

     negative rho (up, down):  2.338E-01 0.000E+00
          total   stress  (Ry/bohr**3)                   (kbar)     P=  -23.43
  -0.00019917   0.00000000  -0.00000000        -29.30      0.00     -0.00
   0.00000000  -0.00019917  -0.00000000          0.00    -29.30     -0.00
  -0.00000000  -0.00000000  -0.00007953         -0.00     -0.00    -11.70

 !ASE

     Writing output data file calc.save

     General routines

     Parallel routines

   This run was terminated on:   4:45:20  27Dec2018

   JOB DONE.
Job  /afs/slac/g/suncat/bin/suncat-tsmpirun -x LD_LIBRARY_PATH -wdir /scratch/qe110149_mqPAM pw.x -in pw.inp

TID   HOST_NAME   COMMAND_LINE            STATUS            TERMINATION_TIME
00000 suncat0083 pw.x -in pw.inp   Done                     12/27/2018 04:45:20
00001 suncat0083 pw.x -in pw.inp   Done                     12/27/2018 04:45:20
00002 suncat0083 pw.x -in pw.inp   Done                     12/27/2018 04:45:20
00003 suncat0083 pw.x -in pw.inp   Done                     12/27/2018 04:45:20
00004 suncat0083 pw.x -in pw.inp   Done                     12/27/2018 04:45:20
00005 suncat0083 pw.x -in pw.inp   Done                     12/27/2018 04:45:20
00006 suncat0083 pw.x -in pw.inp   Done                     12/27/2018 04:45:20
00007 suncat0083 pw.x -in pw.inp   Done                     12/27/2018 04:45:20
00008 suncat0081 pw.x -in pw.inp   Done                     12/27/2018 04:45:20
00009 suncat0081 pw.x -in pw.inp   Done                     12/27/2018 04:45:20
00010 suncat0081 pw.x -in pw.inp   Done                     12/27/2018 04:45:20
00011 suncat0081 pw.x -in pw.inp   Done                     12/27/2018 04:45:20
00012 suncat0081 pw.x -in pw.inp   Done                     12/27/2018 04:45:20
00013 suncat0081 pw.x -in pw.inp   Done                     12/27/2018 04:45:20
00014 suncat0081 pw.x -in pw.inp   Done                     12/27/2018 04:45:20
00015 suncat0081 pw.x -in pw.inp   Done                     12/27/2018 04:45:20
00016 suncat0076 pw.x -in pw.inp   Done                     12/27/2018 04:45:20
00017 suncat0076 pw.x -in pw.inp   Done                     12/27/2018 04:45:20
00018 suncat0076 pw.x -in pw.inp   Done                     12/27/2018 04:45:20
00019 suncat0076 pw.x -in pw.inp   Done                     12/27/2018 04:45:20
00020 suncat0076 pw.x -in pw.inp   Done                     12/27/2018 04:45:20
00021 suncat0076 pw.x -in pw.inp   Done                     12/27/2018 04:45:20
00022 suncat0076 pw.x -in pw.inp   Done                     12/27/2018 04:45:20
00023 suncat0076 pw.x -in pw.inp   Done                     12/27/2018 04:45:20
00024 suncat0041 pw.x -in pw.inp   Done                     12/27/2018 04:45:20
00025 suncat0041 pw.x -in pw.inp   Done                     12/27/2018 04:45:20
00026 suncat0041 pw.x -in pw.inp   Done                     12/27/2018 04:45:20
00027 suncat0041 pw.x -in pw.inp   Done                     12/27/2018 04:45:20
00028 suncat0041 pw.x -in pw.inp   Done                     12/27/2018 04:45:20
00029 suncat0041 pw.x -in pw.inp   Done                     12/27/2018 04:45:20
00030 suncat0041 pw.x -in pw.inp   Done                     12/27/2018 04:45:20
00031 suncat0041 pw.x -in pw.inp   Done                     12/27/2018 04:45:20
00032 suncat0039 pw.x -in pw.inp   Done                     12/27/2018 04:45:20
00033 suncat0039 pw.x -in pw.inp   Done                     12/27/2018 04:45:20
00034 suncat0039 pw.x -in pw.inp   Done                     12/27/2018 04:45:20
00035 suncat0039 pw.x -in pw.inp   Done                     12/27/2018 04:45:20
00036 suncat0039 pw.x -in pw.inp   Done                     12/27/2018 04:45:20
00037 suncat0039 pw.x -in pw.inp   Done                     12/27/2018 04:45:20
00038 suncat0039 pw.x -in pw.inp   Done                     12/27/2018 04:45:20
00039 suncat0039 pw.x -in pw.inp   Done                     12/27/2018 04:45:20
00040 suncat0034 pw.x -in pw.inp   Done                     12/27/2018 04:45:20
00041 suncat0034 pw.x -in pw.inp   Done                     12/27/2018 04:45:20
00042 suncat0034 pw.x -in pw.inp   Done                     12/27/2018 04:45:20
00043 suncat0034 pw.x -in pw.inp   Done                     12/27/2018 04:45:20
00044 suncat0034 pw.x -in pw.inp   Done                     12/27/2018 04:45:20
00045 suncat0034 pw.x -in pw.inp   Done                     12/27/2018 04:45:20
00046 suncat0034 pw.x -in pw.inp   Done                     12/27/2018 04:45:20
00047 suncat0034 pw.x -in pw.inp   Done                     12/27/2018 04:45:20
00048 suncat0029 pw.x -in pw.inp   Done                     12/27/2018 04:45:20
00049 suncat0029 pw.x -in pw.inp   Done                     12/27/2018 04:45:20
00050 suncat0029 pw.x -in pw.inp   Done                     12/27/2018 04:45:20
00051 suncat0029 pw.x -in pw.inp   Done                     12/27/2018 04:45:20
00052 suncat0029 pw.x -in pw.inp   Done                     12/27/2018 04:45:20
00053 suncat0029 pw.x -in pw.inp   Done                     12/27/2018 04:45:20
00054 suncat0029 pw.x -in pw.inp   Done                     12/27/2018 04:45:20
00055 suncat0029 pw.x -in pw.inp   Done                     12/27/2018 04:45:20
00056 suncat0199 pw.x -in pw.inp   Done                     12/27/2018 04:45:20
00057 suncat0199 pw.x -in pw.inp   Done                     12/27/2018 04:45:20
00058 suncat0199 pw.x -in pw.inp   Done                     12/27/2018 04:45:20
00059 suncat0199 pw.x -in pw.inp   Done                     12/27/2018 04:45:20
00060 suncat0199 pw.x -in pw.inp   Done                     12/27/2018 04:45:20
00061 suncat0199 pw.x -in pw.inp   Done                     12/27/2018 04:45:20
00062 suncat0199 pw.x -in pw.inp   Done                     12/27/2018 04:45:20
00063 suncat0199 pw.x -in pw.inp   Done                     12/27/2018 04:45:20