     Program PWSCF v.5.1rc2 (svn rev. 11289) starts on  1Jan2019 at  0:34:34

     Current dimensions of program PWSCF are:
     Max number of different atomic species (ntypx) = 10
     Max number of k-points (npk) =  40000
     Max angular momentum in pseudopotentials (lmaxx) =  3
     Presently stress not available with electric field

     IMPORTANT: XC functional enforced from input :
     Exchange-correlation      = BEEF-VDW ( 1  4 27 13 2)
     Any further DFT definition will be discarded
     Please, verify this is what you really want

     Subspace diagonalization in iterative solution of the eigenvalue problem:
     a serial algorithm will be used

     bravais-lattice index     =            0
     lattice parameter (alat)  =       1.8897  a.u.
     unit-cell volume          =    4496.5271 (a.u.)^3
     number of atoms/cell      =           12
     number of atomic types    =            2
     number of electrons       =       180.00
     number of Kohn-Sham states=          120
     kinetic-energy cutoff     =      36.7493  Ry
     charge density cutoff     =     367.4932  Ry
     convergence threshold     =      1.0E-06
     mixing beta               =       0.1000
     number of iterations used =           10  plain     mixing
     Exchange-correlation      = BEEF-VDW ( 1  4 27 13 2)
     nstep                     =           50

     celldm(1)=   1.889726  celldm(2)=   0.000000  celldm(3)=   0.000000
     celldm(4)=   0.000000  celldm(5)=   0.000000  celldm(6)=   0.000000

     crystal axes: (cart. coord. in units of alat)
               a(1) = (   5.596030   0.000000   0.000000 )
               a(2) = (  -2.798015   4.846304   0.000000 )
               a(3) = (   0.000000   0.000000  24.569139 )

     reciprocal axes: (cart. coord. in units 2 pi/alat)
               b(1) = (  0.178698  0.103171  0.000000 )
               b(2) = (  0.000000  0.206343  0.000000 )
               b(3) = (  0.000000  0.000000  0.040701 )

     PseudoPot. # 1 for Ru read from file:
     /afs/slac.stanford.edu/u/if/mamunm/psp/gbrv1.5pbe/Ru.UPF
     MD5 check sum: 7158a806dd851261a58e6920c40ebe78
     Pseudo is Ultrasoft + core correction, Zval = 16.0
     Generated by new atomic code, or converted to UPF format
     Using radial grid of  967 points,  6 beta functions with:
                l(1) =   0
                l(2) =   0
                l(3) =   1
                l(4) =   1
                l(5) =   2
                l(6) =   2
     Q(r) pseudized with  8 coefficients,  rinner =    1.300   1.300   1.300
                                                       1.300   1.300

     PseudoPot. # 2 for Hf read from file:
     /afs/slac.stanford.edu/u/if/mamunm/psp/gbrv1.5pbe/Hf.UPF
     MD5 check sum: 8ee9378dfe14276e333edf04c5e4aa26
     Pseudo is Ultrasoft + core correction, Zval = 12.0
     Generated by new atomic code, or converted to UPF format
     Using radial grid of  921 points,  8 beta functions with:
                l(1) =   0
                l(2) =   0
                l(3) =   0
                l(4) =   1
                l(5) =   1
                l(6) =   2
                l(7) =   2
                l(8) =   3
     Q(r) pseudized with  6 coefficients,  rinner =    1.200   1.200   1.200
                                                       1.200   1.200   1.200
                                                       1.200

     vdW kernel table read from file vdW_kernel_table
     MD5 check sum: 095c7af220d748ca6e76c0b4c6cfb241

     atomic species   valence    mass     pseudopotential
        Ru1           16.00   101.07000     Ru( 1.00)
        Hf1           12.00   178.49000     Hf( 1.00)

     No symmetry found

   Cartesian axes

     site n.     atom                  positions (alat units)
         1           Ru1 tau(   1) = (   0.0000000   0.0000000  10.0000000  )
         2           Ru1 tau(   2) = (  -1.3990075   2.4231520  10.0000000  )
         3           Ru1 tau(   3) = (   1.3990075   2.4231520  10.0000000  )
         4           Hf1 tau(   4) = (   2.7980149   0.0000000  10.0000000  )
         5           Ru1 tau(   5) = (   2.7980149   1.6154347  12.2845696  )
         6           Ru1 tau(   6) = (   1.3990075   4.0385867  12.2845696  )
         7           Ru1 tau(   7) = (  -1.3990075   4.0385867  12.2845696  )
         8           Hf1 tau(   8) = (   0.0000000   1.6154347  12.2845696  )
         9           Ru1 tau(   9) = (  -0.0000000   3.2308693  14.5691392  )
        10           Ru1 tau(  10) = (   1.3990075   0.8077173  14.5691392  )
        11           Ru1 tau(  11) = (   4.1970224   0.8077173  14.5691392  )
        12           Hf1 tau(  12) = (   2.7980149   3.2308693  14.5691392  )

     number of k points=    20  Fermi-Dirac smearing, width (Ry)=  0.0110
                       cart. coord. in units 2pi/alat
        k(    1) = (   0.0000000   0.0000000   0.0000000), wk =   0.0555556
        k(    2) = (   0.0000000   0.0343905   0.0000000), wk =   0.1111111
        k(    3) = (   0.0000000   0.0687809   0.0000000), wk =   0.1111111
        k(    4) = (   0.0000000  -0.1031714   0.0000000), wk =   0.0555556
        k(    5) = (   0.0297830   0.0171952   0.0000000), wk =   0.1111111
        k(    6) = (   0.0297830   0.0515857   0.0000000), wk =   0.1111111
        k(    7) = (   0.0297830   0.0859762   0.0000000), wk =   0.1111111
        k(    8) = (   0.0297830  -0.0859762   0.0000000), wk =   0.1111111
        k(    9) = (   0.0297830  -0.0515857   0.0000000), wk =   0.1111111
        k(   10) = (   0.0297830  -0.0171952   0.0000000), wk =   0.1111111
        k(   11) = (   0.0595660   0.0343905   0.0000000), wk =   0.1111111
        k(   12) = (   0.0595660   0.0687809   0.0000000), wk =   0.1111111
        k(   13) = (   0.0595660   0.1031714   0.0000000), wk =   0.1111111
        k(   14) = (   0.0595660  -0.0687809   0.0000000), wk =   0.1111111
        k(   15) = (   0.0595660  -0.0343905   0.0000000), wk =   0.1111111
        k(   16) = (   0.0595660   0.0000000   0.0000000), wk =   0.1111111
        k(   17) = (  -0.0893491  -0.0515857   0.0000000), wk =   0.0555556
        k(   18) = (  -0.0893491  -0.0171952   0.0000000), wk =   0.1111111
        k(   19) = (  -0.0893491   0.0171952   0.0000000), wk =   0.1111111
        k(   20) = (  -0.0893491  -0.1547571   0.0000000), wk =   0.0555556

     Largest allocated arrays     est. size (Mb)     dimensions
     Largest temporary arrays     est. size (Mb)     dimensions

     Check: negative/imaginary core charge=   -0.000003    0.000000

     Initial potential from superposition of free atoms
     Check: negative starting charge=   -0.990725

     starting charge  164.99985, renormalised to  180.00000

     negative rho (up, down):  1.081E+00 0.000E+00

     *
     * You are using vdW-DF for exchange-correlation in this calculation.
     * Please cite the following three references that made this development
     * possible:
     *
     *   M. Dion, H. Rydberg, E. Schroder, D. C. Langreth, and
     *   B. I. Lundqvist, Phys. Rev. Lett. 92, 246401 (2004).
     *
     *   T. Thonhauser, V. R. Cooper, S. Li, A. Puzder, P. Hyldgaard, and
     *   D. C. Langreth, Phys. Rev. B 76, 125112 (2007).
     *
     *   G. Roman-Perez and J. M. Soler, Phys. Rev. Lett. 103, 096102 (2009).
     *
     *
     * If you are using vdW-DF2, please also cite:
     *
     *   K. Lee, E. D. Murray, L. Kong, B. I. Lundqvist, and
     *   D. C. Langreth, Phys. Rev. B 82, 081101(R) (2010).
     *
     *
     * If you are calculating the stress with vdW-DF, please also cite:
     *
     *   R. Sabatini, E. Kucukbenli, B. Kolb, T. Thonhauser, and
     *   S. de Gironcoli, J. Phys.: Condens. Matter 24, 424209 (2012).
     *

     Carrying out vdW-DF run using the following parameters:

     Nqs =      20    Nr_points =    1024   r_max =   100.000
     q_mesh =
               0.00001000     0.04494208     0.09755937     0.15916263
               0.23128650     0.31572767     0.41458969     0.53033537
               0.66584808     0.82450364     1.01025438     1.22772762
               1.48234092     1.78043706     2.12944203     2.53805004
               3.01644009     3.57652955     4.23227104     5.00000000

     Gradients computed in reciprocal space

     Adding external electric field

     Computed dipole along edir(3) :
        Dipole                0.0000 Ry au,          0.0000 Debye
        Dipole field          0.0000 Ry au

        Potential amp.       -0.0000 Ry
        Total length         45.2682 bohr

     Starting wfc are  156 randomized atomic wfcs

     Self-consistent Calculation

     iteration #  1     ecut=    36.75 Ry     beta=0.10
     Davidson diagonalization with overlap
     ethr =  1.00E-02,  avg # of iterations =  8.3

[...]

     total energy              =   -2229.47261766 Ry
     Harris-Foulkes estimate   =   -2248.45987796 Ry
     estimated scf accuracy    <     110.12971408 Ry

[...]

     End of self-consistent calculation

          k = 0.0000 0.0000 0.0000 ( 16847 PWs)   bands (ev):

   -70.3517 -70.2991 -70.2990 -70.0329 -70.0311 -69.9817 -69.9816 -69.9812
   -69.9811 -60.0530 -60.0526 -59.3587 -40.5670 -40.4345 -40.4345 -40.4096
   -40.3514 -40.3513 -40.2961 -40.2637 -40.1691 -40.0701 -40.0700 -40.0508
   -40.0507 -40.0235 -40.0234 -40.0063 -39.9573 -39.9572 -39.9426 -39.9189
   -39.9188 -39.7995 -39.7954 -39.7953 -39.7916 -39.7915 -39.7908 -28.7312
   -28.7105 -28.5197 -28.5197 -28.5143 -28.5143 -27.9556 -27.9556 -27.9471
    -4.1900  -2.7589  -2.4751  -2.3610  -2.2913  -2.2913  -2.1004  -1.9441
    -1.9441  -1.7339  -1.7339  -1.7021  -1.5709  -1.4341  -1.4340  -0.4765
    -0.3263  -0.3262   0.1464   0.1464   0.3830   0.5684   0.6213   0.7270
     0.9807   0.9807   1.1142   1.1142   1.3883   1.3883   1.4113   1.4113
     1.5437   1.5437   1.9481   2.1368   2.4907   2.4907   2.5263   2.5263
     2.6930   2.6930   2.7254   3.3409   3.3804   3.3805   3.4048   3.7124
     3.9504   4.2385   4.2906   4.7002   4.7002   4.8422   5.3861   5.3861
     5.5468   5.5469   5.5977   6.2205   6.2426   6.2426   6.2809   6.2810
     6.3804   6.4577   6.4577   6.8836   7.0929   7.0929   7.3846   7.3848

[...]

          k =-0.0893-0.0516 0.0000 ( 16920 PWs)   bands (ev):

[...]

     the Fermi energy is     2.3055 ev

!    total energy              =   -2237.84268036 Ry
     Harris-Foulkes estimate   =   -2237.84416007 Ry
     estimated scf accuracy    <       0.00000065 Ry

     The total energy is the sum of the following terms:

     one-electron contribution =  -17839.65446781 Ry
     hartree contribution      =    8918.80475575 Ry
     xc contribution           =    -473.87127528 Ry
     ewald contribution        =    7156.97013338 Ry
     electric field correction =       0.00000000 Ry
     smearing contrib. (-TS)   =      -0.09182641 Ry

     convergence has been achieved in  20 iterations

 BEEF-vdW xc energy contributions
           1 :   -419.374850155060
           2 :    387.466009505499
           3 :   -331.490653107319
           4 :    264.108797989119
           5 :   -198.439632857067
           6 :    144.184471225633
           7 :   -105.637013310292
           8 :    81.9089057882979
[...]
     Using radial grid of  967 points,  6 beta functions with:
                l(1) =   0
                l(2) =   0
                l(3) =   1
                l(4) =   1
                l(5) =   2
                l(6) =   2
     Q(r) pseudized with  8 coefficients,  rinner =    1.300   1.300   1.300
                                                       1.300   1.300

     PseudoPot. # 2 for Hf read from file:
     /afs/slac.stanford.edu/u/if/mamunm/psp/gbrv1.5pbe/Hf.UPF
     MD5 check sum: 8ee9378dfe14276e333edf04c5e4aa26
     Pseudo is Ultrasoft + core correction, Zval = 12.0
     Generated by new atomic code, or converted to UPF format
     Using radial grid of  921 points,  8 beta functions with:
                l(1) =   0
                l(2) =   0
                l(3) =   0
                l(4) =   1
                l(5) =   1
                l(6) =   2
                l(7) =   2
                l(8) =   3
     Q(r) pseudized with  6 coefficients,  rinner =    1.200   1.200   1.200
                                                       1.200   1.200   1.200
                                                       1.200

     vdW kernel table read from file vdW_kernel_table
     MD5 check sum: 095c7af220d748ca6e76c0b4c6cfb241

     atomic species   valence    mass     pseudopotential
        Ru1           16.00   101.07000     Ru( 1.00)
        Hf1           12.00   178.49000     Hf( 1.00)

     No symmetry found

   Cartesian axes

     site n.     atom                  positions (alat units)
         1           Ru1 tau(   1) = (   0.0000000   0.0000000  10.0000000  )
         2           Ru1 tau(   2) = (  -1.3990075   2.4231520  10.0000000  )
         3           Ru1 tau(   3) = (   1.3990075   2.4231520  10.0000000  )
         4           Hf1 tau(   4) = (   2.7980149   0.0000000  10.0000000  )
         5           Ru1 tau(   5) = (   2.7980149   1.6154347  12.2845696  )
         6           Ru1 tau(   6) = (   1.3990075   4.0385867  12.2845696  )
         7           Ru1 tau(   7) = (  -1.3990075   4.0385867  12.2845696  )
         8           Hf1 tau(   8) = (   0.0000000   1.6154347  12.2845696  )
         9           Ru1 tau(   9) = (   0.0000024   3.2614662  14.4885232  )
        10           Ru1 tau(  10) = (   1.4254995   0.7924264  14.4885457  )
        11           Ru1 tau(  11) = (   4.1705559   0.7924385  14.4885298  )
        12           Hf1 tau(  12) = (   2.7980344   3.2308876  14.4799823  )

     number of k points=    20  Fermi-Dirac smearing, width (Ry)=  0.0110
                       cart. coord. in units 2pi/alat
        k(    1) = (   0.0000000   0.0000000   0.0000000), wk =   0.0555556
        k(    2) = (   0.0000000   0.0343905   0.0000000), wk =   0.1111111
        k(    3) = (   0.0000000   0.0687809   0.0000000), wk =   0.1111111
        k(    4) = (   0.0000000  -0.1031714   0.0000000), wk =   0.0555556
        k(    5) = (   0.0297830   0.0171952   0.0000000), wk =   0.1111111
        k(    6) = (   0.0297830   0.0515857   0.0000000), wk =   0.1111111
        k(    7) = (   0.0297830   0.0859762   0.0000000), wk =   0.1111111
        k(    8) = (   0.0297830  -0.0859762   0.0000000), wk =   0.1111111
        k(    9) = (   0.0297830  -0.0515857   0.0000000), wk =   0.1111111
        k(   10) = (   0.0297830  -0.0171952   0.0000000), wk =   0.1111111
        k(   11) = (   0.0595660   0.0343905   0.0000000), wk =   0.1111111
        k(   12) = (   0.0595660   0.0687809   0.0000000), wk =   0.1111111
        k(   13) = (   0.0595660   0.1031714   0.0000000), wk =   0.1111111
        k(   14) = (   0.0595660  -0.0687809   0.0000000), wk =   0.1111111
        k(   15) = (   0.0595660  -0.0343905   0.0000000), wk =   0.1111111
        k(   16) = (   0.0595660   0.0000000   0.0000000), wk =   0.1111111
        k(   17) = (  -0.0893491  -0.0515857   0.0000000), wk =   0.0555556
        k(   18) = (  -0.0893491  -0.0171952   0.0000000), wk =   0.1111111
        k(   19) = (  -0.0893491   0.0171952   0.0000000), wk =   0.1111111
        k(   20) = (  -0.0893491  -0.1547571   0.0000000), wk =   0.0555556

     Largest allocated arrays     est. size (Mb)     dimensions
     Largest temporary arrays     est. size (Mb)     dimensions

     Check: negative/imaginary core charge=   -0.000003    0.000000

     Initial potential from superposition of free atoms
     Check: negative starting charge=   -0.984758

     starting charge  164.99985, renormalised to  180.00000

[...]

     *
     * You are using vdW-DF for exchange-correlation in this calculation.
     * Please cite the following three references that made this development
     * possible:
     *
     *   M. Dion, H. Rydberg, E. Schroder, D. C. Langreth, and
     *   B. I. Lundqvist, Phys. Rev. Lett. 92, 246401 (2004).
     *
     *   T. Thonhauser, V. R. Cooper, S. Li, A. Puzder, P. Hyldgaard, and
     *   D. C. Langreth, Phys. Rev. B 76, 125112 (2007).
     *
     *   G. Roman-Perez and J. M. Soler, Phys. Rev. Lett. 103, 096102 (2009).
     *
     *
     * If you are using vdW-DF2, please also cite:
     *
     *   K. Lee, E. D. Murray, L. Kong, B. I. Lundqvist, and
     *   D. C. Langreth, Phys. Rev. B 82, 081101(R) (2010).
     *
     *
     * If you are calculating the stress with vdW-DF, please also cite:
     *
     *   R. Sabatini, E. Kucukbenli, B. Kolb, T. Thonhauser, and
     *   S. de Gironcoli, J. Phys.: Condens. Matter 24, 424209 (2012).
     *

     Carrying out vdW-DF run using the following parameters:

     Nqs =      20    Nr_points =    1024   r_max =   100.000
     q_mesh =
               0.00001000     0.04494208     0.09755937     0.15916263
               0.23128650     0.31572767     0.41458969     0.53033537
               0.66584808     0.82450364     1.01025438     1.22772762
               1.48234092     1.78043706     2.12944203     2.53805004
               3.01644009     3.57652955     4.23227104     5.00000000

     Gradients computed in reciprocal space

[...]

     Starting wfc are  156 randomized atomic wfcs

     Self-consistent Calculation

[...]

     total energy              =   -2237.86095834 Ry
     Harris-Foulkes estimate   =   -2237.86095919 Ry
     estimated scf accuracy    <       0.00000895 Ry

     iteration # 19     ecut=    36.75 Ry     beta=0.10
     Davidson diagonalization with overlap
     ethr =  4.97E-09,  avg # of iterations =  2.0

[...]

     negative rho (up, down):  1.026E+00 0.000E+00

     Adding external electric field

     Computed dipole along edir(3) :
        Dipole                0.0241 Ry au,          0.0613 Debye
        Dipole field          0.0001 Ry au

        Potential amp.       -0.0061 Ry
        Total length         45.2682 bohr

     End of self-consistent calculation

[...]

          k = 0.0596 0.0000 0.0000 ( 16912 PWs)   bands (ev):

[...]

          k =-0.0893-0.1548 0.0000 ( 16920 PWs)   bands (ev):

   -70.3509 -70.3333 -70.3154 -70.0160 -69.9961 -69.9889 -69.9802 -69.9721
   -69.9551 -60.0540 -59.9226 -59.2757 -40.5173 -40.4477 -40.4121 -40.3962
   -40.3330 -40.3215 -40.2878 -40.2547 -40.1734 -40.1440 -40.0894 -40.0276
   -40.0002 -39.9697 -39.9604 -39.9563 -39.9431 -39.9341 -39.9270 -39.9178
   -39.9079 -39.9016 -39.8920 -39.8914 -39.8780 -39.7926 -39.7689 -28.7266
   -28.6050 -28.5459 -28.5258 -28.4453 -28.4243 -27.9194 -27.8981 -27.8759
    -2.5603  -2.5207  -1.7390  -1.6139  -1.5790  -1.3816  -1.3403  -1.2869
    -1.2535  -1.0802  -0.9872  -0.8407  -0.7257  -0.6188  -0.5961  -0.3744
    -0.2399  -0.2071  -0.0590  -0.0266   0.3039   0.3674   0.4748   0.6612
     0.6948   0.7482   0.8080   0.8444   0.8994   0.9580   0.9964   1.0052
     1.0570   1.1313   1.3094   1.3335   1.4531   1.6910   1.7559   1.7964
     1.8613   1.9181   2.1573   2.3073   2.3475   2.3602   2.7856   2.7968
     2.8878   2.9352   3.3562   3.9225   3.9577   4.0300   4.8463   4.9195
     5.0935   5.1880   5.2763   5.5869   5.6174   5.8329   5.8508   6.1073
     6.3146   6.3358   7.1465   7.3081   7.5642   7.6281   7.8001   7.8713

     the Fermi energy is     2.3192 ev

!    total energy              =   -2237.86095935 Ry
     Harris-Foulkes estimate   =   -2237.86095882 Ry
     estimated scf accuracy    <       0.00000094 Ry

     The total energy is the sum of the following terms:

     one-electron contribution =  -18049.64123548 Ry
     hartree contribution      =    9023.87571522 Ry
     xc contribution           =    -474.05483803 Ry
     ewald contribution        =    7262.04914124 Ry
     electric field correction =       0.00000163 Ry
     smearing contrib. (-TS)   =      -0.08974393 Ry

     convergence has been achieved in  19 iterations

 BEEF-vdW xc energy contributions
           1 :   -419.879101599216
           2 :    388.040921159363
           3 :   -332.156085314560
           4 :    264.814082819811
           5 :   -199.086723426088
           6 :    144.681443431311
           7 :   -105.950762244795
           8 :    82.0866882530963
           9 :   -68.9540439782478
          10 :    61.4859431698704
          11 :   -55.6382469583798
          12 :    49.3044530799545
          13 :   -42.1792186596401
          14 :    34.9644814099612
          15 :   -28.4816263896003
          16 :    23.1102374192030
          17 :   -18.7066530024213
          18 :    14.8720804370254
          19 :   -11.3153852788453
          20 :    8.07206143492607
          21 :   -5.48424935779332
          22 :    3.98370363629363
          23 :   -3.81753628447069
          24 :    4.85332335408185
          25 :   -6.55287160184412
          26 :    8.11944294526268
          27 :   -8.76161587334673
          28 :    7.97386297926505
          29 :   -5.73369491224514
          30 :    2.53746021710521
          31 :   -36.7828641769745
          32 :   -27.3071688988130

     Forces acting on atoms (Ry/au):

     negative rho (up, down):  1.026E+00 0.000E+00
     atom    1 type  1   force =    -0.00000008   -0.00995581    0.01354217
     atom    2 type  1   force =    -0.00862423    0.00497956    0.01353987
     atom    3 type  1   force =     0.00862681    0.00498075    0.01353558
     atom    4 type  2   force =    -0.00000166   -0.00000123    0.01681537
     atom    5 type  1   force =    -0.00000346   -0.00041756   -0.01488838
     atom    6 type  1   force =    -0.00036223    0.00020628   -0.01488969
     atom    7 type  1   force =     0.00036277    0.00021004   -0.01488749
     atom    8 type  2   force =     0.00000734    0.00000265   -0.01219951
     atom    9 type  1   force =     0.00000187   -0.00004384   -0.00023575
     atom   10 type  1   force =    -0.00003528    0.00002391   -0.00024014
     atom   11 type  1   force =     0.00003328    0.00002041   -0.00023785
     atom   12 type  2   force =    -0.00000514   -0.00000516    0.00014582

     Total force =     0.044099     Total SCF correction =     0.004099

     entering subroutine stress ...

     negative rho (up, down):  1.026E+00 0.000E+00
          total   stress  (Ry/bohr**3)                   (kbar)     P=  -18.76
  -0.00015560   0.00000000  -0.00000000        -22.89      0.00     -0.00
   0.00000000  -0.00015560  -0.00000000          0.00    -22.89     -0.00
  -0.00000000  -0.00000000  -0.00007135         -0.00     -0.00    -10.50

 !ASE

     Writing output data file calc.save

     General routines

     Parallel routines

   This run was terminated on:   1:48:58   1Jan2019

   JOB DONE.
Job  /afs/slac/g/suncat/bin/suncat-tsmpirun -x LD_LIBRARY_PATH -wdir /scratch/qe648915_Olfbe pw.x -in pw.inp

TID   HOST_NAME   COMMAND_LINE            STATUS            TERMINATION_TIME
00000 suncat0074 pw.x -in pw.inp   Done                     01/01/2019 01:48:58
00001 suncat0074 pw.x -in pw.inp   Done                     01/01/2019 01:48:58
00002 suncat0074 pw.x -in pw.inp   Done                     01/01/2019 01:48:58
00003 suncat0074 pw.x -in pw.inp   Done                     01/01/2019 01:48:58
00004 suncat0074 pw.x -in pw.inp   Done                     01/01/2019 01:48:58
00005 suncat0074 pw.x -in pw.inp   Done                     01/01/2019 01:48:58
00006 suncat0074 pw.x -in pw.inp   Done                     01/01/2019 01:48:58
00007 suncat0074 pw.x -in pw.inp   Done                     01/01/2019 01:48:58
00008 suncat0073 pw.x -in pw.inp   Done                     01/01/2019 01:48:58
00009 suncat0073 pw.x -in pw.inp   Done                     01/01/2019 01:48:58
00010 suncat0073 pw.x -in pw.inp   Done                     01/01/2019 01:48:58
00011 suncat0073 pw.x -in pw.inp   Done                     01/01/2019 01:48:58
00012 suncat0073 pw.x -in pw.inp   Done                     01/01/2019 01:48:58
00013 suncat0073 pw.x -in pw.inp   Done                     01/01/2019 01:48:58
00014 suncat0073 pw.x -in pw.inp   Done                     01/01/2019 01:48:58
00015 suncat0073 pw.x -in pw.inp   Done                     01/01/2019 01:48:58
00016 suncat0065 pw.x -in pw.inp   Done                     01/01/2019 01:48:58
00017 suncat0065 pw.x -in pw.inp   Done                     01/01/2019 01:48:58
00018 suncat0065 pw.x -in pw.inp   Done                     01/01/2019 01:48:58
00019 suncat0065 pw.x -in pw.inp   Done                     01/01/2019 01:48:58
00020 suncat0065 pw.x -in pw.inp   Done                     01/01/2019 01:48:58
00021 suncat0065 pw.x -in pw.inp   Done                     01/01/2019 01:48:58
00022 suncat0065 pw.x -in pw.inp   Done                     01/01/2019 01:48:58
00023 suncat0065 pw.x -in pw.inp   Done                     01/01/2019 01:48:58
00024 suncat0064 pw.x -in pw.inp   Done                     01/01/2019 01:48:58
00025 suncat0064 pw.x -in pw.inp   Done                     01/01/2019 01:48:58
00026 suncat0064 pw.x -in pw.inp   Done                     01/01/2019 01:48:58
00027 suncat0064 pw.x -in pw.inp   Done                     01/01/2019 01:48:58
00028 suncat0064 pw.x -in pw.inp   Done                     01/01/2019 01:48:58
00029 suncat0064 pw.x -in pw.inp   Done                     01/01/2019 01:48:58
00030 suncat0064 pw.x -in pw.inp   Done                     01/01/2019 01:48:58
00031 suncat0064 pw.x -in pw.inp   Done                     01/01/2019 01:48:58
00032 suncat0156 pw.x -in pw.inp   Done                     01/01/2019 01:48:58
00033 suncat0156 pw.x -in pw.inp   Done                     01/01/2019 01:48:58
00034 suncat0156 pw.x -in pw.inp   Done                     01/01/2019 01:48:58
00035 suncat0156 pw.x -in pw.inp   Done                     01/01/2019 01:48:58
00036 suncat0156 pw.x -in pw.inp   Done                     01/01/2019 01:48:58
00037 suncat0156 pw.x -in pw.inp   Done                     01/01/2019 01:48:58
00038 suncat0156 pw.x -in pw.inp   Done                     01/01/2019 01:48:58
00039 suncat0156 pw.x -in pw.inp   Done                     01/01/2019 01:48:58
00040 suncat0153 pw.x -in pw.inp   Done                     01/01/2019 01:48:58
00041 suncat0153 pw.x -in pw.inp   Done                     01/01/2019 01:48:58
00042 suncat0153 pw.x -in pw.inp   Done                     01/01/2019 01:48:58
00043 suncat0153 pw.x -in pw.inp   Done                     01/01/2019 01:48:58
00044 suncat0153 pw.x -in pw.inp   Done                     01/01/2019 01:48:58
00045 suncat0153 pw.x -in pw.inp   Done                     01/01/2019 01:48:58
00046 suncat0153 pw.x -in pw.inp   Done                     01/01/2019 01:48:58
00047 suncat0153 pw.x -in pw.inp   Done                     01/01/2019 01:48:58
00048 suncat0145 pw.x -in pw.inp   Done                     01/01/2019 01:48:58
00049 suncat0145 pw.x -in pw.inp   Done                     01/01/2019 01:48:58
00050 suncat0145 pw.x -in pw.inp   Done                     01/01/2019 01:48:58
00051 suncat0145 pw.x -in pw.inp   Done                     01/01/2019 01:48:58
00052 suncat0145 pw.x -in pw.inp   Done                     01/01/2019 01:48:58
00053 suncat0145 pw.x -in pw.inp   Done                     01/01/2019 01:48:58
00054 suncat0145 pw.x -in pw.inp   Done                     01/01/2019 01:48:58
00055 suncat0145 pw.x -in pw.inp   Done                     01/01/2019 01:48:58
00056 suncat0144 pw.x -in pw.inp   Done                     01/01/2019 01:48:58
00057 suncat0144 pw.x -in pw.inp   Done                     01/01/2019 01:48:58
00058 suncat0144 pw.x -in pw.inp   Done                     01/01/2019 01:48:58
00059 suncat0144 pw.x -in pw.inp   Done                     01/01/2019 01:48:58
00060 suncat0144 pw.x -in pw.inp   Done                     01/01/2019 01:48:58
00061 suncat0144 pw.x -in pw.inp   Done                     01/01/2019 01:48:58
00062 suncat0144 pw.x -in pw.inp   Done                     01/01/2019 01:48:58
00063 suncat0144 pw.x -in pw.inp   Done                     01/01/2019 01:48:58