     Program PWSCF v.5.1rc2 (svn rev. 11289) starts on 20Dec2018 at  8:38: 1

     Current dimensions of program PWSCF are:
     Max number of different atomic species (ntypx) = 10
     Max number of k-points (npk) =  40000
     Max angular momentum in pseudopotentials (lmaxx) =  3
     Presently stress not available with electric field

     IMPORTANT: XC functional enforced from input :
     Exchange-correlation      = BEEF-VDW ( 1  4 27 13 2)
     Any further DFT definition will be discarded
     Please, verify this is what you really want

     Subspace diagonalization in iterative solution of the eigenvalue problem:
     a serial algorithm will be used

     Generating pointlists ...
     new r_m :   0.4125 (alat units)  0.7795 (a.u.) for type    1
     new r_m :   0.4125 (alat units)  0.7795 (a.u.) for type    2

     bravais-lattice index     =            0
     lattice parameter (alat)  =       1.8897  a.u.
     unit-cell volume          =    3525.5088 (a.u.)^3
     number of atoms/cell      =           12
     number of atomic types    =            2
     number of electrons       =       207.00
     number of Kohn-Sham states=          133
     kinetic-energy cutoff     =      36.7493  Ry
     charge density cutoff     =     367.4932  Ry
     convergence threshold     =      1.0E-06
     mixing beta               =       0.1000
     number of iterations used =           10  plain     mixing
     Exchange-correlation      = BEEF-VDW ( 1  4 27 13 2)
     nstep                     =           50

     celldm(1)=   1.889726  celldm(2)=   0.000000  celldm(3)=   0.000000
     celldm(4)=   0.000000  celldm(5)=   0.000000  celldm(6)=   0.000000

     crystal axes: (cart. coord. in units of alat)
               a(1) = (   5.004530   0.000000   0.000000 )
               a(2) = (  -2.502265   4.334050   0.000000 )
               a(3) = (   0.000000   0.000000  24.086182 )

     reciprocal axes: (cart. coord. in units 2 pi/alat)
               b(1) = (  0.199819  0.115366  0.000000 )
               b(2) = (  0.000000  0.230731  0.000000 )
               b(3) = (  0.000000  0.000000  0.041518 )

     PseudoPot. # 1 for Co read from file:
     /afs/slac.stanford.edu/u/if/mamunm/psp/gbrv1.5pbe/Co.UPF
     MD5 check sum: 5f91765df6ddd3222702df6e7b74a16d
     Pseudo is Ultrasoft + core correction, Zval = 17.0
     Generated by new atomic code, or converted to UPF format
     Using radial grid of  863 points,  6 beta functions with:
                l(1) =   0
                l(2) =   0
                l(3) =   1
                l(4) =   1
                l(5) =   2
                l(6) =   2
     Q(r) pseudized with  8 coefficients,  rinner =    1.200   1.200   1.200
                                                       1.200   1.200

     PseudoPot. # 2 for Ni read from file:
     /afs/slac.stanford.edu/u/if/mamunm/psp/gbrv1.5pbe/Ni.UPF
     MD5 check sum: 1ee80287db30b12d2bc1f57a5b5d6409
     Pseudo is Ultrasoft + core correction, Zval = 18.0
     Generated by new atomic code, or converted to UPF format
     Using radial grid of  865 points,  6 beta functions with:
                l(1) =   0
                l(2) =   0
                l(3) =   1
                l(4) =   1
                l(5) =   2
                l(6) =   2
     Q(r) pseudized with 10 coefficients,  rinner =    0.980   0.980   0.980
                                                       0.980   0.980

     vdW kernel table read from file vdW_kernel_table
     MD5 check sum: 095c7af220d748ca6e76c0b4c6cfb241

     atomic species   valence    mass     pseudopotential
        Co1           17.00    58.93319     Co( 1.00)
        Ni1           18.00    58.69340     Ni( 1.00)

     Starting magnetic structure
     atomic species   magnetization
        Co1          0.118
        Ni1          0.111

     No symmetry found

   Cartesian axes

     site n.     atom                  positions (alat units)
         1           Co1 tau(   1) = (   0.0000000   0.0000000  10.0000000  )
         2           Co1 tau(   2) = (  -1.2511325   2.1670251  10.0000000  )
         3           Co1 tau(   3) = (   1.2511325   2.1670251  10.0000000  )
         4           Ni1 tau(   4) = (   2.5022651   0.0000000  10.0000000  )
         5           Co1 tau(   5) = (   2.5022651   1.4446834  12.0430909  )
         6           Co1 tau(   6) = (   1.2511325   3.6117085  12.0430909  )
         7           Co1 tau(   7) = (  -1.2511325   3.6117085  12.0430909  )
         8           Ni1 tau(   8) = (   0.0000000   1.4446834  12.0430909  )
         9           Co1 tau(   9) = (  -0.0000000   2.8893668  14.0861817  )
        10           Co1 tau(  10) = (   1.2511325   0.7223417  14.0861817  )
        11           Co1 tau(  11) = (   3.7533976   0.7223417  14.0861817  )
        12           Ni1 tau(  12) = (   2.5022651   2.8893668  14.0861817  )

     number of k points=    40  Fermi-Dirac smearing, width (Ry)=  0.0110
                       cart. coord. in units 2pi/alat
        k(    1) = (   0.0000000   0.0000000   0.0000000), wk =   0.0277778
        k(    2) = (   0.0000000   0.0384552   0.0000000), wk =   0.0555556
        k(    3) = (   0.0000000   0.0769104   0.0000000), wk =   0.0555556
        k(    4) = (   0.0000000  -0.1153655   0.0000000), wk =   0.0277778
        k(    5) = (   0.0333032   0.0192276   0.0000000), wk =   0.0555556
        k(    6) = (   0.0333032   0.0576828   0.0000000), wk =   0.0555556
        k(    7) = (   0.0333032   0.0961379   0.0000000), wk =   0.0555556
        k(    8) = (   0.0333032  -0.0961379   0.0000000), wk =   0.0555556
        k(    9) = (   0.0333032  -0.0576828   0.0000000), wk =   0.0555556
        k(   10) = (   0.0333032  -0.0192276   0.0000000), wk =   0.0555556
        k(   11) = (   0.0666063   0.0384552   0.0000000), wk =   0.0555556
        k(   12) = (   0.0666063   0.0769104   0.0000000), wk =   0.0555556
        k(   13) = (   0.0666063   0.1153655   0.0000000), wk =   0.0555556
        k(   14) = (   0.0666063  -0.0769104   0.0000000), wk =   0.0555556
        k(   15) = (   0.0666063  -0.0384552   0.0000000), wk =   0.0555556
        k(   16) = (   0.0666063   0.0000000   0.0000000), wk =   0.0555556
        k(   17) = (  -0.0999095  -0.0576828   0.0000000), wk =   0.0277778
        k(   18) = (  -0.0999095  -0.0192276   0.0000000), wk =   0.0555556
        k(   19) = (  -0.0999095   0.0192276   0.0000000), wk =   0.0555556
        k(   20) = (  -0.0999095  -0.1730483   0.0000000), wk =   0.0277778
        k(   21) = (   0.0000000   0.0000000   0.0000000), wk =   0.0277778
        k(   22) = (   0.0000000   0.0384552   0.0000000), wk =   0.0555556
        k(   23) = (   0.0000000   0.0769104   0.0000000), wk =   0.0555556
        k(   24) = (   0.0000000  -0.1153655   0.0000000), wk =   0.0277778
        k(   25) = (   0.0333032   0.0192276   0.0000000), wk =   0.0555556
        k(   26) = (   0.0333032   0.0576828   0.0000000), wk =   0.0555556
        k(   27) = (   0.0333032   0.0961379   0.0000000), wk =   0.0555556
        k(   28) = (   0.0333032  -0.0961379   0.0000000), wk =   0.0555556
        k(   29) = (   0.0333032  -0.0576828   0.0000000), wk =   0.0555556
        k(   30) = (   0.0333032  -0.0192276   0.0000000), wk =   0.0555556
        k(   31) = (   0.0666063   0.0384552   0.0000000), wk =   0.0555556
        k(   32) = (   0.0666063   0.0769104   0.0000000), wk =   0.0555556
        k(   33) = (   0.0666063   0.1153655   0.0000000), wk =   0.0555556
        k(   34) = (   0.0666063  -0.0769104   0.0000000), wk =   0.0555556
        k(   35) = (   0.0666063  -0.0384552   0.0000000), wk =   0.0555556
        k(   36) = (   0.0666063   0.0000000   0.0000000), wk =   0.0555556
        k(   37) = (  -0.0999095  -0.0576828   0.0000000), wk =   0.0277778
        k(   38) = (  -0.0999095  -0.0192276   0.0000000), wk =   0.0555556
        k(   39) = (  -0.0999095   0.0192276   0.0000000), wk =   0.0555556
        k(   40) = (  -0.0999095  -0.1730483   0.0000000), wk =   0.0277778

     Largest allocated arrays     est. size (Mb)     dimensions
     Largest temporary arrays     est. size (Mb)     dimensions

     Check: negative/imaginary core charge=   -0.000006    0.000000

     Initial potential from superposition of free atoms
     Check: negative starting charge=(component1):   -0.000284
     Check: negative starting charge=(component2):   -0.000226

     starting charge  191.99994, renormalised to  207.00000

     negative rho (up, down):  3.060E-04 2.434E-04

     *
     * You are using vdW-DF for exchange-correlation in this calculation.
     * Please cite the following three references that made this development
     * possible:
     *
     *   M. Dion, H. Rydberg, E. Schroder, D. C. Langreth, and
     *   B. I. Lundqvist, Phys. Rev. Lett. 92, 246401 (2004).
     *
     *   T. Thonhauser, V. R. Cooper, S. Li, A. Puzder, P. Hyldgaard, and
     *   D. C. Langreth, Phys. Rev. B 76, 125112 (2007).
     *
     *   G. Roman-Perez and J. M. Soler, Phys. Rev. Lett. 103, 096102 (2009).
     *
     *
     * If you are using vdW-DF2, please also cite:
     *
     *   K. Lee, E. D. Murray, L. Kong, B. I. Lundqvist, and
     *   D. C. Langreth, Phys. Rev. B 82, 081101(R) (2010).
     *
     *
     * If you are calculating the stress with vdW-DF, please also cite:
     *
     *   R. Sabatini, E. Kucukbenli, B. Kolb, T. Thonhauser, and
     *   S. de Gironcoli, J. Phys.: Condens. Matter 24, 424209 (2012).
     *

     Carrying out vdW-DF run using the following parameters:

     Nqs =      20    Nr_points =    1024   r_max =   100.000
     q_mesh =
               0.00001000     0.04494208     0.09755937     0.15916263
               0.23128650     0.31572767     0.41458969     0.53033537
               0.66584808     0.82450364     1.01025438     1.22772762
               1.48234092     1.78043706     2.12944203     2.53805004
               3.01644009     3.57652955     4.23227104     5.00000000

     Gradients computed in reciprocal space

     Adding external electric field

     Computed dipole along edir(3) :
        Dipole               -0.0000 Ry au,         -0.0000 Debye
        Dipole field         -0.0000 Ry au

        Potential amp.        0.0000 Ry
        Total length         44.3784 bohr

[...]

     Starting wfc are  156 randomized atomic wfcs

     Self-consistent Calculation

     iteration #  1     ecut=    36.75 Ry     beta=0.10
     Davidson diagonalization with overlap
     ethr =  1.00E-02,  avg # of iterations =  7.3

[...]

     Magnetic moment per site:
     atom:    1    charge:    8.5559    magn:    0.9601    constr:    0.0000
     atom:    2    charge:    8.5558    magn:    0.9601    constr:    0.0000
     atom:    3    charge:    8.5559    magn:    0.9601    constr:    0.0000
     atom:    4    charge:    9.6637    magn:    1.0310    constr:    0.0000
     atom:    5    charge:    8.5499    magn:    0.9603    constr:    0.0000
     atom:    6    charge:    8.5499    magn:    0.9603    constr:    0.0000
     atom:    7    charge:    8.5499    magn:    0.9602    constr:    0.0000
     atom:    8    charge:    9.6477    magn:    1.0290    constr:    0.0000
[...]
        k(    6) = (   0.0333032   0.0576828   0.0000000), wk =   0.0555556
        k(    7) = (   0.0333032   0.0961379   0.0000000), wk =   0.0555556
        k(    8) = (   0.0333032  -0.0961379   0.0000000), wk =   0.0555556
        k(    9) = (   0.0333032  -0.0576828   0.0000000), wk =   0.0555556
        k(   10) = (   0.0333032  -0.0192276   0.0000000), wk =   0.0555556
        k(   11) = (   0.0666063   0.0384552   0.0000000), wk =   0.0555556
        k(   12) = (   0.0666063   0.0769104   0.0000000), wk =   0.0555556
        k(   13) = (   0.0666063   0.1153655   0.0000000), wk =   0.0555556
        k(   14) = (   0.0666063  -0.0769104   0.0000000), wk =   0.0555556
        k(   15) = (   0.0666063  -0.0384552   0.0000000), wk =   0.0555556
        k(   16) = (   0.0666063   0.0000000   0.0000000), wk =   0.0555556
        k(   17) = (  -0.0999095  -0.0576828   0.0000000), wk =   0.0277778
        k(   18) = (  -0.0999095  -0.0192276   0.0000000), wk =   0.0555556
        k(   19) = (  -0.0999095   0.0192276   0.0000000), wk =   0.0555556
        k(   20) = (  -0.0999095  -0.1730483   0.0000000), wk =   0.0277778
        k(   21) = (   0.0000000   0.0000000   0.0000000), wk =   0.0277778
        k(   22) = (   0.0000000   0.0384552   0.0000000), wk =   0.0555556
        k(   23) = (   0.0000000   0.0769104   0.0000000), wk =   0.0555556
        k(   24) = (   0.0000000  -0.1153655   0.0000000), wk =   0.0277778
        k(   25) = (   0.0333032   0.0192276   0.0000000), wk =   0.0555556
        k(   26) = (   0.0333032   0.0576828   0.0000000), wk =   0.0555556
        k(   27) = (   0.0333032   0.0961379   0.0000000), wk =   0.0555556
        k(   28) = (   0.0333032  -0.0961379   0.0000000), wk =   0.0555556
        k(   29) = (   0.0333032  -0.0576828   0.0000000), wk =   0.0555556
        k(   30) = (   0.0333032  -0.0192276   0.0000000), wk =   0.0555556
        k(   31) = (   0.0666063   0.0384552   0.0000000), wk =   0.0555556
        k(   32) = (   0.0666063   0.0769104   0.0000000), wk =   0.0555556
        k(   33) = (   0.0666063   0.1153655   0.0000000), wk =   0.0555556
        k(   34) = (   0.0666063  -0.0769104   0.0000000), wk =   0.0555556
        k(   35) = (   0.0666063  -0.0384552   0.0000000), wk =   0.0555556
        k(   36) = (   0.0666063   0.0000000   0.0000000), wk =   0.0555556
        k(   37) = (  -0.0999095  -0.0576828   0.0000000), wk =   0.0277778
        k(   38) = (  -0.0999095  -0.0192276   0.0000000), wk =   0.0555556
        k(   39) = (  -0.0999095   0.0192276   0.0000000), wk =   0.0555556
        k(   40) = (  -0.0999095  -0.1730483   0.0000000), wk =   0.0277778

     Largest allocated arrays     est. size (Mb)     dimensions
     Largest temporary arrays     est. size (Mb)     dimensions

     Check: negative/imaginary core charge=   -0.000006    0.000000

     Initial potential from superposition of free atoms
     Check: negative starting charge=(component1):   -0.000279
     Check: negative starting charge=(component2):   -0.000222

     starting charge  191.99994, renormalised to  207.00000

[...]

     *
     * You are using vdW-DF for exchange-correlation in this calculation.
     * Please cite the following three references that made this development
     * possible:
     *
     *   M. Dion, H. Rydberg, E. Schroder, D. C. Langreth, and
     *   B. I. Lundqvist, Phys. Rev. Lett. 92, 246401 (2004).
     *
     *   T. Thonhauser, V. R. Cooper, S. Li, A. Puzder, P. Hyldgaard, and
     *   D. C. Langreth, Phys. Rev. B 76, 125112 (2007).
     *
     *   G. Roman-Perez and J. M. Soler, Phys. Rev. Lett. 103, 096102 (2009).
     *
     *
     * If you are using vdW-DF2, please also cite:
     *
     *   K. Lee, E. D. Murray, L. Kong, B. I. Lundqvist, and
     *   D. C. Langreth, Phys. Rev. B 82, 081101(R) (2010).
     *
     *
     * If you are calculating the stress with vdW-DF, please also cite:
     *
     *   R. Sabatini, E. Kucukbenli, B. Kolb, T. Thonhauser, and
     *   S. de Gironcoli, J. Phys.: Condens. Matter 24, 424209 (2012).
     *

     Carrying out vdW-DF run using the following parameters:

     Nqs =      20    Nr_points =    1024   r_max =   100.000
     q_mesh =
               0.00001000     0.04494208     0.09755937     0.15916263
               0.23128650     0.31572767     0.41458969     0.53033537
               0.66584808     0.82450364     1.01025438     1.22772762
               1.48234092     1.78043706     2.12944203     2.53805004
               3.01644009     3.57652955     4.23227104     5.00000000

     Gradients computed in reciprocal space

[...]

     Starting wfc are  156 randomized atomic wfcs

     Self-consistent Calculation

[...]

     total energy              =   -3728.97305508 Ry
     Harris-Foulkes estimate   =   -3728.97305469 Ry
     estimated scf accuracy    <       0.00000135 Ry

[...]

     iteration # 36     ecut=    36.75 Ry     beta=0.10
     Davidson diagonalization with overlap
     ethr =  6.52E-10,  avg # of iterations =  1.7

[...]

     negative rho (up, down):  7.531E-04 4.780E-04

[...]

     Adding external electric field

     Computed dipole along edir(3) :
        Dipole                0.0042 Ry au,          0.0106 Debye
        Dipole field          0.0000 Ry au

        Potential amp.       -0.0013 Ry
        Total length         44.3784 bohr

     Magnetic moment per site:
     atom:    1    charge:    8.2914    magn:    1.0183    constr:    0.0000
     atom:    2    charge:    8.2914    magn:    1.0184    constr:    0.0000
     atom:    3    charge:    8.2914    magn:    1.0184    constr:    0.0000
     atom:    4    charge:    9.3493    magn:    0.4670    constr:    0.0000
     atom:    5    charge:    8.2781    magn:    1.0299    constr:    0.0000
     atom:    6    charge:    8.2781    magn:    1.0299    constr:    0.0000
     atom:    7    charge:    8.2780    magn:    1.0299    constr:    0.0000
     atom:    8    charge:    9.3350    magn:    0.5024    constr:    0.0000
     atom:    9    charge:    8.2843    magn:    1.0147    constr:    0.0000
     atom:   10    charge:    8.2844    magn:    1.0146    constr:    0.0000
     atom:   11    charge:    8.2842    magn:    1.0147    constr:    0.0000
     atom:   12    charge:    9.3404    magn:    0.4672    constr:    0.0000

     End of self-consistent calculation

 ------ SPIN UP ------------

[...]

 ------ SPIN DOWN ----------

[...]

          k = 0.0666 0.0000 0.0000 ( 13259 PWs)   bands (ev):

[...]

          k =-0.0999-0.1730 0.0000 ( 13298 PWs)   bands (ev):

  -102.2803-101.9905-101.9879 -93.3432 -93.3342 -93.3249 -93.1314 -93.1228
   -93.1216 -93.1139 -93.1127 -93.1041 -62.6820 -62.6759 -62.6756 -62.4203
   -62.4199 -62.4176 -62.4173 -62.3269 -62.3225 -56.7796 -56.7221 -56.7196
   -56.7023 -56.7005 -56.6934 -56.6823 -56.6808 -56.6014 -56.5619 -56.5504
   -56.4894 -56.4815 -56.4799 -56.4796 -56.4721 -56.4719 -56.4675 -56.4643
   -56.4600 -56.4559 -56.4472 -56.4471 -56.4346 -56.4319 -56.3943 -56.3852
    -5.5726  -5.5302  -3.7773  -3.7268  -2.9813  -2.9216  -2.5557  -2.4441
    -2.4171  -2.3934  -2.0235  -1.8189  -1.7764  -1.7619  -1.6291  -1.4634
    -1.3809  -1.3311  -1.2805  -1.2015  -1.1699  -1.1030  -0.9320  -0.8378
    -0.7926  -0.7248  -0.7227  -0.6160  -0.5180  -0.4939  -0.4505  -0.3920
    -0.3626  -0.2736  -0.2612  -0.2288  -0.1766  -0.1017  -0.0719   0.0499
     0.2253   0.3119   0.4044   0.5195   0.5564   0.6339   0.7023   0.7099
     0.7805   0.8636   0.9060   0.9502   1.0237   1.1491   1.1724   1.1965
     1.2308   1.3391   1.4386   1.5026   1.5446   1.6337   1.6944   1.8914
     2.7008   2.8015   2.9242   3.2909   3.7406   3.9561   4.7348   4.7976
     5.8848   5.9467   6.8344   6.8349   7.3180   7.3247   7.5528   7.5534
     8.5840   8.5892   8.6734   8.6795   9.1346

     the Fermi energy is     0.7515 ev

!    total energy              =   -3728.97305612 Ry
     Harris-Foulkes estimate   =   -3728.97305514 Ry
     estimated scf accuracy    <       0.00000063 Ry

     The total energy is the sum of the following terms:

     one-electron contribution =  -32338.27665545 Ry
     hartree contribution      =   16175.46370103 Ry
     xc contribution           =    -414.29609395 Ry
     ewald contribution        =   12848.21560985 Ry
     electric field correction =       0.00000006 Ry
     smearing contrib. (-TS)   =      -0.07961766 Ry

     total magnetization       =    18.05 Bohr mag/cell
     absolute magnetization    =    20.43 Bohr mag/cell

     convergence has been achieved in  36 iterations

 BEEF-vdW xc energy contributions
           1 :   -365.004849812027
           2 :    330.911435923702
           3 :   -273.088276803939
           4 :    207.432998202509
           5 :   -148.592538713748
           6 :    104.678642156711
           7 :   -75.8528548247698
           8 :    56.8089826014983
           9 :   -41.2127008739545
          10 :    25.4206957387165
          11 :   -9.69603555268986
          12 :   -3.19389329595083
          13 :    10.5973377483748
          14 :   -12.0116812566914
          15 :    9.38514331470378
          16 :   -5.81028568605609
          17 :    3.67318159907302
          18 :   -3.51064218099799
          19 :    4.17695090999604
          20 :   -4.03182655742921
          21 :    2.23518646161449
          22 :   0.694028768302019
          23 :   -3.32923955782547
          24 :    4.36522350035432
          25 :   -3.48354264159127
          26 :    1.49041088039860
          27 :   0.284807119393861
          28 :  -0.873042699639086
          29 :   0.223851054699139
          30 :   0.883724434780106
          31 :   -30.6466383257493
          32 :   -21.2888311183642

     Forces acting on atoms (Ry/au):

     negative rho (up, down):  7.531E-04 4.780E-04
     atom    1 type  1   force =     0.00002266   -0.00258803    0.00785448
     atom    2 type  1   force =    -0.00224671    0.00130367    0.00787548
     atom    3 type  1   force =     0.00224733    0.00127741    0.00784478
     atom    4 type  2   force =    -0.00002812    0.00000802    0.00257204
     atom    5 type  1   force =     0.00002749    0.00078459   -0.00557939
     atom    6 type  1   force =     0.00066055   -0.00039262   -0.00549987
     atom    7 type  1   force =    -0.00065469   -0.00042092   -0.00557464
     atom    8 type  2   force =    -0.00003222    0.00003028   -0.00668449
     atom    9 type  1   force =     0.00004588    0.00002690   -0.00070930
     atom   10 type  1   force =    -0.00001414   -0.00001636   -0.00068007
     atom   11 type  1   force =     0.00001897   -0.00006643   -0.00068812
     atom   12 type  2   force =    -0.00004700    0.00005351   -0.00073089

     Total force =     0.018787     Total SCF correction =     0.003269
     SCF correction compared to forces is large: reduce conv_thr to get better values

     entering subroutine stress ...

     negative rho (up, down):  7.531E-04 4.780E-04
          total   stress  (Ry/bohr**3)                   (kbar)     P=  -34.64
  -0.00026000  -0.00000000   0.00000000        -38.25     -0.00      0.00
  -0.00000000  -0.00026001  -0.00000000         -0.00    -38.25     -0.00
   0.00000000  -0.00000000  -0.00018645          0.00     -0.00    -27.43

 !ASE

     Writing output data file calc.save

     General routines

     Parallel routines

   This run was terminated on:  12:40: 3  20Dec2018

   JOB DONE.
Job  /afs/slac/g/suncat/bin/suncat-tsmpirun -x LD_LIBRARY_PATH -wdir /scratch/qe773524_TpBeL pw.x -in pw.inp

TID   HOST_NAME   COMMAND_LINE            STATUS            TERMINATION_TIME
00000 suncat0056 pw.x -in pw.inp   Done                     12/20/2018 12:40:03
00001 suncat0056 pw.x -in pw.inp   Done                     12/20/2018 12:40:03
00002 suncat0056 pw.x -in pw.inp   Done                     12/20/2018 12:40:03
00003 suncat0056 pw.x -in pw.inp   Done                     12/20/2018 12:40:03
00004 suncat0056 pw.x -in pw.inp   Done                     12/20/2018 12:40:03
00005 suncat0056 pw.x -in pw.inp   Done                     12/20/2018 12:40:03
00006 suncat0056 pw.x -in pw.inp   Done                     12/20/2018 12:40:03
00007 suncat0056 pw.x -in pw.inp   Done                     12/20/2018 12:40:03
00008 suncat0055 pw.x -in pw.inp   Done                     12/20/2018 12:40:03
00009 suncat0055 pw.x -in pw.inp   Done                     12/20/2018 12:40:03
00010 suncat0055 pw.x -in pw.inp   Done                     12/20/2018 12:40:03
00011 suncat0055 pw.x -in pw.inp   Done                     12/20/2018 12:40:03
00012 suncat0055 pw.x -in pw.inp   Done                     12/20/2018 12:40:03
00013 suncat0055 pw.x -in pw.inp   Done                     12/20/2018 12:40:03
00014 suncat0055 pw.x -in pw.inp   Done                     12/20/2018 12:40:03
00015 suncat0055 pw.x -in pw.inp   Done                     12/20/2018 12:40:03
00016 suncat0036 pw.x -in pw.inp   Done                     12/20/2018 12:40:03
00017 suncat0036 pw.x -in pw.inp   Done                     12/20/2018 12:40:03
00018 suncat0036 pw.x -in pw.inp   Done                     12/20/2018 12:40:03
00019 suncat0036 pw.x -in pw.inp   Done                     12/20/2018 12:40:03
00020 suncat0036 pw.x -in pw.inp   Done                     12/20/2018 12:40:03
00021 suncat0036 pw.x -in pw.inp   Done                     12/20/2018 12:40:03
00022 suncat0036 pw.x -in pw.inp   Done                     12/20/2018 12:40:03
00023 suncat0036 pw.x -in pw.inp   Done                     12/20/2018 12:40:03
00024 suncat0035 pw.x -in pw.inp   Done                     12/20/2018 12:40:03
00025 suncat0035 pw.x -in pw.inp   Done                     12/20/2018 12:40:03
00026 suncat0035 pw.x -in pw.inp   Done                     12/20/2018 12:40:03
00027 suncat0035 pw.x -in pw.inp   Done                     12/20/2018 12:40:03
00028 suncat0035 pw.x -in pw.inp   Done                     12/20/2018 12:40:03
00029 suncat0035 pw.x -in pw.inp   Done                     12/20/2018 12:40:03
00030 suncat0035 pw.x -in pw.inp   Done                     12/20/2018 12:40:03
00031 suncat0035 pw.x -in pw.inp   Done                     12/20/2018 12:40:03
00032 suncat0034 pw.x -in pw.inp   Done                     12/20/2018 12:40:03
00033 suncat0034 pw.x -in pw.inp   Done                     12/20/2018 12:40:03
00034 suncat0034 pw.x -in pw.inp   Done                     12/20/2018 12:40:03
00035 suncat0034 pw.x -in pw.inp   Done                     12/20/2018 12:40:03
00036 suncat0034 pw.x -in pw.inp   Done                     12/20/2018 12:40:03
00037 suncat0034 pw.x -in pw.inp   Done                     12/20/2018 12:40:03
00038 suncat0034 pw.x -in pw.inp   Done                     12/20/2018 12:40:03
00039 suncat0034 pw.x -in pw.inp   Done                     12/20/2018 12:40:03
00040 suncat0027 pw.x -in pw.inp   Done                     12/20/2018 12:40:03
00041 suncat0027 pw.x -in pw.inp   Done                     12/20/2018 12:40:03
00042 suncat0027 pw.x -in pw.inp   Done                     12/20/2018 12:40:03
00043 suncat0027 pw.x -in pw.inp   Done                     12/20/2018 12:40:03
00044 suncat0027 pw.x -in pw.inp   Done                     12/20/2018 12:40:03
00045 suncat0027 pw.x -in pw.inp   Done                     12/20/2018 12:40:03
00046 suncat0027 pw.x -in pw.inp   Done                     12/20/2018 12:40:03
00047 suncat0027 pw.x -in pw.inp   Done                     12/20/2018 12:40:03
00048 suncat0021 pw.x -in pw.inp   Done                     12/20/2018 12:40:03
00049 suncat0021 pw.x -in pw.inp   Done                     12/20/2018 12:40:03
00050 suncat0021 pw.x -in pw.inp   Done                     12/20/2018 12:40:03
00051 suncat0021 pw.x -in pw.inp   Done                     12/20/2018 12:40:03
00052 suncat0021 pw.x -in pw.inp   Done                     12/20/2018 12:40:03
00053 suncat0021 pw.x -in pw.inp   Done                     12/20/2018 12:40:03
00054 suncat0021 pw.x -in pw.inp   Done                     12/20/2018 12:40:03
00055 suncat0021 pw.x -in pw.inp   Done                     12/20/2018 12:40:03
00056 suncat0191 pw.x -in pw.inp   Done                     12/20/2018 12:40:03
00057 suncat0191 pw.x -in pw.inp   Done                     12/20/2018 12:40:03
00058 suncat0191 pw.x -in pw.inp   Done                     12/20/2018 12:40:03
00059 suncat0191 pw.x -in pw.inp   Done                     12/20/2018 12:40:03
00060 suncat0191 pw.x -in pw.inp   Done                     12/20/2018 12:40:03
00061 suncat0191 pw.x -in pw.inp   Done                     12/20/2018 12:40:03
00062 suncat0191 pw.x -in pw.inp   Done                     12/20/2018 12:40:03
00063 suncat0191 pw.x -in pw.inp   Done                     12/20/2018 12:40:03