     Program PWSCF v.5.1rc2 (svn rev. 11289) starts on 31Dec2018 at 15:16:27

     Current dimensions of program PWSCF are:
     Max number of different atomic species (ntypx) = 10
     Max number of k-points (npk) =  40000
     Max angular momentum in pseudopotentials (lmaxx) =  3
     Presently stress not available with electric field

     IMPORTANT: XC functional enforced from input :
     Exchange-correlation      = BEEF-VDW ( 1  4 27 13 2)
     Any further DFT definition will be discarded
     Please, verify this is what you really want

     Subspace diagonalization in iterative solution of the eigenvalue problem:
     a serial algorithm will be used

     Generating pointlists ...
     new r_m :   0.4125 (alat units)  0.7795 (a.u.) for type    1
     new r_m :   0.4125 (alat units)  0.7795 (a.u.) for type    2

     bravais-lattice index     =            0
     lattice parameter (alat)  =       1.8897  a.u.
     unit-cell volume          =    4419.9592 (a.u.)^3
     number of atoms/cell      =           12
     number of atomic types    =            2
     number of electrons       =       192.00
     number of Kohn-Sham states=          126
     kinetic-energy cutoff     =      36.7493  Ry
     charge density cutoff     =     367.4932  Ry
     convergence threshold     =      1.0E-06
     mixing beta               =       0.1000
     number of iterations used =           10  plain     mixing
     Exchange-correlation      = BEEF-VDW ( 1  4 27 13 2)
     nstep                     =           50

     celldm(1)=   1.889726  celldm(2)=   0.000000  celldm(3)=   0.000000
     celldm(4)=   0.000000  celldm(5)=   0.000000  celldm(6)=   0.000000

     crystal axes: (cart. coord. in units of alat)
               a(1) = (   5.552223   0.000000   0.000000 )
               a(2) = (  -2.776111   4.808366   0.000000 )
               a(3) = (   0.000000   0.000000  24.533371 )

     reciprocal axes: (cart. coord. in units 2 pi/alat)
               b(1) = (  0.180108  0.103985  0.000000 )
               b(2) = (  0.000000  0.207971  0.000000 )
               b(3) = (  0.000000  0.000000  0.040761 )

     PseudoPot. # 1 for Pt read from file:
     /afs/slac.stanford.edu/u/if/mamunm/psp/gbrv1.5pbe/Pt.UPF
     MD5 check sum: f09d6de1a584b5a045c4fc126da2d0c4
     Pseudo is Ultrasoft + core correction, Zval = 16.0
     Generated by new atomic code, or converted to UPF format
     Using radial grid of  985 points,  6 beta functions with:
                l(1) =   0
                l(2) =   0
                l(3) =   1
                l(4) =   1
                l(5) =   2
                l(6) =   2
     Q(r) pseudized with  8 coefficients,  rinner =    1.300   1.300   1.300
                                                       1.300   1.300

     PseudoPot. # 2 for Fe read from file:
     /afs/slac.stanford.edu/u/if/mamunm/psp/gbrv1.5pbe/Fe.UPF
     MD5 check sum: a130daea23fe5165f5d574ae7f82ed95
     Pseudo is Ultrasoft + core correction, Zval = 16.0
     Generated by new atomic code, or converted to UPF format
     Using radial grid of  861 points,  6 beta functions with:
                l(1) =   0
                l(2) =   0
                l(3) =   1
                l(4) =   1
                l(5) =   2
                l(6) =   2
     Q(r) pseudized with  8 coefficients,  rinner =    1.000   1.000   1.000
                                                       1.000   1.000

     vdW kernel table read from file vdW_kernel_table
     MD5 check sum: 095c7af220d748ca6e76c0b4c6cfb241

     atomic species   valence    mass     pseudopotential
        Pt1           16.00   195.08400     Pt( 1.00)
        Fe1           16.00    55.84500     Fe( 1.00)

     Starting magnetic structure
     atomic species   magnetization
        Pt1          0.125
        Fe1          0.125

     No symmetry found

   Cartesian axes

     site n.     atom                  positions (alat units)
         1           Pt1 tau(   1) = (   0.0000000   0.0000000  10.0000000  )
         2           Pt1 tau(   2) = (  -1.3880557   2.4041831  10.0000000  )
         3           Pt1 tau(   3) = (   1.3880557   2.4041831  10.0000000  )
         4           Fe1 tau(   4) = (   2.7761115   0.0000000  10.0000000  )
         5           Pt1 tau(   5) = (   2.7761115   1.6027887  12.2666855  )
         6           Pt1 tau(   6) = (   1.3880557   4.0069718  12.2666855  )
         7           Pt1 tau(   7) = (  -1.3880557   4.0069718  12.2666855  )
         8           Fe1 tau(   8) = (   0.0000000   1.6027887  12.2666855  )
         9           Pt1 tau(   9) = (  -0.0000000   3.2055774  14.5333711  )
        10           Pt1 tau(  10) = (   1.3880557   0.8013944  14.5333711  )
        11           Pt1 tau(  11) = (   4.1641672   0.8013944  14.5333711  )
        12           Fe1 tau(  12) = (   2.7761115   3.2055774  14.5333711  )

     number of k points=    40  Fermi-Dirac smearing, width (Ry)=  0.0110
                       cart. coord. in units 2pi/alat
        k(    1) = (   0.0000000   0.0000000   0.0000000), wk =   0.0277778
        k(    2) = (   0.0000000   0.0346618   0.0000000), wk =   0.0555556
        k(    3) = (   0.0000000   0.0693236   0.0000000), wk =   0.0555556
        k(    4) = (   0.0000000  -0.1039854   0.0000000), wk =   0.0277778
        k(    5) = (   0.0300180   0.0173309   0.0000000), wk =   0.0555556
        k(    6) = (   0.0300180   0.0519927   0.0000000), wk =   0.0555556
        k(    7) = (   0.0300180   0.0866545   0.0000000), wk =   0.0555556
        k(    8) = (   0.0300180  -0.0866545   0.0000000), wk =   0.0555556
        k(    9) = (   0.0300180  -0.0519927   0.0000000), wk =   0.0555556
        k(   10) = (   0.0300180  -0.0173309   0.0000000), wk =   0.0555556
        k(   11) = (   0.0600360   0.0346618   0.0000000), wk =   0.0555556
        k(   12) = (   0.0600360   0.0693236   0.0000000), wk =   0.0555556
        k(   13) = (   0.0600360   0.1039854   0.0000000), wk =   0.0555556
        k(   14) = (   0.0600360  -0.0693236   0.0000000), wk =   0.0555556
        k(   15) = (   0.0600360  -0.0346618   0.0000000), wk =   0.0555556
        k(   16) = (   0.0600360   0.0000000   0.0000000), wk =   0.0555556
        k(   17) = (  -0.0900540  -0.0519927   0.0000000), wk =   0.0277778
        k(   18) = (  -0.0900540  -0.0173309   0.0000000), wk =   0.0555556
        k(   19) = (  -0.0900540   0.0173309   0.0000000), wk =   0.0555556
        k(   20) = (  -0.0900540  -0.1559781   0.0000000), wk =   0.0277778
        k(   21) = (   0.0000000   0.0000000   0.0000000), wk =   0.0277778
        k(   22) = (   0.0000000   0.0346618   0.0000000), wk =   0.0555556
        k(   23) = (   0.0000000   0.0693236   0.0000000), wk =   0.0555556
        k(   24) = (   0.0000000  -0.1039854   0.0000000), wk =   0.0277778
        k(   25) = (   0.0300180   0.0173309   0.0000000), wk =   0.0555556
        k(   26) = (   0.0300180   0.0519927   0.0000000), wk =   0.0555556
        k(   27) = (   0.0300180   0.0866545   0.0000000), wk =   0.0555556
        k(   28) = (   0.0300180  -0.0866545   0.0000000), wk =   0.0555556
        k(   29) = (   0.0300180  -0.0519927   0.0000000), wk =   0.0555556
        k(   30) = (   0.0300180  -0.0173309   0.0000000), wk =   0.0555556
        k(   31) = (   0.0600360   0.0346618   0.0000000), wk =   0.0555556
        k(   32) = (   0.0600360   0.0693236   0.0000000), wk =   0.0555556
        k(   33) = (   0.0600360   0.1039854   0.0000000), wk =   0.0555556
        k(   34) = (   0.0600360  -0.0693236   0.0000000), wk =   0.0555556
        k(   35) = (   0.0600360  -0.0346618   0.0000000), wk =   0.0555556
        k(   36) = (   0.0600360   0.0000000   0.0000000), wk =   0.0555556
        k(   37) = (  -0.0900540  -0.0519927   0.0000000), wk =   0.0277778
        k(   38) = (  -0.0900540  -0.0173309   0.0000000), wk =   0.0555556
        k(   39) = (  -0.0900540   0.0173309   0.0000000), wk =   0.0555556
        k(   40) = (  -0.0900540  -0.1559781   0.0000000), wk =   0.0277778

     Largest allocated arrays     est. size (Mb)     dimensions
     Largest temporary arrays     est. size (Mb)     dimensions

     Check: negative/imaginary core charge=   -0.000003    0.000000

     Initial potential from superposition of free atoms
     Check: negative starting charge=(component1):   -0.930368
     Check: negative starting charge=(component2):   -0.723620

     starting charge  184.49988, renormalised to  192.00000

     negative rho (up, down):  9.682E-01 7.530E-01

     *
     * You are using vdW-DF for exchange-correlation in this calculation.
     * Please cite the following three references that made this development
     * possible:
     *
     *   M. Dion, H. Rydberg, E. Schroder, D. C. Langreth, and
     *   B. I. Lundqvist, Phys. Rev. Lett. 92, 246401 (2004).
     *
     *   T. Thonhauser, V. R. Cooper, S. Li, A. Puzder, P. Hyldgaard, and
     *   D. C. Langreth, Phys. Rev. B 76, 125112 (2007).
     *
     *   G. Roman-Perez and J. M. Soler, Phys. Rev. Lett. 103, 096102 (2009).
     *
     *
     * If you are using vdW-DF2, please also cite:
     *
     *   K. Lee, E. D. Murray, L. Kong, B. I. Lundqvist, and
     *   D. C. Langreth, Phys. Rev. B 82, 081101(R) (2010).
     *
     *
     * If you are calculating the stress with vdW-DF, please also cite:
     *
     *   R. Sabatini, E. Kucukbenli, B. Kolb, T. Thonhauser, and
     *   S. de Gironcoli, J. Phys.: Condens. Matter 24, 424209 (2012).
     *

     Carrying out vdW-DF run using the following parameters:

     Nqs =      20    Nr_points =    1024   r_max =   100.000
     q_mesh =
               0.00001000     0.04494208     0.09755937     0.15916263
               0.23128650     0.31572767     0.41458969     0.53033537
               0.66584808     0.82450364     1.01025438     1.22772762
               1.48234092     1.78043706     2.12944203     2.53805004
               3.01644009     3.57652955     4.23227104     5.00000000

     Gradients computed in reciprocal space

     Adding external electric field

     Computed dipole along edir(3) :
        Dipole                0.0000 Ry au,          0.0000 Debye
        Dipole field          0.0000 Ry au

        Potential amp.       -0.0000 Ry
        Total length         45.2023 bohr

[...]

     Starting wfc are  147 randomized atomic wfcs

     Self-consistent Calculation

     iteration #  1     ecut=    36.75 Ry     beta=0.10
     Davidson diagonalization with overlap
     ethr =  1.00E-02,  avg # of iterations =  7.4

[...]

     Magnetic moment per site:
     atom:    1    charge:    2.1184    magn:    0.2500    constr:    0.0000
     atom:    2    charge:    2.1184    magn:    0.2500    constr:    0.0000
     atom:    3    charge:    2.1184    magn:    0.2500    constr:    0.0000
     atom:    4    charge:    7.3667    magn:    0.8369    constr:    0.0000
     atom:    5    charge:    2.1112    magn:    0.2488    constr:    0.0000
     atom:    6    charge:    2.1112    magn:    0.2488    constr:    0.0000
     atom:    7    charge:    2.1112    magn:    0.2488    constr:    0.0000
     atom:    8    charge:    7.3493    magn:    0.8383    constr:    0.0000
[...]
        k(    4) = (   0.0000000  -0.1039854   0.0000000), wk =   0.0277778
        k(    5) = (   0.0300180   0.0173309   0.0000000), wk =   0.0555556
        k(    6) = (   0.0300180   0.0519927   0.0000000), wk =   0.0555556
        k(    7) = (   0.0300180   0.0866545   0.0000000), wk =   0.0555556
        k(    8) = (   0.0300180  -0.0866545   0.0000000), wk =   0.0555556
        k(    9) = (   0.0300180  -0.0519927   0.0000000), wk =   0.0555556
        k(   10) = (   0.0300180  -0.0173309   0.0000000), wk =   0.0555556
        k(   11) = (   0.0600360   0.0346618   0.0000000), wk =   0.0555556
        k(   12) = (   0.0600360   0.0693236   0.0000000), wk =   0.0555556
        k(   13) = (   0.0600360   0.1039854   0.0000000), wk =   0.0555556
        k(   14) = (   0.0600360  -0.0693236   0.0000000), wk =   0.0555556
        k(   15) = (   0.0600360  -0.0346618   0.0000000), wk =   0.0555556
        k(   16) = (   0.0600360   0.0000000   0.0000000), wk =   0.0555556
        k(   17) = (  -0.0900540  -0.0519927   0.0000000), wk =   0.0277778
        k(   18) = (  -0.0900540  -0.0173309   0.0000000), wk =   0.0555556
        k(   19) = (  -0.0900540   0.0173309   0.0000000), wk =   0.0555556
        k(   20) = (  -0.0900540  -0.1559781   0.0000000), wk =   0.0277778
        k(   21) = (   0.0000000   0.0000000   0.0000000), wk =   0.0277778
        k(   22) = (   0.0000000   0.0346618   0.0000000), wk =   0.0555556
        k(   23) = (   0.0000000   0.0693236   0.0000000), wk =   0.0555556
        k(   24) = (   0.0000000  -0.1039854   0.0000000), wk =   0.0277778
        k(   25) = (   0.0300180   0.0173309   0.0000000), wk =   0.0555556
        k(   26) = (   0.0300180   0.0519927   0.0000000), wk =   0.0555556
        k(   27) = (   0.0300180   0.0866545   0.0000000), wk =   0.0555556
        k(   28) = (   0.0300180  -0.0866545   0.0000000), wk =   0.0555556
        k(   29) = (   0.0300180  -0.0519927   0.0000000), wk =   0.0555556
        k(   30) = (   0.0300180  -0.0173309   0.0000000), wk =   0.0555556
        k(   31) = (   0.0600360   0.0346618   0.0000000), wk =   0.0555556
        k(   32) = (   0.0600360   0.0693236   0.0000000), wk =   0.0555556
        k(   33) = (   0.0600360   0.1039854   0.0000000), wk =   0.0555556
        k(   34) = (   0.0600360  -0.0693236   0.0000000), wk =   0.0555556
        k(   35) = (   0.0600360  -0.0346618   0.0000000), wk =   0.0555556
        k(   36) = (   0.0600360   0.0000000   0.0000000), wk =   0.0555556
        k(   37) = (  -0.0900540  -0.0519927   0.0000000), wk =   0.0277778
        k(   38) = (  -0.0900540  -0.0173309   0.0000000), wk =   0.0555556
        k(   39) = (  -0.0900540   0.0173309   0.0000000), wk =   0.0555556
        k(   40) = (  -0.0900540  -0.1559781   0.0000000), wk =   0.0277778

     Largest allocated arrays     est. size (Mb)     dimensions
     Largest temporary arrays     est. size (Mb)     dimensions

     Check: negative/imaginary core charge=   -0.000003    0.000000

     Initial potential from superposition of free atoms
     Check: negative starting charge=(component1):   -0.927984
     Check: negative starting charge=(component2):   -0.721766

     starting charge  184.49988, renormalised to  192.00000

[...]

     *
     * You are using vdW-DF for exchange-correlation in this calculation.
     * Please cite the following three references that made this development
     * possible:
     *
     *   M. Dion, H. Rydberg, E. Schroder, D. C. Langreth, and
     *   B. I. Lundqvist, Phys. Rev. Lett. 92, 246401 (2004).
     *
     *   T. Thonhauser, V. R. Cooper, S. Li, A. Puzder, P. Hyldgaard, and
     *   D. C. Langreth, Phys. Rev. B 76, 125112 (2007).
     *
     *   G. Roman-Perez and J. M. Soler, Phys. Rev. Lett. 103, 096102 (2009).
     *
     *
     * If you are using vdW-DF2, please also cite:
     *
     *   K. Lee, E. D. Murray, L. Kong, B. I. Lundqvist, and
     *   D. C. Langreth, Phys. Rev. B 82, 081101(R) (2010).
     *
     *
     * If you are calculating the stress with vdW-DF, please also cite:
     *
     *   R. Sabatini, E. Kucukbenli, B. Kolb, T. Thonhauser, and
     *   S. de Gironcoli, J. Phys.: Condens. Matter 24, 424209 (2012).
     *

     Carrying out vdW-DF run using the following parameters:

     Nqs =      20    Nr_points =    1024   r_max =   100.000
     q_mesh =
               0.00001000     0.04494208     0.09755937     0.15916263
               0.23128650     0.31572767     0.41458969     0.53033537
               0.66584808     0.82450364     1.01025438     1.22772762
               1.48234092     1.78043706     2.12944203     2.53805004
               3.01644009     3.57652955     4.23227104     5.00000000

     Gradients computed in reciprocal space

[...]

     Starting wfc are  147 randomized atomic wfcs

     Self-consistent Calculation

[...]

     total energy              =   -2665.28009157 Ry
     Harris-Foulkes estimate   =   -2665.28008706 Ry
     estimated scf accuracy    <       0.00000577 Ry

[...]

     iteration # 25     ecut=    36.75 Ry     beta=0.10
     Davidson diagonalization with overlap
     ethr =  3.00E-09,  avg # of iterations =  2.1

[...]

     negative rho (up, down):  8.025E-01 7.778E-01

[...]

     Adding external electric field

     Computed dipole along edir(3) :
        Dipole               -0.0078 Ry au,         -0.0198 Debye
        Dipole field         -0.0000 Ry au

        Potential amp.        0.0020 Ry
        Total length         45.2023 bohr

     Magnetic moment per site:
     atom:    1    charge:    2.1045    magn:    0.0255    constr:    0.0000
     atom:    2    charge:    2.1045    magn:    0.0255    constr:    0.0000
     atom:    3    charge:    2.1045    magn:    0.0255    constr:    0.0000
     atom:    4    charge:    7.1056    magn:    1.5606    constr:    0.0000
     atom:    5    charge:    2.1005    magn:    0.0358    constr:    0.0000
     atom:    6    charge:    2.1005    magn:    0.0358    constr:    0.0000
     atom:    7    charge:    2.1005    magn:    0.0358    constr:    0.0000
     atom:    8    charge:    7.0895    magn:    1.5848    constr:    0.0000
     atom:    9    charge:    2.0969    magn:    0.0258    constr:    0.0000
     atom:   10    charge:    2.0969    magn:    0.0258    constr:    0.0000
     atom:   11    charge:    2.0969    magn:    0.0258    constr:    0.0000
     atom:   12    charge:    7.0982    magn:    1.5593    constr:    0.0000

     End of self-consistent calculation

 ------ SPIN UP ------------

[...]

 ------ SPIN DOWN ----------

[...]

          k = 0.0600 0.0000 0.0000 ( 16572 PWs)   bands (ev):

[...]

          k =-0.0901-0.1560 0.0000 ( 16632 PWs)   bands (ev):

   -84.2891 -84.2267 -84.2221 -51.3044 -51.2030 -51.1991 -51.1826 -51.1721
   -51.1451 -51.1387 -51.1277 -51.0412 -50.9758 -50.9535 -50.8785 -50.8558
   -50.8472 -50.8400 -50.8326 -50.8243 -50.8216 -50.8087 -50.7334 -50.7235
   -50.6563 -50.6424 -50.6397 -50.6248 -50.6203 -50.6148 -50.3928 -50.3862
   -50.3485 -50.3455 -50.3445 -50.3039 -50.2982 -50.2947 -50.2887  -5.4355
    -5.0983  -4.0284  -3.7416  -3.6471  -3.4679  -3.4467  -3.3242  -3.1400
    -2.9949  -2.9094  -2.8827  -2.6227  -2.4777  -2.3927  -2.3870  -2.3067
    -2.2936  -1.9953  -1.8934  -1.5000  -1.4706  -1.4233  -1.3876  -1.3637
    -1.2949  -1.2162  -1.1758  -1.1317  -1.0676  -1.0349  -0.8879  -0.8143
    -0.7567  -0.4951  -0.4935  -0.4002  -0.2568  -0.1797  -0.0680  -0.0324
     0.1873   0.3383   0.3492   0.5282   0.6256   0.8367   1.0045   1.0129
     1.0586   1.4422   1.5496   1.6594   1.7617   1.7710   1.8308   1.8417
     1.9803   2.0817   2.1241   2.2851   2.3618   2.4293   2.6249   3.3792
     3.4183   3.8773   3.9521   4.6019   4.6135   5.8326   5.8776   6.4365
     6.5768   7.5777   7.5979   8.1754   8.1878   8.2961   8.3031   9.1289
     9.1841   9.2846   9.3753   9.3996   9.4629   9.4876

     the Fermi energy is     1.5416 ev

!    total energy              =   -2665.28010887 Ry
     Harris-Foulkes estimate   =   -2665.28009782 Ry
     estimated scf accuracy    <       0.00000087 Ry

     The total energy is the sum of the following terms:

     one-electron contribution =  -20882.99557741 Ry
     hartree contribution      =   10467.03493385 Ry
     xc contribution           =    -618.47322840 Ry
     ewald contribution        =    8369.22676298 Ry
     electric field correction =       0.00000017 Ry
     smearing contrib. (-TS)   =      -0.07300007 Ry

     total magnetization       =    12.60 Bohr mag/cell
     absolute magnetization    =    13.45 Bohr mag/cell

     convergence has been achieved in  25 iterations

 BEEF-vdW xc energy contributions
           1 :   -549.432756774993
           2 :    509.234834609176
           3 :   -438.170977067729
           4 :    351.193745413719
           5 :   -263.718324459557
           6 :    187.302186203400
           7 :   -127.611386386804
           8 :    84.7770084760211
           9 :   -55.3663706075400
          10 :    34.7839180172119
          11 :   -19.1649061206555
          12 :    6.28226189488794
          13 :    4.45565345883006
          14 :   -12.5899539582775
          15 :    17.3822226140520
          16 :   -18.5006497216505
          17 :    16.4035852145803
          18 :   -12.3276364888181
          19 :    7.89605042989672
          20 :   -4.55274951964134
          21 :    3.08067707840928
          22 :   -3.43323163353386
          23 :    4.91249633405380
          24 :   -6.57651000186968
          25 :    7.64742470335625
          26 :   -7.76069873232450
          27 :    6.99565515387087
          28 :   -5.75323392765029
          29 :    4.55650247428741
          30 :   -3.84901979037738
          31 :   -45.3915732317798
          32 :   -33.3054108583353

     Forces acting on atoms (Ry/au):

     negative rho (up, down):  8.025E-01 7.778E-01
     atom    1 type  1   force =     0.00000003    0.02042708   -0.00050505
     atom    2 type  1   force =     0.01769054   -0.01021378   -0.00050498
     atom    3 type  1   force =    -0.01769038   -0.01021379   -0.00050495
     atom    4 type  2   force =    -0.00000015    0.00000047    0.00878678
     atom    5 type  1   force =    -0.00000003   -0.00253610   -0.00193554
     atom    6 type  1   force =    -0.00219630    0.00126792   -0.00193554
     atom    7 type  1   force =     0.00219626    0.00126788   -0.00193567
     atom    8 type  2   force =     0.00000014    0.00000068   -0.00354989
     atom    9 type  1   force =     0.00000026    0.00088202    0.00039121
     atom   10 type  1   force =     0.00076390   -0.00044100    0.00039106
     atom   11 type  1   force =    -0.00076394   -0.00044117    0.00039119
     atom   12 type  2   force =    -0.00000033   -0.00000020    0.00091138

     Total force =     0.037102     Total SCF correction =     0.002731

     entering subroutine stress ...

     negative rho (up, down):  8.025E-01 7.778E-01
          total   stress  (Ry/bohr**3)                   (kbar)     P=  -17.65
  -0.00017033   0.00000000   0.00000000        -25.06      0.00      0.00
   0.00000000  -0.00017033   0.00000000          0.00    -25.06      0.00
   0.00000000   0.00000000  -0.00001932          0.00      0.00     -2.84

 !ASE

     Writing output data file calc.save

     General routines

     Parallel routines

   This run was terminated on:  19:17:45  31Dec2018

   JOB DONE.
Job  /afs/slac/g/suncat/bin/suncat-tsmpirun -x LD_LIBRARY_PATH -wdir /scratch/qe648798_nlfsc pw.x -in pw.inp

TID   HOST_NAME   COMMAND_LINE            STATUS            TERMINATION_TIME
00000 suncat0062 pw.x -in pw.inp   Done                     12/31/2018 19:17:45
00001 suncat0062 pw.x -in pw.inp   Done                     12/31/2018 19:17:45
00002 suncat0062 pw.x -in pw.inp   Done                     12/31/2018 19:17:45
00003 suncat0062 pw.x -in pw.inp   Done                     12/31/2018 19:17:45
00004 suncat0062 pw.x -in pw.inp   Done                     12/31/2018 19:17:45
00005 suncat0062 pw.x -in pw.inp   Done                     12/31/2018 19:17:45
00006 suncat0062 pw.x -in pw.inp   Done                     12/31/2018 19:17:45
00007 suncat0062 pw.x -in pw.inp   Done                     12/31/2018 19:17:45
00008 suncat0061 pw.x -in pw.inp   Done                     12/31/2018 19:17:45
00009 suncat0061 pw.x -in pw.inp   Done                     12/31/2018 19:17:45
00010 suncat0061 pw.x -in pw.inp   Done                     12/31/2018 19:17:45
00011 suncat0061 pw.x -in pw.inp   Done                     12/31/2018 19:17:45
00012 suncat0061 pw.x -in pw.inp   Done                     12/31/2018 19:17:45
00013 suncat0061 pw.x -in pw.inp   Done                     12/31/2018 19:17:45
00014 suncat0061 pw.x -in pw.inp   Done                     12/31/2018 19:17:45
00015 suncat0061 pw.x -in pw.inp   Done                     12/31/2018 19:17:45
00016 suncat0060 pw.x -in pw.inp   Done                     12/31/2018 19:17:45
00017 suncat0060 pw.x -in pw.inp   Done                     12/31/2018 19:17:45
00018 suncat0060 pw.x -in pw.inp   Done                     12/31/2018 19:17:45
00019 suncat0060 pw.x -in pw.inp   Done                     12/31/2018 19:17:45
00020 suncat0060 pw.x -in pw.inp   Done                     12/31/2018 19:17:45
00021 suncat0060 pw.x -in pw.inp   Done                     12/31/2018 19:17:45
00022 suncat0060 pw.x -in pw.inp   Done                     12/31/2018 19:17:45
00023 suncat0060 pw.x -in pw.inp   Done                     12/31/2018 19:17:45
00024 suncat0057 pw.x -in pw.inp   Done                     12/31/2018 19:17:45
00025 suncat0057 pw.x -in pw.inp   Done                     12/31/2018 19:17:45
00026 suncat0057 pw.x -in pw.inp   Done                     12/31/2018 19:17:45
00027 suncat0057 pw.x -in pw.inp   Done                     12/31/2018 19:17:45
00028 suncat0057 pw.x -in pw.inp   Done                     12/31/2018 19:17:45
00029 suncat0057 pw.x -in pw.inp   Done                     12/31/2018 19:17:45
00030 suncat0057 pw.x -in pw.inp   Done                     12/31/2018 19:17:45
00031 suncat0057 pw.x -in pw.inp   Done                     12/31/2018 19:17:45
00032 suncat0016 pw.x -in pw.inp   Done                     12/31/2018 19:17:45
00033 suncat0016 pw.x -in pw.inp   Done                     12/31/2018 19:17:45
00034 suncat0016 pw.x -in pw.inp   Done                     12/31/2018 19:17:45
00035 suncat0016 pw.x -in pw.inp   Done                     12/31/2018 19:17:45
00036 suncat0016 pw.x -in pw.inp   Done                     12/31/2018 19:17:45
00037 suncat0016 pw.x -in pw.inp   Done                     12/31/2018 19:17:45
00038 suncat0016 pw.x -in pw.inp   Done                     12/31/2018 19:17:45
00039 suncat0016 pw.x -in pw.inp   Done                     12/31/2018 19:17:45
00040 suncat0198 pw.x -in pw.inp   Done                     12/31/2018 19:17:45
00041 suncat0198 pw.x -in pw.inp   Done                     12/31/2018 19:17:45
00042 suncat0198 pw.x -in pw.inp   Done                     12/31/2018 19:17:45
00043 suncat0198 pw.x -in pw.inp   Done                     12/31/2018 19:17:45
00044 suncat0198 pw.x -in pw.inp   Done                     12/31/2018 19:17:45
00045 suncat0198 pw.x -in pw.inp   Done                     12/31/2018 19:17:45
00046 suncat0198 pw.x -in pw.inp   Done                     12/31/2018 19:17:45
00047 suncat0198 pw.x -in pw.inp   Done                     12/31/2018 19:17:45
00048 suncat0194 pw.x -in pw.inp   Done                     12/31/2018 19:17:45
00049 suncat0194 pw.x -in pw.inp   Done                     12/31/2018 19:17:45
00050 suncat0194 pw.x -in pw.inp   Done                     12/31/2018 19:17:45
00051 suncat0194 pw.x -in pw.inp   Done                     12/31/2018 19:17:45
00052 suncat0194 pw.x -in pw.inp   Done                     12/31/2018 19:17:45
00053 suncat0194 pw.x -in pw.inp   Done                     12/31/2018 19:17:45
00054 suncat0194 pw.x -in pw.inp   Done                     12/31/2018 19:17:45
00055 suncat0194 pw.x -in pw.inp   Done                     12/31/2018 19:17:45
00056 suncat0193 pw.x -in pw.inp   Done                     12/31/2018 19:17:45
00057 suncat0193 pw.x -in pw.inp   Done                     12/31/2018 19:17:45
00058 suncat0193 pw.x -in pw.inp   Done                     12/31/2018 19:17:45
00059 suncat0193 pw.x -in pw.inp   Done                     12/31/2018 19:17:45
00060 suncat0193 pw.x -in pw.inp   Done                     12/31/2018 19:17:45
00061 suncat0193 pw.x -in pw.inp   Done                     12/31/2018 19:17:45
00062 suncat0193 pw.x -in pw.inp   Done                     12/31/2018 19:17:45
00063 suncat0193 pw.x -in pw.inp   Done                     12/31/2018 19:17:45