     Program PWSCF v.5.1rc2 (svn rev. 11289) starts on 26Dec2018 at 15: 0: 7

     Current dimensions of program PWSCF are:
     Max number of different atomic species (ntypx) = 10
     Max number of k-points (npk) =  40000
     Max angular momentum in pseudopotentials (lmaxx) =  3
     Presently stress not available with electric field

     IMPORTANT: XC functional enforced from input :
     Exchange-correlation      = BEEF-VDW ( 1  4 27 13 2)
     Any further DFT definition will be discarded
     Please, verify this is what you really want

     Subspace diagonalization in iterative solution of the eigenvalue problem:
     a serial algorithm will be used

     Generating pointlists ...
     new r_m :   0.4125 (alat units)  0.7795 (a.u.) for type    1
     new r_m :   0.4125 (alat units)  0.7795 (a.u.) for type    2

     bravais-lattice index     =            0
     lattice parameter (alat)  =       1.8897  a.u.
     unit-cell volume          =    4191.1035 (a.u.)^3
     number of atoms/cell      =           12
     number of atomic types    =            2
     number of electrons       =       180.00
     number of Kohn-Sham states=          120
     kinetic-energy cutoff     =      36.7493  Ry
     charge density cutoff     =     367.4932  Ry
     convergence threshold     =      1.0E-06
     mixing beta               =       0.1000
     number of iterations used =           10  plain     mixing
     Exchange-correlation      = BEEF-VDW ( 1  4 27 13 2)
     nstep                     =           50

     celldm(1)=   1.889726  celldm(2)=   0.000000  celldm(3)=   0.000000
     celldm(4)=   0.000000  celldm(5)=   0.000000  celldm(6)=   0.000000

     crystal axes: (cart. coord. in units of alat)
               a(1) = (   5.418631   0.000000   0.000000 )
               a(2) = (  -2.709315   4.692672   0.000000 )
               a(3) = (   0.000000   0.000000  24.424294 )

     reciprocal axes: (cart. coord. in units 2 pi/alat)
               b(1) = (  0.184548  0.106549  0.000000 )
               b(2) = (  0.000000  0.213098  0.000000 )
               b(3) = (  0.000000  0.000000  0.040943 )

     PseudoPot. # 1 for Ir read from file:
     /afs/slac.stanford.edu/u/if/mamunm/psp/gbrv1.5pbe/Ir.UPF
     MD5 check sum: 8836f839c3459d2b385c504ce6d91f2c
     Pseudo is Ultrasoft + core correction, Zval = 15.0
     Generated by new atomic code, or converted to UPF format
     Using radial grid of  983 points,  7 beta functions with:
                l(1) =   0
                l(2) =   0
                l(3) =   1
                l(4) =   1
                l(5) =   1
                l(6) =   2
                l(7) =   2
     Q(r) pseudized with  8 coefficients,  rinner =    1.400   1.400   1.400
                                                       1.400   1.400

     PseudoPot. # 2 for Mn read from file:
     /afs/slac.stanford.edu/u/if/mamunm/psp/gbrv1.5pbe/Mn.UPF
     MD5 check sum: 82ef2b46521d7a7d9e736dc3972e4928
     Pseudo is Ultrasoft + core correction, Zval = 15.0
     Generated by new atomic code, or converted to UPF format
     Using radial grid of  859 points,  6 beta functions with:
                l(1) =   0
                l(2) =   0
                l(3) =   1
                l(4) =   1
                l(5) =   2
                l(6) =   2
     Q(r) pseudized with  8 coefficients,  rinner =    0.950   0.950   0.950
                                                       0.950   0.950

     vdW kernel table read from file vdW_kernel_table
     MD5 check sum: 095c7af220d748ca6e76c0b4c6cfb241

     atomic species   valence    mass     pseudopotential
        Ir1           15.00   192.21700     Ir( 1.00)
        Mn1           15.00    54.93804     Mn( 1.00)

     Starting magnetic structure
     atomic species   magnetization
        Ir1          0.133
        Mn1          0.133

     No symmetry found

   Cartesian axes

     site n.     atom                  positions (alat units)
         1           Ir1 tau(   1) = (   0.0000000   0.0000000  10.0000000  )
         2           Ir1 tau(   2) = (  -1.3546577   2.3463360  10.0000000  )
         3           Ir1 tau(   3) = (   1.3546577   2.3463360  10.0000000  )
         4           Mn1 tau(   4) = (   2.7093155   0.0000000  10.0000000  )
         5           Ir1 tau(   5) = (   2.7093155   1.5642240  12.2121468  )
         6           Ir1 tau(   6) = (   1.3546577   3.9105600  12.2121468  )
         7           Ir1 tau(   7) = (  -1.3546577   3.9105600  12.2121468  )
         8           Mn1 tau(   8) = (   0.0000000   1.5642240  12.2121468  )
         9           Ir1 tau(   9) = (  -0.0000000   3.1284480  14.4242936  )
        10           Ir1 tau(  10) = (   1.3546577   0.7821120  14.4242936  )
        11           Ir1 tau(  11) = (   4.0639732   0.7821120  14.4242936  )
        12           Mn1 tau(  12) = (   2.7093155   3.1284480  14.4242936  )

     number of k points=    40  Fermi-Dirac smearing, width (Ry)=  0.0110
                       cart. coord. in units 2pi/alat
        k(    1) = (   0.0000000   0.0000000   0.0000000), wk =   0.0277778
        k(    2) = (   0.0000000   0.0355164   0.0000000), wk =   0.0555556
        k(    3) = (   0.0000000   0.0710327   0.0000000), wk =   0.0555556
        k(    4) = (   0.0000000  -0.1065491   0.0000000), wk =   0.0277778
        k(    5) = (   0.0307581   0.0177582   0.0000000), wk =   0.0555556
        k(    6) = (   0.0307581   0.0532746   0.0000000), wk =   0.0555556
        k(    7) = (   0.0307581   0.0887909   0.0000000), wk =   0.0555556
        k(    8) = (   0.0307581  -0.0887909   0.0000000), wk =   0.0555556
        k(    9) = (   0.0307581  -0.0532746   0.0000000), wk =   0.0555556
        k(   10) = (   0.0307581  -0.0177582   0.0000000), wk =   0.0555556
        k(   11) = (   0.0615162   0.0355164   0.0000000), wk =   0.0555556
        k(   12) = (   0.0615162   0.0710327   0.0000000), wk =   0.0555556
        k(   13) = (   0.0615162   0.1065491   0.0000000), wk =   0.0555556
        k(   14) = (   0.0615162  -0.0710327   0.0000000), wk =   0.0555556
        k(   15) = (   0.0615162  -0.0355164   0.0000000), wk =   0.0555556
        k(   16) = (   0.0615162   0.0000000   0.0000000), wk =   0.0555556
        k(   17) = (  -0.0922742  -0.0532746   0.0000000), wk =   0.0277778
        k(   18) = (  -0.0922742  -0.0177582   0.0000000), wk =   0.0555556
        k(   19) = (  -0.0922742   0.0177582   0.0000000), wk =   0.0555556
        k(   20) = (  -0.0922742  -0.1598237   0.0000000), wk =   0.0277778
        k(   21) = (   0.0000000   0.0000000   0.0000000), wk =   0.0277778
        k(   22) = (   0.0000000   0.0355164   0.0000000), wk =   0.0555556
        k(   23) = (   0.0000000   0.0710327   0.0000000), wk =   0.0555556
        k(   24) = (   0.0000000  -0.1065491   0.0000000), wk =   0.0277778
        k(   25) = (   0.0307581   0.0177582   0.0000000), wk =   0.0555556
        k(   26) = (   0.0307581   0.0532746   0.0000000), wk =   0.0555556
        k(   27) = (   0.0307581   0.0887909   0.0000000), wk =   0.0555556
        k(   28) = (   0.0307581  -0.0887909   0.0000000), wk =   0.0555556
        k(   29) = (   0.0307581  -0.0532746   0.0000000), wk =   0.0555556
        k(   30) = (   0.0307581  -0.0177582   0.0000000), wk =   0.0555556
        k(   31) = (   0.0615162   0.0355164   0.0000000), wk =   0.0555556
        k(   32) = (   0.0615162   0.0710327   0.0000000), wk =   0.0555556
        k(   33) = (   0.0615162   0.1065491   0.0000000), wk =   0.0555556
        k(   34) = (   0.0615162  -0.0710327   0.0000000), wk =   0.0555556
        k(   35) = (   0.0615162  -0.0355164   0.0000000), wk =   0.0555556
        k(   36) = (   0.0615162   0.0000000   0.0000000), wk =   0.0555556
        k(   37) = (  -0.0922742  -0.0532746   0.0000000), wk =   0.0277778
        k(   38) = (  -0.0922742  -0.0177582   0.0000000), wk =   0.0555556
        k(   39) = (  -0.0922742   0.0177582   0.0000000), wk =   0.0555556
        k(   40) = (  -0.0922742  -0.1598237   0.0000000), wk =   0.0277778

     Largest allocated arrays     est. size (Mb)     dimensions
     Largest temporary arrays     est. size (Mb)     dimensions

     Check: negative/imaginary core charge=   -0.000003    0.000000

     Initial potential from superposition of free atoms
     Check: negative starting charge=(component1):   -1.855704
     Check: negative starting charge=(component2):   -1.419068

     starting charge  173.99946, renormalised to  180.00000

     negative rho (up, down):  1.920E+00 1.468E+00

     *
     * You are using vdW-DF for exchange-correlation in this calculation.
     * Please cite the following three references that made this development
     * possible:
     *
     *   M. Dion, H. Rydberg, E. Schroder, D. C. Langreth, and
     *   B. I. Lundqvist, Phys. Rev. Lett. 92, 246401 (2004).
     *
     *   T. Thonhauser, V. R. Cooper, S. Li, A. Puzder, P. Hyldgaard, and
     *   D. C. Langreth, Phys. Rev. B 76, 125112 (2007).
     *
     *   G. Roman-Perez and J. M. Soler, Phys. Rev. Lett. 103, 096102 (2009).
     *
     *
     * If you are using vdW-DF2, please also cite:
     *
     *   K. Lee, E. D. Murray, L. Kong, B. I. Lundqvist, and
     *   D. C. Langreth, Phys. Rev. B 82, 081101(R) (2010).
     *
     *
     * If you are calculating the stress with vdW-DF, please also cite:
     *
     *   R. Sabatini, E. Kucukbenli, B. Kolb, T. Thonhauser, and
     *   S. de Gironcoli, J. Phys.: Condens. Matter 24, 424209 (2012).
     *

     Carrying out vdW-DF run using the following parameters:

     Nqs =      20    Nr_points =    1024   r_max =   100.000
     q_mesh =
               0.00001000     0.04494208     0.09755937     0.15916263
               0.23128650     0.31572767     0.41458969     0.53033537
               0.66584808     0.82450364     1.01025438     1.22772762
               1.48234092     1.78043706     2.12944203     2.53805004
               3.01644009     3.57652955     4.23227104     5.00000000

     Gradients computed in reciprocal space

     Adding external electric field

     Computed dipole along edir(3) :
        Dipole               -0.0000 Ry au,         -0.0000 Debye
        Dipole field         -0.0000 Ry au

        Potential amp.        0.0000 Ry
        Total length         45.0013 bohr

[...]

     Starting wfc are  147 randomized atomic wfcs

     Self-consistent Calculation

     iteration #  1     ecut=    36.75 Ry     beta=0.10
     Davidson diagonalization with overlap
     ethr =  1.00E-02,  avg # of iterations =  7.7

[...]

     Magnetic moment per site:
     atom:    1    charge:    1.6011    magn:    0.1961    constr:    0.0000
     atom:    2    charge:    1.6011    magn:    0.1961    constr:    0.0000
     atom:    3    charge:    1.6011    magn:    0.1961    constr:    0.0000
     atom:    4    charge:    6.1448    magn:    0.8039    constr:    0.0000
     atom:    5    charge:    1.5895    magn:    0.1940    constr:    0.0000
     atom:    6    charge:    1.5895    magn:    0.1940    constr:    0.0000
     atom:    7    charge:    1.5895    magn:    0.1940    constr:    0.0000
[...]
        k(    3) = (   0.0000000   0.0710327   0.0000000), wk =   0.0555556
        k(    4) = (   0.0000000  -0.1065491   0.0000000), wk =   0.0277778
        k(    5) = (   0.0307581   0.0177582   0.0000000), wk =   0.0555556
        k(    6) = (   0.0307581   0.0532746   0.0000000), wk =   0.0555556
        k(    7) = (   0.0307581   0.0887909   0.0000000), wk =   0.0555556
        k(    8) = (   0.0307581  -0.0887909   0.0000000), wk =   0.0555556
        k(    9) = (   0.0307581  -0.0532746   0.0000000), wk =   0.0555556
        k(   10) = (   0.0307581  -0.0177582   0.0000000), wk =   0.0555556
        k(   11) = (   0.0615162   0.0355164   0.0000000), wk =   0.0555556
        k(   12) = (   0.0615162   0.0710327   0.0000000), wk =   0.0555556
        k(   13) = (   0.0615162   0.1065491   0.0000000), wk =   0.0555556
        k(   14) = (   0.0615162  -0.0710327   0.0000000), wk =   0.0555556
        k(   15) = (   0.0615162  -0.0355164   0.0000000), wk =   0.0555556
        k(   16) = (   0.0615162   0.0000000   0.0000000), wk =   0.0555556
        k(   17) = (  -0.0922742  -0.0532746   0.0000000), wk =   0.0277778
        k(   18) = (  -0.0922742  -0.0177582   0.0000000), wk =   0.0555556
        k(   19) = (  -0.0922742   0.0177582   0.0000000), wk =   0.0555556
        k(   20) = (  -0.0922742  -0.1598237   0.0000000), wk =   0.0277778
        k(   21) = (   0.0000000   0.0000000   0.0000000), wk =   0.0277778
        k(   22) = (   0.0000000   0.0355164   0.0000000), wk =   0.0555556
        k(   23) = (   0.0000000   0.0710327   0.0000000), wk =   0.0555556
        k(   24) = (   0.0000000  -0.1065491   0.0000000), wk =   0.0277778
        k(   25) = (   0.0307581   0.0177582   0.0000000), wk =   0.0555556
        k(   26) = (   0.0307581   0.0532746   0.0000000), wk =   0.0555556
        k(   27) = (   0.0307581   0.0887909   0.0000000), wk =   0.0555556
        k(   28) = (   0.0307581  -0.0887909   0.0000000), wk =   0.0555556
        k(   29) = (   0.0307581  -0.0532746   0.0000000), wk =   0.0555556
        k(   30) = (   0.0307581  -0.0177582   0.0000000), wk =   0.0555556
        k(   31) = (   0.0615162   0.0355164   0.0000000), wk =   0.0555556
        k(   32) = (   0.0615162   0.0710327   0.0000000), wk =   0.0555556
        k(   33) = (   0.0615162   0.1065491   0.0000000), wk =   0.0555556
        k(   34) = (   0.0615162  -0.0710327   0.0000000), wk =   0.0555556
        k(   35) = (   0.0615162  -0.0355164   0.0000000), wk =   0.0555556
        k(   36) = (   0.0615162   0.0000000   0.0000000), wk =   0.0555556
        k(   37) = (  -0.0922742  -0.0532746   0.0000000), wk =   0.0277778
        k(   38) = (  -0.0922742  -0.0177582   0.0000000), wk =   0.0555556
        k(   39) = (  -0.0922742   0.0177582   0.0000000), wk =   0.0555556
        k(   40) = (  -0.0922742  -0.1598237   0.0000000), wk =   0.0277778

     Largest allocated arrays     est. size (Mb)     dimensions
     Largest temporary arrays     est. size (Mb)     dimensions

     Check: negative/imaginary core charge=   -0.000003    0.000000

     Initial potential from superposition of free atoms
     Check: negative starting charge=(component1):   -1.855286
     Check: negative starting charge=(component2):   -1.418748

     starting charge  173.99946, renormalised to  180.00000

[...]

     *
     * You are using vdW-DF for exchange-correlation in this calculation.
     * Please cite the following three references that made this development
     * possible:
     *
     *   M. Dion, H. Rydberg, E. Schroder, D. C. Langreth, and
     *   B. I. Lundqvist, Phys. Rev. Lett. 92, 246401 (2004).
     *
     *   T. Thonhauser, V. R. Cooper, S. Li, A. Puzder, P. Hyldgaard, and
     *   D. C. Langreth, Phys. Rev. B 76, 125112 (2007).
     *
     *   G. Roman-Perez and J. M. Soler, Phys. Rev. Lett. 103, 096102 (2009).
     *
     *
     * If you are using vdW-DF2, please also cite:
     *
     *   K. Lee, E. D. Murray, L. Kong, B. I. Lundqvist, and
     *   D. C. Langreth, Phys. Rev. B 82, 081101(R) (2010).
     *
     *
     * If you are calculating the stress with vdW-DF, please also cite:
     *
     *   R. Sabatini, E. Kucukbenli, B. Kolb, T. Thonhauser, and
     *   S. de Gironcoli, J. Phys.: Condens. Matter 24, 424209 (2012).
     *

     Carrying out vdW-DF run using the following parameters:

     Nqs =      20    Nr_points =    1024   r_max =   100.000
     q_mesh =
               0.00001000     0.04494208     0.09755937     0.15916263
               0.23128650     0.31572767     0.41458969     0.53033537
               0.66584808     0.82450364     1.01025438     1.22772762
               1.48234092     1.78043706     2.12944203     2.53805004
               3.01644009     3.57652955     4.23227104     5.00000000

     Gradients computed in reciprocal space

[...]

     Starting wfc are  147 randomized atomic wfcs

     Self-consistent Calculation

[...]

     total energy              =   -2286.31121219 Ry
     Harris-Foulkes estimate   =   -2286.31121083 Ry
     estimated scf accuracy    <       0.00000116 Ry

[...]

     iteration # 29     ecut=    36.75 Ry     beta=0.10
     Davidson diagonalization with overlap
     ethr =  6.42E-10,  avg # of iterations =  1.4

[...]

     negative rho (up, down):  1.437E+00 1.470E+00

[...]

     Adding external electric field

     Computed dipole along edir(3) :
        Dipole                0.0052 Ry au,          0.0132 Debye
        Dipole field          0.0000 Ry au

        Potential amp.       -0.0014 Ry
        Total length         45.0013 bohr

     Magnetic moment per site:
     atom:    1    charge:    1.6165    magn:   -0.0072    constr:    0.0000
     atom:    2    charge:    1.6165    magn:   -0.0072    constr:    0.0000
     atom:    3    charge:    1.6165    magn:   -0.0072    constr:    0.0000
     atom:    4    charge:    6.0086    magn:    1.4204    constr:    0.0000
     atom:    5    charge:    1.6103    magn:   -0.0048    constr:    0.0000
     atom:    6    charge:    1.6103    magn:   -0.0048    constr:    0.0000
     atom:    7    charge:    1.6103    magn:   -0.0048    constr:    0.0000
     atom:    8    charge:    5.9841    magn:    1.2154    constr:    0.0000
     atom:    9    charge:    1.6108    magn:   -0.0074    constr:    0.0000
     atom:   10    charge:    1.6108    magn:   -0.0074    constr:    0.0000
     atom:   11    charge:    1.6108    magn:   -0.0074    constr:    0.0000
     atom:   12    charge:    6.0071    magn:    1.4245    constr:    0.0000

     End of self-consistent calculation

 ------ SPIN UP ------------

[...]

 ------ SPIN DOWN ----------

[...]

          k = 0.0615 0.0000 0.0000 ( 15756 PWs)   bands (ev):

[...]

          k =-0.0923-0.1598 0.0000 ( 15784 PWs)   bands (ev):

   -75.7338 -75.2368 -75.2202 -47.6816 -47.5800 -47.5435 -47.5197 -47.4894
   -47.4290 -47.4271 -47.3471 -47.3024 -47.2466 -47.1774 -47.1313 -47.0779
   -47.0545 -47.0424 -47.0109 -47.0096 -46.9891 -46.9730 -46.9636 -46.9502
   -46.9377 -46.9041 -46.8833 -46.8782 -46.8676 -46.8239 -44.5146 -44.5053
   -44.4982 -44.0897 -44.0823 -44.0736 -44.0664 -43.8706 -43.8543  -5.2583
    -4.8576  -3.7655  -3.5281  -3.4970  -3.2119  -3.1834  -2.9700  -2.8413
    -2.7200  -2.7014  -2.6137  -2.2455  -2.1309  -2.0461  -2.0313  -1.9475
    -1.8415  -1.4780  -1.3771  -0.9350  -0.8921  -0.8688  -0.8434  -0.7526
    -0.7256  -0.6376  -0.5703  -0.4957  -0.4383  -0.4188  -0.1829  -0.1586
    -0.0540   0.3719   0.4075   0.5032   0.6358   0.6898   0.7495   0.8057
     1.1734   1.3788   1.4240   1.4738   1.5780   1.9815   2.0619   2.1131
     2.1662   2.6874   2.6906   3.0385   3.1919   3.2397   3.3205   3.3468
     3.4445   3.5318   3.7136   3.8502   3.9057   4.1754   4.2541   4.7818
     4.8342   5.6373   5.6849   6.2092   6.2290   6.8592   6.9287   7.8252
     8.0197   8.1985   8.2154   8.8518   8.8552   8.9693   8.9803  10.0610

     the Fermi energy is     2.1114 ev

!    total energy              =   -2286.31121766 Ry
     Harris-Foulkes estimate   =   -2286.31121234 Ry
     estimated scf accuracy    <       0.00000042 Ry

     The total energy is the sum of the following terms:

     one-electron contribution =  -19246.43128117 Ry
     hartree contribution      =    9644.88289608 Ry
     xc contribution           =    -550.84123256 Ry
     ewald contribution        =    7866.16764434 Ry
     electric field correction =       0.00000008 Ry
     smearing contrib. (-TS)   =      -0.08924443 Ry

     total magnetization       =     9.00 Bohr mag/cell
     absolute magnetization    =    11.91 Bohr mag/cell

     convergence has been achieved in  29 iterations

 BEEF-vdW xc energy contributions
           1 :   -486.967251967048
           2 :    451.156906947427
           3 :   -387.970710849380
           4 :    310.967288830981
           5 :   -234.203371308155
           6 :    168.344631179151
           7 :   -118.691316422374
           8 :    85.2560235831515
           9 :   -64.3446782523559
          10 :    50.7628936694491
          11 :   -39.8212069014711
          12 :    28.5974038051625
          13 :   -16.3137246976811
          14 :    3.95522984800664
          15 :    6.60332674242329
          16 :   -13.6376312889299
          17 :    16.4035018489601
          18 :   -15.4549566696880
          19 :    12.3643745427471
          20 :   -9.04012047637605
          21 :    6.98516005664703
          22 :   -6.82323524350647
          23 :    8.24332066499232
          24 :   -10.3090313391473
          25 :    11.9307236942714
          26 :   -12.2964015588545
          27 :    11.1334448986058
          28 :   -8.76683683495639
          29 :    5.97851320336179
          30 :   -3.70856088488370
          31 :   -41.9842749498089
          32 :   -31.2048087907880

     Forces acting on atoms (Ry/au):

     negative rho (up, down):  1.437E+00 1.470E+00
     atom    1 type  1   force =    -0.00000001    0.01182646    0.01424790
     atom    2 type  1   force =     0.01024205   -0.00591317    0.01424794
     atom    3 type  1   force =    -0.01024205   -0.00591328    0.01424808
     atom    4 type  2   force =    -0.00000017    0.00000003   -0.00649148
     atom    5 type  1   force =    -0.00000005    0.00454865   -0.00952308
     atom    6 type  1   force =     0.00393921   -0.00227441   -0.00952327
     atom    7 type  1   force =    -0.00393922   -0.00227433   -0.00952306
     atom    8 type  2   force =     0.00000005    0.00000011   -0.01177081
     atom    9 type  1   force =    -0.00000001    0.00098469    0.00098969
     atom   10 type  1   force =     0.00085307   -0.00049227    0.00098963
     atom   11 type  1   force =    -0.00085292   -0.00049231    0.00098976
     atom   12 type  2   force =     0.00000004   -0.00000017    0.00111871

     Total force =     0.039377     Total SCF correction =     0.002352

     entering subroutine stress ...

     negative rho (up, down):  1.437E+00 1.470E+00
          total   stress  (Ry/bohr**3)                   (kbar)     P=  -17.77
  -0.00014603   0.00000000   0.00000000        -21.48      0.00      0.00
   0.00000000  -0.00014603   0.00000000          0.00    -21.48      0.00
   0.00000000   0.00000000  -0.00007026          0.00      0.00    -10.34

 !ASE

     Writing output data file calc.save

     General routines

     Parallel routines

   This run was terminated on:  17:46: 0  26Dec2018

   JOB DONE.
Job  /afs/slac/g/suncat/bin/suncat-tsmpirun -x LD_LIBRARY_PATH -wdir /scratch/qe109942_RcaOx pw.x -in pw.inp

TID   HOST_NAME   COMMAND_LINE            STATUS            TERMINATION_TIME
00000 suncat0079 pw.x -in pw.inp   Done                     12/26/2018 17:46:00
00001 suncat0079 pw.x -in pw.inp   Done                     12/26/2018 17:46:00
00002 suncat0079 pw.x -in pw.inp   Done                     12/26/2018 17:46:00
00003 suncat0079 pw.x -in pw.inp   Done                     12/26/2018 17:46:00
00004 suncat0079 pw.x -in pw.inp   Done                     12/26/2018 17:46:00
00005 suncat0079 pw.x -in pw.inp   Done                     12/26/2018 17:46:00
00006 suncat0079 pw.x -in pw.inp   Done                     12/26/2018 17:46:00
00007 suncat0079 pw.x -in pw.inp   Done                     12/26/2018 17:46:00
00008 suncat0064 pw.x -in pw.inp   Done                     12/26/2018 17:46:00
00009 suncat0064 pw.x -in pw.inp   Done                     12/26/2018 17:46:00
00010 suncat0064 pw.x -in pw.inp   Done                     12/26/2018 17:46:00
00011 suncat0064 pw.x -in pw.inp   Done                     12/26/2018 17:46:00
00012 suncat0064 pw.x -in pw.inp   Done                     12/26/2018 17:46:00
00013 suncat0064 pw.x -in pw.inp   Done                     12/26/2018 17:46:00
00014 suncat0064 pw.x -in pw.inp   Done                     12/26/2018 17:46:00
00015 suncat0064 pw.x -in pw.inp   Done                     12/26/2018 17:46:00
00016 suncat0063 pw.x -in pw.inp   Done                     12/26/2018 17:46:00
00017 suncat0063 pw.x -in pw.inp   Done                     12/26/2018 17:46:00
00018 suncat0063 pw.x -in pw.inp   Done                     12/26/2018 17:46:00
00019 suncat0063 pw.x -in pw.inp   Done                     12/26/2018 17:46:00
00020 suncat0063 pw.x -in pw.inp   Done                     12/26/2018 17:46:00
00021 suncat0063 pw.x -in pw.inp   Done                     12/26/2018 17:46:00
00022 suncat0063 pw.x -in pw.inp   Done                     12/26/2018 17:46:00
00023 suncat0063 pw.x -in pw.inp   Done                     12/26/2018 17:46:00
00024 suncat0061 pw.x -in pw.inp   Done                     12/26/2018 17:46:00
00025 suncat0061 pw.x -in pw.inp   Done                     12/26/2018 17:46:00
00026 suncat0061 pw.x -in pw.inp   Done                     12/26/2018 17:46:00
00027 suncat0061 pw.x -in pw.inp   Done                     12/26/2018 17:46:00
00028 suncat0061 pw.x -in pw.inp   Done                     12/26/2018 17:46:00
00029 suncat0061 pw.x -in pw.inp   Done                     12/26/2018 17:46:00
00030 suncat0061 pw.x -in pw.inp   Done                     12/26/2018 17:46:00
00031 suncat0061 pw.x -in pw.inp   Done                     12/26/2018 17:46:00
00032 suncat0054 pw.x -in pw.inp   Done                     12/26/2018 17:46:00
00033 suncat0054 pw.x -in pw.inp   Done                     12/26/2018 17:46:00
00034 suncat0054 pw.x -in pw.inp   Done                     12/26/2018 17:46:00
00035 suncat0054 pw.x -in pw.inp   Done                     12/26/2018 17:46:00
00036 suncat0054 pw.x -in pw.inp   Done                     12/26/2018 17:46:00
00037 suncat0054 pw.x -in pw.inp   Done                     12/26/2018 17:46:00
00038 suncat0054 pw.x -in pw.inp   Done                     12/26/2018 17:46:00
00039 suncat0054 pw.x -in pw.inp   Done                     12/26/2018 17:46:00
00040 suncat0053 pw.x -in pw.inp   Done                     12/26/2018 17:46:00
00041 suncat0053 pw.x -in pw.inp   Done                     12/26/2018 17:46:00
00042 suncat0053 pw.x -in pw.inp   Done                     12/26/2018 17:46:00
00043 suncat0053 pw.x -in pw.inp   Done                     12/26/2018 17:46:00
00044 suncat0053 pw.x -in pw.inp   Done                     12/26/2018 17:46:00
00045 suncat0053 pw.x -in pw.inp   Done                     12/26/2018 17:46:00
00046 suncat0053 pw.x -in pw.inp   Done                     12/26/2018 17:46:00
00047 suncat0053 pw.x -in pw.inp   Done                     12/26/2018 17:46:00
00048 suncat0052 pw.x -in pw.inp   Done                     12/26/2018 17:46:00
00049 suncat0052 pw.x -in pw.inp   Done                     12/26/2018 17:46:00
00050 suncat0052 pw.x -in pw.inp   Done                     12/26/2018 17:46:00
00051 suncat0052 pw.x -in pw.inp   Done                     12/26/2018 17:46:00
00052 suncat0052 pw.x -in pw.inp   Done                     12/26/2018 17:46:00
00053 suncat0052 pw.x -in pw.inp   Done                     12/26/2018 17:46:00
00054 suncat0052 pw.x -in pw.inp   Done                     12/26/2018 17:46:00
00055 suncat0052 pw.x -in pw.inp   Done                     12/26/2018 17:46:00
00056 suncat0028 pw.x -in pw.inp   Done                     12/26/2018 17:46:00
00057 suncat0028 pw.x -in pw.inp   Done                     12/26/2018 17:46:00
00058 suncat0028 pw.x -in pw.inp   Done                     12/26/2018 17:46:00
00059 suncat0028 pw.x -in pw.inp   Done                     12/26/2018 17:46:00
00060 suncat0028 pw.x -in pw.inp   Done                     12/26/2018 17:46:00
00061 suncat0028 pw.x -in pw.inp   Done                     12/26/2018 17:46:00
00062 suncat0028 pw.x -in pw.inp   Done                     12/26/2018 17:46:00
00063 suncat0028 pw.x -in pw.inp   Done                     12/26/2018 17:46:00