     Program PWSCF v.5.1rc2 (svn rev. 11289) starts on 26Dec2018 at  2:31:15

     Current dimensions of program PWSCF are:
     Max number of different atomic species (ntypx) = 10
     Max number of k-points (npk) =  40000
     Max angular momentum in pseudopotentials (lmaxx) =  3
     Presently stress not available with electric field

     IMPORTANT: XC functional enforced from input :
     Exchange-correlation      = BEEF-VDW ( 1  4 27 13 2)
     Any further DFT definition will be discarded
     Please, verify this is what you really want

     Subspace diagonalization in iterative solution of the eigenvalue problem:
     a serial algorithm will be used

     bravais-lattice index     =            0
     lattice parameter (alat)  =       1.8897  a.u.
     unit-cell volume          =    4839.7836 (a.u.)^3
     number of atoms/cell      =           12
     number of atomic types    =            2
     number of electrons       =       219.00
     number of Kohn-Sham states=          139
     kinetic-energy cutoff     =      36.7493  Ry
     charge density cutoff     =     367.4932  Ry
     convergence threshold     =      1.0E-06
     mixing beta               =       0.1000
     number of iterations used =           10  plain     mixing
     Exchange-correlation      = BEEF-VDW ( 1  4 27 13 2)
     nstep                     =           50

     celldm(1)=   1.889726  celldm(2)=   0.000000  celldm(3)=   0.000000
     celldm(4)=   0.000000  celldm(5)=   0.000000  celldm(6)=   0.000000

     crystal axes: (cart. coord. in units of alat)
               a(1) = (   5.787330   0.000000   0.000000 )
               a(2) = (  -2.893665   5.011975   0.000000 )
               a(3) = (   0.000000   0.000000  24.725335 )

     reciprocal axes: (cart. coord. in units 2 pi/alat)
               b(1) = (  0.172791  0.099761  0.000000 )
               b(2) = (  0.000000  0.199522  0.000000 )
               b(3) = (  0.000000  0.000000  0.040444 )

     PseudoPot. # 1 for Ga read from file:
     /afs/slac.stanford.edu/u/if/mamunm/psp/gbrv1.5pbe/Ga.UPF
     MD5 check sum: ccd671392a58a050fbb373893b4fcd66
     Pseudo is Ultrasoft + core correction, Zval = 19.0
     Generated by new atomic code, or converted to UPF format
     Using radial grid of  871 points,  6 beta functions with:
                l(1) =   0
                l(2) =   0
                l(3) =   1
                l(4) =   1
                l(5) =   2
                l(6) =   2
     Q(r) pseudized with  8 coefficients,  rinner =    1.250   1.250   1.250
                                                       1.250   1.250

     PseudoPot. # 2 for Pt read from file:
     /afs/slac.stanford.edu/u/if/mamunm/psp/gbrv1.5pbe/Pt.UPF
     MD5 check sum: f09d6de1a584b5a045c4fc126da2d0c4
     Pseudo is Ultrasoft + core correction, Zval = 16.0
     Generated by new atomic code, or converted to UPF format
     Using radial grid of  985 points,  6 beta functions with:
                l(1) =   0
                l(2) =   0
                l(3) =   1
                l(4) =   1
                l(5) =   2
                l(6) =   2
     Q(r) pseudized with  8 coefficients,  rinner =    1.300   1.300   1.300
                                                       1.300   1.300

     vdW kernel table read from file vdW_kernel_table
     MD5 check sum: 095c7af220d748ca6e76c0b4c6cfb241

     atomic species   valence    mass     pseudopotential
        Ga1           19.00    69.72300     Ga( 1.00)
        Pt1           16.00   195.08400     Pt( 1.00)

     No symmetry found

   Cartesian axes

     site n.     atom                  positions (alat units)
         1           Ga1 tau(   1) = (   0.0000000   0.0000000  10.0000000  )
         2           Ga1 tau(   2) = (  -1.4468325   2.5059875  10.0000000  )
         3           Ga1 tau(   3) = (   1.4468325   2.5059875  10.0000000  )
         4           Pt1 tau(   4) = (   2.8936651   0.0000000  10.0000000  )
         5           Ga1 tau(   5) = (   2.8936651   1.6706583  12.3626677  )
         6           Ga1 tau(   6) = (   1.4468325   4.1766458  12.3626677  )
         7           Ga1 tau(   7) = (  -1.4468325   4.1766458  12.3626677  )
         8           Pt1 tau(   8) = (   0.0000000   1.6706583  12.3626677  )
         9           Ga1 tau(   9) = (  -0.0000000   3.3413166  14.7253353  )
        10           Ga1 tau(  10) = (   1.4468325   0.8353292  14.7253353  )
        11           Ga1 tau(  11) = (   4.3404976   0.8353292  14.7253353  )
        12           Pt1 tau(  12) = (   2.8936651   3.3413166  14.7253353  )

     number of k points=    20  Fermi-Dirac smearing, width (Ry)=  0.0110
                       cart. coord. in units 2pi/alat
        k(    1) = (   0.0000000   0.0000000   0.0000000), wk =   0.0555556
        k(    2) = (   0.0000000   0.0332537   0.0000000), wk =   0.1111111
        k(    3) = (   0.0000000   0.0665074   0.0000000), wk =   0.1111111
        k(    4) = (   0.0000000  -0.0997611   0.0000000), wk =   0.0555556
        k(    5) = (   0.0287985   0.0166268   0.0000000), wk =   0.1111111
        k(    6) = (   0.0287985   0.0498805   0.0000000), wk =   0.1111111
        k(    7) = (   0.0287985   0.0831342   0.0000000), wk =   0.1111111
        k(    8) = (   0.0287985  -0.0831342   0.0000000), wk =   0.1111111
        k(    9) = (   0.0287985  -0.0498805   0.0000000), wk =   0.1111111
        k(   10) = (   0.0287985  -0.0166268   0.0000000), wk =   0.1111111
        k(   11) = (   0.0575971   0.0332537   0.0000000), wk =   0.1111111
        k(   12) = (   0.0575971   0.0665074   0.0000000), wk =   0.1111111
        k(   13) = (   0.0575971   0.0997611   0.0000000), wk =   0.1111111
        k(   14) = (   0.0575971  -0.0665074   0.0000000), wk =   0.1111111
        k(   15) = (   0.0575971  -0.0332537   0.0000000), wk =   0.1111111
        k(   16) = (   0.0575971  -0.0000000   0.0000000), wk =   0.1111111
        k(   17) = (  -0.0863956  -0.0498805   0.0000000), wk =   0.0555556
        k(   18) = (  -0.0863956  -0.0166268   0.0000000), wk =   0.1111111
        k(   19) = (  -0.0863956   0.0166268   0.0000000), wk =   0.1111111
        k(   20) = (  -0.0863956  -0.1496416   0.0000000), wk =   0.0555556

     Largest allocated arrays     est. size (Mb)     dimensions
     Largest temporary arrays     est. size (Mb)     dimensions

     Initial potential from superposition of free atoms
     Check: negative starting charge=   -0.550085

     starting charge  208.49996, renormalised to  219.00000

     negative rho (up, down):  5.778E-01 0.000E+00

     *
     * You are using vdW-DF for exchange-correlation in this calculation.
     * Please cite the following three references that made this development
     * possible:
     *
     *   M. Dion, H. Rydberg, E. Schroder, D. C. Langreth, and
     *   B. I. Lundqvist, Phys. Rev. Lett. 92, 246401 (2004).
     *
     *   T. Thonhauser, V. R. Cooper, S. Li, A. Puzder, P. Hyldgaard, and
     *   D. C. Langreth, Phys. Rev. B 76, 125112 (2007).
     *
     *   G. Roman-Perez and J. M. Soler, Phys. Rev. Lett. 103, 096102 (2009).
     *
     *
     * If you are using vdW-DF2, please also cite:
     *
     *   K. Lee, E. D. Murray, L. Kong, B. I. Lundqvist, and
     *   D. C. Langreth, Phys. Rev. B 82, 081101(R) (2010).
     *
     *
     * If you are calculating the stress with vdW-DF, please also cite:
     *
     *   R. Sabatini, E. Kucukbenli, B. Kolb, T. Thonhauser, and
     *   S. de Gironcoli, J. Phys.: Condens. Matter 24, 424209 (2012).
     *

     Carrying out vdW-DF run using the following parameters:

     Nqs =      20    Nr_points =    1024   r_max =   100.000
     q_mesh =
               0.00001000     0.04494208     0.09755937     0.15916263
               0.23128650     0.31572767     0.41458969     0.53033537
               0.66584808     0.82450364     1.01025438     1.22772762
               1.48234092     1.78043706     2.12944203     2.53805004
               3.01644009     3.57652955     4.23227104     5.00000000

     Gradients computed in reciprocal space

     Adding external electric field

     Computed dipole along edir(3) :
        Dipole               -0.0000 Ry au,         -0.0000 Debye
        Dipole field         -0.0000 Ry au

        Potential amp.        0.0000 Ry
        Total length         45.5560 bohr

     Starting wfc are  144 randomized atomic wfcs

     Self-consistent Calculation

     iteration #  1     ecut=    36.75 Ry     beta=0.10
     Davidson diagonalization with overlap
     ethr =  1.00E-02,  avg # of iterations =  7.4

[...]

     total energy              =   -4383.46987154 Ry
     Harris-Foulkes estimate   =   -4401.85474447 Ry
     estimated scf accuracy    <     103.08544408 Ry

[...]

     End of self-consistent calculation

          k = 0.0000 0.0000 0.0000 ( 18211 PWs)   bands (ev):

   -94.1441 -94.1417 -94.1417 -94.1199 -94.1192 -94.1192 -94.1144 -94.1144
   -94.1133 -94.0702 -94.0700 -94.0693 -94.0693 -94.0692 -94.0692 -94.0567
   -94.0565 -94.0545 -94.0545 -94.0543 -94.0543 -94.0270 -94.0270 -94.0268
   -94.0268 -94.0259 -94.0257 -51.9688 -51.9688 -51.9312 -51.5516 -51.5516
   -51.5516 -51.5516 -51.3819 -51.3819 -14.6843 -14.6463 -14.6463 -14.6458
   -14.5844 -14.5814 -14.5631 -14.5480 -14.5480 -14.5396 -14.5396 -14.5187
   -14.5187 -14.4888 -14.4847 -14.4847 -14.4813 -14.4320 -14.4231 -14.4152
   -14.4152 -14.4147 -14.4147 -14.4076 -14.4076 -14.3975 -14.3385 -14.3385
   -14.3370 -14.3370 -14.3289 -14.3274 -14.3274 -14.3186 -14.3186 -14.2918
   -14.2918 -14.2864 -14.2863 -14.2863 -14.2625 -14.2494 -14.2494 -14.1912
   -14.1900  -9.8992  -8.2043  -6.1385  -5.1372  -5.1372  -4.2959  -4.2959
    -3.7658  -3.7658  -3.4111  -3.1560  -2.3549  -2.3549  -2.1898  -2.0899
    -2.0899  -1.4856  -1.4856  -1.4215  -1.2924  -1.0351  -1.0196  -1.0196
    -0.6630  -0.6630  -0.6498  -0.6498  -0.5437   0.2849   0.4030   0.4030
     0.9570   0.9570   1.5689   1.5689   2.0460   2.2520   3.0880   4.3620
     4.7305   5.0694   5.0694   5.1280   5.1280   5.2902   5.6611   5.9506
     6.3438   6.6275   7.4156   7.6225   7.6225   7.6532   8.3160   8.6012
     8.7716   8.7716   9.1466

[...]

          k =-0.0864-0.0499 0.0000 ( 18200 PWs)   bands (ev):

[...]

     the Fermi energy is     0.6926 ev

!    total energy              =   -4386.47905920 Ry
     Harris-Foulkes estimate   =   -4386.47905575 Ry
     estimated scf accuracy    <       0.00000044 Ry

     The total energy is the sum of the following terms:

     one-electron contribution =  -26896.05398682 Ry
     hartree contribution      =   13461.81830827 Ry
     xc contribution           =    -623.62497103 Ry
     ewald contribution        =    9671.40920724 Ry
     electric field correction =       0.00000001 Ry
     smearing contrib. (-TS)   =      -0.02761688 Ry

     convergence has been achieved in  18 iterations

 BEEF-vdW xc energy contributions
           1 :   -556.328918728769
           2 :    508.815964576254
           3 :   -427.811503131757
           4 :    334.844146237391
           5 :   -249.811489803386
           6 :    183.943221330833
           7 :   -137.976706541020
           8 :    105.536395649083
[...]
                l(1) =   0
                l(2) =   0
                l(3) =   1
                l(4) =   1
                l(5) =   2
                l(6) =   2
     Q(r) pseudized with  8 coefficients,  rinner =    1.250   1.250   1.250
                                                       1.250   1.250

     PseudoPot. # 2 for Pt read from file:
     /afs/slac.stanford.edu/u/if/mamunm/psp/gbrv1.5pbe/Pt.UPF
     MD5 check sum: f09d6de1a584b5a045c4fc126da2d0c4
     Pseudo is Ultrasoft + core correction, Zval = 16.0
     Generated by new atomic code, or converted to UPF format
     Using radial grid of  985 points,  6 beta functions with:
                l(1) =   0
                l(2) =   0
                l(3) =   1
                l(4) =   1
                l(5) =   2
                l(6) =   2
     Q(r) pseudized with  8 coefficients,  rinner =    1.300   1.300   1.300
                                                       1.300   1.300

     vdW kernel table read from file vdW_kernel_table
     MD5 check sum: 095c7af220d748ca6e76c0b4c6cfb241

     atomic species   valence    mass     pseudopotential
        Ga1           19.00    69.72300     Ga( 1.00)
        Pt1           16.00   195.08400     Pt( 1.00)

     No symmetry found

   Cartesian axes

     site n.     atom                  positions (alat units)
         1           Ga1 tau(   1) = (   0.0000000   0.0000000  10.0000000  )
         2           Ga1 tau(   2) = (  -1.4468325   2.5059875  10.0000000  )
         3           Ga1 tau(   3) = (   1.4468325   2.5059875  10.0000000  )
         4           Pt1 tau(   4) = (   2.8936651   0.0000000  10.0000000  )
         5           Ga1 tau(   5) = (   2.8936651   1.6706583  12.3626677  )
         6           Ga1 tau(   6) = (   1.4468325   4.1766458  12.3626677  )
         7           Ga1 tau(   7) = (  -1.4468325   4.1766458  12.3626677  )
         8           Pt1 tau(   8) = (   0.0000000   1.6706583  12.3626677  )
         9           Ga1 tau(   9) = (  -0.0000006   3.3090035  14.8564005  )
        10           Ga1 tau(  10) = (   1.4188385   0.8514859  14.8563892  )
        11           Ga1 tau(  11) = (   4.3684947   0.8514875  14.8563977  )
        12           Pt1 tau(  12) = (   2.8936649   3.3413167  14.5045774  )

     number of k points=    20  Fermi-Dirac smearing, width (Ry)=  0.0110
                       cart. coord. in units 2pi/alat
        k(    1) = (   0.0000000   0.0000000   0.0000000), wk =   0.0555556
        k(    2) = (   0.0000000   0.0332537   0.0000000), wk =   0.1111111
        k(    3) = (   0.0000000   0.0665074   0.0000000), wk =   0.1111111
        k(    4) = (   0.0000000  -0.0997611   0.0000000), wk =   0.0555556
        k(    5) = (   0.0287985   0.0166268   0.0000000), wk =   0.1111111
        k(    6) = (   0.0287985   0.0498805   0.0000000), wk =   0.1111111
        k(    7) = (   0.0287985   0.0831342   0.0000000), wk =   0.1111111
        k(    8) = (   0.0287985  -0.0831342   0.0000000), wk =   0.1111111
        k(    9) = (   0.0287985  -0.0498805   0.0000000), wk =   0.1111111
        k(   10) = (   0.0287985  -0.0166268   0.0000000), wk =   0.1111111
        k(   11) = (   0.0575971   0.0332537   0.0000000), wk =   0.1111111
        k(   12) = (   0.0575971   0.0665074   0.0000000), wk =   0.1111111
        k(   13) = (   0.0575971   0.0997611   0.0000000), wk =   0.1111111
        k(   14) = (   0.0575971  -0.0665074   0.0000000), wk =   0.1111111
        k(   15) = (   0.0575971  -0.0332537   0.0000000), wk =   0.1111111
        k(   16) = (   0.0575971  -0.0000000   0.0000000), wk =   0.1111111
        k(   17) = (  -0.0863956  -0.0498805   0.0000000), wk =   0.0555556
        k(   18) = (  -0.0863956  -0.0166268   0.0000000), wk =   0.1111111
        k(   19) = (  -0.0863956   0.0166268   0.0000000), wk =   0.1111111
        k(   20) = (  -0.0863956  -0.1496416   0.0000000), wk =   0.0555556

     Largest allocated arrays     est. size (Mb)     dimensions
     Largest temporary arrays     est. size (Mb)     dimensions

     Initial potential from superposition of free atoms
     Check: negative starting charge=   -0.548765

     starting charge  208.49996, renormalised to  219.00000

[...]

     *
     * You are using vdW-DF for exchange-correlation in this calculation.
     * Please cite the following three references that made this development
     * possible:
     *
     *   M. Dion, H. Rydberg, E. Schroder, D. C. Langreth, and
     *   B. I. Lundqvist, Phys. Rev. Lett. 92, 246401 (2004).
     *
     *   T. Thonhauser, V. R. Cooper, S. Li, A. Puzder, P. Hyldgaard, and
     *   D. C. Langreth, Phys. Rev. B 76, 125112 (2007).
     *
     *   G. Roman-Perez and J. M. Soler, Phys. Rev. Lett. 103, 096102 (2009).
     *
     *
     * If you are using vdW-DF2, please also cite:
     *
     *   K. Lee, E. D. Murray, L. Kong, B. I. Lundqvist, and
     *   D. C. Langreth, Phys. Rev. B 82, 081101(R) (2010).
     *
     *
     * If you are calculating the stress with vdW-DF, please also cite:
     *
     *   R. Sabatini, E. Kucukbenli, B. Kolb, T. Thonhauser, and
     *   S. de Gironcoli, J. Phys.: Condens. Matter 24, 424209 (2012).
     *

     Carrying out vdW-DF run using the following parameters:

     Nqs =      20    Nr_points =    1024   r_max =   100.000
     q_mesh =
               0.00001000     0.04494208     0.09755937     0.15916263
               0.23128650     0.31572767     0.41458969     0.53033537
               0.66584808     0.82450364     1.01025438     1.22772762
               1.48234092     1.78043706     2.12944203     2.53805004
               3.01644009     3.57652955     4.23227104     5.00000000

     Gradients computed in reciprocal space

[...]

     Starting wfc are  144 randomized atomic wfcs

     Self-consistent Calculation

[...]

     total energy              =   -4386.51253812 Ry
     Harris-Foulkes estimate   =   -4386.51253591 Ry
     estimated scf accuracy    <       0.00000141 Ry

     iteration # 17     ecut=    36.75 Ry     beta=0.10
     Davidson diagonalization with overlap
     ethr =  6.44E-10,  avg # of iterations =  2.0

[...]

     negative rho (up, down):  5.239E-01 0.000E+00

     Adding external electric field

     Computed dipole along edir(3) :
        Dipole                0.0722 Ry au,          0.1835 Debye
        Dipole field          0.0002 Ry au

        Potential amp.       -0.0171 Ry
        Total length         45.5560 bohr

     End of self-consistent calculation

[...]

          k = 0.0576-0.0000 0.0000 ( 18221 PWs)   bands (ev):

[...]

          k =-0.0864-0.1496 0.0000 ( 18200 PWs)   bands (ev):

   -94.1014 -94.1007 -94.1000 -94.0706 -94.0702 -94.0699 -94.0678 -94.0676
   -94.0673 -93.9977 -93.9975 -93.9972 -93.9870 -93.9868 -93.9867 -93.9859
   -93.9852 -93.9844 -93.9720 -93.9707 -93.9699 -93.9574 -93.9571 -93.9567
   -93.9479 -93.9476 -93.9471 -51.8599 -51.8599 -51.7985 -51.6246 -51.6246
   -51.5527 -51.4988 -51.4987 -51.3207 -14.5892 -14.5361 -14.5147 -14.5019
   -14.4816 -14.4778 -14.4665 -14.4653 -14.4564 -14.4553 -14.4479 -14.4255
   -14.4228 -14.4197 -14.3828 -14.3683 -14.3681 -14.3634 -14.3568 -14.3407
   -14.3364 -14.3309 -14.3193 -14.3124 -14.3124 -14.3066 -14.3049 -14.2986
   -14.2972 -14.2940 -14.2904 -14.2883 -14.2868 -14.2830 -14.2812 -14.2749
   -14.2729 -14.2628 -14.2408 -14.2382 -14.2313 -14.2271 -14.2239 -14.1751
   -14.1632  -8.3594  -8.0826  -6.6511  -6.5908  -5.6302  -5.2741  -4.6804
    -4.1223  -3.9005  -3.2601  -2.8340  -2.7299  -2.6599  -2.3299  -2.3187
    -2.2467  -2.1718  -1.9142  -1.7695  -1.6081  -1.1839  -1.1458  -1.0208
    -0.6526  -0.5656  -0.0724   0.4008   0.8070   1.1912   1.9086   2.3651
     2.3702   2.6500   3.2809   3.3285   3.5816   3.7235   3.7614   4.0368
     4.4163   4.7442   5.2455   5.3585   5.5267   5.6251   5.7408   6.1326
     6.2166   6.2483   6.6291   6.7545   6.7589   6.8454   7.1002   7.1890
     7.3011   7.4005   7.8643

     the Fermi energy is     0.7475 ev

!    total energy              =   -4386.51254161 Ry
     Harris-Foulkes estimate   =   -4386.51253908 Ry
     estimated scf accuracy    <       0.00000032 Ry

     The total energy is the sum of the following terms:

     one-electron contribution =  -26701.79703919 Ry
     hartree contribution      =   13365.12820540 Ry
     xc contribution           =    -623.63389371 Ry
     ewald contribution        =    9573.81816573 Ry
     electric field correction =       0.00001353 Ry
     smearing contrib. (-TS)   =      -0.02799336 Ry

     convergence has been achieved in  17 iterations

 BEEF-vdW xc energy contributions
           1 :   -557.074834944514
           2 :    509.548164012283
           3 :   -428.520880421773
           4 :    335.529505382263
           5 :   -250.478903621999
           6 :    184.601348057321
           7 :   -138.631890039986
           8 :    106.192245903376
           9 :   -79.6492531506619
          10 :    54.7883219837862
          11 :   -31.9837513179849
          12 :    14.0513284511703
          13 :   -2.98321278881792
          14 :   -1.97226366127393
          15 :    3.79660349787787
          16 :   -5.55995788067753
          17 :    8.48115086509040
          18 :   -11.6046308287393
          19 :    13.1257788978362
          20 :   -12.1744659417959
          21 :    9.64806790665943
          22 :   -7.54163602133951
          23 :    7.40660551118413
          24 :   -9.19147360780335
          25 :    11.3427190771554
          26 :   -12.0367353354673
          27 :    10.5581524552607
          28 :   -7.78440929594149
          29 :    5.46077847490835
          30 :   -4.87591057236341
          31 :   -42.2766484162369
          32 :   -29.5195835691443

     Forces acting on atoms (Ry/au):

     negative rho (up, down):  5.239E-01 0.000E+00
     atom    1 type  1   force =    -0.00000001    0.00803338   -0.00928656
     atom    2 type  1   force =     0.00695511   -0.00401671   -0.00928519
     atom    3 type  1   force =    -0.00695531   -0.00401574   -0.00928596
     atom    4 type  2   force =     0.00000043   -0.00000020    0.01793698
     atom    5 type  1   force =    -0.00000005   -0.00882184    0.00330553
     atom    6 type  1   force =    -0.00764075    0.00441085    0.00330528
     atom    7 type  1   force =     0.00764005    0.00441027    0.00330505
     atom    8 type  2   force =     0.00000021    0.00000006   -0.00151431
     atom    9 type  1   force =    -0.00000041    0.00004500    0.00075023
     atom   10 type  1   force =     0.00003758   -0.00002243    0.00074657
     atom   11 type  1   force =    -0.00003710   -0.00002222    0.00074668
     atom   12 type  2   force =     0.00000024   -0.00000041   -0.00072430

     Total force =     0.032322     Total SCF correction =     0.003543
     SCF correction compared to forces is large: reduce conv_thr to get better values

     entering subroutine stress ...

     negative rho (up, down):  5.239E-01 0.000E+00
          total   stress  (Ry/bohr**3)                   (kbar)     P=  -13.73
  -0.00013920   0.00000000   0.00000000        -20.48      0.00      0.00
   0.00000000  -0.00013920   0.00000000          0.00    -20.48      0.00
   0.00000000   0.00000000  -0.00000169          0.00      0.00     -0.25

 !ASE

     Writing output data file calc.save

     General routines

     Parallel routines

   This run was terminated on:   4:13:27  26Dec2018

   JOB DONE.
Job  /afs/slac/g/suncat/bin/suncat-tsmpirun -x LD_LIBRARY_PATH -wdir /scratch/qe109695_EXx1v pw.x -in pw.inp

TID   HOST_NAME   COMMAND_LINE            STATUS            TERMINATION_TIME
00000 suncat0028 pw.x -in pw.inp   Done                     12/26/2018 04:13:27
00001 suncat0028 pw.x -in pw.inp   Done                     12/26/2018 04:13:27
00002 suncat0028 pw.x -in pw.inp   Done                     12/26/2018 04:13:27
00003 suncat0028 pw.x -in pw.inp   Done                     12/26/2018 04:13:27
00004 suncat0028 pw.x -in pw.inp   Done                     12/26/2018 04:13:27
00005 suncat0028 pw.x -in pw.inp   Done                     12/26/2018 04:13:27
00006 suncat0028 pw.x -in pw.inp   Done                     12/26/2018 04:13:27
00007 suncat0028 pw.x -in pw.inp   Done                     12/26/2018 04:13:27
00008 suncat0027 pw.x -in pw.inp   Done                     12/26/2018 04:13:27
00009 suncat0027 pw.x -in pw.inp   Done                     12/26/2018 04:13:27
00010 suncat0027 pw.x -in pw.inp   Done                     12/26/2018 04:13:27
00011 suncat0027 pw.x -in pw.inp   Done                     12/26/2018 04:13:27
00012 suncat0027 pw.x -in pw.inp   Done                     12/26/2018 04:13:27
00013 suncat0027 pw.x -in pw.inp   Done                     12/26/2018 04:13:27
00014 suncat0027 pw.x -in pw.inp   Done                     12/26/2018 04:13:27
00015 suncat0027 pw.x -in pw.inp   Done                     12/26/2018 04:13:27
00016 suncat0026 pw.x -in pw.inp   Done                     12/26/2018 04:13:27
00017 suncat0026 pw.x -in pw.inp   Done                     12/26/2018 04:13:27
00018 suncat0026 pw.x -in pw.inp   Done                     12/26/2018 04:13:27
00019 suncat0026 pw.x -in pw.inp   Done                     12/26/2018 04:13:27
00020 suncat0026 pw.x -in pw.inp   Done                     12/26/2018 04:13:27
00021 suncat0026 pw.x -in pw.inp   Done                     12/26/2018 04:13:27
00022 suncat0026 pw.x -in pw.inp   Done                     12/26/2018 04:13:27
00023 suncat0026 pw.x -in pw.inp   Done                     12/26/2018 04:13:27
00024 suncat0021 pw.x -in pw.inp   Done                     12/26/2018 04:13:27
00025 suncat0021 pw.x -in pw.inp   Done                     12/26/2018 04:13:27
00026 suncat0021 pw.x -in pw.inp   Done                     12/26/2018 04:13:27
00027 suncat0021 pw.x -in pw.inp   Done                     12/26/2018 04:13:27
00028 suncat0021 pw.x -in pw.inp   Done                     12/26/2018 04:13:27
00029 suncat0021 pw.x -in pw.inp   Done                     12/26/2018 04:13:27
00030 suncat0021 pw.x -in pw.inp   Done                     12/26/2018 04:13:27
00031 suncat0021 pw.x -in pw.inp   Done                     12/26/2018 04:13:27
00032 suncat0191 pw.x -in pw.inp   Done                     12/26/2018 04:13:27
00033 suncat0191 pw.x -in pw.inp   Done                     12/26/2018 04:13:27
00034 suncat0191 pw.x -in pw.inp   Done                     12/26/2018 04:13:27
00035 suncat0191 pw.x -in pw.inp   Done                     12/26/2018 04:13:27
00036 suncat0191 pw.x -in pw.inp   Done                     12/26/2018 04:13:27
00037 suncat0191 pw.x -in pw.inp   Done                     12/26/2018 04:13:27
00038 suncat0191 pw.x -in pw.inp   Done                     12/26/2018 04:13:27
00039 suncat0191 pw.x -in pw.inp   Done                     12/26/2018 04:13:27
00040 suncat0113 pw.x -in pw.inp   Done                     12/26/2018 04:13:27
00041 suncat0113 pw.x -in pw.inp   Done                     12/26/2018 04:13:27
00042 suncat0113 pw.x -in pw.inp   Done                     12/26/2018 04:13:27
00043 suncat0113 pw.x -in pw.inp   Done                     12/26/2018 04:13:27
00044 suncat0113 pw.x -in pw.inp   Done                     12/26/2018 04:13:27
00045 suncat0113 pw.x -in pw.inp   Done                     12/26/2018 04:13:27
00046 suncat0113 pw.x -in pw.inp   Done                     12/26/2018 04:13:27
00047 suncat0113 pw.x -in pw.inp   Done                     12/26/2018 04:13:27
00048 suncat0110 pw.x -in pw.inp   Done                     12/26/2018 04:13:27
00049 suncat0110 pw.x -in pw.inp   Done                     12/26/2018 04:13:27
00050 suncat0110 pw.x -in pw.inp   Done                     12/26/2018 04:13:27
00051 suncat0110 pw.x -in pw.inp   Done                     12/26/2018 04:13:27
00052 suncat0110 pw.x -in pw.inp   Done                     12/26/2018 04:13:27
00053 suncat0110 pw.x -in pw.inp   Done                     12/26/2018 04:13:27
00054 suncat0110 pw.x -in pw.inp   Done                     12/26/2018 04:13:27
00055 suncat0110 pw.x -in pw.inp   Done                     12/26/2018 04:13:27
00056 suncat0109 pw.x -in pw.inp   Done                     12/26/2018 04:13:27
00057 suncat0109 pw.x -in pw.inp   Done                     12/26/2018 04:13:27
00058 suncat0109 pw.x -in pw.inp   Done                     12/26/2018 04:13:27
00059 suncat0109 pw.x -in pw.inp   Done                     12/26/2018 04:13:27
00060 suncat0109 pw.x -in pw.inp   Done                     12/26/2018 04:13:27
00061 suncat0109 pw.x -in pw.inp   Done                     12/26/2018 04:13:27
00062 suncat0109 pw.x -in pw.inp   Done                     12/26/2018 04:13:27
00063 suncat0109 pw.x -in pw.inp   Done                     12/26/2018 04:13:27