     Program PWSCF v.5.1rc2 (svn rev. 11289) starts on  2Jan2019 at 17: 8:58

     Current dimensions of program PWSCF are:
     Max number of different atomic species (ntypx) = 10
     Max number of k-points (npk) =  40000
     Max angular momentum in pseudopotentials (lmaxx) =  3
     Presently stress not available with electric field

     IMPORTANT: XC functional enforced from input :
     Exchange-correlation      = BEEF-VDW ( 1  4 27 13 2)
     Any further DFT definition will be discarded
     Please, verify this is what you really want

     Subspace diagonalization in iterative solution of the eigenvalue problem:
     a serial algorithm will be used

     bravais-lattice index     =            0
     lattice parameter (alat)  =       1.8897  a.u.
     unit-cell volume          =    4232.9546 (a.u.)^3
     number of atoms/cell      =           12
     number of atomic types    =            2
     number of electrons       =       225.00
     number of Kohn-Sham states=          142
     kinetic-energy cutoff     =      36.7493  Ry
     charge density cutoff     =     367.4932  Ry
     convergence threshold     =      1.0E-06
     mixing beta               =       0.1000
     number of iterations used =           10  plain     mixing
     Exchange-correlation      = BEEF-VDW ( 1  4 27 13 2)
     nstep                     =           50

     celldm(1)=   1.889726  celldm(2)=   0.000000  celldm(3)=   0.000000
     celldm(4)=   0.000000  celldm(5)=   0.000000  celldm(6)=   0.000000

     crystal axes: (cart. coord. in units of alat)
               a(1) = (   5.443368   0.000000   0.000000 )
               a(2) = (  -2.721684   4.714095   0.000000 )
               a(3) = (   0.000000   0.000000  24.444491 )

     reciprocal axes: (cart. coord. in units 2 pi/alat)
               b(1) = (  0.183710  0.106065  0.000000 )
               b(2) = (  0.000000  0.212130  0.000000 )
               b(3) = (  0.000000  0.000000  0.040909 )

     PseudoPot. # 1 for Zn read from file:
     /afs/slac.stanford.edu/u/if/mamunm/psp/gbrv1.5pbe/Zn.UPF
     MD5 check sum: df62231357ef9e81f77b2b3087fa5675
     Pseudo is Ultrasoft, Zval = 20.0
     Generated by new atomic code, or converted to UPF format
     Using radial grid of  943 points,  6 beta functions with:
                l(1) =   0
                l(2) =   0
                l(3) =   1
                l(4) =   1
                l(5) =   2
                l(6) =   2
     Q(r) pseudized with  8 coefficients,  rinner =    1.100   1.100   1.100
                                                       1.100   1.100

     PseudoPot. # 2 for Re read from file:
     /afs/slac.stanford.edu/u/if/mamunm/psp/gbrv1.5pbe/Re.UPF
     MD5 check sum: 85f993410f3e006da9d71c142b4ad953
     Pseudo is Ultrasoft + core correction, Zval = 15.0
     Generated by new atomic code, or converted to UPF format
     Using radial grid of  981 points,  8 beta functions with:
                l(1) =   0
                l(2) =   0
                l(3) =   1
                l(4) =   1
                l(5) =   2
                l(6) =   2
                l(7) =   3
                l(8) =   3
     Q(r) pseudized with  8 coefficients,  rinner =    1.150   1.150   1.150
                                                       1.150   1.150   1.150
                                                       1.150

     vdW kernel table read from file vdW_kernel_table
     MD5 check sum: 095c7af220d748ca6e76c0b4c6cfb241

     atomic species   valence    mass     pseudopotential
        Zn1           20.00    65.38000     Zn( 1.00)
        Re1           15.00   186.20700     Re( 1.00)

     No symmetry found

   Cartesian axes

     site n.     atom                  positions (alat units)
         1           Zn1 tau(   1) = (   0.0000000   0.0000000  10.0000000  )
         2           Zn1 tau(   2) = (  -1.3608420   2.3570474  10.0000000  )
         3           Zn1 tau(   3) = (   1.3608420   2.3570474  10.0000000  )
         4           Re1 tau(   4) = (   2.7216839   0.0000000  10.0000000  )
         5           Zn1 tau(   5) = (   2.7216839   1.5713650  12.2222456  )
         6           Zn1 tau(   6) = (   1.3608420   3.9284124  12.2222456  )
         7           Zn1 tau(   7) = (  -1.3608420   3.9284124  12.2222456  )
         8           Re1 tau(   8) = (   0.0000000   1.5713650  12.2222456  )
         9           Zn1 tau(   9) = (  -0.0000000   3.1427299  14.4444913  )
        10           Zn1 tau(  10) = (   1.3608420   0.7856825  14.4444913  )
        11           Zn1 tau(  11) = (   4.0825259   0.7856825  14.4444913  )
        12           Re1 tau(  12) = (   2.7216839   3.1427299  14.4444913  )

     number of k points=    20  Fermi-Dirac smearing, width (Ry)=  0.0110
                       cart. coord. in units 2pi/alat
        k(    1) = (   0.0000000   0.0000000   0.0000000), wk =   0.0555556
        k(    2) = (   0.0000000   0.0353550   0.0000000), wk =   0.1111111
        k(    3) = (   0.0000000   0.0707099   0.0000000), wk =   0.1111111
        k(    4) = (   0.0000000  -0.1060649   0.0000000), wk =   0.0555556
        k(    5) = (   0.0306183   0.0176775   0.0000000), wk =   0.1111111
        k(    6) = (   0.0306183   0.0530325   0.0000000), wk =   0.1111111
        k(    7) = (   0.0306183   0.0883874   0.0000000), wk =   0.1111111
        k(    8) = (   0.0306183  -0.0883874   0.0000000), wk =   0.1111111
        k(    9) = (   0.0306183  -0.0530325   0.0000000), wk =   0.1111111
        k(   10) = (   0.0306183  -0.0176775   0.0000000), wk =   0.1111111
        k(   11) = (   0.0612366   0.0353550   0.0000000), wk =   0.1111111
        k(   12) = (   0.0612366   0.0707099   0.0000000), wk =   0.1111111
        k(   13) = (   0.0612366   0.1060649   0.0000000), wk =   0.1111111
        k(   14) = (   0.0612366  -0.0707099   0.0000000), wk =   0.1111111
        k(   15) = (   0.0612366  -0.0353550   0.0000000), wk =   0.1111111
        k(   16) = (   0.0612366  -0.0000000   0.0000000), wk =   0.1111111
        k(   17) = (  -0.0918549  -0.0530325   0.0000000), wk =   0.0555556
        k(   18) = (  -0.0918549  -0.0176775   0.0000000), wk =   0.1111111
        k(   19) = (  -0.0918549   0.0176775   0.0000000), wk =   0.1111111
        k(   20) = (  -0.0918549  -0.1590974   0.0000000), wk =   0.0555556

     Largest allocated arrays     est. size (Mb)     dimensions
     Largest temporary arrays     est. size (Mb)     dimensions

     Initial potential from superposition of free atoms
     Check: negative starting charge=   -0.388815

     starting charge  223.49860, renormalised to  225.00000

     negative rho (up, down):  3.914E-01 0.000E+00

     *
     * You are using vdW-DF for exchange-correlation in this calculation.
     * Please cite the following three references that made this development
     * possible:
     *
     *   M. Dion, H. Rydberg, E. Schroder, D. C. Langreth, and
     *   B. I. Lundqvist, Phys. Rev. Lett. 92, 246401 (2004).
     *
     *   T. Thonhauser, V. R. Cooper, S. Li, A. Puzder, P. Hyldgaard, and
     *   D. C. Langreth, Phys. Rev. B 76, 125112 (2007).
     *
     *   G. Roman-Perez and J. M. Soler, Phys. Rev. Lett. 103, 096102 (2009).
     *
     *
     * If you are using vdW-DF2, please also cite:
     *
     *   K. Lee, E. D. Murray, L. Kong, B. I. Lundqvist, and
     *   D. C. Langreth, Phys. Rev. B 82, 081101(R) (2010).
     *
     *
     * If you are calculating the stress with vdW-DF, please also cite:
     *
     *   R. Sabatini, E. Kucukbenli, B. Kolb, T. Thonhauser, and
     *   S. de Gironcoli, J. Phys.: Condens. Matter 24, 424209 (2012).
     *

     Carrying out vdW-DF run using the following parameters:

     Nqs =      20    Nr_points =    1024   r_max =   100.000
     q_mesh =
               0.00001000     0.04494208     0.09755937     0.15916263
               0.23128650     0.31572767     0.41458969     0.53033537
               0.66584808     0.82450364     1.01025438     1.22772762
               1.48234092     1.78043706     2.12944203     2.53805004
               3.01644009     3.57652955     4.23227104     5.00000000

     Gradients computed in reciprocal space

     Adding external electric field

     Computed dipole along edir(3) :
        Dipole                0.0000 Ry au,          0.0000 Debye
        Dipole field          0.0000 Ry au

        Potential amp.       -0.0000 Ry
        Total length         45.0386 bohr

     Starting wfc are  156 randomized atomic wfcs

     Self-consistent Calculation

     iteration #  1     ecut=    36.75 Ry     beta=0.10
     Davidson diagonalization with overlap
     ethr =  1.00E-02,  avg # of iterations =  8.4

[...]

     total energy              =   -4740.90956119 Ry
     Harris-Foulkes estimate   =   -4742.42051094 Ry
     estimated scf accuracy    <       8.38183813 Ry

[...]

     End of self-consistent calculation

          k = 0.0000 0.0000 0.0000 ( 15845 PWs)   bands (ev):

  -125.5193-125.5179-125.5179-125.1699-125.1699-125.1685-125.1685-125.1685
  -125.1685 -79.7478 -79.7365 -79.7365 -79.6843 -79.6843 -79.6773 -79.6617
   -79.6541 -79.6541 -79.3955 -79.3953 -79.3835 -79.3835 -79.3834 -79.3834
   -79.3442 -79.3431 -79.3373 -79.3373 -79.3372 -79.3372 -79.3099 -79.3099
   -79.3097 -79.3097 -79.3035 -79.3034 -79.1271 -78.9816 -78.9813 -40.8741
   -40.8684 -40.8684 -40.7538 -40.7526 -40.6543 -40.6543 -40.6540 -40.6540
    -8.6513  -7.2133  -7.1315  -7.1071  -7.1071  -7.1013  -7.0424  -6.9244
    -6.9244  -6.8342  -6.8342  -6.8197  -6.6839  -6.6033  -6.6033  -6.4521
    -6.4335  -6.4335  -6.3946  -6.3428  -6.3428  -6.3088  -6.2785  -6.2785
    -6.2637  -6.2637  -6.2545  -5.9885  -5.9885  -5.9756  -5.9756  -5.9223
    -5.9223  -5.9177  -5.9177  -5.8752  -5.8628  -5.8563  -5.8563  -5.8114
    -5.8114  -5.7936  -5.7170  -5.6865  -5.6865  -5.5044  -5.5030  -3.5468
    -2.3100  -2.3100  -1.8707  -1.7412  -1.7412  -1.3072  -1.3072  -1.1814
    -0.3837  -0.3837  -0.2451   0.4370   0.6506   0.6506   0.7084   0.9854
     0.9854   1.1885   1.1885   1.8925   2.0368   2.0368   2.2300   2.4372
     2.4372   4.0230   4.8729   4.9399   5.2114   5.2114   5.2321   5.2321
     5.3822   5.6449   5.7467   6.0395   6.0395   6.5838   7.0549   8.2232
     8.4869   8.4869   8.4977   8.8468   8.9151   9.2125

[...]

          k =-0.0919-0.0530 0.0000 ( 15968 PWs)   bands (ev):

[...]

     the Fermi energy is     0.9313 ev

!    total energy              =   -4741.15144052 Ry
     Harris-Foulkes estimate   =   -4741.15143672 Ry
     estimated scf accuracy    <       0.00000045 Ry

     The total energy is the sum of the following terms:

     one-electron contribution =  -32448.28352634 Ry
     hartree contribution      =   16207.81356597 Ry
     xc contribution           =    -553.18177476 Ry
     ewald contribution        =   12052.55198599 Ry
     electric field correction =       0.00000000 Ry
     smearing contrib. (-TS)   =      -0.05169138 Ry

     convergence has been achieved in  15 iterations

 BEEF-vdW xc energy contributions
           1 :   -491.766610244226
           2 :    449.278154466443
           3 :   -376.639292693088
           4 :    292.904084194572
[...]
                l(2) =   0
                l(3) =   1
                l(4) =   1
                l(5) =   2
                l(6) =   2
     Q(r) pseudized with  8 coefficients,  rinner =    1.100   1.100   1.100
                                                       1.100   1.100

     PseudoPot. # 2 for Re read from file:
     /afs/slac.stanford.edu/u/if/mamunm/psp/gbrv1.5pbe/Re.UPF
     MD5 check sum: 85f993410f3e006da9d71c142b4ad953
     Pseudo is Ultrasoft + core correction, Zval = 15.0
     Generated by new atomic code, or converted to UPF format
     Using radial grid of  981 points,  8 beta functions with:
                l(1) =   0
                l(2) =   0
                l(3) =   1
                l(4) =   1
                l(5) =   2
                l(6) =   2
                l(7) =   3
                l(8) =   3
     Q(r) pseudized with  8 coefficients,  rinner =    1.150   1.150   1.150
                                                       1.150   1.150   1.150
                                                       1.150

     vdW kernel table read from file vdW_kernel_table
     MD5 check sum: 095c7af220d748ca6e76c0b4c6cfb241

     atomic species   valence    mass     pseudopotential
        Zn1           20.00    65.38000     Zn( 1.00)
        Re1           15.00   186.20700     Re( 1.00)

     No symmetry found

   Cartesian axes

     site n.     atom                  positions (alat units)
         1           Zn1 tau(   1) = (   0.0000000   0.0000000  10.0000000  )
         2           Zn1 tau(   2) = (  -1.3608420   2.3570474  10.0000000  )
         3           Zn1 tau(   3) = (   1.3608420   2.3570474  10.0000000  )
         4           Re1 tau(   4) = (   2.7216839   0.0000000  10.0000000  )
         5           Zn1 tau(   5) = (   2.7216839   1.5713650  12.2222456  )
         6           Zn1 tau(   6) = (   1.3608420   3.9284124  12.2222456  )
         7           Zn1 tau(   7) = (  -1.3608420   3.9284124  12.2222456  )
         8           Re1 tau(   8) = (   0.0000000   1.5713650  12.2222456  )
         9           Zn1 tau(   9) = (  -0.0000012   3.1561138  14.6465539  )
        10           Zn1 tau(  10) = (   1.3724347   0.7789901  14.6465527  )
        11           Zn1 tau(  11) = (   4.0709361   0.7789888  14.6465541  )
        12           Re1 tau(  12) = (   2.7216794   3.1427292  14.2389900  )

     number of k points=    20  Fermi-Dirac smearing, width (Ry)=  0.0110
                       cart. coord. in units 2pi/alat
        k(    1) = (   0.0000000   0.0000000   0.0000000), wk =   0.0555556
        k(    2) = (   0.0000000   0.0353550   0.0000000), wk =   0.1111111
        k(    3) = (   0.0000000   0.0707099   0.0000000), wk =   0.1111111
        k(    4) = (   0.0000000  -0.1060649   0.0000000), wk =   0.0555556
        k(    5) = (   0.0306183   0.0176775   0.0000000), wk =   0.1111111
        k(    6) = (   0.0306183   0.0530325   0.0000000), wk =   0.1111111
        k(    7) = (   0.0306183   0.0883874   0.0000000), wk =   0.1111111
        k(    8) = (   0.0306183  -0.0883874   0.0000000), wk =   0.1111111
        k(    9) = (   0.0306183  -0.0530325   0.0000000), wk =   0.1111111
        k(   10) = (   0.0306183  -0.0176775   0.0000000), wk =   0.1111111
        k(   11) = (   0.0612366   0.0353550   0.0000000), wk =   0.1111111
        k(   12) = (   0.0612366   0.0707099   0.0000000), wk =   0.1111111
        k(   13) = (   0.0612366   0.1060649   0.0000000), wk =   0.1111111
        k(   14) = (   0.0612366  -0.0707099   0.0000000), wk =   0.1111111
        k(   15) = (   0.0612366  -0.0353550   0.0000000), wk =   0.1111111
        k(   16) = (   0.0612366  -0.0000000   0.0000000), wk =   0.1111111
        k(   17) = (  -0.0918549  -0.0530325   0.0000000), wk =   0.0555556
        k(   18) = (  -0.0918549  -0.0176775   0.0000000), wk =   0.1111111
        k(   19) = (  -0.0918549   0.0176775   0.0000000), wk =   0.1111111
        k(   20) = (  -0.0918549  -0.1590974   0.0000000), wk =   0.0555556

     Largest allocated arrays     est. size (Mb)     dimensions
     Largest temporary arrays     est. size (Mb)     dimensions

     Initial potential from superposition of free atoms
     Check: negative starting charge=   -0.388633

     starting charge  223.49860, renormalised to  225.00000

[...]

     *
     * You are using vdW-DF for exchange-correlation in this calculation.
     * Please cite the following three references that made this development
     * possible:
     *
     *   M. Dion, H. Rydberg, E. Schroder, D. C. Langreth, and
     *   B. I. Lundqvist, Phys. Rev. Lett. 92, 246401 (2004).
     *
     *   T. Thonhauser, V. R. Cooper, S. Li, A. Puzder, P. Hyldgaard, and
     *   D. C. Langreth, Phys. Rev. B 76, 125112 (2007).
     *
     *   G. Roman-Perez and J. M. Soler, Phys. Rev. Lett. 103, 096102 (2009).
     *
     *
     * If you are using vdW-DF2, please also cite:
     *
     *   K. Lee, E. D. Murray, L. Kong, B. I. Lundqvist, and
     *   D. C. Langreth, Phys. Rev. B 82, 081101(R) (2010).
     *
     *
     * If you are calculating the stress with vdW-DF, please also cite:
     *
     *   R. Sabatini, E. Kucukbenli, B. Kolb, T. Thonhauser, and
     *   S. de Gironcoli, J. Phys.: Condens. Matter 24, 424209 (2012).
     *

     Carrying out vdW-DF run using the following parameters:

     Nqs =      20    Nr_points =    1024   r_max =   100.000
     q_mesh =
               0.00001000     0.04494208     0.09755937     0.15916263
               0.23128650     0.31572767     0.41458969     0.53033537
               0.66584808     0.82450364     1.01025438     1.22772762
               1.48234092     1.78043706     2.12944203     2.53805004
               3.01644009     3.57652955     4.23227104     5.00000000

     Gradients computed in reciprocal space

[...]

     Starting wfc are  156 randomized atomic wfcs

     Self-consistent Calculation

[...]

     total energy              =   -4741.19054359 Ry
     Harris-Foulkes estimate   =   -4741.19054329 Ry
     estimated scf accuracy    <       0.00000112 Ry

     iteration # 17     ecut=    36.75 Ry     beta=0.10
     Davidson diagonalization with overlap
     ethr =  4.97E-10,  avg # of iterations =  2.0

[...]

     negative rho (up, down):  3.843E-01 0.000E+00

     Adding external electric field

     Computed dipole along edir(3) :
        Dipole               -0.0149 Ry au,         -0.0378 Debye
        Dipole field         -0.0000 Ry au

        Potential amp.        0.0040 Ry
        Total length         45.0386 bohr

     End of self-consistent calculation

[...]

          k = 0.0612-0.0000 0.0000 ( 15922 PWs)   bands (ev):

[...]

          k =-0.0919-0.1591 0.0000 ( 15968 PWs)   bands (ev):

  -125.3482-125.3478-125.3473-125.1294-125.1289-125.1285-124.9685-124.9680
  -124.9675 -79.5642 -79.5602 -79.5567 -79.5144 -79.5114 -79.5092 -79.4976
   -79.4950 -79.4921 -79.3527 -79.3489 -79.3454 -79.3001 -79.2976 -79.2952
   -79.2705 -79.2676 -79.2653 -79.1947 -79.1902 -79.1863 -79.1476 -79.1457
   -79.1436 -79.1106 -79.1001 -79.0967 -79.0943 -78.9431 -78.9392 -40.8443
   -40.8432 -40.8222 -40.7231 -40.7054 -40.6178 -40.6172 -40.6150 -40.6141
    -7.0892  -6.8963  -6.7533  -6.6865  -6.6652  -6.6435  -6.5531  -6.5518
    -6.5262  -6.5098  -6.4983  -6.4528  -6.4064  -6.3814  -6.3446  -6.3099
    -6.2823  -6.2392  -6.1705  -6.1566  -6.1551  -6.1085  -6.0823  -6.0729
    -6.0627  -6.0531  -6.0244  -5.9841  -5.9780  -5.9548  -5.9495  -5.9179
    -5.9119  -5.9044  -5.8824  -5.8687  -5.8442  -5.8182  -5.7940  -5.7708
    -5.7305  -5.7043  -5.6608  -5.6486  -5.6367  -5.5986  -5.5287  -4.7305
    -4.0505  -3.5104  -2.4294  -2.2665  -2.0630  -1.5081  -1.5006  -0.8081
    -0.7097  -0.2560  -0.1708  -0.1697  -0.1463   0.1676   0.5442   0.5683
     1.0093   1.2871   1.7929   2.0951   2.5766   2.7681   3.3376   3.5960
     3.9381   3.9516   5.7108   5.7643   5.9829   6.0447   6.3631   6.5410
     6.6835   6.7167   6.8328   6.9970   7.2111   7.2642   7.3468   7.8878
     8.0701   8.1409   8.2262   8.3256   8.3559   8.4195

     the Fermi energy is     0.9498 ev

!    total energy              =   -4741.19054662 Ry
     Harris-Foulkes estimate   =   -4741.19054371 Ry
     estimated scf accuracy    <       0.00000023 Ry

     The total energy is the sum of the following terms:

     one-electron contribution =  -31931.67902411 Ry
     hartree contribution      =   15950.49408972 Ry
     xc contribution           =    -553.11100226 Ry
     ewald contribution        =   11793.15101476 Ry
     electric field correction =       0.00000066 Ry
     smearing contrib. (-TS)   =      -0.04562538 Ry

     convergence has been achieved in  17 iterations

 BEEF-vdW xc energy contributions
           1 :   -491.691643652110
           2 :    449.160265605290
           3 :   -376.473864952415
           4 :    292.730573869323
           5 :   -215.757341043330
           6 :    155.886138329054
           7 :   -114.216650197424
           8 :    85.4143614214511
           9 :   -62.7312608776921
          10 :    42.1244645936373
          11 :   -23.4535689918351
          12 :    8.83707869202033
          13 :   5.129198671522772E-002
          14 :   -3.69513958474283
          15 :    4.48758821069157
          16 :   -5.08591554529835
          17 :    6.79630842776839
          18 :   -9.15034784436807
          19 :    10.7896440174810
          20 :   -10.8175035599994
          21 :    9.55501367466593
          22 :   -8.22295342434984
          23 :    7.92578612896966
          24 :   -8.79762609984368
          25 :    9.95743942065985
          26 :   -10.2491223419671
          27 :    9.14708412318544
          28 :   -7.13393961131362
          29 :    5.30239923098384
          30 :   -4.53160418847642
          31 :   -38.7857133292098
          32 :   -27.1729383711842

     Forces acting on atoms (Ry/au):

     negative rho (up, down):  3.843E-01 0.000E+00
     atom    1 type  1   force =     0.00000012   -0.00242254   -0.02958753
     atom    2 type  1   force =    -0.00209851    0.00121110   -0.02958725
     atom    3 type  1   force =     0.00209789    0.00121090   -0.02958722
     atom    4 type  2   force =     0.00000039   -0.00000036    0.09312560
     atom    5 type  1   force =    -0.00000014   -0.01922453   -0.00890629
     atom    6 type  1   force =    -0.01664955    0.00961227   -0.00890665
     atom    7 type  1   force =     0.01664938    0.00961156   -0.00890599
     atom    8 type  2   force =     0.00000032    0.00000128    0.02059176
     atom    9 type  1   force =    -0.00000087   -0.00075162    0.00007446
     atom   10 type  1   force =    -0.00065089    0.00037542    0.00007467
     atom   11 type  1   force =     0.00065058    0.00037652    0.00007463
     atom   12 type  2   force =     0.00000127    0.00000000    0.00153983

     Total force =     0.114416     Total SCF correction =     0.001422

     entering subroutine stress ...

     negative rho (up, down):  3.843E-01 0.000E+00
          total   stress  (Ry/bohr**3)                   (kbar)     P=  -21.45
  -0.00019292  -0.00000000   0.00000000        -28.38     -0.00      0.00
  -0.00000000  -0.00019292   0.00000000         -0.00    -28.38      0.00
   0.00000000   0.00000000  -0.00005161          0.00      0.00     -7.59

 !ASE

     Writing output data file calc.save

     General routines

     Parallel routines

   This run was terminated on:  18:41:17   2Jan2019

   JOB DONE.
Job  /afs/slac/g/suncat/bin/suncat-tsmpirun -x LD_LIBRARY_PATH -wdir /scratch/qe649503_73KvC pw.x -in pw.inp

TID   HOST_NAME   COMMAND_LINE            STATUS            TERMINATION_TIME
00000 suncat0243 pw.x -in pw.inp   Done                     01/02/2019 18:41:17
00001 suncat0243 pw.x -in pw.inp   Done                     01/02/2019 18:41:17
00002 suncat0243 pw.x -in pw.inp   Done                     01/02/2019 18:41:17
00003 suncat0243 pw.x -in pw.inp   Done                     01/02/2019 18:41:17
00004 suncat0243 pw.x -in pw.inp   Done                     01/02/2019 18:41:17
00005 suncat0243 pw.x -in pw.inp   Done                     01/02/2019 18:41:17
00006 suncat0243 pw.x -in pw.inp   Done                     01/02/2019 18:41:17
00007 suncat0243 pw.x -in pw.inp   Done                     01/02/2019 18:41:17
00008 suncat0242 pw.x -in pw.inp   Done                     01/02/2019 18:41:17
00009 suncat0242 pw.x -in pw.inp   Done                     01/02/2019 18:41:17
00010 suncat0242 pw.x -in pw.inp   Done                     01/02/2019 18:41:17
00011 suncat0242 pw.x -in pw.inp   Done                     01/02/2019 18:41:17
00012 suncat0242 pw.x -in pw.inp   Done                     01/02/2019 18:41:17
00013 suncat0242 pw.x -in pw.inp   Done                     01/02/2019 18:41:17
00014 suncat0242 pw.x -in pw.inp   Done                     01/02/2019 18:41:17
00015 suncat0242 pw.x -in pw.inp   Done                     01/02/2019 18:41:17
00016 suncat0241 pw.x -in pw.inp   Done                     01/02/2019 18:41:17
00017 suncat0241 pw.x -in pw.inp   Done                     01/02/2019 18:41:17
00018 suncat0241 pw.x -in pw.inp   Done                     01/02/2019 18:41:17
00019 suncat0241 pw.x -in pw.inp   Done                     01/02/2019 18:41:17
00020 suncat0241 pw.x -in pw.inp   Done                     01/02/2019 18:41:17
00021 suncat0241 pw.x -in pw.inp   Done                     01/02/2019 18:41:17
00022 suncat0241 pw.x -in pw.inp   Done                     01/02/2019 18:41:17
00023 suncat0241 pw.x -in pw.inp   Done                     01/02/2019 18:41:17
00024 suncat0240 pw.x -in pw.inp   Done                     01/02/2019 18:41:17
00025 suncat0240 pw.x -in pw.inp   Done                     01/02/2019 18:41:17
00026 suncat0240 pw.x -in pw.inp   Done                     01/02/2019 18:41:17
00027 suncat0240 pw.x -in pw.inp   Done                     01/02/2019 18:41:17
00028 suncat0240 pw.x -in pw.inp   Done                     01/02/2019 18:41:17
00029 suncat0240 pw.x -in pw.inp   Done                     01/02/2019 18:41:17
00030 suncat0240 pw.x -in pw.inp   Done                     01/02/2019 18:41:17
00031 suncat0240 pw.x -in pw.inp   Done                     01/02/2019 18:41:17
00032 suncat0209 pw.x -in pw.inp   Done                     01/02/2019 18:41:17
00033 suncat0209 pw.x -in pw.inp   Done                     01/02/2019 18:41:17
00034 suncat0209 pw.x -in pw.inp   Done                     01/02/2019 18:41:17
00035 suncat0209 pw.x -in pw.inp   Done                     01/02/2019 18:41:17
00036 suncat0209 pw.x -in pw.inp   Done                     01/02/2019 18:41:17
00037 suncat0209 pw.x -in pw.inp   Done                     01/02/2019 18:41:17
00038 suncat0209 pw.x -in pw.inp   Done                     01/02/2019 18:41:17
00039 suncat0209 pw.x -in pw.inp   Done                     01/02/2019 18:41:17
00040 suncat0205 pw.x -in pw.inp   Done                     01/02/2019 18:41:17
00041 suncat0205 pw.x -in pw.inp   Done                     01/02/2019 18:41:17
00042 suncat0205 pw.x -in pw.inp   Done                     01/02/2019 18:41:17
00043 suncat0205 pw.x -in pw.inp   Done                     01/02/2019 18:41:17
00044 suncat0205 pw.x -in pw.inp   Done                     01/02/2019 18:41:17
00045 suncat0205 pw.x -in pw.inp   Done                     01/02/2019 18:41:17
00046 suncat0205 pw.x -in pw.inp   Done                     01/02/2019 18:41:17
00047 suncat0205 pw.x -in pw.inp   Done                     01/02/2019 18:41:17
00048 suncat0204 pw.x -in pw.inp   Done                     01/02/2019 18:41:17
00049 suncat0204 pw.x -in pw.inp   Done                     01/02/2019 18:41:17
00050 suncat0204 pw.x -in pw.inp   Done                     01/02/2019 18:41:17
00051 suncat0204 pw.x -in pw.inp   Done                     01/02/2019 18:41:17
00052 suncat0204 pw.x -in pw.inp   Done                     01/02/2019 18:41:17
00053 suncat0204 pw.x -in pw.inp   Done                     01/02/2019 18:41:17
00054 suncat0204 pw.x -in pw.inp   Done                     01/02/2019 18:41:17
00055 suncat0204 pw.x -in pw.inp   Done                     01/02/2019 18:41:17
00056 suncat0203 pw.x -in pw.inp   Done                     01/02/2019 18:41:17
00057 suncat0203 pw.x -in pw.inp   Done                     01/02/2019 18:41:17
00058 suncat0203 pw.x -in pw.inp   Done                     01/02/2019 18:41:17
00059 suncat0203 pw.x -in pw.inp   Done                     01/02/2019 18:41:17
00060 suncat0203 pw.x -in pw.inp   Done                     01/02/2019 18:41:17
00061 suncat0203 pw.x -in pw.inp   Done                     01/02/2019 18:41:17
00062 suncat0203 pw.x -in pw.inp   Done                     01/02/2019 18:41:17
00063 suncat0203 pw.x -in pw.inp   Done                     01/02/2019 18:41:17