     Program PWSCF v.5.1rc2 (svn rev. 11289) starts on 31Dec2018 at  8:23:15

     Current dimensions of program PWSCF are:
     Max number of different atomic species (ntypx) = 10
     Max number of k-points (npk) =  40000
     Max angular momentum in pseudopotentials (lmaxx) =  3
     Presently stress not available with electric field

     IMPORTANT: XC functional enforced from input :
     Exchange-correlation      = BEEF-VDW ( 1  4 27 13 2)
     Any further DFT definition will be discarded
     Please, verify this is what you really want

     Subspace diagonalization in iterative solution of the eigenvalue problem:
     a serial algorithm will be used

     bravais-lattice index     =            0
     lattice parameter (alat)  =       1.8897  a.u.
     unit-cell volume          =    7271.1202 (a.u.)^3
     number of atoms/cell      =           12
     number of atomic types    =            2
     number of electrons       =       135.00
     number of Kohn-Sham states=           97
     kinetic-energy cutoff     =      36.7493  Ry
     charge density cutoff     =     367.4932  Ry
     convergence threshold     =      1.0E-06
     mixing beta               =       0.1000
     number of iterations used =           10  plain     mixing
     Exchange-correlation      = BEEF-VDW ( 1  4 27 13 2)
     nstep                     =           50

     celldm(1)=   1.889726  celldm(2)=   0.000000  celldm(3)=   0.000000
     celldm(4)=   0.000000  celldm(5)=   0.000000  celldm(6)=   0.000000

     crystal axes: (cart. coord. in units of alat)
               a(1) = (   6.960094   0.000000   0.000000 )
               a(2) = (  -3.480047   6.027618   0.000000 )
               a(3) = (   0.000000   0.000000  25.682893 )

     reciprocal axes: (cart. coord. in units 2 pi/alat)
               b(1) = (  0.143676  0.082952  0.000000 )
               b(2) = (  0.000000  0.165903  0.000000 )
               b(3) = (  0.000000  0.000000  0.038936 )

     PseudoPot. # 1 for Pb read from file:
     /afs/slac.stanford.edu/u/if/mamunm/psp/gbrv1.5pbe/Pb.UPF
     MD5 check sum: 3d1c1779aa92214d1e8f3a7db79003e2
     Pseudo is Ultrasoft + core correction, Zval = 14.0
     Generated by new atomic code, or converted to UPF format
     Using radial grid of  899 points,  6 beta functions with:
                l(1) =   0
                l(2) =   0
                l(3) =   1
                l(4) =   1
                l(5) =   2
                l(6) =   2
     Q(r) pseudized with  6 coefficients,  rinner =    1.000   1.000   1.000
                                                       1.000   1.000

     PseudoPot. # 2 for Al read from file:
     /afs/slac.stanford.edu/u/if/mamunm/psp/gbrv1.5pbe/Al.UPF
     MD5 check sum: 0a6289f5291fc8f409219462bc851e1f
     Pseudo is Ultrasoft + core correction, Zval =  3.0
     Generated by new atomic code, or converted to UPF format
     Using radial grid of  893 points,  3 beta functions with:
                l(1) =   0
                l(2) =   1
                l(3) =   2
     Q(r) pseudized with  8 coefficients,  rinner =    0.900   0.900   0.900
                                                       0.900   0.900

     vdW kernel table read from file vdW_kernel_table
     MD5 check sum: 095c7af220d748ca6e76c0b4c6cfb241

     atomic species   valence    mass     pseudopotential
        Pb1           14.00   207.20000     Pb( 1.00)
        Al1            3.00    26.98154     Al( 1.00)

     No symmetry found

   Cartesian axes

     site n.     atom                  positions (alat units)
         1           Pb1 tau(   1) = (   0.0000000   0.0000000  10.0000000  )
         2           Pb1 tau(   2) = (  -1.7400234   3.0138089  10.0000000  )
         3           Pb1 tau(   3) = (   1.7400234   3.0138089  10.0000000  )
         4           Al1 tau(   4) = (   3.4800468   0.0000000  10.0000000  )
         5           Pb1 tau(   5) = (   3.4800468   2.0092059  12.8414463  )
         6           Pb1 tau(   6) = (   1.7400234   5.0230149  12.8414463  )
         7           Pb1 tau(   7) = (  -1.7400234   5.0230149  12.8414463  )
         8           Al1 tau(   8) = (   0.0000000   2.0092059  12.8414463  )
         9           Pb1 tau(   9) = (  -0.0000000   4.0184119  15.6828926  )
        10           Pb1 tau(  10) = (   1.7400234   1.0046030  15.6828926  )
        11           Pb1 tau(  11) = (   5.2200702   1.0046030  15.6828926  )
        12           Al1 tau(  12) = (   3.4800468   4.0184119  15.6828926  )

     number of k points=    20  Fermi-Dirac smearing, width (Ry)=  0.0110
                       cart. coord. in units 2pi/alat
        k(    1) = (   0.0000000   0.0000000   0.0000000), wk =   0.0555556
        k(    2) = (   0.0000000   0.0276505   0.0000000), wk =   0.1111111
        k(    3) = (   0.0000000   0.0553010   0.0000000), wk =   0.1111111
        k(    4) = (   0.0000000  -0.0829515   0.0000000), wk =   0.0555556
        k(    5) = (   0.0239460   0.0138253   0.0000000), wk =   0.1111111
        k(    6) = (   0.0239460   0.0414758   0.0000000), wk =   0.1111111
        k(    7) = (   0.0239460   0.0691263   0.0000000), wk =   0.1111111
        k(    8) = (   0.0239460  -0.0691263   0.0000000), wk =   0.1111111
        k(    9) = (   0.0239460  -0.0414758   0.0000000), wk =   0.1111111
        k(   10) = (   0.0239460  -0.0138253   0.0000000), wk =   0.1111111
        k(   11) = (   0.0478921   0.0276505   0.0000000), wk =   0.1111111
        k(   12) = (   0.0478921   0.0553010   0.0000000), wk =   0.1111111
        k(   13) = (   0.0478921   0.0829515   0.0000000), wk =   0.1111111
        k(   14) = (   0.0478921  -0.0553010   0.0000000), wk =   0.1111111
        k(   15) = (   0.0478921  -0.0276505   0.0000000), wk =   0.1111111
        k(   16) = (   0.0478921   0.0000000   0.0000000), wk =   0.1111111
        k(   17) = (  -0.0718381  -0.0414758   0.0000000), wk =   0.0555556
        k(   18) = (  -0.0718381  -0.0138253   0.0000000), wk =   0.1111111
        k(   19) = (  -0.0718381   0.0138253   0.0000000), wk =   0.1111111
        k(   20) = (  -0.0718381  -0.1244273   0.0000000), wk =   0.0555556

     Largest allocated arrays     est. size (Mb)     dimensions
     Largest temporary arrays     est. size (Mb)     dimensions

     Check: negative/imaginary core charge=   -0.000001    0.000000

     Initial potential from superposition of free atoms
     Check: negative starting charge=   -0.150458

     starting charge  134.97144, renormalised to  135.00000

     negative rho (up, down):  1.505E-01 0.000E+00

     *
     * You are using vdW-DF for exchange-correlation in this calculation.
     * Please cite the following three references that made this development
     * possible:
     *
     *   M. Dion, H. Rydberg, E. Schroder, D. C. Langreth, and
     *   B. I. Lundqvist, Phys. Rev. Lett. 92, 246401 (2004).
     *
     *   T. Thonhauser, V. R. Cooper, S. Li, A. Puzder, P. Hyldgaard, and
     *   D. C. Langreth, Phys. Rev. B 76, 125112 (2007).
     *
     *   G. Roman-Perez and J. M. Soler, Phys. Rev. Lett. 103, 096102 (2009).
     *
     *
     * If you are using vdW-DF2, please also cite:
     *
     *   K. Lee, E. D. Murray, L. Kong, B. I. Lundqvist, and
     *   D. C. Langreth, Phys. Rev. B 82, 081101(R) (2010).
     *
     *
     * If you are calculating the stress with vdW-DF, please also cite:
     *
     *   R. Sabatini, E. Kucukbenli, B. Kolb, T. Thonhauser, and
     *   S. de Gironcoli, J. Phys.: Condens. Matter 24, 424209 (2012).
     *

     Carrying out vdW-DF run using the following parameters:

     Nqs =      20    Nr_points =    1024   r_max =   100.000
     q_mesh =
               0.00001000     0.04494208     0.09755937     0.15916263
               0.23128650     0.31572767     0.41458969     0.53033537
               0.66584808     0.82450364     1.01025438     1.22772762
               1.48234092     1.78043706     2.12944203     2.53805004
               3.01644009     3.57652955     4.23227104     5.00000000

     Gradients computed in reciprocal space

     Adding external electric field

     Computed dipole along edir(3) :
        Dipole               -0.0000 Ry au,         -0.0000 Debye
        Dipole field         -0.0000 Ry au

        Potential amp.        0.0000 Ry
        Total length         47.3203 bohr

     Starting wfc are   93 randomized atomic wfcs +    4 random wfc

     Self-consistent Calculation

     iteration #  1     ecut=    36.75 Ry     beta=0.10
     Davidson diagonalization with overlap
     ethr =  1.00E-02,  avg # of iterations =  6.6

     Threshold (ethr) on eigenvalues was too large:
     Diagonalizing with lowered threshold

     Davidson diagonalization with overlap
     ethr =  1.35E-04,  avg # of iterations =  8.2

[...]

     total energy              =   -1514.58706420 Ry
     Harris-Foulkes estimate   =   -1514.61485988 Ry
     estimated scf accuracy    <       0.18734766 Ry

[...]

     End of self-consistent calculation

          k = 0.0000 0.0000 0.0000 ( 27393 PWs)   bands (ev):

   -17.0808 -17.0709 -17.0600 -17.0600 -17.0374 -17.0374 -17.0299 -16.9860
   -16.9783 -16.9783 -16.9741 -16.9649 -16.9595 -16.9594 -16.9532 -16.9451
   -16.9451 -16.9394 -16.9072 -16.9071 -16.8873 -16.8844 -16.8844 -16.8750
   -16.8750 -16.8676 -16.8676 -16.8413 -16.8413 -16.8382 -16.8198 -16.8105
   -16.8105 -16.7712 -16.7710 -16.7571 -16.7569 -16.7450 -16.7394 -16.7323
   -16.7322 -16.7138 -16.6784 -16.6782 -16.6443 -10.3647  -9.4248  -8.1986
    -7.4857  -7.4857  -7.0604  -7.0604  -6.4536  -6.4536  -3.9664  -3.9230
    -2.9653  -2.9392  -2.7088  -2.7088  -2.2979  -1.7607  -1.7607  -1.5944
    -1.5944  -1.4866  -1.4148   0.2374   1.6184   1.6184   1.7385   1.7385
     2.0826   2.2825   2.6901   3.2932   3.3376   3.3376   3.5674   3.8930
     3.8931   4.2628   4.2795   4.3577   4.3577   4.4098   4.4232   5.5716
     5.5717   5.6319   5.6590   5.6590   5.7946   5.8901   6.0610   6.5660
     6.5662

[...]

          k =-0.0718-0.0415 0.0000 ( 27354 PWs)   bands (ev):

[...]

     the Fermi energy is     0.4686 ev

!    total energy              =   -1514.59945087 Ry
     Harris-Foulkes estimate   =   -1514.59907265 Ry
     estimated scf accuracy    <       0.00000081 Ry

     The total energy is the sum of the following terms:

     one-electron contribution =   -6132.63526196 Ry
     hartree contribution      =    3117.22625131 Ry
     xc contribution           =    -600.37612374 Ry
     ewald contribution        =    2101.22848254 Ry
     electric field correction =       0.00000000 Ry
     smearing contrib. (-TS)   =      -0.04279902 Ry

     convergence has been achieved in  11 iterations

 BEEF-vdW xc energy contributions
           1 :   -534.142193007166
           2 :    495.162496592840
           3 :   -426.946167936379
           4 :    344.964351527997
           5 :   -264.724380426044
           6 :    197.024269326456
           7 :   -145.842300940725
           8 :    109.158667958734
           9 :   -81.7766078818079
          10 :    58.5669179708091
          11 :   -36.7164537219694
          12 :    16.2784520638653
          13 :   0.802033398116009
          14 :   -12.4057454164231
[...]
     /afs/slac.stanford.edu/u/if/mamunm/psp/gbrv1.5pbe/Pb.UPF
     MD5 check sum: 3d1c1779aa92214d1e8f3a7db79003e2
     Pseudo is Ultrasoft + core correction, Zval = 14.0
     Generated by new atomic code, or converted to UPF format
     Using radial grid of  899 points,  6 beta functions with:
                l(1) =   0
                l(2) =   0
                l(3) =   1
                l(4) =   1
                l(5) =   2
                l(6) =   2
     Q(r) pseudized with  6 coefficients,  rinner =    1.000   1.000   1.000
                                                       1.000   1.000

     PseudoPot. # 2 for Al read from file:
     /afs/slac.stanford.edu/u/if/mamunm/psp/gbrv1.5pbe/Al.UPF
     MD5 check sum: 0a6289f5291fc8f409219462bc851e1f
     Pseudo is Ultrasoft + core correction, Zval =  3.0
     Generated by new atomic code, or converted to UPF format
     Using radial grid of  893 points,  3 beta functions with:
                l(1) =   0
                l(2) =   1
                l(3) =   2
     Q(r) pseudized with  8 coefficients,  rinner =    0.900   0.900   0.900
                                                       0.900   0.900

     vdW kernel table read from file vdW_kernel_table
     MD5 check sum: 095c7af220d748ca6e76c0b4c6cfb241

     atomic species   valence    mass     pseudopotential
        Pb1           14.00   207.20000     Pb( 1.00)
        Al1            3.00    26.98154     Al( 1.00)

     No symmetry found

   Cartesian axes

     site n.     atom                  positions (alat units)
         1           Pb1 tau(   1) = (   0.0000000   0.0000000  10.0000000  )
         2           Pb1 tau(   2) = (  -1.7400234   3.0138089  10.0000000  )
         3           Pb1 tau(   3) = (   1.7400234   3.0138089  10.0000000  )
         4           Al1 tau(   4) = (   3.4800468   0.0000000  10.0000000  )
         5           Pb1 tau(   5) = (   3.4800468   2.0092059  12.8414463  )
         6           Pb1 tau(   6) = (   1.7400234   5.0230149  12.8414463  )
         7           Pb1 tau(   7) = (  -1.7400234   5.0230149  12.8414463  )
         8           Al1 tau(   8) = (   0.0000000   2.0092059  12.8414463  )
         9           Pb1 tau(   9) = (   0.0000010   3.9705815  15.5531100  )
        10           Pb1 tau(  10) = (   1.6992071   1.0280522  15.5556827  )
        11           Pb1 tau(  11) = (   5.2609123   1.0280503  15.5556985  )
        12           Al1 tau(  12) = (   3.4800512   4.0184669  15.4128994  )

     number of k points=    20  Fermi-Dirac smearing, width (Ry)=  0.0110
                       cart. coord. in units 2pi/alat
        k(    1) = (   0.0000000   0.0000000   0.0000000), wk =   0.0555556
        k(    2) = (   0.0000000   0.0276505   0.0000000), wk =   0.1111111
        k(    3) = (   0.0000000   0.0553010   0.0000000), wk =   0.1111111
        k(    4) = (   0.0000000  -0.0829515   0.0000000), wk =   0.0555556
        k(    5) = (   0.0239460   0.0138253   0.0000000), wk =   0.1111111
        k(    6) = (   0.0239460   0.0414758   0.0000000), wk =   0.1111111
        k(    7) = (   0.0239460   0.0691263   0.0000000), wk =   0.1111111
        k(    8) = (   0.0239460  -0.0691263   0.0000000), wk =   0.1111111
        k(    9) = (   0.0239460  -0.0414758   0.0000000), wk =   0.1111111
        k(   10) = (   0.0239460  -0.0138253   0.0000000), wk =   0.1111111
        k(   11) = (   0.0478921   0.0276505   0.0000000), wk =   0.1111111
        k(   12) = (   0.0478921   0.0553010   0.0000000), wk =   0.1111111
        k(   13) = (   0.0478921   0.0829515   0.0000000), wk =   0.1111111
        k(   14) = (   0.0478921  -0.0553010   0.0000000), wk =   0.1111111
        k(   15) = (   0.0478921  -0.0276505   0.0000000), wk =   0.1111111
        k(   16) = (   0.0478921   0.0000000   0.0000000), wk =   0.1111111
        k(   17) = (  -0.0718381  -0.0414758   0.0000000), wk =   0.0555556
        k(   18) = (  -0.0718381  -0.0138253   0.0000000), wk =   0.1111111
        k(   19) = (  -0.0718381   0.0138253   0.0000000), wk =   0.1111111
        k(   20) = (  -0.0718381  -0.1244273   0.0000000), wk =   0.0555556

     Largest allocated arrays     est. size (Mb)     dimensions
     Largest temporary arrays     est. size (Mb)     dimensions

     Check: negative/imaginary core charge=   -0.000001    0.000000

     Initial potential from superposition of free atoms
     Check: negative starting charge=   -0.150466

     starting charge  134.97144, renormalised to  135.00000

[...]

     *
     * You are using vdW-DF for exchange-correlation in this calculation.
     * Please cite the following three references that made this development
     * possible:
     *
     *   M. Dion, H. Rydberg, E. Schroder, D. C. Langreth, and
     *   B. I. Lundqvist, Phys. Rev. Lett. 92, 246401 (2004).
     *
     *   T. Thonhauser, V. R. Cooper, S. Li, A. Puzder, P. Hyldgaard, and
     *   D. C. Langreth, Phys. Rev. B 76, 125112 (2007).
     *
     *   G. Roman-Perez and J. M. Soler, Phys. Rev. Lett. 103, 096102 (2009).
     *
     *
     * If you are using vdW-DF2, please also cite:
     *
     *   K. Lee, E. D. Murray, L. Kong, B. I. Lundqvist, and
     *   D. C. Langreth, Phys. Rev. B 82, 081101(R) (2010).
     *
     *
     * If you are calculating the stress with vdW-DF, please also cite:
     *
     *   R. Sabatini, E. Kucukbenli, B. Kolb, T. Thonhauser, and
     *   S. de Gironcoli, J. Phys.: Condens. Matter 24, 424209 (2012).
     *

     Carrying out vdW-DF run using the following parameters:

     Nqs =      20    Nr_points =    1024   r_max =   100.000
     q_mesh =
               0.00001000     0.04494208     0.09755937     0.15916263
               0.23128650     0.31572767     0.41458969     0.53033537
               0.66584808     0.82450364     1.01025438     1.22772762
               1.48234092     1.78043706     2.12944203     2.53805004
               3.01644009     3.57652955     4.23227104     5.00000000

     Gradients computed in reciprocal space

[...]

     Starting wfc are   93 randomized atomic wfcs +    4 random wfc

     Self-consistent Calculation

[...]

     Threshold (ethr) on eigenvalues was too large:
     Diagonalizing with lowered threshold

     Davidson diagonalization with overlap
     ethr =  1.61E-04,  avg # of iterations =  8.6

[...]

     total energy              =   -1514.60934773 Ry
     Harris-Foulkes estimate   =   -1514.60923866 Ry
     estimated scf accuracy    <       0.00000175 Ry

     iteration # 12     ecut=    36.75 Ry     beta=0.10
     Davidson diagonalization with overlap
     ethr =  1.30E-09,  avg # of iterations =  3.5

[...]

     negative rho (up, down):  1.607E-01 0.000E+00

     Adding external electric field

     Computed dipole along edir(3) :
        Dipole               -0.0194 Ry au,         -0.0492 Debye
        Dipole field         -0.0000 Ry au

        Potential amp.        0.0032 Ry
        Total length         47.3203 bohr

     End of self-consistent calculation

[...]

          k = 0.0479 0.0000 0.0000 ( 27399 PWs)   bands (ev):

[...]

          k =-0.0718-0.1244 0.0000 ( 27354 PWs)   bands (ev):

   -17.0528 -17.0366 -16.9996 -16.9897 -16.9734 -16.9674 -16.9646 -16.9594
   -16.9534 -16.9500 -16.9413 -16.9253 -16.9238 -16.9234 -16.9202 -16.9199
   -16.9108 -16.9098 -16.9079 -16.9068 -16.9023 -16.8957 -16.8900 -16.8894
   -16.8736 -16.8712 -16.8643 -16.8474 -16.8441 -16.8240 -16.7969 -16.7917
   -16.7876 -16.7865 -16.7840 -16.7721 -16.7586 -16.7548 -16.7466 -16.7419
   -16.7393 -16.7313 -16.7057 -16.6947 -16.6438  -9.6281  -9.4299  -8.6711
    -8.2738  -7.8977  -7.6323  -7.2618  -7.1168  -6.2727  -4.6092  -4.0609
    -3.3967  -1.3805  -1.2470  -1.2046  -1.1873  -1.0865  -1.0216  -0.2925
    -0.2291  -0.1274   0.3179   0.5211   0.7084   1.1039   1.3247   1.3433
     1.5973   1.7228   1.9015   1.9749   2.1168   2.3607   2.5019   3.1142
     3.1720   3.2423   3.5197   3.8654   3.8937   4.2676   4.3813   4.6026
     4.6556   4.7320   4.9423   5.2903   5.3159   5.3308   5.3913   5.4442
     5.5853

     the Fermi energy is     0.4928 ev

!    total energy              =   -1514.60959456 Ry
     Harris-Foulkes estimate   =   -1514.60934800 Ry
     estimated scf accuracy    <       0.00000078 Ry

     The total energy is the sum of the following terms:

     one-electron contribution =   -6249.25610467 Ry
     hartree contribution      =    3175.65032951 Ry
     xc contribution           =    -600.49858280 Ry
     ewald contribution        =    2159.53684599 Ry
     electric field correction =       0.00000065 Ry
     smearing contrib. (-TS)   =      -0.04208322 Ry

     convergence has been achieved in  12 iterations

 BEEF-vdW xc energy contributions
           1 :   -534.423963198324
           2 :    495.504635906296
           3 :   -427.369411251525
           4 :    345.429044983153
           5 :   -265.149768423753
           6 :    197.339935676028
           7 :   -146.034984702994
           8 :    109.282230488327
           9 :   -81.9196118490115
          10 :    58.7980416503742
          11 :   -37.0406602969190
          12 :    16.6306998458381
          13 :   0.521066162707029
          14 :   -12.2720119336982
          15 :    17.7631910384381
          16 :   -18.0481342104080
          17 :    15.6213614669632
          18 :   -13.1914320309235
          19 :    12.4093033596779
          20 :   -13.2610555105731
          21 :    14.4318559169645
          22 :   -14.3682543566988
          23 :    12.3542708628188
          24 :   -8.95308220454876
          25 :    5.60673589030318
          26 :   -3.72483527811369
          27 :    3.86618937202888
          28 :   -5.48987877050263
          29 :    7.35367329443761
          30 :   -8.25694819380249
          31 :   -43.4182211677199
          32 :   -31.7604489673159

     Forces acting on atoms (Ry/au):

     negative rho (up, down):  1.607E-01 0.000E+00
     atom    1 type  1   force =     0.00000015    0.00471407    0.00599394
     atom    2 type  1   force =     0.00407415   -0.00236785    0.00581346
     atom    3 type  1   force =    -0.00407358   -0.00236802    0.00581343
     atom    4 type  2   force =    -0.00000006   -0.00000308    0.00860827
     atom    5 type  1   force =     0.00000042   -0.00042750   -0.00856285
     atom    6 type  1   force =    -0.00033419    0.00023363   -0.00861363
     atom    7 type  1   force =     0.00033465    0.00023356   -0.00861447
     atom    8 type  2   force =    -0.00000003   -0.00000928   -0.00322382
     atom    9 type  1   force =    -0.00000025    0.00040048    0.00147767
     atom   10 type  1   force =     0.00036123   -0.00020055    0.00131518
     atom   11 type  1   force =    -0.00036240   -0.00020127    0.00131543
     atom   12 type  2   force =    -0.00000007   -0.00000418   -0.00132260

     Total force =     0.022018     Total SCF correction =     0.001288

     entering subroutine stress ...

     negative rho (up, down):  1.607E-01 0.000E+00
          total   stress  (Ry/bohr**3)                   (kbar)     P=   -2.52
  -0.00001736   0.00000000  -0.00000000         -2.55      0.00     -0.00
   0.00000000  -0.00001738  -0.00000004          0.00     -2.56     -0.01
  -0.00000000  -0.00000004  -0.00001661         -0.00     -0.01     -2.44

 !ASE

     Writing output data file calc.save

     General routines

     Parallel routines

   This run was terminated on:   9:42:27  31Dec2018

   JOB DONE.
Job  /afs/slac/g/suncat/bin/suncat-tsmpirun -x LD_LIBRARY_PATH -wdir /scratch/qe648711_Xmfad pw.x -in pw.inp

TID   HOST_NAME   COMMAND_LINE            STATUS            TERMINATION_TIME
00000 suncat0077 pw.x -in pw.inp   Done                     12/31/2018 09:42:27
00001 suncat0077 pw.x -in pw.inp   Done                     12/31/2018 09:42:27
00002 suncat0077 pw.x -in pw.inp   Done                     12/31/2018 09:42:27
00003 suncat0077 pw.x -in pw.inp   Done                     12/31/2018 09:42:27
00004 suncat0077 pw.x -in pw.inp   Done                     12/31/2018 09:42:27
00005 suncat0077 pw.x -in pw.inp   Done                     12/31/2018 09:42:27
00006 suncat0077 pw.x -in pw.inp   Done                     12/31/2018 09:42:27
00007 suncat0077 pw.x -in pw.inp   Done                     12/31/2018 09:42:27
00008 suncat0069 pw.x -in pw.inp   Done                     12/31/2018 09:42:27
00009 suncat0069 pw.x -in pw.inp   Done                     12/31/2018 09:42:27
00010 suncat0069 pw.x -in pw.inp   Done                     12/31/2018 09:42:27
00011 suncat0069 pw.x -in pw.inp   Done                     12/31/2018 09:42:27
00012 suncat0069 pw.x -in pw.inp   Done                     12/31/2018 09:42:27
00013 suncat0069 pw.x -in pw.inp   Done                     12/31/2018 09:42:27
00014 suncat0069 pw.x -in pw.inp   Done                     12/31/2018 09:42:27
00015 suncat0069 pw.x -in pw.inp   Done                     12/31/2018 09:42:27
00016 suncat0066 pw.x -in pw.inp   Done                     12/31/2018 09:42:27
00017 suncat0066 pw.x -in pw.inp   Done                     12/31/2018 09:42:27
00018 suncat0066 pw.x -in pw.inp   Done                     12/31/2018 09:42:27
00019 suncat0066 pw.x -in pw.inp   Done                     12/31/2018 09:42:27
00020 suncat0066 pw.x -in pw.inp   Done                     12/31/2018 09:42:27
00021 suncat0066 pw.x -in pw.inp   Done                     12/31/2018 09:42:27
00022 suncat0066 pw.x -in pw.inp   Done                     12/31/2018 09:42:27
00023 suncat0066 pw.x -in pw.inp   Done                     12/31/2018 09:42:27
00024 suncat0053 pw.x -in pw.inp   Done                     12/31/2018 09:42:27
00025 suncat0053 pw.x -in pw.inp   Done                     12/31/2018 09:42:27
00026 suncat0053 pw.x -in pw.inp   Done                     12/31/2018 09:42:27
00027 suncat0053 pw.x -in pw.inp   Done                     12/31/2018 09:42:27
00028 suncat0053 pw.x -in pw.inp   Done                     12/31/2018 09:42:27
00029 suncat0053 pw.x -in pw.inp   Done                     12/31/2018 09:42:27
00030 suncat0053 pw.x -in pw.inp   Done                     12/31/2018 09:42:27
00031 suncat0053 pw.x -in pw.inp   Done                     12/31/2018 09:42:27
00032 suncat0163 pw.x -in pw.inp   Done                     12/31/2018 09:42:27
00033 suncat0163 pw.x -in pw.inp   Done                     12/31/2018 09:42:27
00034 suncat0163 pw.x -in pw.inp   Done                     12/31/2018 09:42:27
00035 suncat0163 pw.x -in pw.inp   Done                     12/31/2018 09:42:27
00036 suncat0163 pw.x -in pw.inp   Done                     12/31/2018 09:42:27
00037 suncat0163 pw.x -in pw.inp   Done                     12/31/2018 09:42:27
00038 suncat0163 pw.x -in pw.inp   Done                     12/31/2018 09:42:27
00039 suncat0163 pw.x -in pw.inp   Done                     12/31/2018 09:42:27
00040 suncat0162 pw.x -in pw.inp   Done                     12/31/2018 09:42:27
00041 suncat0162 pw.x -in pw.inp   Done                     12/31/2018 09:42:27
00042 suncat0162 pw.x -in pw.inp   Done                     12/31/2018 09:42:27
00043 suncat0162 pw.x -in pw.inp   Done                     12/31/2018 09:42:27
00044 suncat0162 pw.x -in pw.inp   Done                     12/31/2018 09:42:27
00045 suncat0162 pw.x -in pw.inp   Done                     12/31/2018 09:42:27
00046 suncat0162 pw.x -in pw.inp   Done                     12/31/2018 09:42:27
00047 suncat0162 pw.x -in pw.inp   Done                     12/31/2018 09:42:27
00048 suncat0147 pw.x -in pw.inp   Done                     12/31/2018 09:42:27
00049 suncat0147 pw.x -in pw.inp   Done                     12/31/2018 09:42:27
00050 suncat0147 pw.x -in pw.inp   Done                     12/31/2018 09:42:27
00051 suncat0147 pw.x -in pw.inp   Done                     12/31/2018 09:42:27
00052 suncat0147 pw.x -in pw.inp   Done                     12/31/2018 09:42:27
00053 suncat0147 pw.x -in pw.inp   Done                     12/31/2018 09:42:27
00054 suncat0147 pw.x -in pw.inp   Done                     12/31/2018 09:42:27
00055 suncat0147 pw.x -in pw.inp   Done                     12/31/2018 09:42:27
00056 suncat0138 pw.x -in pw.inp   Done                     12/31/2018 09:42:27
00057 suncat0138 pw.x -in pw.inp   Done                     12/31/2018 09:42:27
00058 suncat0138 pw.x -in pw.inp   Done                     12/31/2018 09:42:27
00059 suncat0138 pw.x -in pw.inp   Done                     12/31/2018 09:42:27
00060 suncat0138 pw.x -in pw.inp   Done                     12/31/2018 09:42:27
00061 suncat0138 pw.x -in pw.inp   Done                     12/31/2018 09:42:27
00062 suncat0138 pw.x -in pw.inp   Done                     12/31/2018 09:42:27
00063 suncat0138 pw.x -in pw.inp   Done                     12/31/2018 09:42:27