     Program PWSCF v.5.1rc2 (svn rev. 11289) starts on 30Dec2018 at  3:33: 6

     Current dimensions of program PWSCF are:
     Max number of different atomic species (ntypx) = 10
     Max number of k-points (npk) =  40000
     Max angular momentum in pseudopotentials (lmaxx) =  3
     Presently stress not available with electric field

     IMPORTANT: XC functional enforced from input :
     Exchange-correlation      = BEEF-VDW ( 1  4 27 13 2)
     Any further DFT definition will be discarded
     Please, verify this is what you really want

     Subspace diagonalization in iterative solution of the eigenvalue problem:
     a serial algorithm will be used

     bravais-lattice index     =            0
     lattice parameter (alat)  =       1.8897  a.u.
     unit-cell volume          =    4135.1867 (a.u.)^3
     number of atoms/cell      =           12
     number of atomic types    =            2
     number of electrons       =       228.00
     number of Kohn-Sham states=          144
     kinetic-energy cutoff     =      36.7493  Ry
     charge density cutoff     =     367.4932  Ry
     convergence threshold     =      1.0E-06
     mixing beta               =       0.1000
     number of iterations used =           10  plain     mixing
     Exchange-correlation      = BEEF-VDW ( 1  4 27 13 2)
     nstep                     =           50

     celldm(1)=   1.889726  celldm(2)=   0.000000  celldm(3)=   0.000000
     celldm(4)=   0.000000  celldm(5)=   0.000000  celldm(6)=   0.000000

     crystal axes: (cart. coord. in units of alat)
               a(1) = (   5.385358   0.000000   0.000000 )
               a(2) = (  -2.692679   4.663857   0.000000 )
               a(3) = (   0.000000   0.000000  24.397127 )

     reciprocal axes: (cart. coord. in units 2 pi/alat)
               b(1) = (  0.185689  0.107207  0.000000 )
               b(2) = (  0.000000  0.214415  0.000000 )
               b(3) = (  0.000000  0.000000  0.040988 )

     PseudoPot. # 1 for Cu read from file:
     /afs/slac.stanford.edu/u/if/mamunm/psp/gbrv1.5pbe/Cu.UPF
     MD5 check sum: 6e991ff952a84172a2a52a1c1e996048
     Pseudo is Ultrasoft + core correction, Zval = 19.0
     Generated by new atomic code, or converted to UPF format
     Using radial grid of  867 points,  6 beta functions with:
                l(1) =   0
                l(2) =   0
                l(3) =   1
                l(4) =   1
                l(5) =   2
                l(6) =   2
     Q(r) pseudized with  8 coefficients,  rinner =    1.150   1.150   1.150
                                                       1.150   1.150

     PseudoPot. # 2 for Ag read from file:
     /afs/slac.stanford.edu/u/if/mamunm/psp/gbrv1.5pbe/Ag.UPF
     MD5 check sum: d66d668201baa78d5eb5b04ef7011058
     Pseudo is Ultrasoft + core correction, Zval = 19.0
     Generated by new atomic code, or converted to UPF format
     Using radial grid of  887 points,  6 beta functions with:
                l(1) =   0
                l(2) =   0
                l(3) =   1
                l(4) =   1
                l(5) =   2
                l(6) =   2
     Q(r) pseudized with  6 coefficients,  rinner =    1.300   1.300   1.300
                                                       1.300   1.300

     vdW kernel table read from file vdW_kernel_table
     MD5 check sum: 095c7af220d748ca6e76c0b4c6cfb241

     atomic species   valence    mass     pseudopotential
        Cu1           19.00    63.54600     Cu( 1.00)
        Ag1           19.00   107.86820     Ag( 1.00)

     No symmetry found

   Cartesian axes

     site n.     atom                  positions (alat units)
         1           Cu1 tau(   1) = (   0.0000000   0.0000000  10.0000000  )
         2           Cu1 tau(   2) = (  -1.3463396   2.3319286  10.0000000  )
         3           Cu1 tau(   3) = (   1.3463396   2.3319286  10.0000000  )
         4           Ag1 tau(   4) = (   2.6926792   0.0000000  10.0000000  )
         5           Cu1 tau(   5) = (   2.6926792   1.5546190  12.1985633  )
         6           Cu1 tau(   6) = (   1.3463396   3.8865476  12.1985633  )
         7           Cu1 tau(   7) = (  -1.3463396   3.8865476  12.1985633  )
         8           Ag1 tau(   8) = (   0.0000000   1.5546190  12.1985633  )
         9           Cu1 tau(   9) = (  -0.0000000   3.1092381  14.3971267  )
        10           Cu1 tau(  10) = (   1.3463396   0.7773095  14.3971267  )
        11           Cu1 tau(  11) = (   4.0390188   0.7773095  14.3971267  )
        12           Ag1 tau(  12) = (   2.6926792   3.1092381  14.3971267  )

     number of k points=    20  Fermi-Dirac smearing, width (Ry)=  0.0110
                       cart. coord. in units 2pi/alat
        k(    1) = (   0.0000000   0.0000000   0.0000000), wk =   0.0555556
        k(    2) = (   0.0000000   0.0357358   0.0000000), wk =   0.1111111
        k(    3) = (   0.0000000   0.0714716   0.0000000), wk =   0.1111111
        k(    4) = (   0.0000000  -0.1072074   0.0000000), wk =   0.0555556
        k(    5) = (   0.0309481   0.0178679   0.0000000), wk =   0.1111111
        k(    6) = (   0.0309481   0.0536037   0.0000000), wk =   0.1111111
        k(    7) = (   0.0309481   0.0893395   0.0000000), wk =   0.1111111
        k(    8) = (   0.0309481  -0.0893395   0.0000000), wk =   0.1111111
        k(    9) = (   0.0309481  -0.0536037   0.0000000), wk =   0.1111111
        k(   10) = (   0.0309481  -0.0178679   0.0000000), wk =   0.1111111
        k(   11) = (   0.0618962   0.0357358   0.0000000), wk =   0.1111111
        k(   12) = (   0.0618962   0.0714716   0.0000000), wk =   0.1111111
        k(   13) = (   0.0618962   0.1072074   0.0000000), wk =   0.1111111
        k(   14) = (   0.0618962  -0.0714716   0.0000000), wk =   0.1111111
        k(   15) = (   0.0618962  -0.0357358   0.0000000), wk =   0.1111111
        k(   16) = (   0.0618962   0.0000000   0.0000000), wk =   0.1111111
        k(   17) = (  -0.0928443  -0.0536037   0.0000000), wk =   0.0555556
        k(   18) = (  -0.0928443  -0.0178679   0.0000000), wk =   0.1111111
        k(   19) = (  -0.0928443   0.0178679   0.0000000), wk =   0.1111111
        k(   20) = (  -0.0928443  -0.1608111   0.0000000), wk =   0.0555556

     Largest allocated arrays     est. size (Mb)     dimensions
     Largest temporary arrays     est. size (Mb)     dimensions

     Initial potential from superposition of free atoms
     Check: negative starting charge=   -0.001137

     starting charge  217.49984, renormalised to  228.00000

     negative rho (up, down):  1.192E-03 0.000E+00

     *
     * You are using vdW-DF for exchange-correlation in this calculation.
     * Please cite the following three references that made this development
     * possible:
     *
     *   M. Dion, H. Rydberg, E. Schroder, D. C. Langreth, and
     *   B. I. Lundqvist, Phys. Rev. Lett. 92, 246401 (2004).
     *
     *   T. Thonhauser, V. R. Cooper, S. Li, A. Puzder, P. Hyldgaard, and
     *   D. C. Langreth, Phys. Rev. B 76, 125112 (2007).
     *
     *   G. Roman-Perez and J. M. Soler, Phys. Rev. Lett. 103, 096102 (2009).
     *
     *
     * If you are using vdW-DF2, please also cite:
     *
     *   K. Lee, E. D. Murray, L. Kong, B. I. Lundqvist, and
     *   D. C. Langreth, Phys. Rev. B 82, 081101(R) (2010).
     *
     *
     * If you are calculating the stress with vdW-DF, please also cite:
     *
     *   R. Sabatini, E. Kucukbenli, B. Kolb, T. Thonhauser, and
     *   S. de Gironcoli, J. Phys.: Condens. Matter 24, 424209 (2012).
     *

     Carrying out vdW-DF run using the following parameters:

     Nqs =      20    Nr_points =    1024   r_max =   100.000
     q_mesh =
               0.00001000     0.04494208     0.09755937     0.15916263
               0.23128650     0.31572767     0.41458969     0.53033537
               0.66584808     0.82450364     1.01025438     1.22772762
               1.48234092     1.78043706     2.12944203     2.53805004
               3.01644009     3.57652955     4.23227104     5.00000000

     Gradients computed in reciprocal space

     Adding external electric field

     Computed dipole along edir(3) :
        Dipole                0.0000 Ry au,          0.0000 Debye
        Dipole field          0.0000 Ry au

        Potential amp.       -0.0000 Ry
        Total length         44.9513 bohr

     Starting wfc are  156 randomized atomic wfcs

     Self-consistent Calculation

     iteration #  1     ecut=    36.75 Ry     beta=0.10
     Davidson diagonalization with overlap
     ethr =  1.00E-02,  avg # of iterations =  7.0

[...]

     total energy              =   -4529.76417893 Ry
     Harris-Foulkes estimate   =   -4543.43115446 Ry
     estimated scf accuracy    <      78.12515742 Ry

[...]

     End of self-consistent calculation

          k = 0.0000 0.0000 0.0000 ( 15533 PWs)   bands (ev):

  -111.7923-111.7891-111.7891-111.5306-111.5304-111.5274-111.5274-111.5273
  -111.5273 -91.8707 -91.5714 -91.5713 -69.2136 -69.2119 -69.2119 -69.1942
   -69.1917 -69.1896 -69.1896 -69.1735 -69.1735 -68.9650 -68.9649 -68.9618
   -68.9618 -68.9614 -68.9614 -68.9441 -68.9440 -68.9269 -68.9269 -68.9268
   -68.9268 -68.9070 -68.9063 -68.9033 -68.9033 -68.9029 -68.9029 -55.3635
   -55.3635 -55.3465 -55.0722 -55.0722 -55.0720 -55.0720 -55.0266 -55.0262
    -7.1625  -5.5238  -5.1585  -5.1092  -5.1092  -4.9797  -4.9797  -4.5718
    -4.5718  -4.4706  -4.4706  -4.4278  -4.0464  -4.0464  -3.8745  -3.8745
    -3.7570  -3.4974  -3.2784  -2.8450  -2.6732  -2.4344  -2.3979  -2.3979
    -2.3536  -2.2482  -2.2482  -2.1005  -2.1005  -2.0757  -2.0757  -1.9358
    -1.8928  -1.7789  -1.7789  -1.7698  -1.7698  -1.6451  -1.6451  -1.5662
    -1.4987  -1.4987  -1.3625  -1.3536  -1.2394  -1.2394  -1.2141  -1.2141
    -1.1629  -1.1629  -1.0766  -1.0748  -1.0748  -1.0488  -1.0488  -0.9962
    -0.9451  -0.9451  -0.8988  -0.8988  -0.7785  -0.7693  -0.7514   0.7679
     0.8527   0.9031   0.9031   1.8364   1.8364   1.8668   2.2614   2.2614
     2.2840   4.3520   4.6581   4.6581   4.7876   5.0552   5.2254   5.6621
     5.6621   6.0470   6.2306   6.4484   6.4484   6.6659   6.8968   8.4099
     8.4199   9.0761   9.0761   9.2852   9.4149   9.4149   9.4781  10.7863

[...]

          k =-0.0928-0.0536 0.0000 ( 15568 PWs)   bands (ev):

[...]

     the Fermi energy is     0.5989 ev

!    total energy              =   -4534.28619473 Ry
     Harris-Foulkes estimate   =   -4534.28618568 Ry
     estimated scf accuracy    <       0.00000051 Ry

     The total energy is the sum of the following terms:

     one-electron contribution =  -33695.93147774 Ry
     hartree contribution      =   16856.80597123 Ry
     xc contribution           =    -450.32319747 Ry
     ewald contribution        =   12755.19046481 Ry
     electric field correction =       0.00000000 Ry
     smearing contrib. (-TS)   =      -0.02795556 Ry

     convergence has been achieved in  17 iterations

 BEEF-vdW xc energy contributions
           1 :   -397.454004571116
           2 :    360.329199820078
           3 :   -297.591743833599
           4 :    226.819942911606
           5 :   -164.036588094303
           6 :    117.906437563481
           7 :   -88.3302232741473
[...]
                l(1) =   0
                l(2) =   0
                l(3) =   1
                l(4) =   1
                l(5) =   2
                l(6) =   2
     Q(r) pseudized with  8 coefficients,  rinner =    1.150   1.150   1.150
                                                       1.150   1.150

     PseudoPot. # 2 for Ag read from file:
     /afs/slac.stanford.edu/u/if/mamunm/psp/gbrv1.5pbe/Ag.UPF
     MD5 check sum: d66d668201baa78d5eb5b04ef7011058
     Pseudo is Ultrasoft + core correction, Zval = 19.0
     Generated by new atomic code, or converted to UPF format
     Using radial grid of  887 points,  6 beta functions with:
                l(1) =   0
                l(2) =   0
                l(3) =   1
                l(4) =   1
                l(5) =   2
                l(6) =   2
     Q(r) pseudized with  6 coefficients,  rinner =    1.300   1.300   1.300
                                                       1.300   1.300

     vdW kernel table read from file vdW_kernel_table
     MD5 check sum: 095c7af220d748ca6e76c0b4c6cfb241

     atomic species   valence    mass     pseudopotential
        Cu1           19.00    63.54600     Cu( 1.00)
        Ag1           19.00   107.86820     Ag( 1.00)

     No symmetry found

   Cartesian axes

     site n.     atom                  positions (alat units)
         1           Cu1 tau(   1) = (   0.0000000   0.0000000  10.0000000  )
         2           Cu1 tau(   2) = (  -1.3463396   2.3319286  10.0000000  )
         3           Cu1 tau(   3) = (   1.3463396   2.3319286  10.0000000  )
         4           Ag1 tau(   4) = (   2.6926792   0.0000000  10.0000000  )
         5           Cu1 tau(   5) = (   2.6926792   1.5546190  12.1985633  )
         6           Cu1 tau(   6) = (   1.3463396   3.8865476  12.1985633  )
         7           Cu1 tau(   7) = (  -1.3463396   3.8865476  12.1985633  )
         8           Ag1 tau(   8) = (   0.0000000   1.5546190  12.1985633  )
         9           Cu1 tau(   9) = (   0.0000047   3.1644024  14.3464554  )
        10           Cu1 tau(  10) = (   1.3941025   0.7497328  14.3464538  )
        11           Cu1 tau(  11) = (   3.9912514   0.7497369  14.3464345  )
        12           Ag1 tau(  12) = (   2.6926799   3.1092370  14.5079342  )

     number of k points=    20  Fermi-Dirac smearing, width (Ry)=  0.0110
                       cart. coord. in units 2pi/alat
        k(    1) = (   0.0000000   0.0000000   0.0000000), wk =   0.0555556
        k(    2) = (   0.0000000   0.0357358   0.0000000), wk =   0.1111111
        k(    3) = (   0.0000000   0.0714716   0.0000000), wk =   0.1111111
        k(    4) = (   0.0000000  -0.1072074   0.0000000), wk =   0.0555556
        k(    5) = (   0.0309481   0.0178679   0.0000000), wk =   0.1111111
        k(    6) = (   0.0309481   0.0536037   0.0000000), wk =   0.1111111
        k(    7) = (   0.0309481   0.0893395   0.0000000), wk =   0.1111111
        k(    8) = (   0.0309481  -0.0893395   0.0000000), wk =   0.1111111
        k(    9) = (   0.0309481  -0.0536037   0.0000000), wk =   0.1111111
        k(   10) = (   0.0309481  -0.0178679   0.0000000), wk =   0.1111111
        k(   11) = (   0.0618962   0.0357358   0.0000000), wk =   0.1111111
        k(   12) = (   0.0618962   0.0714716   0.0000000), wk =   0.1111111
        k(   13) = (   0.0618962   0.1072074   0.0000000), wk =   0.1111111
        k(   14) = (   0.0618962  -0.0714716   0.0000000), wk =   0.1111111
        k(   15) = (   0.0618962  -0.0357358   0.0000000), wk =   0.1111111
        k(   16) = (   0.0618962   0.0000000   0.0000000), wk =   0.1111111
        k(   17) = (  -0.0928443  -0.0536037   0.0000000), wk =   0.0555556
        k(   18) = (  -0.0928443  -0.0178679   0.0000000), wk =   0.1111111
        k(   19) = (  -0.0928443   0.0178679   0.0000000), wk =   0.1111111
        k(   20) = (  -0.0928443  -0.1608111   0.0000000), wk =   0.0555556

     Largest allocated arrays     est. size (Mb)     dimensions
     Largest temporary arrays     est. size (Mb)     dimensions

     Initial potential from superposition of free atoms
     Check: negative starting charge=   -0.001166

     starting charge  217.49984, renormalised to  228.00000

[...]

     *
     * You are using vdW-DF for exchange-correlation in this calculation.
     * Please cite the following three references that made this development
     * possible:
     *
     *   M. Dion, H. Rydberg, E. Schroder, D. C. Langreth, and
     *   B. I. Lundqvist, Phys. Rev. Lett. 92, 246401 (2004).
     *
     *   T. Thonhauser, V. R. Cooper, S. Li, A. Puzder, P. Hyldgaard, and
     *   D. C. Langreth, Phys. Rev. B 76, 125112 (2007).
     *
     *   G. Roman-Perez and J. M. Soler, Phys. Rev. Lett. 103, 096102 (2009).
     *
     *
     * If you are using vdW-DF2, please also cite:
     *
     *   K. Lee, E. D. Murray, L. Kong, B. I. Lundqvist, and
     *   D. C. Langreth, Phys. Rev. B 82, 081101(R) (2010).
     *
     *
     * If you are calculating the stress with vdW-DF, please also cite:
     *
     *   R. Sabatini, E. Kucukbenli, B. Kolb, T. Thonhauser, and
     *   S. de Gironcoli, J. Phys.: Condens. Matter 24, 424209 (2012).
     *

     Carrying out vdW-DF run using the following parameters:

     Nqs =      20    Nr_points =    1024   r_max =   100.000
     q_mesh =
               0.00001000     0.04494208     0.09755937     0.15916263
               0.23128650     0.31572767     0.41458969     0.53033537
               0.66584808     0.82450364     1.01025438     1.22772762
               1.48234092     1.78043706     2.12944203     2.53805004
               3.01644009     3.57652955     4.23227104     5.00000000

     Gradients computed in reciprocal space

[...]

     Starting wfc are  156 randomized atomic wfcs

     Self-consistent Calculation

[...]

     total energy              =   -4534.29017494 Ry
     Harris-Foulkes estimate   =   -4534.29017328 Ry
     estimated scf accuracy    <       0.00000221 Ry

     iteration # 18     ecut=    36.75 Ry     beta=0.10
     Davidson diagonalization with overlap
     ethr =  9.71E-10,  avg # of iterations =  2.0

[...]

     negative rho (up, down):  1.428E-03 0.000E+00

     Adding external electric field

     Computed dipole along edir(3) :
        Dipole                0.0072 Ry au,          0.0182 Debye
        Dipole field          0.0000 Ry au

        Potential amp.       -0.0020 Ry
        Total length         44.9513 bohr

     End of self-consistent calculation

[...]

          k = 0.0619 0.0000 0.0000 ( 15532 PWs)   bands (ev):

[...]

          k =-0.0928-0.1608 0.0000 ( 15568 PWs)   bands (ev):

  -111.7912-111.7902-111.7891-111.5650-111.5629-111.5621-111.5283-111.5272
  -111.5262 -91.8784 -91.5607 -91.4708 -69.2119 -69.2043 -69.2009 -69.1964
   -69.1920 -69.1911 -69.1895 -69.1872 -69.1743 -68.9959 -68.9884 -68.9875
   -68.9799 -68.9698 -68.9606 -68.9601 -68.9517 -68.9488 -68.9479 -68.9435
   -68.9415 -68.9405 -68.9405 -68.9272 -68.9048 -68.9036 -68.9024 -55.3706
   -55.3704 -55.3548 -55.0628 -55.0625 -55.0147 -54.9778 -54.9775 -54.9170
    -5.6794  -5.5396  -4.9816  -4.8050  -4.7702  -4.5941  -4.5146  -4.4434
    -4.3484  -4.3039  -4.1114  -4.0962  -4.0430  -3.9618  -3.8613  -3.7051
    -3.6917  -3.5688  -3.0643  -2.9880  -2.9332  -2.7487  -2.7330  -2.5015
    -2.4687  -2.4188  -2.2803  -2.2796  -2.2465  -2.2080  -2.1364  -2.1290
    -2.0237  -1.9642  -1.9400  -1.9141  -1.8730  -1.8489  -1.8314  -1.8210
    -1.7874  -1.7076  -1.6695  -1.6554  -1.5831  -1.5827  -1.5468  -1.5097
    -1.5029  -1.4570  -1.4161  -1.4071  -1.3794  -1.3198  -1.2996  -1.2319
    -1.2123  -1.1996  -1.1133  -1.0957  -1.0849  -1.0342  -0.9950  -0.9163
     0.4750   0.6307   0.8386   0.9537   1.6862   1.8458   3.4281   3.4938
     4.0040   4.1920   5.8878   5.9377   6.5633   6.5868   6.8755   6.8853
     6.9293   6.9296   7.0176   7.4246   7.4668   7.4784   7.8763   7.9012
     8.2107   8.2885   8.8122   8.8183   9.1110   9.1615   9.2831   9.7068

     the Fermi energy is     0.5990 ev

!    total energy              =   -4534.29018395 Ry
     Harris-Foulkes estimate   =   -4534.29017522 Ry
     estimated scf accuracy    <       0.00000060 Ry

     The total energy is the sum of the following terms:

     one-electron contribution =  -33740.60579488 Ry
     hartree contribution      =   16879.15892798 Ry
     xc contribution           =    -450.32553347 Ry
     ewald contribution        =   12777.51024238 Ry
     electric field correction =       0.00000016 Ry
     smearing contrib. (-TS)   =      -0.02802612 Ry

     convergence has been achieved in  18 iterations

 BEEF-vdW xc energy contributions
           1 :   -397.456510555685
           2 :    360.333676455174
           3 :   -297.598020794732
           4 :    226.825138453039
           5 :   -164.037671388860
           6 :    117.904359019200
           7 :   -88.3310187450230
           8 :    69.3890986027914
           9 :   -54.2729435489874
          10 :    39.2495222629321
          11 :   -24.6728295992926
          12 :    13.1785690869418
          13 :   -6.83788277750904
          14 :    5.33488423512773
          15 :   -6.19066216214071
          16 :    6.52256804639563
          17 :   -4.88597648312498
          18 :    1.90714616939721
          19 :   0.571279111145031
          20 :   -1.05793890332410
          21 :  -0.479951714532717
          22 :    2.68529408284132
          23 :   -3.87899144578785
          24 :    3.27028261398539
          25 :   -1.44079760081058
          26 :  -0.177988866803787
          27 :   0.383932334308611
          28 :   0.958086647351138
          29 :   -2.88943221774934
          30 :    4.10283432419459
          31 :   -33.1367017818113
          32 :   -22.9774922205339

     Forces acting on atoms (Ry/au):

     negative rho (up, down):  1.428E-03 0.000E+00
     atom    1 type  1   force =    -0.00000076   -0.00795560    0.00575461
     atom    2 type  1   force =    -0.00689206    0.00397714    0.00575380
     atom    3 type  1   force =     0.00689204    0.00397784    0.00575350
     atom    4 type  2   force =     0.00000016   -0.00000008   -0.01546854
     atom    5 type  1   force =    -0.00000098    0.00484748    0.00141471
     atom    6 type  1   force =     0.00419851   -0.00242337    0.00141802
     atom    7 type  1   force =    -0.00419756   -0.00242321    0.00141527
     atom    8 type  2   force =     0.00000120    0.00000068   -0.00175238
     atom    9 type  1   force =    -0.00000110   -0.00110735   -0.00155207
     atom   10 type  1   force =    -0.00095668    0.00055331   -0.00155444
     atom   11 type  1   force =     0.00095694    0.00055269   -0.00154949
     atom   12 type  2   force =     0.00000027    0.00000047    0.00036701

     Total force =     0.024882     Total SCF correction =     0.005980
     SCF correction compared to forces is large: reduce conv_thr to get better values

     entering subroutine stress ...

     negative rho (up, down):  1.428E-03 0.000E+00
          total   stress  (Ry/bohr**3)                   (kbar)     P=  -12.20
  -0.00009718   0.00000000  -0.00000000        -14.30      0.00     -0.00
   0.00000000  -0.00009718  -0.00000000          0.00    -14.30     -0.00
  -0.00000000  -0.00000000  -0.00005445         -0.00     -0.00     -8.01

 !ASE

     Writing output data file calc.save

     General routines

     Parallel routines

   This run was terminated on:   4:52:52  30Dec2018

   JOB DONE.
Job  /afs/slac/g/suncat/bin/suncat-tsmpirun -x LD_LIBRARY_PATH -wdir /scratch/qe648411_UHQmz pw.x -in pw.inp

TID   HOST_NAME   COMMAND_LINE            STATUS            TERMINATION_TIME
00000 suncat0020 pw.x -in pw.inp   Done                     12/30/2018 04:52:52
00001 suncat0020 pw.x -in pw.inp   Done                     12/30/2018 04:52:52
00002 suncat0020 pw.x -in pw.inp   Done                     12/30/2018 04:52:52
00003 suncat0020 pw.x -in pw.inp   Done                     12/30/2018 04:52:52
00004 suncat0020 pw.x -in pw.inp   Done                     12/30/2018 04:52:52
00005 suncat0020 pw.x -in pw.inp   Done                     12/30/2018 04:52:52
00006 suncat0020 pw.x -in pw.inp   Done                     12/30/2018 04:52:52
00007 suncat0020 pw.x -in pw.inp   Done                     12/30/2018 04:52:52
00008 suncat0014 pw.x -in pw.inp   Done                     12/30/2018 04:52:52
00009 suncat0014 pw.x -in pw.inp   Done                     12/30/2018 04:52:52
00010 suncat0014 pw.x -in pw.inp   Done                     12/30/2018 04:52:52
00011 suncat0014 pw.x -in pw.inp   Done                     12/30/2018 04:52:52
00012 suncat0014 pw.x -in pw.inp   Done                     12/30/2018 04:52:52
00013 suncat0014 pw.x -in pw.inp   Done                     12/30/2018 04:52:52
00014 suncat0014 pw.x -in pw.inp   Done                     12/30/2018 04:52:52
00015 suncat0014 pw.x -in pw.inp   Done                     12/30/2018 04:52:52
00016 suncat0199 pw.x -in pw.inp   Done                     12/30/2018 04:52:52
00017 suncat0199 pw.x -in pw.inp   Done                     12/30/2018 04:52:52
00018 suncat0199 pw.x -in pw.inp   Done                     12/30/2018 04:52:52
00019 suncat0199 pw.x -in pw.inp   Done                     12/30/2018 04:52:52
00020 suncat0199 pw.x -in pw.inp   Done                     12/30/2018 04:52:52
00021 suncat0199 pw.x -in pw.inp   Done                     12/30/2018 04:52:52
00022 suncat0199 pw.x -in pw.inp   Done                     12/30/2018 04:52:52
00023 suncat0199 pw.x -in pw.inp   Done                     12/30/2018 04:52:52
00024 suncat0006 pw.x -in pw.inp   Done                     12/30/2018 04:52:52
00025 suncat0006 pw.x -in pw.inp   Done                     12/30/2018 04:52:52
00026 suncat0006 pw.x -in pw.inp   Done                     12/30/2018 04:52:52
00027 suncat0006 pw.x -in pw.inp   Done                     12/30/2018 04:52:52
00028 suncat0006 pw.x -in pw.inp   Done                     12/30/2018 04:52:52
00029 suncat0006 pw.x -in pw.inp   Done                     12/30/2018 04:52:52
00030 suncat0006 pw.x -in pw.inp   Done                     12/30/2018 04:52:52
00031 suncat0006 pw.x -in pw.inp   Done                     12/30/2018 04:52:52
00032 suncat0005 pw.x -in pw.inp   Done                     12/30/2018 04:52:52
00033 suncat0005 pw.x -in pw.inp   Done                     12/30/2018 04:52:52
00034 suncat0005 pw.x -in pw.inp   Done                     12/30/2018 04:52:52
00035 suncat0005 pw.x -in pw.inp   Done                     12/30/2018 04:52:52
00036 suncat0005 pw.x -in pw.inp   Done                     12/30/2018 04:52:52
00037 suncat0005 pw.x -in pw.inp   Done                     12/30/2018 04:52:52
00038 suncat0005 pw.x -in pw.inp   Done                     12/30/2018 04:52:52
00039 suncat0005 pw.x -in pw.inp   Done                     12/30/2018 04:52:52
00040 suncat0004 pw.x -in pw.inp   Done                     12/30/2018 04:52:52
00041 suncat0004 pw.x -in pw.inp   Done                     12/30/2018 04:52:52
00042 suncat0004 pw.x -in pw.inp   Done                     12/30/2018 04:52:52
00043 suncat0004 pw.x -in pw.inp   Done                     12/30/2018 04:52:52
00044 suncat0004 pw.x -in pw.inp   Done                     12/30/2018 04:52:52
00045 suncat0004 pw.x -in pw.inp   Done                     12/30/2018 04:52:52
00046 suncat0004 pw.x -in pw.inp   Done                     12/30/2018 04:52:52
00047 suncat0004 pw.x -in pw.inp   Done                     12/30/2018 04:52:52
00048 suncat0187 pw.x -in pw.inp   Done                     12/30/2018 04:52:52
00049 suncat0187 pw.x -in pw.inp   Done                     12/30/2018 04:52:52
00050 suncat0187 pw.x -in pw.inp   Done                     12/30/2018 04:52:52
00051 suncat0187 pw.x -in pw.inp   Done                     12/30/2018 04:52:52
00052 suncat0187 pw.x -in pw.inp   Done                     12/30/2018 04:52:52
00053 suncat0187 pw.x -in pw.inp   Done                     12/30/2018 04:52:52
00054 suncat0187 pw.x -in pw.inp   Done                     12/30/2018 04:52:52
00055 suncat0187 pw.x -in pw.inp   Done                     12/30/2018 04:52:52
00056 suncat0186 pw.x -in pw.inp   Done                     12/30/2018 04:52:52
00057 suncat0186 pw.x -in pw.inp   Done                     12/30/2018 04:52:52
00058 suncat0186 pw.x -in pw.inp   Done                     12/30/2018 04:52:52
00059 suncat0186 pw.x -in pw.inp   Done                     12/30/2018 04:52:52
00060 suncat0186 pw.x -in pw.inp   Done                     12/30/2018 04:52:52
00061 suncat0186 pw.x -in pw.inp   Done                     12/30/2018 04:52:52
00062 suncat0186 pw.x -in pw.inp   Done                     12/30/2018 04:52:52
00063 suncat0186 pw.x -in pw.inp   Done                     12/30/2018 04:52:52