     Program PWSCF v.5.1rc2 (svn rev. 11289) starts on  2Jan2019 at 20:54: 8

     Current dimensions of program PWSCF are:
     Max number of different atomic species (ntypx) = 10
     Max number of k-points (npk) =  40000
     Max angular momentum in pseudopotentials (lmaxx) =  3
     Presently stress not available with electric field

     IMPORTANT: XC functional enforced from input :
     Exchange-correlation      = BEEF-VDW ( 1  4 27 13 2)
     Any further DFT definition will be discarded
     Please, verify this is what you really want

     Subspace diagonalization in iterative solution of the eigenvalue problem:
     a serial algorithm will be used

     bravais-lattice index     =            0
     lattice parameter (alat)  =       1.8897  a.u.
     unit-cell volume          =    5591.9750 (a.u.)^3
     number of atoms/cell      =           12
     number of atomic types    =            2
     number of electrons       =       156.00
     number of Kohn-Sham states=          108
     kinetic-energy cutoff     =      36.7493  Ry
     charge density cutoff     =     367.4932  Ry
     convergence threshold     =      1.0E-06
     mixing beta               =       0.1000
     number of iterations used =           10  plain     mixing
     Exchange-correlation      = BEEF-VDW ( 1  4 27 13 2)
     nstep                     =           50

     celldm(1)=   1.889726  celldm(2)=   0.000000  celldm(3)=   0.000000
     celldm(4)=   0.000000  celldm(5)=   0.000000  celldm(6)=   0.000000

     crystal axes: (cart. coord. in units of alat)
               a(1) = (   6.180799   0.000000   0.000000 )
               a(2) = (  -3.090399   5.352729   0.000000 )
               a(3) = (   0.000000   0.000000  25.046601 )

     reciprocal axes: (cart. coord. in units 2 pi/alat)
               b(1) = (  0.161791  0.093410  0.000000 )
               b(2) = (  0.000000  0.186821  0.000000 )
               b(3) = (  0.000000  0.000000  0.039926 )

     PseudoPot. # 1 for Zr read from file:
     /afs/slac.stanford.edu/u/if/mamunm/psp/gbrv1.5pbe/Zr.UPF
     MD5 check sum: 5db81b1e868ab7776c4564c113de050b
     Pseudo is Ultrasoft + core correction, Zval = 12.0
     Generated by new atomic code, or converted to UPF format
     Using radial grid of  887 points,  6 beta functions with:
                l(1) =   0
                l(2) =   0
                l(3) =   1
                l(4) =   1
                l(5) =   2
                l(6) =   2
     Q(r) pseudized with  6 coefficients,  rinner =    1.200   1.200   1.200
                                                       1.200   1.200

     PseudoPot. # 2 for Pd read from file:
     /afs/slac.stanford.edu/u/if/mamunm/psp/gbrv1.5pbe/Pd.UPF
     MD5 check sum: 2d733d2bc2cbfd217af676df1668a4bc
     Pseudo is Ultrasoft + core correction, Zval = 16.0
     Generated by new atomic code, or converted to UPF format
     Using radial grid of  887 points,  6 beta functions with:
                l(1) =   0
                l(2) =   0
                l(3) =   1
                l(4) =   1
                l(5) =   2
                l(6) =   2
     Q(r) pseudized with  8 coefficients,  rinner =    1.130   1.130   1.130
                                                       1.130   1.130

     vdW kernel table read from file vdW_kernel_table
     MD5 check sum: 095c7af220d748ca6e76c0b4c6cfb241

     atomic species   valence    mass     pseudopotential
        Zr1           12.00    91.22400     Zr( 1.00)
        Pd1           16.00   106.42000     Pd( 1.00)

     No symmetry found

   Cartesian axes

     site n.     atom                  positions (alat units)
         1           Zr1 tau(   1) = (   0.0000000   0.0000000  10.0000000  )
         2           Zr1 tau(   2) = (  -1.5451997   2.6763643  10.0000000  )
         3           Zr1 tau(   3) = (   1.5451997   2.6763643  10.0000000  )
         4           Pd1 tau(   4) = (   3.0903993   0.0000000  10.0000000  )
         5           Zr1 tau(   5) = (   3.0903993   1.7842429  12.5233005  )
         6           Zr1 tau(   6) = (   1.5451997   4.4606072  12.5233005  )
         7           Zr1 tau(   7) = (  -1.5451997   4.4606072  12.5233005  )
         8           Pd1 tau(   8) = (   0.0000000   1.7842429  12.5233005  )
         9           Zr1 tau(   9) = (  -0.0000000   3.5684858  15.0466010  )
        10           Zr1 tau(  10) = (   1.5451997   0.8921214  15.0466010  )
        11           Zr1 tau(  11) = (   4.6355990   0.8921214  15.0466010  )
        12           Pd1 tau(  12) = (   3.0903993   3.5684858  15.0466010  )

     number of k points=    20  Fermi-Dirac smearing, width (Ry)=  0.0110
                       cart. coord. in units 2pi/alat
        k(    1) = (   0.0000000   0.0000000   0.0000000), wk =   0.0555556
        k(    2) = (   0.0000000   0.0311368   0.0000000), wk =   0.1111111
        k(    3) = (   0.0000000   0.0622735   0.0000000), wk =   0.1111111
        k(    4) = (   0.0000000  -0.0934103   0.0000000), wk =   0.0555556
        k(    5) = (   0.0269652   0.0155684   0.0000000), wk =   0.1111111
        k(    6) = (   0.0269652   0.0467052   0.0000000), wk =   0.1111111
        k(    7) = (   0.0269652   0.0778419   0.0000000), wk =   0.1111111
        k(    8) = (   0.0269652  -0.0778419   0.0000000), wk =   0.1111111
        k(    9) = (   0.0269652  -0.0467052   0.0000000), wk =   0.1111111
        k(   10) = (   0.0269652  -0.0155684   0.0000000), wk =   0.1111111
        k(   11) = (   0.0539305   0.0311368   0.0000000), wk =   0.1111111
        k(   12) = (   0.0539305   0.0622735   0.0000000), wk =   0.1111111
        k(   13) = (   0.0539305   0.0934103   0.0000000), wk =   0.1111111
        k(   14) = (   0.0539305  -0.0622735   0.0000000), wk =   0.1111111
        k(   15) = (   0.0539305  -0.0311368   0.0000000), wk =   0.1111111
        k(   16) = (   0.0539305  -0.0000000   0.0000000), wk =   0.1111111
        k(   17) = (  -0.0808957  -0.0467052   0.0000000), wk =   0.0555556
        k(   18) = (  -0.0808957  -0.0155684   0.0000000), wk =   0.1111111
        k(   19) = (  -0.0808957   0.0155684   0.0000000), wk =   0.1111111
        k(   20) = (  -0.0808957  -0.1401155   0.0000000), wk =   0.0555556

     Largest allocated arrays     est. size (Mb)     dimensions
     Largest temporary arrays     est. size (Mb)     dimensions

     Initial potential from superposition of free atoms
     Check: negative starting charge=   -0.772988

     starting charge  154.48064, renormalised to  156.00000

     negative rho (up, down):  7.806E-01 0.000E+00

     *
     * You are using vdW-DF for exchange-correlation in this calculation.
     * Please cite the following three references that made this development
     * possible:
     *
     *   M. Dion, H. Rydberg, E. Schroder, D. C. Langreth, and
     *   B. I. Lundqvist, Phys. Rev. Lett. 92, 246401 (2004).
     *
     *   T. Thonhauser, V. R. Cooper, S. Li, A. Puzder, P. Hyldgaard, and
     *   D. C. Langreth, Phys. Rev. B 76, 125112 (2007).
     *
     *   G. Roman-Perez and J. M. Soler, Phys. Rev. Lett. 103, 096102 (2009).
     *
     *
     * If you are using vdW-DF2, please also cite:
     *
     *   K. Lee, E. D. Murray, L. Kong, B. I. Lundqvist, and
     *   D. C. Langreth, Phys. Rev. B 82, 081101(R) (2010).
     *
     *
     * If you are calculating the stress with vdW-DF, please also cite:
     *
     *   R. Sabatini, E. Kucukbenli, B. Kolb, T. Thonhauser, and
     *   S. de Gironcoli, J. Phys.: Condens. Matter 24, 424209 (2012).
     *

     Carrying out vdW-DF run using the following parameters:

     Nqs =      20    Nr_points =    1024   r_max =   100.000
     q_mesh =
               0.00001000     0.04494208     0.09755937     0.15916263
               0.23128650     0.31572767     0.41458969     0.53033537
               0.66584808     0.82450364     1.01025438     1.22772762
               1.48234092     1.78043706     2.12944203     2.53805004
               3.01644009     3.57652955     4.23227104     5.00000000

     Gradients computed in reciprocal space

     Adding external electric field

     Computed dipole along edir(3) :
        Dipole               -0.0000 Ry au,         -0.0000 Debye
        Dipole field         -0.0000 Ry au

        Potential amp.        0.0000 Ry
        Total length         46.1479 bohr

     Starting wfc are  153 randomized atomic wfcs

     Self-consistent Calculation

     iteration #  1     ecut=    36.75 Ry     beta=0.10
     Davidson diagonalization with overlap
     ethr =  1.00E-02,  avg # of iterations =  2.0

[...]

     total energy              =   -1495.61378926 Ry
     Harris-Foulkes estimate   =   -1498.39906217 Ry
     estimated scf accuracy    <      15.68341023 Ry

[...]

     End of self-consistent calculation

          k = 0.0000 0.0000 0.0000 ( 21043 PWs)   bands (ev):

   -48.8506 -48.8239 -48.8239 -48.4983 -48.4983 -48.4982 -48.4982 -48.4602
   -48.4595 -47.6168 -47.6096 -47.5104 -47.5104 -47.5087 -47.5087 -47.2558
   -47.1579 -47.1579 -25.9986 -25.9480 -25.8512 -25.7727 -25.7727 -25.7201
   -25.7201 -25.7057 -25.7057 -25.6946 -25.6729 -25.5827 -25.5827 -25.3262
   -25.3262 -25.3130 -25.2848 -25.0841 -25.0841 -25.0779 -25.0739 -25.0739
   -25.0529 -25.0529 -24.9492 -24.8024 -24.8024  -3.5771  -2.4408  -2.0822
    -2.0478  -2.0478  -1.8652  -1.8652  -1.6348  -1.5955  -1.5955  -1.5639
    -1.5639  -1.5152  -1.2790  -1.0046  -1.0046  -0.9578  -0.8798  -0.8798
    -0.4066   0.1195   0.4383   0.7984   1.0049   1.0049   1.2854   1.2854
     1.3850   1.3850   1.6570   1.7004   1.8789   1.8789   1.9109   1.9109
     2.2097   2.2097   2.5030   2.5357   2.5834   2.5834   2.9608   3.1135
     3.1135   3.3702   3.6872   3.6872   3.7760   4.3216   4.5867   4.5867
     4.8894   4.8894   4.9968   4.9968   5.1491   5.1872   5.1992   5.1992
     5.3995   5.3995   5.4849   5.6692

[...]

          k =-0.0809-0.0467 0.0000 ( 21040 PWs)   bands (ev):

[...]

     the Fermi energy is     1.7054 ev

!    total energy              =   -1497.15009458 Ry
     Harris-Foulkes estimate   =   -1497.15010289 Ry
     estimated scf accuracy    <       0.00000067 Ry

     The total energy is the sum of the following terms:

     one-electron contribution =  -10634.01634781 Ry
     hartree contribution      =    5323.27448330 Ry
     xc contribution           =    -262.97594431 Ry
     ewald contribution        =    4076.67345028 Ry
     electric field correction =       0.00000000 Ry
     smearing contrib. (-TS)   =      -0.10573604 Ry

     convergence has been achieved in  16 iterations

 BEEF-vdW xc energy contributions
           1 :   -226.679083214267
           2 :    206.057315823203
           3 :   -171.013805807408
           4 :    131.112545400656
           5 :   -95.3310350193047
           6 :    68.9777996487991
           7 :   -52.7078634705765
           8 :    43.6501564023465
           9 :   -37.6930494086851
          10 :    31.6530665943092
          11 :   -24.4056897004116
          12 :    16.7317285977507
          13 :   -10.2709127358551
          14 :    6.29877148720701
          15 :   -4.98797913237306
          16 :    5.44191601192585
[...]
               b(3) = (  0.000000  0.000000  0.039926 )

     PseudoPot. # 1 for Zr read from file:
     /afs/slac.stanford.edu/u/if/mamunm/psp/gbrv1.5pbe/Zr.UPF
     MD5 check sum: 5db81b1e868ab7776c4564c113de050b
     Pseudo is Ultrasoft + core correction, Zval = 12.0
     Generated by new atomic code, or converted to UPF format
     Using radial grid of  887 points,  6 beta functions with:
                l(1) =   0
                l(2) =   0
                l(3) =   1
                l(4) =   1
                l(5) =   2
                l(6) =   2
     Q(r) pseudized with  6 coefficients,  rinner =    1.200   1.200   1.200
                                                       1.200   1.200

     PseudoPot. # 2 for Pd read from file:
     /afs/slac.stanford.edu/u/if/mamunm/psp/gbrv1.5pbe/Pd.UPF
     MD5 check sum: 2d733d2bc2cbfd217af676df1668a4bc
     Pseudo is Ultrasoft + core correction, Zval = 16.0
     Generated by new atomic code, or converted to UPF format
     Using radial grid of  887 points,  6 beta functions with:
                l(1) =   0
                l(2) =   0
                l(3) =   1
                l(4) =   1
                l(5) =   2
                l(6) =   2
     Q(r) pseudized with  8 coefficients,  rinner =    1.130   1.130   1.130
                                                       1.130   1.130

     vdW kernel table read from file vdW_kernel_table
     MD5 check sum: 095c7af220d748ca6e76c0b4c6cfb241

     atomic species   valence    mass     pseudopotential
        Zr1           12.00    91.22400     Zr( 1.00)
        Pd1           16.00   106.42000     Pd( 1.00)

     No symmetry found

   Cartesian axes

     site n.     atom                  positions (alat units)
         1           Zr1 tau(   1) = (   0.0000000   0.0000000  10.0000000  )
         2           Zr1 tau(   2) = (  -1.5451997   2.6763643  10.0000000  )
         3           Zr1 tau(   3) = (   1.5451997   2.6763643  10.0000000  )
         4           Pd1 tau(   4) = (   3.0903993   0.0000000  10.0000000  )
         5           Zr1 tau(   5) = (   3.0903993   1.7842429  12.5233005  )
         6           Zr1 tau(   6) = (   1.5451997   4.4606072  12.5233005  )
         7           Zr1 tau(   7) = (  -1.5451997   4.4606072  12.5233005  )
         8           Pd1 tau(   8) = (   0.0000000   1.7842429  12.5233005  )
         9           Zr1 tau(   9) = (  -0.0000006   3.5242296  15.0241712  )
        10           Zr1 tau(  10) = (   1.5068754   0.9142503  15.0241679  )
        11           Zr1 tau(  11) = (   4.6739240   0.9142489  15.0241742  )
        12           Pd1 tau(  12) = (   3.0903983   3.5684891  14.8879146  )

     number of k points=    20  Fermi-Dirac smearing, width (Ry)=  0.0110
                       cart. coord. in units 2pi/alat
        k(    1) = (   0.0000000   0.0000000   0.0000000), wk =   0.0555556
        k(    2) = (   0.0000000   0.0311368   0.0000000), wk =   0.1111111
        k(    3) = (   0.0000000   0.0622735   0.0000000), wk =   0.1111111
        k(    4) = (   0.0000000  -0.0934103   0.0000000), wk =   0.0555556
        k(    5) = (   0.0269652   0.0155684   0.0000000), wk =   0.1111111
        k(    6) = (   0.0269652   0.0467052   0.0000000), wk =   0.1111111
        k(    7) = (   0.0269652   0.0778419   0.0000000), wk =   0.1111111
        k(    8) = (   0.0269652  -0.0778419   0.0000000), wk =   0.1111111
        k(    9) = (   0.0269652  -0.0467052   0.0000000), wk =   0.1111111
        k(   10) = (   0.0269652  -0.0155684   0.0000000), wk =   0.1111111
        k(   11) = (   0.0539305   0.0311368   0.0000000), wk =   0.1111111
        k(   12) = (   0.0539305   0.0622735   0.0000000), wk =   0.1111111
        k(   13) = (   0.0539305   0.0934103   0.0000000), wk =   0.1111111
        k(   14) = (   0.0539305  -0.0622735   0.0000000), wk =   0.1111111
        k(   15) = (   0.0539305  -0.0311368   0.0000000), wk =   0.1111111
        k(   16) = (   0.0539305  -0.0000000   0.0000000), wk =   0.1111111
        k(   17) = (  -0.0808957  -0.0467052   0.0000000), wk =   0.0555556
        k(   18) = (  -0.0808957  -0.0155684   0.0000000), wk =   0.1111111
        k(   19) = (  -0.0808957   0.0155684   0.0000000), wk =   0.1111111
        k(   20) = (  -0.0808957  -0.1401155   0.0000000), wk =   0.0555556

     Largest allocated arrays     est. size (Mb)     dimensions
     Largest temporary arrays     est. size (Mb)     dimensions

     Initial potential from superposition of free atoms
     Check: negative starting charge=   -0.771135

     starting charge  154.48064, renormalised to  156.00000

[...]

     *
     * You are using vdW-DF for exchange-correlation in this calculation.
     * Please cite the following three references that made this development
     * possible:
     *
     *   M. Dion, H. Rydberg, E. Schroder, D. C. Langreth, and
     *   B. I. Lundqvist, Phys. Rev. Lett. 92, 246401 (2004).
     *
     *   T. Thonhauser, V. R. Cooper, S. Li, A. Puzder, P. Hyldgaard, and
     *   D. C. Langreth, Phys. Rev. B 76, 125112 (2007).
     *
     *   G. Roman-Perez and J. M. Soler, Phys. Rev. Lett. 103, 096102 (2009).
     *
     *
     * If you are using vdW-DF2, please also cite:
     *
     *   K. Lee, E. D. Murray, L. Kong, B. I. Lundqvist, and
     *   D. C. Langreth, Phys. Rev. B 82, 081101(R) (2010).
     *
     *
     * If you are calculating the stress with vdW-DF, please also cite:
     *
     *   R. Sabatini, E. Kucukbenli, B. Kolb, T. Thonhauser, and
     *   S. de Gironcoli, J. Phys.: Condens. Matter 24, 424209 (2012).
     *

     Carrying out vdW-DF run using the following parameters:

     Nqs =      20    Nr_points =    1024   r_max =   100.000
     q_mesh =
               0.00001000     0.04494208     0.09755937     0.15916263
               0.23128650     0.31572767     0.41458969     0.53033537
               0.66584808     0.82450364     1.01025438     1.22772762
               1.48234092     1.78043706     2.12944203     2.53805004
               3.01644009     3.57652955     4.23227104     5.00000000

     Gradients computed in reciprocal space

[...]

     Starting wfc are  153 randomized atomic wfcs

     Self-consistent Calculation

[...]

     total energy              =   -1497.15696376 Ry
     Harris-Foulkes estimate   =   -1497.15696492 Ry
     estimated scf accuracy    <       0.00000218 Ry

     iteration # 17     ecut=    36.75 Ry     beta=0.10
     Davidson diagonalization with overlap
     ethr =  1.40E-09,  avg # of iterations =  2.0

[...]

     negative rho (up, down):  7.949E-01 0.000E+00

     Adding external electric field

     Computed dipole along edir(3) :
        Dipole                0.0292 Ry au,          0.0743 Debye
        Dipole field          0.0001 Ry au

        Potential amp.       -0.0061 Ry
        Total length         46.1479 bohr

     End of self-consistent calculation

[...]

          k = 0.0539-0.0000 0.0000 ( 21015 PWs)   bands (ev):

[...]

          k =-0.0809-0.1401 0.0000 ( 21040 PWs)   bands (ev):

   -48.8448 -48.8145 -48.8139 -48.5821 -48.5813 -48.5718 -48.4703 -48.4694
   -48.4327 -47.5418 -47.5339 -47.5091 -47.4916 -47.4735 -47.4589 -47.1880
   -47.1572 -47.1238 -25.8096 -25.7678 -25.7585 -25.6874 -25.6848 -25.6261
   -25.5987 -25.5816 -25.5512 -25.5299 -25.5130 -25.4902 -25.4543 -25.4425
   -25.4096 -25.4090 -25.3685 -25.1985 -25.1483 -25.1479 -25.1124 -25.0798
   -25.0303 -24.9927 -24.9851 -24.9828 -24.7973  -2.2698  -2.1158  -1.6806
    -1.6771  -1.5995  -1.5337  -1.3924  -1.3580  -1.3443  -1.2328  -1.1151
    -1.1108  -0.9767  -0.9689  -0.9139  -0.8241  -0.7658  -0.7440  -0.5832
    -0.3102  -0.2768   0.2352   0.4056   0.6825   0.7814   1.0410   1.1208
     1.2268   1.3141   1.4173   1.4206   1.4579   1.5346   1.6666   1.7635
     1.8162   1.8765   2.0137   2.0714   2.3059   2.3444   2.7456   2.8173
     2.8943   2.9324   3.0457   3.0938   3.1552   3.3895   4.0333   4.0544
     4.1790   4.2993   4.4380   4.4407   4.5794   4.6165   4.6447   4.8296
     4.9013   5.0318   5.3128   5.4908

     the Fermi energy is     1.7361 ev

!    total energy              =   -1497.15695420 Ry
     Harris-Foulkes estimate   =   -1497.15696393 Ry
     estimated scf accuracy    <       0.00000068 Ry

     The total energy is the sum of the following terms:

     one-electron contribution =  -10731.07165681 Ry
     hartree contribution      =    5371.93075294 Ry
     xc contribution           =    -263.03554229 Ry
     ewald contribution        =    4125.12495214 Ry
     electric field correction =       0.00000192 Ry
     smearing contrib. (-TS)   =      -0.10546210 Ry

     convergence has been achieved in  17 iterations

 BEEF-vdW xc energy contributions
           1 :   -226.798157289883
           2 :    206.210166642827
           3 :   -171.205335872728
           4 :    131.310426991908
           5 :   -95.4833907036613
           6 :    69.0459708780903
           7 :   -52.6933761813171
           8 :    43.5974814917949
           9 :   -37.6646851154243
          10 :    31.6921314143348
          11 :   -24.5106777490551
          12 :    16.8603967616543
          13 :   -10.3700050485234
          14 :    6.33863040513401
          15 :   -4.97890282813316
          16 :    5.42359639922086
          17 :   -6.34230757143013
          18 :    6.70328424692195
          19 :   -6.22149925131313
          20 :    5.30066915451707
          21 :   -4.60804629256077
          22 :    4.59807404125104
          23 :   -5.26256615775520
          24 :    6.19779597132541
          25 :   -6.88818873596603
          26 :    7.00825234613933
          27 :   -6.57260691053051
          28 :    5.87380097247353
          29 :   -5.27518879635153
          30 :    4.99750420758875
          31 :   -24.6554867919564
          32 :   -18.3421343683340

     Forces acting on atoms (Ry/au):

     negative rho (up, down):  7.949E-01 0.000E+00
     atom    1 type  1   force =    -0.00000004    0.01501253    0.00078202
     atom    2 type  1   force =     0.01300137   -0.00750595    0.00078234
     atom    3 type  1   force =    -0.01300093   -0.00750592    0.00078238
     atom    4 type  2   force =    -0.00000041    0.00000021    0.01944383
     atom    5 type  1   force =    -0.00000073   -0.00272484   -0.00524122
     atom    6 type  1   force =    -0.00236038    0.00136173   -0.00524086
     atom    7 type  1   force =     0.00236035    0.00136285   -0.00524151
     atom    8 type  2   force =    -0.00000055   -0.00000011   -0.00514962
     atom    9 type  1   force =     0.00000031    0.00029739   -0.00042731
     atom   10 type  1   force =     0.00025720   -0.00014853   -0.00042730
     atom   11 type  1   force =    -0.00025697   -0.00014891   -0.00042658
     atom   12 type  2   force =     0.00000078   -0.00000046    0.00036383

     Total force =     0.034470     Total SCF correction =     0.001995

     entering subroutine stress ...

     negative rho (up, down):  7.949E-01 0.000E+00
          total   stress  (Ry/bohr**3)                   (kbar)     P=  -10.55
  -0.00009600   0.00000000  -0.00000000        -14.12      0.00     -0.00
   0.00000000  -0.00009600   0.00000000          0.00    -14.12      0.00
  -0.00000000   0.00000000  -0.00002309         -0.00      0.00     -3.40

 !ASE

     Writing output data file calc.save

     General routines

     Parallel routines

   This run was terminated on:  22:41:48   2Jan2019

   JOB DONE.
Job  /afs/slac/g/suncat/bin/suncat-tsmpirun -x LD_LIBRARY_PATH -wdir /scratch/qe649558_whlmt pw.x -in pw.inp

TID   HOST_NAME   COMMAND_LINE            STATUS            TERMINATION_TIME
00000 suncat0243 pw.x -in pw.inp   Done                     01/02/2019 22:41:48
00001 suncat0243 pw.x -in pw.inp   Done                     01/02/2019 22:41:48
00002 suncat0243 pw.x -in pw.inp   Done                     01/02/2019 22:41:48
00003 suncat0243 pw.x -in pw.inp   Done                     01/02/2019 22:41:48
00004 suncat0243 pw.x -in pw.inp   Done                     01/02/2019 22:41:48
00005 suncat0243 pw.x -in pw.inp   Done                     01/02/2019 22:41:48
00006 suncat0243 pw.x -in pw.inp   Done                     01/02/2019 22:41:48
00007 suncat0243 pw.x -in pw.inp   Done                     01/02/2019 22:41:48
00008 suncat0242 pw.x -in pw.inp   Done                     01/02/2019 22:41:48
00009 suncat0242 pw.x -in pw.inp   Done                     01/02/2019 22:41:48
00010 suncat0242 pw.x -in pw.inp   Done                     01/02/2019 22:41:48
00011 suncat0242 pw.x -in pw.inp   Done                     01/02/2019 22:41:48
00012 suncat0242 pw.x -in pw.inp   Done                     01/02/2019 22:41:48
00013 suncat0242 pw.x -in pw.inp   Done                     01/02/2019 22:41:48
00014 suncat0242 pw.x -in pw.inp   Done                     01/02/2019 22:41:48
00015 suncat0242 pw.x -in pw.inp   Done                     01/02/2019 22:41:48
00016 suncat0241 pw.x -in pw.inp   Done                     01/02/2019 22:41:48
00017 suncat0241 pw.x -in pw.inp   Done                     01/02/2019 22:41:48
00018 suncat0241 pw.x -in pw.inp   Done                     01/02/2019 22:41:48
00019 suncat0241 pw.x -in pw.inp   Done                     01/02/2019 22:41:48
00020 suncat0241 pw.x -in pw.inp   Done                     01/02/2019 22:41:48
00021 suncat0241 pw.x -in pw.inp   Done                     01/02/2019 22:41:48
00022 suncat0241 pw.x -in pw.inp   Done                     01/02/2019 22:41:48
00023 suncat0241 pw.x -in pw.inp   Done                     01/02/2019 22:41:48
00024 suncat0240 pw.x -in pw.inp   Done                     01/02/2019 22:41:48
00025 suncat0240 pw.x -in pw.inp   Done                     01/02/2019 22:41:48
00026 suncat0240 pw.x -in pw.inp   Done                     01/02/2019 22:41:48
00027 suncat0240 pw.x -in pw.inp   Done                     01/02/2019 22:41:48
00028 suncat0240 pw.x -in pw.inp   Done                     01/02/2019 22:41:48
00029 suncat0240 pw.x -in pw.inp   Done                     01/02/2019 22:41:48
00030 suncat0240 pw.x -in pw.inp   Done                     01/02/2019 22:41:48
00031 suncat0240 pw.x -in pw.inp   Done                     01/02/2019 22:41:48
00032 suncat0209 pw.x -in pw.inp   Done                     01/02/2019 22:41:48
00033 suncat0209 pw.x -in pw.inp   Done                     01/02/2019 22:41:48
00034 suncat0209 pw.x -in pw.inp   Done                     01/02/2019 22:41:48
00035 suncat0209 pw.x -in pw.inp   Done                     01/02/2019 22:41:48
00036 suncat0209 pw.x -in pw.inp   Done                     01/02/2019 22:41:48
00037 suncat0209 pw.x -in pw.inp   Done                     01/02/2019 22:41:48
00038 suncat0209 pw.x -in pw.inp   Done                     01/02/2019 22:41:48
00039 suncat0209 pw.x -in pw.inp   Done                     01/02/2019 22:41:48
00040 suncat0205 pw.x -in pw.inp   Done                     01/02/2019 22:41:48
00041 suncat0205 pw.x -in pw.inp   Done                     01/02/2019 22:41:48
00042 suncat0205 pw.x -in pw.inp   Done                     01/02/2019 22:41:48
00043 suncat0205 pw.x -in pw.inp   Done                     01/02/2019 22:41:48
00044 suncat0205 pw.x -in pw.inp   Done                     01/02/2019 22:41:48
00045 suncat0205 pw.x -in pw.inp   Done                     01/02/2019 22:41:48
00046 suncat0205 pw.x -in pw.inp   Done                     01/02/2019 22:41:48
00047 suncat0205 pw.x -in pw.inp   Done                     01/02/2019 22:41:48
00048 suncat0204 pw.x -in pw.inp   Done                     01/02/2019 22:41:48
00049 suncat0204 pw.x -in pw.inp   Done                     01/02/2019 22:41:48
00050 suncat0204 pw.x -in pw.inp   Done                     01/02/2019 22:41:48
00051 suncat0204 pw.x -in pw.inp   Done                     01/02/2019 22:41:48
00052 suncat0204 pw.x -in pw.inp   Done                     01/02/2019 22:41:48
00053 suncat0204 pw.x -in pw.inp   Done                     01/02/2019 22:41:48
00054 suncat0204 pw.x -in pw.inp   Done                     01/02/2019 22:41:48
00055 suncat0204 pw.x -in pw.inp   Done                     01/02/2019 22:41:48
00056 suncat0203 pw.x -in pw.inp   Done                     01/02/2019 22:41:48
00057 suncat0203 pw.x -in pw.inp   Done                     01/02/2019 22:41:48
00058 suncat0203 pw.x -in pw.inp   Done                     01/02/2019 22:41:48
00059 suncat0203 pw.x -in pw.inp   Done                     01/02/2019 22:41:48
00060 suncat0203 pw.x -in pw.inp   Done                     01/02/2019 22:41:48
00061 suncat0203 pw.x -in pw.inp   Done                     01/02/2019 22:41:48
00062 suncat0203 pw.x -in pw.inp   Done                     01/02/2019 22:41:48
00063 suncat0203 pw.x -in pw.inp   Done                     01/02/2019 22:41:48