     Program PWSCF v.5.1rc2 (svn rev. 11289) starts on 28Dec2018 at  1:55:36

     Current dimensions of program PWSCF are:
     Max number of different atomic species (ntypx) = 10
     Max number of k-points (npk) =  40000
     Max angular momentum in pseudopotentials (lmaxx) =  3
     Presently stress not available with electric field

     IMPORTANT: XC functional enforced from input :
     Exchange-correlation      = BEEF-VDW ( 1  4 27 13 2)
     Any further DFT definition will be discarded
     Please, verify this is what you really want

     Subspace diagonalization in iterative solution of the eigenvalue problem:
     a serial algorithm will be used

     bravais-lattice index     =            0
     lattice parameter (alat)  =       1.8897  a.u.
     unit-cell volume          =    5109.3294 (a.u.)^3
     number of atoms/cell      =           12
     number of atomic types    =            2
     number of electrons       =       147.00
     number of Kohn-Sham states=          103
     kinetic-energy cutoff     =      36.7493  Ry
     charge density cutoff     =     367.4932  Ry
     convergence threshold     =      1.0E-06
     mixing beta               =       0.1000
     number of iterations used =           10  plain     mixing
     Exchange-correlation      = BEEF-VDW ( 1  4 27 13 2)
     nstep                     =           50

     celldm(1)=   1.889726  celldm(2)=   0.000000  celldm(3)=   0.000000
     celldm(4)=   0.000000  celldm(5)=   0.000000  celldm(6)=   0.000000

     crystal axes: (cart. coord. in units of alat)
               a(1) = (   5.932139   0.000000   0.000000 )
               a(2) = (  -2.966070   5.137383   0.000000 )
               a(3) = (   0.000000   0.000000  24.843571 )

     reciprocal axes: (cart. coord. in units 2 pi/alat)
               b(1) = (  0.168573  0.097326  0.000000 )
               b(2) = (  0.000000  0.194652  0.000000 )
               b(3) = (  0.000000  0.000000  0.040252 )

     PseudoPot. # 1 for Ti read from file:
     /afs/slac.stanford.edu/u/if/mamunm/psp/gbrv1.5pbe/Ti.UPF
     MD5 check sum: 88a00a6731bd790ddea75d31a80cb452
     Pseudo is Ultrasoft + core correction, Zval = 12.0
     Generated by new atomic code, or converted to UPF format
     Using radial grid of  851 points,  6 beta functions with:
                l(1) =   0
                l(2) =   0
                l(3) =   1
                l(4) =   1
                l(5) =   2
                l(6) =   2
     Q(r) pseudized with  6 coefficients,  rinner =    1.000   1.000   1.000
                                                       1.000   1.000

     PseudoPot. # 2 for Tl read from file:
     /afs/slac.stanford.edu/u/if/mamunm/psp/gbrv1.5pbe/Tl.UPF
     MD5 check sum: b76cf1f7e72655a2b2c53cf6385d7059
     Pseudo is Ultrasoft + core correction, Zval = 13.0
     Generated by new atomic code, or converted to UPF format
     Using radial grid of  899 points,  6 beta functions with:
                l(1) =   0
                l(2) =   0
                l(3) =   1
                l(4) =   1
                l(5) =   2
                l(6) =   2
     Q(r) pseudized with  6 coefficients,  rinner =    1.100   1.100   1.100
                                                       1.100   1.100

     vdW kernel table read from file vdW_kernel_table
     MD5 check sum: 095c7af220d748ca6e76c0b4c6cfb241

     atomic species   valence    mass     pseudopotential
        Ti1           12.00    47.86700     Ti( 1.00)
        Tl1           13.00   204.38000     Tl( 1.00)

     No symmetry found

   Cartesian axes

     site n.     atom                  positions (alat units)
         1           Ti1 tau(   1) = (   0.0000000   0.0000000  10.0000000  )
         2           Ti1 tau(   2) = (  -1.4830348   2.5686916  10.0000000  )
         3           Ti1 tau(   3) = (   1.4830348   2.5686916  10.0000000  )
         4           Tl1 tau(   4) = (   2.9660695   0.0000000  10.0000000  )
         5           Ti1 tau(   5) = (   2.9660695   1.7124610  12.4217856  )
         6           Ti1 tau(   6) = (   1.4830348   4.2811526  12.4217856  )
         7           Ti1 tau(   7) = (  -1.4830348   4.2811526  12.4217856  )
         8           Tl1 tau(   8) = (   0.0000000   1.7124610  12.4217856  )
         9           Ti1 tau(   9) = (  -0.0000000   3.4249221  14.8435712  )
        10           Ti1 tau(  10) = (   1.4830348   0.8562305  14.8435712  )
        11           Ti1 tau(  11) = (   4.4491043   0.8562305  14.8435712  )
        12           Tl1 tau(  12) = (   2.9660695   3.4249221  14.8435712  )

     number of k points=    20  Fermi-Dirac smearing, width (Ry)=  0.0110
                       cart. coord. in units 2pi/alat
        k(    1) = (   0.0000000   0.0000000   0.0000000), wk =   0.0555556
        k(    2) = (   0.0000000   0.0324419   0.0000000), wk =   0.1111111
        k(    3) = (   0.0000000   0.0648839   0.0000000), wk =   0.1111111
        k(    4) = (   0.0000000  -0.0973258   0.0000000), wk =   0.0555556
        k(    5) = (   0.0280955   0.0162210   0.0000000), wk =   0.1111111
        k(    6) = (   0.0280955   0.0486629   0.0000000), wk =   0.1111111
        k(    7) = (   0.0280955   0.0811048   0.0000000), wk =   0.1111111
        k(    8) = (   0.0280955  -0.0811048   0.0000000), wk =   0.1111111
        k(    9) = (   0.0280955  -0.0486629   0.0000000), wk =   0.1111111
        k(   10) = (   0.0280955  -0.0162210   0.0000000), wk =   0.1111111
        k(   11) = (   0.0561911   0.0324419   0.0000000), wk =   0.1111111
        k(   12) = (   0.0561911   0.0648839   0.0000000), wk =   0.1111111
        k(   13) = (   0.0561911   0.0973258   0.0000000), wk =   0.1111111
        k(   14) = (   0.0561911  -0.0648839   0.0000000), wk =   0.1111111
        k(   15) = (   0.0561911  -0.0324419   0.0000000), wk =   0.1111111
        k(   16) = (   0.0561911   0.0000000   0.0000000), wk =   0.1111111
        k(   17) = (  -0.0842866  -0.0486629   0.0000000), wk =   0.0555556
        k(   18) = (  -0.0842866  -0.0162210   0.0000000), wk =   0.1111111
        k(   19) = (  -0.0842866   0.0162210   0.0000000), wk =   0.1111111
        k(   20) = (  -0.0842866  -0.1459887   0.0000000), wk =   0.0555556

     Largest allocated arrays     est. size (Mb)     dimensions
     Largest temporary arrays     est. size (Mb)     dimensions

     Check: negative/imaginary core charge=   -0.000005    0.000000

     Initial potential from superposition of free atoms
     Check: negative starting charge=   -0.162615

     starting charge  137.98501, renormalised to  147.00000

     negative rho (up, down):  1.732E-01 0.000E+00

     *
     * You are using vdW-DF for exchange-correlation in this calculation.
     * Please cite the following three references that made this development
     * possible:
     *
     *   M. Dion, H. Rydberg, E. Schroder, D. C. Langreth, and
     *   B. I. Lundqvist, Phys. Rev. Lett. 92, 246401 (2004).
     *
     *   T. Thonhauser, V. R. Cooper, S. Li, A. Puzder, P. Hyldgaard, and
     *   D. C. Langreth, Phys. Rev. B 76, 125112 (2007).
     *
     *   G. Roman-Perez and J. M. Soler, Phys. Rev. Lett. 103, 096102 (2009).
     *
     *
     * If you are using vdW-DF2, please also cite:
     *
     *   K. Lee, E. D. Murray, L. Kong, B. I. Lundqvist, and
     *   D. C. Langreth, Phys. Rev. B 82, 081101(R) (2010).
     *
     *
     * If you are calculating the stress with vdW-DF, please also cite:
     *
     *   R. Sabatini, E. Kucukbenli, B. Kolb, T. Thonhauser, and
     *   S. de Gironcoli, J. Phys.: Condens. Matter 24, 424209 (2012).
     *

     Carrying out vdW-DF run using the following parameters:

     Nqs =      20    Nr_points =    1024   r_max =   100.000
     q_mesh =
               0.00001000     0.04494208     0.09755937     0.15916263
               0.23128650     0.31572767     0.41458969     0.53033537
               0.66584808     0.82450364     1.01025438     1.22772762
               1.48234092     1.78043706     2.12944203     2.53805004
               3.01644009     3.57652955     4.23227104     5.00000000

     Gradients computed in reciprocal space

     Adding external electric field

     Computed dipole along edir(3) :
        Dipole                0.0000 Ry au,          0.0000 Debye
        Dipole field          0.0000 Ry au

        Potential amp.       -0.0000 Ry
        Total length         45.7739 bohr

     Starting wfc are  117 randomized atomic wfcs

     Self-consistent Calculation

     iteration #  1     ecut=    36.75 Ry     beta=0.10
     Davidson diagonalization with overlap
     ethr =  1.00E-02,  avg # of iterations =  3.4

[...]

     total energy              =   -1519.96862228 Ry
     Harris-Foulkes estimate   =   -1521.05980160 Ry
     estimated scf accuracy    <       6.43993614 Ry

[...]

     End of self-consistent calculation

          k = 0.0000 0.0000 0.0000 ( 19267 PWs)   bands (ev):

   -56.1295 -56.1276 -56.0820 -56.0820 -56.0815 -56.0815 -55.8692 -55.8237
   -55.8237 -32.5124 -32.4913 -32.4569 -32.4569 -32.4319 -32.4318 -32.4297
   -32.4297 -32.4146 -32.4040 -32.4040 -32.3852 -32.2993 -32.2510 -32.2430
   -32.1944 -32.1944 -32.0739 -32.0739 -32.0519 -32.0519 -32.0391 -32.0390
   -32.0190 -31.9922 -31.8274 -31.8273 -10.6058 -10.6058 -10.5918 -10.5746
   -10.5746 -10.4646 -10.4646 -10.4579 -10.4579 -10.4289 -10.4120 -10.3552
   -10.3552 -10.3433 -10.3433  -7.2764  -6.0725  -5.5106  -1.6399  -1.5454
    -1.2649  -0.5771  -0.5771  -0.5123  -0.5123  -0.2087   0.0619   0.0901
     0.0901   0.4045   0.4045   0.5775   0.5775   0.6444   0.7844   0.8765
     1.2185   1.2185   1.2714   1.2714   1.4008   1.4008   1.4810   1.5133
     1.5133   1.8311   1.8573   2.1597   2.6196   2.7100   2.7100   2.8736
     2.8736   2.8821   2.8821   2.9098   2.9977   2.9977   3.1310   3.1310
     3.4750   3.4750   3.4859   3.5788   3.5788   3.6769   3.7625

[...]

          k =-0.0843-0.0487 0.0000 ( 19232 PWs)   bands (ev):

[...]

     the Fermi energy is     1.0889 ev

!    total energy              =   -1519.20371844 Ry
     Harris-Foulkes estimate   =   -1519.20371948 Ry
     estimated scf accuracy    <       0.00000050 Ry

     The total energy is the sum of the following terms:

     one-electron contribution =  -10479.64379270 Ry
     hartree contribution      =    5250.34433322 Ry
     xc contribution           =    -360.79025367 Ry
     ewald contribution        =    4071.01139230 Ry
     electric field correction =       0.00000000 Ry
     smearing contrib. (-TS)   =      -0.12539761 Ry

     convergence has been achieved in  20 iterations

 BEEF-vdW xc energy contributions
           1 :   -316.076020611197
           2 :    288.706609684607
           3 :   -242.292557014604
           4 :    189.332583724699
           5 :   -140.986740437571
           6 :    103.220351226057
           7 :   -76.2598690273373
           8 :    56.7676618758584
           9 :   -40.8773962350205
          10 :    26.2865736086424
          11 :   -12.6863566172224
          12 :   0.901253021997888
          13 :    8.28494884126928
          14 :   -14.7878777053329
          15 :    19.1040591318098
          16 :   -21.7848089878804
[...]
               b(3) = (  0.000000  0.000000  0.040252 )

     PseudoPot. # 1 for Ti read from file:
     /afs/slac.stanford.edu/u/if/mamunm/psp/gbrv1.5pbe/Ti.UPF
     MD5 check sum: 88a00a6731bd790ddea75d31a80cb452
     Pseudo is Ultrasoft + core correction, Zval = 12.0
     Generated by new atomic code, or converted to UPF format
     Using radial grid of  851 points,  6 beta functions with:
                l(1) =   0
                l(2) =   0
                l(3) =   1
                l(4) =   1
                l(5) =   2
                l(6) =   2
     Q(r) pseudized with  6 coefficients,  rinner =    1.000   1.000   1.000
                                                       1.000   1.000

     PseudoPot. # 2 for Tl read from file:
     /afs/slac.stanford.edu/u/if/mamunm/psp/gbrv1.5pbe/Tl.UPF
     MD5 check sum: b76cf1f7e72655a2b2c53cf6385d7059
     Pseudo is Ultrasoft + core correction, Zval = 13.0
     Generated by new atomic code, or converted to UPF format
     Using radial grid of  899 points,  6 beta functions with:
                l(1) =   0
                l(2) =   0
                l(3) =   1
                l(4) =   1
                l(5) =   2
                l(6) =   2
     Q(r) pseudized with  6 coefficients,  rinner =    1.100   1.100   1.100
                                                       1.100   1.100

     vdW kernel table read from file vdW_kernel_table
     MD5 check sum: 095c7af220d748ca6e76c0b4c6cfb241

     atomic species   valence    mass     pseudopotential
        Ti1           12.00    47.86700     Ti( 1.00)
        Tl1           13.00   204.38000     Tl( 1.00)

     No symmetry found

   Cartesian axes

     site n.     atom                  positions (alat units)
         1           Ti1 tau(   1) = (   0.0000000   0.0000000  10.0000000  )
         2           Ti1 tau(   2) = (  -1.4830348   2.5686916  10.0000000  )
         3           Ti1 tau(   3) = (   1.4830348   2.5686916  10.0000000  )
         4           Tl1 tau(   4) = (   2.9660695   0.0000000  10.0000000  )
         5           Ti1 tau(   5) = (   2.9660695   1.7124610  12.4217856  )
         6           Ti1 tau(   6) = (   1.4830348   4.2811526  12.4217856  )
         7           Ti1 tau(   7) = (  -1.4830348   4.2811526  12.4217856  )
         8           Tl1 tau(   8) = (   0.0000000   1.7124610  12.4217856  )
         9           Ti1 tau(   9) = (  -0.0000309   3.4741262  14.7308676  )
        10           Ti1 tau(  10) = (   1.5256317   0.8316559  14.7308889  )
        11           Ti1 tau(  11) = (   4.4064701   0.8316706  14.7308696  )
        12           Tl1 tau(  12) = (   2.9660170   3.4249813  15.1406595  )

     number of k points=    20  Fermi-Dirac smearing, width (Ry)=  0.0110
                       cart. coord. in units 2pi/alat
        k(    1) = (   0.0000000   0.0000000   0.0000000), wk =   0.0555556
        k(    2) = (   0.0000000   0.0324419   0.0000000), wk =   0.1111111
        k(    3) = (   0.0000000   0.0648839   0.0000000), wk =   0.1111111
        k(    4) = (   0.0000000  -0.0973258   0.0000000), wk =   0.0555556
        k(    5) = (   0.0280955   0.0162210   0.0000000), wk =   0.1111111
        k(    6) = (   0.0280955   0.0486629   0.0000000), wk =   0.1111111
        k(    7) = (   0.0280955   0.0811048   0.0000000), wk =   0.1111111
        k(    8) = (   0.0280955  -0.0811048   0.0000000), wk =   0.1111111
        k(    9) = (   0.0280955  -0.0486629   0.0000000), wk =   0.1111111
        k(   10) = (   0.0280955  -0.0162210   0.0000000), wk =   0.1111111
        k(   11) = (   0.0561911   0.0324419   0.0000000), wk =   0.1111111
        k(   12) = (   0.0561911   0.0648839   0.0000000), wk =   0.1111111
        k(   13) = (   0.0561911   0.0973258   0.0000000), wk =   0.1111111
        k(   14) = (   0.0561911  -0.0648839   0.0000000), wk =   0.1111111
        k(   15) = (   0.0561911  -0.0324419   0.0000000), wk =   0.1111111
        k(   16) = (   0.0561911   0.0000000   0.0000000), wk =   0.1111111
        k(   17) = (  -0.0842866  -0.0486629   0.0000000), wk =   0.0555556
        k(   18) = (  -0.0842866  -0.0162210   0.0000000), wk =   0.1111111
        k(   19) = (  -0.0842866   0.0162210   0.0000000), wk =   0.1111111
        k(   20) = (  -0.0842866  -0.1459887   0.0000000), wk =   0.0555556

     Largest allocated arrays     est. size (Mb)     dimensions
     Largest temporary arrays     est. size (Mb)     dimensions

     Check: negative/imaginary core charge=   -0.000005    0.000000

     Initial potential from superposition of free atoms
     Check: negative starting charge=   -0.164587

     starting charge  137.98501, renormalised to  147.00000

[...]

     *
     * You are using vdW-DF for exchange-correlation in this calculation.
     * Please cite the following three references that made this development
     * possible:
     *
     *   M. Dion, H. Rydberg, E. Schroder, D. C. Langreth, and
     *   B. I. Lundqvist, Phys. Rev. Lett. 92, 246401 (2004).
     *
     *   T. Thonhauser, V. R. Cooper, S. Li, A. Puzder, P. Hyldgaard, and
     *   D. C. Langreth, Phys. Rev. B 76, 125112 (2007).
     *
     *   G. Roman-Perez and J. M. Soler, Phys. Rev. Lett. 103, 096102 (2009).
     *
     *
     * If you are using vdW-DF2, please also cite:
     *
     *   K. Lee, E. D. Murray, L. Kong, B. I. Lundqvist, and
     *   D. C. Langreth, Phys. Rev. B 82, 081101(R) (2010).
     *
     *
     * If you are calculating the stress with vdW-DF, please also cite:
     *
     *   R. Sabatini, E. Kucukbenli, B. Kolb, T. Thonhauser, and
     *   S. de Gironcoli, J. Phys.: Condens. Matter 24, 424209 (2012).
     *

     Carrying out vdW-DF run using the following parameters:

     Nqs =      20    Nr_points =    1024   r_max =   100.000
     q_mesh =
               0.00001000     0.04494208     0.09755937     0.15916263
               0.23128650     0.31572767     0.41458969     0.53033537
               0.66584808     0.82450364     1.01025438     1.22772762
               1.48234092     1.78043706     2.12944203     2.53805004
               3.01644009     3.57652955     4.23227104     5.00000000

     Gradients computed in reciprocal space

[...]

     Starting wfc are  117 randomized atomic wfcs

     Self-consistent Calculation

[...]

     total energy              =   -1519.22678213 Ry
     Harris-Foulkes estimate   =   -1519.22678142 Ry
     estimated scf accuracy    <       0.00000124 Ry

     iteration # 22     ecut=    36.75 Ry     beta=0.10
     Davidson diagonalization with overlap
     ethr =  8.43E-10,  avg # of iterations =  2.0

[...]

     negative rho (up, down):  1.741E-01 0.000E+00

     Adding external electric field

     Computed dipole along edir(3) :
        Dipole               -0.0522 Ry au,         -0.1326 Debye
        Dipole field         -0.0001 Ry au

        Potential amp.        0.0117 Ry
        Total length         45.7739 bohr

     End of self-consistent calculation

[...]

          k = 0.0562 0.0000 0.0000 ( 19221 PWs)   bands (ev):

[...]

          k =-0.0843-0.1460 0.0000 ( 19232 PWs)   bands (ev):

   -56.1826 -56.1671 -56.1515 -56.0807 -56.0569 -56.0432 -55.8620 -55.8473
   -55.8323 -32.5479 -32.5316 -32.5087 -32.4916 -32.4453 -32.4231 -32.4174
   -32.4068 -32.3961 -32.3739 -32.3474 -32.3245 -32.3032 -32.2634 -32.2581
   -32.2394 -32.1792 -32.1452 -32.1445 -32.1178 -32.1131 -32.1093 -32.0561
   -32.0380 -31.9489 -31.9178 -31.8466 -10.6756 -10.6522 -10.6416 -10.6143
   -10.6070 -10.5236 -10.4888 -10.4625 -10.4343 -10.4227 -10.3009 -10.2749
   -10.2250 -10.1966 -10.1906  -6.4091  -5.8439  -5.3740  -2.8392  -1.9525
    -1.8818  -1.7260  -0.6765  -0.5095  -0.4936  -0.3149  -0.1203  -0.1047
    -0.0481   0.4102   0.4738   0.5282   0.5852   0.6822   0.8224   0.8749
     0.9346   0.9537   0.9977   1.1454   1.2132   1.2852   1.5484   1.5863
     1.6228   1.7599   1.7652   1.8385   2.1729   2.4846   2.5308   2.5355
     2.5665   2.6575   2.7035   2.7390   2.8516   2.9215   2.9305   2.9611
     3.0809   3.1516   3.2512   3.2629   3.5265   3.5886   3.8087

     the Fermi energy is     1.0204 ev

!    total energy              =   -1519.22678044 Ry
     Harris-Foulkes estimate   =   -1519.22678287 Ry
     estimated scf accuracy    <       0.00000040 Ry

     The total energy is the sum of the following terms:

     one-electron contribution =  -10479.63992229 Ry
     hartree contribution      =    5250.26748092 Ry
     xc contribution           =    -360.83045982 Ry
     ewald contribution        =    4071.10059136 Ry
     electric field correction =       0.00000669 Ry
     smearing contrib. (-TS)   =      -0.12447732 Ry

     convergence has been achieved in  22 iterations

 BEEF-vdW xc energy contributions
           1 :   -316.343299004654
           2 :    288.965011633308
           3 :   -242.534499633212
           4 :    189.556928751176
           5 :   -141.206622756768
           6 :    103.463972071532
           7 :   -76.5532683554429
           8 :    57.1100769420644
           9 :   -41.2315246566147
          10 :    26.5960389612688
          11 :   -12.9101671383118
          12 :    1.04154682729239
          13 :    8.18036405318998
          14 :   -14.6493065538554
          15 :    18.8782722545457
          16 :   -21.4676865044495
          17 :    22.7116696180302
          18 :   -22.6527565355772
          19 :    21.4139819782936
          20 :   -19.4138104693855
          21 :    17.2255502348038
          22 :   -15.2167960897447
          23 :    13.3024017545423
          24 :   -11.0457799201004
          25 :    8.04130839701742
          26 :   -4.29107326873054
          27 :   0.290030663134814
          28 :    3.24007869599473
          29 :   -5.77552862699832
          30 :    7.26799696622265
          31 :   -29.1011185646883
          32 :   -21.0657055996350

     Forces acting on atoms (Ry/au):

     negative rho (up, down):  1.741E-01 0.000E+00
     atom    1 type  1   force =     0.00000357   -0.00676640    0.01242665
     atom    2 type  1   force =    -0.00585839    0.00338826    0.01242835
     atom    3 type  1   force =     0.00586367    0.00338752    0.01243202
     atom    4 type  2   force =    -0.00000927   -0.00000707   -0.03831130
     atom    5 type  1   force =     0.00000360    0.00946527    0.00353926
     atom    6 type  1   force =     0.00819621   -0.00472417    0.00353639
     atom    7 type  1   force =    -0.00819433   -0.00472703    0.00353595
     atom    8 type  2   force =    -0.00002329   -0.00003384   -0.01230291
     atom    9 type  1   force =    -0.00000079   -0.00072883    0.00025754
     atom   10 type  1   force =    -0.00063845    0.00037000    0.00025719
     atom   11 type  1   force =     0.00063734    0.00037043    0.00025641
     atom   12 type  2   force =     0.00002014    0.00000586    0.00194447

     Total force =     0.050316     Total SCF correction =     0.001811

     entering subroutine stress ...

     negative rho (up, down):  1.741E-01 0.000E+00
          total   stress  (Ry/bohr**3)                   (kbar)     P=   -8.70
  -0.00008261  -0.00000000   0.00000000        -12.15     -0.00      0.00
  -0.00000000  -0.00008261  -0.00000000         -0.00    -12.15     -0.00
   0.00000000  -0.00000000  -0.00001226          0.00     -0.00     -1.80

 !ASE

     Writing output data file calc.save

     General routines

     Parallel routines

   This run was terminated on:   2:47: 5  28Dec2018

   JOB DONE.
Job  /afs/slac/g/suncat/bin/suncat-tsmpirun -x LD_LIBRARY_PATH -wdir /scratch/qe111151_Q6X1I pw.x -in pw.inp

TID   HOST_NAME   COMMAND_LINE            STATUS            TERMINATION_TIME
00000 suncat0080 pw.x -in pw.inp   Done                     12/28/2018 02:47:05
00001 suncat0080 pw.x -in pw.inp   Done                     12/28/2018 02:47:05
00002 suncat0080 pw.x -in pw.inp   Done                     12/28/2018 02:47:05
00003 suncat0080 pw.x -in pw.inp   Done                     12/28/2018 02:47:05
00004 suncat0080 pw.x -in pw.inp   Done                     12/28/2018 02:47:05
00005 suncat0080 pw.x -in pw.inp   Done                     12/28/2018 02:47:05
00006 suncat0080 pw.x -in pw.inp   Done                     12/28/2018 02:47:05
00007 suncat0080 pw.x -in pw.inp   Done                     12/28/2018 02:47:05
00008 suncat0078 pw.x -in pw.inp   Done                     12/28/2018 02:47:05
00009 suncat0078 pw.x -in pw.inp   Done                     12/28/2018 02:47:05
00010 suncat0078 pw.x -in pw.inp   Done                     12/28/2018 02:47:05
00011 suncat0078 pw.x -in pw.inp   Done                     12/28/2018 02:47:05
00012 suncat0078 pw.x -in pw.inp   Done                     12/28/2018 02:47:05
00013 suncat0078 pw.x -in pw.inp   Done                     12/28/2018 02:47:05
00014 suncat0078 pw.x -in pw.inp   Done                     12/28/2018 02:47:05
00015 suncat0078 pw.x -in pw.inp   Done                     12/28/2018 02:47:05
00016 suncat0165 pw.x -in pw.inp   Done                     12/28/2018 02:47:05
00017 suncat0165 pw.x -in pw.inp   Done                     12/28/2018 02:47:05
00018 suncat0165 pw.x -in pw.inp   Done                     12/28/2018 02:47:05
00019 suncat0165 pw.x -in pw.inp   Done                     12/28/2018 02:47:05
00020 suncat0165 pw.x -in pw.inp   Done                     12/28/2018 02:47:05
00021 suncat0165 pw.x -in pw.inp   Done                     12/28/2018 02:47:05
00022 suncat0165 pw.x -in pw.inp   Done                     12/28/2018 02:47:05
00023 suncat0165 pw.x -in pw.inp   Done                     12/28/2018 02:47:05
00024 suncat0164 pw.x -in pw.inp   Done                     12/28/2018 02:47:05
00025 suncat0164 pw.x -in pw.inp   Done                     12/28/2018 02:47:05
00026 suncat0164 pw.x -in pw.inp   Done                     12/28/2018 02:47:05
00027 suncat0164 pw.x -in pw.inp   Done                     12/28/2018 02:47:05
00028 suncat0164 pw.x -in pw.inp   Done                     12/28/2018 02:47:05
00029 suncat0164 pw.x -in pw.inp   Done                     12/28/2018 02:47:05
00030 suncat0164 pw.x -in pw.inp   Done                     12/28/2018 02:47:05
00031 suncat0164 pw.x -in pw.inp   Done                     12/28/2018 02:47:05
00032 suncat0143 pw.x -in pw.inp   Done                     12/28/2018 02:47:05
00033 suncat0143 pw.x -in pw.inp   Done                     12/28/2018 02:47:05
00034 suncat0143 pw.x -in pw.inp   Done                     12/28/2018 02:47:05
00035 suncat0143 pw.x -in pw.inp   Done                     12/28/2018 02:47:05
00036 suncat0143 pw.x -in pw.inp   Done                     12/28/2018 02:47:05
00037 suncat0143 pw.x -in pw.inp   Done                     12/28/2018 02:47:05
00038 suncat0143 pw.x -in pw.inp   Done                     12/28/2018 02:47:05
00039 suncat0143 pw.x -in pw.inp   Done                     12/28/2018 02:47:05
00040 suncat0135 pw.x -in pw.inp   Done                     12/28/2018 02:47:05
00041 suncat0135 pw.x -in pw.inp   Done                     12/28/2018 02:47:05
00042 suncat0135 pw.x -in pw.inp   Done                     12/28/2018 02:47:05
00043 suncat0135 pw.x -in pw.inp   Done                     12/28/2018 02:47:05
00044 suncat0135 pw.x -in pw.inp   Done                     12/28/2018 02:47:05
00045 suncat0135 pw.x -in pw.inp   Done                     12/28/2018 02:47:05
00046 suncat0135 pw.x -in pw.inp   Done                     12/28/2018 02:47:05
00047 suncat0135 pw.x -in pw.inp   Done                     12/28/2018 02:47:05
00048 suncat0134 pw.x -in pw.inp   Done                     12/28/2018 02:47:05
00049 suncat0134 pw.x -in pw.inp   Done                     12/28/2018 02:47:05
00050 suncat0134 pw.x -in pw.inp   Done                     12/28/2018 02:47:05
00051 suncat0134 pw.x -in pw.inp   Done                     12/28/2018 02:47:05
00052 suncat0134 pw.x -in pw.inp   Done                     12/28/2018 02:47:05
00053 suncat0134 pw.x -in pw.inp   Done                     12/28/2018 02:47:05
00054 suncat0134 pw.x -in pw.inp   Done                     12/28/2018 02:47:05
00055 suncat0134 pw.x -in pw.inp   Done                     12/28/2018 02:47:05
00056 suncat0272 pw.x -in pw.inp   Done                     12/28/2018 02:47:05
00057 suncat0272 pw.x -in pw.inp   Done                     12/28/2018 02:47:05
00058 suncat0272 pw.x -in pw.inp   Done                     12/28/2018 02:47:05
00059 suncat0272 pw.x -in pw.inp   Done                     12/28/2018 02:47:05
00060 suncat0272 pw.x -in pw.inp   Done                     12/28/2018 02:47:05
00061 suncat0272 pw.x -in pw.inp   Done                     12/28/2018 02:47:05
00062 suncat0272 pw.x -in pw.inp   Done                     12/28/2018 02:47:05
00063 suncat0272 pw.x -in pw.inp   Done                     12/28/2018 02:47:05