     Program PWSCF v.5.1rc2 (svn rev. 11289) starts on  2Jan2019 at 16:49: 0

     Current dimensions of program PWSCF are:
     Max number of different atomic species (ntypx) = 10
     Max number of k-points (npk) =  40000
     Max angular momentum in pseudopotentials (lmaxx) =  3
     Presently stress not available with electric field

     IMPORTANT: XC functional enforced from input :
     Exchange-correlation      = BEEF-VDW ( 1  4 27 13 2)
     Any further DFT definition will be discarded
     Please, verify this is what you really want

     Subspace diagonalization in iterative solution of the eigenvalue problem:
     a serial algorithm will be used

     bravais-lattice index     =            0
     lattice parameter (alat)  =       1.8897  a.u.
     unit-cell volume          =    4338.0979 (a.u.)^3
     number of atoms/cell      =           12
     number of atomic types    =            2
     number of electrons       =       228.00
     number of Kohn-Sham states=          144
     kinetic-energy cutoff     =      36.7493  Ry
     charge density cutoff     =     367.4932  Ry
     convergence threshold     =      1.0E-06
     mixing beta               =       0.1000
     number of iterations used =           10  plain     mixing
     Exchange-correlation      = BEEF-VDW ( 1  4 27 13 2)
     nstep                     =           50

     celldm(1)=   1.889726  celldm(2)=   0.000000  celldm(3)=   0.000000
     celldm(4)=   0.000000  celldm(5)=   0.000000  celldm(6)=   0.000000

     crystal axes: (cart. coord. in units of alat)
               a(1) = (   5.504903   0.000000   0.000000 )
               a(2) = (  -2.752452   4.767386   0.000000 )
               a(3) = (   0.000000   0.000000  24.494735 )

     reciprocal axes: (cart. coord. in units 2 pi/alat)
               b(1) = (  0.181656  0.104879  0.000000 )
               b(2) = (  0.000000  0.209759  0.000000 )
               b(3) = (  0.000000  0.000000  0.040825 )

     PseudoPot. # 1 for Zn read from file:
     /afs/slac.stanford.edu/u/if/mamunm/psp/gbrv1.5pbe/Zn.UPF
     MD5 check sum: df62231357ef9e81f77b2b3087fa5675
     Pseudo is Ultrasoft, Zval = 20.0
     Generated by new atomic code, or converted to UPF format
     Using radial grid of  943 points,  6 beta functions with:
                l(1) =   0
                l(2) =   0
                l(3) =   1
                l(4) =   1
                l(5) =   2
                l(6) =   2
     Q(r) pseudized with  8 coefficients,  rinner =    1.100   1.100   1.100
                                                       1.100   1.100

     PseudoPot. # 2 for Pd read from file:
     /afs/slac.stanford.edu/u/if/mamunm/psp/gbrv1.5pbe/Pd.UPF
     MD5 check sum: 2d733d2bc2cbfd217af676df1668a4bc
     Pseudo is Ultrasoft + core correction, Zval = 16.0
     Generated by new atomic code, or converted to UPF format
     Using radial grid of  887 points,  6 beta functions with:
                l(1) =   0
                l(2) =   0
                l(3) =   1
                l(4) =   1
                l(5) =   2
                l(6) =   2
     Q(r) pseudized with  8 coefficients,  rinner =    1.130   1.130   1.130
                                                       1.130   1.130

     vdW kernel table read from file vdW_kernel_table
     MD5 check sum: 095c7af220d748ca6e76c0b4c6cfb241

     atomic species   valence    mass     pseudopotential
        Zn1           20.00    65.38000     Zn( 1.00)
        Pd1           16.00   106.42000     Pd( 1.00)

     No symmetry found

   Cartesian axes

     site n.     atom                  positions (alat units)
         1           Zn1 tau(   1) = (   0.0000000   0.0000000  10.0000000  )
         2           Zn1 tau(   2) = (  -1.3762258   2.3836930  10.0000000  )
         3           Zn1 tau(   3) = (   1.3762258   2.3836930  10.0000000  )
         4           Pd1 tau(   4) = (   2.7524516   0.0000000  10.0000000  )
         5           Zn1 tau(   5) = (   2.7524516   1.5891287  12.2473673  )
         6           Zn1 tau(   6) = (   1.3762258   3.9728217  12.2473673  )
         7           Zn1 tau(   7) = (  -1.3762258   3.9728217  12.2473673  )
         8           Pd1 tau(   8) = (   0.0000000   1.5891287  12.2473673  )
         9           Zn1 tau(   9) = (  -0.0000000   3.1782574  14.4947347  )
        10           Zn1 tau(  10) = (   1.3762258   0.7945643  14.4947347  )
        11           Zn1 tau(  11) = (   4.1286774   0.7945643  14.4947347  )
        12           Pd1 tau(  12) = (   2.7524516   3.1782574  14.4947347  )

     number of k points=    20  Fermi-Dirac smearing, width (Ry)=  0.0110
                       cart. coord. in units 2pi/alat
        k(    1) = (   0.0000000   0.0000000   0.0000000), wk =   0.0555556
        k(    2) = (   0.0000000   0.0349598   0.0000000), wk =   0.1111111
        k(    3) = (   0.0000000   0.0699195   0.0000000), wk =   0.1111111
        k(    4) = (   0.0000000  -0.1048793   0.0000000), wk =   0.0555556
        k(    5) = (   0.0302760   0.0174799   0.0000000), wk =   0.1111111
        k(    6) = (   0.0302760   0.0524396   0.0000000), wk =   0.1111111
        k(    7) = (   0.0302760   0.0873994   0.0000000), wk =   0.1111111
        k(    8) = (   0.0302760  -0.0873994   0.0000000), wk =   0.1111111
        k(    9) = (   0.0302760  -0.0524396   0.0000000), wk =   0.1111111
        k(   10) = (   0.0302760  -0.0174799   0.0000000), wk =   0.1111111
        k(   11) = (   0.0605521   0.0349598   0.0000000), wk =   0.1111111
        k(   12) = (   0.0605521   0.0699195   0.0000000), wk =   0.1111111
        k(   13) = (   0.0605521   0.1048793   0.0000000), wk =   0.1111111
        k(   14) = (   0.0605521  -0.0699195   0.0000000), wk =   0.1111111
        k(   15) = (   0.0605521  -0.0349598   0.0000000), wk =   0.1111111
        k(   16) = (   0.0605521   0.0000000   0.0000000), wk =   0.1111111
        k(   17) = (  -0.0908281  -0.0524396   0.0000000), wk =   0.0555556
        k(   18) = (  -0.0908281  -0.0174799   0.0000000), wk =   0.1111111
        k(   19) = (  -0.0908281   0.0174799   0.0000000), wk =   0.1111111
        k(   20) = (  -0.0908281  -0.1573189   0.0000000), wk =   0.0555556

     Largest allocated arrays     est. size (Mb)     dimensions
     Largest temporary arrays     est. size (Mb)     dimensions

     Initial potential from superposition of free atoms
     Check: negative starting charge=   -0.228464

     starting charge  226.49871, renormalised to  228.00000

     negative rho (up, down):  2.300E-01 0.000E+00

     *
     * You are using vdW-DF for exchange-correlation in this calculation.
     * Please cite the following three references that made this development
     * possible:
     *
     *   M. Dion, H. Rydberg, E. Schroder, D. C. Langreth, and
     *   B. I. Lundqvist, Phys. Rev. Lett. 92, 246401 (2004).
     *
     *   T. Thonhauser, V. R. Cooper, S. Li, A. Puzder, P. Hyldgaard, and
     *   D. C. Langreth, Phys. Rev. B 76, 125112 (2007).
     *
     *   G. Roman-Perez and J. M. Soler, Phys. Rev. Lett. 103, 096102 (2009).
     *
     *
     * If you are using vdW-DF2, please also cite:
     *
     *   K. Lee, E. D. Murray, L. Kong, B. I. Lundqvist, and
     *   D. C. Langreth, Phys. Rev. B 82, 081101(R) (2010).
     *
     *
     * If you are calculating the stress with vdW-DF, please also cite:
     *
     *   R. Sabatini, E. Kucukbenli, B. Kolb, T. Thonhauser, and
     *   S. de Gironcoli, J. Phys.: Condens. Matter 24, 424209 (2012).
     *

     Carrying out vdW-DF run using the following parameters:

     Nqs =      20    Nr_points =    1024   r_max =   100.000
     q_mesh =
               0.00001000     0.04494208     0.09755937     0.15916263
               0.23128650     0.31572767     0.41458969     0.53033537
               0.66584808     0.82450364     1.01025438     1.22772762
               1.48234092     1.78043706     2.12944203     2.53805004
               3.01644009     3.57652955     4.23227104     5.00000000

     Gradients computed in reciprocal space

     Adding external electric field

     Computed dipole along edir(3) :
        Dipole               -0.0000 Ry au,         -0.0000 Debye
        Dipole field         -0.0000 Ry au

        Potential amp.        0.0000 Ry
        Total length         45.1311 bohr

     Starting wfc are  153 randomized atomic wfcs

     Self-consistent Calculation

     iteration #  1     ecut=    36.75 Ry     beta=0.10
     Davidson diagonalization with overlap
     ethr =  1.00E-02,  avg # of iterations =  7.5

[...]

     total energy              =   -4764.69542375 Ry
     Harris-Foulkes estimate   =   -4765.12204466 Ry
     estimated scf accuracy    <       2.57545220 Ry

[...]

     End of self-consistent calculation

          k = 0.0000 0.0000 0.0000 ( 16235 PWs)   bands (ev):

  -126.0069-126.0058-126.0058-125.7075-125.7074-125.7063-125.7063-125.7062
  -125.7062 -80.2123 -80.2038 -80.2038 -80.1852 -80.1852 -80.1796 -80.1709
   -80.1635 -80.1635 -79.9126 -79.9124 -79.9062 -79.9062 -79.9060 -79.9060
   -79.8961 -79.8960 -79.8874 -79.8874 -79.8872 -79.8872 -79.8609 -79.8609
   -79.8607 -79.8607 -79.8560 -79.8558 -49.8808 -49.8808 -49.8321 -49.5084
   -49.5084 -49.5083 -49.5083 -49.3607 -49.3606  -8.5146  -7.5607  -7.4984
    -7.4878  -7.4878  -7.3961  -7.3921  -7.3175  -7.3175  -7.2544  -7.2544
    -7.2471  -7.0554  -7.0554  -7.0098  -6.9440  -6.9250  -6.9250  -6.8980
    -6.8107  -6.8107  -6.7803  -6.7671  -6.7671  -6.7530  -6.7530  -6.7422
    -6.5179  -6.5179  -6.5032  -6.5032  -6.4390  -6.4390  -6.4381  -6.4381
    -6.4378  -6.4002  -6.4002  -6.3963  -6.3580  -6.3580  -6.2883  -6.2424
    -6.2424  -6.1209  -6.0803  -6.0780  -4.0159  -3.2142  -3.2142  -2.6730
    -2.6730  -2.6266  -2.6266  -2.3720  -2.1460  -1.9517  -1.9517  -1.8163
    -1.8163  -1.5304  -1.5304  -1.0894  -0.9748  -0.2490  -0.2490   0.0035
     0.2060   0.4334   0.4334   0.7064   0.7619   0.7619   2.5808   2.5808
     3.1844   3.6052   3.6052   4.1156   4.3151   4.3151   4.3980   5.0889
     5.1646   5.4314   6.0947   6.2642   7.4204   7.4204   7.6071   7.6316
     7.6316   7.8342   8.2663   8.2731   9.7920   9.7920  10.0012  10.2219

[...]

          k =-0.0908-0.0524 0.0000 ( 16300 PWs)   bands (ev):

[...]

     the Fermi energy is     0.6459 ev

!    total energy              =   -4764.54388335 Ry
     Harris-Foulkes estimate   =   -4764.54388310 Ry
     estimated scf accuracy    <       0.00000053 Ry

     The total energy is the sum of the following terms:

     one-electron contribution =  -32571.03445394 Ry
     hartree contribution      =   16282.49053102 Ry
     xc contribution           =    -488.50596660 Ry
     ewald contribution        =   12012.53191231 Ry
     electric field correction =       0.00000000 Ry
     smearing contrib. (-TS)   =      -0.02590615 Ry

     convergence has been achieved in  14 iterations

 BEEF-vdW xc energy contributions
           1 :   -432.436192994041
           2 :    392.785803670410
           3 :   -325.988403863235
           4 :    251.075469979449
           5 :   -185.239372461815
           6 :    137.511556302352
           7 :   -107.340242832800
[...]
                l(1) =   0
                l(2) =   0
                l(3) =   1
                l(4) =   1
                l(5) =   2
                l(6) =   2
     Q(r) pseudized with  8 coefficients,  rinner =    1.100   1.100   1.100
                                                       1.100   1.100

     PseudoPot. # 2 for Pd read from file:
     /afs/slac.stanford.edu/u/if/mamunm/psp/gbrv1.5pbe/Pd.UPF
     MD5 check sum: 2d733d2bc2cbfd217af676df1668a4bc
     Pseudo is Ultrasoft + core correction, Zval = 16.0
     Generated by new atomic code, or converted to UPF format
     Using radial grid of  887 points,  6 beta functions with:
                l(1) =   0
                l(2) =   0
                l(3) =   1
                l(4) =   1
                l(5) =   2
                l(6) =   2
     Q(r) pseudized with  8 coefficients,  rinner =    1.130   1.130   1.130
                                                       1.130   1.130

     vdW kernel table read from file vdW_kernel_table
     MD5 check sum: 095c7af220d748ca6e76c0b4c6cfb241

     atomic species   valence    mass     pseudopotential
        Zn1           20.00    65.38000     Zn( 1.00)
        Pd1           16.00   106.42000     Pd( 1.00)

     No symmetry found

   Cartesian axes

     site n.     atom                  positions (alat units)
         1           Zn1 tau(   1) = (   0.0000000   0.0000000  10.0000000  )
         2           Zn1 tau(   2) = (  -1.3762258   2.3836930  10.0000000  )
         3           Zn1 tau(   3) = (   1.3762258   2.3836930  10.0000000  )
         4           Pd1 tau(   4) = (   2.7524516   0.0000000  10.0000000  )
         5           Zn1 tau(   5) = (   2.7524516   1.5891287  12.2473673  )
         6           Zn1 tau(   6) = (   1.3762258   3.9728217  12.2473673  )
         7           Zn1 tau(   7) = (  -1.3762258   3.9728217  12.2473673  )
         8           Pd1 tau(   8) = (   0.0000000   1.5891287  12.2473673  )
         9           Zn1 tau(   9) = (  -0.0000026   3.1700120  14.6601367  )
        10           Zn1 tau(  10) = (   1.3690786   0.7986820  14.6601384  )
        11           Zn1 tau(  11) = (   4.1358260   0.7986893  14.6601418  )
        12           Pd1 tau(  12) = (   2.7524520   3.1782511  14.3725956  )

     number of k points=    20  Fermi-Dirac smearing, width (Ry)=  0.0110
                       cart. coord. in units 2pi/alat
        k(    1) = (   0.0000000   0.0000000   0.0000000), wk =   0.0555556
        k(    2) = (   0.0000000   0.0349598   0.0000000), wk =   0.1111111
        k(    3) = (   0.0000000   0.0699195   0.0000000), wk =   0.1111111
        k(    4) = (   0.0000000  -0.1048793   0.0000000), wk =   0.0555556
        k(    5) = (   0.0302760   0.0174799   0.0000000), wk =   0.1111111
        k(    6) = (   0.0302760   0.0524396   0.0000000), wk =   0.1111111
        k(    7) = (   0.0302760   0.0873994   0.0000000), wk =   0.1111111
        k(    8) = (   0.0302760  -0.0873994   0.0000000), wk =   0.1111111
        k(    9) = (   0.0302760  -0.0524396   0.0000000), wk =   0.1111111
        k(   10) = (   0.0302760  -0.0174799   0.0000000), wk =   0.1111111
        k(   11) = (   0.0605521   0.0349598   0.0000000), wk =   0.1111111
        k(   12) = (   0.0605521   0.0699195   0.0000000), wk =   0.1111111
        k(   13) = (   0.0605521   0.1048793   0.0000000), wk =   0.1111111
        k(   14) = (   0.0605521  -0.0699195   0.0000000), wk =   0.1111111
        k(   15) = (   0.0605521  -0.0349598   0.0000000), wk =   0.1111111
        k(   16) = (   0.0605521   0.0000000   0.0000000), wk =   0.1111111
        k(   17) = (  -0.0908281  -0.0524396   0.0000000), wk =   0.0555556
        k(   18) = (  -0.0908281  -0.0174799   0.0000000), wk =   0.1111111
        k(   19) = (  -0.0908281   0.0174799   0.0000000), wk =   0.1111111
        k(   20) = (  -0.0908281  -0.1573189   0.0000000), wk =   0.0555556

     Largest allocated arrays     est. size (Mb)     dimensions
     Largest temporary arrays     est. size (Mb)     dimensions

     Initial potential from superposition of free atoms
     Check: negative starting charge=   -0.228513

     starting charge  226.49871, renormalised to  228.00000

[...]

     *
     * You are using vdW-DF for exchange-correlation in this calculation.
     * Please cite the following three references that made this development
     * possible:
     *
     *   M. Dion, H. Rydberg, E. Schroder, D. C. Langreth, and
     *   B. I. Lundqvist, Phys. Rev. Lett. 92, 246401 (2004).
     *
     *   T. Thonhauser, V. R. Cooper, S. Li, A. Puzder, P. Hyldgaard, and
     *   D. C. Langreth, Phys. Rev. B 76, 125112 (2007).
     *
     *   G. Roman-Perez and J. M. Soler, Phys. Rev. Lett. 103, 096102 (2009).
     *
     *
     * If you are using vdW-DF2, please also cite:
     *
     *   K. Lee, E. D. Murray, L. Kong, B. I. Lundqvist, and
     *   D. C. Langreth, Phys. Rev. B 82, 081101(R) (2010).
     *
     *
     * If you are calculating the stress with vdW-DF, please also cite:
     *
     *   R. Sabatini, E. Kucukbenli, B. Kolb, T. Thonhauser, and
     *   S. de Gironcoli, J. Phys.: Condens. Matter 24, 424209 (2012).
     *

     Carrying out vdW-DF run using the following parameters:

     Nqs =      20    Nr_points =    1024   r_max =   100.000
     q_mesh =
               0.00001000     0.04494208     0.09755937     0.15916263
               0.23128650     0.31572767     0.41458969     0.53033537
               0.66584808     0.82450364     1.01025438     1.22772762
               1.48234092     1.78043706     2.12944203     2.53805004
               3.01644009     3.57652955     4.23227104     5.00000000

     Gradients computed in reciprocal space

[...]

     Starting wfc are  153 randomized atomic wfcs

     Self-consistent Calculation

[...]

     total energy              =   -4764.55230220 Ry
     Harris-Foulkes estimate   =   -4764.55230225 Ry
     estimated scf accuracy    <       0.00000107 Ry

     iteration # 15     ecut=    36.75 Ry     beta=0.10
     Davidson diagonalization with overlap
     ethr =  4.71E-10,  avg # of iterations =  1.5

[...]

     negative rho (up, down):  2.385E-01 0.000E+00

     Adding external electric field

     Computed dipole along edir(3) :
        Dipole                0.0344 Ry au,          0.0874 Debye
        Dipole field          0.0001 Ry au

        Potential amp.       -0.0090 Ry
        Total length         45.1311 bohr

     End of self-consistent calculation

[...]

          k = 0.0606 0.0000 0.0000 ( 16344 PWs)   bands (ev):

[...]

          k =-0.0908-0.1573 0.0000 ( 16300 PWs)   bands (ev):

  -125.9261-125.9257-125.9253-125.6746-125.6742-125.6738-125.6152-125.6148
  -125.6144 -80.1310 -80.1278 -80.1250 -80.1041 -80.1022 -80.1005 -80.0873
   -80.0854 -80.0830 -79.8781 -79.8760 -79.8744 -79.8607 -79.8576 -79.8543
   -79.8287 -79.8269 -79.8250 -79.8147 -79.8130 -79.8119 -79.8053 -79.8018
   -79.7979 -79.7700 -79.7683 -79.7664 -49.7484 -49.7483 -49.6695 -49.6015
   -49.6014 -49.4988 -49.4909 -49.4907 -49.3472  -7.4554  -7.2504  -7.2089
    -7.1665  -7.1222  -7.0802  -7.0748  -7.0381  -7.0373  -7.0070  -6.9960
    -6.9757  -6.9634  -6.9329  -6.8280  -6.8124  -6.7902  -6.7665  -6.7305
    -6.6946  -6.6830  -6.6610  -6.6558  -6.6332  -6.6137  -6.6062  -6.5819
    -6.5676  -6.5632  -6.5287  -6.5266  -6.5214  -6.5191  -6.5117  -6.4797
    -6.4789  -6.4645  -6.4135  -6.3682  -6.3558  -6.3272  -6.3080  -6.2962
    -6.2071  -6.1804  -6.1751  -6.0687  -4.9529  -4.4372  -3.8583  -3.0163
    -2.9442  -2.8278  -2.6781  -2.5243  -2.4494  -2.3047  -2.1796  -2.1215
    -2.0894  -1.9960  -1.7352  -1.7330  -1.4032  -1.3846  -0.4565  -0.1692
    -0.0851  -0.0347   0.6416   2.0575   2.1994   2.2092   2.7264   4.7341
     4.8687   5.0803   5.2020   5.3567   5.5260   5.5971   5.8638   6.1526
     6.2039   6.6174   6.6445   6.7066   6.7682   7.0840   7.4764   7.5535
     7.6429   7.6874   7.7048   7.8837   8.0809   8.4652   8.7681   9.0248

     the Fermi energy is     0.7013 ev

!    total energy              =   -4764.55230455 Ry
     Harris-Foulkes estimate   =   -4764.55230182 Ry
     estimated scf accuracy    <       0.00000058 Ry

     The total energy is the sum of the following terms:

     one-electron contribution =  -32124.79358099 Ry
     hartree contribution      =   16059.81804081 Ry
     xc contribution           =    -488.44006046 Ry
     ewald contribution        =   11788.88981486 Ry
     electric field correction =       0.00000342 Ry
     smearing contrib. (-TS)   =      -0.02652220 Ry

     convergence has been achieved in  15 iterations

 BEEF-vdW xc energy contributions
           1 :   -432.365801333753
           2 :    392.668799462838
           3 :   -325.813289438396
           4 :    250.875542834348
           5 :   -185.068296927117
           6 :    137.402346513295
           7 :   -107.280434610340
           8 :    87.9099953330921
           9 :   -71.8519830972689
          10 :    55.2670961872024
          11 :   -38.7924781191427
          12 :    25.3658903877538
          13 :   -17.1212043991198
          14 :    13.6204808707454
          15 :   -12.3462560884940
          16 :    10.6525490154841
          17 :   -7.50690891374120
          18 :    3.79249709191583
          19 :   -1.18166353076225
          20 :   0.625586484343330
          21 :   -1.63405868767438
          22 :    2.76979251220843
          23 :   -2.82443927980444
          24 :    1.69294611809107
          25 :  -0.307250583026416
          26 :  -0.222122492686253
          27 :  -0.486189237814415
          28 :    1.83212278171465
          29 :   -2.77258367082646
          30 :    2.66244645524102
          31 :   -35.0668456072345
          32 :   -24.4097683687307

     Forces acting on atoms (Ry/au):

     negative rho (up, down):  2.385E-01 0.000E+00
     atom    1 type  1   force =     0.00000014    0.00069711   -0.01324736
     atom    2 type  1   force =     0.00060413   -0.00034815   -0.01324714
     atom    3 type  1   force =    -0.00060446   -0.00034846   -0.01324721
     atom    4 type  2   force =    -0.00000009   -0.00000007    0.02218988
     atom    5 type  1   force =    -0.00000017   -0.00764038    0.00248268
     atom    6 type  1   force =    -0.00661681    0.00381996    0.00248283
     atom    7 type  1   force =     0.00661710    0.00382007    0.00248325
     atom    8 type  2   force =     0.00000008    0.00000010    0.01030308
     atom    9 type  1   force =     0.00000031    0.00100640    0.00001023
     atom   10 type  1   force =     0.00087159   -0.00050353    0.00001038
     atom   11 type  1   force =    -0.00087137   -0.00050355    0.00001011
     atom   12 type  2   force =    -0.00000045    0.00000050   -0.00023074

     Total force =     0.036376     Total SCF correction =     0.007580
     SCF correction compared to forces is large: reduce conv_thr to get better values

     entering subroutine stress ...

     negative rho (up, down):  2.385E-01 0.000E+00
          total   stress  (Ry/bohr**3)                   (kbar)     P=  -16.36
  -0.00015294   0.00000000   0.00000000        -22.50      0.00      0.00
   0.00000000  -0.00015294   0.00000000          0.00    -22.50      0.00
   0.00000000   0.00000000  -0.00002780          0.00      0.00     -4.09

 !ASE

     Writing output data file calc.save

     General routines

     Parallel routines

   This run was terminated on:  19:19:51   2Jan2019

   JOB DONE.
Job  /afs/slac/g/suncat/bin/suncat-tsmpirun -x LD_LIBRARY_PATH -wdir /scratch/qe649499_QONWA pw.x -in pw.inp

TID   HOST_NAME   COMMAND_LINE            STATUS            TERMINATION_TIME
00000 suncat0097 pw.x -in pw.inp   Done                     01/02/2019 19:19:51
00001 suncat0097 pw.x -in pw.inp   Done                     01/02/2019 19:19:51
00002 suncat0097 pw.x -in pw.inp   Done                     01/02/2019 19:19:51
00003 suncat0097 pw.x -in pw.inp   Done                     01/02/2019 19:19:51
00004 suncat0097 pw.x -in pw.inp   Done                     01/02/2019 19:19:51
00005 suncat0097 pw.x -in pw.inp   Done                     01/02/2019 19:19:51
00006 suncat0097 pw.x -in pw.inp   Done                     01/02/2019 19:19:51
00007 suncat0097 pw.x -in pw.inp   Done                     01/02/2019 19:19:51
00008 suncat0094 pw.x -in pw.inp   Done                     01/02/2019 19:19:51
00009 suncat0094 pw.x -in pw.inp   Done                     01/02/2019 19:19:51
00010 suncat0094 pw.x -in pw.inp   Done                     01/02/2019 19:19:51
00011 suncat0094 pw.x -in pw.inp   Done                     01/02/2019 19:19:51
00012 suncat0094 pw.x -in pw.inp   Done                     01/02/2019 19:19:51
00013 suncat0094 pw.x -in pw.inp   Done                     01/02/2019 19:19:51
00014 suncat0094 pw.x -in pw.inp   Done                     01/02/2019 19:19:51
00015 suncat0094 pw.x -in pw.inp   Done                     01/02/2019 19:19:51
00016 suncat0093 pw.x -in pw.inp   Done                     01/02/2019 19:19:51
00017 suncat0093 pw.x -in pw.inp   Done                     01/02/2019 19:19:51
00018 suncat0093 pw.x -in pw.inp   Done                     01/02/2019 19:19:51
00019 suncat0093 pw.x -in pw.inp   Done                     01/02/2019 19:19:51
00020 suncat0093 pw.x -in pw.inp   Done                     01/02/2019 19:19:51
00021 suncat0093 pw.x -in pw.inp   Done                     01/02/2019 19:19:51
00022 suncat0093 pw.x -in pw.inp   Done                     01/02/2019 19:19:51
00023 suncat0093 pw.x -in pw.inp   Done                     01/02/2019 19:19:51
00024 suncat0091 pw.x -in pw.inp   Done                     01/02/2019 19:19:51
00025 suncat0091 pw.x -in pw.inp   Done                     01/02/2019 19:19:51
00026 suncat0091 pw.x -in pw.inp   Done                     01/02/2019 19:19:51
00027 suncat0091 pw.x -in pw.inp   Done                     01/02/2019 19:19:51
00028 suncat0091 pw.x -in pw.inp   Done                     01/02/2019 19:19:51
00029 suncat0091 pw.x -in pw.inp   Done                     01/02/2019 19:19:51
00030 suncat0091 pw.x -in pw.inp   Done                     01/02/2019 19:19:51
00031 suncat0091 pw.x -in pw.inp   Done                     01/02/2019 19:19:51
00032 suncat0029 pw.x -in pw.inp   Done                     01/02/2019 19:19:51
00033 suncat0029 pw.x -in pw.inp   Done                     01/02/2019 19:19:51
00034 suncat0029 pw.x -in pw.inp   Done                     01/02/2019 19:19:51
00035 suncat0029 pw.x -in pw.inp   Done                     01/02/2019 19:19:51
00036 suncat0029 pw.x -in pw.inp   Done                     01/02/2019 19:19:51
00037 suncat0029 pw.x -in pw.inp   Done                     01/02/2019 19:19:51
00038 suncat0029 pw.x -in pw.inp   Done                     01/02/2019 19:19:51
00039 suncat0029 pw.x -in pw.inp   Done                     01/02/2019 19:19:51
00040 suncat0019 pw.x -in pw.inp   Done                     01/02/2019 19:19:51
00041 suncat0019 pw.x -in pw.inp   Done                     01/02/2019 19:19:51
00042 suncat0019 pw.x -in pw.inp   Done                     01/02/2019 19:19:51
00043 suncat0019 pw.x -in pw.inp   Done                     01/02/2019 19:19:51
00044 suncat0019 pw.x -in pw.inp   Done                     01/02/2019 19:19:51
00045 suncat0019 pw.x -in pw.inp   Done                     01/02/2019 19:19:51
00046 suncat0019 pw.x -in pw.inp   Done                     01/02/2019 19:19:51
00047 suncat0019 pw.x -in pw.inp   Done                     01/02/2019 19:19:51
00048 suncat0018 pw.x -in pw.inp   Done                     01/02/2019 19:19:51
00049 suncat0018 pw.x -in pw.inp   Done                     01/02/2019 19:19:51
00050 suncat0018 pw.x -in pw.inp   Done                     01/02/2019 19:19:51
00051 suncat0018 pw.x -in pw.inp   Done                     01/02/2019 19:19:51
00052 suncat0018 pw.x -in pw.inp   Done                     01/02/2019 19:19:51
00053 suncat0018 pw.x -in pw.inp   Done                     01/02/2019 19:19:51
00054 suncat0018 pw.x -in pw.inp   Done                     01/02/2019 19:19:51
00055 suncat0018 pw.x -in pw.inp   Done                     01/02/2019 19:19:51
00056 suncat0001 pw.x -in pw.inp   Done                     01/02/2019 19:19:51
00057 suncat0001 pw.x -in pw.inp   Done                     01/02/2019 19:19:51
00058 suncat0001 pw.x -in pw.inp   Done                     01/02/2019 19:19:51
00059 suncat0001 pw.x -in pw.inp   Done                     01/02/2019 19:19:51
00060 suncat0001 pw.x -in pw.inp   Done                     01/02/2019 19:19:51
00061 suncat0001 pw.x -in pw.inp   Done                     01/02/2019 19:19:51
00062 suncat0001 pw.x -in pw.inp   Done                     01/02/2019 19:19:51
00063 suncat0001 pw.x -in pw.inp   Done                     01/02/2019 19:19:51