     Program PWSCF v.5.1rc2 (svn rev. 11289) starts on 19Dec2018 at  6:12:29

     Current dimensions of program PWSCF are:
     Max number of different atomic species (ntypx) = 10
     Max number of k-points (npk) =  40000
     Max angular momentum in pseudopotentials (lmaxx) =  3
     Presently stress not available with electric field

     IMPORTANT: XC functional enforced from input :
     Exchange-correlation      = BEEF-VDW ( 1  4 27 13 2)
     Any further DFT definition will be discarded
     Please, verify this is what you really want

     Subspace diagonalization in iterative solution of the eigenvalue problem:
     a serial algorithm will be used

     Found symmetry operation: I + ( -0.5000  0.5000  0.0000)
     This is a supercell, fractional translations are disabled

     Generating pointlists ...
     new r_m :   0.4125 (alat units)  0.7795 (a.u.) for type    1
     new r_m :   0.4125 (alat units)  0.7795 (a.u.) for type    2

     bravais-lattice index     =            0
     lattice parameter (alat)  =       1.8897  a.u.
     unit-cell volume          =    4005.2928 (a.u.)^3
     number of atoms/cell      =           12
     number of atomic types    =            2
     number of electrons       =       186.00
     number of Kohn-Sham states=          123
     kinetic-energy cutoff     =      36.7493  Ry
     charge density cutoff     =     367.4932  Ry
     convergence threshold     =      1.0E-06
     mixing beta               =       0.1000
     number of iterations used =           10  plain     mixing
     Exchange-correlation      = BEEF-VDW ( 1  4 27 13 2)
     nstep                     =           50

     celldm(1)=   1.889726  celldm(2)=   0.000000  celldm(3)=   0.000000
     celldm(4)=   0.000000  celldm(5)=   0.000000  celldm(6)=   0.000000

     crystal axes: (cart. coord. in units of alat)
               a(1) = (   5.291383   0.000000   0.000000 )
               a(2) = (   2.597878   4.609747   0.000000 )
               a(3) = (   0.000000   0.000000  24.332761 )

     reciprocal axes: (cart. coord. in units 2 pi/alat)
               b(1) = (  0.188987 -0.106506  0.000000 )
               b(2) = (  0.000000  0.216932  0.000000 )
               b(3) = (  0.000000  0.000000  0.041097 )

     PseudoPot. # 1 for Co read from file:
     /afs/slac.stanford.edu/u/if/mamunm/psp/gbrv1.5pbe/Co.UPF
     MD5 check sum: 5f91765df6ddd3222702df6e7b74a16d
     Pseudo is Ultrasoft + core correction, Zval = 17.0
     Generated by new atomic code, or converted to UPF format
     Using radial grid of  863 points,  6 beta functions with:
                l(1) =   0
                l(2) =   0
                l(3) =   1
                l(4) =   1
                l(5) =   2
                l(6) =   2
     Q(r) pseudized with  8 coefficients,  rinner =    1.200   1.200   1.200
                                                       1.200   1.200

     PseudoPot. # 2 for W  read from file:
     /afs/slac.stanford.edu/u/if/mamunm/psp/gbrv1.5pbe/W.UPF
     MD5 check sum: 9c083fa34c2a2ea0f02f1f893e16e1c8
     Pseudo is Ultrasoft + core correction, Zval = 14.0
     Generated by new atomic code, or converted to UPF format
     Using radial grid of  923 points,  8 beta functions with:
                l(1) =   0
                l(2) =   0
                l(3) =   0
                l(4) =   1
                l(5) =   1
                l(6) =   2
                l(7) =   2
                l(8) =   3
     Q(r) pseudized with  6 coefficients,  rinner =    1.350   1.350   1.350
                                                       1.350   1.350   1.350
                                                       1.350

     vdW kernel table read from file vdW_kernel_table
     MD5 check sum: 095c7af220d748ca6e76c0b4c6cfb241

     atomic species   valence    mass     pseudopotential
        Co1           17.00    58.93319     Co( 1.00)
        W1            14.00   183.84000     W ( 1.00)

     Starting magnetic structure
     atomic species   magnetization
        Co1          0.118
        W1           0.143

     No symmetry found

   Cartesian axes

     site n.     atom                  positions (alat units)
         1           Co1 tau(   1) = (   0.0000000   0.0000000  10.0000000  )
         2           Co1 tau(   2) = (   3.9446305   2.3048734  10.0000000  )
         3           W1  tau(   3) = (   2.6456916   0.0000000  10.0000000  )
         4           W1  tau(   4) = (   1.2989390   2.3048734  10.0000000  )
         5           Co1 tau(   5) = (   5.2913831   3.0917897  12.1663804  )
         6           Co1 tau(   6) = (   1.3467526   0.7869163  12.1663804  )
         7           W1  tau(   7) = (   2.6456916   3.0917897  12.1663804  )
         8           W1  tau(   8) = (   3.9924441   0.7869163  12.1663804  )
         9           Co1 tau(   9) = (   2.6935052   1.5738327  14.3327608  )
        10           Co1 tau(  10) = (   6.6381357   3.8787061  14.3327608  )
        11           W1  tau(  11) = (   5.3391967   1.5738327  14.3327608  )
        12           W1  tau(  12) = (   3.9924441   3.8787061  14.3327608  )

     number of k points=    40  Fermi-Dirac smearing, width (Ry)=  0.0110
                       cart. coord. in units 2pi/alat
        k(    1) = (   0.0000000   0.0000000   0.0000000), wk =   0.0277778
        k(    2) = (   0.0000000   0.0361553   0.0000000), wk =   0.0555556
        k(    3) = (   0.0000000   0.0723106   0.0000000), wk =   0.0555556
        k(    4) = (   0.0000000  -0.1084658   0.0000000), wk =   0.0277778
        k(    5) = (   0.0314978  -0.0177509   0.0000000), wk =   0.0555556
        k(    6) = (   0.0314978   0.0184043   0.0000000), wk =   0.0555556
        k(    7) = (   0.0314978   0.0545596   0.0000000), wk =   0.0555556
        k(    8) = (   0.0314978  -0.1262168   0.0000000), wk =   0.0555556
        k(    9) = (   0.0314978  -0.0900615   0.0000000), wk =   0.0555556
        k(   10) = (   0.0314978  -0.0539062   0.0000000), wk =   0.0555556
        k(   11) = (   0.0629955  -0.0355019   0.0000000), wk =   0.0555556
        k(   12) = (   0.0629955   0.0006534   0.0000000), wk =   0.0555556
        k(   13) = (   0.0629955   0.0368087   0.0000000), wk =   0.0555556
        k(   14) = (   0.0629955  -0.1439677   0.0000000), wk =   0.0555556
        k(   15) = (   0.0629955  -0.1078124   0.0000000), wk =   0.0555556
        k(   16) = (   0.0629955  -0.0716571   0.0000000), wk =   0.0555556
        k(   17) = (  -0.0944933   0.0532528   0.0000000), wk =   0.0277778
        k(   18) = (  -0.0944933   0.0894081   0.0000000), wk =   0.0555556
        k(   19) = (  -0.0944933   0.1255634   0.0000000), wk =   0.0555556
        k(   20) = (  -0.0944933  -0.0552130   0.0000000), wk =   0.0277778
        k(   21) = (   0.0000000   0.0000000   0.0000000), wk =   0.0277778
        k(   22) = (   0.0000000   0.0361553   0.0000000), wk =   0.0555556
        k(   23) = (   0.0000000   0.0723106   0.0000000), wk =   0.0555556
        k(   24) = (   0.0000000  -0.1084658   0.0000000), wk =   0.0277778
        k(   25) = (   0.0314978  -0.0177509   0.0000000), wk =   0.0555556
        k(   26) = (   0.0314978   0.0184043   0.0000000), wk =   0.0555556
        k(   27) = (   0.0314978   0.0545596   0.0000000), wk =   0.0555556
        k(   28) = (   0.0314978  -0.1262168   0.0000000), wk =   0.0555556
        k(   29) = (   0.0314978  -0.0900615   0.0000000), wk =   0.0555556
        k(   30) = (   0.0314978  -0.0539062   0.0000000), wk =   0.0555556
        k(   31) = (   0.0629955  -0.0355019   0.0000000), wk =   0.0555556
        k(   32) = (   0.0629955   0.0006534   0.0000000), wk =   0.0555556
        k(   33) = (   0.0629955   0.0368087   0.0000000), wk =   0.0555556
        k(   34) = (   0.0629955  -0.1439677   0.0000000), wk =   0.0555556
        k(   35) = (   0.0629955  -0.1078124   0.0000000), wk =   0.0555556
        k(   36) = (   0.0629955  -0.0716571   0.0000000), wk =   0.0555556
        k(   37) = (  -0.0944933   0.0532528   0.0000000), wk =   0.0277778
        k(   38) = (  -0.0944933   0.0894081   0.0000000), wk =   0.0555556
        k(   39) = (  -0.0944933   0.1255634   0.0000000), wk =   0.0555556
        k(   40) = (  -0.0944933  -0.0552130   0.0000000), wk =   0.0277778

     Largest allocated arrays     est. size (Mb)     dimensions
     Largest temporary arrays     est. size (Mb)     dimensions

     Check: negative/imaginary core charge=   -0.000003    0.000000

     Initial potential from superposition of free atoms
     Check: negative starting charge=(component1):   -0.218987
     Check: negative starting charge=(component2):   -0.164218

     starting charge  179.39792, renormalised to  186.00000

     negative rho (up, down):  2.270E-01 1.703E-01

     *
     * You are using vdW-DF for exchange-correlation in this calculation.
     * Please cite the following three references that made this development
     * possible:
     *
     *   M. Dion, H. Rydberg, E. Schroder, D. C. Langreth, and
     *   B. I. Lundqvist, Phys. Rev. Lett. 92, 246401 (2004).
     *
     *   T. Thonhauser, V. R. Cooper, S. Li, A. Puzder, P. Hyldgaard, and
     *   D. C. Langreth, Phys. Rev. B 76, 125112 (2007).
     *
     *   G. Roman-Perez and J. M. Soler, Phys. Rev. Lett. 103, 096102 (2009).
     *
     *
     * If you are using vdW-DF2, please also cite:
     *
     *   K. Lee, E. D. Murray, L. Kong, B. I. Lundqvist, and
     *   D. C. Langreth, Phys. Rev. B 82, 081101(R) (2010).
     *
     *
     * If you are calculating the stress with vdW-DF, please also cite:
     *
     *   R. Sabatini, E. Kucukbenli, B. Kolb, T. Thonhauser, and
     *   S. de Gironcoli, J. Phys.: Condens. Matter 24, 424209 (2012).
     *

     Carrying out vdW-DF run using the following parameters:

     Nqs =      20    Nr_points =    1024   r_max =   100.000
     q_mesh =
               0.00001000     0.04494208     0.09755937     0.15916263
               0.23128650     0.31572767     0.41458969     0.53033537
               0.66584808     0.82450364     1.01025438     1.22772762
               1.48234092     1.78043706     2.12944203     2.53805004
               3.01644009     3.57652955     4.23227104     5.00000000

     Gradients computed in reciprocal space

     Adding external electric field

     Computed dipole along edir(3) :
        Dipole                0.0000 Ry au,          0.0000 Debye
        Dipole field          0.0000 Ry au

        Potential amp.       -0.0000 Ry
        Total length         44.8327 bohr

[...]

     Starting wfc are  156 randomized atomic wfcs

     Self-consistent Calculation

     iteration #  1     ecut=    36.75 Ry     beta=0.10
     Davidson diagonalization with overlap
     ethr =  1.00E-02,  avg # of iterations =  6.8

[...]

     Magnetic moment per site:
     atom:    1    charge:    8.3513    magn:    0.9666    constr:    0.0000
     atom:    2    charge:    8.3513    magn:    0.9666    constr:    0.0000
     atom:    3    charge:    1.6881    magn:    0.2186    constr:    0.0000
     atom:    4    charge:    1.6881    magn:    0.2186    constr:    0.0000
[...]

     PseudoPot. # 2 for W  read from file:
     /afs/slac.stanford.edu/u/if/mamunm/psp/gbrv1.5pbe/W.UPF
     MD5 check sum: 9c083fa34c2a2ea0f02f1f893e16e1c8
     Pseudo is Ultrasoft + core correction, Zval = 14.0
     Generated by new atomic code, or converted to UPF format
     Using radial grid of  923 points,  8 beta functions with:
                l(1) =   0
                l(2) =   0
                l(3) =   0
                l(4) =   1
                l(5) =   1
                l(6) =   2
                l(7) =   2
                l(8) =   3
     Q(r) pseudized with  6 coefficients,  rinner =    1.350   1.350   1.350
                                                       1.350   1.350   1.350
                                                       1.350

     vdW kernel table read from file vdW_kernel_table
     MD5 check sum: 095c7af220d748ca6e76c0b4c6cfb241

     atomic species   valence    mass     pseudopotential
        Co1           17.00    58.93319     Co( 1.00)
        W1            14.00   183.84000     W ( 1.00)

     Starting magnetic structure
     atomic species   magnetization
        Co1          0.118
        W1           0.143

     No symmetry found

   Cartesian axes

     site n.     atom                  positions (alat units)
         1           Co1 tau(   1) = (   0.0000000   0.0000000  10.0000000  )
         2           Co1 tau(   2) = (   3.9446305   2.3048734  10.0000000  )
         3           W1  tau(   3) = (   2.6456916   0.0000000  10.0000000  )
         4           W1  tau(   4) = (   1.2989390   2.3048734  10.0000000  )
         5           Co1 tau(   5) = (   5.2913831   3.0917897  12.1663804  )
         6           Co1 tau(   6) = (   1.3467526   0.7869163  12.1663804  )
         7           W1  tau(   7) = (   2.6456916   3.0917897  12.1663804  )
         8           W1  tau(   8) = (   3.9924441   0.7869163  12.1663804  )
         9           Co1 tau(   9) = (   2.7339852   1.5975063  14.2620269  )
        10           Co1 tau(  10) = (   6.6784597   3.9022476  14.2619134  )
        11           W1  tau(  11) = (   5.3957388   1.6068945  14.2555496  )
        12           W1  tau(  12) = (   4.0490157   3.9117376  14.2555574  )

     number of k points=    40  Fermi-Dirac smearing, width (Ry)=  0.0110
                       cart. coord. in units 2pi/alat
        k(    1) = (   0.0000000   0.0000000   0.0000000), wk =   0.0277778
        k(    2) = (   0.0000000   0.0361553   0.0000000), wk =   0.0555556
        k(    3) = (   0.0000000   0.0723106   0.0000000), wk =   0.0555556
        k(    4) = (   0.0000000  -0.1084658   0.0000000), wk =   0.0277778
        k(    5) = (   0.0314978  -0.0177509   0.0000000), wk =   0.0555556
        k(    6) = (   0.0314978   0.0184043   0.0000000), wk =   0.0555556
        k(    7) = (   0.0314978   0.0545596   0.0000000), wk =   0.0555556
        k(    8) = (   0.0314978  -0.1262168   0.0000000), wk =   0.0555556
        k(    9) = (   0.0314978  -0.0900615   0.0000000), wk =   0.0555556
        k(   10) = (   0.0314978  -0.0539062   0.0000000), wk =   0.0555556
        k(   11) = (   0.0629955  -0.0355019   0.0000000), wk =   0.0555556
        k(   12) = (   0.0629955   0.0006534   0.0000000), wk =   0.0555556
        k(   13) = (   0.0629955   0.0368087   0.0000000), wk =   0.0555556
        k(   14) = (   0.0629955  -0.1439677   0.0000000), wk =   0.0555556
        k(   15) = (   0.0629955  -0.1078124   0.0000000), wk =   0.0555556
        k(   16) = (   0.0629955  -0.0716571   0.0000000), wk =   0.0555556
        k(   17) = (  -0.0944933   0.0532528   0.0000000), wk =   0.0277778
        k(   18) = (  -0.0944933   0.0894081   0.0000000), wk =   0.0555556
        k(   19) = (  -0.0944933   0.1255634   0.0000000), wk =   0.0555556
        k(   20) = (  -0.0944933  -0.0552130   0.0000000), wk =   0.0277778
        k(   21) = (   0.0000000   0.0000000   0.0000000), wk =   0.0277778
        k(   22) = (   0.0000000   0.0361553   0.0000000), wk =   0.0555556
        k(   23) = (   0.0000000   0.0723106   0.0000000), wk =   0.0555556
        k(   24) = (   0.0000000  -0.1084658   0.0000000), wk =   0.0277778
        k(   25) = (   0.0314978  -0.0177509   0.0000000), wk =   0.0555556
        k(   26) = (   0.0314978   0.0184043   0.0000000), wk =   0.0555556
        k(   27) = (   0.0314978   0.0545596   0.0000000), wk =   0.0555556
        k(   28) = (   0.0314978  -0.1262168   0.0000000), wk =   0.0555556
        k(   29) = (   0.0314978  -0.0900615   0.0000000), wk =   0.0555556
        k(   30) = (   0.0314978  -0.0539062   0.0000000), wk =   0.0555556
        k(   31) = (   0.0629955  -0.0355019   0.0000000), wk =   0.0555556
        k(   32) = (   0.0629955   0.0006534   0.0000000), wk =   0.0555556
        k(   33) = (   0.0629955   0.0368087   0.0000000), wk =   0.0555556
        k(   34) = (   0.0629955  -0.1439677   0.0000000), wk =   0.0555556
        k(   35) = (   0.0629955  -0.1078124   0.0000000), wk =   0.0555556
        k(   36) = (   0.0629955  -0.0716571   0.0000000), wk =   0.0555556
        k(   37) = (  -0.0944933   0.0532528   0.0000000), wk =   0.0277778
        k(   38) = (  -0.0944933   0.0894081   0.0000000), wk =   0.0555556
        k(   39) = (  -0.0944933   0.1255634   0.0000000), wk =   0.0555556
        k(   40) = (  -0.0944933  -0.0552130   0.0000000), wk =   0.0277778

     Largest allocated arrays     est. size (Mb)     dimensions
     Largest temporary arrays     est. size (Mb)     dimensions

     Check: negative/imaginary core charge=   -0.000003    0.000000

     Initial potential from superposition of free atoms
     Check: negative starting charge=(component1):   -0.218393
     Check: negative starting charge=(component2):   -0.163770

     starting charge  179.39792, renormalised to  186.00000

[...]

     *
     * You are using vdW-DF for exchange-correlation in this calculation.
     * Please cite the following three references that made this development
     * possible:
     *
     *   M. Dion, H. Rydberg, E. Schroder, D. C. Langreth, and
     *   B. I. Lundqvist, Phys. Rev. Lett. 92, 246401 (2004).
     *
     *   T. Thonhauser, V. R. Cooper, S. Li, A. Puzder, P. Hyldgaard, and
     *   D. C. Langreth, Phys. Rev. B 76, 125112 (2007).
     *
     *   G. Roman-Perez and J. M. Soler, Phys. Rev. Lett. 103, 096102 (2009).
     *
     *
     * If you are using vdW-DF2, please also cite:
     *
     *   K. Lee, E. D. Murray, L. Kong, B. I. Lundqvist, and
     *   D. C. Langreth, Phys. Rev. B 82, 081101(R) (2010).
     *
     *
     * If you are calculating the stress with vdW-DF, please also cite:
     *
     *   R. Sabatini, E. Kucukbenli, B. Kolb, T. Thonhauser, and
     *   S. de Gironcoli, J. Phys.: Condens. Matter 24, 424209 (2012).
     *

     Carrying out vdW-DF run using the following parameters:

     Nqs =      20    Nr_points =    1024   r_max =   100.000
     q_mesh =
               0.00001000     0.04494208     0.09755937     0.15916263
               0.23128650     0.31572767     0.41458969     0.53033537
               0.66584808     0.82450364     1.01025438     1.22772762
               1.48234092     1.78043706     2.12944203     2.53805004
               3.01644009     3.57652955     4.23227104     5.00000000

     Gradients computed in reciprocal space

[...]

     Starting wfc are  156 randomized atomic wfcs

     Self-consistent Calculation

[...]

     total energy              =   -2759.56433322 Ry
     Harris-Foulkes estimate   =   -2759.56436983 Ry
     estimated scf accuracy    <       0.00000405 Ry

[...]

     iteration # 78     ecut=    36.75 Ry     beta=0.10
     Davidson diagonalization with overlap
     ethr =  5.47E-10,  avg # of iterations =  4.0

[...]

     negative rho (up, down):  1.975E-01 1.978E-01

[...]

     Adding external electric field

     Computed dipole along edir(3) :
        Dipole                0.0173 Ry au,          0.0441 Debye
        Dipole field          0.0001 Ry au

        Potential amp.       -0.0049 Ry
        Total length         44.8327 bohr

     Magnetic moment per site:
     atom:    1    charge:    8.2765    magn:    0.1638    constr:    0.0000
     atom:    2    charge:    8.2765    magn:    0.1639    constr:    0.0000
     atom:    3    charge:    1.6391    magn:   -0.0016    constr:    0.0000
     atom:    4    charge:    1.6391    magn:   -0.0016    constr:    0.0000
     atom:    5    charge:    8.2687    magn:   -0.0101    constr:    0.0000
     atom:    6    charge:    8.2687    magn:   -0.0098    constr:    0.0000
     atom:    7    charge:    1.6416    magn:   -0.0004    constr:    0.0000
     atom:    8    charge:    1.6416    magn:   -0.0004    constr:    0.0000
     atom:    9    charge:    8.2761    magn:    0.0058    constr:    0.0000
     atom:   10    charge:    8.2761    magn:    0.0059    constr:    0.0000
     atom:   11    charge:    1.6388    magn:   -0.0002    constr:    0.0000
     atom:   12    charge:    1.6388    magn:   -0.0002    constr:    0.0000

     End of self-consistent calculation

 ------ SPIN UP ------------

[...]

 ------ SPIN DOWN ----------

[...]

          k = 0.0630-0.0717 0.0000 ( 15082 PWs)   bands (ev):

[...]

          k =-0.0945-0.0552 0.0000 ( 15102 PWs)   bands (ev):

   -93.3814 -93.3742 -93.0010 -92.9938 -92.7907 -92.7836 -72.6684 -72.6307
   -72.5904 -72.5901 -72.5525 -72.5112 -56.7424 -56.7346 -56.7116 -56.6302
   -56.6144 -56.6070 -56.3878 -56.3805 -56.2828 -56.2614 -56.2540 -56.2021
   -56.2001 -56.1928 -56.0833 -56.0348 -56.0274 -56.0024 -37.3120 -37.1671
   -37.1488 -37.1203 -37.0246 -36.8518 -36.8425 -36.7458 -36.7313 -36.7208
   -36.6901 -36.6305 -36.6170 -36.3476 -36.2438 -36.2242 -36.0932 -36.0647
    -4.9122  -4.4133  -3.4194  -2.9867  -2.6532  -2.4654  -2.4172  -2.1125
    -2.0165  -1.7438  -1.5969  -1.4796  -1.4758  -1.1641  -1.0614  -0.9524
    -0.8931  -0.7657  -0.6026  -0.5350  -0.5093  -0.1153  -0.0168   0.0859
     0.1511   0.2505   0.2589   0.2635   0.3203   0.3328   0.3381   0.4310
     0.4477   0.5093   0.5436   0.5670   0.6711   0.6759   0.8141   0.8286
     0.9012   0.9984   1.0195   1.1504   1.2232   1.4781   1.5366   1.5722
     1.9896   2.2424   2.5415   2.5821   2.6629   3.0205   3.2451   3.6123
     3.7290   3.7458   3.9520   4.0814   4.4167   4.5585   4.9237   5.0623
     5.1589   5.4706   5.9190   6.2192   6.7516   7.5396   7.8730   7.9801
     8.0206   8.4848   8.5577

     the Fermi energy is     1.7495 ev

!    total energy              =   -2759.56437162 Ry
     Harris-Foulkes estimate   =   -2759.56437139 Ry
     estimated scf accuracy    <       0.00000043 Ry

     The total energy is the sum of the following terms:

     one-electron contribution =  -22461.38627590 Ry
     hartree contribution      =   11226.90347292 Ry
     xc contribution           =    -457.75417484 Ry
     ewald contribution        =    8932.75202053 Ry
     electric field correction =       0.00000094 Ry
     smearing contrib. (-TS)   =      -0.07941528 Ry

     total magnetization       =     0.44 Bohr mag/cell
     absolute magnetization    =     0.89 Bohr mag/cell

     convergence has been achieved in  78 iterations

 BEEF-vdW xc energy contributions
           1 :   -403.046053534205
           2 :    369.903708598585
           3 :   -312.275589726393
           4 :    243.914039357444
           5 :   -178.518062832061
           6 :    125.328561990989
           7 :   -87.2194150833567
           8 :    61.6558061214582
           9 :   -43.5761153240876
          10 :    28.4963982234518
          11 :   -14.3731410265534
          12 :    1.64685111138789
          13 :    8.05401366385581
          14 :   -13.5133478191489
          15 :    14.8704692530683
          16 :   -13.5448051350239
          17 :    11.4089923888137
          18 :   -9.84673205259378
          19 :    9.24494729809578
          20 :   -9.12915539411830
          21 :    8.73794089962871
          22 :   -7.63122677781530
          23 :    5.96574908800380
          24 :   -4.33828938877605
          25 :    3.35989996728358
          26 :   -3.27241677202085
          27 :    3.83640263940492
          28 :   -4.52916045535835
          29 :    4.88354725691255
          30 :   -4.74235435484934
          31 :   -35.4543260791135
          32 :   -25.7735320804378

     Forces acting on atoms (Ry/au):

     negative rho (up, down):  1.975E-01 1.978E-01
     atom    1 type  1   force =    -0.00095139   -0.00055574    0.01379882
     atom    2 type  1   force =    -0.00092668   -0.00054166    0.01379984
     atom    3 type  2   force =    -0.00476408   -0.00277156    0.01760115
     atom    4 type  2   force =    -0.00475352   -0.00278962    0.01760078
     atom    5 type  1   force =     0.00262176    0.00153202   -0.01413860
     atom    6 type  1   force =     0.00262353    0.00153285   -0.01412721
     atom    7 type  2   force =     0.00236719    0.00137782   -0.01675797
     atom    8 type  2   force =     0.00235993    0.00138431   -0.01675806
     atom    9 type  1   force =     0.00012719    0.00006732    0.00072232
     atom   10 type  1   force =     0.00014416    0.00009118    0.00075106
     atom   11 type  2   force =     0.00059265    0.00030616   -0.00124410
     atom   12 type  2   force =     0.00055924    0.00036692   -0.00124803

     Total force =     0.045423     Total SCF correction =     0.004642
     SCF correction compared to forces is large: reduce conv_thr to get better values

     entering subroutine stress ...

     negative rho (up, down):  1.975E-01 1.978E-01
          total   stress  (Ry/bohr**3)                   (kbar)     P=  -30.26
  -0.00025864  -0.00002937   0.00001375        -38.05     -4.32      2.02
  -0.00002937  -0.00022554   0.00000804         -4.32    -33.18      1.18
   0.00001375   0.00000804  -0.00013287          2.02      1.18    -19.55

 !ASE

     Writing output data file calc.save

     General routines

     Parallel routines

   This run was terminated on:  14: 6: 2  19Dec2018

   JOB DONE.
Job  /afs/slac/g/suncat/bin/suncat-tsmpirun -x LD_LIBRARY_PATH -wdir /scratch/qe529707_RoMau pw.x -in pw.inp

TID   HOST_NAME   COMMAND_LINE            STATUS            TERMINATION_TIME
00000 suncat0199 pw.x -in pw.inp   Done                     12/19/2018 14:06:02
00001 suncat0199 pw.x -in pw.inp   Done                     12/19/2018 14:06:02
00002 suncat0199 pw.x -in pw.inp   Done                     12/19/2018 14:06:02
00003 suncat0199 pw.x -in pw.inp   Done                     12/19/2018 14:06:02
00004 suncat0199 pw.x -in pw.inp   Done                     12/19/2018 14:06:02
00005 suncat0199 pw.x -in pw.inp   Done                     12/19/2018 14:06:02
00006 suncat0199 pw.x -in pw.inp   Done                     12/19/2018 14:06:02
00007 suncat0199 pw.x -in pw.inp   Done                     12/19/2018 14:06:02
00008 suncat0010 pw.x -in pw.inp   Done                     12/19/2018 14:06:02
00009 suncat0010 pw.x -in pw.inp   Done                     12/19/2018 14:06:02
00010 suncat0010 pw.x -in pw.inp   Done                     12/19/2018 14:06:02
00011 suncat0010 pw.x -in pw.inp   Done                     12/19/2018 14:06:02
00012 suncat0010 pw.x -in pw.inp   Done                     12/19/2018 14:06:02
00013 suncat0010 pw.x -in pw.inp   Done                     12/19/2018 14:06:02
00014 suncat0010 pw.x -in pw.inp   Done                     12/19/2018 14:06:02
00015 suncat0010 pw.x -in pw.inp   Done                     12/19/2018 14:06:02
00016 suncat0198 pw.x -in pw.inp   Done                     12/19/2018 14:06:02
00017 suncat0198 pw.x -in pw.inp   Done                     12/19/2018 14:06:02
00018 suncat0198 pw.x -in pw.inp   Done                     12/19/2018 14:06:02
00019 suncat0198 pw.x -in pw.inp   Done                     12/19/2018 14:06:02
00020 suncat0198 pw.x -in pw.inp   Done                     12/19/2018 14:06:02
00021 suncat0198 pw.x -in pw.inp   Done                     12/19/2018 14:06:02
00022 suncat0198 pw.x -in pw.inp   Done                     12/19/2018 14:06:02
00023 suncat0198 pw.x -in pw.inp   Done                     12/19/2018 14:06:02
00024 suncat0196 pw.x -in pw.inp   Done                     12/19/2018 14:06:02
00025 suncat0196 pw.x -in pw.inp   Done                     12/19/2018 14:06:02
00026 suncat0196 pw.x -in pw.inp   Done                     12/19/2018 14:06:02
00027 suncat0196 pw.x -in pw.inp   Done                     12/19/2018 14:06:02
00028 suncat0196 pw.x -in pw.inp   Done                     12/19/2018 14:06:02
00029 suncat0196 pw.x -in pw.inp   Done                     12/19/2018 14:06:02
00030 suncat0196 pw.x -in pw.inp   Done                     12/19/2018 14:06:02
00031 suncat0196 pw.x -in pw.inp   Done                     12/19/2018 14:06:02