     Program PWSCF v.5.1rc2 (svn rev. 11289) starts on 27Dec2018 at 12:36:14

     Current dimensions of program PWSCF are:
     Max number of different atomic species (ntypx) = 10
     Max number of k-points (npk) =  40000
     Max angular momentum in pseudopotentials (lmaxx) =  3
     Presently stress not available with electric field

     IMPORTANT: XC functional enforced from input :
     Exchange-correlation      = BEEF-VDW ( 1  4 27 13 2)
     Any further DFT definition will be discarded
     Please, verify this is what you really want

     Subspace diagonalization in iterative solution of the eigenvalue problem:
     a serial algorithm will be used

     Generating pointlists ...
     new r_m :   0.4125 (alat units)  0.7795 (a.u.) for type    1
     new r_m :   0.4125 (alat units)  0.7795 (a.u.) for type    2

     bravais-lattice index     =            0
     lattice parameter (alat)  =       1.8897  a.u.
     unit-cell volume          =    4039.8367 (a.u.)^3
     number of atoms/cell      =           12
     number of atomic types    =            2
     number of electrons       =       198.00
     number of Kohn-Sham states=          129
     kinetic-energy cutoff     =      36.7493  Ry
     charge density cutoff     =     367.4932  Ry
     convergence threshold     =      1.0E-06
     mixing beta               =       0.1000
     number of iterations used =           10  plain     mixing
     Exchange-correlation      = BEEF-VDW ( 1  4 27 13 2)
     nstep                     =           50

     celldm(1)=   1.889726  celldm(2)=   0.000000  celldm(3)=   0.000000
     celldm(4)=   0.000000  celldm(5)=   0.000000  celldm(6)=   0.000000

     crystal axes: (cart. coord. in units of alat)
               a(1) = (   5.328022   0.000000   0.000000 )
               a(2) = (  -2.664011   4.614203   0.000000 )
               a(3) = (   0.000000   0.000000  24.350312 )

     reciprocal axes: (cart. coord. in units 2 pi/alat)
               b(1) = (  0.187687  0.108361  0.000000 )
               b(2) = (  0.000000  0.216722  0.000000 )
               b(3) = (  0.000000  0.000000  0.041067 )

     PseudoPot. # 1 for Ni read from file:
     /afs/slac.stanford.edu/u/if/mamunm/psp/gbrv1.5pbe/Ni.UPF
     MD5 check sum: 1ee80287db30b12d2bc1f57a5b5d6409
     Pseudo is Ultrasoft + core correction, Zval = 18.0
     Generated by new atomic code, or converted to UPF format
     Using radial grid of  865 points,  6 beta functions with:
                l(1) =   0
                l(2) =   0
                l(3) =   1
                l(4) =   1
                l(5) =   2
                l(6) =   2
     Q(r) pseudized with 10 coefficients,  rinner =    0.980   0.980   0.980
                                                       0.980   0.980

     PseudoPot. # 2 for Zr read from file:
     /afs/slac.stanford.edu/u/if/mamunm/psp/gbrv1.5pbe/Zr.UPF
     MD5 check sum: 5db81b1e868ab7776c4564c113de050b
     Pseudo is Ultrasoft + core correction, Zval = 12.0
     Generated by new atomic code, or converted to UPF format
     Using radial grid of  887 points,  6 beta functions with:
                l(1) =   0
                l(2) =   0
                l(3) =   1
                l(4) =   1
                l(5) =   2
                l(6) =   2
     Q(r) pseudized with  6 coefficients,  rinner =    1.200   1.200   1.200
                                                       1.200   1.200

     vdW kernel table read from file vdW_kernel_table
     MD5 check sum: 095c7af220d748ca6e76c0b4c6cfb241

     atomic species   valence    mass     pseudopotential
        Ni1           18.00    58.69340     Ni( 1.00)
        Zr1           12.00    91.22400     Zr( 1.00)

     Starting magnetic structure
     atomic species   magnetization
        Ni1          0.111
        Zr1          0.167

     No symmetry found

   Cartesian axes

     site n.     atom                  positions (alat units)
         1           Ni1 tau(   1) = (   0.0000000   0.0000000  10.0000000  )
         2           Ni1 tau(   2) = (  -1.3320055   2.3071013  10.0000000  )
         3           Ni1 tau(   3) = (   1.3320055   2.3071013  10.0000000  )
         4           Zr1 tau(   4) = (   2.6640111   0.0000000  10.0000000  )
         5           Ni1 tau(   5) = (   2.6640111   1.5380675  12.1751559  )
         6           Ni1 tau(   6) = (   1.3320055   3.8451688  12.1751559  )
         7           Ni1 tau(   7) = (  -1.3320055   3.8451688  12.1751559  )
         8           Zr1 tau(   8) = (   0.0000000   1.5380675  12.1751559  )
         9           Ni1 tau(   9) = (  -0.0000000   3.0761350  14.3503119  )
        10           Ni1 tau(  10) = (   1.3320055   0.7690338  14.3503119  )
        11           Ni1 tau(  11) = (   3.9960166   0.7690338  14.3503119  )
        12           Zr1 tau(  12) = (   2.6640111   3.0761350  14.3503119  )

     number of k points=    40  Fermi-Dirac smearing, width (Ry)=  0.0110
                       cart. coord. in units 2pi/alat
        k(    1) = (   0.0000000   0.0000000   0.0000000), wk =   0.0277778
        k(    2) = (   0.0000000   0.0361204   0.0000000), wk =   0.0555556
        k(    3) = (   0.0000000   0.0722407   0.0000000), wk =   0.0555556
        k(    4) = (   0.0000000  -0.1083611   0.0000000), wk =   0.0277778
        k(    5) = (   0.0312812   0.0180602   0.0000000), wk =   0.0555556
        k(    6) = (   0.0312812   0.0541805   0.0000000), wk =   0.0555556
        k(    7) = (   0.0312812   0.0903009   0.0000000), wk =   0.0555556
        k(    8) = (   0.0312812  -0.0903009   0.0000000), wk =   0.0555556
        k(    9) = (   0.0312812  -0.0541805   0.0000000), wk =   0.0555556
        k(   10) = (   0.0312812  -0.0180602   0.0000000), wk =   0.0555556
        k(   11) = (   0.0625623   0.0361204   0.0000000), wk =   0.0555556
        k(   12) = (   0.0625623   0.0722407   0.0000000), wk =   0.0555556
        k(   13) = (   0.0625623   0.1083611   0.0000000), wk =   0.0555556
        k(   14) = (   0.0625623  -0.0722407   0.0000000), wk =   0.0555556
        k(   15) = (   0.0625623  -0.0361204   0.0000000), wk =   0.0555556
        k(   16) = (   0.0625623   0.0000000   0.0000000), wk =   0.0555556
        k(   17) = (  -0.0938435  -0.0541805   0.0000000), wk =   0.0277778
        k(   18) = (  -0.0938435  -0.0180602   0.0000000), wk =   0.0555556
        k(   19) = (  -0.0938435   0.0180602   0.0000000), wk =   0.0555556
        k(   20) = (  -0.0938435  -0.1625416   0.0000000), wk =   0.0277778
        k(   21) = (   0.0000000   0.0000000   0.0000000), wk =   0.0277778
        k(   22) = (   0.0000000   0.0361204   0.0000000), wk =   0.0555556
        k(   23) = (   0.0000000   0.0722407   0.0000000), wk =   0.0555556
        k(   24) = (   0.0000000  -0.1083611   0.0000000), wk =   0.0277778
        k(   25) = (   0.0312812   0.0180602   0.0000000), wk =   0.0555556
        k(   26) = (   0.0312812   0.0541805   0.0000000), wk =   0.0555556
        k(   27) = (   0.0312812   0.0903009   0.0000000), wk =   0.0555556
        k(   28) = (   0.0312812  -0.0903009   0.0000000), wk =   0.0555556
        k(   29) = (   0.0312812  -0.0541805   0.0000000), wk =   0.0555556
        k(   30) = (   0.0312812  -0.0180602   0.0000000), wk =   0.0555556
        k(   31) = (   0.0625623   0.0361204   0.0000000), wk =   0.0555556
        k(   32) = (   0.0625623   0.0722407   0.0000000), wk =   0.0555556
        k(   33) = (   0.0625623   0.1083611   0.0000000), wk =   0.0555556
        k(   34) = (   0.0625623  -0.0722407   0.0000000), wk =   0.0555556
        k(   35) = (   0.0625623  -0.0361204   0.0000000), wk =   0.0555556
        k(   36) = (   0.0625623   0.0000000   0.0000000), wk =   0.0555556
        k(   37) = (  -0.0938435  -0.0541805   0.0000000), wk =   0.0277778
        k(   38) = (  -0.0938435  -0.0180602   0.0000000), wk =   0.0555556
        k(   39) = (  -0.0938435   0.0180602   0.0000000), wk =   0.0555556
        k(   40) = (  -0.0938435  -0.1625416   0.0000000), wk =   0.0277778

     Largest allocated arrays     est. size (Mb)     dimensions
     Largest temporary arrays     est. size (Mb)     dimensions

     Check: negative/imaginary core charge=   -0.000002    0.000000

     Initial potential from superposition of free atoms
     Check: negative starting charge=(component1):   -0.107843
     Check: negative starting charge=(component2):   -0.077056

     starting charge  179.99355, renormalised to  198.00000

     negative rho (up, down):  1.186E-01 8.476E-02

     *
     * You are using vdW-DF for exchange-correlation in this calculation.
     * Please cite the following three references that made this development
     * possible:
     *
     *   M. Dion, H. Rydberg, E. Schroder, D. C. Langreth, and
     *   B. I. Lundqvist, Phys. Rev. Lett. 92, 246401 (2004).
     *
     *   T. Thonhauser, V. R. Cooper, S. Li, A. Puzder, P. Hyldgaard, and
     *   D. C. Langreth, Phys. Rev. B 76, 125112 (2007).
     *
     *   G. Roman-Perez and J. M. Soler, Phys. Rev. Lett. 103, 096102 (2009).
     *
     *
     * If you are using vdW-DF2, please also cite:
     *
     *   K. Lee, E. D. Murray, L. Kong, B. I. Lundqvist, and
     *   D. C. Langreth, Phys. Rev. B 82, 081101(R) (2010).
     *
     *
     * If you are calculating the stress with vdW-DF, please also cite:
     *
     *   R. Sabatini, E. Kucukbenli, B. Kolb, T. Thonhauser, and
     *   S. de Gironcoli, J. Phys.: Condens. Matter 24, 424209 (2012).
     *

     Carrying out vdW-DF run using the following parameters:

     Nqs =      20    Nr_points =    1024   r_max =   100.000
     q_mesh =
               0.00001000     0.04494208     0.09755937     0.15916263
               0.23128650     0.31572767     0.41458969     0.53033537
               0.66584808     0.82450364     1.01025438     1.22772762
               1.48234092     1.78043706     2.12944203     2.53805004
               3.01644009     3.57652955     4.23227104     5.00000000

     Gradients computed in reciprocal space

     Adding external electric field

     Computed dipole along edir(3) :
        Dipole                0.0000 Ry au,          0.0000 Debye
        Dipole field          0.0000 Ry au

        Potential amp.       -0.0000 Ry
        Total length         44.8650 bohr

[...]

     Starting wfc are  156 randomized atomic wfcs

     Self-consistent Calculation

     iteration #  1     ecut=    36.75 Ry     beta=0.10
     Davidson diagonalization with overlap
     ethr =  1.00E-02,  avg # of iterations =  8.3

[...]

     Magnetic moment per site:
     atom:    1    charge:    9.7643    magn:    1.0346    constr:    0.0000
     atom:    2    charge:    9.7643    magn:    1.0346    constr:    0.0000
     atom:    3    charge:    9.7643    magn:    1.0346    constr:    0.0000
     atom:    4    charge:    1.2153    magn:    0.1842    constr:    0.0000
     atom:    5    charge:    9.7731    magn:    1.0360    constr:    0.0000
     atom:    6    charge:    9.7731    magn:    1.0360    constr:    0.0000
     atom:    7    charge:    9.7731    magn:    1.0360    constr:    0.0000
     atom:    8    charge:    1.2196    magn:    0.1842    constr:    0.0000
[...]
        k(    5) = (   0.0312812   0.0180602   0.0000000), wk =   0.0555556
        k(    6) = (   0.0312812   0.0541805   0.0000000), wk =   0.0555556
        k(    7) = (   0.0312812   0.0903009   0.0000000), wk =   0.0555556
        k(    8) = (   0.0312812  -0.0903009   0.0000000), wk =   0.0555556
        k(    9) = (   0.0312812  -0.0541805   0.0000000), wk =   0.0555556
        k(   10) = (   0.0312812  -0.0180602   0.0000000), wk =   0.0555556
        k(   11) = (   0.0625623   0.0361204   0.0000000), wk =   0.0555556
        k(   12) = (   0.0625623   0.0722407   0.0000000), wk =   0.0555556
        k(   13) = (   0.0625623   0.1083611   0.0000000), wk =   0.0555556
        k(   14) = (   0.0625623  -0.0722407   0.0000000), wk =   0.0555556
        k(   15) = (   0.0625623  -0.0361204   0.0000000), wk =   0.0555556
        k(   16) = (   0.0625623   0.0000000   0.0000000), wk =   0.0555556
        k(   17) = (  -0.0938435  -0.0541805   0.0000000), wk =   0.0277778
        k(   18) = (  -0.0938435  -0.0180602   0.0000000), wk =   0.0555556
        k(   19) = (  -0.0938435   0.0180602   0.0000000), wk =   0.0555556
        k(   20) = (  -0.0938435  -0.1625416   0.0000000), wk =   0.0277778
        k(   21) = (   0.0000000   0.0000000   0.0000000), wk =   0.0277778
        k(   22) = (   0.0000000   0.0361204   0.0000000), wk =   0.0555556
        k(   23) = (   0.0000000   0.0722407   0.0000000), wk =   0.0555556
        k(   24) = (   0.0000000  -0.1083611   0.0000000), wk =   0.0277778
        k(   25) = (   0.0312812   0.0180602   0.0000000), wk =   0.0555556
        k(   26) = (   0.0312812   0.0541805   0.0000000), wk =   0.0555556
        k(   27) = (   0.0312812   0.0903009   0.0000000), wk =   0.0555556
        k(   28) = (   0.0312812  -0.0903009   0.0000000), wk =   0.0555556
        k(   29) = (   0.0312812  -0.0541805   0.0000000), wk =   0.0555556
        k(   30) = (   0.0312812  -0.0180602   0.0000000), wk =   0.0555556
        k(   31) = (   0.0625623   0.0361204   0.0000000), wk =   0.0555556
        k(   32) = (   0.0625623   0.0722407   0.0000000), wk =   0.0555556
        k(   33) = (   0.0625623   0.1083611   0.0000000), wk =   0.0555556
        k(   34) = (   0.0625623  -0.0722407   0.0000000), wk =   0.0555556
        k(   35) = (   0.0625623  -0.0361204   0.0000000), wk =   0.0555556
        k(   36) = (   0.0625623   0.0000000   0.0000000), wk =   0.0555556
        k(   37) = (  -0.0938435  -0.0541805   0.0000000), wk =   0.0277778
        k(   38) = (  -0.0938435  -0.0180602   0.0000000), wk =   0.0555556
        k(   39) = (  -0.0938435   0.0180602   0.0000000), wk =   0.0555556
        k(   40) = (  -0.0938435  -0.1625416   0.0000000), wk =   0.0277778

     Largest allocated arrays     est. size (Mb)     dimensions
     Largest temporary arrays     est. size (Mb)     dimensions

     Check: negative/imaginary core charge=   -0.000002    0.000000

     Initial potential from superposition of free atoms
     Check: negative starting charge=(component1):   -0.107899
     Check: negative starting charge=(component2):   -0.077097

     starting charge  179.99355, renormalised to  198.00000

[...]

     *
     * You are using vdW-DF for exchange-correlation in this calculation.
     * Please cite the following three references that made this development
     * possible:
     *
     *   M. Dion, H. Rydberg, E. Schroder, D. C. Langreth, and
     *   B. I. Lundqvist, Phys. Rev. Lett. 92, 246401 (2004).
     *
     *   T. Thonhauser, V. R. Cooper, S. Li, A. Puzder, P. Hyldgaard, and
     *   D. C. Langreth, Phys. Rev. B 76, 125112 (2007).
     *
     *   G. Roman-Perez and J. M. Soler, Phys. Rev. Lett. 103, 096102 (2009).
     *
     *
     * If you are using vdW-DF2, please also cite:
     *
     *   K. Lee, E. D. Murray, L. Kong, B. I. Lundqvist, and
     *   D. C. Langreth, Phys. Rev. B 82, 081101(R) (2010).
     *
     *
     * If you are calculating the stress with vdW-DF, please also cite:
     *
     *   R. Sabatini, E. Kucukbenli, B. Kolb, T. Thonhauser, and
     *   S. de Gironcoli, J. Phys.: Condens. Matter 24, 424209 (2012).
     *

     Carrying out vdW-DF run using the following parameters:

     Nqs =      20    Nr_points =    1024   r_max =   100.000
     q_mesh =
               0.00001000     0.04494208     0.09755937     0.15916263
               0.23128650     0.31572767     0.41458969     0.53033537
               0.66584808     0.82450364     1.01025438     1.22772762
               1.48234092     1.78043706     2.12944203     2.53805004
               3.01644009     3.57652955     4.23227104     5.00000000

     Gradients computed in reciprocal space

[...]

     Starting wfc are  156 randomized atomic wfcs

     Self-consistent Calculation

[...]

     total energy              =   -3399.31580854 Ry
     Harris-Foulkes estimate   =   -3399.31580690 Ry
     estimated scf accuracy    <       0.00000128 Ry

[...]

     iteration # 35     ecut=    36.75 Ry     beta=0.10
     Davidson diagonalization with overlap
     ethr =  6.48E-10,  avg # of iterations =  2.0

[...]

     negative rho (up, down):  9.546E-02 9.546E-02

[...]

     Adding external electric field

     Computed dipole along edir(3) :
        Dipole                0.0251 Ry au,          0.0638 Debye
        Dipole field          0.0001 Ry au

        Potential amp.       -0.0070 Ry
        Total length         44.8650 bohr

     Magnetic moment per site:
     atom:    1    charge:    9.3425    magn:    0.0016    constr:    0.0000
     atom:    2    charge:    9.3424    magn:    0.0016    constr:    0.0000
     atom:    3    charge:    9.3424    magn:    0.0016    constr:    0.0000
     atom:    4    charge:    1.1078    magn:   -0.0001    constr:    0.0000
     atom:    5    charge:    9.3415    magn:   -0.0007    constr:    0.0000
     atom:    6    charge:    9.3416    magn:   -0.0007    constr:    0.0000
     atom:    7    charge:    9.3415    magn:   -0.0007    constr:    0.0000
     atom:    8    charge:    1.1116    magn:    0.0000    constr:    0.0000
     atom:    9    charge:    9.3499    magn:    0.0005    constr:    0.0000
     atom:   10    charge:    9.3499    magn:    0.0006    constr:    0.0000
     atom:   11    charge:    9.3500    magn:    0.0005    constr:    0.0000
     atom:   12    charge:    1.1090    magn:   -0.0000    constr:    0.0000

     End of self-consistent calculation

 ------ SPIN UP ------------

[...]

 ------ SPIN DOWN ----------

[...]

          k = 0.0626 0.0000 0.0000 ( 15216 PWs)   bands (ev):

[...]

          k =-0.0938-0.1625 0.0000 ( 15194 PWs)   bands (ev):

  -102.0929-102.0908-102.0885-101.7924-101.7899-101.7879-101.7395-101.7372
  -101.7351 -62.5988 -62.5866 -62.5760 -62.4837 -62.4752 -62.4661 -62.3733
   -62.3640 -62.3529 -62.3321 -62.3237 -62.3173 -62.2928 -62.2839 -62.2759
   -62.1480 -62.1319 -62.1183 -62.0855 -62.0762 -62.0694 -62.0679 -62.0607
   -62.0521 -62.0228 -62.0180 -62.0112 -48.3018 -48.2642 -47.7539 -26.3863
   -26.3478 -26.2533 -26.2425 -26.2200 -26.2087 -25.8303 -25.8187 -25.7461
    -4.0811  -4.0222  -2.8368  -2.5145  -2.2145  -2.2048  -2.1381  -2.0017
    -1.6704  -1.5906  -1.5778  -1.4476  -1.3602  -1.2775  -1.2315  -1.2018
    -1.0545  -1.0445  -0.9965  -0.8937  -0.8238  -0.7689  -0.6437  -0.5304
    -0.5001  -0.4865  -0.4848  -0.4278  -0.3824  -0.3762  -0.3470  -0.3340
    -0.2872  -0.2404  -0.2022  -0.1618  -0.1181  -0.0465   0.0034   0.0252
     0.0662   0.1199   0.1349   0.2291   0.3075   0.4199   0.4892   0.5365
     0.7498   0.7915   0.7967   0.8373   1.5291   1.7844   2.1611   2.2320
     2.4102   2.4222   2.4336   2.5641   2.7790   3.0100   3.2019   3.3990
     3.4154   4.0646   4.7770   5.3322   5.8144   6.0764   6.2664   6.3556
     6.7563   6.8529   7.0653   7.1547   7.2957   7.3995   7.4225   7.4844
     8.3333

     the Fermi energy is     1.1809 ev

!    total energy              =   -3399.31581431 Ry
     Harris-Foulkes estimate   =   -3399.31580920 Ry
     estimated scf accuracy    <       0.00000087 Ry

     The total energy is the sum of the following terms:

     one-electron contribution =  -25987.51830810 Ry
     hartree contribution      =   13002.98194078 Ry
     xc contribution           =    -386.34589475 Ry
     ewald contribution        =    9971.61192156 Ry
     electric field correction =       0.00000196 Ry
     smearing contrib. (-TS)   =      -0.04547577 Ry

     total magnetization       =     0.00 Bohr mag/cell
     absolute magnetization    =     0.02 Bohr mag/cell

     convergence has been achieved in  35 iterations

 BEEF-vdW xc energy contributions
           1 :   -339.087260073636
           2 :    307.400933073743
           3 :   -253.976282083257
           4 :    194.102161419072
           5 :   -141.892631039219
           6 :    105.159069195534
           7 :   -83.9173799111633
           8 :    72.6293542634871
           9 :   -64.4329654257380
          10 :    54.8780060631275
          11 :   -43.3961142589972
          12 :    32.2425927028229
          13 :   -24.0984096324561
          14 :    20.0312175597632
          15 :   -18.9747511264416
          16 :    18.7150153626624
          17 :   -17.4480810326853
          18 :    14.7825410001810
          19 :   -11.6455616639963
          20 :    9.34946298075351
          21 :   -8.58337935961299
          22 :    9.00020250797667
          23 :   -9.58016864501064
          24 :    9.40244400618963
          25 :   -8.24818676680104
          26 :    6.64309599075671
          27 :   -5.38905836867917
          28 :    4.96828328240809
          29 :   -5.24951668251003
          30 :    5.65465397709391
          31 :   -29.6587556354579
          32 :   -20.9876561273912

     Forces acting on atoms (Ry/au):

     negative rho (up, down):  9.546E-02 9.546E-02
     atom    1 type  1   force =     0.00000345   -0.00172699    0.01043594
     atom    2 type  1   force =    -0.00151290    0.00086651    0.01041013
     atom    3 type  1   force =     0.00151213    0.00086174    0.01039064
     atom    4 type  2   force =     0.00000184   -0.00000119   -0.00400065
     atom    5 type  1   force =    -0.00002559    0.00222345   -0.00415566
     atom    6 type  1   force =     0.00190454   -0.00113550   -0.00415531
     atom    7 type  1   force =    -0.00190199   -0.00110463   -0.00413950
     atom    8 type  2   force =    -0.00000689    0.00000439   -0.01476053
     atom    9 type  1   force =    -0.00001562    0.00023056    0.00037408
     atom   10 type  1   force =     0.00023817   -0.00013371    0.00035609
     atom   11 type  1   force =    -0.00020302   -0.00009577    0.00041367
     atom   12 type  2   force =     0.00000589    0.00001113   -0.00116892

     Total force =     0.025230     Total SCF correction =     0.003507
     SCF correction compared to forces is large: reduce conv_thr to get better values

     entering subroutine stress ...

     negative rho (up, down):  9.546E-02 9.546E-02
          total   stress  (Ry/bohr**3)                   (kbar)     P=  -57.99
  -0.00042662   0.00000000  -0.00000000        -62.76      0.00     -0.00
   0.00000000  -0.00042662  -0.00000001          0.00    -62.76     -0.00
  -0.00000000  -0.00000001  -0.00032929         -0.00     -0.00    -48.44

 !ASE

     Writing output data file calc.save

     General routines

     Parallel routines

   This run was terminated on:  17:24:45  27Dec2018

   JOB DONE.
Job  /afs/slac/g/suncat/bin/suncat-tsmpirun -x LD_LIBRARY_PATH -wdir /scratch/qe110303_DKHH2 pw.x -in pw.inp

TID   HOST_NAME   COMMAND_LINE            STATUS            TERMINATION_TIME
00000 suncat0040 pw.x -in pw.inp   Done                     12/27/2018 17:24:45
00001 suncat0040 pw.x -in pw.inp   Done                     12/27/2018 17:24:45
00002 suncat0040 pw.x -in pw.inp   Done                     12/27/2018 17:24:45
00003 suncat0040 pw.x -in pw.inp   Done                     12/27/2018 17:24:45
00004 suncat0040 pw.x -in pw.inp   Done                     12/27/2018 17:24:45
00005 suncat0040 pw.x -in pw.inp   Done                     12/27/2018 17:24:45
00006 suncat0040 pw.x -in pw.inp   Done                     12/27/2018 17:24:45
00007 suncat0040 pw.x -in pw.inp   Done                     12/27/2018 17:24:45
00008 suncat0179 pw.x -in pw.inp   Done                     12/27/2018 17:24:45
00009 suncat0179 pw.x -in pw.inp   Done                     12/27/2018 17:24:45
00010 suncat0179 pw.x -in pw.inp   Done                     12/27/2018 17:24:45
00011 suncat0179 pw.x -in pw.inp   Done                     12/27/2018 17:24:45
00012 suncat0179 pw.x -in pw.inp   Done                     12/27/2018 17:24:45
00013 suncat0179 pw.x -in pw.inp   Done                     12/27/2018 17:24:45
00014 suncat0179 pw.x -in pw.inp   Done                     12/27/2018 17:24:45
00015 suncat0179 pw.x -in pw.inp   Done                     12/27/2018 17:24:45
00016 suncat0147 pw.x -in pw.inp   Done                     12/27/2018 17:24:45
00017 suncat0147 pw.x -in pw.inp   Done                     12/27/2018 17:24:45
00018 suncat0147 pw.x -in pw.inp   Done                     12/27/2018 17:24:45
00019 suncat0147 pw.x -in pw.inp   Done                     12/27/2018 17:24:45
00020 suncat0147 pw.x -in pw.inp   Done                     12/27/2018 17:24:45
00021 suncat0147 pw.x -in pw.inp   Done                     12/27/2018 17:24:45
00022 suncat0147 pw.x -in pw.inp   Done                     12/27/2018 17:24:45
00023 suncat0147 pw.x -in pw.inp   Done                     12/27/2018 17:24:45
00024 suncat0146 pw.x -in pw.inp   Done                     12/27/2018 17:24:45
00025 suncat0146 pw.x -in pw.inp   Done                     12/27/2018 17:24:45
00026 suncat0146 pw.x -in pw.inp   Done                     12/27/2018 17:24:45
00027 suncat0146 pw.x -in pw.inp   Done                     12/27/2018 17:24:45
00028 suncat0146 pw.x -in pw.inp   Done                     12/27/2018 17:24:45
00029 suncat0146 pw.x -in pw.inp   Done                     12/27/2018 17:24:45
00030 suncat0146 pw.x -in pw.inp   Done                     12/27/2018 17:24:45
00031 suncat0146 pw.x -in pw.inp   Done                     12/27/2018 17:24:45
00032 suncat0272 pw.x -in pw.inp   Done                     12/27/2018 17:24:45
00033 suncat0272 pw.x -in pw.inp   Done                     12/27/2018 17:24:45
00034 suncat0272 pw.x -in pw.inp   Done                     12/27/2018 17:24:45
00035 suncat0272 pw.x -in pw.inp   Done                     12/27/2018 17:24:45
00036 suncat0272 pw.x -in pw.inp   Done                     12/27/2018 17:24:45
00037 suncat0272 pw.x -in pw.inp   Done                     12/27/2018 17:24:45
00038 suncat0272 pw.x -in pw.inp   Done                     12/27/2018 17:24:45
00039 suncat0272 pw.x -in pw.inp   Done                     12/27/2018 17:24:45
00040 suncat0271 pw.x -in pw.inp   Done                     12/27/2018 17:24:45
00041 suncat0271 pw.x -in pw.inp   Done                     12/27/2018 17:24:45
00042 suncat0271 pw.x -in pw.inp   Done                     12/27/2018 17:24:45
00043 suncat0271 pw.x -in pw.inp   Done                     12/27/2018 17:24:45
00044 suncat0271 pw.x -in pw.inp   Done                     12/27/2018 17:24:45
00045 suncat0271 pw.x -in pw.inp   Done                     12/27/2018 17:24:45
00046 suncat0271 pw.x -in pw.inp   Done                     12/27/2018 17:24:45
00047 suncat0271 pw.x -in pw.inp   Done                     12/27/2018 17:24:45
00048 suncat0260 pw.x -in pw.inp   Done                     12/27/2018 17:24:45
00049 suncat0260 pw.x -in pw.inp   Done                     12/27/2018 17:24:45
00050 suncat0260 pw.x -in pw.inp   Done                     12/27/2018 17:24:45
00051 suncat0260 pw.x -in pw.inp   Done                     12/27/2018 17:24:45
00052 suncat0260 pw.x -in pw.inp   Done                     12/27/2018 17:24:45
00053 suncat0260 pw.x -in pw.inp   Done                     12/27/2018 17:24:45
00054 suncat0260 pw.x -in pw.inp   Done                     12/27/2018 17:24:45
00055 suncat0260 pw.x -in pw.inp   Done                     12/27/2018 17:24:45
00056 suncat0259 pw.x -in pw.inp   Done                     12/27/2018 17:24:45
00057 suncat0259 pw.x -in pw.inp   Done                     12/27/2018 17:24:45
00058 suncat0259 pw.x -in pw.inp   Done                     12/27/2018 17:24:45
00059 suncat0259 pw.x -in pw.inp   Done                     12/27/2018 17:24:45
00060 suncat0259 pw.x -in pw.inp   Done                     12/27/2018 17:24:45
00061 suncat0259 pw.x -in pw.inp   Done                     12/27/2018 17:24:45
00062 suncat0259 pw.x -in pw.inp   Done                     12/27/2018 17:24:45
00063 suncat0259 pw.x -in pw.inp   Done                     12/27/2018 17:24:45