     Program PWSCF v.5.1rc2 (svn rev. 11289) starts on  1Jan2019 at 18:54: 5

     Current dimensions of program PWSCF are:
     Max number of different atomic species (ntypx) = 10
     Max number of k-points (npk) =  40000
     Max angular momentum in pseudopotentials (lmaxx) =  3
     Presently stress not available with electric field

     IMPORTANT: XC functional enforced from input :
     Exchange-correlation      = BEEF-VDW ( 1  4 27 13 2)
     Any further DFT definition will be discarded
     Please, verify this is what you really want

     Subspace diagonalization in iterative solution of the eigenvalue problem:
     a serial algorithm will be used

     bravais-lattice index     =            0
     lattice parameter (alat)  =       1.8897  a.u.
     unit-cell volume          =    4561.8780 (a.u.)^3
     number of atoms/cell      =           12
     number of atomic types    =            2
     number of electrons       =       171.00
     number of Kohn-Sham states=          115
     kinetic-energy cutoff     =      36.7493  Ry
     charge density cutoff     =     367.4932  Ry
     convergence threshold     =      1.0E-06
     mixing beta               =       0.1000
     number of iterations used =           10  plain     mixing
     Exchange-correlation      = BEEF-VDW ( 1  4 27 13 2)
     nstep                     =           50

     celldm(1)=   1.889726  celldm(2)=   0.000000  celldm(3)=   0.000000
     celldm(4)=   0.000000  celldm(5)=   0.000000  celldm(6)=   0.000000

     crystal axes: (cart. coord. in units of alat)
               a(1) = (   5.633081   0.000000   0.000000 )
               a(2) = (  -2.816541   4.878392   0.000000 )
               a(3) = (   0.000000   0.000000  24.599392 )

     reciprocal axes: (cart. coord. in units 2 pi/alat)
               b(1) = (  0.177523  0.102493  0.000000 )
               b(2) = (  0.000000  0.204986  0.000000 )
               b(3) = (  0.000000  0.000000  0.040651 )

     PseudoPot. # 1 for Tc read from file:
     /afs/slac.stanford.edu/u/if/mamunm/psp/gbrv1.5pbe/Tc.UPF
     MD5 check sum: 9eb49e5b028550b2339a02317eb7b844
     Pseudo is Ultrasoft + core correction, Zval = 15.0
     Generated by new atomic code, or converted to UPF format
     Using radial grid of  965 points,  6 beta functions with:
                l(1) =   0
                l(2) =   0
                l(3) =   1
                l(4) =   1
                l(5) =   2
                l(6) =   2
     Q(r) pseudized with  8 coefficients,  rinner =    1.300   1.300   1.300
                                                       1.300   1.300

     PseudoPot. # 2 for Hg read from file:
     /afs/slac.stanford.edu/u/if/mamunm/psp/gbrv1.5pbe/Hg.UPF
     MD5 check sum: 8f42caffe07f7fd9c0a564347f8c5498
     Pseudo is Ultrasoft + core correction, Zval = 12.0
     Generated by new atomic code, or converted to UPF format
     Using radial grid of  985 points,  6 beta functions with:
                l(1) =   0
                l(2) =   0
                l(3) =   1
                l(4) =   1
                l(5) =   2
                l(6) =   2
     Q(r) pseudized with  8 coefficients,  rinner =    2.000   2.000   2.000
                                                       2.000   2.000

     vdW kernel table read from file vdW_kernel_table
     MD5 check sum: 095c7af220d748ca6e76c0b4c6cfb241

     atomic species   valence    mass     pseudopotential
        Tc1           15.00    97.90721     Tc( 1.00)
        Hg1           12.00   200.59200     Hg( 1.00)

     No symmetry found

   Cartesian axes

     site n.     atom                  positions (alat units)
         1           Tc1 tau(   1) = (   0.0000000   0.0000000  10.0000000  )
         2           Tc1 tau(   2) = (  -1.4082704   2.4391958  10.0000000  )
         3           Tc1 tau(   3) = (   1.4082704   2.4391958  10.0000000  )
         4           Hg1 tau(   4) = (   2.8165407   0.0000000  10.0000000  )
         5           Tc1 tau(   5) = (   2.8165407   1.6261306  12.2996959  )
         6           Tc1 tau(   6) = (   1.4082704   4.0653264  12.2996959  )
         7           Tc1 tau(   7) = (  -1.4082704   4.0653264  12.2996959  )
         8           Hg1 tau(   8) = (   0.0000000   1.6261306  12.2996959  )
         9           Tc1 tau(   9) = (  -0.0000000   3.2522611  14.5993918  )
        10           Tc1 tau(  10) = (   1.4082704   0.8130653  14.5993918  )
        11           Tc1 tau(  11) = (   4.2248111   0.8130653  14.5993918  )
        12           Hg1 tau(  12) = (   2.8165407   3.2522611  14.5993918  )

     number of k points=    20  Fermi-Dirac smearing, width (Ry)=  0.0110
                       cart. coord. in units 2pi/alat
        k(    1) = (   0.0000000   0.0000000   0.0000000), wk =   0.0555556
        k(    2) = (   0.0000000   0.0341643   0.0000000), wk =   0.1111111
        k(    3) = (   0.0000000   0.0683285   0.0000000), wk =   0.1111111
        k(    4) = (   0.0000000  -0.1024928   0.0000000), wk =   0.0555556
        k(    5) = (   0.0295871   0.0170821   0.0000000), wk =   0.1111111
        k(    6) = (   0.0295871   0.0512464   0.0000000), wk =   0.1111111
        k(    7) = (   0.0295871   0.0854107   0.0000000), wk =   0.1111111
        k(    8) = (   0.0295871  -0.0854107   0.0000000), wk =   0.1111111
        k(    9) = (   0.0295871  -0.0512464   0.0000000), wk =   0.1111111
        k(   10) = (   0.0295871  -0.0170821   0.0000000), wk =   0.1111111
        k(   11) = (   0.0591742   0.0341643   0.0000000), wk =   0.1111111
        k(   12) = (   0.0591742   0.0683285   0.0000000), wk =   0.1111111
        k(   13) = (   0.0591742   0.1024928   0.0000000), wk =   0.1111111
        k(   14) = (   0.0591742  -0.0683285   0.0000000), wk =   0.1111111
        k(   15) = (   0.0591742  -0.0341643   0.0000000), wk =   0.1111111
        k(   16) = (   0.0591742   0.0000000   0.0000000), wk =   0.1111111
        k(   17) = (  -0.0887614  -0.0512464   0.0000000), wk =   0.0555556
        k(   18) = (  -0.0887614  -0.0170821   0.0000000), wk =   0.1111111
        k(   19) = (  -0.0887614   0.0170821   0.0000000), wk =   0.1111111
        k(   20) = (  -0.0887614  -0.1537392   0.0000000), wk =   0.0555556

     Largest allocated arrays     est. size (Mb)     dimensions
     Largest temporary arrays     est. size (Mb)     dimensions

     Check: negative/imaginary core charge=   -0.000017    0.000000

     Initial potential from superposition of free atoms
     Check: negative starting charge=   -1.131461

     starting charge  161.99958, renormalised to  171.00000

     negative rho (up, down):  1.194E+00 0.000E+00

     *
     * You are using vdW-DF for exchange-correlation in this calculation.
     * Please cite the following three references that made this development
     * possible:
     *
     *   M. Dion, H. Rydberg, E. Schroder, D. C. Langreth, and
     *   B. I. Lundqvist, Phys. Rev. Lett. 92, 246401 (2004).
     *
     *   T. Thonhauser, V. R. Cooper, S. Li, A. Puzder, P. Hyldgaard, and
     *   D. C. Langreth, Phys. Rev. B 76, 125112 (2007).
     *
     *   G. Roman-Perez and J. M. Soler, Phys. Rev. Lett. 103, 096102 (2009).
     *
     *
     * If you are using vdW-DF2, please also cite:
     *
     *   K. Lee, E. D. Murray, L. Kong, B. I. Lundqvist, and
     *   D. C. Langreth, Phys. Rev. B 82, 081101(R) (2010).
     *
     *
     * If you are calculating the stress with vdW-DF, please also cite:
     *
     *   R. Sabatini, E. Kucukbenli, B. Kolb, T. Thonhauser, and
     *   S. de Gironcoli, J. Phys.: Condens. Matter 24, 424209 (2012).
     *

     Carrying out vdW-DF run using the following parameters:

     Nqs =      20    Nr_points =    1024   r_max =   100.000
     q_mesh =
               0.00001000     0.04494208     0.09755937     0.15916263
               0.23128650     0.31572767     0.41458969     0.53033537
               0.66584808     0.82450364     1.01025438     1.22772762
               1.48234092     1.78043706     2.12944203     2.53805004
               3.01644009     3.57652955     4.23227104     5.00000000

     Gradients computed in reciprocal space

     Adding external electric field

     Computed dipole along edir(3) :
        Dipole                0.0000 Ry au,          0.0000 Debye
        Dipole field          0.0000 Ry au

        Potential amp.       -0.0000 Ry
        Total length         45.3240 bohr

     Starting wfc are  144 randomized atomic wfcs

     Self-consistent Calculation

     iteration #  1     ecut=    36.75 Ry     beta=0.10
     Davidson diagonalization with overlap
     ethr =  1.00E-02,  avg # of iterations =  8.8

[...]

     total energy              =   -1905.50229591 Ry
     Harris-Foulkes estimate   =   -1907.37782297 Ry
     estimated scf accuracy    <      11.87098736 Ry

[...]

     End of self-consistent calculation

          k = 0.0000 0.0000 0.0000 ( 17171 PWs)   bands (ev):

   -65.4669 -65.3920 -65.3918 -65.1241 -65.1205 -65.0519 -65.0519 -65.0510
   -65.0510 -37.7769 -37.6210 -37.6210 -37.5864 -37.4900 -37.4899 -37.4400
   -37.4115 -37.2960 -37.2465 -37.2465 -37.1940 -37.1939 -37.1150 -37.1149
   -37.1039 -37.0306 -37.0306 -36.9854 -36.9673 -36.9672 -36.9394 -36.9240
   -36.8163 -36.8162 -36.8127 -36.8127  -6.6152  -6.5613  -6.5613  -6.4061
    -6.4061  -6.2973  -5.9966  -5.9966  -5.9669  -5.9669  -5.9000  -5.8930
    -5.5192  -5.5192  -5.4886  -5.4886  -4.7667  -4.3409  -3.0745  -2.3791
    -1.8738  -1.3585  -1.1902  -1.1902  -1.1089  -0.9711  -0.9711  -0.5854
    -0.5853  -0.4935  -0.4934   0.0247   0.0247   0.0299   0.0299   0.1793
     0.5346   0.5680   0.8761   0.8761   1.2316   1.4013   1.4013   1.7800
     2.0998   2.2220   2.2758   2.2759   2.5146   2.5146   2.5932   2.5932
     2.7747   2.7747   2.9212   2.9212   2.9946   2.9946   3.0721   3.0721
     3.5246   3.6085   3.6085   3.7440   4.1105   4.4510   4.5201   4.7274
     4.8747   5.1338   5.1338   5.4405   5.4405   5.7521   6.0142   6.3286
     6.9366   7.0498   7.5092

[...]

          k =-0.0888-0.0512 0.0000 ( 17184 PWs)   bands (ev):

[...]

     the Fermi energy is     1.8587 ev

!    total energy              =   -1904.32643289 Ry
     Harris-Foulkes estimate   =   -1904.32785737 Ry
     estimated scf accuracy    <       0.00000058 Ry

     The total energy is the sum of the following terms:

     one-electron contribution =  -15706.02589654 Ry
     hartree contribution      =    7873.18420310 Ry
     xc contribution           =    -418.93647434 Ry
     ewald contribution        =    6347.54197317 Ry
     electric field correction =       0.00000001 Ry
     smearing contrib. (-TS)   =      -0.09023829 Ry

     convergence has been achieved in  19 iterations

 BEEF-vdW xc energy contributions
           1 :   -367.001289413509
           2 :    337.717141423139
           3 :   -285.812929779551
           4 :    222.065403933073
           5 :   -157.929557703199
           6 :    102.271066516899
           7 :   -59.5560404328941
           8 :    29.7952861090802
           9 :   -10.0033691613305
          10 :   -3.72127990706196
          11 :    14.3544774215280
          12 :   -23.0319358724153
[...]
     MD5 check sum: 9eb49e5b028550b2339a02317eb7b844
     Pseudo is Ultrasoft + core correction, Zval = 15.0
     Generated by new atomic code, or converted to UPF format
     Using radial grid of  965 points,  6 beta functions with:
                l(1) =   0
                l(2) =   0
                l(3) =   1
                l(4) =   1
                l(5) =   2
                l(6) =   2
     Q(r) pseudized with  8 coefficients,  rinner =    1.300   1.300   1.300
                                                       1.300   1.300

     PseudoPot. # 2 for Hg read from file:
     /afs/slac.stanford.edu/u/if/mamunm/psp/gbrv1.5pbe/Hg.UPF
     MD5 check sum: 8f42caffe07f7fd9c0a564347f8c5498
     Pseudo is Ultrasoft + core correction, Zval = 12.0
     Generated by new atomic code, or converted to UPF format
     Using radial grid of  985 points,  6 beta functions with:
                l(1) =   0
                l(2) =   0
                l(3) =   1
                l(4) =   1
                l(5) =   2
                l(6) =   2
     Q(r) pseudized with  8 coefficients,  rinner =    2.000   2.000   2.000
                                                       2.000   2.000

     vdW kernel table read from file vdW_kernel_table
     MD5 check sum: 095c7af220d748ca6e76c0b4c6cfb241

     atomic species   valence    mass     pseudopotential
        Tc1           15.00    97.90721     Tc( 1.00)
        Hg1           12.00   200.59200     Hg( 1.00)

     No symmetry found

   Cartesian axes

     site n.     atom                  positions (alat units)
         1           Tc1 tau(   1) = (   0.0000000   0.0000000  10.0000000  )
         2           Tc1 tau(   2) = (  -1.4082704   2.4391958  10.0000000  )
         3           Tc1 tau(   3) = (   1.4082704   2.4391958  10.0000000  )
         4           Hg1 tau(   4) = (   2.8165407   0.0000000  10.0000000  )
         5           Tc1 tau(   5) = (   2.8165407   1.6261306  12.2996959  )
         6           Tc1 tau(   6) = (   1.4082704   4.0653264  12.2996959  )
         7           Tc1 tau(   7) = (  -1.4082704   4.0653264  12.2996959  )
         8           Hg1 tau(   8) = (   0.0000000   1.6261306  12.2996959  )
         9           Tc1 tau(   9) = (   0.0000962   3.4506527  14.4593648  )
        10           Tc1 tau(  10) = (   1.5800201   0.7139654  14.4593916  )
        11           Tc1 tau(  11) = (   4.0530435   0.7138423  14.4593572  )
        12           Hg1 tau(  12) = (   2.8166392   3.2522430  15.0213017  )

     number of k points=    20  Fermi-Dirac smearing, width (Ry)=  0.0110
                       cart. coord. in units 2pi/alat
        k(    1) = (   0.0000000   0.0000000   0.0000000), wk =   0.0555556
        k(    2) = (   0.0000000   0.0341643   0.0000000), wk =   0.1111111
        k(    3) = (   0.0000000   0.0683285   0.0000000), wk =   0.1111111
        k(    4) = (   0.0000000  -0.1024928   0.0000000), wk =   0.0555556
        k(    5) = (   0.0295871   0.0170821   0.0000000), wk =   0.1111111
        k(    6) = (   0.0295871   0.0512464   0.0000000), wk =   0.1111111
        k(    7) = (   0.0295871   0.0854107   0.0000000), wk =   0.1111111
        k(    8) = (   0.0295871  -0.0854107   0.0000000), wk =   0.1111111
        k(    9) = (   0.0295871  -0.0512464   0.0000000), wk =   0.1111111
        k(   10) = (   0.0295871  -0.0170821   0.0000000), wk =   0.1111111
        k(   11) = (   0.0591742   0.0341643   0.0000000), wk =   0.1111111
        k(   12) = (   0.0591742   0.0683285   0.0000000), wk =   0.1111111
        k(   13) = (   0.0591742   0.1024928   0.0000000), wk =   0.1111111
        k(   14) = (   0.0591742  -0.0683285   0.0000000), wk =   0.1111111
        k(   15) = (   0.0591742  -0.0341643   0.0000000), wk =   0.1111111
        k(   16) = (   0.0591742   0.0000000   0.0000000), wk =   0.1111111
        k(   17) = (  -0.0887614  -0.0512464   0.0000000), wk =   0.0555556
        k(   18) = (  -0.0887614  -0.0170821   0.0000000), wk =   0.1111111
        k(   19) = (  -0.0887614   0.0170821   0.0000000), wk =   0.1111111
        k(   20) = (  -0.0887614  -0.1537392   0.0000000), wk =   0.0555556

     Largest allocated arrays     est. size (Mb)     dimensions
     Largest temporary arrays     est. size (Mb)     dimensions

     Check: negative/imaginary core charge=   -0.000016    0.000000

     Initial potential from superposition of free atoms
     Check: negative starting charge=   -1.130812

     starting charge  161.99958, renormalised to  171.00000

[...]

     *
     * You are using vdW-DF for exchange-correlation in this calculation.
     * Please cite the following three references that made this development
     * possible:
     *
     *   M. Dion, H. Rydberg, E. Schroder, D. C. Langreth, and
     *   B. I. Lundqvist, Phys. Rev. Lett. 92, 246401 (2004).
     *
     *   T. Thonhauser, V. R. Cooper, S. Li, A. Puzder, P. Hyldgaard, and
     *   D. C. Langreth, Phys. Rev. B 76, 125112 (2007).
     *
     *   G. Roman-Perez and J. M. Soler, Phys. Rev. Lett. 103, 096102 (2009).
     *
     *
     * If you are using vdW-DF2, please also cite:
     *
     *   K. Lee, E. D. Murray, L. Kong, B. I. Lundqvist, and
     *   D. C. Langreth, Phys. Rev. B 82, 081101(R) (2010).
     *
     *
     * If you are calculating the stress with vdW-DF, please also cite:
     *
     *   R. Sabatini, E. Kucukbenli, B. Kolb, T. Thonhauser, and
     *   S. de Gironcoli, J. Phys.: Condens. Matter 24, 424209 (2012).
     *

     Carrying out vdW-DF run using the following parameters:

     Nqs =      20    Nr_points =    1024   r_max =   100.000
     q_mesh =
               0.00001000     0.04494208     0.09755937     0.15916263
               0.23128650     0.31572767     0.41458969     0.53033537
               0.66584808     0.82450364     1.01025438     1.22772762
               1.48234092     1.78043706     2.12944203     2.53805004
               3.01644009     3.57652955     4.23227104     5.00000000

     Gradients computed in reciprocal space

[...]

     Starting wfc are  144 randomized atomic wfcs

     Self-consistent Calculation

[...]

     total energy              =   -1904.40742150 Ry
     Harris-Foulkes estimate   =   -1904.40742073 Ry
     estimated scf accuracy    <       0.00000228 Ry

     iteration # 19     ecut=    36.75 Ry     beta=0.10
     Davidson diagonalization with overlap
     ethr =  1.34E-09,  avg # of iterations =  1.0

[...]

     negative rho (up, down):  1.179E+00 0.000E+00

     Adding external electric field

     Computed dipole along edir(3) :
        Dipole                0.0324 Ry au,          0.0824 Debye
        Dipole field          0.0001 Ry au

        Potential amp.       -0.0081 Ry
        Total length         45.3240 bohr

     End of self-consistent calculation

[...]

          k = 0.0592 0.0000 0.0000 ( 17146 PWs)   bands (ev):

[...]

          k =-0.0888-0.1537 0.0000 ( 17184 PWs)   bands (ev):

   -65.4144 -65.3724 -65.3415 -65.3024 -65.1758 -65.1681 -65.0297 -65.0061
   -64.9824 -37.9044 -37.7142 -37.6585 -37.6414 -37.6061 -37.4974 -37.4337
   -37.4091 -37.3514 -37.3198 -37.2830 -37.2405 -37.1195 -37.1098 -37.0841
   -37.0622 -37.0178 -37.0170 -37.0065 -36.9941 -36.9698 -36.9531 -36.9155
   -36.9071 -36.8952 -36.8298 -36.7637  -6.4491  -6.2916  -6.2202  -6.1812
    -6.1549  -5.8449  -5.6001  -5.5550  -5.4900  -5.4529  -5.3898  -5.1978
    -5.1825  -5.0387  -5.0025  -4.7574  -4.1947  -3.4101  -2.8078  -2.4403
    -2.1494  -2.1187  -1.5121  -1.4539  -1.3154  -1.1741  -1.1734  -0.9913
    -0.8168  -0.6580  -0.5522  -0.4958  -0.3270  -0.1911  -0.1877   0.0376
     0.1140   0.3641   0.3901   0.4752   0.5568   0.6516   0.8289   0.9325
     1.0905   1.0945   1.1871   1.1992   1.6227   1.6836   1.8765   2.0905
     2.1542   2.2104   2.2366   2.2696   2.4287   2.5388   2.6591   2.7191
     3.0298   3.3369   3.6811   3.7839   3.9001   4.2528   4.2813   5.1606
     5.7450   5.8913   6.0344   6.4300   6.7281   7.2770   7.2994   7.3329
     7.8034   7.8348   7.8914

     the Fermi energy is     1.9189 ev

!    total energy              =   -1904.40742508 Ry
     Harris-Foulkes estimate   =   -1904.40742070 Ry
     estimated scf accuracy    <       0.00000090 Ry

     The total energy is the sum of the following terms:

     one-electron contribution =  -15755.17909998 Ry
     hartree contribution      =    7897.79470134 Ry
     xc contribution           =    -419.15130041 Ry
     ewald contribution        =    6372.21089648 Ry
     electric field correction =       0.00000290 Ry
     smearing contrib. (-TS)   =      -0.08262541 Ry

     convergence has been achieved in  19 iterations

 BEEF-vdW xc energy contributions
           1 :   -367.461864601255
           2 :    338.200822064657
           3 :   -286.332668982601
           4 :    222.608612796498
           5 :   -158.441664963560
           6 :    102.663360563373
           7 :   -59.7392316748018
           8 :    29.7244799910250
           9 :   -9.71297215096808
          10 :   -4.11055347886372
          11 :    14.6678663698201
          12 :   -23.1084122541819
          13 :    28.9519895841827
          14 :   -30.9778975853438
          15 :    28.2875325251734
          16 :   -21.0580949580720
          17 :    10.6930595927172
          18 :   0.589991632700162
          19 :   -10.4915887590440
          20 :    17.3176151034255
          21 :   -20.3564767044319
          22 :    19.8407493100306
          23 :   -16.6015846414018
          24 :    11.6254565309356
          25 :   -5.73759364226760
          26 :  -0.489601451466342
          27 :    6.63238878921436
          28 :   -12.2508049640888
          29 :    16.7996847719875
          30 :   -19.6873635487030
          31 :   -34.6647849091887
          32 :   -25.5036310677448

     Forces acting on atoms (Ry/au):

     negative rho (up, down):  1.179E+00 0.000E+00
     atom    1 type  1   force =     0.00000837   -0.03993710    0.01954266
     atom    2 type  1   force =    -0.03458583    0.01997049    0.01955624
     atom    3 type  1   force =     0.03457995    0.01995805    0.01954021
     atom    4 type  2   force =     0.00002791   -0.00000695   -0.06288681
     atom    5 type  1   force =    -0.00000503    0.01881913   -0.00152902
     atom    6 type  1   force =     0.01629558   -0.00940859   -0.00153172
     atom    7 type  1   force =    -0.01630181   -0.00940653   -0.00152842
     atom    8 type  2   force =     0.00000102    0.00000695    0.00372146
     atom    9 type  1   force =    -0.00002604    0.00068785    0.00157565
     atom   10 type  1   force =     0.00061906   -0.00036978    0.00155313
     atom   11 type  1   force =    -0.00059357   -0.00032467    0.00158844
     atom   12 type  2   force =    -0.00001961    0.00001115    0.00039817

     Total force =     0.104773     Total SCF correction =     0.006886

     entering subroutine stress ...

     negative rho (up, down):  1.179E+00 0.000E+00
          total   stress  (Ry/bohr**3)                   (kbar)     P=  -15.89
  -0.00015916   0.00000001  -0.00000001        -23.41      0.00     -0.00
   0.00000001  -0.00015915  -0.00000000          0.00    -23.41     -0.00
  -0.00000001  -0.00000000  -0.00000571         -0.00     -0.00     -0.84

 !ASE

     Writing output data file calc.save

     General routines

     Parallel routines

   This run was terminated on:  21: 7:51   1Jan2019

   JOB DONE.
Job  /afs/slac/g/suncat/bin/suncat-tsmpirun -x LD_LIBRARY_PATH -wdir /scratch/qe649151_43Jau pw.x -in pw.inp

TID   HOST_NAME   COMMAND_LINE            STATUS            TERMINATION_TIME
00000 suncat0058 pw.x -in pw.inp   Done                     01/01/2019 21:07:51
00001 suncat0058 pw.x -in pw.inp   Done                     01/01/2019 21:07:51
00002 suncat0058 pw.x -in pw.inp   Done                     01/01/2019 21:07:51
00003 suncat0058 pw.x -in pw.inp   Done                     01/01/2019 21:07:51
00004 suncat0058 pw.x -in pw.inp   Done                     01/01/2019 21:07:51
00005 suncat0058 pw.x -in pw.inp   Done                     01/01/2019 21:07:51
00006 suncat0058 pw.x -in pw.inp   Done                     01/01/2019 21:07:51
00007 suncat0058 pw.x -in pw.inp   Done                     01/01/2019 21:07:51
00008 suncat0056 pw.x -in pw.inp   Done                     01/01/2019 21:07:51
00009 suncat0056 pw.x -in pw.inp   Done                     01/01/2019 21:07:51
00010 suncat0056 pw.x -in pw.inp   Done                     01/01/2019 21:07:51
00011 suncat0056 pw.x -in pw.inp   Done                     01/01/2019 21:07:51
00012 suncat0056 pw.x -in pw.inp   Done                     01/01/2019 21:07:51
00013 suncat0056 pw.x -in pw.inp   Done                     01/01/2019 21:07:51
00014 suncat0056 pw.x -in pw.inp   Done                     01/01/2019 21:07:51
00015 suncat0056 pw.x -in pw.inp   Done                     01/01/2019 21:07:51
00016 suncat0054 pw.x -in pw.inp   Done                     01/01/2019 21:07:51
00017 suncat0054 pw.x -in pw.inp   Done                     01/01/2019 21:07:51
00018 suncat0054 pw.x -in pw.inp   Done                     01/01/2019 21:07:51
00019 suncat0054 pw.x -in pw.inp   Done                     01/01/2019 21:07:51
00020 suncat0054 pw.x -in pw.inp   Done                     01/01/2019 21:07:51
00021 suncat0054 pw.x -in pw.inp   Done                     01/01/2019 21:07:51
00022 suncat0054 pw.x -in pw.inp   Done                     01/01/2019 21:07:51
00023 suncat0054 pw.x -in pw.inp   Done                     01/01/2019 21:07:51
00024 suncat0052 pw.x -in pw.inp   Done                     01/01/2019 21:07:51
00025 suncat0052 pw.x -in pw.inp   Done                     01/01/2019 21:07:51
00026 suncat0052 pw.x -in pw.inp   Done                     01/01/2019 21:07:51
00027 suncat0052 pw.x -in pw.inp   Done                     01/01/2019 21:07:51
00028 suncat0052 pw.x -in pw.inp   Done                     01/01/2019 21:07:51
00029 suncat0052 pw.x -in pw.inp   Done                     01/01/2019 21:07:51
00030 suncat0052 pw.x -in pw.inp   Done                     01/01/2019 21:07:51
00031 suncat0052 pw.x -in pw.inp   Done                     01/01/2019 21:07:51
00032 suncat0048 pw.x -in pw.inp   Done                     01/01/2019 21:07:51
00033 suncat0048 pw.x -in pw.inp   Done                     01/01/2019 21:07:51
00034 suncat0048 pw.x -in pw.inp   Done                     01/01/2019 21:07:51
00035 suncat0048 pw.x -in pw.inp   Done                     01/01/2019 21:07:51
00036 suncat0048 pw.x -in pw.inp   Done                     01/01/2019 21:07:51
00037 suncat0048 pw.x -in pw.inp   Done                     01/01/2019 21:07:51
00038 suncat0048 pw.x -in pw.inp   Done                     01/01/2019 21:07:51
00039 suncat0048 pw.x -in pw.inp   Done                     01/01/2019 21:07:51
00040 suncat0047 pw.x -in pw.inp   Done                     01/01/2019 21:07:51
00041 suncat0047 pw.x -in pw.inp   Done                     01/01/2019 21:07:51
00042 suncat0047 pw.x -in pw.inp   Done                     01/01/2019 21:07:51
00043 suncat0047 pw.x -in pw.inp   Done                     01/01/2019 21:07:51
00044 suncat0047 pw.x -in pw.inp   Done                     01/01/2019 21:07:51
00045 suncat0047 pw.x -in pw.inp   Done                     01/01/2019 21:07:51
00046 suncat0047 pw.x -in pw.inp   Done                     01/01/2019 21:07:51
00047 suncat0047 pw.x -in pw.inp   Done                     01/01/2019 21:07:51
00048 suncat0121 pw.x -in pw.inp   Done                     01/01/2019 21:07:51
00049 suncat0121 pw.x -in pw.inp   Done                     01/01/2019 21:07:51
00050 suncat0121 pw.x -in pw.inp   Done                     01/01/2019 21:07:51
00051 suncat0121 pw.x -in pw.inp   Done                     01/01/2019 21:07:51
00052 suncat0121 pw.x -in pw.inp   Done                     01/01/2019 21:07:51
00053 suncat0121 pw.x -in pw.inp   Done                     01/01/2019 21:07:51
00054 suncat0121 pw.x -in pw.inp   Done                     01/01/2019 21:07:51
00055 suncat0121 pw.x -in pw.inp   Done                     01/01/2019 21:07:51
00056 suncat0115 pw.x -in pw.inp   Done                     01/01/2019 21:07:51
00057 suncat0115 pw.x -in pw.inp   Done                     01/01/2019 21:07:51
00058 suncat0115 pw.x -in pw.inp   Done                     01/01/2019 21:07:51
00059 suncat0115 pw.x -in pw.inp   Done                     01/01/2019 21:07:51
00060 suncat0115 pw.x -in pw.inp   Done                     01/01/2019 21:07:51
00061 suncat0115 pw.x -in pw.inp   Done                     01/01/2019 21:07:51
00062 suncat0115 pw.x -in pw.inp   Done                     01/01/2019 21:07:51
00063 suncat0115 pw.x -in pw.inp   Done                     01/01/2019 21:07:51