     Program PWSCF v.5.1rc2 (svn rev. 11289) starts on  1Jan2019 at 21:40:30

     Current dimensions of program PWSCF are:
     Max number of different atomic species (ntypx) = 10
     Max number of k-points (npk) =  40000
     Max angular momentum in pseudopotentials (lmaxx) =  3
     Presently stress not available with electric field

     IMPORTANT: XC functional enforced from input :
     Exchange-correlation      = BEEF-VDW ( 1  4 27 13 2)
     Any further DFT definition will be discarded
     Please, verify this is what you really want

     Subspace diagonalization in iterative solution of the eigenvalue problem:
     a serial algorithm will be used

     bravais-lattice index     =            0
     lattice parameter (alat)  =       1.8897  a.u.
     unit-cell volume          =    4568.6676 (a.u.)^3
     number of atoms/cell      =           12
     number of atomic types    =            2
     number of electrons       =       165.00
     number of Kohn-Sham states=          112
     kinetic-energy cutoff     =      36.7493  Ry
     charge density cutoff     =     367.4932  Ry
     convergence threshold     =      1.0E-06
     mixing beta               =       0.1000
     number of iterations used =           10  plain     mixing
     Exchange-correlation      = BEEF-VDW ( 1  4 27 13 2)
     nstep                     =           50

     celldm(1)=   1.889726  celldm(2)=   0.000000  celldm(3)=   0.000000
     celldm(4)=   0.000000  celldm(5)=   0.000000  celldm(6)=   0.000000

     crystal axes: (cart. coord. in units of alat)
               a(1) = (   5.636913   0.000000   0.000000 )
               a(2) = (  -2.818457   4.881710   0.000000 )
               a(3) = (   0.000000   0.000000  24.602521 )

     reciprocal axes: (cart. coord. in units 2 pi/alat)
               b(1) = (  0.177402  0.102423  0.000000 )
               b(2) = (  0.000000  0.204846  0.000000 )
               b(3) = (  0.000000  0.000000  0.040646 )

     PseudoPot. # 1 for Ti read from file:
     /afs/slac.stanford.edu/u/if/mamunm/psp/gbrv1.5pbe/Ti.UPF
     MD5 check sum: 88a00a6731bd790ddea75d31a80cb452
     Pseudo is Ultrasoft + core correction, Zval = 12.0
     Generated by new atomic code, or converted to UPF format
     Using radial grid of  851 points,  6 beta functions with:
                l(1) =   0
                l(2) =   0
                l(3) =   1
                l(4) =   1
                l(5) =   2
                l(6) =   2
     Q(r) pseudized with  6 coefficients,  rinner =    1.000   1.000   1.000
                                                       1.000   1.000

     PseudoPot. # 2 for Cu read from file:
     /afs/slac.stanford.edu/u/if/mamunm/psp/gbrv1.5pbe/Cu.UPF
     MD5 check sum: 6e991ff952a84172a2a52a1c1e996048
     Pseudo is Ultrasoft + core correction, Zval = 19.0
     Generated by new atomic code, or converted to UPF format
     Using radial grid of  867 points,  6 beta functions with:
                l(1) =   0
                l(2) =   0
                l(3) =   1
                l(4) =   1
                l(5) =   2
                l(6) =   2
     Q(r) pseudized with  8 coefficients,  rinner =    1.150   1.150   1.150
                                                       1.150   1.150

     vdW kernel table read from file vdW_kernel_table
     MD5 check sum: 095c7af220d748ca6e76c0b4c6cfb241

     atomic species   valence    mass     pseudopotential
        Ti1           12.00    47.86700     Ti( 1.00)
        Cu1           19.00    63.54600     Cu( 1.00)

     No symmetry found

   Cartesian axes

     site n.     atom                  positions (alat units)
         1           Ti1 tau(   1) = (   0.0000000   0.0000000  10.0000000  )
         2           Ti1 tau(   2) = (  -1.4092283   2.4408551  10.0000000  )
         3           Ti1 tau(   3) = (   1.4092283   2.4408551  10.0000000  )
         4           Cu1 tau(   4) = (   2.8184567   0.0000000  10.0000000  )
         5           Ti1 tau(   5) = (   2.8184567   1.6272367  12.3012603  )
         6           Ti1 tau(   6) = (   1.4092283   4.0680918  12.3012603  )
         7           Ti1 tau(   7) = (  -1.4092283   4.0680918  12.3012603  )
         8           Cu1 tau(   8) = (   0.0000000   1.6272367  12.3012603  )
         9           Ti1 tau(   9) = (  -0.0000000   3.2544735  14.6025205  )
        10           Ti1 tau(  10) = (   1.4092283   0.8136184  14.6025205  )
        11           Ti1 tau(  11) = (   4.2276850   0.8136184  14.6025205  )
        12           Cu1 tau(  12) = (   2.8184567   3.2544735  14.6025205  )

     number of k points=    20  Fermi-Dirac smearing, width (Ry)=  0.0110
                       cart. coord. in units 2pi/alat
        k(    1) = (   0.0000000   0.0000000   0.0000000), wk =   0.0555556
        k(    2) = (   0.0000000   0.0341410   0.0000000), wk =   0.1111111
        k(    3) = (   0.0000000   0.0682821   0.0000000), wk =   0.1111111
        k(    4) = (   0.0000000  -0.1024231   0.0000000), wk =   0.0555556
        k(    5) = (   0.0295670   0.0170705   0.0000000), wk =   0.1111111
        k(    6) = (   0.0295670   0.0512116   0.0000000), wk =   0.1111111
        k(    7) = (   0.0295670   0.0853526   0.0000000), wk =   0.1111111
        k(    8) = (   0.0295670  -0.0853526   0.0000000), wk =   0.1111111
        k(    9) = (   0.0295670  -0.0512116   0.0000000), wk =   0.1111111
        k(   10) = (   0.0295670  -0.0170705   0.0000000), wk =   0.1111111
        k(   11) = (   0.0591340   0.0341410   0.0000000), wk =   0.1111111
        k(   12) = (   0.0591340   0.0682821   0.0000000), wk =   0.1111111
        k(   13) = (   0.0591340   0.1024231   0.0000000), wk =   0.1111111
        k(   14) = (   0.0591340  -0.0682821   0.0000000), wk =   0.1111111
        k(   15) = (   0.0591340  -0.0341410   0.0000000), wk =   0.1111111
        k(   16) = (   0.0591340   0.0000000   0.0000000), wk =   0.1111111
        k(   17) = (  -0.0887010  -0.0512116   0.0000000), wk =   0.0555556
        k(   18) = (  -0.0887010  -0.0170705   0.0000000), wk =   0.1111111
        k(   19) = (  -0.0887010   0.0170705   0.0000000), wk =   0.1111111
        k(   20) = (  -0.0887010  -0.1536347   0.0000000), wk =   0.0555556

     Largest allocated arrays     est. size (Mb)     dimensions
     Largest temporary arrays     est. size (Mb)     dimensions

     Check: negative/imaginary core charge=   -0.000006    0.000000

     Initial potential from superposition of free atoms
     Check: negative starting charge=   -0.010420

     starting charge  152.99960, renormalised to  165.00000

     negative rho (up, down):  1.124E-02 0.000E+00

     *
     * You are using vdW-DF for exchange-correlation in this calculation.
     * Please cite the following three references that made this development
     * possible:
     *
     *   M. Dion, H. Rydberg, E. Schroder, D. C. Langreth, and
     *   B. I. Lundqvist, Phys. Rev. Lett. 92, 246401 (2004).
     *
     *   T. Thonhauser, V. R. Cooper, S. Li, A. Puzder, P. Hyldgaard, and
     *   D. C. Langreth, Phys. Rev. B 76, 125112 (2007).
     *
     *   G. Roman-Perez and J. M. Soler, Phys. Rev. Lett. 103, 096102 (2009).
     *
     *
     * If you are using vdW-DF2, please also cite:
     *
     *   K. Lee, E. D. Murray, L. Kong, B. I. Lundqvist, and
     *   D. C. Langreth, Phys. Rev. B 82, 081101(R) (2010).
     *
     *
     * If you are calculating the stress with vdW-DF, please also cite:
     *
     *   R. Sabatini, E. Kucukbenli, B. Kolb, T. Thonhauser, and
     *   S. de Gironcoli, J. Phys.: Condens. Matter 24, 424209 (2012).
     *

     Carrying out vdW-DF run using the following parameters:

     Nqs =      20    Nr_points =    1024   r_max =   100.000
     q_mesh =
               0.00001000     0.04494208     0.09755937     0.15916263
               0.23128650     0.31572767     0.41458969     0.53033537
               0.66584808     0.82450364     1.01025438     1.22772762
               1.48234092     1.78043706     2.12944203     2.53805004
               3.01644009     3.57652955     4.23227104     5.00000000

     Gradients computed in reciprocal space

     Adding external electric field

     Computed dipole along edir(3) :
        Dipole                0.0000 Ry au,          0.0000 Debye
        Dipole field          0.0000 Ry au

        Potential amp.       -0.0000 Ry
        Total length         45.3297 bohr

     Starting wfc are  129 randomized atomic wfcs

     Self-consistent Calculation

     iteration #  1     ecut=    36.75 Ry     beta=0.10
     Davidson diagonalization with overlap
     ethr =  1.00E-02,  avg # of iterations =  8.6

[...]

     total energy              =   -2274.95167712 Ry
     Harris-Foulkes estimate   =   -2319.03265755 Ry
     estimated scf accuracy    <     241.03902207 Ry

[...]

     End of self-consistent calculation

          k = 0.0000 0.0000 0.0000 ( 17219 PWs)   bands (ev):

  -112.1038-111.9225-111.9224 -69.4723 -69.4648 -69.4648 -69.3131 -69.3131
   -69.3129 -69.3129 -69.2665 -69.2663 -56.2257 -56.2193 -56.1364 -56.1364
   -56.1349 -56.1349 -55.9670 -55.8865 -55.8864 -32.6955 -32.6549 -32.6325
   -32.5689 -32.5689 -32.5497 -32.5496 -32.5481 -32.5202 -32.5202 -32.4966
   -32.4738 -32.4738 -32.2578 -32.2577 -32.2551 -32.2376 -32.0811 -32.0811
   -32.0808 -32.0681 -32.0680 -32.0581 -32.0581 -31.9889 -31.8747 -31.8747
    -5.3105  -3.9353  -3.0027  -2.6884  -2.6884  -2.5677  -2.5677  -2.5002
    -2.3826  -2.3826  -2.3566  -2.3566  -2.2981  -2.0699  -2.0699  -1.9701
    -1.9701  -1.9450  -1.8950  -1.4181  -0.9383  -0.2735  -0.0629  -0.0468
    -0.0468   0.2415   0.2415   0.3194   0.3194   0.4541   0.4541   0.7046
     0.7046   0.7253   0.7645   1.1634   1.2862   1.2862   1.4067   1.4618
     1.4618   1.8261   1.8261   1.8652   2.0227   2.3167   2.3167   2.4835
     2.7730   2.8990   2.8990   3.0769   3.0769   3.1207   3.1207   3.1821
     3.1821   3.4569   3.4569   3.6542   3.6542   3.8445   3.8446   3.9675

[...]

          k =-0.0887-0.0512 0.0000 ( 17232 PWs)   bands (ev):

[...]

     the Fermi energy is     0.8287 ev

!    total energy              =   -2293.68663733 Ry
     Harris-Foulkes estimate   =   -2293.68663721 Ry
     estimated scf accuracy    <       0.00000093 Ry

     The total energy is the sum of the following terms:

     one-electron contribution =  -15741.27908810 Ry
     hartree contribution      =    7863.41627507 Ry
     xc contribution           =    -288.44419719 Ry
     ewald contribution        =    5872.73517290 Ry
     electric field correction =       0.00000001 Ry
     smearing contrib. (-TS)   =      -0.11480001 Ry

     convergence has been achieved in  33 iterations

 BEEF-vdW xc energy contributions
           1 :   -251.132769731609
           2 :    225.831791986179
           3 :   -183.747766724194
           4 :    137.509908637618
           5 :   -97.9500061115892
           6 :    70.0106683588245
           7 :   -52.3660726847714
           8 :    40.1848803752550
           9 :   -28.8714132752514
          10 :    16.5351562032016
          11 :   -4.17989324439935
          12 :   -5.91942986858010
          13 :    12.2387772324967
[...]
     /afs/slac.stanford.edu/u/if/mamunm/psp/gbrv1.5pbe/Ti.UPF
     MD5 check sum: 88a00a6731bd790ddea75d31a80cb452
     Pseudo is Ultrasoft + core correction, Zval = 12.0
     Generated by new atomic code, or converted to UPF format
     Using radial grid of  851 points,  6 beta functions with:
                l(1) =   0
                l(2) =   0
                l(3) =   1
                l(4) =   1
                l(5) =   2
                l(6) =   2
     Q(r) pseudized with  6 coefficients,  rinner =    1.000   1.000   1.000
                                                       1.000   1.000

     PseudoPot. # 2 for Cu read from file:
     /afs/slac.stanford.edu/u/if/mamunm/psp/gbrv1.5pbe/Cu.UPF
     MD5 check sum: 6e991ff952a84172a2a52a1c1e996048
     Pseudo is Ultrasoft + core correction, Zval = 19.0
     Generated by new atomic code, or converted to UPF format
     Using radial grid of  867 points,  6 beta functions with:
                l(1) =   0
                l(2) =   0
                l(3) =   1
                l(4) =   1
                l(5) =   2
                l(6) =   2
     Q(r) pseudized with  8 coefficients,  rinner =    1.150   1.150   1.150
                                                       1.150   1.150

     vdW kernel table read from file vdW_kernel_table
     MD5 check sum: 095c7af220d748ca6e76c0b4c6cfb241

     atomic species   valence    mass     pseudopotential
        Ti1           12.00    47.86700     Ti( 1.00)
        Cu1           19.00    63.54600     Cu( 1.00)

     No symmetry found

   Cartesian axes

     site n.     atom                  positions (alat units)
         1           Ti1 tau(   1) = (   0.0000000   0.0000000  10.0000000  )
         2           Ti1 tau(   2) = (  -1.4092283   2.4408551  10.0000000  )
         3           Ti1 tau(   3) = (   1.4092283   2.4408551  10.0000000  )
         4           Cu1 tau(   4) = (   2.8184567   0.0000000  10.0000000  )
         5           Ti1 tau(   5) = (   2.8184567   1.6272367  12.3012603  )
         6           Ti1 tau(   6) = (   1.4092283   4.0680918  12.3012603  )
         7           Ti1 tau(   7) = (  -1.4092283   4.0680918  12.3012603  )
         8           Cu1 tau(   8) = (   0.0000000   1.6272367  12.3012603  )
         9           Ti1 tau(   9) = (  -0.0000069   3.2137483  14.5702489  )
        10           Ti1 tau(  10) = (   1.3739472   0.8339817  14.5702558  )
        11           Ti1 tau(  11) = (   4.2629457   0.8339792  14.5702512  )
        12           Cu1 tau(  12) = (   2.8184687   3.2544684  14.5014209  )

     number of k points=    20  Fermi-Dirac smearing, width (Ry)=  0.0110
                       cart. coord. in units 2pi/alat
        k(    1) = (   0.0000000   0.0000000   0.0000000), wk =   0.0555556
        k(    2) = (   0.0000000   0.0341410   0.0000000), wk =   0.1111111
        k(    3) = (   0.0000000   0.0682821   0.0000000), wk =   0.1111111
        k(    4) = (   0.0000000  -0.1024231   0.0000000), wk =   0.0555556
        k(    5) = (   0.0295670   0.0170705   0.0000000), wk =   0.1111111
        k(    6) = (   0.0295670   0.0512116   0.0000000), wk =   0.1111111
        k(    7) = (   0.0295670   0.0853526   0.0000000), wk =   0.1111111
        k(    8) = (   0.0295670  -0.0853526   0.0000000), wk =   0.1111111
        k(    9) = (   0.0295670  -0.0512116   0.0000000), wk =   0.1111111
        k(   10) = (   0.0295670  -0.0170705   0.0000000), wk =   0.1111111
        k(   11) = (   0.0591340   0.0341410   0.0000000), wk =   0.1111111
        k(   12) = (   0.0591340   0.0682821   0.0000000), wk =   0.1111111
        k(   13) = (   0.0591340   0.1024231   0.0000000), wk =   0.1111111
        k(   14) = (   0.0591340  -0.0682821   0.0000000), wk =   0.1111111
        k(   15) = (   0.0591340  -0.0341410   0.0000000), wk =   0.1111111
        k(   16) = (   0.0591340   0.0000000   0.0000000), wk =   0.1111111
        k(   17) = (  -0.0887010  -0.0512116   0.0000000), wk =   0.0555556
        k(   18) = (  -0.0887010  -0.0170705   0.0000000), wk =   0.1111111
        k(   19) = (  -0.0887010   0.0170705   0.0000000), wk =   0.1111111
        k(   20) = (  -0.0887010  -0.1536347   0.0000000), wk =   0.0555556

     Largest allocated arrays     est. size (Mb)     dimensions
     Largest temporary arrays     est. size (Mb)     dimensions

     Check: negative/imaginary core charge=   -0.000006    0.000000

     Initial potential from superposition of free atoms
     Check: negative starting charge=   -0.012253

     starting charge  152.99960, renormalised to  165.00000

[...]

     *
     * You are using vdW-DF for exchange-correlation in this calculation.
     * Please cite the following three references that made this development
     * possible:
     *
     *   M. Dion, H. Rydberg, E. Schroder, D. C. Langreth, and
     *   B. I. Lundqvist, Phys. Rev. Lett. 92, 246401 (2004).
     *
     *   T. Thonhauser, V. R. Cooper, S. Li, A. Puzder, P. Hyldgaard, and
     *   D. C. Langreth, Phys. Rev. B 76, 125112 (2007).
     *
     *   G. Roman-Perez and J. M. Soler, Phys. Rev. Lett. 103, 096102 (2009).
     *
     *
     * If you are using vdW-DF2, please also cite:
     *
     *   K. Lee, E. D. Murray, L. Kong, B. I. Lundqvist, and
     *   D. C. Langreth, Phys. Rev. B 82, 081101(R) (2010).
     *
     *
     * If you are calculating the stress with vdW-DF, please also cite:
     *
     *   R. Sabatini, E. Kucukbenli, B. Kolb, T. Thonhauser, and
     *   S. de Gironcoli, J. Phys.: Condens. Matter 24, 424209 (2012).
     *

     Carrying out vdW-DF run using the following parameters:

     Nqs =      20    Nr_points =    1024   r_max =   100.000
     q_mesh =
               0.00001000     0.04494208     0.09755937     0.15916263
               0.23128650     0.31572767     0.41458969     0.53033537
               0.66584808     0.82450364     1.01025438     1.22772762
               1.48234092     1.78043706     2.12944203     2.53805004
               3.01644009     3.57652955     4.23227104     5.00000000

     Gradients computed in reciprocal space

[...]

     Starting wfc are  129 randomized atomic wfcs

     Self-consistent Calculation

[...]

     total energy              =   -2293.69243507 Ry
     Harris-Foulkes estimate   =   -2293.69243482 Ry
     estimated scf accuracy    <       0.00000112 Ry

     iteration # 29     ecut=    36.75 Ry     beta=0.10
     Davidson diagonalization with overlap
     ethr =  6.80E-10,  avg # of iterations =  3.4

[...]

     negative rho (up, down):  6.016E-03 0.000E+00

     Adding external electric field

     Computed dipole along edir(3) :
        Dipole                0.0148 Ry au,          0.0376 Debye
        Dipole field          0.0000 Ry au

        Potential amp.       -0.0037 Ry
        Total length         45.3297 bohr

     End of self-consistent calculation

[...]

          k = 0.0591 0.0000 0.0000 ( 17178 PWs)   bands (ev):

[...]

          k =-0.0887-0.1536 0.0000 ( 17232 PWs)   bands (ev):

  -112.1104-111.9800-111.9053 -69.4844 -69.4679 -69.4679 -69.3626 -69.3626
   -69.3373 -69.2957 -69.2957 -69.2496 -56.1742 -56.1556 -56.1457 -56.1195
   -56.1164 -56.0919 -55.9083 -55.8825 -55.8551 -32.5827 -32.5717 -32.5590
   -32.5293 -32.5132 -32.4945 -32.4738 -32.4706 -32.4040 -32.3997 -32.3757
   -32.3736 -32.3414 -32.3334 -32.3133 -32.2921 -32.2502 -32.1688 -32.1197
   -32.1149 -32.1032 -32.0683 -32.0309 -32.0068 -32.0011 -31.9931 -31.8614
    -3.9032  -3.6742  -2.8385  -2.4843  -2.4790  -2.4561  -2.2983  -2.2813
    -2.2803  -2.2281  -2.1557  -2.1358  -2.0944  -2.0824  -2.0494  -2.0128
    -1.9682  -1.9281  -1.8936  -1.4139  -1.1776  -0.8742  -0.6283  -0.2481
    -0.0260   0.1500   0.1644   0.1935   0.3264   0.3512   0.4374   0.4792
     0.6059   0.6485   0.7696   0.9272   0.9709   1.0067   1.0879   1.2358
     1.2684   1.4718   1.6586   1.6942   1.7759   1.8382   1.8669   1.9379
     2.2529   2.6454   2.7351   2.7511   2.7764   2.8051   2.9335   2.9784
     3.0275   3.0318   3.1430   3.2204   3.4119   3.4836   3.7911   3.8012

     the Fermi energy is     0.8486 ev

!    total energy              =   -2293.69243468 Ry
     Harris-Foulkes estimate   =   -2293.69243530 Ry
     estimated scf accuracy    <       0.00000058 Ry

     The total energy is the sum of the following terms:

     one-electron contribution =  -15859.15324501 Ry
     hartree contribution      =    7922.43844959 Ry
     xc contribution           =    -288.49744181 Ry
     ewald contribution        =    5931.63377667 Ry
     electric field correction =       0.00000060 Ry
     smearing contrib. (-TS)   =      -0.11397473 Ry

     convergence has been achieved in  29 iterations

 BEEF-vdW xc energy contributions
           1 :   -251.269742779197
           2 :    225.995292542526
           3 :   -183.937072087197
           4 :    137.693377083581
           5 :   -98.0880333577439
           6 :    70.0878296833811
           7 :   -52.4065523780819
           8 :    40.2374464089618
           9 :   -28.9737962556473
          10 :    16.6854342750409
          11 :   -4.33719435408869
          12 :   -5.80413977032327
          13 :    12.1853867677597
          14 :   -15.0644558521204
          15 :    16.1471863676576
          16 :   -17.2628416540699
          17 :    19.1356715161466
          18 :   -21.1035322666657
          19 :    21.8479107280227
          20 :   -20.4883232173942
          21 :    17.2251643938314
          22 :   -13.1542795095618
          23 :    9.49231264293076
          24 :   -6.82035659200812
          25 :    4.84927150655017
          26 :   -2.79982878985260
          27 :   6.547503825191825E-002
          28 :    3.32125409580652
          29 :   -6.71600745417055
          30 :    9.30894324203132
          31 :   -23.8094936873660
          32 :   -16.7108277847952

     Forces acting on atoms (Ry/au):

     negative rho (up, down):  6.016E-03 0.000E+00
     atom    1 type  1   force =     0.00000614    0.01109462    0.00286621
     atom    2 type  1   force =     0.00960691   -0.00553535    0.00287104
     atom    3 type  1   force =    -0.00959695   -0.00553582    0.00287399
     atom    4 type  2   force =    -0.00000158   -0.00000360    0.01520971
     atom    5 type  1   force =     0.00000856   -0.00120283   -0.00447844
     atom    6 type  1   force =    -0.00103804    0.00061863   -0.00448221
     atom    7 type  1   force =     0.00105066    0.00061552   -0.00448640
     atom    8 type  2   force =    -0.00007075   -0.00010418   -0.00678567
     atom    9 type  1   force =     0.00000624    0.00148208   -0.00102778
     atom   10 type  1   force =     0.00128266   -0.00073038   -0.00102766
     atom   11 type  1   force =    -0.00127048   -0.00073026   -0.00102498
     atom   12 type  2   force =     0.00001663    0.00003157   -0.00050783

     Total force =     0.027304     Total SCF correction =     0.002461

     entering subroutine stress ...

     negative rho (up, down):  6.016E-03 0.000E+00
          total   stress  (Ry/bohr**3)                   (kbar)     P=  -11.17
  -0.00009248  -0.00000000   0.00000000        -13.60     -0.00      0.00
  -0.00000000  -0.00009247  -0.00000000         -0.00    -13.60     -0.00
   0.00000000  -0.00000000  -0.00004289          0.00     -0.00     -6.31

 !ASE

     Writing output data file calc.save

     General routines

     Parallel routines

   This run was terminated on:  23:40:20   1Jan2019

   JOB DONE.
Job  /afs/slac/g/suncat/bin/suncat-tsmpirun -x LD_LIBRARY_PATH -wdir /scratch/qe649192_2ijsl pw.x -in pw.inp

TID   HOST_NAME   COMMAND_LINE            STATUS            TERMINATION_TIME
00000 suncat0188 pw.x -in pw.inp   Done                     01/01/2019 23:40:20
00001 suncat0188 pw.x -in pw.inp   Done                     01/01/2019 23:40:20
00002 suncat0188 pw.x -in pw.inp   Done                     01/01/2019 23:40:20
00003 suncat0188 pw.x -in pw.inp   Done                     01/01/2019 23:40:20
00004 suncat0188 pw.x -in pw.inp   Done                     01/01/2019 23:40:20
00005 suncat0188 pw.x -in pw.inp   Done                     01/01/2019 23:40:20
00006 suncat0188 pw.x -in pw.inp   Done                     01/01/2019 23:40:20
00007 suncat0188 pw.x -in pw.inp   Done                     01/01/2019 23:40:20
00008 suncat0129 pw.x -in pw.inp   Done                     01/01/2019 23:40:20
00009 suncat0129 pw.x -in pw.inp   Done                     01/01/2019 23:40:20
00010 suncat0129 pw.x -in pw.inp   Done                     01/01/2019 23:40:20
00011 suncat0129 pw.x -in pw.inp   Done                     01/01/2019 23:40:20
00012 suncat0129 pw.x -in pw.inp   Done                     01/01/2019 23:40:20
00013 suncat0129 pw.x -in pw.inp   Done                     01/01/2019 23:40:20
00014 suncat0129 pw.x -in pw.inp   Done                     01/01/2019 23:40:20
00015 suncat0129 pw.x -in pw.inp   Done                     01/01/2019 23:40:20
00016 suncat0116 pw.x -in pw.inp   Done                     01/01/2019 23:40:20
00017 suncat0116 pw.x -in pw.inp   Done                     01/01/2019 23:40:20
00018 suncat0116 pw.x -in pw.inp   Done                     01/01/2019 23:40:20
00019 suncat0116 pw.x -in pw.inp   Done                     01/01/2019 23:40:20
00020 suncat0116 pw.x -in pw.inp   Done                     01/01/2019 23:40:20
00021 suncat0116 pw.x -in pw.inp   Done                     01/01/2019 23:40:20
00022 suncat0116 pw.x -in pw.inp   Done                     01/01/2019 23:40:20
00023 suncat0116 pw.x -in pw.inp   Done                     01/01/2019 23:40:20
00024 suncat0114 pw.x -in pw.inp   Done                     01/01/2019 23:40:20
00025 suncat0114 pw.x -in pw.inp   Done                     01/01/2019 23:40:20
00026 suncat0114 pw.x -in pw.inp   Done                     01/01/2019 23:40:20
00027 suncat0114 pw.x -in pw.inp   Done                     01/01/2019 23:40:20
00028 suncat0114 pw.x -in pw.inp   Done                     01/01/2019 23:40:20
00029 suncat0114 pw.x -in pw.inp   Done                     01/01/2019 23:40:20
00030 suncat0114 pw.x -in pw.inp   Done                     01/01/2019 23:40:20
00031 suncat0114 pw.x -in pw.inp   Done                     01/01/2019 23:40:20
00032 suncat0264 pw.x -in pw.inp   Done                     01/01/2019 23:40:20
00033 suncat0264 pw.x -in pw.inp   Done                     01/01/2019 23:40:20
00034 suncat0264 pw.x -in pw.inp   Done                     01/01/2019 23:40:20
00035 suncat0264 pw.x -in pw.inp   Done                     01/01/2019 23:40:20
00036 suncat0264 pw.x -in pw.inp   Done                     01/01/2019 23:40:20
00037 suncat0264 pw.x -in pw.inp   Done                     01/01/2019 23:40:20
00038 suncat0264 pw.x -in pw.inp   Done                     01/01/2019 23:40:20
00039 suncat0264 pw.x -in pw.inp   Done                     01/01/2019 23:40:20
00040 suncat0260 pw.x -in pw.inp   Done                     01/01/2019 23:40:20
00041 suncat0260 pw.x -in pw.inp   Done                     01/01/2019 23:40:20
00042 suncat0260 pw.x -in pw.inp   Done                     01/01/2019 23:40:20
00043 suncat0260 pw.x -in pw.inp   Done                     01/01/2019 23:40:20
00044 suncat0260 pw.x -in pw.inp   Done                     01/01/2019 23:40:20
00045 suncat0260 pw.x -in pw.inp   Done                     01/01/2019 23:40:20
00046 suncat0260 pw.x -in pw.inp   Done                     01/01/2019 23:40:20
00047 suncat0260 pw.x -in pw.inp   Done                     01/01/2019 23:40:20
00048 suncat0249 pw.x -in pw.inp   Done                     01/01/2019 23:40:20
00049 suncat0249 pw.x -in pw.inp   Done                     01/01/2019 23:40:20
00050 suncat0249 pw.x -in pw.inp   Done                     01/01/2019 23:40:20
00051 suncat0249 pw.x -in pw.inp   Done                     01/01/2019 23:40:20
00052 suncat0249 pw.x -in pw.inp   Done                     01/01/2019 23:40:20
00053 suncat0249 pw.x -in pw.inp   Done                     01/01/2019 23:40:20
00054 suncat0249 pw.x -in pw.inp   Done                     01/01/2019 23:40:20
00055 suncat0249 pw.x -in pw.inp   Done                     01/01/2019 23:40:20
00056 suncat0231 pw.x -in pw.inp   Done                     01/01/2019 23:40:20
00057 suncat0231 pw.x -in pw.inp   Done                     01/01/2019 23:40:20
00058 suncat0231 pw.x -in pw.inp   Done                     01/01/2019 23:40:20
00059 suncat0231 pw.x -in pw.inp   Done                     01/01/2019 23:40:20
00060 suncat0231 pw.x -in pw.inp   Done                     01/01/2019 23:40:20
00061 suncat0231 pw.x -in pw.inp   Done                     01/01/2019 23:40:20
00062 suncat0231 pw.x -in pw.inp   Done                     01/01/2019 23:40:20
00063 suncat0231 pw.x -in pw.inp   Done                     01/01/2019 23:40:20