     Program PWSCF v.5.1rc2 (svn rev. 11289) starts on 27Dec2018 at 14:22:16

     Current dimensions of program PWSCF are:
     Max number of different atomic species (ntypx) = 10
     Max number of k-points (npk) =  40000
     Max angular momentum in pseudopotentials (lmaxx) =  3
     Presently stress not available with electric field

     IMPORTANT: XC functional enforced from input :
     Exchange-correlation      = BEEF-VDW ( 1  4 27 13 2)
     Any further DFT definition will be discarded
     Please, verify this is what you really want

     Subspace diagonalization in iterative solution of the eigenvalue problem:
     a serial algorithm will be used

     bravais-lattice index     =            0
     lattice parameter (alat)  =       1.8897  a.u.
     unit-cell volume          =    4329.2248 (a.u.)^3
     number of atoms/cell      =           12
     number of atomic types    =            2
     number of electrons       =       180.00
     number of Kohn-Sham states=          120
     kinetic-energy cutoff     =      36.7493  Ry
     charge density cutoff     =     367.4932  Ry
     convergence threshold     =      1.0E-06
     mixing beta               =       0.1000
     number of iterations used =           10  plain     mixing
     Exchange-correlation      = BEEF-VDW ( 1  4 27 13 2)
     nstep                     =           50

     celldm(1)=   1.889726  celldm(2)=   0.000000  celldm(3)=   0.000000
     celldm(4)=   0.000000  celldm(5)=   0.000000  celldm(6)=   0.000000

     crystal axes: (cart. coord. in units of alat)
               a(1) = (   5.499743   0.000000   0.000000 )
               a(2) = (  -2.749872   4.762918   0.000000 )
               a(3) = (   0.000000   0.000000  24.490522 )

     reciprocal axes: (cart. coord. in units 2 pi/alat)
               b(1) = (  0.181827  0.104978  0.000000 )
               b(2) = (  0.000000  0.209955  0.000000 )
               b(3) = (  0.000000  0.000000  0.040832 )

     PseudoPot. # 1 for Os read from file:
     /afs/slac.stanford.edu/u/if/mamunm/psp/gbrv1.5pbe/Os.UPF
     MD5 check sum: a3fb40a04f0c37c25c34bbc47164c9a8
     Pseudo is Ultrasoft + core correction, Zval = 16.0
     Generated by new atomic code, or converted to UPF format
     Using radial grid of  983 points,  8 beta functions with:
                l(1) =   0
                l(2) =   0
                l(3) =   1
                l(4) =   1
                l(5) =   2
                l(6) =   2
                l(7) =   3
                l(8) =   3
     Q(r) pseudized with  8 coefficients,  rinner =    1.150   1.150   1.150
                                                       1.150   1.150   1.150
                                                       1.150

     PseudoPot. # 2 for Ti read from file:
     /afs/slac.stanford.edu/u/if/mamunm/psp/gbrv1.5pbe/Ti.UPF
     MD5 check sum: 88a00a6731bd790ddea75d31a80cb452
     Pseudo is Ultrasoft + core correction, Zval = 12.0
     Generated by new atomic code, or converted to UPF format
     Using radial grid of  851 points,  6 beta functions with:
                l(1) =   0
                l(2) =   0
                l(3) =   1
                l(4) =   1
                l(5) =   2
                l(6) =   2
     Q(r) pseudized with  6 coefficients,  rinner =    1.000   1.000   1.000
                                                       1.000   1.000

     vdW kernel table read from file vdW_kernel_table
     MD5 check sum: 095c7af220d748ca6e76c0b4c6cfb241

     atomic species   valence    mass     pseudopotential
        Os1           16.00   190.23000     Os( 1.00)
        Ti1           12.00    47.86700     Ti( 1.00)

     No symmetry found

   Cartesian axes

     site n.     atom                  positions (alat units)
         1           Os1 tau(   1) = (   0.0000000   0.0000000  10.0000000  )
         2           Os1 tau(   2) = (  -1.3749359   2.3814588  10.0000000  )
         3           Os1 tau(   3) = (   1.3749359   2.3814588  10.0000000  )
         4           Ti1 tau(   4) = (   2.7498717   0.0000000  10.0000000  )
         5           Os1 tau(   5) = (   2.7498717   1.5876392  12.2452609  )
         6           Os1 tau(   6) = (   1.3749359   3.9690980  12.2452609  )
         7           Os1 tau(   7) = (  -1.3749359   3.9690980  12.2452609  )
         8           Ti1 tau(   8) = (   0.0000000   1.5876392  12.2452609  )
         9           Os1 tau(   9) = (  -0.0000000   3.1752784  14.4905218  )
        10           Os1 tau(  10) = (   1.3749359   0.7938196  14.4905218  )
        11           Os1 tau(  11) = (   4.1248076   0.7938196  14.4905218  )
        12           Ti1 tau(  12) = (   2.7498717   3.1752784  14.4905218  )

     number of k points=    20  Fermi-Dirac smearing, width (Ry)=  0.0110
                       cart. coord. in units 2pi/alat
        k(    1) = (   0.0000000   0.0000000   0.0000000), wk =   0.0555556
        k(    2) = (   0.0000000   0.0349926   0.0000000), wk =   0.1111111
        k(    3) = (   0.0000000   0.0699851   0.0000000), wk =   0.1111111
        k(    4) = (   0.0000000  -0.1049777   0.0000000), wk =   0.0555556
        k(    5) = (   0.0303044   0.0174963   0.0000000), wk =   0.1111111
        k(    6) = (   0.0303044   0.0524888   0.0000000), wk =   0.1111111
        k(    7) = (   0.0303044   0.0874814   0.0000000), wk =   0.1111111
        k(    8) = (   0.0303044  -0.0874814   0.0000000), wk =   0.1111111
        k(    9) = (   0.0303044  -0.0524888   0.0000000), wk =   0.1111111
        k(   10) = (   0.0303044  -0.0174963   0.0000000), wk =   0.1111111
        k(   11) = (   0.0606089   0.0349926   0.0000000), wk =   0.1111111
        k(   12) = (   0.0606089   0.0699851   0.0000000), wk =   0.1111111
        k(   13) = (   0.0606089   0.1049777   0.0000000), wk =   0.1111111
        k(   14) = (   0.0606089  -0.0699851   0.0000000), wk =   0.1111111
        k(   15) = (   0.0606089  -0.0349926   0.0000000), wk =   0.1111111
        k(   16) = (   0.0606089   0.0000000   0.0000000), wk =   0.1111111
        k(   17) = (  -0.0909133  -0.0524888   0.0000000), wk =   0.0555556
        k(   18) = (  -0.0909133  -0.0174963   0.0000000), wk =   0.1111111
        k(   19) = (  -0.0909133   0.0174963   0.0000000), wk =   0.1111111
        k(   20) = (  -0.0909133  -0.1574665   0.0000000), wk =   0.0555556

     Largest allocated arrays     est. size (Mb)     dimensions
     Largest temporary arrays     est. size (Mb)     dimensions

     Check: negative/imaginary core charge=   -0.000002    0.000000

     Initial potential from superposition of free atoms
     Check: negative starting charge=   -1.125880

     starting charge  172.49954, renormalised to  180.00000

     negative rho (up, down):  1.175E+00 0.000E+00

     *
     * You are using vdW-DF for exchange-correlation in this calculation.
     * Please cite the following three references that made this development
     * possible:
     *
     *   M. Dion, H. Rydberg, E. Schroder, D. C. Langreth, and
     *   B. I. Lundqvist, Phys. Rev. Lett. 92, 246401 (2004).
     *
     *   T. Thonhauser, V. R. Cooper, S. Li, A. Puzder, P. Hyldgaard, and
     *   D. C. Langreth, Phys. Rev. B 76, 125112 (2007).
     *
     *   G. Roman-Perez and J. M. Soler, Phys. Rev. Lett. 103, 096102 (2009).
     *
     *
     * If you are using vdW-DF2, please also cite:
     *
     *   K. Lee, E. D. Murray, L. Kong, B. I. Lundqvist, and
     *   D. C. Langreth, Phys. Rev. B 82, 081101(R) (2010).
     *
     *
     * If you are calculating the stress with vdW-DF, please also cite:
     *
     *   R. Sabatini, E. Kucukbenli, B. Kolb, T. Thonhauser, and
     *   S. de Gironcoli, J. Phys.: Condens. Matter 24, 424209 (2012).
     *

     Carrying out vdW-DF run using the following parameters:

     Nqs =      20    Nr_points =    1024   r_max =   100.000
     q_mesh =
               0.00001000     0.04494208     0.09755937     0.15916263
               0.23128650     0.31572767     0.41458969     0.53033537
               0.66584808     0.82450364     1.01025438     1.22772762
               1.48234092     1.78043706     2.12944203     2.53805004
               3.01644009     3.57652955     4.23227104     5.00000000

     Gradients computed in reciprocal space

     Adding external electric field

     Computed dipole along edir(3) :
        Dipole                0.0000 Ry au,          0.0000 Debye
        Dipole field          0.0000 Ry au

        Potential amp.       -0.0000 Ry
        Total length         45.1234 bohr

     Starting wfc are  147 randomized atomic wfcs

     Self-consistent Calculation

     iteration #  1     ecut=    36.75 Ry     beta=0.10
     Davidson diagonalization with overlap
     ethr =  1.00E-02,  avg # of iterations =  3.8

[...]

     total energy              =   -2155.78340776 Ry
     Harris-Foulkes estimate   =   -2160.42685717 Ry
     estimated scf accuracy    <      26.28999893 Ry

[...]

     End of self-consistent calculation

          k = 0.0000 0.0000 0.0000 ( 16187 PWs)   bands (ev):

   -84.0427 -84.0030 -84.0030 -83.7528 -83.7516 -83.7141 -83.7141 -83.7138
   -83.7138 -54.6407 -54.6401 -54.3611 -43.7225 -43.5000 -43.5000 -43.4681
   -43.4173 -43.3748 -43.3748 -43.3429 -43.1361 -43.1081 -43.1081 -43.0626
   -43.0375 -43.0375 -43.0226 -43.0226 -42.9989 -42.9989 -42.9569 -42.9290
   -42.9290 -42.7615 -42.7615 -42.7597 -42.7549 -42.7549 -42.7455 -30.9996
   -30.9871 -30.7801 -30.7801 -30.7769 -30.7769 -30.6043 -30.6043 -30.5678
    -5.9818  -4.2536  -3.6842  -3.3577  -3.1012  -3.1012  -2.7676  -2.7676
    -2.7173  -2.4258  -2.3094  -2.3094  -2.1725  -2.0540  -2.0540  -1.2338
    -0.5811  -0.5811  -0.1459  -0.1459   0.0975   0.1233   0.5523   0.6067
     0.9202   0.9202   0.9864   0.9864   1.2041   1.2041   1.5471   1.5471
     1.7113   1.7190   1.7190   2.4733   2.4830   2.6324   2.6324   2.8944
     2.8944   2.9417   3.2070   3.2070   3.2713   3.9667   3.9667   4.2058
     4.2065   4.2065   4.3521   4.4467   4.4467   4.9062   5.1402   5.1402
     5.1473   5.2695   5.2695   5.5068   5.5953   5.8192   5.8192   5.9591
     5.9591   6.0958   6.0958   6.5741   6.5741   6.5788   6.6295   6.8285

[...]

          k =-0.0909-0.0525 0.0000 ( 16280 PWs)   bands (ev):

[...]

     the Fermi energy is     2.4675 ev

!    total energy              =   -2157.81574513 Ry
     Harris-Foulkes estimate   =   -2157.81574091 Ry
     estimated scf accuracy    <       0.00000097 Ry

     The total energy is the sum of the following terms:

     one-electron contribution =  -18478.83840725 Ry
     hartree contribution      =    9223.44027930 Ry
     xc contribution           =    -404.39486338 Ry
     ewald contribution        =    7502.05496459 Ry
     electric field correction =       0.00000000 Ry
     smearing contrib. (-TS)   =      -0.07771840 Ry

     convergence has been achieved in  16 iterations

 BEEF-vdW xc energy contributions
           1 :   -353.441959592647
           2 :    325.906243264909
           3 :   -277.836629158054
           4 :    220.455386541534
           5 :   -165.272288911752
           6 :    120.687646048185
           7 :   -90.2785120211684
           8 :    72.9840093476201
[...]
     Using radial grid of  983 points,  8 beta functions with:
                l(1) =   0
                l(2) =   0
                l(3) =   1
                l(4) =   1
                l(5) =   2
                l(6) =   2
                l(7) =   3
                l(8) =   3
     Q(r) pseudized with  8 coefficients,  rinner =    1.150   1.150   1.150
                                                       1.150   1.150   1.150
                                                       1.150

     PseudoPot. # 2 for Ti read from file:
     /afs/slac.stanford.edu/u/if/mamunm/psp/gbrv1.5pbe/Ti.UPF
     MD5 check sum: 88a00a6731bd790ddea75d31a80cb452
     Pseudo is Ultrasoft + core correction, Zval = 12.0
     Generated by new atomic code, or converted to UPF format
     Using radial grid of  851 points,  6 beta functions with:
                l(1) =   0
                l(2) =   0
                l(3) =   1
                l(4) =   1
                l(5) =   2
                l(6) =   2
     Q(r) pseudized with  6 coefficients,  rinner =    1.000   1.000   1.000
                                                       1.000   1.000

     vdW kernel table read from file vdW_kernel_table
     MD5 check sum: 095c7af220d748ca6e76c0b4c6cfb241

     atomic species   valence    mass     pseudopotential
        Os1           16.00   190.23000     Os( 1.00)
        Ti1           12.00    47.86700     Ti( 1.00)

     No symmetry found

   Cartesian axes

     site n.     atom                  positions (alat units)
         1           Os1 tau(   1) = (   0.0000000   0.0000000  10.0000000  )
         2           Os1 tau(   2) = (  -1.3749359   2.3814588  10.0000000  )
         3           Os1 tau(   3) = (   1.3749359   2.3814588  10.0000000  )
         4           Ti1 tau(   4) = (   2.7498717   0.0000000  10.0000000  )
         5           Os1 tau(   5) = (   2.7498717   1.5876392  12.2452609  )
         6           Os1 tau(   6) = (   1.3749359   3.9690980  12.2452609  )
         7           Os1 tau(   7) = (  -1.3749359   3.9690980  12.2452609  )
         8           Ti1 tau(   8) = (   0.0000000   1.5876392  12.2452609  )
         9           Os1 tau(   9) = (   0.0000028   3.1815583  14.3993971  )
        10           Os1 tau(  10) = (   1.3803726   0.7906791  14.3993988  )
        11           Os1 tau(  11) = (   4.1193680   0.7906741  14.3993989  )
        12           Ti1 tau(  12) = (   2.7498754   3.1752750  14.3969836  )

     number of k points=    20  Fermi-Dirac smearing, width (Ry)=  0.0110
                       cart. coord. in units 2pi/alat
        k(    1) = (   0.0000000   0.0000000   0.0000000), wk =   0.0555556
        k(    2) = (   0.0000000   0.0349926   0.0000000), wk =   0.1111111
        k(    3) = (   0.0000000   0.0699851   0.0000000), wk =   0.1111111
        k(    4) = (   0.0000000  -0.1049777   0.0000000), wk =   0.0555556
        k(    5) = (   0.0303044   0.0174963   0.0000000), wk =   0.1111111
        k(    6) = (   0.0303044   0.0524888   0.0000000), wk =   0.1111111
        k(    7) = (   0.0303044   0.0874814   0.0000000), wk =   0.1111111
        k(    8) = (   0.0303044  -0.0874814   0.0000000), wk =   0.1111111
        k(    9) = (   0.0303044  -0.0524888   0.0000000), wk =   0.1111111
        k(   10) = (   0.0303044  -0.0174963   0.0000000), wk =   0.1111111
        k(   11) = (   0.0606089   0.0349926   0.0000000), wk =   0.1111111
        k(   12) = (   0.0606089   0.0699851   0.0000000), wk =   0.1111111
        k(   13) = (   0.0606089   0.1049777   0.0000000), wk =   0.1111111
        k(   14) = (   0.0606089  -0.0699851   0.0000000), wk =   0.1111111
        k(   15) = (   0.0606089  -0.0349926   0.0000000), wk =   0.1111111
        k(   16) = (   0.0606089   0.0000000   0.0000000), wk =   0.1111111
        k(   17) = (  -0.0909133  -0.0524888   0.0000000), wk =   0.0555556
        k(   18) = (  -0.0909133  -0.0174963   0.0000000), wk =   0.1111111
        k(   19) = (  -0.0909133   0.0174963   0.0000000), wk =   0.1111111
        k(   20) = (  -0.0909133  -0.1574665   0.0000000), wk =   0.0555556

     Largest allocated arrays     est. size (Mb)     dimensions
     Largest temporary arrays     est. size (Mb)     dimensions

     Check: negative/imaginary core charge=   -0.000002    0.000000

     Initial potential from superposition of free atoms
     Check: negative starting charge=   -1.125280

     starting charge  172.49954, renormalised to  180.00000

[...]

     *
     * You are using vdW-DF for exchange-correlation in this calculation.
     * Please cite the following three references that made this development
     * possible:
     *
     *   M. Dion, H. Rydberg, E. Schroder, D. C. Langreth, and
     *   B. I. Lundqvist, Phys. Rev. Lett. 92, 246401 (2004).
     *
     *   T. Thonhauser, V. R. Cooper, S. Li, A. Puzder, P. Hyldgaard, and
     *   D. C. Langreth, Phys. Rev. B 76, 125112 (2007).
     *
     *   G. Roman-Perez and J. M. Soler, Phys. Rev. Lett. 103, 096102 (2009).
     *
     *
     * If you are using vdW-DF2, please also cite:
     *
     *   K. Lee, E. D. Murray, L. Kong, B. I. Lundqvist, and
     *   D. C. Langreth, Phys. Rev. B 82, 081101(R) (2010).
     *
     *
     * If you are calculating the stress with vdW-DF, please also cite:
     *
     *   R. Sabatini, E. Kucukbenli, B. Kolb, T. Thonhauser, and
     *   S. de Gironcoli, J. Phys.: Condens. Matter 24, 424209 (2012).
     *

     Carrying out vdW-DF run using the following parameters:

     Nqs =      20    Nr_points =    1024   r_max =   100.000
     q_mesh =
               0.00001000     0.04494208     0.09755937     0.15916263
               0.23128650     0.31572767     0.41458969     0.53033537
               0.66584808     0.82450364     1.01025438     1.22772762
               1.48234092     1.78043706     2.12944203     2.53805004
               3.01644009     3.57652955     4.23227104     5.00000000

     Gradients computed in reciprocal space

[...]

     Starting wfc are  147 randomized atomic wfcs

     Self-consistent Calculation

[...]

     total energy              =   -2157.82565080 Ry
     Harris-Foulkes estimate   =   -2157.82565027 Ry
     estimated scf accuracy    <       0.00001560 Ry

     iteration # 16     ecut=    36.75 Ry     beta=0.10
     Davidson diagonalization with overlap
     ethr =  7.45E-09,  avg # of iterations =  1.4

[...]

     negative rho (up, down):  1.125E+00 0.000E+00

     Adding external electric field

     Computed dipole along edir(3) :
        Dipole                0.0227 Ry au,          0.0578 Debye
        Dipole field          0.0001 Ry au

        Potential amp.       -0.0060 Ry
        Total length         45.1234 bohr

     End of self-consistent calculation

[...]

          k = 0.0606 0.0000 0.0000 ( 16298 PWs)   bands (ev):

[...]

          k =-0.0909-0.1575 0.0000 ( 16280 PWs)   bands (ev):

   -84.0332 -84.0198 -84.0064 -83.7167 -83.7120 -83.7040 -83.6992 -83.6913
   -83.6864 -54.6518 -54.5055 -54.2674 -43.6349 -43.5325 -43.4430 -43.4370
   -43.3448 -43.3354 -43.2806 -43.2542 -43.2440 -43.1937 -43.0700 -43.0535
   -43.0284 -42.9903 -42.9753 -42.9735 -42.9655 -42.9306 -42.9291 -42.9101
   -42.9015 -42.8912 -42.8868 -42.8788 -42.8480 -42.7417 -42.7290 -31.0115
   -30.8525 -30.8032 -30.7912 -30.6837 -30.6711 -30.5428 -30.5299 -30.4748
    -4.4574  -3.9953  -2.8390  -2.5597  -2.4607  -2.3358  -2.2300  -2.0010
    -1.8581  -1.7821  -1.6983  -1.5245  -1.2000  -1.1857  -1.0297  -0.9697
    -0.9009  -0.5958  -0.5596  -0.4525  -0.0398   0.0566   0.1081   0.2368
     0.3247   0.3745   0.4397   0.5149   0.5496   0.5571   0.6555   0.8579
     0.9264   1.0625   1.4234   1.4518   1.4662   1.7923   1.9469   1.9624
     2.0576   2.0716   2.3593   2.4860   2.7674   2.7725   2.8211   2.8523
     3.3522   3.5165   3.5551   3.7802   3.8179   4.0784   4.1589   4.2745
     4.4839   4.6125   4.7601   4.8029   5.0434   5.4308   5.5603   5.6607
     5.8187   5.9774   7.0701   7.3416   7.4064   7.4901   7.5391   7.6538

     the Fermi energy is     2.4857 ev

!    total energy              =   -2157.82565665 Ry
     Harris-Foulkes estimate   =   -2157.82565187 Ry
     estimated scf accuracy    <       0.00000073 Ry

     The total energy is the sum of the following terms:

     one-electron contribution =  -18721.27365967 Ry
     hartree contribution      =    9344.80354519 Ry
     xc contribution           =    -404.62557735 Ry
     ewald contribution        =    7623.34585051 Ry
     electric field correction =       0.00000150 Ry
     smearing contrib. (-TS)   =      -0.07581682 Ry

     convergence has been achieved in  16 iterations

 BEEF-vdW xc energy contributions
           1 :   -353.675361739056
           2 :    326.218981045838
           3 :   -278.255037646240
           4 :    220.931747533249
           5 :   -165.707486085912
           6 :    120.982288239353
           7 :   -90.3834983650911
           8 :    72.9236859635683
           9 :   -64.5694656337140
          10 :    60.3657856510069
          11 :   -56.2775347329228
          12 :    50.1816907087008
          13 :   -41.9107383904005
          14 :    32.6231754120170
          15 :   -23.9489254208550
          16 :    17.2597572103393
          17 :   -13.2343151237602
          18 :    11.7325124570046
          19 :   -11.9433940445240
          20 :    12.7308901946088
          21 :   -13.0655590115652
          22 :    12.3881786073597
          23 :   -10.7721372340382
          24 :    8.81520056627437
          25 :   -7.30624234144386
          26 :    6.81604006497798
          27 :   -7.41267510199873
          28 :    8.64313719249253
          29 :   -9.78586679279977
          30 :    10.2271835126620
          31 :   -34.0150062504448
          32 :   -25.6830018147839

     Forces acting on atoms (Ry/au):

     negative rho (up, down):  1.125E+00 0.000E+00
     atom    1 type  1   force =    -0.00000086   -0.00189392    0.01969570
     atom    2 type  1   force =    -0.00164052    0.00094660    0.01969686
     atom    3 type  1   force =     0.00164042    0.00094848    0.01969353
     atom    4 type  2   force =    -0.00000049   -0.00000028    0.01654315
     atom    5 type  1   force =    -0.00000023    0.00472344   -0.02005017
     atom    6 type  1   force =     0.00409139   -0.00236210   -0.02005137
     atom    7 type  1   force =    -0.00409064   -0.00236160   -0.02005133
     atom    8 type  2   force =    -0.00000008   -0.00000009   -0.01572407
     atom    9 type  1   force =    -0.00000097   -0.00082075    0.00023826
     atom   10 type  1   force =    -0.00070998    0.00040989    0.00023890
     atom   11 type  1   force =     0.00071155    0.00041051    0.00023993
     atom   12 type  2   force =     0.00000042   -0.00000017   -0.00046939

     Total force =     0.054506     Total SCF correction =     0.002584

     entering subroutine stress ...

     negative rho (up, down):  1.125E+00 0.000E+00
          total   stress  (Ry/bohr**3)                   (kbar)     P=  -25.94
  -0.00022307   0.00000000  -0.00000000        -32.82      0.00     -0.00
   0.00000000  -0.00022307   0.00000000          0.00    -32.81      0.00
  -0.00000000   0.00000000  -0.00008281         -0.00      0.00    -12.18

 !ASE

     Writing output data file calc.save

     General routines

     Parallel routines

   This run was terminated on:  15:25:24  27Dec2018

   JOB DONE.
Job  /afs/slac/g/suncat/bin/suncat-tsmpirun -x LD_LIBRARY_PATH -wdir /scratch/qe110357_A3no9 pw.x -in pw.inp

TID   HOST_NAME   COMMAND_LINE            STATUS            TERMINATION_TIME
00000 suncat0266 pw.x -in pw.inp   Done                     12/27/2018 15:25:24
00001 suncat0266 pw.x -in pw.inp   Done                     12/27/2018 15:25:24
00002 suncat0266 pw.x -in pw.inp   Done                     12/27/2018 15:25:24
00003 suncat0266 pw.x -in pw.inp   Done                     12/27/2018 15:25:24
00004 suncat0266 pw.x -in pw.inp   Done                     12/27/2018 15:25:24
00005 suncat0266 pw.x -in pw.inp   Done                     12/27/2018 15:25:24
00006 suncat0266 pw.x -in pw.inp   Done                     12/27/2018 15:25:24
00007 suncat0266 pw.x -in pw.inp   Done                     12/27/2018 15:25:24
00008 suncat0264 pw.x -in pw.inp   Done                     12/27/2018 15:25:24
00009 suncat0264 pw.x -in pw.inp   Done                     12/27/2018 15:25:24
00010 suncat0264 pw.x -in pw.inp   Done                     12/27/2018 15:25:24
00011 suncat0264 pw.x -in pw.inp   Done                     12/27/2018 15:25:24
00012 suncat0264 pw.x -in pw.inp   Done                     12/27/2018 15:25:24
00013 suncat0264 pw.x -in pw.inp   Done                     12/27/2018 15:25:24
00014 suncat0264 pw.x -in pw.inp   Done                     12/27/2018 15:25:24
00015 suncat0264 pw.x -in pw.inp   Done                     12/27/2018 15:25:24
00016 suncat0256 pw.x -in pw.inp   Done                     12/27/2018 15:25:24
00017 suncat0256 pw.x -in pw.inp   Done                     12/27/2018 15:25:24
00018 suncat0256 pw.x -in pw.inp   Done                     12/27/2018 15:25:24
00019 suncat0256 pw.x -in pw.inp   Done                     12/27/2018 15:25:24
00020 suncat0256 pw.x -in pw.inp   Done                     12/27/2018 15:25:24
00021 suncat0256 pw.x -in pw.inp   Done                     12/27/2018 15:25:24
00022 suncat0256 pw.x -in pw.inp   Done                     12/27/2018 15:25:24
00023 suncat0256 pw.x -in pw.inp   Done                     12/27/2018 15:25:24
00024 suncat0255 pw.x -in pw.inp   Done                     12/27/2018 15:25:24
00025 suncat0255 pw.x -in pw.inp   Done                     12/27/2018 15:25:24
00026 suncat0255 pw.x -in pw.inp   Done                     12/27/2018 15:25:24
00027 suncat0255 pw.x -in pw.inp   Done                     12/27/2018 15:25:24
00028 suncat0255 pw.x -in pw.inp   Done                     12/27/2018 15:25:24
00029 suncat0255 pw.x -in pw.inp   Done                     12/27/2018 15:25:24
00030 suncat0255 pw.x -in pw.inp   Done                     12/27/2018 15:25:24
00031 suncat0255 pw.x -in pw.inp   Done                     12/27/2018 15:25:24
00032 suncat0234 pw.x -in pw.inp   Done                     12/27/2018 15:25:24
00033 suncat0234 pw.x -in pw.inp   Done                     12/27/2018 15:25:24
00034 suncat0234 pw.x -in pw.inp   Done                     12/27/2018 15:25:24
00035 suncat0234 pw.x -in pw.inp   Done                     12/27/2018 15:25:24
00036 suncat0234 pw.x -in pw.inp   Done                     12/27/2018 15:25:24
00037 suncat0234 pw.x -in pw.inp   Done                     12/27/2018 15:25:24
00038 suncat0234 pw.x -in pw.inp   Done                     12/27/2018 15:25:24
00039 suncat0234 pw.x -in pw.inp   Done                     12/27/2018 15:25:24
00040 suncat0233 pw.x -in pw.inp   Done                     12/27/2018 15:25:24
00041 suncat0233 pw.x -in pw.inp   Done                     12/27/2018 15:25:24
00042 suncat0233 pw.x -in pw.inp   Done                     12/27/2018 15:25:24
00043 suncat0233 pw.x -in pw.inp   Done                     12/27/2018 15:25:24
00044 suncat0233 pw.x -in pw.inp   Done                     12/27/2018 15:25:24
00045 suncat0233 pw.x -in pw.inp   Done                     12/27/2018 15:25:24
00046 suncat0233 pw.x -in pw.inp   Done                     12/27/2018 15:25:24
00047 suncat0233 pw.x -in pw.inp   Done                     12/27/2018 15:25:24
00048 suncat0222 pw.x -in pw.inp   Done                     12/27/2018 15:25:24
00049 suncat0222 pw.x -in pw.inp   Done                     12/27/2018 15:25:24
00050 suncat0222 pw.x -in pw.inp   Done                     12/27/2018 15:25:24
00051 suncat0222 pw.x -in pw.inp   Done                     12/27/2018 15:25:24
00052 suncat0222 pw.x -in pw.inp   Done                     12/27/2018 15:25:24
00053 suncat0222 pw.x -in pw.inp   Done                     12/27/2018 15:25:24
00054 suncat0222 pw.x -in pw.inp   Done                     12/27/2018 15:25:24
00055 suncat0222 pw.x -in pw.inp   Done                     12/27/2018 15:25:24
00056 suncat0221 pw.x -in pw.inp   Done                     12/27/2018 15:25:24
00057 suncat0221 pw.x -in pw.inp   Done                     12/27/2018 15:25:24
00058 suncat0221 pw.x -in pw.inp   Done                     12/27/2018 15:25:24
00059 suncat0221 pw.x -in pw.inp   Done                     12/27/2018 15:25:24
00060 suncat0221 pw.x -in pw.inp   Done                     12/27/2018 15:25:24
00061 suncat0221 pw.x -in pw.inp   Done                     12/27/2018 15:25:24
00062 suncat0221 pw.x -in pw.inp   Done                     12/27/2018 15:25:24
00063 suncat0221 pw.x -in pw.inp   Done                     12/27/2018 15:25:24