     Program PWSCF v.5.1rc2 (svn rev. 11289) starts on 30Dec2018 at 13:51: 3

     Current dimensions of program PWSCF are:
     Max number of different atomic species (ntypx) = 10
     Max number of k-points (npk) =  40000
     Max angular momentum in pseudopotentials (lmaxx) =  3
     Presently stress not available with electric field

     IMPORTANT: XC functional enforced from input :
     Exchange-correlation      = BEEF-VDW ( 1  4 27 13 2)
     Any further DFT definition will be discarded
     Please, verify this is what you really want

     Subspace diagonalization in iterative solution of the eigenvalue problem:
     a serial algorithm will be used

     Generating pointlists ...
     new r_m :   0.4125 (alat units)  0.7795 (a.u.) for type    1
     new r_m :   0.4125 (alat units)  0.7795 (a.u.) for type    2

     bravais-lattice index     =            0
     lattice parameter (alat)  =       1.8897  a.u.
     unit-cell volume          =    3508.9595 (a.u.)^3
     number of atoms/cell      =           12
     number of atomic types    =            2
     number of electrons       =       183.00
     number of Kohn-Sham states=          106
     kinetic-energy cutoff     =      36.7493  Ry
     charge density cutoff     =     367.4932  Ry
     convergence threshold     =      1.0E-05
     mixing beta               =       0.1500
     number of iterations used =           10  plain     mixing
     Exchange-correlation      = BEEF-VDW ( 1  4 27 13 2)
     nstep                     =           50

     celldm(1)=   1.889726  celldm(2)=   0.000000  celldm(3)=   0.000000
     celldm(4)=   0.000000  celldm(5)=   0.000000  celldm(6)=   0.000000

     crystal axes: (cart. coord. in units of alat)
               a(1) = (   4.993688   0.000000   0.000000 )
               a(2) = (  -2.496844   4.324661   0.000000 )
               a(3) = (   0.000000   0.000000  24.077329 )

     reciprocal axes: (cart. coord. in units 2 pi/alat)
               b(1) = (  0.200253  0.115616  0.000000 )
               b(2) = (  0.000000  0.231232  0.000000 )
               b(3) = (  0.000000  0.000000  0.041533 )

     PseudoPot. # 1 for Mn read from file:
     /afs/slac.stanford.edu/u/if/mamunm/psp/gbrv1.5pbe/Mn.UPF
     MD5 check sum: 82ef2b46521d7a7d9e736dc3972e4928
     Pseudo is Ultrasoft + core correction, Zval = 15.0
     Generated by new atomic code, or converted to UPF format
     Using radial grid of  859 points,  6 beta functions with:
                l(1) =   0
                l(2) =   0
                l(3) =   1
                l(4) =   1
                l(5) =   2
                l(6) =   2
     Q(r) pseudized with  8 coefficients,  rinner =    0.950   0.950   0.950
                                                       0.950   0.950

     PseudoPot. # 2 for Fe read from file:
     /afs/slac.stanford.edu/u/if/mamunm/psp/gbrv1.5pbe/Fe.UPF
     MD5 check sum: a130daea23fe5165f5d574ae7f82ed95
     Pseudo is Ultrasoft + core correction, Zval = 16.0
     Generated by new atomic code, or converted to UPF format
     Using radial grid of  861 points,  6 beta functions with:
                l(1) =   0
                l(2) =   0
                l(3) =   1
                l(4) =   1
                l(5) =   2
                l(6) =   2
     Q(r) pseudized with  8 coefficients,  rinner =    1.000   1.000   1.000
                                                       1.000   1.000

     vdW kernel table read from file vdW_kernel_table
     MD5 check sum: 095c7af220d748ca6e76c0b4c6cfb241

     atomic species   valence    mass     pseudopotential
        Mn1           15.00    54.93804     Mn( 1.00)
        Fe1           16.00    55.84500     Fe( 1.00)

     Starting magnetic structure
     atomic species   magnetization
        Mn1          0.133
        Fe1          0.125

     No symmetry found

   Cartesian axes

     site n.     atom                  positions (alat units)
         1           Mn1 tau(   1) = (   0.0000000   0.0000000  10.0000000  )
         2           Mn1 tau(   2) = (  -1.2484220   2.1623304  10.0000000  )
         3           Mn1 tau(   3) = (   1.2484220   2.1623304  10.0000000  )
         4           Fe1 tau(   4) = (   2.4968440   0.0000000  10.0000000  )
         5           Mn1 tau(   5) = (   2.4968440   1.4415536  12.0386646  )
         6           Mn1 tau(   6) = (   1.2484220   3.6038839  12.0386646  )
         7           Mn1 tau(   7) = (  -1.2484220   3.6038839  12.0386646  )
         8           Fe1 tau(   8) = (   0.0000000   1.4415536  12.0386646  )
         9           Mn1 tau(   9) = (  -0.0000000   2.8831071  14.0773292  )
        10           Mn1 tau(  10) = (   1.2484220   0.7207768  14.0773292  )
        11           Mn1 tau(  11) = (   3.7452660   0.7207768  14.0773292  )
        12           Fe1 tau(  12) = (   2.4968440   2.8831071  14.0773292  )

     number of k points=    40  Fermi-Dirac smearing, width (Ry)=  0.0110
                       cart. coord. in units 2pi/alat
        k(    1) = (   0.0000000   0.0000000   0.0000000), wk =   0.0277778
        k(    2) = (   0.0000000   0.0385387   0.0000000), wk =   0.0555556
        k(    3) = (   0.0000000   0.0770773   0.0000000), wk =   0.0555556
        k(    4) = (   0.0000000  -0.1156160   0.0000000), wk =   0.0277778
        k(    5) = (   0.0333755   0.0192693   0.0000000), wk =   0.0555556
        k(    6) = (   0.0333755   0.0578080   0.0000000), wk =   0.0555556
        k(    7) = (   0.0333755   0.0963467   0.0000000), wk =   0.0555556
        k(    8) = (   0.0333755  -0.0963467   0.0000000), wk =   0.0555556
        k(    9) = (   0.0333755  -0.0578080   0.0000000), wk =   0.0555556
        k(   10) = (   0.0333755  -0.0192693   0.0000000), wk =   0.0555556
        k(   11) = (   0.0667509   0.0385387   0.0000000), wk =   0.0555556
        k(   12) = (   0.0667509   0.0770773   0.0000000), wk =   0.0555556
        k(   13) = (   0.0667509   0.1156160   0.0000000), wk =   0.0555556
        k(   14) = (   0.0667509  -0.0770773   0.0000000), wk =   0.0555556
        k(   15) = (   0.0667509  -0.0385387   0.0000000), wk =   0.0555556
        k(   16) = (   0.0667509   0.0000000   0.0000000), wk =   0.0555556
        k(   17) = (  -0.1001264  -0.0578080   0.0000000), wk =   0.0277778
        k(   18) = (  -0.1001264  -0.0192693   0.0000000), wk =   0.0555556
        k(   19) = (  -0.1001264   0.0192693   0.0000000), wk =   0.0555556
        k(   20) = (  -0.1001264  -0.1734240   0.0000000), wk =   0.0277778
        k(   21) = (   0.0000000   0.0000000   0.0000000), wk =   0.0277778
        k(   22) = (   0.0000000   0.0385387   0.0000000), wk =   0.0555556
        k(   23) = (   0.0000000   0.0770773   0.0000000), wk =   0.0555556
        k(   24) = (   0.0000000  -0.1156160   0.0000000), wk =   0.0277778
        k(   25) = (   0.0333755   0.0192693   0.0000000), wk =   0.0555556
        k(   26) = (   0.0333755   0.0578080   0.0000000), wk =   0.0555556
        k(   27) = (   0.0333755   0.0963467   0.0000000), wk =   0.0555556
        k(   28) = (   0.0333755  -0.0963467   0.0000000), wk =   0.0555556
        k(   29) = (   0.0333755  -0.0578080   0.0000000), wk =   0.0555556
        k(   30) = (   0.0333755  -0.0192693   0.0000000), wk =   0.0555556
        k(   31) = (   0.0667509   0.0385387   0.0000000), wk =   0.0555556
        k(   32) = (   0.0667509   0.0770773   0.0000000), wk =   0.0555556
        k(   33) = (   0.0667509   0.1156160   0.0000000), wk =   0.0555556
        k(   34) = (   0.0667509  -0.0770773   0.0000000), wk =   0.0555556
        k(   35) = (   0.0667509  -0.0385387   0.0000000), wk =   0.0555556
        k(   36) = (   0.0667509   0.0000000   0.0000000), wk =   0.0555556
        k(   37) = (  -0.1001264  -0.0578080   0.0000000), wk =   0.0277778
        k(   38) = (  -0.1001264  -0.0192693   0.0000000), wk =   0.0555556
        k(   39) = (  -0.1001264   0.0192693   0.0000000), wk =   0.0555556
        k(   40) = (  -0.1001264  -0.1734240   0.0000000), wk =   0.0277778

     Largest allocated arrays     est. size (Mb)     dimensions
     Largest temporary arrays     est. size (Mb)     dimensions

     Check: negative/imaginary core charge=   -0.000010    0.000000

     Initial potential from superposition of free atoms
     Check: negative starting charge=(component1):   -0.001421
     Check: negative starting charge=(component2):   -0.001086

     starting charge  175.49922, renormalised to  183.00000

     negative rho (up, down):  1.482E-03 1.133E-03

     *
     * You are using vdW-DF for exchange-correlation in this calculation.
     * Please cite the following three references that made this development
     * possible:
     *
     *   M. Dion, H. Rydberg, E. Schroder, D. C. Langreth, and
     *   B. I. Lundqvist, Phys. Rev. Lett. 92, 246401 (2004).
     *
     *   T. Thonhauser, V. R. Cooper, S. Li, A. Puzder, P. Hyldgaard, and
     *   D. C. Langreth, Phys. Rev. B 76, 125112 (2007).
     *
     *   G. Roman-Perez and J. M. Soler, Phys. Rev. Lett. 103, 096102 (2009).
     *
     *
     * If you are using vdW-DF2, please also cite:
     *
     *   K. Lee, E. D. Murray, L. Kong, B. I. Lundqvist, and
     *   D. C. Langreth, Phys. Rev. B 82, 081101(R) (2010).
     *
     *
     * If you are calculating the stress with vdW-DF, please also cite:
     *
     *   R. Sabatini, E. Kucukbenli, B. Kolb, T. Thonhauser, and
     *   S. de Gironcoli, J. Phys.: Condens. Matter 24, 424209 (2012).
     *

     Carrying out vdW-DF run using the following parameters:

     Nqs =      20    Nr_points =    1024   r_max =   100.000
     q_mesh =
               0.00001000     0.04494208     0.09755937     0.15916263
               0.23128650     0.31572767     0.41458969     0.53033537
               0.66584808     0.82450364     1.01025438     1.22772762
               1.48234092     1.78043706     2.12944203     2.53805004
               3.01644009     3.57652955     4.23227104     5.00000000

     Gradients computed in reciprocal space

     Adding external electric field

     Computed dipole along edir(3) :
        Dipole               -0.0000 Ry au,         -0.0000 Debye
        Dipole field         -0.0000 Ry au

        Potential amp.        0.0000 Ry
        Total length         44.3621 bohr

[...]

     Starting wfc are  156 randomized atomic wfcs

     Self-consistent Calculation

     iteration #  1     ecut=    36.75 Ry     beta=0.15
     Davidson diagonalization with overlap
     ethr =  1.00E-02,  avg # of iterations =  2.1

[...]

     Magnetic moment per site:
     atom:    1    charge:    6.0338    magn:    0.7529    constr:    0.0000
     atom:    2    charge:    6.0338    magn:    0.7529    constr:    0.0000
     atom:    3    charge:    6.0338    magn:    0.7529    constr:    0.0000
     atom:    4    charge:    7.3751    magn:    0.8139    constr:    0.0000
     atom:    5    charge:    6.0458    magn:    0.7454    constr:    0.0000
     atom:    6    charge:    6.0458    magn:    0.7454    constr:    0.0000
     atom:    7    charge:    6.0458    magn:    0.7454    constr:    0.0000
     atom:    8    charge:    7.3617    magn:    0.8125    constr:    0.0000
[...]
        k(    8) = (   0.0333755  -0.0963467   0.0000000), wk =   0.0555556
        k(    9) = (   0.0333755  -0.0578080   0.0000000), wk =   0.0555556
        k(   10) = (   0.0333755  -0.0192693   0.0000000), wk =   0.0555556
        k(   11) = (   0.0667509   0.0385387   0.0000000), wk =   0.0555556
        k(   12) = (   0.0667509   0.0770773   0.0000000), wk =   0.0555556
        k(   13) = (   0.0667509   0.1156160   0.0000000), wk =   0.0555556
        k(   14) = (   0.0667509  -0.0770773   0.0000000), wk =   0.0555556
        k(   15) = (   0.0667509  -0.0385387   0.0000000), wk =   0.0555556
        k(   16) = (   0.0667509   0.0000000   0.0000000), wk =   0.0555556
        k(   17) = (  -0.1001264  -0.0578080   0.0000000), wk =   0.0277778
        k(   18) = (  -0.1001264  -0.0192693   0.0000000), wk =   0.0555556
        k(   19) = (  -0.1001264   0.0192693   0.0000000), wk =   0.0555556
        k(   20) = (  -0.1001264  -0.1734240   0.0000000), wk =   0.0277778
        k(   21) = (   0.0000000   0.0000000   0.0000000), wk =   0.0277778
        k(   22) = (   0.0000000   0.0385387   0.0000000), wk =   0.0555556
        k(   23) = (   0.0000000   0.0770773   0.0000000), wk =   0.0555556
        k(   24) = (   0.0000000  -0.1156160   0.0000000), wk =   0.0277778
        k(   25) = (   0.0333755   0.0192693   0.0000000), wk =   0.0555556
        k(   26) = (   0.0333755   0.0578080   0.0000000), wk =   0.0555556
        k(   27) = (   0.0333755   0.0963467   0.0000000), wk =   0.0555556
        k(   28) = (   0.0333755  -0.0963467   0.0000000), wk =   0.0555556
        k(   29) = (   0.0333755  -0.0578080   0.0000000), wk =   0.0555556
        k(   30) = (   0.0333755  -0.0192693   0.0000000), wk =   0.0555556
        k(   31) = (   0.0667509   0.0385387   0.0000000), wk =   0.0555556
        k(   32) = (   0.0667509   0.0770773   0.0000000), wk =   0.0555556
        k(   33) = (   0.0667509   0.1156160   0.0000000), wk =   0.0555556
        k(   34) = (   0.0667509  -0.0770773   0.0000000), wk =   0.0555556
        k(   35) = (   0.0667509  -0.0385387   0.0000000), wk =   0.0555556
        k(   36) = (   0.0667509   0.0000000   0.0000000), wk =   0.0555556
        k(   37) = (  -0.1001264  -0.0578080   0.0000000), wk =   0.0277778
        k(   38) = (  -0.1001264  -0.0192693   0.0000000), wk =   0.0555556
        k(   39) = (  -0.1001264   0.0192693   0.0000000), wk =   0.0555556
        k(   40) = (  -0.1001264  -0.1734240   0.0000000), wk =   0.0277778

     Largest allocated arrays     est. size (Mb)     dimensions
     Largest temporary arrays     est. size (Mb)     dimensions

     Check: negative/imaginary core charge=   -0.000010    0.000000

     Initial potential from superposition of free atoms
     Check: negative starting charge=(component1):   -0.001407
     Check: negative starting charge=(component2):   -0.001076

     starting charge  175.49922, renormalised to  183.00000

[...]

     *
     * You are using vdW-DF for exchange-correlation in this calculation.
     * Please cite the following three references that made this development
     * possible:
     *
     *   M. Dion, H. Rydberg, E. Schroder, D. C. Langreth, and
     *   B. I. Lundqvist, Phys. Rev. Lett. 92, 246401 (2004).
     *
     *   T. Thonhauser, V. R. Cooper, S. Li, A. Puzder, P. Hyldgaard, and
     *   D. C. Langreth, Phys. Rev. B 76, 125112 (2007).
     *
     *   G. Roman-Perez and J. M. Soler, Phys. Rev. Lett. 103, 096102 (2009).
     *
     *
     * If you are using vdW-DF2, please also cite:
     *
     *   K. Lee, E. D. Murray, L. Kong, B. I. Lundqvist, and
     *   D. C. Langreth, Phys. Rev. B 82, 081101(R) (2010).
     *
     *
     * If you are calculating the stress with vdW-DF, please also cite:
     *
     *   R. Sabatini, E. Kucukbenli, B. Kolb, T. Thonhauser, and
     *   S. de Gironcoli, J. Phys.: Condens. Matter 24, 424209 (2012).
     *

     Carrying out vdW-DF run using the following parameters:

     Nqs =      20    Nr_points =    1024   r_max =   100.000
     q_mesh =
               0.00001000     0.04494208     0.09755937     0.15916263
               0.23128650     0.31572767     0.41458969     0.53033537
               0.66584808     0.82450364     1.01025438     1.22772762
               1.48234092     1.78043706     2.12944203     2.53805004
               3.01644009     3.57652955     4.23227104     5.00000000

     Gradients computed in reciprocal space

[...]

     Starting wfc are  156 randomized atomic wfcs

     Self-consistent Calculation

[...]

     iteration # 16     ecut=    36.75 Ry     beta=0.15
     Davidson diagonalization with overlap
     c_bands:  1 eigenvalues not converged
     c_bands:  1 eigenvalues not converged
     c_bands:  1 eigenvalues not converged
     c_bands:  1 eigenvalues not converged
     c_bands:  1 eigenvalues not converged
     c_bands:  1 eigenvalues not converged
     ethr =  1.48E-05,  avg # of iterations =  6.3

[...]

     total energy              =   -2662.88549583 Ry
     Harris-Foulkes estimate   =   -2662.88549541 Ry
     estimated scf accuracy    <       0.00001065 Ry

[...]

     iteration # 91     ecut=    36.75 Ry     beta=0.15
     Davidson diagonalization with overlap
     ethr =  5.82E-09,  avg # of iterations =  4.5

[...]

     negative rho (up, down):  1.851E-03 1.503E-03

[...]

     Adding external electric field

     Computed dipole along edir(3) :
        Dipole                0.0011 Ry au,          0.0028 Debye
        Dipole field          0.0000 Ry au

        Potential amp.       -0.0004 Ry
        Total length         44.3621 bohr

     Magnetic moment per site:
     atom:    1    charge:    5.9890    magn:    0.7565    constr:    0.0000
     atom:    2    charge:    5.9886    magn:    0.7564    constr:    0.0000
     atom:    3    charge:    5.9887    magn:    0.7562    constr:    0.0000
     atom:    4    charge:    7.0778    magn:    0.6483    constr:    0.0000
     atom:    5    charge:    5.9729    magn:   -0.6361    constr:    0.0000
     atom:    6    charge:    5.9729    magn:   -0.6378    constr:    0.0000
     atom:    7    charge:    5.9734    magn:   -0.6369    constr:    0.0000
     atom:    8    charge:    7.0634    magn:   -0.6337    constr:    0.0000
     atom:    9    charge:    5.9810    magn:    0.7366    constr:    0.0000
     atom:   10    charge:    5.9808    magn:    0.7178    constr:    0.0000
     atom:   11    charge:    5.9808    magn:    0.7249    constr:    0.0000
     atom:   12    charge:    7.0693    magn:    0.6161    constr:    0.0000

     End of self-consistent calculation

 ------ SPIN UP ------------

[...]

 ------ SPIN DOWN ----------

[...]

          k = 0.0668 0.0000 0.0000 ( 13187 PWs)   bands (ev):

[...]

          k =-0.1001-0.1734 0.0000 ( 13214 PWs)   bands (ev):

   -86.8603 -84.8583 -84.8130 -79.0767 -79.0555 -79.0310 -76.8893 -76.8832
   -76.8422 -76.8376 -76.8174 -76.7940 -53.0476 -52.8119 -52.8078 -50.9856
   -50.9825 -50.9440 -50.9403 -50.8430 -50.7929 -47.8944 -47.8843 -47.8665
   -47.8441 -47.7524 -47.7425 -47.7175 -47.7043 -47.5309 -45.8863 -45.8452
   -45.7252 -45.7039 -45.6913 -45.6637 -45.6622 -45.6610 -45.6300 -45.6230
   -45.5183 -45.5140 -45.5055 -45.4744 -45.4645 -45.4644 -45.4442 -45.4254
    -4.4772  -4.4418  -2.9452  -2.9140  -2.5716  -2.5163  -2.2542  -2.2212
    -2.2037  -2.1465  -1.9790  -1.9242  -1.4463  -1.3555  -1.2618  -1.1517
    -1.1010  -1.0614  -1.0059  -0.9745  -0.2353  -0.1722  -0.1391  -0.1010
    -0.0276   0.2229   0.3095   0.3331   0.3440   0.3530   0.4740   0.5368
     0.5499   0.5999   0.6090   0.6901   0.6998   0.7109   0.7696   0.7980
     0.8310   0.8606   1.3332   1.5041   1.6707   1.7784   1.9595   1.9924
     2.0728   2.0740   2.0845   2.1876   2.2200   2.2713   2.5255   2.5519
     2.5766   2.6117

     the Fermi energy is     1.1922 ev

!    total energy              =   -2662.88550629 Ry
     Harris-Foulkes estimate   =   -2662.88550426 Ry
     estimated scf accuracy    <       0.00000955 Ry

     The total energy is the sum of the following terms:

     one-electron contribution =  -24803.13497114 Ry
     hartree contribution      =   12398.74046641 Ry
     xc contribution           =    -338.46835874 Ry
     ewald contribution        =   10080.07629947 Ry
     electric field correction =       0.00000000 Ry
     smearing contrib. (-TS)   =      -0.09894230 Ry

     total magnetization       =     7.43 Bohr mag/cell
     absolute magnetization    =    20.05 Bohr mag/cell

     convergence has been achieved in  91 iterations

 BEEF-vdW xc energy contributions
           1 :   -295.514536086553
           2 :    267.473649060034
           3 :   -220.271694156511
           4 :    167.504965182654
           5 :   -121.665296020218
           6 :    89.6285974091742
           7 :   -71.3948079560045
           8 :    62.0637627363193
           9 :   -55.4754307175801
          10 :    47.4243315707338
          11 :   -37.0274663007514
          12 :    26.0277723857822
          13 :   -16.9199099527149
          14 :    11.1818914166012
          15 :   -8.56297159480295
          16 :    7.56315963304525
          17 :   -6.54375992803074
          18 :    4.66042229855935
          19 :   -2.11539934243973
          20 :  -0.266187250651853
          21 :    1.72507880205438
          22 :   -2.05974141725602
          23 :    1.66954080795023
          24 :   -1.22372659479049
          25 :    1.22663783379534
          26 :   -1.76600219574431
          27 :    2.55541126650797
          28 :   -3.18853947995569
          29 :    3.40503725825300
          30 :   -3.21581364785641
          31 :   -26.9525026384776
          32 :   -19.2075367813771

     Forces acting on atoms (Ry/au):

     negative rho (up, down):  1.851E-03 1.503E-03
     atom    1 type  1   force =    -0.00002354    0.00112191    0.00310444
     atom    2 type  1   force =     0.00096159   -0.00060083    0.00312627
     atom    3 type  1   force =    -0.00094971   -0.00056426    0.00320415
     atom    4 type  2   force =     0.00010921    0.00004860    0.00390819
     atom    5 type  1   force =    -0.00001199   -0.00023904   -0.00360499
     atom    6 type  1   force =    -0.00014302    0.00013013   -0.00354547
     atom    7 type  1   force =     0.00015423    0.00015377   -0.00358649
     atom    8 type  2   force =    -0.00004168    0.00006795   -0.00447502
     atom    9 type  1   force =     0.00001095    0.00066180    0.00057403
     atom   10 type  1   force =     0.00066079   -0.00029562    0.00045354
     atom   11 type  1   force =    -0.00065141   -0.00029869    0.00048884
     atom   12 type  2   force =    -0.00007542   -0.00018573    0.00035250

     Total force =     0.010476     Total SCF correction =     0.005769
     SCF correction compared to forces is large: reduce conv_thr to get better values

     entering subroutine stress ...

     negative rho (up, down):  1.851E-03 1.503E-03
          total   stress  (Ry/bohr**3)                   (kbar)     P=   -9.86
  -0.00008663   0.00000005  -0.00000000        -12.74      0.01     -0.00
   0.00000005  -0.00008637  -0.00000005          0.01    -12.71     -0.01
  -0.00000000  -0.00000005  -0.00002817         -0.00     -0.01     -4.14

 !ASE

     Writing output data file calc.save

     General routines

     Parallel routines

   This run was terminated on:  23:11: 4  30Dec2018

   JOB DONE.
Job  /afs/slac/g/suncat/bin/suncat-tsmpirun -x LD_LIBRARY_PATH -wdir /scratch/qe648572_HogLe pw.x -in pw.inp

TID   HOST_NAME   COMMAND_LINE            STATUS            TERMINATION_TIME
00000 suncat0165 pw.x -in pw.inp   Done                     12/30/2018 23:11:04
00001 suncat0165 pw.x -in pw.inp   Done                     12/30/2018 23:11:04
00002 suncat0165 pw.x -in pw.inp   Done                     12/30/2018 23:11:04
00003 suncat0165 pw.x -in pw.inp   Done                     12/30/2018 23:11:04
00004 suncat0165 pw.x -in pw.inp   Done                     12/30/2018 23:11:04
00005 suncat0165 pw.x -in pw.inp   Done                     12/30/2018 23:11:04
00006 suncat0165 pw.x -in pw.inp   Done                     12/30/2018 23:11:04
00007 suncat0165 pw.x -in pw.inp   Done                     12/30/2018 23:11:04
00008 suncat0164 pw.x -in pw.inp   Done                     12/30/2018 23:11:04
00009 suncat0164 pw.x -in pw.inp   Done                     12/30/2018 23:11:04
00010 suncat0164 pw.x -in pw.inp   Done                     12/30/2018 23:11:04
00011 suncat0164 pw.x -in pw.inp   Done                     12/30/2018 23:11:04
00012 suncat0164 pw.x -in pw.inp   Done                     12/30/2018 23:11:04
00013 suncat0164 pw.x -in pw.inp   Done                     12/30/2018 23:11:04
00014 suncat0164 pw.x -in pw.inp   Done                     12/30/2018 23:11:04
00015 suncat0164 pw.x -in pw.inp   Done                     12/30/2018 23:11:04
00016 suncat0159 pw.x -in pw.inp   Done                     12/30/2018 23:11:04
00017 suncat0159 pw.x -in pw.inp   Done                     12/30/2018 23:11:04
00018 suncat0159 pw.x -in pw.inp   Done                     12/30/2018 23:11:04
00019 suncat0159 pw.x -in pw.inp   Done                     12/30/2018 23:11:04
00020 suncat0159 pw.x -in pw.inp   Done                     12/30/2018 23:11:04
00021 suncat0159 pw.x -in pw.inp   Done                     12/30/2018 23:11:04
00022 suncat0159 pw.x -in pw.inp   Done                     12/30/2018 23:11:04
00023 suncat0159 pw.x -in pw.inp   Done                     12/30/2018 23:11:04
00024 suncat0155 pw.x -in pw.inp   Done                     12/30/2018 23:11:04
00025 suncat0155 pw.x -in pw.inp   Done                     12/30/2018 23:11:04
00026 suncat0155 pw.x -in pw.inp   Done                     12/30/2018 23:11:04
00027 suncat0155 pw.x -in pw.inp   Done                     12/30/2018 23:11:04
00028 suncat0155 pw.x -in pw.inp   Done                     12/30/2018 23:11:04
00029 suncat0155 pw.x -in pw.inp   Done                     12/30/2018 23:11:04
00030 suncat0155 pw.x -in pw.inp   Done                     12/30/2018 23:11:04
00031 suncat0155 pw.x -in pw.inp   Done                     12/30/2018 23:11:04
00032 suncat0106 pw.x -in pw.inp   Done                     12/30/2018 23:11:04
00033 suncat0106 pw.x -in pw.inp   Done                     12/30/2018 23:11:04
00034 suncat0106 pw.x -in pw.inp   Done                     12/30/2018 23:11:04
00035 suncat0106 pw.x -in pw.inp   Done                     12/30/2018 23:11:04
00036 suncat0106 pw.x -in pw.inp   Done                     12/30/2018 23:11:04
00037 suncat0106 pw.x -in pw.inp   Done                     12/30/2018 23:11:04
00038 suncat0106 pw.x -in pw.inp   Done                     12/30/2018 23:11:04
00039 suncat0106 pw.x -in pw.inp   Done                     12/30/2018 23:11:04
00040 suncat0105 pw.x -in pw.inp   Done                     12/30/2018 23:11:04
00041 suncat0105 pw.x -in pw.inp   Done                     12/30/2018 23:11:04
00042 suncat0105 pw.x -in pw.inp   Done                     12/30/2018 23:11:04
00043 suncat0105 pw.x -in pw.inp   Done                     12/30/2018 23:11:04
00044 suncat0105 pw.x -in pw.inp   Done                     12/30/2018 23:11:04
00045 suncat0105 pw.x -in pw.inp   Done                     12/30/2018 23:11:04
00046 suncat0105 pw.x -in pw.inp   Done                     12/30/2018 23:11:04
00047 suncat0105 pw.x -in pw.inp   Done                     12/30/2018 23:11:04
00048 suncat0277 pw.x -in pw.inp   Done                     12/30/2018 23:11:04
00049 suncat0277 pw.x -in pw.inp   Done                     12/30/2018 23:11:04
00050 suncat0277 pw.x -in pw.inp   Done                     12/30/2018 23:11:04
00051 suncat0277 pw.x -in pw.inp   Done                     12/30/2018 23:11:04
00052 suncat0277 pw.x -in pw.inp   Done                     12/30/2018 23:11:04
00053 suncat0277 pw.x -in pw.inp   Done                     12/30/2018 23:11:04
00054 suncat0277 pw.x -in pw.inp   Done                     12/30/2018 23:11:04
00055 suncat0277 pw.x -in pw.inp   Done                     12/30/2018 23:11:04
00056 suncat0276 pw.x -in pw.inp   Done                     12/30/2018 23:11:04
00057 suncat0276 pw.x -in pw.inp   Done                     12/30/2018 23:11:04
00058 suncat0276 pw.x -in pw.inp   Done                     12/30/2018 23:11:04
00059 suncat0276 pw.x -in pw.inp   Done                     12/30/2018 23:11:04
00060 suncat0276 pw.x -in pw.inp   Done                     12/30/2018 23:11:04
00061 suncat0276 pw.x -in pw.inp   Done                     12/30/2018 23:11:04
00062 suncat0276 pw.x -in pw.inp   Done                     12/30/2018 23:11:04
00063 suncat0276 pw.x -in pw.inp   Done                     12/30/2018 23:11:04