     Program PWSCF v.5.1rc2 (svn rev. 11289) starts on  2Jan2019 at 18:13: 3

     Current dimensions of program PWSCF are:
     Max number of different atomic species (ntypx) = 10
     Max number of k-points (npk) =  40000
     Max angular momentum in pseudopotentials (lmaxx) =  3
     Presently stress not available with electric field

     IMPORTANT: XC functional enforced from input :
     Exchange-correlation      = BEEF-VDW ( 1  4 27 13 2)
     Any further DFT definition will be discarded
     Please, verify this is what you really want

     Subspace diagonalization in iterative solution of the eigenvalue problem:
     a serial algorithm will be used

     bravais-lattice index     =            0
     lattice parameter (alat)  =       1.8897  a.u.
     unit-cell volume          =    4234.1800 (a.u.)^3
     number of atoms/cell      =           12
     number of atomic types    =            2
     number of electrons       =       225.00
     number of Kohn-Sham states=          142
     kinetic-energy cutoff     =      36.7493  Ry
     charge density cutoff     =     367.4932  Ry
     convergence threshold     =      1.0E-06
     mixing beta               =       0.1000
     number of iterations used =           10  plain     mixing
     Exchange-correlation      = BEEF-VDW ( 1  4 27 13 2)
     nstep                     =           50

     celldm(1)=   1.889726  celldm(2)=   0.000000  celldm(3)=   0.000000
     celldm(4)=   0.000000  celldm(5)=   0.000000  celldm(6)=   0.000000

     crystal axes: (cart. coord. in units of alat)
               a(1) = (   5.444090   0.000000   0.000000 )
               a(2) = (  -2.722045   4.714720   0.000000 )
               a(3) = (   0.000000   0.000000  24.445081 )

     reciprocal axes: (cart. coord. in units 2 pi/alat)
               b(1) = (  0.183685  0.106051  0.000000 )
               b(2) = (  0.000000  0.212102  0.000000 )
               b(3) = (  0.000000  0.000000  0.040908 )

     PseudoPot. # 1 for Zn read from file:
     /afs/slac.stanford.edu/u/if/mamunm/psp/gbrv1.5pbe/Zn.UPF
     MD5 check sum: df62231357ef9e81f77b2b3087fa5675
     Pseudo is Ultrasoft, Zval = 20.0
     Generated by new atomic code, or converted to UPF format
     Using radial grid of  943 points,  6 beta functions with:
                l(1) =   0
                l(2) =   0
                l(3) =   1
                l(4) =   1
                l(5) =   2
                l(6) =   2
     Q(r) pseudized with  8 coefficients,  rinner =    1.100   1.100   1.100
                                                       1.100   1.100

     PseudoPot. # 2 for Tc read from file:
     /afs/slac.stanford.edu/u/if/mamunm/psp/gbrv1.5pbe/Tc.UPF
     MD5 check sum: 9eb49e5b028550b2339a02317eb7b844
     Pseudo is Ultrasoft + core correction, Zval = 15.0
     Generated by new atomic code, or converted to UPF format
     Using radial grid of  965 points,  6 beta functions with:
                l(1) =   0
                l(2) =   0
                l(3) =   1
                l(4) =   1
                l(5) =   2
                l(6) =   2
     Q(r) pseudized with  8 coefficients,  rinner =    1.300   1.300   1.300
                                                       1.300   1.300

     vdW kernel table read from file vdW_kernel_table
     MD5 check sum: 095c7af220d748ca6e76c0b4c6cfb241

     atomic species   valence    mass     pseudopotential
        Zn1           20.00    65.38000     Zn( 1.00)
        Tc1           15.00    97.90721     Tc( 1.00)

     No symmetry found

   Cartesian axes

     site n.     atom                  positions (alat units)
         1           Zn1 tau(   1) = (   0.0000000   0.0000000  10.0000000  )
         2           Zn1 tau(   2) = (  -1.3610225   2.3573601  10.0000000  )
         3           Zn1 tau(   3) = (   1.3610225   2.3573601  10.0000000  )
         4           Tc1 tau(   4) = (   2.7220450   0.0000000  10.0000000  )
         5           Zn1 tau(   5) = (   2.7220450   1.5715734  12.2225405  )
         6           Zn1 tau(   6) = (   1.3610225   3.9289336  12.2225405  )
         7           Zn1 tau(   7) = (  -1.3610225   3.9289336  12.2225405  )
         8           Tc1 tau(   8) = (   0.0000000   1.5715734  12.2225405  )
         9           Zn1 tau(   9) = (  -0.0000000   3.1431469  14.4450809  )
        10           Zn1 tau(  10) = (   1.3610225   0.7857867  14.4450809  )
        11           Zn1 tau(  11) = (   4.0830675   0.7857867  14.4450809  )
        12           Tc1 tau(  12) = (   2.7220450   3.1431469  14.4450809  )

     number of k points=    20  Fermi-Dirac smearing, width (Ry)=  0.0110
                       cart. coord. in units 2pi/alat
        k(    1) = (   0.0000000   0.0000000   0.0000000), wk =   0.0555556
        k(    2) = (   0.0000000   0.0353503   0.0000000), wk =   0.1111111
        k(    3) = (   0.0000000   0.0707006   0.0000000), wk =   0.1111111
        k(    4) = (   0.0000000  -0.1060508   0.0000000), wk =   0.0555556
        k(    5) = (   0.0306142   0.0176751   0.0000000), wk =   0.1111111
        k(    6) = (   0.0306142   0.0530254   0.0000000), wk =   0.1111111
        k(    7) = (   0.0306142   0.0883757   0.0000000), wk =   0.1111111
        k(    8) = (   0.0306142  -0.0883757   0.0000000), wk =   0.1111111
        k(    9) = (   0.0306142  -0.0530254   0.0000000), wk =   0.1111111
        k(   10) = (   0.0306142  -0.0176751   0.0000000), wk =   0.1111111
        k(   11) = (   0.0612285   0.0353503   0.0000000), wk =   0.1111111
        k(   12) = (   0.0612285   0.0707006   0.0000000), wk =   0.1111111
        k(   13) = (   0.0612285   0.1060508   0.0000000), wk =   0.1111111
        k(   14) = (   0.0612285  -0.0707006   0.0000000), wk =   0.1111111
        k(   15) = (   0.0612285  -0.0353503   0.0000000), wk =   0.1111111
        k(   16) = (   0.0612285   0.0000000   0.0000000), wk =   0.1111111
        k(   17) = (  -0.0918427  -0.0530254   0.0000000), wk =   0.0555556
        k(   18) = (  -0.0918427  -0.0176751   0.0000000), wk =   0.1111111
        k(   19) = (  -0.0918427   0.0176751   0.0000000), wk =   0.1111111
        k(   20) = (  -0.0918427  -0.1590762   0.0000000), wk =   0.0555556

     Largest allocated arrays     est. size (Mb)     dimensions
     Largest temporary arrays     est. size (Mb)     dimensions

     Check: negative/imaginary core charge=   -0.000011    0.000000

     Initial potential from superposition of free atoms
     Check: negative starting charge=   -0.376490

     starting charge  221.99865, renormalised to  225.00000

     negative rho (up, down):  3.816E-01 0.000E+00

     *
     * You are using vdW-DF for exchange-correlation in this calculation.
     * Please cite the following three references that made this development
     * possible:
     *
     *   M. Dion, H. Rydberg, E. Schroder, D. C. Langreth, and
     *   B. I. Lundqvist, Phys. Rev. Lett. 92, 246401 (2004).
     *
     *   T. Thonhauser, V. R. Cooper, S. Li, A. Puzder, P. Hyldgaard, and
     *   D. C. Langreth, Phys. Rev. B 76, 125112 (2007).
     *
     *   G. Roman-Perez and J. M. Soler, Phys. Rev. Lett. 103, 096102 (2009).
     *
     *
     * If you are using vdW-DF2, please also cite:
     *
     *   K. Lee, E. D. Murray, L. Kong, B. I. Lundqvist, and
     *   D. C. Langreth, Phys. Rev. B 82, 081101(R) (2010).
     *
     *
     * If you are calculating the stress with vdW-DF, please also cite:
     *
     *   R. Sabatini, E. Kucukbenli, B. Kolb, T. Thonhauser, and
     *   S. de Gironcoli, J. Phys.: Condens. Matter 24, 424209 (2012).
     *

     Carrying out vdW-DF run using the following parameters:

     Nqs =      20    Nr_points =    1024   r_max =   100.000
     q_mesh =
               0.00001000     0.04494208     0.09755937     0.15916263
               0.23128650     0.31572767     0.41458969     0.53033537
               0.66584808     0.82450364     1.01025438     1.22772762
               1.48234092     1.78043706     2.12944203     2.53805004
               3.01644009     3.57652955     4.23227104     5.00000000

     Gradients computed in reciprocal space

     Adding external electric field

     Computed dipole along edir(3) :
        Dipole                0.0000 Ry au,          0.0000 Debye
        Dipole field          0.0000 Ry au

        Potential amp.       -0.0000 Ry
        Total length         45.0396 bohr

     Starting wfc are  156 randomized atomic wfcs

     Self-consistent Calculation

     iteration #  1     ecut=    36.75 Ry     beta=0.10
     Davidson diagonalization with overlap
     ethr =  1.00E-02,  avg # of iterations =  7.4

[...]

     total energy              =   -4689.69031563 Ry
     Harris-Foulkes estimate   =   -4693.71201260 Ry
     estimated scf accuracy    <      22.21274646 Ry

[...]

     End of self-consistent calculation

          k = 0.0000 0.0000 0.0000 ( 15845 PWs)   bands (ev):

  -125.4489-125.4475-125.4475-125.1799-125.1798-125.1785-125.1785-125.1784
  -125.1784 -79.6798 -79.6686 -79.6686 -79.6145 -79.6145 -79.6076 -79.5897
   -79.5824 -79.5824 -79.4027 -79.4025 -79.3914 -79.3914 -79.3913 -79.3913
   -79.3559 -79.3559 -79.3495 -79.3495 -79.3494 -79.3494 -79.3218 -79.3218
   -79.3216 -79.3216 -79.3155 -79.3154 -65.5904 -65.3727 -65.3727 -37.6507
   -37.6412 -37.6412 -37.4507 -37.4495 -37.3860 -37.3860 -37.3856 -37.3856
    -8.1652  -7.0869  -7.0208  -7.0094  -7.0094  -6.9762  -6.8898  -6.8318
    -6.8318  -6.7715  -6.7715  -6.7544  -6.5851  -6.5851  -6.5218  -6.4552
    -6.4036  -6.4036  -6.3431  -6.2759  -6.2664  -6.2664  -6.2600  -6.2600
    -6.2069  -6.2003  -6.2003  -5.9865  -5.9865  -5.9616  -5.9616  -5.9174
    -5.9174  -5.9031  -5.9031  -5.8904  -5.8652  -5.8652  -5.7963  -5.7963
    -5.7951  -5.7148  -5.6853  -5.6853  -5.6509  -5.5171  -5.5151  -3.3803
    -2.0947  -2.0947  -1.5236  -1.5236  -1.4827  -1.1184  -1.1184  -0.8299
    -0.2027  -0.2027  -0.1601   0.5632   0.5812   0.5812   0.7952   0.8962
     0.8962   1.2510   1.2510   1.7770   2.0582   2.0582   2.1557   2.3047
     2.3047   4.4363   4.6858   4.7012   4.7012   4.8872   4.8872   4.9376
     5.2263   5.7076   5.7076   5.7628   6.3745   6.4578   6.7024   8.1004
     8.2237   8.3542   8.3542   8.6981   8.8514   8.8514

[...]

          k =-0.0918-0.0530 0.0000 ( 15968 PWs)   bands (ev):

[...]

     the Fermi energy is     0.9867 ev

!    total energy              =   -4690.73051240 Ry
     Harris-Foulkes estimate   =   -4690.73050504 Ry
     estimated scf accuracy    <       0.00000085 Ry

     The total energy is the sum of the following terms:

     one-electron contribution =  -32473.59729766 Ry
     hartree contribution      =   16224.95639766 Ry
     xc contribution           =    -490.28586492 Ry
     ewald contribution        =   12048.24467243 Ry
     electric field correction =       0.00000000 Ry
     smearing contrib. (-TS)   =      -0.04841992 Ry

     convergence has been achieved in  16 iterations

 BEEF-vdW xc energy contributions
           1 :   -434.533541488740
           2 :    395.156538613427
           3 :   -328.278407785983
           4 :    252.051356182493
           5 :   -183.162147840901
           6 :    130.812902957846
[...]
                l(1) =   0
                l(2) =   0
                l(3) =   1
                l(4) =   1
                l(5) =   2
                l(6) =   2
     Q(r) pseudized with  8 coefficients,  rinner =    1.100   1.100   1.100
                                                       1.100   1.100

     PseudoPot. # 2 for Tc read from file:
     /afs/slac.stanford.edu/u/if/mamunm/psp/gbrv1.5pbe/Tc.UPF
     MD5 check sum: 9eb49e5b028550b2339a02317eb7b844
     Pseudo is Ultrasoft + core correction, Zval = 15.0
     Generated by new atomic code, or converted to UPF format
     Using radial grid of  965 points,  6 beta functions with:
                l(1) =   0
                l(2) =   0
                l(3) =   1
                l(4) =   1
                l(5) =   2
                l(6) =   2
     Q(r) pseudized with  8 coefficients,  rinner =    1.300   1.300   1.300
                                                       1.300   1.300

     vdW kernel table read from file vdW_kernel_table
     MD5 check sum: 095c7af220d748ca6e76c0b4c6cfb241

     atomic species   valence    mass     pseudopotential
        Zn1           20.00    65.38000     Zn( 1.00)
        Tc1           15.00    97.90721     Tc( 1.00)

     No symmetry found

   Cartesian axes

     site n.     atom                  positions (alat units)
         1           Zn1 tau(   1) = (   0.0000000   0.0000000  10.0000000  )
         2           Zn1 tau(   2) = (  -1.3610225   2.3573601  10.0000000  )
         3           Zn1 tau(   3) = (   1.3610225   2.3573601  10.0000000  )
         4           Tc1 tau(   4) = (   2.7220450   0.0000000  10.0000000  )
         5           Zn1 tau(   5) = (   2.7220450   1.5715734  12.2225405  )
         6           Zn1 tau(   6) = (   1.3610225   3.9289336  12.2225405  )
         7           Zn1 tau(   7) = (  -1.3610225   3.9289336  12.2225405  )
         8           Tc1 tau(   8) = (   0.0000000   1.5715734  12.2225405  )
         9           Zn1 tau(   9) = (   0.0000020   3.1523807  14.6055184  )
        10           Zn1 tau(  10) = (   1.3690095   0.7811726  14.6055160  )
        11           Zn1 tau(  11) = (   4.0750744   0.7811636  14.6055161  )
        12           Tc1 tau(  12) = (   2.7220425   3.1431479  14.2427067  )

     number of k points=    20  Fermi-Dirac smearing, width (Ry)=  0.0110
                       cart. coord. in units 2pi/alat
        k(    1) = (   0.0000000   0.0000000   0.0000000), wk =   0.0555556
        k(    2) = (   0.0000000   0.0353503   0.0000000), wk =   0.1111111
        k(    3) = (   0.0000000   0.0707006   0.0000000), wk =   0.1111111
        k(    4) = (   0.0000000  -0.1060508   0.0000000), wk =   0.0555556
        k(    5) = (   0.0306142   0.0176751   0.0000000), wk =   0.1111111
        k(    6) = (   0.0306142   0.0530254   0.0000000), wk =   0.1111111
        k(    7) = (   0.0306142   0.0883757   0.0000000), wk =   0.1111111
        k(    8) = (   0.0306142  -0.0883757   0.0000000), wk =   0.1111111
        k(    9) = (   0.0306142  -0.0530254   0.0000000), wk =   0.1111111
        k(   10) = (   0.0306142  -0.0176751   0.0000000), wk =   0.1111111
        k(   11) = (   0.0612285   0.0353503   0.0000000), wk =   0.1111111
        k(   12) = (   0.0612285   0.0707006   0.0000000), wk =   0.1111111
        k(   13) = (   0.0612285   0.1060508   0.0000000), wk =   0.1111111
        k(   14) = (   0.0612285  -0.0707006   0.0000000), wk =   0.1111111
        k(   15) = (   0.0612285  -0.0353503   0.0000000), wk =   0.1111111
        k(   16) = (   0.0612285   0.0000000   0.0000000), wk =   0.1111111
        k(   17) = (  -0.0918427  -0.0530254   0.0000000), wk =   0.0555556
        k(   18) = (  -0.0918427  -0.0176751   0.0000000), wk =   0.1111111
        k(   19) = (  -0.0918427   0.0176751   0.0000000), wk =   0.1111111
        k(   20) = (  -0.0918427  -0.1590762   0.0000000), wk =   0.0555556

     Largest allocated arrays     est. size (Mb)     dimensions
     Largest temporary arrays     est. size (Mb)     dimensions

     Check: negative/imaginary core charge=   -0.000011    0.000000

     Initial potential from superposition of free atoms
     Check: negative starting charge=   -0.376490

     starting charge  221.99865, renormalised to  225.00000

[...]

     *
     * You are using vdW-DF for exchange-correlation in this calculation.
     * Please cite the following three references that made this development
     * possible:
     *
     *   M. Dion, H. Rydberg, E. Schroder, D. C. Langreth, and
     *   B. I. Lundqvist, Phys. Rev. Lett. 92, 246401 (2004).
     *
     *   T. Thonhauser, V. R. Cooper, S. Li, A. Puzder, P. Hyldgaard, and
     *   D. C. Langreth, Phys. Rev. B 76, 125112 (2007).
     *
     *   G. Roman-Perez and J. M. Soler, Phys. Rev. Lett. 103, 096102 (2009).
     *
     *
     * If you are using vdW-DF2, please also cite:
     *
     *   K. Lee, E. D. Murray, L. Kong, B. I. Lundqvist, and
     *   D. C. Langreth, Phys. Rev. B 82, 081101(R) (2010).
     *
     *
     * If you are calculating the stress with vdW-DF, please also cite:
     *
     *   R. Sabatini, E. Kucukbenli, B. Kolb, T. Thonhauser, and
     *   S. de Gironcoli, J. Phys.: Condens. Matter 24, 424209 (2012).
     *

     Carrying out vdW-DF run using the following parameters:

     Nqs =      20    Nr_points =    1024   r_max =   100.000
     q_mesh =
               0.00001000     0.04494208     0.09755937     0.15916263
               0.23128650     0.31572767     0.41458969     0.53033537
               0.66584808     0.82450364     1.01025438     1.22772762
               1.48234092     1.78043706     2.12944203     2.53805004
               3.01644009     3.57652955     4.23227104     5.00000000

     Gradients computed in reciprocal space

[...]

     Starting wfc are  156 randomized atomic wfcs

     Self-consistent Calculation

[...]

     total energy              =   -4690.75804272 Ry
     Harris-Foulkes estimate   =   -4690.75804121 Ry
     estimated scf accuracy    <       0.00000142 Ry

     iteration # 18     ecut=    36.75 Ry     beta=0.10
     Davidson diagonalization with overlap
     ethr =  6.32E-10,  avg # of iterations =  2.0

[...]

     negative rho (up, down):  3.880E-01 0.000E+00

     Adding external electric field

     Computed dipole along edir(3) :
        Dipole               -0.0409 Ry au,         -0.1040 Debye
        Dipole field         -0.0001 Ry au

        Potential amp.        0.0109 Ry
        Total length         45.0396 bohr

     End of self-consistent calculation

[...]

          k = 0.0612 0.0000 0.0000 ( 15922 PWs)   bands (ev):

[...]

          k =-0.0918-0.1591 0.0000 ( 15968 PWs)   bands (ev):

  -125.3180-125.3176-125.3171-125.1944-125.1939-125.1934-125.0462-125.0457
  -125.0452 -79.5400 -79.5361 -79.5326 -79.4844 -79.4822 -79.4800 -79.4637
   -79.4615 -79.4589 -79.4149 -79.4112 -79.4080 -79.3676 -79.3651 -79.3627
   -79.3369 -79.3349 -79.3326 -79.2689 -79.2647 -79.2610 -79.2248 -79.2229
   -79.2208 -79.1820 -79.1800 -79.1776 -65.5931 -65.3952 -65.3928 -37.6414
   -37.6402 -37.6253 -37.4757 -37.4684 -37.4079 -37.4070 -37.4051 -37.4043
    -6.9999  -6.7652  -6.7119  -6.6318  -6.5872  -6.5610  -6.5351  -6.5249
    -6.5204  -6.4771  -6.4664  -6.4406  -6.4331  -6.3610  -6.3237  -6.2634
    -6.2631  -6.2476  -6.2112  -6.1748  -6.1498  -6.1473  -6.1221  -6.0938
    -6.0876  -6.0709  -6.0582  -6.0446  -6.0217  -6.0017  -5.9928  -5.9696
    -5.9606  -5.9583  -5.9423  -5.9245  -5.9091  -5.8768  -5.8607  -5.8321
    -5.7594  -5.7257  -5.7145  -5.6826  -5.6465  -5.5819  -5.5635  -4.4884
    -3.9038  -3.1614  -2.2686  -1.9911  -1.8187  -1.3898  -1.1293  -0.6922
    -0.6284  -0.1955  -0.1360  -0.1196  -0.1183   0.1852   0.4861   0.5596
     0.9836   1.3305   1.8151   1.8320   2.3511   2.5726   3.1922   3.3968
     3.7147   3.9161   5.6339   5.7447   5.7969   6.1133   6.3277   6.4117
     6.5171   6.5374   6.5660   6.6578   6.7059   6.8155   7.2518   7.6112
     7.7489   7.7737   7.8114   7.9723   8.2157   8.3054

     the Fermi energy is     0.9455 ev

!    total energy              =   -4690.75804819 Ry
     Harris-Foulkes estimate   =   -4690.75804278 Ry
     estimated scf accuracy    <       0.00000044 Ry

     The total energy is the sum of the following terms:

     one-electron contribution =  -32095.42799325 Ry
     hartree contribution      =   16036.41593579 Ry
     xc contribution           =    -490.23583364 Ry
     ewald contribution        =   11858.53455311 Ry
     electric field correction =       0.00000497 Ry
     smearing contrib. (-TS)   =      -0.04471517 Ry

     convergence has been achieved in  18 iterations

 BEEF-vdW xc energy contributions
           1 :   -434.481964522462
           2 :    395.076535614576
           3 :   -328.162824053705
           4 :    251.922295516836
           5 :   -183.050950122898
           6 :    130.732843902828
           7 :   -95.1661556761776
           8 :    70.5621144430735
           9 :   -50.2478435363006
          10 :    30.6817099918136
          11 :   -12.4425156341706
          12 :   -1.66092743164745
          13 :    9.47828594387897
          14 :   -11.3188960766156
          15 :    9.67526369201329
          16 :   -7.47489061419901
          17 :    6.33043309944293
          18 :   -6.02122645512003
          19 :    5.35030537692217
          20 :   -3.53264729665602
          21 :   0.999740125868698
          22 :   0.897811405917309
          23 :  -0.937083877298335
          24 :   -1.06303150885560
          25 :    4.13993284795322
          26 :   -6.90976419656096
          27 :    8.50328717285424
          28 :   -9.01336084656697
          29 :    9.17673535877816
          30 :   -9.61816580652635
          31 :   -35.0738067548032
          32 :   -24.3600110681912

     Forces acting on atoms (Ry/au):

     negative rho (up, down):  3.880E-01 0.000E+00
     atom    1 type  1   force =     0.00000013   -0.00140956   -0.02189039
     atom    2 type  1   force =    -0.00122074    0.00070430   -0.02189065
     atom    3 type  1   force =     0.00122063    0.00070438   -0.02189023
     atom    4 type  2   force =     0.00000000    0.00000020    0.07506866
     atom    5 type  1   force =    -0.00000054   -0.01569131   -0.00714516
     atom    6 type  1   force =    -0.01358898    0.00784538   -0.00714523
     atom    7 type  1   force =     0.01358840    0.00784612   -0.00714509
     atom    8 type  2   force =    -0.00000028    0.00000033    0.01091378
     atom    9 type  1   force =    -0.00000082   -0.00017734   -0.00018122
     atom   10 type  1   force =    -0.00015227    0.00008849   -0.00018082
     atom   11 type  1   force =     0.00015324    0.00009010   -0.00018063
     atom   12 type  2   force =     0.00000124   -0.00000109    0.00166699

     Total force =     0.089959     Total SCF correction =     0.002599

     entering subroutine stress ...

     negative rho (up, down):  3.880E-01 0.000E+00
          total   stress  (Ry/bohr**3)                   (kbar)     P=  -18.01
  -0.00015595  -0.00000000   0.00000000        -22.94     -0.00      0.00
  -0.00000000  -0.00015595   0.00000000         -0.00    -22.94      0.00
   0.00000000   0.00000000  -0.00005537          0.00      0.00     -8.14

 !ASE

     Writing output data file calc.save

     General routines

     Parallel routines

   This run was terminated on:  19:35:52   2Jan2019

   JOB DONE.
Job  /afs/slac/g/suncat/bin/suncat-tsmpirun -x LD_LIBRARY_PATH -wdir /scratch/qe649514_FD6CR pw.x -in pw.inp

TID   HOST_NAME   COMMAND_LINE            STATUS            TERMINATION_TIME
00000 suncat0154 pw.x -in pw.inp   Done                     01/02/2019 19:35:52
00001 suncat0154 pw.x -in pw.inp   Done                     01/02/2019 19:35:52
00002 suncat0154 pw.x -in pw.inp   Done                     01/02/2019 19:35:52
00003 suncat0154 pw.x -in pw.inp   Done                     01/02/2019 19:35:52
00004 suncat0154 pw.x -in pw.inp   Done                     01/02/2019 19:35:52
00005 suncat0154 pw.x -in pw.inp   Done                     01/02/2019 19:35:52
00006 suncat0154 pw.x -in pw.inp   Done                     01/02/2019 19:35:52
00007 suncat0154 pw.x -in pw.inp   Done                     01/02/2019 19:35:52
00008 suncat0143 pw.x -in pw.inp   Done                     01/02/2019 19:35:52
00009 suncat0143 pw.x -in pw.inp   Done                     01/02/2019 19:35:52
00010 suncat0143 pw.x -in pw.inp   Done                     01/02/2019 19:35:52
00011 suncat0143 pw.x -in pw.inp   Done                     01/02/2019 19:35:52
00012 suncat0143 pw.x -in pw.inp   Done                     01/02/2019 19:35:52
00013 suncat0143 pw.x -in pw.inp   Done                     01/02/2019 19:35:52
00014 suncat0143 pw.x -in pw.inp   Done                     01/02/2019 19:35:52
00015 suncat0143 pw.x -in pw.inp   Done                     01/02/2019 19:35:52
00016 suncat0108 pw.x -in pw.inp   Done                     01/02/2019 19:35:52
00017 suncat0108 pw.x -in pw.inp   Done                     01/02/2019 19:35:52
00018 suncat0108 pw.x -in pw.inp   Done                     01/02/2019 19:35:52
00019 suncat0108 pw.x -in pw.inp   Done                     01/02/2019 19:35:52
00020 suncat0108 pw.x -in pw.inp   Done                     01/02/2019 19:35:52
00021 suncat0108 pw.x -in pw.inp   Done                     01/02/2019 19:35:52
00022 suncat0108 pw.x -in pw.inp   Done                     01/02/2019 19:35:52
00023 suncat0108 pw.x -in pw.inp   Done                     01/02/2019 19:35:52
00024 suncat0252 pw.x -in pw.inp   Done                     01/02/2019 19:35:52
00025 suncat0252 pw.x -in pw.inp   Done                     01/02/2019 19:35:52
00026 suncat0252 pw.x -in pw.inp   Done                     01/02/2019 19:35:52
00027 suncat0252 pw.x -in pw.inp   Done                     01/02/2019 19:35:52
00028 suncat0252 pw.x -in pw.inp   Done                     01/02/2019 19:35:52
00029 suncat0252 pw.x -in pw.inp   Done                     01/02/2019 19:35:52
00030 suncat0252 pw.x -in pw.inp   Done                     01/02/2019 19:35:52
00031 suncat0252 pw.x -in pw.inp   Done                     01/02/2019 19:35:52
00032 suncat0226 pw.x -in pw.inp   Done                     01/02/2019 19:35:52
00033 suncat0226 pw.x -in pw.inp   Done                     01/02/2019 19:35:52
00034 suncat0226 pw.x -in pw.inp   Done                     01/02/2019 19:35:52
00035 suncat0226 pw.x -in pw.inp   Done                     01/02/2019 19:35:52
00036 suncat0226 pw.x -in pw.inp   Done                     01/02/2019 19:35:52
00037 suncat0226 pw.x -in pw.inp   Done                     01/02/2019 19:35:52
00038 suncat0226 pw.x -in pw.inp   Done                     01/02/2019 19:35:52
00039 suncat0226 pw.x -in pw.inp   Done                     01/02/2019 19:35:52
00040 suncat0225 pw.x -in pw.inp   Done                     01/02/2019 19:35:52
00041 suncat0225 pw.x -in pw.inp   Done                     01/02/2019 19:35:52
00042 suncat0225 pw.x -in pw.inp   Done                     01/02/2019 19:35:52
00043 suncat0225 pw.x -in pw.inp   Done                     01/02/2019 19:35:52
00044 suncat0225 pw.x -in pw.inp   Done                     01/02/2019 19:35:52
00045 suncat0225 pw.x -in pw.inp   Done                     01/02/2019 19:35:52
00046 suncat0225 pw.x -in pw.inp   Done                     01/02/2019 19:35:52
00047 suncat0225 pw.x -in pw.inp   Done                     01/02/2019 19:35:52
00048 suncat0224 pw.x -in pw.inp   Done                     01/02/2019 19:35:52
00049 suncat0224 pw.x -in pw.inp   Done                     01/02/2019 19:35:52
00050 suncat0224 pw.x -in pw.inp   Done                     01/02/2019 19:35:52
00051 suncat0224 pw.x -in pw.inp   Done                     01/02/2019 19:35:52
00052 suncat0224 pw.x -in pw.inp   Done                     01/02/2019 19:35:52
00053 suncat0224 pw.x -in pw.inp   Done                     01/02/2019 19:35:52
00054 suncat0224 pw.x -in pw.inp   Done                     01/02/2019 19:35:52
00055 suncat0224 pw.x -in pw.inp   Done                     01/02/2019 19:35:52
00056 suncat0223 pw.x -in pw.inp   Done                     01/02/2019 19:35:52
00057 suncat0223 pw.x -in pw.inp   Done                     01/02/2019 19:35:52
00058 suncat0223 pw.x -in pw.inp   Done                     01/02/2019 19:35:52
00059 suncat0223 pw.x -in pw.inp   Done                     01/02/2019 19:35:52
00060 suncat0223 pw.x -in pw.inp   Done                     01/02/2019 19:35:52
00061 suncat0223 pw.x -in pw.inp   Done                     01/02/2019 19:35:52
00062 suncat0223 pw.x -in pw.inp   Done                     01/02/2019 19:35:52
00063 suncat0223 pw.x -in pw.inp   Done                     01/02/2019 19:35:52