     Program PWSCF v.5.1rc2 (svn rev. 11289) starts on 27Dec2018 at  9:25:34

     Current dimensions of program PWSCF are:
     Max number of different atomic species (ntypx) = 10
     Max number of k-points (npk) =  40000
     Max angular momentum in pseudopotentials (lmaxx) =  3
     Presently stress not available with electric field

     IMPORTANT: XC functional enforced from input :
     Exchange-correlation      = BEEF-VDW ( 1  4 27 13 2)
     Any further DFT definition will be discarded
     Please, verify this is what you really want

     Subspace diagonalization in iterative solution of the eigenvalue problem:
     a serial algorithm will be used

     Generating pointlists ...
     new r_m :   0.4125 (alat units)  0.7795 (a.u.) for type    1
     new r_m :   0.4125 (alat units)  0.7795 (a.u.) for type    2

     bravais-lattice index     =            0
     lattice parameter (alat)  =       1.8897  a.u.
     unit-cell volume          =    3875.8962 (a.u.)^3
     number of atoms/cell      =           12
     number of atomic types    =            2
     number of electrons       =       201.00
     number of Kohn-Sham states=          130
     kinetic-energy cutoff     =      36.7493  Ry
     charge density cutoff     =     367.4932  Ry
     convergence threshold     =      1.0E-06
     mixing beta               =       0.1000
     number of iterations used =           10  plain     mixing
     Exchange-correlation      = BEEF-VDW ( 1  4 27 13 2)
     nstep                     =           50

     celldm(1)=   1.889726  celldm(2)=   0.000000  celldm(3)=   0.000000
     celldm(4)=   0.000000  celldm(5)=   0.000000  celldm(6)=   0.000000

     crystal axes: (cart. coord. in units of alat)
               a(1) = (   5.227603   0.000000   0.000000 )
               a(2) = (  -2.613802   4.527237   0.000000 )
               a(3) = (   0.000000   0.000000  24.268320 )

     reciprocal axes: (cart. coord. in units 2 pi/alat)
               b(1) = (  0.191292  0.110443  0.000000 )
               b(2) = (  0.000000  0.220885  0.000000 )
               b(3) = (  0.000000  0.000000  0.041206 )

     PseudoPot. # 1 for Ni read from file:
     /afs/slac.stanford.edu/u/if/mamunm/psp/gbrv1.5pbe/Ni.UPF
     MD5 check sum: 1ee80287db30b12d2bc1f57a5b5d6409
     Pseudo is Ultrasoft + core correction, Zval = 18.0
     Generated by new atomic code, or converted to UPF format
     Using radial grid of  865 points,  6 beta functions with:
                l(1) =   0
                l(2) =   0
                l(3) =   1
                l(4) =   1
                l(5) =   2
                l(6) =   2
     Q(r) pseudized with 10 coefficients,  rinner =    0.980   0.980   0.980
                                                       0.980   0.980

     PseudoPot. # 2 for Ta read from file:
     /afs/slac.stanford.edu/u/if/mamunm/psp/gbrv1.5pbe/Ta.UPF
     MD5 check sum: f8bbe9446314a3b8ea5d9f3e3836c939
     Pseudo is Ultrasoft + core correction, Zval = 13.0
     Generated by new atomic code, or converted to UPF format
     Using radial grid of  921 points,  7 beta functions with:
                l(1) =   0
                l(2) =   0
                l(3) =   1
                l(4) =   1
                l(5) =   2
                l(6) =   2
                l(7) =   3
     Q(r) pseudized with  6 coefficients,  rinner =    1.300   1.300   1.300
                                                       1.300   1.300   1.300
                                                       1.300

     vdW kernel table read from file vdW_kernel_table
     MD5 check sum: 095c7af220d748ca6e76c0b4c6cfb241

     atomic species   valence    mass     pseudopotential
        Ni1           18.00    58.69340     Ni( 1.00)
        Ta1           13.00   180.94788     Ta( 1.00)

     Starting magnetic structure
     atomic species   magnetization
        Ni1          0.111
        Ta1          0.154

     No symmetry found

   Cartesian axes

     site n.     atom                  positions (alat units)
         1           Ni1 tau(   1) = (   0.0000000   0.0000000  10.0000000  )
         2           Ni1 tau(   2) = (  -1.3069008   2.2636185  10.0000000  )
         3           Ni1 tau(   3) = (   1.3069008   2.2636185  10.0000000  )
         4           Ta1 tau(   4) = (   2.6138015   0.0000000  10.0000000  )
         5           Ni1 tau(   5) = (   2.6138015   1.5090790  12.1341600  )
         6           Ni1 tau(   6) = (   1.3069008   3.7726975  12.1341600  )
         7           Ni1 tau(   7) = (  -1.3069008   3.7726975  12.1341600  )
         8           Ta1 tau(   8) = (   0.0000000   1.5090790  12.1341600  )
         9           Ni1 tau(   9) = (  -0.0000000   3.0181580  14.2683200  )
        10           Ni1 tau(  10) = (   1.3069008   0.7545395  14.2683200  )
        11           Ni1 tau(  11) = (   3.9207023   0.7545395  14.2683200  )
        12           Ta1 tau(  12) = (   2.6138015   3.0181580  14.2683200  )

     number of k points=    40  Fermi-Dirac smearing, width (Ry)=  0.0110
                       cart. coord. in units 2pi/alat
        k(    1) = (   0.0000000   0.0000000   0.0000000), wk =   0.0277778
        k(    2) = (   0.0000000   0.0368142   0.0000000), wk =   0.0555556
        k(    3) = (   0.0000000   0.0736284   0.0000000), wk =   0.0555556
        k(    4) = (   0.0000000  -0.1104426   0.0000000), wk =   0.0277778
        k(    5) = (   0.0318820   0.0184071   0.0000000), wk =   0.0555556
        k(    6) = (   0.0318820   0.0552213   0.0000000), wk =   0.0555556
        k(    7) = (   0.0318820   0.0920355   0.0000000), wk =   0.0555556
        k(    8) = (   0.0318820  -0.0920355   0.0000000), wk =   0.0555556
        k(    9) = (   0.0318820  -0.0552213   0.0000000), wk =   0.0555556
        k(   10) = (   0.0318820  -0.0184071   0.0000000), wk =   0.0555556
        k(   11) = (   0.0637641   0.0368142   0.0000000), wk =   0.0555556
        k(   12) = (   0.0637641   0.0736284   0.0000000), wk =   0.0555556
        k(   13) = (   0.0637641   0.1104426   0.0000000), wk =   0.0555556
        k(   14) = (   0.0637641  -0.0736284   0.0000000), wk =   0.0555556
        k(   15) = (   0.0637641  -0.0368142   0.0000000), wk =   0.0555556
        k(   16) = (   0.0637641   0.0000000   0.0000000), wk =   0.0555556
        k(   17) = (  -0.0956461  -0.0552213   0.0000000), wk =   0.0277778
        k(   18) = (  -0.0956461  -0.0184071   0.0000000), wk =   0.0555556
        k(   19) = (  -0.0956461   0.0184071   0.0000000), wk =   0.0555556
        k(   20) = (  -0.0956461  -0.1656640   0.0000000), wk =   0.0277778
        k(   21) = (   0.0000000   0.0000000   0.0000000), wk =   0.0277778
        k(   22) = (   0.0000000   0.0368142   0.0000000), wk =   0.0555556
        k(   23) = (   0.0000000   0.0736284   0.0000000), wk =   0.0555556
        k(   24) = (   0.0000000  -0.1104426   0.0000000), wk =   0.0277778
        k(   25) = (   0.0318820   0.0184071   0.0000000), wk =   0.0555556
        k(   26) = (   0.0318820   0.0552213   0.0000000), wk =   0.0555556
        k(   27) = (   0.0318820   0.0920355   0.0000000), wk =   0.0555556
        k(   28) = (   0.0318820  -0.0920355   0.0000000), wk =   0.0555556
        k(   29) = (   0.0318820  -0.0552213   0.0000000), wk =   0.0555556
        k(   30) = (   0.0318820  -0.0184071   0.0000000), wk =   0.0555556
        k(   31) = (   0.0637641   0.0368142   0.0000000), wk =   0.0555556
        k(   32) = (   0.0637641   0.0736284   0.0000000), wk =   0.0555556
        k(   33) = (   0.0637641   0.1104426   0.0000000), wk =   0.0555556
        k(   34) = (   0.0637641  -0.0736284   0.0000000), wk =   0.0555556
        k(   35) = (   0.0637641  -0.0368142   0.0000000), wk =   0.0555556
        k(   36) = (   0.0637641   0.0000000   0.0000000), wk =   0.0555556
        k(   37) = (  -0.0956461  -0.0552213   0.0000000), wk =   0.0277778
        k(   38) = (  -0.0956461  -0.0184071   0.0000000), wk =   0.0555556
        k(   39) = (  -0.0956461   0.0184071   0.0000000), wk =   0.0555556
        k(   40) = (  -0.0956461  -0.1656640   0.0000000), wk =   0.0277778

     Largest allocated arrays     est. size (Mb)     dimensions
     Largest temporary arrays     est. size (Mb)     dimensions

     Check: negative/imaginary core charge=   -0.000001    0.000000

     Initial potential from superposition of free atoms
     Check: negative starting charge=(component1):   -0.165309
     Check: negative starting charge=(component2):   -0.121247

     starting charge  182.99666, renormalised to  201.00000

     negative rho (up, down):  1.816E-01 1.332E-01

     *
     * You are using vdW-DF for exchange-correlation in this calculation.
     * Please cite the following three references that made this development
     * possible:
     *
     *   M. Dion, H. Rydberg, E. Schroder, D. C. Langreth, and
     *   B. I. Lundqvist, Phys. Rev. Lett. 92, 246401 (2004).
     *
     *   T. Thonhauser, V. R. Cooper, S. Li, A. Puzder, P. Hyldgaard, and
     *   D. C. Langreth, Phys. Rev. B 76, 125112 (2007).
     *
     *   G. Roman-Perez and J. M. Soler, Phys. Rev. Lett. 103, 096102 (2009).
     *
     *
     * If you are using vdW-DF2, please also cite:
     *
     *   K. Lee, E. D. Murray, L. Kong, B. I. Lundqvist, and
     *   D. C. Langreth, Phys. Rev. B 82, 081101(R) (2010).
     *
     *
     * If you are calculating the stress with vdW-DF, please also cite:
     *
     *   R. Sabatini, E. Kucukbenli, B. Kolb, T. Thonhauser, and
     *   S. de Gironcoli, J. Phys.: Condens. Matter 24, 424209 (2012).
     *

     Carrying out vdW-DF run using the following parameters:

     Nqs =      20    Nr_points =    1024   r_max =   100.000
     q_mesh =
               0.00001000     0.04494208     0.09755937     0.15916263
               0.23128650     0.31572767     0.41458969     0.53033537
               0.66584808     0.82450364     1.01025438     1.22772762
               1.48234092     1.78043706     2.12944203     2.53805004
               3.01644009     3.57652955     4.23227104     5.00000000

     Gradients computed in reciprocal space

     Adding external electric field

     Computed dipole along edir(3) :
        Dipole                0.0000 Ry au,          0.0000 Debye
        Dipole field          0.0000 Ry au

        Potential amp.       -0.0000 Ry
        Total length         44.7140 bohr

[...]

     Starting wfc are  156 randomized atomic wfcs

     Self-consistent Calculation

     iteration #  1     ecut=    36.75 Ry     beta=0.10
     Davidson diagonalization with overlap
     ethr =  1.00E-02,  avg # of iterations =  8.1

[...]

     Magnetic moment per site:
     atom:    1    charge:    9.7504    magn:    1.0329    constr:    0.0000
     atom:    2    charge:    9.7504    magn:    1.0329    constr:    0.0000
     atom:    3    charge:    9.7504    magn:    1.0329    constr:    0.0000
     atom:    4    charge:    1.4692    magn:    0.2053    constr:    0.0000
     atom:    5    charge:    9.7732    magn:    1.0356    constr:    0.0000
     atom:    6    charge:    9.7732    magn:    1.0356    constr:    0.0000
[...]
        k(    4) = (   0.0000000  -0.1104426   0.0000000), wk =   0.0277778
        k(    5) = (   0.0318820   0.0184071   0.0000000), wk =   0.0555556
        k(    6) = (   0.0318820   0.0552213   0.0000000), wk =   0.0555556
        k(    7) = (   0.0318820   0.0920355   0.0000000), wk =   0.0555556
        k(    8) = (   0.0318820  -0.0920355   0.0000000), wk =   0.0555556
        k(    9) = (   0.0318820  -0.0552213   0.0000000), wk =   0.0555556
        k(   10) = (   0.0318820  -0.0184071   0.0000000), wk =   0.0555556
        k(   11) = (   0.0637641   0.0368142   0.0000000), wk =   0.0555556
        k(   12) = (   0.0637641   0.0736284   0.0000000), wk =   0.0555556
        k(   13) = (   0.0637641   0.1104426   0.0000000), wk =   0.0555556
        k(   14) = (   0.0637641  -0.0736284   0.0000000), wk =   0.0555556
        k(   15) = (   0.0637641  -0.0368142   0.0000000), wk =   0.0555556
        k(   16) = (   0.0637641   0.0000000   0.0000000), wk =   0.0555556
        k(   17) = (  -0.0956461  -0.0552213   0.0000000), wk =   0.0277778
        k(   18) = (  -0.0956461  -0.0184071   0.0000000), wk =   0.0555556
        k(   19) = (  -0.0956461   0.0184071   0.0000000), wk =   0.0555556
        k(   20) = (  -0.0956461  -0.1656640   0.0000000), wk =   0.0277778
        k(   21) = (   0.0000000   0.0000000   0.0000000), wk =   0.0277778
        k(   22) = (   0.0000000   0.0368142   0.0000000), wk =   0.0555556
        k(   23) = (   0.0000000   0.0736284   0.0000000), wk =   0.0555556
        k(   24) = (   0.0000000  -0.1104426   0.0000000), wk =   0.0277778
        k(   25) = (   0.0318820   0.0184071   0.0000000), wk =   0.0555556
        k(   26) = (   0.0318820   0.0552213   0.0000000), wk =   0.0555556
        k(   27) = (   0.0318820   0.0920355   0.0000000), wk =   0.0555556
        k(   28) = (   0.0318820  -0.0920355   0.0000000), wk =   0.0555556
        k(   29) = (   0.0318820  -0.0552213   0.0000000), wk =   0.0555556
        k(   30) = (   0.0318820  -0.0184071   0.0000000), wk =   0.0555556
        k(   31) = (   0.0637641   0.0368142   0.0000000), wk =   0.0555556
        k(   32) = (   0.0637641   0.0736284   0.0000000), wk =   0.0555556
        k(   33) = (   0.0637641   0.1104426   0.0000000), wk =   0.0555556
        k(   34) = (   0.0637641  -0.0736284   0.0000000), wk =   0.0555556
        k(   35) = (   0.0637641  -0.0368142   0.0000000), wk =   0.0555556
        k(   36) = (   0.0637641   0.0000000   0.0000000), wk =   0.0555556
        k(   37) = (  -0.0956461  -0.0552213   0.0000000), wk =   0.0277778
        k(   38) = (  -0.0956461  -0.0184071   0.0000000), wk =   0.0555556
        k(   39) = (  -0.0956461   0.0184071   0.0000000), wk =   0.0555556
        k(   40) = (  -0.0956461  -0.1656640   0.0000000), wk =   0.0277778

     Largest allocated arrays     est. size (Mb)     dimensions
     Largest temporary arrays     est. size (Mb)     dimensions

     Check: negative/imaginary core charge=   -0.000001    0.000000

     Initial potential from superposition of free atoms
     Check: negative starting charge=(component1):   -0.165296
     Check: negative starting charge=(component2):   -0.121237

     starting charge  182.99666, renormalised to  201.00000

[...]

     *
     * You are using vdW-DF for exchange-correlation in this calculation.
     * Please cite the following three references that made this development
     * possible:
     *
     *   M. Dion, H. Rydberg, E. Schroder, D. C. Langreth, and
     *   B. I. Lundqvist, Phys. Rev. Lett. 92, 246401 (2004).
     *
     *   T. Thonhauser, V. R. Cooper, S. Li, A. Puzder, P. Hyldgaard, and
     *   D. C. Langreth, Phys. Rev. B 76, 125112 (2007).
     *
     *   G. Roman-Perez and J. M. Soler, Phys. Rev. Lett. 103, 096102 (2009).
     *
     *
     * If you are using vdW-DF2, please also cite:
     *
     *   K. Lee, E. D. Murray, L. Kong, B. I. Lundqvist, and
     *   D. C. Langreth, Phys. Rev. B 82, 081101(R) (2010).
     *
     *
     * If you are calculating the stress with vdW-DF, please also cite:
     *
     *   R. Sabatini, E. Kucukbenli, B. Kolb, T. Thonhauser, and
     *   S. de Gironcoli, J. Phys.: Condens. Matter 24, 424209 (2012).
     *

     Carrying out vdW-DF run using the following parameters:

     Nqs =      20    Nr_points =    1024   r_max =   100.000
     q_mesh =
               0.00001000     0.04494208     0.09755937     0.15916263
               0.23128650     0.31572767     0.41458969     0.53033537
               0.66584808     0.82450364     1.01025438     1.22772762
               1.48234092     1.78043706     2.12944203     2.53805004
               3.01644009     3.57652955     4.23227104     5.00000000

     Gradients computed in reciprocal space

[...]

     Starting wfc are  156 randomized atomic wfcs

     Self-consistent Calculation

[...]

     total energy              =   -3529.58022771 Ry
     Harris-Foulkes estimate   =   -3529.58022659 Ry
     estimated scf accuracy    <       0.00000133 Ry

[...]

     iteration # 38     ecut=    36.75 Ry     beta=0.10
     Davidson diagonalization with overlap
     ethr =  6.61E-10,  avg # of iterations =  2.0

[...]

     negative rho (up, down):  1.487E-01 1.487E-01

[...]

     Adding external electric field

     Computed dipole along edir(3) :
        Dipole                0.0053 Ry au,          0.0134 Debye
        Dipole field          0.0000 Ry au

        Potential amp.       -0.0015 Ry
        Total length         44.7140 bohr

     Magnetic moment per site:
     atom:    1    charge:    9.3346    magn:    0.0017    constr:    0.0000
     atom:    2    charge:    9.3345    magn:    0.0015    constr:    0.0000
     atom:    3    charge:    9.3345    magn:    0.0014    constr:    0.0000
     atom:    4    charge:    1.3577    magn:   -0.0001    constr:    0.0000
     atom:    5    charge:    9.3499    magn:   -0.0002    constr:    0.0000
     atom:    6    charge:    9.3500    magn:   -0.0002    constr:    0.0000
     atom:    7    charge:    9.3501    magn:   -0.0002    constr:    0.0000
     atom:    8    charge:    1.3690    magn:   -0.0000    constr:    0.0000
     atom:    9    charge:    9.3461    magn:   -0.0002    constr:    0.0000
     atom:   10    charge:    9.3461    magn:   -0.0001    constr:    0.0000
     atom:   11    charge:    9.3462    magn:   -0.0001    constr:    0.0000
     atom:   12    charge:    1.3610    magn:   -0.0001    constr:    0.0000

     End of self-consistent calculation

 ------ SPIN UP ------------

[...]

 ------ SPIN DOWN ----------

[...]

          k = 0.0638 0.0000 0.0000 ( 14587 PWs)   bands (ev):

[...]

          k =-0.0956-0.1657 0.0000 ( 14502 PWs)   bands (ev):

  -102.5507-102.5480-102.5451-102.1404-102.1375-102.1348-102.0924-102.0897
  -102.0869 -67.9664 -67.9406 -67.8069 -63.0902 -63.0737 -63.0597 -62.9522
   -62.9436 -62.9323 -62.7755 -62.7652 -62.7530 -62.7241 -62.7159 -62.7071
   -62.6940 -62.6849 -62.6753 -62.4898 -62.4721 -62.4557 -62.4266 -62.4083
   -62.3915 -62.3633 -62.3537 -62.3420 -62.3141 -62.3050 -62.2935 -34.3935
   -34.3691 -34.2186 -34.2170 -34.2045 -34.2004 -34.1854 -34.1706 -34.0525
    -5.3009  -5.0622  -3.7159  -3.3006  -3.0248  -2.9399  -2.8451  -2.6115
    -2.4209  -2.3186  -2.2277  -2.0507  -1.9517  -1.8682  -1.7949  -1.6570
    -1.6326  -1.5423  -1.5348  -1.3627  -1.3074  -1.2354  -1.0998  -0.9432
    -0.9028  -0.8722  -0.8646  -0.8427  -0.7564  -0.7426  -0.7325  -0.7141
    -0.6739  -0.6386  -0.5909  -0.5405  -0.4622  -0.4235  -0.3889  -0.3467
    -0.2994  -0.2747  -0.2089  -0.1983  -0.0605   0.0342   0.2061   0.2849
     0.3866   0.4612   0.5112   0.5721   1.1881   1.2326   1.6683   1.7475
     1.8016   1.8690   1.9323   2.0413   2.1675   2.3666   2.6923   2.7762
     2.9839   3.4839   4.1208   4.7663   5.5671   5.7945   5.9709   6.0893
     6.8915   6.9354   7.1037   7.2191   7.6102   7.6746   7.8394   7.8698
     8.4867   8.8334

     the Fermi energy is     1.2479 ev

!    total energy              =   -3529.58023044 Ry
     Harris-Foulkes estimate   =   -3529.58022817 Ry
     estimated scf accuracy    <       0.00000075 Ry

     The total energy is the sum of the following terms:

     one-electron contribution =  -27766.41172057 Ry
     hartree contribution      =   13886.39142726 Ry
     xc contribution           =    -461.57422248 Ry
     ewald contribution        =   10812.05865037 Ry
     electric field correction =       0.00000009 Ry
     smearing contrib. (-TS)   =      -0.04436512 Ry

     total magnetization       =    -0.01 Bohr mag/cell
     absolute magnetization    =     0.02 Bohr mag/cell

     convergence has been achieved in  38 iterations

 BEEF-vdW xc energy contributions
           1 :   -406.655723991454
           2 :    370.706126654135
           3 :   -309.540433744434
           4 :    239.834213128626
           5 :   -177.341725759122
           6 :    131.332546580557
           7 :   -102.727943843399
           8 :    86.2011897316766
           9 :   -74.5392803622055
          10 :    62.6776730501341
          11 :   -49.4717117001767
          12 :    36.8249439666281
          13 :   -27.3257180591401
          14 :    22.1151425215638
          15 :   -20.2138570350981
          16 :    19.3887453867445
          17 :   -17.6973650094585
          18 :    14.5836354705766
          19 :   -10.9049059367413
          20 :    8.05129537779624
          21 :   -6.88177890930183
          22 :    7.18720475073633
          23 :   -7.94764270017788
          24 :    8.08900261496240
          25 :   -7.17386621288995
          26 :    5.57718177377535
          27 :   -4.10887386620652
          28 :    3.40680892167262
          29 :   -3.53677728342541
          30 :    4.02969110832157
          31 :   -34.4384967898547
          32 :   -24.5414702366238

     Forces acting on atoms (Ry/au):

     negative rho (up, down):  1.487E-01 1.487E-01
     atom    1 type  1   force =    -0.00001009   -0.00061451    0.00928783
     atom    2 type  1   force =    -0.00056179    0.00028425    0.00931160
     atom    3 type  1   force =     0.00055873    0.00029385    0.00933235
     atom    4 type  2   force =    -0.00000369   -0.00001072    0.00827501
     atom    5 type  1   force =     0.00000002   -0.00123996   -0.00812731
     atom    6 type  1   force =    -0.00107261    0.00061887   -0.00812176
     atom    7 type  1   force =     0.00107139    0.00061857   -0.00813804
     atom    8 type  2   force =    -0.00000246   -0.00000400   -0.01186480
     atom    9 type  1   force =     0.00005235    0.00023000   -0.00029380
     atom   10 type  1   force =     0.00024195   -0.00005597   -0.00030196
     atom   11 type  1   force =    -0.00025744   -0.00012562   -0.00033092
     atom   12 type  2   force =    -0.00001638    0.00000524    0.00097180

     Total force =     0.025976     Total SCF correction =     0.001627

     entering subroutine stress ...

     negative rho (up, down):  1.487E-01 1.487E-01
          total   stress  (Ry/bohr**3)                   (kbar)     P=  -70.50
  -0.00053388   0.00000000   0.00000001        -78.54      0.00      0.00
   0.00000000  -0.00053390   0.00000003          0.00    -78.54      0.00
   0.00000001   0.00000003  -0.00036995          0.00      0.00    -54.42

 !ASE

     Writing output data file calc.save

     General routines

     Parallel routines

   This run was terminated on:  12:23: 8  27Dec2018

   JOB DONE.
Job  /afs/slac/g/suncat/bin/suncat-tsmpirun -x LD_LIBRARY_PATH -wdir /scratch/qe110286_VstoA pw.x -in pw.inp

TID   HOST_NAME   COMMAND_LINE            STATUS            TERMINATION_TIME
00000 suncat0163 pw.x -in pw.inp   Done                     12/27/2018 12:23:08
00001 suncat0163 pw.x -in pw.inp   Done                     12/27/2018 12:23:08
00002 suncat0163 pw.x -in pw.inp   Done                     12/27/2018 12:23:08
00003 suncat0163 pw.x -in pw.inp   Done                     12/27/2018 12:23:08
00004 suncat0163 pw.x -in pw.inp   Done                     12/27/2018 12:23:08
00005 suncat0163 pw.x -in pw.inp   Done                     12/27/2018 12:23:08
00006 suncat0163 pw.x -in pw.inp   Done                     12/27/2018 12:23:08
00007 suncat0163 pw.x -in pw.inp   Done                     12/27/2018 12:23:08
00008 suncat0162 pw.x -in pw.inp   Done                     12/27/2018 12:23:08
00009 suncat0162 pw.x -in pw.inp   Done                     12/27/2018 12:23:08
00010 suncat0162 pw.x -in pw.inp   Done                     12/27/2018 12:23:08
00011 suncat0162 pw.x -in pw.inp   Done                     12/27/2018 12:23:08
00012 suncat0162 pw.x -in pw.inp   Done                     12/27/2018 12:23:08
00013 suncat0162 pw.x -in pw.inp   Done                     12/27/2018 12:23:08
00014 suncat0162 pw.x -in pw.inp   Done                     12/27/2018 12:23:08
00015 suncat0162 pw.x -in pw.inp   Done                     12/27/2018 12:23:08
00016 suncat0145 pw.x -in pw.inp   Done                     12/27/2018 12:23:08
00017 suncat0145 pw.x -in pw.inp   Done                     12/27/2018 12:23:08
00018 suncat0145 pw.x -in pw.inp   Done                     12/27/2018 12:23:08
00019 suncat0145 pw.x -in pw.inp   Done                     12/27/2018 12:23:08
00020 suncat0145 pw.x -in pw.inp   Done                     12/27/2018 12:23:08
00021 suncat0145 pw.x -in pw.inp   Done                     12/27/2018 12:23:08
00022 suncat0145 pw.x -in pw.inp   Done                     12/27/2018 12:23:08
00023 suncat0145 pw.x -in pw.inp   Done                     12/27/2018 12:23:08
00024 suncat0144 pw.x -in pw.inp   Done                     12/27/2018 12:23:08
00025 suncat0144 pw.x -in pw.inp   Done                     12/27/2018 12:23:08
00026 suncat0144 pw.x -in pw.inp   Done                     12/27/2018 12:23:08
00027 suncat0144 pw.x -in pw.inp   Done                     12/27/2018 12:23:08
00028 suncat0144 pw.x -in pw.inp   Done                     12/27/2018 12:23:08
00029 suncat0144 pw.x -in pw.inp   Done                     12/27/2018 12:23:08
00030 suncat0144 pw.x -in pw.inp   Done                     12/27/2018 12:23:08
00031 suncat0144 pw.x -in pw.inp   Done                     12/27/2018 12:23:08
00032 suncat0133 pw.x -in pw.inp   Done                     12/27/2018 12:23:08
00033 suncat0133 pw.x -in pw.inp   Done                     12/27/2018 12:23:08
00034 suncat0133 pw.x -in pw.inp   Done                     12/27/2018 12:23:08
00035 suncat0133 pw.x -in pw.inp   Done                     12/27/2018 12:23:08
00036 suncat0133 pw.x -in pw.inp   Done                     12/27/2018 12:23:08
00037 suncat0133 pw.x -in pw.inp   Done                     12/27/2018 12:23:08
00038 suncat0133 pw.x -in pw.inp   Done                     12/27/2018 12:23:08
00039 suncat0133 pw.x -in pw.inp   Done                     12/27/2018 12:23:08
00040 suncat0132 pw.x -in pw.inp   Done                     12/27/2018 12:23:08
00041 suncat0132 pw.x -in pw.inp   Done                     12/27/2018 12:23:08
00042 suncat0132 pw.x -in pw.inp   Done                     12/27/2018 12:23:08
00043 suncat0132 pw.x -in pw.inp   Done                     12/27/2018 12:23:08
00044 suncat0132 pw.x -in pw.inp   Done                     12/27/2018 12:23:08
00045 suncat0132 pw.x -in pw.inp   Done                     12/27/2018 12:23:08
00046 suncat0132 pw.x -in pw.inp   Done                     12/27/2018 12:23:08
00047 suncat0132 pw.x -in pw.inp   Done                     12/27/2018 12:23:08
00048 suncat0131 pw.x -in pw.inp   Done                     12/27/2018 12:23:08
00049 suncat0131 pw.x -in pw.inp   Done                     12/27/2018 12:23:08
00050 suncat0131 pw.x -in pw.inp   Done                     12/27/2018 12:23:08
00051 suncat0131 pw.x -in pw.inp   Done                     12/27/2018 12:23:08
00052 suncat0131 pw.x -in pw.inp   Done                     12/27/2018 12:23:08
00053 suncat0131 pw.x -in pw.inp   Done                     12/27/2018 12:23:08
00054 suncat0131 pw.x -in pw.inp   Done                     12/27/2018 12:23:08
00055 suncat0131 pw.x -in pw.inp   Done                     12/27/2018 12:23:08
00056 suncat0130 pw.x -in pw.inp   Done                     12/27/2018 12:23:08
00057 suncat0130 pw.x -in pw.inp   Done                     12/27/2018 12:23:08
00058 suncat0130 pw.x -in pw.inp   Done                     12/27/2018 12:23:08
00059 suncat0130 pw.x -in pw.inp   Done                     12/27/2018 12:23:08
00060 suncat0130 pw.x -in pw.inp   Done                     12/27/2018 12:23:08
00061 suncat0130 pw.x -in pw.inp   Done                     12/27/2018 12:23:08
00062 suncat0130 pw.x -in pw.inp   Done                     12/27/2018 12:23:08
00063 suncat0130 pw.x -in pw.inp   Done                     12/27/2018 12:23:08