     Program PWSCF v.5.1rc2 (svn rev. 11289) starts on  1Jan2019 at 21:52:54

     Current dimensions of program PWSCF are:
     Max number of different atomic species (ntypx) = 10
     Max number of k-points (npk) =  40000
     Max angular momentum in pseudopotentials (lmaxx) =  3
     Presently stress not available with electric field

     IMPORTANT: XC functional enforced from input :
     Exchange-correlation      = BEEF-VDW ( 1  4 27 13 2)
     Any further DFT definition will be discarded
     Please, verify this is what you really want

     Subspace diagonalization in iterative solution of the eigenvalue problem:
     a serial algorithm will be used

     bravais-lattice index     =            0
     lattice parameter (alat)  =       1.8897  a.u.
     unit-cell volume          =    4664.1647 (a.u.)^3
     number of atoms/cell      =           12
     number of atomic types    =            2
     number of electrons       =       165.00
     number of Kohn-Sham states=          112
     kinetic-energy cutoff     =      36.7493  Ry
     charge density cutoff     =     367.4932  Ry
     convergence threshold     =      1.0E-06
     mixing beta               =       0.1000
     number of iterations used =           10  plain     mixing
     Exchange-correlation      = BEEF-VDW ( 1  4 27 13 2)
     nstep                     =           50

     celldm(1)=   1.889726  celldm(2)=   0.000000  celldm(3)=   0.000000
     celldm(4)=   0.000000  celldm(5)=   0.000000  celldm(6)=   0.000000

     crystal axes: (cart. coord. in units of alat)
               a(1) = (   5.690467   0.000000   0.000000 )
               a(2) = (  -2.845234   4.928089   0.000000 )
               a(3) = (   0.000000   0.000000  24.646247 )

     reciprocal axes: (cart. coord. in units 2 pi/alat)
               b(1) = (  0.175732  0.101459  0.000000 )
               b(2) = (  0.000000  0.202918  0.000000 )
               b(3) = (  0.000000  0.000000  0.040574 )

     PseudoPot. # 1 for Ti read from file:
     /afs/slac.stanford.edu/u/if/mamunm/psp/gbrv1.5pbe/Ti.UPF
     MD5 check sum: 88a00a6731bd790ddea75d31a80cb452
     Pseudo is Ultrasoft + core correction, Zval = 12.0
     Generated by new atomic code, or converted to UPF format
     Using radial grid of  851 points,  6 beta functions with:
                l(1) =   0
                l(2) =   0
                l(3) =   1
                l(4) =   1
                l(5) =   2
                l(6) =   2
     Q(r) pseudized with  6 coefficients,  rinner =    1.000   1.000   1.000
                                                       1.000   1.000

     PseudoPot. # 2 for Ga read from file:
     /afs/slac.stanford.edu/u/if/mamunm/psp/gbrv1.5pbe/Ga.UPF
     MD5 check sum: ccd671392a58a050fbb373893b4fcd66
     Pseudo is Ultrasoft + core correction, Zval = 19.0
     Generated by new atomic code, or converted to UPF format
     Using radial grid of  871 points,  6 beta functions with:
                l(1) =   0
                l(2) =   0
                l(3) =   1
                l(4) =   1
                l(5) =   2
                l(6) =   2
     Q(r) pseudized with  8 coefficients,  rinner =    1.250   1.250   1.250
                                                       1.250   1.250

     vdW kernel table read from file vdW_kernel_table
     MD5 check sum: 095c7af220d748ca6e76c0b4c6cfb241

     atomic species   valence    mass     pseudopotential
        Ti1           12.00    47.86700     Ti( 1.00)
        Ga1           19.00    69.72300     Ga( 1.00)

     No symmetry found

   Cartesian axes

     site n.     atom                  positions (alat units)
         1           Ti1 tau(   1) = (   0.0000000   0.0000000  10.0000000  )
         2           Ti1 tau(   2) = (  -1.4226168   2.4640446  10.0000000  )
         3           Ti1 tau(   3) = (   1.4226168   2.4640446  10.0000000  )
         4           Ga1 tau(   4) = (   2.8452336   0.0000000  10.0000000  )
         5           Ti1 tau(   5) = (   2.8452336   1.6426964  12.3231235  )
         6           Ti1 tau(   6) = (   1.4226168   4.1067410  12.3231235  )
         7           Ti1 tau(   7) = (  -1.4226168   4.1067410  12.3231235  )
         8           Ga1 tau(   8) = (   0.0000000   1.6426964  12.3231235  )
         9           Ti1 tau(   9) = (  -0.0000000   3.2853928  14.6462470  )
        10           Ti1 tau(  10) = (   1.4226168   0.8213482  14.6462470  )
        11           Ti1 tau(  11) = (   4.2678504   0.8213482  14.6462470  )
        12           Ga1 tau(  12) = (   2.8452336   3.2853928  14.6462470  )

     number of k points=    20  Fermi-Dirac smearing, width (Ry)=  0.0110
                       cart. coord. in units 2pi/alat
        k(    1) = (   0.0000000   0.0000000   0.0000000), wk =   0.0555556
        k(    2) = (   0.0000000   0.0338197   0.0000000), wk =   0.1111111
        k(    3) = (   0.0000000   0.0676395   0.0000000), wk =   0.1111111
        k(    4) = (   0.0000000  -0.1014592   0.0000000), wk =   0.0555556
        k(    5) = (   0.0292887   0.0169099   0.0000000), wk =   0.1111111
        k(    6) = (   0.0292887   0.0507296   0.0000000), wk =   0.1111111
        k(    7) = (   0.0292887   0.0845493   0.0000000), wk =   0.1111111
        k(    8) = (   0.0292887  -0.0845493   0.0000000), wk =   0.1111111
        k(    9) = (   0.0292887  -0.0507296   0.0000000), wk =   0.1111111
        k(   10) = (   0.0292887  -0.0169099   0.0000000), wk =   0.1111111
        k(   11) = (   0.0585775   0.0338197   0.0000000), wk =   0.1111111
        k(   12) = (   0.0585775   0.0676395   0.0000000), wk =   0.1111111
        k(   13) = (   0.0585775   0.1014592   0.0000000), wk =   0.1111111
        k(   14) = (   0.0585775  -0.0676395   0.0000000), wk =   0.1111111
        k(   15) = (   0.0585775  -0.0338197   0.0000000), wk =   0.1111111
        k(   16) = (   0.0585775   0.0000000   0.0000000), wk =   0.1111111
        k(   17) = (  -0.0878662  -0.0507296   0.0000000), wk =   0.0555556
        k(   18) = (  -0.0878662  -0.0169099   0.0000000), wk =   0.1111111
        k(   19) = (  -0.0878662   0.0169099   0.0000000), wk =   0.1111111
        k(   20) = (  -0.0878662  -0.1521888   0.0000000), wk =   0.0555556

     Largest allocated arrays     est. size (Mb)     dimensions
     Largest temporary arrays     est. size (Mb)     dimensions

     Check: negative/imaginary core charge=   -0.000005    0.000000

     Initial potential from superposition of free atoms
     Check: negative starting charge=   -0.010294

     starting charge  152.99960, renormalised to  165.00000

     negative rho (up, down):  1.110E-02 0.000E+00

     *
     * You are using vdW-DF for exchange-correlation in this calculation.
     * Please cite the following three references that made this development
     * possible:
     *
     *   M. Dion, H. Rydberg, E. Schroder, D. C. Langreth, and
     *   B. I. Lundqvist, Phys. Rev. Lett. 92, 246401 (2004).
     *
     *   T. Thonhauser, V. R. Cooper, S. Li, A. Puzder, P. Hyldgaard, and
     *   D. C. Langreth, Phys. Rev. B 76, 125112 (2007).
     *
     *   G. Roman-Perez and J. M. Soler, Phys. Rev. Lett. 103, 096102 (2009).
     *
     *
     * If you are using vdW-DF2, please also cite:
     *
     *   K. Lee, E. D. Murray, L. Kong, B. I. Lundqvist, and
     *   D. C. Langreth, Phys. Rev. B 82, 081101(R) (2010).
     *
     *
     * If you are calculating the stress with vdW-DF, please also cite:
     *
     *   R. Sabatini, E. Kucukbenli, B. Kolb, T. Thonhauser, and
     *   S. de Gironcoli, J. Phys.: Condens. Matter 24, 424209 (2012).
     *

     Carrying out vdW-DF run using the following parameters:

     Nqs =      20    Nr_points =    1024   r_max =   100.000
     q_mesh =
               0.00001000     0.04494208     0.09755937     0.15916263
               0.23128650     0.31572767     0.41458969     0.53033537
               0.66584808     0.82450364     1.01025438     1.22772762
               1.48234092     1.78043706     2.12944203     2.53805004
               3.01644009     3.57652955     4.23227104     5.00000000

     Gradients computed in reciprocal space

     Adding external electric field

     Computed dipole along edir(3) :
        Dipole                0.0000 Ry au,          0.0000 Debye
        Dipole field          0.0000 Ry au

        Potential amp.       -0.0000 Ry
        Total length         45.4103 bohr

     Starting wfc are  126 randomized atomic wfcs

     Self-consistent Calculation

     iteration #  1     ecut=    36.75 Ry     beta=0.10
     Davidson diagonalization with overlap
     ethr =  1.00E-02,  avg # of iterations =  8.5

[...]

     total energy              =   -2293.67384658 Ry
     Harris-Foulkes estimate   =   -2362.90749034 Ry
     estimated scf accuracy    <     376.50019761 Ry

[...]

     End of self-consistent calculation

          k = 0.0000 0.0000 0.0000 ( 17603 PWs)   bands (ev):

   -93.0884 -93.0883 -93.0826 -93.0826 -93.0799 -93.0655 -93.0655 -93.0653
   -93.0653 -56.1734 -56.1689 -56.0940 -56.0939 -56.0930 -56.0929 -55.8787
   -55.8051 -55.8051 -32.5956 -32.5918 -32.5792 -32.5078 -32.5077 -32.4961
   -32.4961 -32.4840 -32.4760 -32.4760 -32.4264 -32.4264 -32.3947 -32.2275
   -32.2131 -32.2041 -32.2041 -32.0409 -32.0408 -32.0404 -32.0404 -32.0102
   -32.0102 -31.9954 -31.9523 -31.7903 -31.7902 -13.4538 -13.4538 -13.4501
   -13.4431 -13.4431 -13.4336 -13.4297 -13.4241 -13.4240 -13.4217 -13.4217
   -13.4105 -13.4105 -13.4049 -13.4049  -7.0322  -5.7807  -5.2110  -2.0015
    -1.9381  -1.6849  -0.9643  -0.9643  -0.8438  -0.8438  -0.5825  -0.4219
    -0.4219  -0.4057  -0.0547  -0.0547   0.2144   0.2144   0.4611   0.5263
     0.6837   0.9794   0.9794   1.0487   1.0487   1.3079   1.3079   1.3814
     1.4344   1.4344   1.6643   1.8653   2.3009   2.7004   2.7004   2.7527
     2.7941   2.8052   2.8052   2.8618   2.8619   3.0922   3.0922   3.2126
     3.2126   3.5034   3.6385   3.6385   3.7657   3.7657   3.8694   3.8695

[...]

          k =-0.0879-0.0507 0.0000 ( 17508 PWs)   bands (ev):

[...]

     the Fermi energy is     0.8905 ev

!    total energy              =   -2328.86125568 Ry
     Harris-Foulkes estimate   =   -2328.86412195 Ry
     estimated scf accuracy    <       0.00000069 Ry

     The total energy is the sum of the following terms:

     one-electron contribution =  -15452.72275247 Ry
     hartree contribution      =    7719.70923152 Ry
     xc contribution           =    -318.18790577 Ry
     ewald contribution        =    5722.45286753 Ry
     electric field correction =       0.00000001 Ry
     smearing contrib. (-TS)   =      -0.11269649 Ry

     convergence has been achieved in  21 iterations

 BEEF-vdW xc energy contributions
           1 :   -278.523098080216
           2 :    251.093740615161
           3 :   -205.557566903820
           4 :    155.712851368356
           5 :   -113.327575906101
           6 :    83.6465600470966
           7 :   -65.0116513071746
           8 :    51.9714791874781
           9 :   -39.4622564091289
          10 :    25.5293185758216
          11 :   -11.4527266374213
          12 :  -0.157579788743135
          13 :    7.64925847608509
[...]
     /afs/slac.stanford.edu/u/if/mamunm/psp/gbrv1.5pbe/Ti.UPF
     MD5 check sum: 88a00a6731bd790ddea75d31a80cb452
     Pseudo is Ultrasoft + core correction, Zval = 12.0
     Generated by new atomic code, or converted to UPF format
     Using radial grid of  851 points,  6 beta functions with:
                l(1) =   0
                l(2) =   0
                l(3) =   1
                l(4) =   1
                l(5) =   2
                l(6) =   2
     Q(r) pseudized with  6 coefficients,  rinner =    1.000   1.000   1.000
                                                       1.000   1.000

     PseudoPot. # 2 for Ga read from file:
     /afs/slac.stanford.edu/u/if/mamunm/psp/gbrv1.5pbe/Ga.UPF
     MD5 check sum: ccd671392a58a050fbb373893b4fcd66
     Pseudo is Ultrasoft + core correction, Zval = 19.0
     Generated by new atomic code, or converted to UPF format
     Using radial grid of  871 points,  6 beta functions with:
                l(1) =   0
                l(2) =   0
                l(3) =   1
                l(4) =   1
                l(5) =   2
                l(6) =   2
     Q(r) pseudized with  8 coefficients,  rinner =    1.250   1.250   1.250
                                                       1.250   1.250

     vdW kernel table read from file vdW_kernel_table
     MD5 check sum: 095c7af220d748ca6e76c0b4c6cfb241

     atomic species   valence    mass     pseudopotential
        Ti1           12.00    47.86700     Ti( 1.00)
        Ga1           19.00    69.72300     Ga( 1.00)

     No symmetry found

   Cartesian axes

     site n.     atom                  positions (alat units)
         1           Ti1 tau(   1) = (   0.0000000   0.0000000  10.0000000  )
         2           Ti1 tau(   2) = (  -1.4226168   2.4640446  10.0000000  )
         3           Ti1 tau(   3) = (   1.4226168   2.4640446  10.0000000  )
         4           Ga1 tau(   4) = (   2.8452336   0.0000000  10.0000000  )
         5           Ti1 tau(   5) = (   2.8452336   1.6426964  12.3231235  )
         6           Ti1 tau(   6) = (   1.4226168   4.1067410  12.3231235  )
         7           Ti1 tau(   7) = (  -1.4226168   4.1067410  12.3231235  )
         8           Ga1 tau(   8) = (   0.0000000   1.6426964  12.3231235  )
         9           Ti1 tau(   9) = (   0.0000004   3.2547630  14.5808193  )
        10           Ti1 tau(  10) = (   1.3960778   0.8366126  14.5808434  )
        11           Ti1 tau(  11) = (   4.2943633   0.8365983  14.5808067  )
        12           Ga1 tau(  12) = (   2.8452143   3.2854813  14.7310087  )

     number of k points=    20  Fermi-Dirac smearing, width (Ry)=  0.0110
                       cart. coord. in units 2pi/alat
        k(    1) = (   0.0000000   0.0000000   0.0000000), wk =   0.0555556
        k(    2) = (   0.0000000   0.0338197   0.0000000), wk =   0.1111111
        k(    3) = (   0.0000000   0.0676395   0.0000000), wk =   0.1111111
        k(    4) = (   0.0000000  -0.1014592   0.0000000), wk =   0.0555556
        k(    5) = (   0.0292887   0.0169099   0.0000000), wk =   0.1111111
        k(    6) = (   0.0292887   0.0507296   0.0000000), wk =   0.1111111
        k(    7) = (   0.0292887   0.0845493   0.0000000), wk =   0.1111111
        k(    8) = (   0.0292887  -0.0845493   0.0000000), wk =   0.1111111
        k(    9) = (   0.0292887  -0.0507296   0.0000000), wk =   0.1111111
        k(   10) = (   0.0292887  -0.0169099   0.0000000), wk =   0.1111111
        k(   11) = (   0.0585775   0.0338197   0.0000000), wk =   0.1111111
        k(   12) = (   0.0585775   0.0676395   0.0000000), wk =   0.1111111
        k(   13) = (   0.0585775   0.1014592   0.0000000), wk =   0.1111111
        k(   14) = (   0.0585775  -0.0676395   0.0000000), wk =   0.1111111
        k(   15) = (   0.0585775  -0.0338197   0.0000000), wk =   0.1111111
        k(   16) = (   0.0585775   0.0000000   0.0000000), wk =   0.1111111
        k(   17) = (  -0.0878662  -0.0507296   0.0000000), wk =   0.0555556
        k(   18) = (  -0.0878662  -0.0169099   0.0000000), wk =   0.1111111
        k(   19) = (  -0.0878662   0.0169099   0.0000000), wk =   0.1111111
        k(   20) = (  -0.0878662  -0.1521888   0.0000000), wk =   0.0555556

     Largest allocated arrays     est. size (Mb)     dimensions
     Largest temporary arrays     est. size (Mb)     dimensions

     Check: negative/imaginary core charge=   -0.000005    0.000000

     Initial potential from superposition of free atoms
     Check: negative starting charge=   -0.011752

     starting charge  152.99960, renormalised to  165.00000

[...]

     *
     * You are using vdW-DF for exchange-correlation in this calculation.
     * Please cite the following three references that made this development
     * possible:
     *
     *   M. Dion, H. Rydberg, E. Schroder, D. C. Langreth, and
     *   B. I. Lundqvist, Phys. Rev. Lett. 92, 246401 (2004).
     *
     *   T. Thonhauser, V. R. Cooper, S. Li, A. Puzder, P. Hyldgaard, and
     *   D. C. Langreth, Phys. Rev. B 76, 125112 (2007).
     *
     *   G. Roman-Perez and J. M. Soler, Phys. Rev. Lett. 103, 096102 (2009).
     *
     *
     * If you are using vdW-DF2, please also cite:
     *
     *   K. Lee, E. D. Murray, L. Kong, B. I. Lundqvist, and
     *   D. C. Langreth, Phys. Rev. B 82, 081101(R) (2010).
     *
     *
     * If you are calculating the stress with vdW-DF, please also cite:
     *
     *   R. Sabatini, E. Kucukbenli, B. Kolb, T. Thonhauser, and
     *   S. de Gironcoli, J. Phys.: Condens. Matter 24, 424209 (2012).
     *

     Carrying out vdW-DF run using the following parameters:

     Nqs =      20    Nr_points =    1024   r_max =   100.000
     q_mesh =
               0.00001000     0.04494208     0.09755937     0.15916263
               0.23128650     0.31572767     0.41458969     0.53033537
               0.66584808     0.82450364     1.01025438     1.22772762
               1.48234092     1.78043706     2.12944203     2.53805004
               3.01644009     3.57652955     4.23227104     5.00000000

     Gradients computed in reciprocal space

[...]

     Starting wfc are  126 randomized atomic wfcs

     Self-consistent Calculation

[...]

     total energy              =   -2328.87405522 Ry
     Harris-Foulkes estimate   =   -2328.87405472 Ry
     estimated scf accuracy    <       0.00000107 Ry

     iteration # 23     ecut=    36.75 Ry     beta=0.10
     Davidson diagonalization with overlap
     ethr =  6.51E-10,  avg # of iterations =  2.4

[...]

     negative rho (up, down):  6.019E-03 0.000E+00

     Adding external electric field

     Computed dipole along edir(3) :
        Dipole               -0.0208 Ry au,         -0.0527 Debye
        Dipole field         -0.0001 Ry au

        Potential amp.        0.0051 Ry
        Total length         45.4103 bohr

     End of self-consistent calculation

[...]

          k = 0.0586 0.0000 0.0000 ( 17569 PWs)   bands (ev):

[...]

          k =-0.0879-0.1522 0.0000 ( 17508 PWs)   bands (ev):

   -93.1184 -93.0958 -93.0958 -93.0921 -93.0921 -93.0889 -93.0835 -93.0576
   -93.0575 -56.1742 -56.1486 -56.1226 -56.1152 -56.0857 -56.0598 -55.8557
   -55.8320 -55.8074 -32.5580 -32.5458 -32.5396 -32.5063 -32.4878 -32.4685
   -32.4501 -32.4411 -32.4005 -32.3860 -32.3494 -32.3472 -32.3426 -32.3006
   -32.2933 -32.2696 -32.2390 -32.1305 -32.1157 -32.0979 -32.0790 -32.0772
   -32.0211 -31.9841 -31.9419 -31.9218 -31.8092 -13.4649 -13.4585 -13.4577
   -13.4565 -13.4525 -13.4475 -13.4462 -13.4452 -13.4397 -13.4318 -13.4186
   -13.4056 -13.4032 -13.4002 -13.3963  -6.0295  -5.5515  -5.0808  -3.0272
    -2.1685  -2.0966  -1.9751  -1.0317  -0.8474  -0.7417  -0.6662  -0.4725
    -0.4031  -0.3670   0.1395   0.2151   0.2765   0.4321   0.4998   0.6785
     0.7033   0.7604   0.8231   0.8768   0.9666   1.0153   1.0909   1.4606
     1.4687   1.5446   1.6104   1.7277   1.8293   2.1557   2.3846   2.5501
     2.6067   2.6141   2.6605   2.8002   2.8171   2.9707   2.9895   3.0254
     3.0490   3.0661   3.1282   3.2741   3.3912   3.7161   3.7941   3.9978

     the Fermi energy is     0.8627 ev

!    total energy              =   -2328.87405777 Ry
     Harris-Foulkes estimate   =   -2328.87405530 Ry
     estimated scf accuracy    <       0.00000034 Ry

     The total energy is the sum of the following terms:

     one-electron contribution =  -15480.74764007 Ry
     hartree contribution      =    7733.70066591 Ry
     xc contribution           =    -318.24862274 Ry
     ewald contribution        =    5736.53407495 Ry
     electric field correction =       0.00000116 Ry
     smearing contrib. (-TS)   =      -0.11253697 Ry

     convergence has been achieved in  23 iterations

 BEEF-vdW xc energy contributions
           1 :   -278.860427375211
           2 :    251.444466892048
           3 :   -205.918527924065
           4 :    156.064086904173
           5 :   -113.649694586863
           6 :    83.9400920527482
           7 :   -65.2998069402157
           8 :    52.2825388484439
           9 :   -39.8070166955506
          10 :    25.8933428067205
          11 :   -11.8079382691054
          12 :   0.167914027747145
          13 :    7.35345232349164
          14 :   -11.1726209248142
          15 :    13.2426993856110
          16 :   -15.4811979081867
          17 :    18.4482221411379
          18 :   -21.1973963915436
          19 :    22.2464295807304
          20 :   -20.8219561080522
          21 :    17.4414274263231
          22 :   -13.5000431893464
          23 :    10.2754929302406
          24 :   -8.12780417629438
          25 :    6.43480320302587
          26 :   -4.23026513628071
          27 :    1.01711610719826
          28 :    2.83965023408001
          29 :   -6.38340586141561
          30 :    8.73975066179258
          31 :   -25.2134368976206
          32 :   -17.7060841819206

     Forces acting on atoms (Ry/au):

     negative rho (up, down):  6.019E-03 0.000E+00
     atom    1 type  1   force =    -0.00000071    0.00761970    0.00753864
     atom    2 type  1   force =     0.00660298   -0.00381627    0.00753425
     atom    3 type  1   force =    -0.00660337   -0.00381565    0.00753655
     atom    4 type  2   force =     0.00001804   -0.00001578   -0.01163794
     atom    5 type  1   force =    -0.00000018    0.00369671   -0.00071945
     atom    6 type  1   force =     0.00320293   -0.00185675   -0.00072670
     atom    7 type  1   force =    -0.00320153   -0.00185567   -0.00072137
     atom    8 type  2   force =    -0.00001559    0.00005957   -0.01114110
     atom    9 type  1   force =    -0.00000209   -0.00062060    0.00077494
     atom   10 type  1   force =    -0.00053043    0.00031591    0.00076382
     atom   11 type  1   force =     0.00053128    0.00031864    0.00077357
     atom   12 type  2   force =    -0.00000132   -0.00002981    0.00002478

     Total force =     0.025493     Total SCF correction =     0.002264

     entering subroutine stress ...

     negative rho (up, down):  6.019E-03 0.000E+00
          total   stress  (Ry/bohr**3)                   (kbar)     P=   -6.67
  -0.00006468   0.00000000   0.00000000         -9.52      0.00      0.00
   0.00000000  -0.00006467  -0.00000000          0.00     -9.51     -0.00
   0.00000000  -0.00000000  -0.00000659          0.00     -0.00     -0.97

 !ASE

     Writing output data file calc.save

     General routines

     Parallel routines

   This run was terminated on:  23:34:52   1Jan2019

   JOB DONE.
Job  /afs/slac/g/suncat/bin/suncat-tsmpirun -x LD_LIBRARY_PATH -wdir /scratch/qe649194_6QEuZ pw.x -in pw.inp

TID   HOST_NAME   COMMAND_LINE            STATUS            TERMINATION_TIME
00000 suncat0031 pw.x -in pw.inp   Done                     01/01/2019 23:34:52
00001 suncat0031 pw.x -in pw.inp   Done                     01/01/2019 23:34:52
00002 suncat0031 pw.x -in pw.inp   Done                     01/01/2019 23:34:52
00003 suncat0031 pw.x -in pw.inp   Done                     01/01/2019 23:34:52
00004 suncat0031 pw.x -in pw.inp   Done                     01/01/2019 23:34:52
00005 suncat0031 pw.x -in pw.inp   Done                     01/01/2019 23:34:52
00006 suncat0031 pw.x -in pw.inp   Done                     01/01/2019 23:34:52
00007 suncat0031 pw.x -in pw.inp   Done                     01/01/2019 23:34:52
00008 suncat0030 pw.x -in pw.inp   Done                     01/01/2019 23:34:52
00009 suncat0030 pw.x -in pw.inp   Done                     01/01/2019 23:34:52
00010 suncat0030 pw.x -in pw.inp   Done                     01/01/2019 23:34:52
00011 suncat0030 pw.x -in pw.inp   Done                     01/01/2019 23:34:52
00012 suncat0030 pw.x -in pw.inp   Done                     01/01/2019 23:34:52
00013 suncat0030 pw.x -in pw.inp   Done                     01/01/2019 23:34:52
00014 suncat0030 pw.x -in pw.inp   Done                     01/01/2019 23:34:52
00015 suncat0030 pw.x -in pw.inp   Done                     01/01/2019 23:34:52
00016 suncat0192 pw.x -in pw.inp   Done                     01/01/2019 23:34:52
00017 suncat0192 pw.x -in pw.inp   Done                     01/01/2019 23:34:52
00018 suncat0192 pw.x -in pw.inp   Done                     01/01/2019 23:34:52
00019 suncat0192 pw.x -in pw.inp   Done                     01/01/2019 23:34:52
00020 suncat0192 pw.x -in pw.inp   Done                     01/01/2019 23:34:52
00021 suncat0192 pw.x -in pw.inp   Done                     01/01/2019 23:34:52
00022 suncat0192 pw.x -in pw.inp   Done                     01/01/2019 23:34:52
00023 suncat0192 pw.x -in pw.inp   Done                     01/01/2019 23:34:52
00024 suncat0185 pw.x -in pw.inp   Done                     01/01/2019 23:34:52
00025 suncat0185 pw.x -in pw.inp   Done                     01/01/2019 23:34:52
00026 suncat0185 pw.x -in pw.inp   Done                     01/01/2019 23:34:52
00027 suncat0185 pw.x -in pw.inp   Done                     01/01/2019 23:34:52
00028 suncat0185 pw.x -in pw.inp   Done                     01/01/2019 23:34:52
00029 suncat0185 pw.x -in pw.inp   Done                     01/01/2019 23:34:52
00030 suncat0185 pw.x -in pw.inp   Done                     01/01/2019 23:34:52
00031 suncat0185 pw.x -in pw.inp   Done                     01/01/2019 23:34:52
00032 suncat0184 pw.x -in pw.inp   Done                     01/01/2019 23:34:52
00033 suncat0184 pw.x -in pw.inp   Done                     01/01/2019 23:34:52
00034 suncat0184 pw.x -in pw.inp   Done                     01/01/2019 23:34:52
00035 suncat0184 pw.x -in pw.inp   Done                     01/01/2019 23:34:52
00036 suncat0184 pw.x -in pw.inp   Done                     01/01/2019 23:34:52
00037 suncat0184 pw.x -in pw.inp   Done                     01/01/2019 23:34:52
00038 suncat0184 pw.x -in pw.inp   Done                     01/01/2019 23:34:52
00039 suncat0184 pw.x -in pw.inp   Done                     01/01/2019 23:34:52
00040 suncat0183 pw.x -in pw.inp   Done                     01/01/2019 23:34:52
00041 suncat0183 pw.x -in pw.inp   Done                     01/01/2019 23:34:52
00042 suncat0183 pw.x -in pw.inp   Done                     01/01/2019 23:34:52
00043 suncat0183 pw.x -in pw.inp   Done                     01/01/2019 23:34:52
00044 suncat0183 pw.x -in pw.inp   Done                     01/01/2019 23:34:52
00045 suncat0183 pw.x -in pw.inp   Done                     01/01/2019 23:34:52
00046 suncat0183 pw.x -in pw.inp   Done                     01/01/2019 23:34:52
00047 suncat0183 pw.x -in pw.inp   Done                     01/01/2019 23:34:52
00048 suncat0172 pw.x -in pw.inp   Done                     01/01/2019 23:34:52
00049 suncat0172 pw.x -in pw.inp   Done                     01/01/2019 23:34:52
00050 suncat0172 pw.x -in pw.inp   Done                     01/01/2019 23:34:52
00051 suncat0172 pw.x -in pw.inp   Done                     01/01/2019 23:34:52
00052 suncat0172 pw.x -in pw.inp   Done                     01/01/2019 23:34:52
00053 suncat0172 pw.x -in pw.inp   Done                     01/01/2019 23:34:52
00054 suncat0172 pw.x -in pw.inp   Done                     01/01/2019 23:34:52
00055 suncat0172 pw.x -in pw.inp   Done                     01/01/2019 23:34:52
00056 suncat0171 pw.x -in pw.inp   Done                     01/01/2019 23:34:52
00057 suncat0171 pw.x -in pw.inp   Done                     01/01/2019 23:34:52
00058 suncat0171 pw.x -in pw.inp   Done                     01/01/2019 23:34:52
00059 suncat0171 pw.x -in pw.inp   Done                     01/01/2019 23:34:52
00060 suncat0171 pw.x -in pw.inp   Done                     01/01/2019 23:34:52
00061 suncat0171 pw.x -in pw.inp   Done                     01/01/2019 23:34:52
00062 suncat0171 pw.x -in pw.inp   Done                     01/01/2019 23:34:52
00063 suncat0171 pw.x -in pw.inp   Done                     01/01/2019 23:34:52