     Program PWSCF v.5.1rc2 (svn rev. 11289) starts on 26Dec2018 at  0:26:38

     Current dimensions of program PWSCF are:
     Max number of different atomic species (ntypx) = 10
     Max number of k-points (npk) =  40000
     Max angular momentum in pseudopotentials (lmaxx) =  3
     Presently stress not available with electric field

     IMPORTANT: XC functional enforced from input :
     Exchange-correlation      = BEEF-VDW ( 1  4 27 13 2)
     Any further DFT definition will be discarded
     Please, verify this is what you really want

     Subspace diagonalization in iterative solution of the eigenvalue problem:
     a serial algorithm will be used

     Generating pointlists ...
     new r_m :   0.4125 (alat units)  0.7795 (a.u.) for type    1
     new r_m :   0.4125 (alat units)  0.7795 (a.u.) for type    2

     bravais-lattice index     =            0
     lattice parameter (alat)  =       1.8897  a.u.
     unit-cell volume          =    4638.0263 (a.u.)^3
     number of atoms/cell      =           12
     number of atomic types    =            2
     number of electrons       =       216.00
     number of Kohn-Sham states=          138
     kinetic-energy cutoff     =      36.7493  Ry
     charge density cutoff     =     367.4932  Ry
     convergence threshold     =      1.0E-06
     mixing beta               =       0.1000
     number of iterations used =           10  plain     mixing
     Exchange-correlation      = BEEF-VDW ( 1  4 27 13 2)
     nstep                     =           50

     celldm(1)=   1.889726  celldm(2)=   0.000000  celldm(3)=   0.000000
     celldm(4)=   0.000000  celldm(5)=   0.000000  celldm(6)=   0.000000

     crystal axes: (cart. coord. in units of alat)
               a(1) = (   5.675872   0.000000   0.000000 )
               a(2) = (  -2.837936   4.915450   0.000000 )
               a(3) = (   0.000000   0.000000  24.634330 )

     reciprocal axes: (cart. coord. in units 2 pi/alat)
               b(1) = (  0.176184  0.101720  0.000000 )
               b(2) = (  0.000000  0.203440  0.000000 )
               b(3) = (  0.000000  0.000000  0.040594 )

     PseudoPot. # 1 for Ga read from file:
     /afs/slac.stanford.edu/u/if/mamunm/psp/gbrv1.5pbe/Ga.UPF
     MD5 check sum: ccd671392a58a050fbb373893b4fcd66
     Pseudo is Ultrasoft + core correction, Zval = 19.0
     Generated by new atomic code, or converted to UPF format
     Using radial grid of  871 points,  6 beta functions with:
                l(1) =   0
                l(2) =   0
                l(3) =   1
                l(4) =   1
                l(5) =   2
                l(6) =   2
     Q(r) pseudized with  8 coefficients,  rinner =    1.250   1.250   1.250
                                                       1.250   1.250

     PseudoPot. # 2 for Mn read from file:
     /afs/slac.stanford.edu/u/if/mamunm/psp/gbrv1.5pbe/Mn.UPF
     MD5 check sum: 82ef2b46521d7a7d9e736dc3972e4928
     Pseudo is Ultrasoft + core correction, Zval = 15.0
     Generated by new atomic code, or converted to UPF format
     Using radial grid of  859 points,  6 beta functions with:
                l(1) =   0
                l(2) =   0
                l(3) =   1
                l(4) =   1
                l(5) =   2
                l(6) =   2
     Q(r) pseudized with  8 coefficients,  rinner =    0.950   0.950   0.950
                                                       0.950   0.950

     vdW kernel table read from file vdW_kernel_table
     MD5 check sum: 095c7af220d748ca6e76c0b4c6cfb241

     atomic species   valence    mass     pseudopotential
        Ga1           19.00    69.72300     Ga( 1.00)
        Mn1           15.00    54.93804     Mn( 1.00)

     Starting magnetic structure
     atomic species   magnetization
        Ga1          0.105
        Mn1          0.133

     No symmetry found

   Cartesian axes

     site n.     atom                  positions (alat units)
         1           Ga1 tau(   1) = (   0.0000000   0.0000000  10.0000000  )
         2           Ga1 tau(   2) = (  -1.4189680   2.4577248  10.0000000  )
         3           Ga1 tau(   3) = (   1.4189680   2.4577248  10.0000000  )
         4           Mn1 tau(   4) = (   2.8379361   0.0000000  10.0000000  )
         5           Ga1 tau(   5) = (   2.8379361   1.6384832  12.3171651  )
         6           Ga1 tau(   6) = (   1.4189680   4.0962079  12.3171651  )
         7           Ga1 tau(   7) = (  -1.4189680   4.0962079  12.3171651  )
         8           Mn1 tau(   8) = (   0.0000000   1.6384832  12.3171651  )
         9           Ga1 tau(   9) = (  -0.0000000   3.2769663  14.6343302  )
        10           Ga1 tau(  10) = (   1.4189680   0.8192416  14.6343302  )
        11           Ga1 tau(  11) = (   4.2569041   0.8192416  14.6343302  )
        12           Mn1 tau(  12) = (   2.8379361   3.2769663  14.6343302  )

     number of k points=    40  Fermi-Dirac smearing, width (Ry)=  0.0110
                       cart. coord. in units 2pi/alat
        k(    1) = (   0.0000000   0.0000000   0.0000000), wk =   0.0277778
        k(    2) = (   0.0000000   0.0339067   0.0000000), wk =   0.0555556
        k(    3) = (   0.0000000   0.0678134   0.0000000), wk =   0.0555556
        k(    4) = (   0.0000000  -0.1017201   0.0000000), wk =   0.0277778
        k(    5) = (   0.0293641   0.0169533   0.0000000), wk =   0.0555556
        k(    6) = (   0.0293641   0.0508600   0.0000000), wk =   0.0555556
        k(    7) = (   0.0293641   0.0847667   0.0000000), wk =   0.0555556
        k(    8) = (   0.0293641  -0.0847667   0.0000000), wk =   0.0555556
        k(    9) = (   0.0293641  -0.0508600   0.0000000), wk =   0.0555556
        k(   10) = (   0.0293641  -0.0169533   0.0000000), wk =   0.0555556
        k(   11) = (   0.0587281   0.0339067   0.0000000), wk =   0.0555556
        k(   12) = (   0.0587281   0.0678134   0.0000000), wk =   0.0555556
        k(   13) = (   0.0587281   0.1017201   0.0000000), wk =   0.0555556
        k(   14) = (   0.0587281  -0.0678134   0.0000000), wk =   0.0555556
        k(   15) = (   0.0587281  -0.0339067   0.0000000), wk =   0.0555556
        k(   16) = (   0.0587281   0.0000000   0.0000000), wk =   0.0555556
        k(   17) = (  -0.0880922  -0.0508600   0.0000000), wk =   0.0277778
        k(   18) = (  -0.0880922  -0.0169533   0.0000000), wk =   0.0555556
        k(   19) = (  -0.0880922   0.0169533   0.0000000), wk =   0.0555556
        k(   20) = (  -0.0880922  -0.1525801   0.0000000), wk =   0.0277778
        k(   21) = (   0.0000000   0.0000000   0.0000000), wk =   0.0277778
        k(   22) = (   0.0000000   0.0339067   0.0000000), wk =   0.0555556
        k(   23) = (   0.0000000   0.0678134   0.0000000), wk =   0.0555556
        k(   24) = (   0.0000000  -0.1017201   0.0000000), wk =   0.0277778
        k(   25) = (   0.0293641   0.0169533   0.0000000), wk =   0.0555556
        k(   26) = (   0.0293641   0.0508600   0.0000000), wk =   0.0555556
        k(   27) = (   0.0293641   0.0847667   0.0000000), wk =   0.0555556
        k(   28) = (   0.0293641  -0.0847667   0.0000000), wk =   0.0555556
        k(   29) = (   0.0293641  -0.0508600   0.0000000), wk =   0.0555556
        k(   30) = (   0.0293641  -0.0169533   0.0000000), wk =   0.0555556
        k(   31) = (   0.0587281   0.0339067   0.0000000), wk =   0.0555556
        k(   32) = (   0.0587281   0.0678134   0.0000000), wk =   0.0555556
        k(   33) = (   0.0587281   0.1017201   0.0000000), wk =   0.0555556
        k(   34) = (   0.0587281  -0.0678134   0.0000000), wk =   0.0555556
        k(   35) = (   0.0587281  -0.0339067   0.0000000), wk =   0.0555556
        k(   36) = (   0.0587281   0.0000000   0.0000000), wk =   0.0555556
        k(   37) = (  -0.0880922  -0.0508600   0.0000000), wk =   0.0277778
        k(   38) = (  -0.0880922  -0.0169533   0.0000000), wk =   0.0555556
        k(   39) = (  -0.0880922   0.0169533   0.0000000), wk =   0.0555556
        k(   40) = (  -0.0880922  -0.1525801   0.0000000), wk =   0.0277778

     Largest allocated arrays     est. size (Mb)     dimensions
     Largest temporary arrays     est. size (Mb)     dimensions

     Check: negative/imaginary core charge=   -0.000003    0.000000

     Initial potential from superposition of free atoms
     Check: negative starting charge=(component1):   -0.001089
     Check: negative starting charge=(component2):   -0.000845

     starting charge  205.49974, renormalised to  216.00000

     negative rho (up, down):  1.145E-03 8.885E-04

     *
     * You are using vdW-DF for exchange-correlation in this calculation.
     * Please cite the following three references that made this development
     * possible:
     *
     *   M. Dion, H. Rydberg, E. Schroder, D. C. Langreth, and
     *   B. I. Lundqvist, Phys. Rev. Lett. 92, 246401 (2004).
     *
     *   T. Thonhauser, V. R. Cooper, S. Li, A. Puzder, P. Hyldgaard, and
     *   D. C. Langreth, Phys. Rev. B 76, 125112 (2007).
     *
     *   G. Roman-Perez and J. M. Soler, Phys. Rev. Lett. 103, 096102 (2009).
     *
     *
     * If you are using vdW-DF2, please also cite:
     *
     *   K. Lee, E. D. Murray, L. Kong, B. I. Lundqvist, and
     *   D. C. Langreth, Phys. Rev. B 82, 081101(R) (2010).
     *
     *
     * If you are calculating the stress with vdW-DF, please also cite:
     *
     *   R. Sabatini, E. Kucukbenli, B. Kolb, T. Thonhauser, and
     *   S. de Gironcoli, J. Phys.: Condens. Matter 24, 424209 (2012).
     *

     Carrying out vdW-DF run using the following parameters:

     Nqs =      20    Nr_points =    1024   r_max =   100.000
     q_mesh =
               0.00001000     0.04494208     0.09755937     0.15916263
               0.23128650     0.31572767     0.41458969     0.53033537
               0.66584808     0.82450364     1.01025438     1.22772762
               1.48234092     1.78043706     2.12944203     2.53805004
               3.01644009     3.57652955     4.23227104     5.00000000

     Gradients computed in reciprocal space

     Adding external electric field

     Computed dipole along edir(3) :
        Dipole               -0.0000 Ry au,         -0.0000 Debye
        Dipole field         -0.0000 Ry au

        Potential amp.        0.0000 Ry
        Total length         45.3883 bohr

[...]

     Starting wfc are  147 randomized atomic wfcs

     Self-consistent Calculation

     iteration #  1     ecut=    36.75 Ry     beta=0.10
     Davidson diagonalization with overlap
     ethr =  1.00E-02,  avg # of iterations =  7.3

[...]

     Magnetic moment per site:
     atom:    1    charge:   11.3484    magn:    1.1323    constr:    0.0000
     atom:    2    charge:   11.3484    magn:    1.1323    constr:    0.0000
     atom:    3    charge:   11.3484    magn:    1.1323    constr:    0.0000
     atom:    4    charge:    6.1226    magn:    0.8028    constr:    0.0000
     atom:    5    charge:   11.3452    magn:    1.1332    constr:    0.0000
     atom:    6    charge:   11.3452    magn:    1.1332    constr:    0.0000
     atom:    7    charge:   11.3452    magn:    1.1332    constr:    0.0000
     atom:    8    charge:    6.1299    magn:    0.8118    constr:    0.0000
[...]
        k(    5) = (   0.0293641   0.0169533   0.0000000), wk =   0.0555556
        k(    6) = (   0.0293641   0.0508600   0.0000000), wk =   0.0555556
        k(    7) = (   0.0293641   0.0847667   0.0000000), wk =   0.0555556
        k(    8) = (   0.0293641  -0.0847667   0.0000000), wk =   0.0555556
        k(    9) = (   0.0293641  -0.0508600   0.0000000), wk =   0.0555556
        k(   10) = (   0.0293641  -0.0169533   0.0000000), wk =   0.0555556
        k(   11) = (   0.0587281   0.0339067   0.0000000), wk =   0.0555556
        k(   12) = (   0.0587281   0.0678134   0.0000000), wk =   0.0555556
        k(   13) = (   0.0587281   0.1017201   0.0000000), wk =   0.0555556
        k(   14) = (   0.0587281  -0.0678134   0.0000000), wk =   0.0555556
        k(   15) = (   0.0587281  -0.0339067   0.0000000), wk =   0.0555556
        k(   16) = (   0.0587281   0.0000000   0.0000000), wk =   0.0555556
        k(   17) = (  -0.0880922  -0.0508600   0.0000000), wk =   0.0277778
        k(   18) = (  -0.0880922  -0.0169533   0.0000000), wk =   0.0555556
        k(   19) = (  -0.0880922   0.0169533   0.0000000), wk =   0.0555556
        k(   20) = (  -0.0880922  -0.1525801   0.0000000), wk =   0.0277778
        k(   21) = (   0.0000000   0.0000000   0.0000000), wk =   0.0277778
        k(   22) = (   0.0000000   0.0339067   0.0000000), wk =   0.0555556
        k(   23) = (   0.0000000   0.0678134   0.0000000), wk =   0.0555556
        k(   24) = (   0.0000000  -0.1017201   0.0000000), wk =   0.0277778
        k(   25) = (   0.0293641   0.0169533   0.0000000), wk =   0.0555556
        k(   26) = (   0.0293641   0.0508600   0.0000000), wk =   0.0555556
        k(   27) = (   0.0293641   0.0847667   0.0000000), wk =   0.0555556
        k(   28) = (   0.0293641  -0.0847667   0.0000000), wk =   0.0555556
        k(   29) = (   0.0293641  -0.0508600   0.0000000), wk =   0.0555556
        k(   30) = (   0.0293641  -0.0169533   0.0000000), wk =   0.0555556
        k(   31) = (   0.0587281   0.0339067   0.0000000), wk =   0.0555556
        k(   32) = (   0.0587281   0.0678134   0.0000000), wk =   0.0555556
        k(   33) = (   0.0587281   0.1017201   0.0000000), wk =   0.0555556
        k(   34) = (   0.0587281  -0.0678134   0.0000000), wk =   0.0555556
        k(   35) = (   0.0587281  -0.0339067   0.0000000), wk =   0.0555556
        k(   36) = (   0.0587281   0.0000000   0.0000000), wk =   0.0555556
        k(   37) = (  -0.0880922  -0.0508600   0.0000000), wk =   0.0277778
        k(   38) = (  -0.0880922  -0.0169533   0.0000000), wk =   0.0555556
        k(   39) = (  -0.0880922   0.0169533   0.0000000), wk =   0.0555556
        k(   40) = (  -0.0880922  -0.1525801   0.0000000), wk =   0.0277778

     Largest allocated arrays     est. size (Mb)     dimensions
     Largest temporary arrays     est. size (Mb)     dimensions

     Check: negative/imaginary core charge=   -0.000003    0.000000

     Initial potential from superposition of free atoms
     Check: negative starting charge=(component1):   -0.001137
     Check: negative starting charge=(component2):   -0.000882

     starting charge  205.49974, renormalised to  216.00000

[...]

     *
     * You are using vdW-DF for exchange-correlation in this calculation.
     * Please cite the following three references that made this development
     * possible:
     *
     *   M. Dion, H. Rydberg, E. Schroder, D. C. Langreth, and
     *   B. I. Lundqvist, Phys. Rev. Lett. 92, 246401 (2004).
     *
     *   T. Thonhauser, V. R. Cooper, S. Li, A. Puzder, P. Hyldgaard, and
     *   D. C. Langreth, Phys. Rev. B 76, 125112 (2007).
     *
     *   G. Roman-Perez and J. M. Soler, Phys. Rev. Lett. 103, 096102 (2009).
     *
     *
     * If you are using vdW-DF2, please also cite:
     *
     *   K. Lee, E. D. Murray, L. Kong, B. I. Lundqvist, and
     *   D. C. Langreth, Phys. Rev. B 82, 081101(R) (2010).
     *
     *
     * If you are calculating the stress with vdW-DF, please also cite:
     *
     *   R. Sabatini, E. Kucukbenli, B. Kolb, T. Thonhauser, and
     *   S. de Gironcoli, J. Phys.: Condens. Matter 24, 424209 (2012).
     *

     Carrying out vdW-DF run using the following parameters:

     Nqs =      20    Nr_points =    1024   r_max =   100.000
     q_mesh =
               0.00001000     0.04494208     0.09755937     0.15916263
               0.23128650     0.31572767     0.41458969     0.53033537
               0.66584808     0.82450364     1.01025438     1.22772762
               1.48234092     1.78043706     2.12944203     2.53805004
               3.01644009     3.57652955     4.23227104     5.00000000

     Gradients computed in reciprocal space

[...]

     Starting wfc are  147 randomized atomic wfcs

     Self-consistent Calculation

[...]

     total energy              =   -4385.68059034 Ry
     Harris-Foulkes estimate   =   -4385.68058993 Ry
     estimated scf accuracy    <       0.00000106 Ry

[...]

     iteration # 27     ecut=    36.75 Ry     beta=0.10
     Davidson diagonalization with overlap
     ethr =  4.91E-10,  avg # of iterations =  2.5

[...]

     negative rho (up, down):  1.175E-03 1.054E-03

[...]

     Adding external electric field

     Computed dipole along edir(3) :
        Dipole                0.0196 Ry au,          0.0499 Debye
        Dipole field          0.0001 Ry au

        Potential amp.       -0.0048 Ry
        Total length         45.3883 bohr

     Magnetic moment per site:
     atom:    1    charge:   11.0257    magn:   -0.0007    constr:    0.0000
     atom:    2    charge:   11.0257    magn:   -0.0007    constr:    0.0000
     atom:    3    charge:   11.0257    magn:   -0.0007    constr:    0.0000
     atom:    4    charge:    6.0065    magn:    1.4761    constr:    0.0000
     atom:    5    charge:   11.0256    magn:   -0.0003    constr:    0.0000
     atom:    6    charge:   11.0256    magn:   -0.0003    constr:    0.0000
     atom:    7    charge:   11.0256    magn:   -0.0003    constr:    0.0000
     atom:    8    charge:    6.0018    magn:    1.3873    constr:    0.0000
     atom:    9    charge:   11.0299    magn:   -0.0009    constr:    0.0000
     atom:   10    charge:   11.0299    magn:   -0.0009    constr:    0.0000
     atom:   11    charge:   11.0299    magn:   -0.0009    constr:    0.0000
     atom:   12    charge:    6.0213    magn:    1.4385    constr:    0.0000

     End of self-consistent calculation

 ------ SPIN UP ------------

[...]

 ------ SPIN DOWN ----------

[...]

          k = 0.0587 0.0000 0.0000 ( 17471 PWs)   bands (ev):

[...]

          k =-0.0881-0.1526 0.0000 ( 17444 PWs)   bands (ev):

   -94.1864 -94.1853 -94.1843 -94.1578 -94.1574 -94.1570 -94.1526 -94.1521
   -94.1515 -94.0919 -94.0916 -94.0914 -94.0729 -94.0724 -94.0723 -94.0718
   -94.0710 -94.0699 -94.0576 -94.0566 -94.0557 -94.0392 -94.0387 -94.0380
   -94.0285 -94.0279 -94.0273 -76.7108 -76.6431 -76.6251 -45.5158 -45.5157
   -45.5005 -45.4543 -45.4456 -45.4410 -45.4409 -45.4204 -45.4203 -14.7049
   -14.6475 -14.6207 -14.6100 -14.5866 -14.5792 -14.5732 -14.5654 -14.5582
   -14.5554 -14.5518 -14.5324 -14.5186 -14.5155 -14.4719 -14.4718 -14.4664
   -14.4516 -14.4506 -14.4272 -14.4233 -14.4215 -14.4143 -14.4083 -14.4024
   -14.4008 -14.3918 -14.3882 -14.3861 -14.3834 -14.3828 -14.3798 -14.3766
   -14.3725 -14.3684 -14.3627 -14.3540 -14.3410 -14.3270 -14.3187 -14.3109
   -14.3023 -14.3003 -14.2455 -14.2304  -8.6944  -8.2848  -6.9040  -6.6549
    -5.4810  -5.4786  -4.7264  -3.9371  -3.1264  -2.4349  -1.8005  -1.3179
    -0.6134  -0.5527  -0.3742   0.0074   0.1975   0.5193   0.7128   1.0089
     1.2933   1.5649   1.7458   1.7884   1.8645   1.9874   2.0265   2.0324
     2.1095   2.3175   2.8885   2.9605   3.1355   3.4270   3.5397   3.5786
     3.8948   3.9399   4.2451   4.2649   4.8472   5.2437   5.2892   5.3676
     5.4411   5.4444   5.9473   6.0350   6.1568   6.4374   6.5183   6.6175
     6.6972   7.0307

     the Fermi energy is     0.6106 ev

!    total energy              =   -4385.68059165 Ry
     Harris-Foulkes estimate   =   -4385.68059027 Ry
     estimated scf accuracy    <       0.00000056 Ry

     The total energy is the sum of the following terms:

     one-electron contribution =  -27166.38464824 Ry
     hartree contribution      =   13587.15959228 Ry
     xc contribution           =    -530.86153340 Ry
     ewald contribution        =    9724.44197269 Ry
     electric field correction =       0.00000104 Ry
     smearing contrib. (-TS)   =      -0.03597602 Ry

     total magnetization       =    10.38 Bohr mag/cell
     absolute magnetization    =    12.31 Bohr mag/cell

     convergence has been achieved in  27 iterations

 BEEF-vdW xc energy contributions
           1 :   -473.046505743800
           2 :    429.414269744441
           3 :   -356.384411714163
           4 :    275.274021276728
           5 :   -204.734761298751
           6 :    153.837800523267
           7 :   -121.078086565732
           8 :    98.6640392525580
           9 :   -78.7450169412298
          10 :    57.8017873389381
          11 :   -37.2197328508246
          12 :    20.6524460180882
          13 :   -10.5639535564075
          14 :    6.32981944653875
          15 :   -4.83598308448404
          16 :    2.73708879979631
          17 :    1.40095946469535
          18 :   -6.53066920194044
          19 :    10.3353763923836
          20 :   -11.1935855545606
          21 :    9.42391877203511
          22 :   -6.97868143408903
          23 :    5.93383470807049
          24 :   -6.98725585508714
          25 :    9.08104693337748
          26 :   -10.3573359168045
          27 :    9.63743101616296
          28 :   -7.27919490129830
          29 :    4.81105851296456
          30 :   -3.71618883402601
          31 :   -35.9727510514490
          32 :   -24.6926037470082

     Forces acting on atoms (Ry/au):

     negative rho (up, down):  1.175E-03 1.054E-03
     atom    1 type  1   force =    -0.00000006    0.00497969   -0.01727469
     atom    2 type  1   force =     0.00431282   -0.00249006   -0.01727500
     atom    3 type  1   force =    -0.00431272   -0.00248987   -0.01727533
     atom    4 type  2   force =     0.00000006    0.00000005    0.01730277
     atom    5 type  1   force =     0.00000015   -0.00684481    0.00690336
     atom    6 type  1   force =    -0.00592679    0.00342245    0.00690350
     atom    7 type  1   force =     0.00592732    0.00342269    0.00690316
     atom    8 type  2   force =     0.00000003   -0.00000004    0.00854808
     atom    9 type  1   force =    -0.00000083    0.00007208    0.00140228
     atom   10 type  1   force =     0.00006263   -0.00003638    0.00140195
     atom   11 type  1   force =    -0.00006277   -0.00003587    0.00140236
     atom   12 type  2   force =     0.00000015    0.00000009    0.00105757

     Total force =     0.040406     Total SCF correction =     0.004004

     entering subroutine stress ...

     negative rho (up, down):  1.175E-03 1.054E-03
          total   stress  (Ry/bohr**3)                   (kbar)     P=  -10.36
  -0.00011853  -0.00000000   0.00000000        -17.44     -0.00      0.00
  -0.00000000  -0.00011853   0.00000000         -0.00    -17.44      0.00
   0.00000000   0.00000000   0.00002583          0.00      0.00      3.80

 !ASE

     Writing output data file calc.save

     General routines

     Parallel routines

   This run was terminated on:   5:21:35  26Dec2018

   JOB DONE.
Job  /afs/slac/g/suncat/bin/suncat-tsmpirun -x LD_LIBRARY_PATH -wdir /scratch/qe109683_BMJLv pw.x -in pw.inp

TID   HOST_NAME   COMMAND_LINE            STATUS            TERMINATION_TIME
00000 suncat0064 pw.x -in pw.inp   Done                     12/26/2018 05:21:35
00001 suncat0064 pw.x -in pw.inp   Done                     12/26/2018 05:21:35
00002 suncat0064 pw.x -in pw.inp   Done                     12/26/2018 05:21:35
00003 suncat0064 pw.x -in pw.inp   Done                     12/26/2018 05:21:35
00004 suncat0064 pw.x -in pw.inp   Done                     12/26/2018 05:21:35
00005 suncat0064 pw.x -in pw.inp   Done                     12/26/2018 05:21:35
00006 suncat0064 pw.x -in pw.inp   Done                     12/26/2018 05:21:35
00007 suncat0064 pw.x -in pw.inp   Done                     12/26/2018 05:21:35
00008 suncat0063 pw.x -in pw.inp   Done                     12/26/2018 05:21:35
00009 suncat0063 pw.x -in pw.inp   Done                     12/26/2018 05:21:35
00010 suncat0063 pw.x -in pw.inp   Done                     12/26/2018 05:21:35
00011 suncat0063 pw.x -in pw.inp   Done                     12/26/2018 05:21:35
00012 suncat0063 pw.x -in pw.inp   Done                     12/26/2018 05:21:35
00013 suncat0063 pw.x -in pw.inp   Done                     12/26/2018 05:21:35
00014 suncat0063 pw.x -in pw.inp   Done                     12/26/2018 05:21:35
00015 suncat0063 pw.x -in pw.inp   Done                     12/26/2018 05:21:35
00016 suncat0061 pw.x -in pw.inp   Done                     12/26/2018 05:21:35
00017 suncat0061 pw.x -in pw.inp   Done                     12/26/2018 05:21:35
00018 suncat0061 pw.x -in pw.inp   Done                     12/26/2018 05:21:35
00019 suncat0061 pw.x -in pw.inp   Done                     12/26/2018 05:21:35
00020 suncat0061 pw.x -in pw.inp   Done                     12/26/2018 05:21:35
00021 suncat0061 pw.x -in pw.inp   Done                     12/26/2018 05:21:35
00022 suncat0061 pw.x -in pw.inp   Done                     12/26/2018 05:21:35
00023 suncat0061 pw.x -in pw.inp   Done                     12/26/2018 05:21:35
00024 suncat0053 pw.x -in pw.inp   Done                     12/26/2018 05:21:35
00025 suncat0053 pw.x -in pw.inp   Done                     12/26/2018 05:21:35
00026 suncat0053 pw.x -in pw.inp   Done                     12/26/2018 05:21:35
00027 suncat0053 pw.x -in pw.inp   Done                     12/26/2018 05:21:35
00028 suncat0053 pw.x -in pw.inp   Done                     12/26/2018 05:21:35
00029 suncat0053 pw.x -in pw.inp   Done                     12/26/2018 05:21:35
00030 suncat0053 pw.x -in pw.inp   Done                     12/26/2018 05:21:35
00031 suncat0053 pw.x -in pw.inp   Done                     12/26/2018 05:21:35
00032 suncat0052 pw.x -in pw.inp   Done                     12/26/2018 05:21:35
00033 suncat0052 pw.x -in pw.inp   Done                     12/26/2018 05:21:35
00034 suncat0052 pw.x -in pw.inp   Done                     12/26/2018 05:21:35
00035 suncat0052 pw.x -in pw.inp   Done                     12/26/2018 05:21:35
00036 suncat0052 pw.x -in pw.inp   Done                     12/26/2018 05:21:35
00037 suncat0052 pw.x -in pw.inp   Done                     12/26/2018 05:21:35
00038 suncat0052 pw.x -in pw.inp   Done                     12/26/2018 05:21:35
00039 suncat0052 pw.x -in pw.inp   Done                     12/26/2018 05:21:35
00040 suncat0046 pw.x -in pw.inp   Done                     12/26/2018 05:21:35
00041 suncat0046 pw.x -in pw.inp   Done                     12/26/2018 05:21:35
00042 suncat0046 pw.x -in pw.inp   Done                     12/26/2018 05:21:35
00043 suncat0046 pw.x -in pw.inp   Done                     12/26/2018 05:21:35
00044 suncat0046 pw.x -in pw.inp   Done                     12/26/2018 05:21:35
00045 suncat0046 pw.x -in pw.inp   Done                     12/26/2018 05:21:35
00046 suncat0046 pw.x -in pw.inp   Done                     12/26/2018 05:21:35
00047 suncat0046 pw.x -in pw.inp   Done                     12/26/2018 05:21:35
00048 suncat0141 pw.x -in pw.inp   Done                     12/26/2018 05:21:35
00049 suncat0141 pw.x -in pw.inp   Done                     12/26/2018 05:21:35
00050 suncat0141 pw.x -in pw.inp   Done                     12/26/2018 05:21:35
00051 suncat0141 pw.x -in pw.inp   Done                     12/26/2018 05:21:35
00052 suncat0141 pw.x -in pw.inp   Done                     12/26/2018 05:21:35
00053 suncat0141 pw.x -in pw.inp   Done                     12/26/2018 05:21:35
00054 suncat0141 pw.x -in pw.inp   Done                     12/26/2018 05:21:35
00055 suncat0141 pw.x -in pw.inp   Done                     12/26/2018 05:21:35
00056 suncat0140 pw.x -in pw.inp   Done                     12/26/2018 05:21:35
00057 suncat0140 pw.x -in pw.inp   Done                     12/26/2018 05:21:35
00058 suncat0140 pw.x -in pw.inp   Done                     12/26/2018 05:21:35
00059 suncat0140 pw.x -in pw.inp   Done                     12/26/2018 05:21:35
00060 suncat0140 pw.x -in pw.inp   Done                     12/26/2018 05:21:35
00061 suncat0140 pw.x -in pw.inp   Done                     12/26/2018 05:21:35
00062 suncat0140 pw.x -in pw.inp   Done                     12/26/2018 05:21:35
00063 suncat0140 pw.x -in pw.inp   Done                     12/26/2018 05:21:35