     Program PWSCF v.5.1rc2 (svn rev. 11289) starts on  2Jan2019 at 19:52: 6

     Current dimensions of program PWSCF are:
     Max number of different atomic species (ntypx) = 10
     Max number of k-points (npk) =  40000
     Max angular momentum in pseudopotentials (lmaxx) =  3
     Presently stress not available with electric field

     IMPORTANT: XC functional enforced from input :
     Exchange-correlation      = BEEF-VDW ( 1  4 27 13 2)
     Any further DFT definition will be discarded
     Please, verify this is what you really want

     Subspace diagonalization in iterative solution of the eigenvalue problem:
     a serial algorithm will be used

     bravais-lattice index     =            0
     lattice parameter (alat)  =       1.8897  a.u.
     unit-cell volume          =    5909.7706 (a.u.)^3
     number of atoms/cell      =           12
     number of atomic types    =            2
     number of electrons       =       147.00
     number of Kohn-Sham states=          103
     kinetic-energy cutoff     =      36.7493  Ry
     charge density cutoff     =     367.4932  Ry
     convergence threshold     =      1.0E-06
     mixing beta               =       0.1000
     number of iterations used =           10  plain     mixing
     Exchange-correlation      = BEEF-VDW ( 1  4 27 13 2)
     nstep                     =           50

     celldm(1)=   1.889726  celldm(2)=   0.000000  celldm(3)=   0.000000
     celldm(4)=   0.000000  celldm(5)=   0.000000  celldm(6)=   0.000000

     crystal axes: (cart. coord. in units of alat)
               a(1) = (   6.337803   0.000000   0.000000 )
               a(2) = (  -3.168901   5.488698   0.000000 )
               a(3) = (   0.000000   0.000000  25.174794 )

     reciprocal axes: (cart. coord. in units 2 pi/alat)
               b(1) = (  0.157783  0.091096  0.000000 )
               b(2) = (  0.000000  0.182193  0.000000 )
               b(3) = (  0.000000  0.000000  0.039722 )

     PseudoPot. # 1 for Zr read from file:
     /afs/slac.stanford.edu/u/if/mamunm/psp/gbrv1.5pbe/Zr.UPF
     MD5 check sum: 5db81b1e868ab7776c4564c113de050b
     Pseudo is Ultrasoft + core correction, Zval = 12.0
     Generated by new atomic code, or converted to UPF format
     Using radial grid of  887 points,  6 beta functions with:
                l(1) =   0
                l(2) =   0
                l(3) =   1
                l(4) =   1
                l(5) =   2
                l(6) =   2
     Q(r) pseudized with  6 coefficients,  rinner =    1.200   1.200   1.200
                                                       1.200   1.200

     PseudoPot. # 2 for In read from file:
     /afs/slac.stanford.edu/u/if/mamunm/psp/gbrv1.5pbe/In.UPF
     MD5 check sum: 90777abd96fbb83f2e67db2a40c566b9
     Pseudo is Ultrasoft + core correction, Zval = 13.0
     Generated by new atomic code, or converted to UPF format
     Using radial grid of  889 points,  6 beta functions with:
                l(1) =   0
                l(2) =   0
                l(3) =   1
                l(4) =   1
                l(5) =   2
                l(6) =   2
     Q(r) pseudized with  6 coefficients,  rinner =    1.400   1.400   1.400
                                                       1.400   1.400

     vdW kernel table read from file vdW_kernel_table
     MD5 check sum: 095c7af220d748ca6e76c0b4c6cfb241

     atomic species   valence    mass     pseudopotential
        Zr1           12.00    91.22400     Zr( 1.00)
        In1           13.00   114.81800     In( 1.00)

     No symmetry found

   Cartesian axes

     site n.     atom                  positions (alat units)
         1           Zr1 tau(   1) = (   0.0000000   0.0000000  10.0000000  )
         2           Zr1 tau(   2) = (  -1.5844507   2.7443492  10.0000000  )
         3           Zr1 tau(   3) = (   1.5844507   2.7443492  10.0000000  )
         4           In1 tau(   4) = (   3.1689015   0.0000000  10.0000000  )
         5           Zr1 tau(   5) = (   3.1689015   1.8295661  12.5873972  )
         6           Zr1 tau(   6) = (   1.5844507   4.5739153  12.5873972  )
         7           Zr1 tau(   7) = (  -1.5844507   4.5739153  12.5873972  )
         8           In1 tau(   8) = (   0.0000000   1.8295661  12.5873972  )
         9           Zr1 tau(   9) = (  -0.0000000   3.6591322  15.1747944  )
        10           Zr1 tau(  10) = (   1.5844507   0.9147831  15.1747944  )
        11           Zr1 tau(  11) = (   4.7533522   0.9147831  15.1747944  )
        12           In1 tau(  12) = (   3.1689015   3.6591322  15.1747944  )

     number of k points=    20  Fermi-Dirac smearing, width (Ry)=  0.0110
                       cart. coord. in units 2pi/alat
        k(    1) = (   0.0000000   0.0000000   0.0000000), wk =   0.0555556
        k(    2) = (   0.0000000   0.0303654   0.0000000), wk =   0.1111111
        k(    3) = (   0.0000000   0.0607309   0.0000000), wk =   0.1111111
        k(    4) = (   0.0000000  -0.0910963   0.0000000), wk =   0.0555556
        k(    5) = (   0.0262972   0.0151827   0.0000000), wk =   0.1111111
        k(    6) = (   0.0262972   0.0455481   0.0000000), wk =   0.1111111
        k(    7) = (   0.0262972   0.0759136   0.0000000), wk =   0.1111111
        k(    8) = (   0.0262972  -0.0759136   0.0000000), wk =   0.1111111
        k(    9) = (   0.0262972  -0.0455481   0.0000000), wk =   0.1111111
        k(   10) = (   0.0262972  -0.0151827   0.0000000), wk =   0.1111111
        k(   11) = (   0.0525945   0.0303654   0.0000000), wk =   0.1111111
        k(   12) = (   0.0525945   0.0607309   0.0000000), wk =   0.1111111
        k(   13) = (   0.0525945   0.0910963   0.0000000), wk =   0.1111111
        k(   14) = (   0.0525945  -0.0607309   0.0000000), wk =   0.1111111
        k(   15) = (   0.0525945  -0.0303654   0.0000000), wk =   0.1111111
        k(   16) = (   0.0525945   0.0000000   0.0000000), wk =   0.1111111
        k(   17) = (  -0.0788917  -0.0455481   0.0000000), wk =   0.0555556
        k(   18) = (  -0.0788917  -0.0151827   0.0000000), wk =   0.1111111
        k(   19) = (  -0.0788917   0.0151827   0.0000000), wk =   0.1111111
        k(   20) = (  -0.0788917  -0.1366444   0.0000000), wk =   0.0555556

     Largest allocated arrays     est. size (Mb)     dimensions
     Largest temporary arrays     est. size (Mb)     dimensions

     Initial potential from superposition of free atoms
     Check: negative starting charge=   -0.550064

     starting charge  142.48066, renormalised to  147.00000

     negative rho (up, down):  5.675E-01 0.000E+00

     *
     * You are using vdW-DF for exchange-correlation in this calculation.
     * Please cite the following three references that made this development
     * possible:
     *
     *   M. Dion, H. Rydberg, E. Schroder, D. C. Langreth, and
     *   B. I. Lundqvist, Phys. Rev. Lett. 92, 246401 (2004).
     *
     *   T. Thonhauser, V. R. Cooper, S. Li, A. Puzder, P. Hyldgaard, and
     *   D. C. Langreth, Phys. Rev. B 76, 125112 (2007).
     *
     *   G. Roman-Perez and J. M. Soler, Phys. Rev. Lett. 103, 096102 (2009).
     *
     *
     * If you are using vdW-DF2, please also cite:
     *
     *   K. Lee, E. D. Murray, L. Kong, B. I. Lundqvist, and
     *   D. C. Langreth, Phys. Rev. B 82, 081101(R) (2010).
     *
     *
     * If you are calculating the stress with vdW-DF, please also cite:
     *
     *   R. Sabatini, E. Kucukbenli, B. Kolb, T. Thonhauser, and
     *   S. de Gironcoli, J. Phys.: Condens. Matter 24, 424209 (2012).
     *

     Carrying out vdW-DF run using the following parameters:

     Nqs =      20    Nr_points =    1024   r_max =   100.000
     q_mesh =
               0.00001000     0.04494208     0.09755937     0.15916263
               0.23128650     0.31572767     0.41458969     0.53033537
               0.66584808     0.82450364     1.01025438     1.22772762
               1.48234092     1.78043706     2.12944203     2.53805004
               3.01644009     3.57652955     4.23227104     5.00000000

     Gradients computed in reciprocal space

     Adding external electric field

     Computed dipole along edir(3) :
        Dipole               -0.0000 Ry au,         -0.0000 Debye
        Dipole field         -0.0000 Ry au

        Potential amp.        0.0000 Ry
        Total length         46.3841 bohr

     Starting wfc are  144 randomized atomic wfcs

     Self-consistent Calculation

     iteration #  1     ecut=    36.75 Ry     beta=0.10
     Davidson diagonalization with overlap
     ethr =  1.00E-02,  avg # of iterations =  2.0

[...]

     total energy              =   -1302.21476807 Ry
     Harris-Foulkes estimate   =   -1303.04971371 Ry
     estimated scf accuracy    <       5.11983670 Ry

[...]

     End of self-consistent calculation

          k = 0.0000 0.0000 0.0000 ( 22237 PWs)   bands (ev):

   -47.8686 -47.8654 -47.7907 -47.7907 -47.7899 -47.7899 -47.4738 -47.3990
   -47.3988 -26.1277 -26.1124 -26.0416 -25.9852 -25.9852 -25.9451 -25.9451
   -25.9355 -25.9354 -25.9284 -25.8457 -25.8457 -25.8291 -25.6247 -25.6075
   -25.5748 -25.5748 -25.4204 -25.4204 -25.4086 -25.4086 -25.3258 -25.3257
   -25.3244 -25.2507 -25.0839 -25.0838 -12.7501 -12.7411 -12.7378 -12.7378
   -12.7328 -12.7328 -12.7325 -12.7325 -12.7217 -12.7217 -12.7215 -12.7092
   -12.7092 -12.6832 -12.6832  -5.4972  -4.4293  -4.1639  -1.5459  -1.4026
    -1.1436  -0.3614  -0.3614  -0.0595  -0.0595  -0.0326  -0.0190  -0.0013
    -0.0013   0.3820   0.3820   0.7682   0.7682   1.1010   1.2161   1.3151
     1.5849   1.5849   1.7017   1.7018   1.9749   1.9749   2.0704   2.0704
     2.0833   2.2982   2.6434   3.0876   3.3956   3.8001   3.8001   3.8741
     3.9019   3.9019   4.0362   4.0362   4.2901   4.2901   4.4115   4.4535
     4.4535   4.7314   4.7314   4.7987   4.8381   4.9743   4.9743

[...]

          k =-0.0789-0.0455 0.0000 ( 22208 PWs)   bands (ev):

[...]

     the Fermi energy is     1.4707 ev

!    total energy              =   -1302.08953848 Ry
     Harris-Foulkes estimate   =   -1302.08953492 Ry
     estimated scf accuracy    <       0.00000029 Ry

     The total energy is the sum of the following terms:

     one-electron contribution =   -8822.51080749 Ry
     hartree contribution      =    4426.21006891 Ry
     xc contribution           =    -283.05460466 Ry
     ewald contribution        =    3377.36828106 Ry
     electric field correction =       0.00000000 Ry
     smearing contrib. (-TS)   =      -0.10247630 Ry

     convergence has been achieved in  16 iterations

 BEEF-vdW xc energy contributions
           1 :   -244.863552029355
           2 :    222.896812337640
           3 :   -185.702740002366
           4 :    143.580898116717
           5 :   -105.986473003503
           6 :    78.1757621327480
           7 :   -60.2931172262194
           8 :    48.8679463709141
           9 :   -39.5392487261938
          10 :    29.4606274500034
          11 :   -18.3115581874467
          12 :    7.73026630264189
          13 :   0.197103847540006
          14 :   -4.39161089464733
          15 :    5.37748282871394
          16 :   -4.82337573033419
          17 :    4.46907989058263
          18 :   -5.17819028058960
[...]
               b(2) = (  0.000000  0.182193  0.000000 )
               b(3) = (  0.000000  0.000000  0.039722 )

     PseudoPot. # 1 for Zr read from file:
     /afs/slac.stanford.edu/u/if/mamunm/psp/gbrv1.5pbe/Zr.UPF
     MD5 check sum: 5db81b1e868ab7776c4564c113de050b
     Pseudo is Ultrasoft + core correction, Zval = 12.0
     Generated by new atomic code, or converted to UPF format
     Using radial grid of  887 points,  6 beta functions with:
                l(1) =   0
                l(2) =   0
                l(3) =   1
                l(4) =   1
                l(5) =   2
                l(6) =   2
     Q(r) pseudized with  6 coefficients,  rinner =    1.200   1.200   1.200
                                                       1.200   1.200

     PseudoPot. # 2 for In read from file:
     /afs/slac.stanford.edu/u/if/mamunm/psp/gbrv1.5pbe/In.UPF
     MD5 check sum: 90777abd96fbb83f2e67db2a40c566b9
     Pseudo is Ultrasoft + core correction, Zval = 13.0
     Generated by new atomic code, or converted to UPF format
     Using radial grid of  889 points,  6 beta functions with:
                l(1) =   0
                l(2) =   0
                l(3) =   1
                l(4) =   1
                l(5) =   2
                l(6) =   2
     Q(r) pseudized with  6 coefficients,  rinner =    1.400   1.400   1.400
                                                       1.400   1.400

     vdW kernel table read from file vdW_kernel_table
     MD5 check sum: 095c7af220d748ca6e76c0b4c6cfb241

     atomic species   valence    mass     pseudopotential
        Zr1           12.00    91.22400     Zr( 1.00)
        In1           13.00   114.81800     In( 1.00)

     No symmetry found

   Cartesian axes

     site n.     atom                  positions (alat units)
         1           Zr1 tau(   1) = (   0.0000000   0.0000000  10.0000000  )
         2           Zr1 tau(   2) = (  -1.5844507   2.7443492  10.0000000  )
         3           Zr1 tau(   3) = (   1.5844507   2.7443492  10.0000000  )
         4           In1 tau(   4) = (   3.1689015   0.0000000  10.0000000  )
         5           Zr1 tau(   5) = (   3.1689015   1.8295661  12.5873972  )
         6           Zr1 tau(   6) = (   1.5844507   4.5739153  12.5873972  )
         7           Zr1 tau(   7) = (  -1.5844507   4.5739153  12.5873972  )
         8           In1 tau(   8) = (   0.0000000   1.8295661  12.5873972  )
         9           Zr1 tau(   9) = (   0.0000179   3.6255591  15.0834212  )
        10           Zr1 tau(  10) = (   1.5553820   0.9315722  15.0834177  )
        11           Zr1 tau(  11) = (   4.7824279   0.9315557  15.0834090  )
        12           In1 tau(  12) = (   3.1689254   3.6591332  15.3220254  )

     number of k points=    20  Fermi-Dirac smearing, width (Ry)=  0.0110
                       cart. coord. in units 2pi/alat
        k(    1) = (   0.0000000   0.0000000   0.0000000), wk =   0.0555556
        k(    2) = (   0.0000000   0.0303654   0.0000000), wk =   0.1111111
        k(    3) = (   0.0000000   0.0607309   0.0000000), wk =   0.1111111
        k(    4) = (   0.0000000  -0.0910963   0.0000000), wk =   0.0555556
        k(    5) = (   0.0262972   0.0151827   0.0000000), wk =   0.1111111
        k(    6) = (   0.0262972   0.0455481   0.0000000), wk =   0.1111111
        k(    7) = (   0.0262972   0.0759136   0.0000000), wk =   0.1111111
        k(    8) = (   0.0262972  -0.0759136   0.0000000), wk =   0.1111111
        k(    9) = (   0.0262972  -0.0455481   0.0000000), wk =   0.1111111
        k(   10) = (   0.0262972  -0.0151827   0.0000000), wk =   0.1111111
        k(   11) = (   0.0525945   0.0303654   0.0000000), wk =   0.1111111
        k(   12) = (   0.0525945   0.0607309   0.0000000), wk =   0.1111111
        k(   13) = (   0.0525945   0.0910963   0.0000000), wk =   0.1111111
        k(   14) = (   0.0525945  -0.0607309   0.0000000), wk =   0.1111111
        k(   15) = (   0.0525945  -0.0303654   0.0000000), wk =   0.1111111
        k(   16) = (   0.0525945   0.0000000   0.0000000), wk =   0.1111111
        k(   17) = (  -0.0788917  -0.0455481   0.0000000), wk =   0.0555556
        k(   18) = (  -0.0788917  -0.0151827   0.0000000), wk =   0.1111111
        k(   19) = (  -0.0788917   0.0151827   0.0000000), wk =   0.1111111
        k(   20) = (  -0.0788917  -0.1366444   0.0000000), wk =   0.0555556

     Largest allocated arrays     est. size (Mb)     dimensions
     Largest temporary arrays     est. size (Mb)     dimensions

     Initial potential from superposition of free atoms
     Check: negative starting charge=   -0.549656

     starting charge  142.48066, renormalised to  147.00000

[...]

     *
     * You are using vdW-DF for exchange-correlation in this calculation.
     * Please cite the following three references that made this development
     * possible:
     *
     *   M. Dion, H. Rydberg, E. Schroder, D. C. Langreth, and
     *   B. I. Lundqvist, Phys. Rev. Lett. 92, 246401 (2004).
     *
     *   T. Thonhauser, V. R. Cooper, S. Li, A. Puzder, P. Hyldgaard, and
     *   D. C. Langreth, Phys. Rev. B 76, 125112 (2007).
     *
     *   G. Roman-Perez and J. M. Soler, Phys. Rev. Lett. 103, 096102 (2009).
     *
     *
     * If you are using vdW-DF2, please also cite:
     *
     *   K. Lee, E. D. Murray, L. Kong, B. I. Lundqvist, and
     *   D. C. Langreth, Phys. Rev. B 82, 081101(R) (2010).
     *
     *
     * If you are calculating the stress with vdW-DF, please also cite:
     *
     *   R. Sabatini, E. Kucukbenli, B. Kolb, T. Thonhauser, and
     *   S. de Gironcoli, J. Phys.: Condens. Matter 24, 424209 (2012).
     *

     Carrying out vdW-DF run using the following parameters:

     Nqs =      20    Nr_points =    1024   r_max =   100.000
     q_mesh =
               0.00001000     0.04494208     0.09755937     0.15916263
               0.23128650     0.31572767     0.41458969     0.53033537
               0.66584808     0.82450364     1.01025438     1.22772762
               1.48234092     1.78043706     2.12944203     2.53805004
               3.01644009     3.57652955     4.23227104     5.00000000

     Gradients computed in reciprocal space

[...]

     Starting wfc are  144 randomized atomic wfcs

     Self-consistent Calculation

[...]

     total energy              =   -1302.09630341 Ry
     Harris-Foulkes estimate   =   -1302.09630323 Ry
     estimated scf accuracy    <       0.00000175 Ry

     iteration # 18     ecut=    36.75 Ry     beta=0.10
     Davidson diagonalization with overlap
     ethr =  1.19E-09,  avg # of iterations =  2.0

[...]

     negative rho (up, down):  5.592E-01 0.000E+00

     Adding external electric field

     Computed dipole along edir(3) :
        Dipole               -0.0328 Ry au,         -0.0834 Debye
        Dipole field         -0.0001 Ry au

        Potential amp.        0.0065 Ry
        Total length         46.3841 bohr

     End of self-consistent calculation

[...]

          k = 0.0526 0.0000 0.0000 ( 22243 PWs)   bands (ev):

[...]

          k =-0.0789-0.1366 0.0000 ( 22208 PWs)   bands (ev):

   -47.8785 -47.8531 -47.8274 -47.7867 -47.7568 -47.7315 -47.4451 -47.4208
   -47.3958 -26.0519 -26.0132 -25.9973 -25.9595 -25.9238 -25.9219 -25.8715
   -25.8690 -25.8394 -25.8379 -25.7855 -25.7833 -25.7615 -25.7486 -25.7039
   -25.6733 -25.6556 -25.4986 -25.4698 -25.4407 -25.4312 -25.4040 -25.3568
   -25.2847 -25.2602 -25.2414 -25.1036 -12.7793 -12.7627 -12.7593 -12.7502
   -12.7501 -12.7497 -12.7380 -12.7369 -12.7176 -12.7148 -12.7128 -12.6977
   -12.6913 -12.6855 -12.6819  -4.5451  -4.1651  -3.7482  -2.1149  -1.4714
    -1.3727  -1.0920  -0.4969  -0.1332  -0.1034  -0.0794   0.0524   0.1534
     0.2038   0.6002   0.6527   0.8083   0.9462   1.0618   1.2152   1.2486
     1.3082   1.3725   1.3837   1.5728   1.5771   1.7025   2.1269   2.1733
     2.1779   2.3363   2.4307   2.5808   2.8925   3.3168   3.4215   3.5973
     3.6008   3.6407   3.7979   3.8289   3.9143   3.9984   4.0406   4.0947
     4.1679   4.2183   4.3673   4.5769   4.9308   5.0863   5.1854

     the Fermi energy is     1.4359 ev

!    total energy              =   -1302.09630631 Ry
     Harris-Foulkes estimate   =   -1302.09630345 Ry
     estimated scf accuracy    <       0.00000027 Ry

     The total energy is the sum of the following terms:

     one-electron contribution =   -8856.61965375 Ry
     hartree contribution      =    4443.27745606 Ry
     xc contribution           =    -283.11955987 Ry
     ewald contribution        =    3394.46796076 Ry
     electric field correction =       0.00000229 Ry
     smearing contrib. (-TS)   =      -0.10251180 Ry

     convergence has been achieved in  18 iterations

 BEEF-vdW xc energy contributions
           1 :   -244.941368018754
           2 :    222.990225639430
           3 :   -185.811669869018
           4 :    143.684985483033
           5 :   -106.057831709612
           6 :    78.1998399621740
           7 :   -60.2807105115386
           8 :    48.8485939566064
           9 :   -39.5417245946414
          10 :    29.4952999574060
          11 :   -18.3659618081143
          12 :    7.77845528718484
          13 :   0.178679265109395
          14 :   -4.41093886764742
          15 :    5.42278685286726
          16 :   -4.86943829476229
          17 :    4.49078972724203
          18 :   -5.16459631348675
          19 :    6.62706744290404
          20 :   -7.91711078749103
          21 :    8.15226630653706
          22 :   -7.11454561944817
          23 :    5.32730541274032
          24 :   -3.66297180375841
          25 :    2.79206046081413
          26 :   -2.82946640600170
          27 :    3.36078334811720
          28 :   -3.77760334429246
          29 :    3.67306916656133
          30 :   -3.04980504584682
          31 :   -25.7336846873952
          32 :   -19.0843767724716

     Forces acting on atoms (Ry/au):

     negative rho (up, down):  5.592E-01 0.000E+00
     atom    1 type  1   force =    -0.00000122    0.00529578    0.01112611
     atom    2 type  1   force =     0.00458516   -0.00264859    0.01112786
     atom    3 type  1   force =    -0.00458493   -0.00264715    0.01112948
     atom    4 type  2   force =    -0.00000070    0.00000089   -0.01862570
     atom    5 type  1   force =    -0.00000039    0.00626332   -0.00016454
     atom    6 type  1   force =     0.00542535   -0.00313429   -0.00016506
     atom    7 type  1   force =    -0.00542343   -0.00313307   -0.00016379
     atom    8 type  2   force =    -0.00000022    0.00000029   -0.01564617
     atom    9 type  1   force =     0.00000033    0.00144797   -0.00002101
     atom   10 type  1   force =     0.00125822   -0.00072291   -0.00002149
     atom   11 type  1   force =    -0.00125640   -0.00072255   -0.00002185
     atom   12 type  2   force =    -0.00000177    0.00000032    0.00144615

     Total force =     0.034257     Total SCF correction =     0.001311

     entering subroutine stress ...

     negative rho (up, down):  5.592E-01 0.000E+00
          total   stress  (Ry/bohr**3)                   (kbar)     P=   -7.18
  -0.00006703   0.00000000  -0.00000000         -9.86      0.00     -0.00
   0.00000000  -0.00006707   0.00000000          0.00     -9.87      0.00
  -0.00000000   0.00000000  -0.00001232         -0.00      0.00     -1.81

 !ASE

     Writing output data file calc.save

     General routines

     Parallel routines

   This run was terminated on:  20:46: 6   2Jan2019

   JOB DONE.
Job  /afs/slac/g/suncat/bin/suncat-tsmpirun -x LD_LIBRARY_PATH -wdir /scratch/qe649543_HnHhW pw.x -in pw.inp

TID   HOST_NAME   COMMAND_LINE            STATUS            TERMINATION_TIME
00000 suncat0159 pw.x -in pw.inp   Done                     01/02/2019 20:46:06
00001 suncat0159 pw.x -in pw.inp   Done                     01/02/2019 20:46:06
00002 suncat0159 pw.x -in pw.inp   Done                     01/02/2019 20:46:06
00003 suncat0159 pw.x -in pw.inp   Done                     01/02/2019 20:46:06
00004 suncat0159 pw.x -in pw.inp   Done                     01/02/2019 20:46:06
00005 suncat0159 pw.x -in pw.inp   Done                     01/02/2019 20:46:06
00006 suncat0159 pw.x -in pw.inp   Done                     01/02/2019 20:46:06
00007 suncat0159 pw.x -in pw.inp   Done                     01/02/2019 20:46:06
00008 suncat0155 pw.x -in pw.inp   Done                     01/02/2019 20:46:06
00009 suncat0155 pw.x -in pw.inp   Done                     01/02/2019 20:46:06
00010 suncat0155 pw.x -in pw.inp   Done                     01/02/2019 20:46:06
00011 suncat0155 pw.x -in pw.inp   Done                     01/02/2019 20:46:06
00012 suncat0155 pw.x -in pw.inp   Done                     01/02/2019 20:46:06
00013 suncat0155 pw.x -in pw.inp   Done                     01/02/2019 20:46:06
00014 suncat0155 pw.x -in pw.inp   Done                     01/02/2019 20:46:06
00015 suncat0155 pw.x -in pw.inp   Done                     01/02/2019 20:46:06
00016 suncat0106 pw.x -in pw.inp   Done                     01/02/2019 20:46:06
00017 suncat0106 pw.x -in pw.inp   Done                     01/02/2019 20:46:06
00018 suncat0106 pw.x -in pw.inp   Done                     01/02/2019 20:46:06
00019 suncat0106 pw.x -in pw.inp   Done                     01/02/2019 20:46:06
00020 suncat0106 pw.x -in pw.inp   Done                     01/02/2019 20:46:06
00021 suncat0106 pw.x -in pw.inp   Done                     01/02/2019 20:46:06
00022 suncat0106 pw.x -in pw.inp   Done                     01/02/2019 20:46:06
00023 suncat0106 pw.x -in pw.inp   Done                     01/02/2019 20:46:06
00024 suncat0105 pw.x -in pw.inp   Done                     01/02/2019 20:46:06
00025 suncat0105 pw.x -in pw.inp   Done                     01/02/2019 20:46:06
00026 suncat0105 pw.x -in pw.inp   Done                     01/02/2019 20:46:06
00027 suncat0105 pw.x -in pw.inp   Done                     01/02/2019 20:46:06
00028 suncat0105 pw.x -in pw.inp   Done                     01/02/2019 20:46:06
00029 suncat0105 pw.x -in pw.inp   Done                     01/02/2019 20:46:06
00030 suncat0105 pw.x -in pw.inp   Done                     01/02/2019 20:46:06
00031 suncat0105 pw.x -in pw.inp   Done                     01/02/2019 20:46:06
00032 suncat0277 pw.x -in pw.inp   Done                     01/02/2019 20:46:06
00033 suncat0277 pw.x -in pw.inp   Done                     01/02/2019 20:46:06
00034 suncat0277 pw.x -in pw.inp   Done                     01/02/2019 20:46:06
00035 suncat0277 pw.x -in pw.inp   Done                     01/02/2019 20:46:06
00036 suncat0277 pw.x -in pw.inp   Done                     01/02/2019 20:46:06
00037 suncat0277 pw.x -in pw.inp   Done                     01/02/2019 20:46:06
00038 suncat0277 pw.x -in pw.inp   Done                     01/02/2019 20:46:06
00039 suncat0277 pw.x -in pw.inp   Done                     01/02/2019 20:46:06
00040 suncat0276 pw.x -in pw.inp   Done                     01/02/2019 20:46:06
00041 suncat0276 pw.x -in pw.inp   Done                     01/02/2019 20:46:06
00042 suncat0276 pw.x -in pw.inp   Done                     01/02/2019 20:46:06
00043 suncat0276 pw.x -in pw.inp   Done                     01/02/2019 20:46:06
00044 suncat0276 pw.x -in pw.inp   Done                     01/02/2019 20:46:06
00045 suncat0276 pw.x -in pw.inp   Done                     01/02/2019 20:46:06
00046 suncat0276 pw.x -in pw.inp   Done                     01/02/2019 20:46:06
00047 suncat0276 pw.x -in pw.inp   Done                     01/02/2019 20:46:06
00048 suncat0217 pw.x -in pw.inp   Done                     01/02/2019 20:46:06
00049 suncat0217 pw.x -in pw.inp   Done                     01/02/2019 20:46:06
00050 suncat0217 pw.x -in pw.inp   Done                     01/02/2019 20:46:06
00051 suncat0217 pw.x -in pw.inp   Done                     01/02/2019 20:46:06
00052 suncat0217 pw.x -in pw.inp   Done                     01/02/2019 20:46:06
00053 suncat0217 pw.x -in pw.inp   Done                     01/02/2019 20:46:06
00054 suncat0217 pw.x -in pw.inp   Done                     01/02/2019 20:46:06
00055 suncat0217 pw.x -in pw.inp   Done                     01/02/2019 20:46:06
00056 suncat0216 pw.x -in pw.inp   Done                     01/02/2019 20:46:06
00057 suncat0216 pw.x -in pw.inp   Done                     01/02/2019 20:46:06
00058 suncat0216 pw.x -in pw.inp   Done                     01/02/2019 20:46:06
00059 suncat0216 pw.x -in pw.inp   Done                     01/02/2019 20:46:06
00060 suncat0216 pw.x -in pw.inp   Done                     01/02/2019 20:46:06
00061 suncat0216 pw.x -in pw.inp   Done                     01/02/2019 20:46:06
00062 suncat0216 pw.x -in pw.inp   Done                     01/02/2019 20:46:06
00063 suncat0216 pw.x -in pw.inp   Done                     01/02/2019 20:46:06