     Program PWSCF v.5.1rc2 (svn rev. 11289) starts on  1Jan2019 at 11:31:25

     Current dimensions of program PWSCF are:
     Max number of different atomic species (ntypx) = 10
     Max number of k-points (npk) =  40000
     Max angular momentum in pseudopotentials (lmaxx) =  3
     Presently stress not available with electric field

     IMPORTANT: XC functional enforced from input :
     Exchange-correlation      = BEEF-VDW ( 1  4 27 13 2)
     Any further DFT definition will be discarded
     Please, verify this is what you really want

     Subspace diagonalization in iterative solution of the eigenvalue problem:
     a serial algorithm will be used

     bravais-lattice index     =            0
     lattice parameter (alat)  =       1.8897  a.u.
     unit-cell volume          =    6738.7087 (a.u.)^3
     number of atoms/cell      =           12
     number of atomic types    =            2
     number of electrons       =       183.00
     number of Kohn-Sham states=          121
     kinetic-energy cutoff     =      36.7493  Ry
     charge density cutoff     =     367.4932  Ry
     convergence threshold     =      1.0E-06
     mixing beta               =       0.1000
     number of iterations used =           10  plain     mixing
     Exchange-correlation      = BEEF-VDW ( 1  4 27 13 2)
     nstep                     =           50

     celldm(1)=   1.889726  celldm(2)=   0.000000  celldm(3)=   0.000000
     celldm(4)=   0.000000  celldm(5)=   0.000000  celldm(6)=   0.000000

     crystal axes: (cart. coord. in units of alat)
               a(1) = (   6.725552   0.000000   0.000000 )
               a(2) = (  -3.362776   5.824499   0.000000 )
               a(3) = (   0.000000   0.000000  25.491391 )

     reciprocal axes: (cart. coord. in units 2 pi/alat)
               b(1) = (  0.148687  0.085844  0.000000 )
               b(2) = (  0.000000  0.171689  0.000000 )
               b(3) = (  0.000000  0.000000  0.039229 )

     PseudoPot. # 1 for Sn read from file:
     /afs/slac.stanford.edu/u/if/mamunm/psp/gbrv1.5pbe/Sn.UPF
     MD5 check sum: 469debedee59599fedebd795477fea03
     Pseudo is Ultrasoft + core correction, Zval = 14.0
     Generated by new atomic code, or converted to UPF format
     Using radial grid of  891 points,  6 beta functions with:
                l(1) =   0
                l(2) =   0
                l(3) =   1
                l(4) =   1
                l(5) =   2
                l(6) =   2
     Q(r) pseudized with  8 coefficients,  rinner =    1.350   1.350   1.350
                                                       1.350   1.350

     PseudoPot. # 2 for Ga read from file:
     /afs/slac.stanford.edu/u/if/mamunm/psp/gbrv1.5pbe/Ga.UPF
     MD5 check sum: ccd671392a58a050fbb373893b4fcd66
     Pseudo is Ultrasoft + core correction, Zval = 19.0
     Generated by new atomic code, or converted to UPF format
     Using radial grid of  871 points,  6 beta functions with:
                l(1) =   0
                l(2) =   0
                l(3) =   1
                l(4) =   1
                l(5) =   2
                l(6) =   2
     Q(r) pseudized with  8 coefficients,  rinner =    1.250   1.250   1.250
                                                       1.250   1.250

     vdW kernel table read from file vdW_kernel_table
     MD5 check sum: 095c7af220d748ca6e76c0b4c6cfb241

     atomic species   valence    mass     pseudopotential
        Sn1           14.00   118.71000     Sn( 1.00)
        Ga1           19.00    69.72300     Ga( 1.00)

     No symmetry found

   Cartesian axes

     site n.     atom                  positions (alat units)
         1           Sn1 tau(   1) = (   0.0000000   0.0000000  10.0000000  )
         2           Sn1 tau(   2) = (  -1.6813881   2.9122496  10.0000000  )
         3           Sn1 tau(   3) = (   1.6813881   2.9122496  10.0000000  )
         4           Ga1 tau(   4) = (   3.3627762   0.0000000  10.0000000  )
         5           Sn1 tau(   5) = (   3.3627762   1.9414997  12.7456953  )
         6           Sn1 tau(   6) = (   1.6813881   4.8537494  12.7456953  )
         7           Sn1 tau(   7) = (  -1.6813881   4.8537494  12.7456953  )
         8           Ga1 tau(   8) = (   0.0000000   1.9414997  12.7456953  )
         9           Sn1 tau(   9) = (  -0.0000000   3.8829995  15.4913905  )
        10           Sn1 tau(  10) = (   1.6813881   0.9707499  15.4913905  )
        11           Sn1 tau(  11) = (   5.0441643   0.9707499  15.4913905  )
        12           Ga1 tau(  12) = (   3.3627762   3.8829995  15.4913905  )

     number of k points=    20  Fermi-Dirac smearing, width (Ry)=  0.0110
                       cart. coord. in units 2pi/alat
        k(    1) = (   0.0000000   0.0000000   0.0000000), wk =   0.0555556
        k(    2) = (   0.0000000   0.0286148   0.0000000), wk =   0.1111111
        k(    3) = (   0.0000000   0.0572295   0.0000000), wk =   0.1111111
        k(    4) = (   0.0000000  -0.0858443   0.0000000), wk =   0.0555556
        k(    5) = (   0.0247811   0.0143074   0.0000000), wk =   0.1111111
        k(    6) = (   0.0247811   0.0429221   0.0000000), wk =   0.1111111
        k(    7) = (   0.0247811   0.0715369   0.0000000), wk =   0.1111111
        k(    8) = (   0.0247811  -0.0715369   0.0000000), wk =   0.1111111
        k(    9) = (   0.0247811  -0.0429221   0.0000000), wk =   0.1111111
        k(   10) = (   0.0247811  -0.0143074   0.0000000), wk =   0.1111111
        k(   11) = (   0.0495622   0.0286148   0.0000000), wk =   0.1111111
        k(   12) = (   0.0495622   0.0572295   0.0000000), wk =   0.1111111
        k(   13) = (   0.0495622   0.0858443   0.0000000), wk =   0.1111111
        k(   14) = (   0.0495622  -0.0572295   0.0000000), wk =   0.1111111
        k(   15) = (   0.0495622  -0.0286148   0.0000000), wk =   0.1111111
        k(   16) = (   0.0495622   0.0000000   0.0000000), wk =   0.1111111
        k(   17) = (  -0.0743433  -0.0429221   0.0000000), wk =   0.0555556
        k(   18) = (  -0.0743433  -0.0143074   0.0000000), wk =   0.1111111
        k(   19) = (  -0.0743433   0.0143074   0.0000000), wk =   0.1111111
        k(   20) = (  -0.0743433  -0.1287664   0.0000000), wk =   0.0555556

     Largest allocated arrays     est. size (Mb)     dimensions
     Largest temporary arrays     est. size (Mb)     dimensions

     Initial potential from superposition of free atoms
     Check: negative starting charge=   -0.001601

     starting charge  170.99959, renormalised to  183.00000

     negative rho (up, down):  1.713E-03 0.000E+00

     *
     * You are using vdW-DF for exchange-correlation in this calculation.
     * Please cite the following three references that made this development
     * possible:
     *
     *   M. Dion, H. Rydberg, E. Schroder, D. C. Langreth, and
     *   B. I. Lundqvist, Phys. Rev. Lett. 92, 246401 (2004).
     *
     *   T. Thonhauser, V. R. Cooper, S. Li, A. Puzder, P. Hyldgaard, and
     *   D. C. Langreth, Phys. Rev. B 76, 125112 (2007).
     *
     *   G. Roman-Perez and J. M. Soler, Phys. Rev. Lett. 103, 096102 (2009).
     *
     *
     * If you are using vdW-DF2, please also cite:
     *
     *   K. Lee, E. D. Murray, L. Kong, B. I. Lundqvist, and
     *   D. C. Langreth, Phys. Rev. B 82, 081101(R) (2010).
     *
     *
     * If you are calculating the stress with vdW-DF, please also cite:
     *
     *   R. Sabatini, E. Kucukbenli, B. Kolb, T. Thonhauser, and
     *   S. de Gironcoli, J. Phys.: Condens. Matter 24, 424209 (2012).
     *

     Carrying out vdW-DF run using the following parameters:

     Nqs =      20    Nr_points =    1024   r_max =   100.000
     q_mesh =
               0.00001000     0.04494208     0.09755937     0.15916263
               0.23128650     0.31572767     0.41458969     0.53033537
               0.66584808     0.82450364     1.01025438     1.22772762
               1.48234092     1.78043706     2.12944203     2.53805004
               3.01644009     3.57652955     4.23227104     5.00000000

     Gradients computed in reciprocal space

     Adding external electric field

     Computed dipole along edir(3) :
        Dipole                0.0000 Ry au,          0.0000 Debye
        Dipole field          0.0000 Ry au

        Potential amp.       -0.0000 Ry
        Total length         46.9675 bohr

     Starting wfc are  117 randomized atomic wfcs +    4 random wfc

     Self-consistent Calculation

     iteration #  1     ecut=    36.75 Ry     beta=0.10
     Davidson diagonalization with overlap
     ethr =  1.00E-02,  avg # of iterations = 11.2

[...]

     total energy              =   -2642.26883946 Ry
     Harris-Foulkes estimate   =   -2719.79319808 Ry
     estimated scf accuracy    <     426.53767191 Ry

[...]

     End of self-consistent calculation

          k = 0.0000 0.0000 0.0000 ( 25377 PWs)   bands (ev):

   -94.4369 -94.4368 -94.4092 -94.4092 -94.4089 -94.4089 -94.2975 -94.2974
   -94.2826 -21.5918 -21.5841 -21.5841 -21.5790 -21.5642 -21.5631 -21.5631
   -21.5509 -21.5447 -21.5447 -21.5348 -21.5334 -21.5334 -21.5323 -21.5231
   -21.5183 -21.5157 -21.5157 -21.5152 -21.5152 -21.4867 -21.4832 -21.4832
   -21.4796 -21.4795 -21.4795 -21.4745 -21.4745 -21.4666 -21.4601 -21.4601
   -21.4552 -21.4552 -21.4382 -21.4382 -21.4367 -21.4367 -21.4166 -21.4153
   -21.4153 -21.3991 -21.3989 -21.3917 -21.3917 -21.3854 -14.7529 -14.7524
   -14.7424 -14.7424 -14.7423 -14.7423 -14.7247 -14.7247 -14.7244 -14.7244
   -14.6247 -14.6247 -14.6107 -14.6107 -14.6104  -9.8170  -8.6512  -7.0211
    -6.0742  -6.0742  -5.5581  -5.5581  -4.9799  -4.7817  -4.6967  -4.6967
    -3.8871  -3.3090  -2.9368  -2.9368  -2.5278  -1.8684  -1.8621  -1.7892
    -1.7892  -1.5678  -1.5678   0.1482   1.6347   1.6347   1.6937   1.6937
     2.0610   2.2762   2.8093   3.2825   3.4953   3.4953   3.6599   4.0993
     4.0993   4.3731   4.4221   4.4575   4.5362   4.5941   4.5941   5.7494
     5.8294   5.9146   5.9482   5.9482   6.0507   6.0507   6.1670   6.7946
     6.9171

[...]

          k =-0.0743-0.0429 0.0000 ( 25366 PWs)   bands (ev):

[...]

     the Fermi energy is     0.4450 ev

!    total energy              =   -2695.98014095 Ry
     Harris-Foulkes estimate   =   -2695.98014095 Ry
     estimated scf accuracy    <       0.00000056 Ry

     The total energy is the sum of the following terms:

     one-electron contribution =  -13170.98768216 Ry
     hartree contribution      =    6632.87855692 Ry
     xc contribution           =    -549.18434802 Ry
     ewald contribution        =    4391.35072486 Ry
     electric field correction =       0.00000000 Ry
     smearing contrib. (-TS)   =      -0.03739255 Ry

     convergence has been achieved in  16 iterations

 BEEF-vdW xc energy contributions
           1 :   -484.915367087321
           2 :    442.782331664016
           3 :   -371.582717435874
           4 :    291.465148459656
           5 :   -221.175938760444
           6 :    171.273988799241
           7 :   -141.951023606520
           8 :    125.807261434762
           9 :   -113.499615902803
          10 :    98.9693694730560
          11 :   -81.6487308089852
          12 :    65.0646440337147
[...]
                l(2) =   0
                l(3) =   1
                l(4) =   1
                l(5) =   2
                l(6) =   2
     Q(r) pseudized with  8 coefficients,  rinner =    1.350   1.350   1.350
                                                       1.350   1.350

     PseudoPot. # 2 for Ga read from file:
     /afs/slac.stanford.edu/u/if/mamunm/psp/gbrv1.5pbe/Ga.UPF
     MD5 check sum: ccd671392a58a050fbb373893b4fcd66
     Pseudo is Ultrasoft + core correction, Zval = 19.0
     Generated by new atomic code, or converted to UPF format
     Using radial grid of  871 points,  6 beta functions with:
                l(1) =   0
                l(2) =   0
                l(3) =   1
                l(4) =   1
                l(5) =   2
                l(6) =   2
     Q(r) pseudized with  8 coefficients,  rinner =    1.250   1.250   1.250
                                                       1.250   1.250

     vdW kernel table read from file vdW_kernel_table
     MD5 check sum: 095c7af220d748ca6e76c0b4c6cfb241

     atomic species   valence    mass     pseudopotential
        Sn1           14.00   118.71000     Sn( 1.00)
        Ga1           19.00    69.72300     Ga( 1.00)

     No symmetry found

   Cartesian axes

     site n.     atom                  positions (alat units)
         1           Sn1 tau(   1) = (   0.0000000   0.0000000  10.0000000  )
         2           Sn1 tau(   2) = (  -1.6813881   2.9122496  10.0000000  )
         3           Sn1 tau(   3) = (   1.6813881   2.9122496  10.0000000  )
         4           Ga1 tau(   4) = (   3.3627762   0.0000000  10.0000000  )
         5           Sn1 tau(   5) = (   3.3627762   1.9414997  12.7456953  )
         6           Sn1 tau(   6) = (   1.6813881   4.8537494  12.7456953  )
         7           Sn1 tau(   7) = (  -1.6813881   4.8537494  12.7456953  )
         8           Ga1 tau(   8) = (   0.0000000   1.9414997  12.7456953  )
         9           Sn1 tau(   9) = (   0.0000034   3.8997541  15.3249751  )
        10           Sn1 tau(  10) = (   1.6958808   0.9623860  15.3249901  )
        11           Sn1 tau(  11) = (   5.0296791   0.9623989  15.3249644  )
        12           Ga1 tau(  12) = (   3.3627922   3.8830046  15.4265340  )

     number of k points=    20  Fermi-Dirac smearing, width (Ry)=  0.0110
                       cart. coord. in units 2pi/alat
        k(    1) = (   0.0000000   0.0000000   0.0000000), wk =   0.0555556
        k(    2) = (   0.0000000   0.0286148   0.0000000), wk =   0.1111111
        k(    3) = (   0.0000000   0.0572295   0.0000000), wk =   0.1111111
        k(    4) = (   0.0000000  -0.0858443   0.0000000), wk =   0.0555556
        k(    5) = (   0.0247811   0.0143074   0.0000000), wk =   0.1111111
        k(    6) = (   0.0247811   0.0429221   0.0000000), wk =   0.1111111
        k(    7) = (   0.0247811   0.0715369   0.0000000), wk =   0.1111111
        k(    8) = (   0.0247811  -0.0715369   0.0000000), wk =   0.1111111
        k(    9) = (   0.0247811  -0.0429221   0.0000000), wk =   0.1111111
        k(   10) = (   0.0247811  -0.0143074   0.0000000), wk =   0.1111111
        k(   11) = (   0.0495622   0.0286148   0.0000000), wk =   0.1111111
        k(   12) = (   0.0495622   0.0572295   0.0000000), wk =   0.1111111
        k(   13) = (   0.0495622   0.0858443   0.0000000), wk =   0.1111111
        k(   14) = (   0.0495622  -0.0572295   0.0000000), wk =   0.1111111
        k(   15) = (   0.0495622  -0.0286148   0.0000000), wk =   0.1111111
        k(   16) = (   0.0495622   0.0000000   0.0000000), wk =   0.1111111
        k(   17) = (  -0.0743433  -0.0429221   0.0000000), wk =   0.0555556
        k(   18) = (  -0.0743433  -0.0143074   0.0000000), wk =   0.1111111
        k(   19) = (  -0.0743433   0.0143074   0.0000000), wk =   0.1111111
        k(   20) = (  -0.0743433  -0.1287664   0.0000000), wk =   0.0555556

     Largest allocated arrays     est. size (Mb)     dimensions
     Largest temporary arrays     est. size (Mb)     dimensions

     Initial potential from superposition of free atoms
     Check: negative starting charge=   -0.001545

     starting charge  170.99959, renormalised to  183.00000

[...]

     *
     * You are using vdW-DF for exchange-correlation in this calculation.
     * Please cite the following three references that made this development
     * possible:
     *
     *   M. Dion, H. Rydberg, E. Schroder, D. C. Langreth, and
     *   B. I. Lundqvist, Phys. Rev. Lett. 92, 246401 (2004).
     *
     *   T. Thonhauser, V. R. Cooper, S. Li, A. Puzder, P. Hyldgaard, and
     *   D. C. Langreth, Phys. Rev. B 76, 125112 (2007).
     *
     *   G. Roman-Perez and J. M. Soler, Phys. Rev. Lett. 103, 096102 (2009).
     *
     *
     * If you are using vdW-DF2, please also cite:
     *
     *   K. Lee, E. D. Murray, L. Kong, B. I. Lundqvist, and
     *   D. C. Langreth, Phys. Rev. B 82, 081101(R) (2010).
     *
     *
     * If you are calculating the stress with vdW-DF, please also cite:
     *
     *   R. Sabatini, E. Kucukbenli, B. Kolb, T. Thonhauser, and
     *   S. de Gironcoli, J. Phys.: Condens. Matter 24, 424209 (2012).
     *

     Carrying out vdW-DF run using the following parameters:

     Nqs =      20    Nr_points =    1024   r_max =   100.000
     q_mesh =
               0.00001000     0.04494208     0.09755937     0.15916263
               0.23128650     0.31572767     0.41458969     0.53033537
               0.66584808     0.82450364     1.01025438     1.22772762
               1.48234092     1.78043706     2.12944203     2.53805004
               3.01644009     3.57652955     4.23227104     5.00000000

     Gradients computed in reciprocal space

[...]

     Starting wfc are  117 randomized atomic wfcs +    4 random wfc

     Self-consistent Calculation

[...]

     iteration # 11     ecut=    36.75 Ry     beta=0.10
     Davidson diagonalization with overlap
     c_bands:  1 eigenvalues not converged
     ethr =  2.21E-06,  avg # of iterations =  7.4

[...]

     total energy              =   -2695.98443691 Ry
     Harris-Foulkes estimate   =   -2695.98443663 Ry
     estimated scf accuracy    <       0.00000403 Ry

     iteration # 16     ecut=    36.75 Ry     beta=0.10
     Davidson diagonalization with overlap
     ethr =  2.20E-09,  avg # of iterations =  2.0

[...]

     negative rho (up, down):  6.031E-04 0.000E+00

     Adding external electric field

     Computed dipole along edir(3) :
        Dipole               -0.0153 Ry au,         -0.0390 Debye
        Dipole field         -0.0000 Ry au

        Potential amp.        0.0027 Ry
        Total length         46.9675 bohr

     End of self-consistent calculation

[...]

          k = 0.0496 0.0000 0.0000 ( 25342 PWs)   bands (ev):

[...]

          k =-0.0743-0.1288 0.0000 ( 25366 PWs)   bands (ev):

   -94.4192 -94.4032 -94.3966 -94.3966 -94.3749 -94.3749 -94.2926 -94.2925
   -94.2734 -21.5678 -21.5493 -21.5372 -21.5332 -21.5286 -21.5253 -21.5199
   -21.5152 -21.5140 -21.5043 -21.5024 -21.4975 -21.4970 -21.4913 -21.4891
   -21.4872 -21.4844 -21.4837 -21.4810 -21.4803 -21.4771 -21.4736 -21.4698
   -21.4669 -21.4623 -21.4593 -21.4549 -21.4542 -21.4481 -21.4468 -21.4441
   -21.4394 -21.4344 -21.4254 -21.4247 -21.4218 -21.4174 -21.4090 -21.4075
   -21.4035 -21.3999 -21.3929 -21.3738 -21.3697 -21.3531 -14.7374 -14.7289
   -14.7287 -14.7189 -14.7150 -14.7148 -14.7089 -14.7087 -14.6909 -14.6908
   -14.6227 -14.6225 -14.6070 -14.6066 -14.6042  -8.9762  -8.7468  -7.6268
    -7.5053  -6.8059  -6.4400  -5.9018  -5.6624  -5.3807  -4.8939  -4.3093
    -3.6731  -1.6721  -1.4800  -1.3011  -1.2629  -1.2032  -1.0523  -0.3355
    -0.2953   0.0436   0.1966   0.5913   0.8566   1.0666   1.1206   1.3738
     1.7505   1.7765   1.8764   1.9102   2.2459   2.3725   2.5289   3.2033
     3.3665   3.5517   3.8648   3.9279   4.0036   4.3882   4.5471   4.7513
     4.7940   4.8805   5.1088   5.4452   5.4700   5.5770   5.6061   5.6165
     5.7912

     the Fermi energy is     0.4674 ev

!    total energy              =   -2695.98443750 Ry
     Harris-Foulkes estimate   =   -2695.98443764 Ry
     estimated scf accuracy    <       0.00000071 Ry

     The total energy is the sum of the following terms:

     one-electron contribution =  -13401.48389639 Ry
     hartree contribution      =    6748.28516706 Ry
     xc contribution           =    -549.30216143 Ry
     ewald contribution        =    4506.55254290 Ry
     electric field correction =       0.00000044 Ry
     smearing contrib. (-TS)   =      -0.03609007 Ry

     convergence has been achieved in  16 iterations

 BEEF-vdW xc energy contributions
           1 :   -485.036732702764
           2 :    442.964873672333
           3 :   -371.847011016302
           4 :    291.770310308434
           5 :   -221.439304227104
           6 :    171.422594023231
           7 :   -141.966478351444
           8 :    125.734672783915
           9 :   -113.417577517373
          10 :    98.9413501515986
          11 :   -81.6867938936748
          12 :    65.1280199220296
          13 :   -53.3960963688814
          14 :    48.1841337848727
          15 :   -47.7938025045671
          16 :    48.5228442384571
          17 :   -47.1414692764787
          18 :    42.7310936345607
          19 :   -36.8270983817066
          20 :    32.0151861828557
          21 :   -30.0822102329505
          22 :    30.9443719422904
          23 :   -32.9200362038841
          24 :    33.9800569282753
          25 :   -33.0461160594846
          26 :    30.5072736706535
          27 :   -27.7451289803901
          28 :    26.1122945653193
          29 :   -26.0897035945152
          30 :    27.1208947938230
          31 :   -40.5134689385947
          32 :   -28.9754666622031

     Forces acting on atoms (Ry/au):

     negative rho (up, down):  6.031E-04 0.000E+00
     atom    1 type  1   force =     0.00000077   -0.00022492    0.00952045
     atom    2 type  1   force =    -0.00019767    0.00011433    0.00951741
     atom    3 type  1   force =     0.00019462    0.00011174    0.00951975
     atom    4 type  2   force =     0.00000112   -0.00000007    0.00355222
     atom    5 type  1   force =    -0.00000141    0.00208166   -0.00829916
     atom    6 type  1   force =     0.00180553   -0.00104255   -0.00829810
     atom    7 type  1   force =    -0.00180385   -0.00104017   -0.00829923
     atom    8 type  2   force =     0.00000082    0.00000033   -0.00605767
     atom    9 type  1   force =    -0.00000055   -0.00173493    0.00022999
     atom   10 type  1   force =    -0.00150121    0.00086690    0.00022895
     atom   11 type  1   force =     0.00150248    0.00086800    0.00022826
     atom   12 type  2   force =    -0.00000066   -0.00000032   -0.00184287

     Total force =     0.023527     Total SCF correction =     0.002775
     SCF correction compared to forces is large: reduce conv_thr to get better values

     entering subroutine stress ...

     negative rho (up, down):  6.031E-04 0.000E+00
          total   stress  (Ry/bohr**3)                   (kbar)     P=   -3.48
  -0.00001966   0.00000000  -0.00000000         -2.89      0.00     -0.00
   0.00000000  -0.00001966  -0.00000000          0.00     -2.89     -0.00
  -0.00000000  -0.00000000  -0.00003172         -0.00     -0.00     -4.67

 !ASE

     Writing output data file calc.save

     General routines

     Parallel routines

   This run was terminated on:  13:56: 4   1Jan2019

   JOB DONE.
Job  /afs/slac/g/suncat/bin/suncat-tsmpirun -x LD_LIBRARY_PATH -wdir /scratch/qe649005_VMMSE pw.x -in pw.inp

TID   HOST_NAME   COMMAND_LINE            STATUS            TERMINATION_TIME
00000 suncat0154 pw.x -in pw.inp   Done                     01/01/2019 13:56:04
00001 suncat0154 pw.x -in pw.inp   Done                     01/01/2019 13:56:04
00002 suncat0154 pw.x -in pw.inp   Done                     01/01/2019 13:56:04
00003 suncat0154 pw.x -in pw.inp   Done                     01/01/2019 13:56:04
00004 suncat0154 pw.x -in pw.inp   Done                     01/01/2019 13:56:04
00005 suncat0154 pw.x -in pw.inp   Done                     01/01/2019 13:56:04
00006 suncat0154 pw.x -in pw.inp   Done                     01/01/2019 13:56:04
00007 suncat0154 pw.x -in pw.inp   Done                     01/01/2019 13:56:04
00008 suncat0143 pw.x -in pw.inp   Done                     01/01/2019 13:56:04
00009 suncat0143 pw.x -in pw.inp   Done                     01/01/2019 13:56:04
00010 suncat0143 pw.x -in pw.inp   Done                     01/01/2019 13:56:04
00011 suncat0143 pw.x -in pw.inp   Done                     01/01/2019 13:56:04
00012 suncat0143 pw.x -in pw.inp   Done                     01/01/2019 13:56:04
00013 suncat0143 pw.x -in pw.inp   Done                     01/01/2019 13:56:04
00014 suncat0143 pw.x -in pw.inp   Done                     01/01/2019 13:56:04
00015 suncat0143 pw.x -in pw.inp   Done                     01/01/2019 13:56:04
00016 suncat0108 pw.x -in pw.inp   Done                     01/01/2019 13:56:04
00017 suncat0108 pw.x -in pw.inp   Done                     01/01/2019 13:56:04
00018 suncat0108 pw.x -in pw.inp   Done                     01/01/2019 13:56:04
00019 suncat0108 pw.x -in pw.inp   Done                     01/01/2019 13:56:04
00020 suncat0108 pw.x -in pw.inp   Done                     01/01/2019 13:56:04
00021 suncat0108 pw.x -in pw.inp   Done                     01/01/2019 13:56:04
00022 suncat0108 pw.x -in pw.inp   Done                     01/01/2019 13:56:04
00023 suncat0108 pw.x -in pw.inp   Done                     01/01/2019 13:56:04
00024 suncat0252 pw.x -in pw.inp   Done                     01/01/2019 13:56:04
00025 suncat0252 pw.x -in pw.inp   Done                     01/01/2019 13:56:04
00026 suncat0252 pw.x -in pw.inp   Done                     01/01/2019 13:56:04
00027 suncat0252 pw.x -in pw.inp   Done                     01/01/2019 13:56:04
00028 suncat0252 pw.x -in pw.inp   Done                     01/01/2019 13:56:04
00029 suncat0252 pw.x -in pw.inp   Done                     01/01/2019 13:56:04
00030 suncat0252 pw.x -in pw.inp   Done                     01/01/2019 13:56:04
00031 suncat0252 pw.x -in pw.inp   Done                     01/01/2019 13:56:04
00032 suncat0226 pw.x -in pw.inp   Done                     01/01/2019 13:56:04
00033 suncat0226 pw.x -in pw.inp   Done                     01/01/2019 13:56:04
00034 suncat0226 pw.x -in pw.inp   Done                     01/01/2019 13:56:04
00035 suncat0226 pw.x -in pw.inp   Done                     01/01/2019 13:56:04
00036 suncat0226 pw.x -in pw.inp   Done                     01/01/2019 13:56:04
00037 suncat0226 pw.x -in pw.inp   Done                     01/01/2019 13:56:04
00038 suncat0226 pw.x -in pw.inp   Done                     01/01/2019 13:56:04
00039 suncat0226 pw.x -in pw.inp   Done                     01/01/2019 13:56:04
00040 suncat0225 pw.x -in pw.inp   Done                     01/01/2019 13:56:04
00041 suncat0225 pw.x -in pw.inp   Done                     01/01/2019 13:56:04
00042 suncat0225 pw.x -in pw.inp   Done                     01/01/2019 13:56:04
00043 suncat0225 pw.x -in pw.inp   Done                     01/01/2019 13:56:04
00044 suncat0225 pw.x -in pw.inp   Done                     01/01/2019 13:56:04
00045 suncat0225 pw.x -in pw.inp   Done                     01/01/2019 13:56:04
00046 suncat0225 pw.x -in pw.inp   Done                     01/01/2019 13:56:04
00047 suncat0225 pw.x -in pw.inp   Done                     01/01/2019 13:56:04
00048 suncat0224 pw.x -in pw.inp   Done                     01/01/2019 13:56:04
00049 suncat0224 pw.x -in pw.inp   Done                     01/01/2019 13:56:04
00050 suncat0224 pw.x -in pw.inp   Done                     01/01/2019 13:56:04
00051 suncat0224 pw.x -in pw.inp   Done                     01/01/2019 13:56:04
00052 suncat0224 pw.x -in pw.inp   Done                     01/01/2019 13:56:04
00053 suncat0224 pw.x -in pw.inp   Done                     01/01/2019 13:56:04
00054 suncat0224 pw.x -in pw.inp   Done                     01/01/2019 13:56:04
00055 suncat0224 pw.x -in pw.inp   Done                     01/01/2019 13:56:04
00056 suncat0223 pw.x -in pw.inp   Done                     01/01/2019 13:56:04
00057 suncat0223 pw.x -in pw.inp   Done                     01/01/2019 13:56:04
00058 suncat0223 pw.x -in pw.inp   Done                     01/01/2019 13:56:04
00059 suncat0223 pw.x -in pw.inp   Done                     01/01/2019 13:56:04
00060 suncat0223 pw.x -in pw.inp   Done                     01/01/2019 13:56:04
00061 suncat0223 pw.x -in pw.inp   Done                     01/01/2019 13:56:04
00062 suncat0223 pw.x -in pw.inp   Done                     01/01/2019 13:56:04
00063 suncat0223 pw.x -in pw.inp   Done                     01/01/2019 13:56:04