     Program PWSCF v.5.1rc2 (svn rev. 11289) starts on 27Dec2018 at 21:43:12

     Current dimensions of program PWSCF are:
     Max number of different atomic species (ntypx) = 10
     Max number of k-points (npk) =  40000
     Max angular momentum in pseudopotentials (lmaxx) =  3
     Presently stress not available with electric field

     IMPORTANT: XC functional enforced from input :
     Exchange-correlation      = BEEF-VDW ( 1  4 27 13 2)
     Any further DFT definition will be discarded
     Please, verify this is what you really want

     Subspace diagonalization in iterative solution of the eigenvalue problem:
     a serial algorithm will be used

     bravais-lattice index     =            0
     lattice parameter (alat)  =       1.8897  a.u.
     unit-cell volume          =    4517.9137 (a.u.)^3
     number of atoms/cell      =           12
     number of atomic types    =            2
     number of electrons       =       186.00
     number of Kohn-Sham states=          123
     kinetic-energy cutoff     =      36.7493  Ry
     charge density cutoff     =     367.4932  Ry
     convergence threshold     =      1.0E-06
     mixing beta               =       0.1000
     number of iterations used =           10  plain     mixing
     Exchange-correlation      = BEEF-VDW ( 1  4 27 13 2)
     nstep                     =           50

     celldm(1)=   1.889726  celldm(2)=   0.000000  celldm(3)=   0.000000
     celldm(4)=   0.000000  celldm(5)=   0.000000  celldm(6)=   0.000000

     crystal axes: (cart. coord. in units of alat)
               a(1) = (   5.608189   0.000000   0.000000 )
               a(2) = (  -2.804095   4.856834   0.000000 )
               a(3) = (   0.000000   0.000000  24.579067 )

     reciprocal axes: (cart. coord. in units 2 pi/alat)
               b(1) = (  0.178311  0.102948  0.000000 )
               b(2) = (  0.000000  0.205895  0.000000 )
               b(3) = (  0.000000  0.000000  0.040685 )

     PseudoPot. # 1 for Ru read from file:
     /afs/slac.stanford.edu/u/if/mamunm/psp/gbrv1.5pbe/Ru.UPF
     MD5 check sum: 7158a806dd851261a58e6920c40ebe78
     Pseudo is Ultrasoft + core correction, Zval = 16.0
     Generated by new atomic code, or converted to UPF format
     Using radial grid of  967 points,  6 beta functions with:
                l(1) =   0
                l(2) =   0
                l(3) =   1
                l(4) =   1
                l(5) =   2
                l(6) =   2
     Q(r) pseudized with  8 coefficients,  rinner =    1.300   1.300   1.300
                                                       1.300   1.300

     PseudoPot. # 2 for Sn read from file:
     /afs/slac.stanford.edu/u/if/mamunm/psp/gbrv1.5pbe/Sn.UPF
     MD5 check sum: 469debedee59599fedebd795477fea03
     Pseudo is Ultrasoft + core correction, Zval = 14.0
     Generated by new atomic code, or converted to UPF format
     Using radial grid of  891 points,  6 beta functions with:
                l(1) =   0
                l(2) =   0
                l(3) =   1
                l(4) =   1
                l(5) =   2
                l(6) =   2
     Q(r) pseudized with  8 coefficients,  rinner =    1.350   1.350   1.350
                                                       1.350   1.350

     vdW kernel table read from file vdW_kernel_table
     MD5 check sum: 095c7af220d748ca6e76c0b4c6cfb241

     atomic species   valence    mass     pseudopotential
        Ru1           16.00   101.07000     Ru( 1.00)
        Sn1           14.00   118.71000     Sn( 1.00)

     No symmetry found

   Cartesian axes

     site n.     atom                  positions (alat units)
         1           Ru1 tau(   1) = (   0.0000000   0.0000000  10.0000000  )
         2           Ru1 tau(   2) = (  -1.4020473   2.4284171  10.0000000  )
         3           Ru1 tau(   3) = (   1.4020473   2.4284171  10.0000000  )
         4           Sn1 tau(   4) = (   2.8040946   0.0000000  10.0000000  )
         5           Ru1 tau(   5) = (   2.8040946   1.6189447  12.2895336  )
         6           Ru1 tau(   6) = (   1.4020473   4.0473619  12.2895336  )
         7           Ru1 tau(   7) = (  -1.4020473   4.0473619  12.2895336  )
         8           Sn1 tau(   8) = (   0.0000000   1.6189447  12.2895336  )
         9           Ru1 tau(   9) = (  -0.0000000   3.2378895  14.5790672  )
        10           Ru1 tau(  10) = (   1.4020473   0.8094724  14.5790672  )
        11           Ru1 tau(  11) = (   4.2061418   0.8094724  14.5790672  )
        12           Sn1 tau(  12) = (   2.8040946   3.2378895  14.5790672  )

     number of k points=    20  Fermi-Dirac smearing, width (Ry)=  0.0110
                       cart. coord. in units 2pi/alat
        k(    1) = (   0.0000000   0.0000000   0.0000000), wk =   0.0555556
        k(    2) = (   0.0000000   0.0343159   0.0000000), wk =   0.1111111
        k(    3) = (   0.0000000   0.0686318   0.0000000), wk =   0.1111111
        k(    4) = (   0.0000000  -0.1029477   0.0000000), wk =   0.0555556
        k(    5) = (   0.0297184   0.0171580   0.0000000), wk =   0.1111111
        k(    6) = (   0.0297184   0.0514739   0.0000000), wk =   0.1111111
        k(    7) = (   0.0297184   0.0857898   0.0000000), wk =   0.1111111
        k(    8) = (   0.0297184  -0.0857898   0.0000000), wk =   0.1111111
        k(    9) = (   0.0297184  -0.0514739   0.0000000), wk =   0.1111111
        k(   10) = (   0.0297184  -0.0171580   0.0000000), wk =   0.1111111
        k(   11) = (   0.0594369   0.0343159   0.0000000), wk =   0.1111111
        k(   12) = (   0.0594369   0.0686318   0.0000000), wk =   0.1111111
        k(   13) = (   0.0594369   0.1029477   0.0000000), wk =   0.1111111
        k(   14) = (   0.0594369  -0.0686318   0.0000000), wk =   0.1111111
        k(   15) = (   0.0594369  -0.0343159   0.0000000), wk =   0.1111111
        k(   16) = (   0.0594369   0.0000000   0.0000000), wk =   0.1111111
        k(   17) = (  -0.0891553  -0.0514739   0.0000000), wk =   0.0555556
        k(   18) = (  -0.0891553  -0.0171580   0.0000000), wk =   0.1111111
        k(   19) = (  -0.0891553   0.0171580   0.0000000), wk =   0.1111111
        k(   20) = (  -0.0891553  -0.1544216   0.0000000), wk =   0.0555556

     Largest allocated arrays     est. size (Mb)     dimensions
     Largest temporary arrays     est. size (Mb)     dimensions

     Initial potential from superposition of free atoms
     Check: negative starting charge=   -0.665393

     starting charge  173.99972, renormalised to  186.00000

     negative rho (up, down):  7.113E-01 0.000E+00

     *
     * You are using vdW-DF for exchange-correlation in this calculation.
     * Please cite the following three references that made this development
     * possible:
     *
     *   M. Dion, H. Rydberg, E. Schroder, D. C. Langreth, and
     *   B. I. Lundqvist, Phys. Rev. Lett. 92, 246401 (2004).
     *
     *   T. Thonhauser, V. R. Cooper, S. Li, A. Puzder, P. Hyldgaard, and
     *   D. C. Langreth, Phys. Rev. B 76, 125112 (2007).
     *
     *   G. Roman-Perez and J. M. Soler, Phys. Rev. Lett. 103, 096102 (2009).
     *
     *
     * If you are using vdW-DF2, please also cite:
     *
     *   K. Lee, E. D. Murray, L. Kong, B. I. Lundqvist, and
     *   D. C. Langreth, Phys. Rev. B 82, 081101(R) (2010).
     *
     *
     * If you are calculating the stress with vdW-DF, please also cite:
     *
     *   R. Sabatini, E. Kucukbenli, B. Kolb, T. Thonhauser, and
     *   S. de Gironcoli, J. Phys.: Condens. Matter 24, 424209 (2012).
     *

     Carrying out vdW-DF run using the following parameters:

     Nqs =      20    Nr_points =    1024   r_max =   100.000
     q_mesh =
               0.00001000     0.04494208     0.09755937     0.15916263
               0.23128650     0.31572767     0.41458969     0.53033537
               0.66584808     0.82450364     1.01025438     1.22772762
               1.48234092     1.78043706     2.12944203     2.53805004
               3.01644009     3.57652955     4.23227104     5.00000000

     Gradients computed in reciprocal space

     Adding external electric field

     Computed dipole along edir(3) :
        Dipole                0.0000 Ry au,          0.0000 Debye
        Dipole field          0.0000 Ry au

        Potential amp.       -0.0000 Ry
        Total length         45.2865 bohr

     Starting wfc are  144 randomized atomic wfcs

     Self-consistent Calculation

     iteration #  1     ecut=    36.75 Ry     beta=0.10
     Davidson diagonalization with overlap
     ethr =  1.00E-02,  avg # of iterations =  7.5

[...]

     total energy              =   -2238.31720944 Ry
     Harris-Foulkes estimate   =   -2243.30017703 Ry
     estimated scf accuracy    <      29.91733844 Ry

[...]

     End of self-consistent calculation

          k = 0.0000 0.0000 0.0000 ( 16955 PWs)   bands (ev):

   -70.6665 -70.6151 -70.6150 -70.4151 -70.4128 -70.3653 -70.3653 -70.3647
   -70.3647 -40.8775 -40.7775 -40.7774 -40.7308 -40.6776 -40.6662 -40.6661
   -40.6239 -40.5387 -40.4823 -40.4823 -40.4247 -40.4247 -40.3794 -40.3793
   -40.3470 -40.3002 -40.3001 -40.2738 -40.2622 -40.2622 -40.2387 -40.2286
   -40.1974 -40.1973 -40.1927 -40.1927 -19.7380 -19.7380 -19.7273 -19.7076
   -19.7076 -19.3930 -19.3859 -19.3563 -19.3563 -19.3476 -19.3476 -19.3299
   -19.3299 -19.3296 -19.3296  -7.6940  -6.2613  -6.1670  -2.8567  -2.5845
    -2.4001  -1.9092  -1.9091  -1.6994  -1.5895  -1.5895  -1.5563  -1.5563
    -1.3814  -1.3814  -1.3755  -0.7990  -0.7990  -0.3224  -0.1347  -0.1347
    -0.1008   0.3705   0.3954   0.3954   0.5177   0.5177   0.6625   1.0600
     1.3220   1.3220   1.3353   1.3353   1.3506   1.6164   1.6164   1.7561
     1.7561   1.7611   2.1357   2.1357   2.1838   2.1839   2.4208   2.4208
     3.0154   3.0186   3.0446   3.0446   3.5369   3.5926   3.7185   3.7639
     3.7639   3.7780   3.8386   4.1436   4.1436   4.9514   5.1705   6.0769
     6.4428   6.5934   6.9933   7.7612   8.6653   8.7002   8.7002   8.7207
     8.7207   9.3460   9.3460

[...]

          k =-0.0892-0.0515 0.0000 ( 17060 PWs)   bands (ev):

[...]

     the Fermi energy is     2.0539 ev

!    total energy              =   -2237.94327463 Ry
     Harris-Foulkes estimate   =   -2237.94452612 Ry
     estimated scf accuracy    <       0.00000070 Ry

     The total energy is the sum of the following terms:

     one-electron contribution =  -18972.34777057 Ry
     hartree contribution      =    9504.54547943 Ry
     xc contribution           =    -375.54140856 Ry
     ewald contribution        =    7605.50796444 Ry
     electric field correction =       0.00000000 Ry
     smearing contrib. (-TS)   =      -0.10753936 Ry

     convergence has been achieved in  19 iterations

 BEEF-vdW xc energy contributions
           1 :   -327.242433755093
           2 :    300.266922677715
           3 :   -253.888376679995
           4 :    200.111380010654
           5 :   -150.855490871526
           6 :    114.067467370373
           7 :   -91.8912045381974
           8 :    81.3158207016155
           9 :   -76.6589970591194
          10 :    72.5391610293885
          11 :   -65.9888296158944
          12 :    56.9714498171186
[...]
     MD5 check sum: 7158a806dd851261a58e6920c40ebe78
     Pseudo is Ultrasoft + core correction, Zval = 16.0
     Generated by new atomic code, or converted to UPF format
     Using radial grid of  967 points,  6 beta functions with:
                l(1) =   0
                l(2) =   0
                l(3) =   1
                l(4) =   1
                l(5) =   2
                l(6) =   2
     Q(r) pseudized with  8 coefficients,  rinner =    1.300   1.300   1.300
                                                       1.300   1.300

     PseudoPot. # 2 for Sn read from file:
     /afs/slac.stanford.edu/u/if/mamunm/psp/gbrv1.5pbe/Sn.UPF
     MD5 check sum: 469debedee59599fedebd795477fea03
     Pseudo is Ultrasoft + core correction, Zval = 14.0
     Generated by new atomic code, or converted to UPF format
     Using radial grid of  891 points,  6 beta functions with:
                l(1) =   0
                l(2) =   0
                l(3) =   1
                l(4) =   1
                l(5) =   2
                l(6) =   2
     Q(r) pseudized with  8 coefficients,  rinner =    1.350   1.350   1.350
                                                       1.350   1.350

     vdW kernel table read from file vdW_kernel_table
     MD5 check sum: 095c7af220d748ca6e76c0b4c6cfb241

     atomic species   valence    mass     pseudopotential
        Ru1           16.00   101.07000     Ru( 1.00)
        Sn1           14.00   118.71000     Sn( 1.00)

     No symmetry found

   Cartesian axes

     site n.     atom                  positions (alat units)
         1           Ru1 tau(   1) = (   0.0000000   0.0000000  10.0000000  )
         2           Ru1 tau(   2) = (  -1.4020473   2.4284171  10.0000000  )
         3           Ru1 tau(   3) = (   1.4020473   2.4284171  10.0000000  )
         4           Sn1 tau(   4) = (   2.8040946   0.0000000  10.0000000  )
         5           Ru1 tau(   5) = (   2.8040946   1.6189447  12.2895336  )
         6           Ru1 tau(   6) = (   1.4020473   4.0473619  12.2895336  )
         7           Ru1 tau(   7) = (  -1.4020473   4.0473619  12.2895336  )
         8           Sn1 tau(   8) = (   0.0000000   1.6189447  12.2895336  )
         9           Ru1 tau(   9) = (  -0.0000994   3.2906098  14.4451445  )
        10           Ru1 tau(  10) = (   1.4476738   0.7830961  14.4451043  )
        11           Ru1 tau(  11) = (   4.1604637   0.7831808  14.4451374  )
        12           Sn1 tau(  12) = (   2.8039749   3.2379268  14.7583506  )

     number of k points=    20  Fermi-Dirac smearing, width (Ry)=  0.0110
                       cart. coord. in units 2pi/alat
        k(    1) = (   0.0000000   0.0000000   0.0000000), wk =   0.0555556
        k(    2) = (   0.0000000   0.0343159   0.0000000), wk =   0.1111111
        k(    3) = (   0.0000000   0.0686318   0.0000000), wk =   0.1111111
        k(    4) = (   0.0000000  -0.1029477   0.0000000), wk =   0.0555556
        k(    5) = (   0.0297184   0.0171580   0.0000000), wk =   0.1111111
        k(    6) = (   0.0297184   0.0514739   0.0000000), wk =   0.1111111
        k(    7) = (   0.0297184   0.0857898   0.0000000), wk =   0.1111111
        k(    8) = (   0.0297184  -0.0857898   0.0000000), wk =   0.1111111
        k(    9) = (   0.0297184  -0.0514739   0.0000000), wk =   0.1111111
        k(   10) = (   0.0297184  -0.0171580   0.0000000), wk =   0.1111111
        k(   11) = (   0.0594369   0.0343159   0.0000000), wk =   0.1111111
        k(   12) = (   0.0594369   0.0686318   0.0000000), wk =   0.1111111
        k(   13) = (   0.0594369   0.1029477   0.0000000), wk =   0.1111111
        k(   14) = (   0.0594369  -0.0686318   0.0000000), wk =   0.1111111
        k(   15) = (   0.0594369  -0.0343159   0.0000000), wk =   0.1111111
        k(   16) = (   0.0594369   0.0000000   0.0000000), wk =   0.1111111
        k(   17) = (  -0.0891553  -0.0514739   0.0000000), wk =   0.0555556
        k(   18) = (  -0.0891553  -0.0171580   0.0000000), wk =   0.1111111
        k(   19) = (  -0.0891553   0.0171580   0.0000000), wk =   0.1111111
        k(   20) = (  -0.0891553  -0.1544216   0.0000000), wk =   0.0555556

     Largest allocated arrays     est. size (Mb)     dimensions
     Largest temporary arrays     est. size (Mb)     dimensions

     Initial potential from superposition of free atoms
     Check: negative starting charge=   -0.662362

     starting charge  173.99972, renormalised to  186.00000

[...]

     *
     * You are using vdW-DF for exchange-correlation in this calculation.
     * Please cite the following three references that made this development
     * possible:
     *
     *   M. Dion, H. Rydberg, E. Schroder, D. C. Langreth, and
     *   B. I. Lundqvist, Phys. Rev. Lett. 92, 246401 (2004).
     *
     *   T. Thonhauser, V. R. Cooper, S. Li, A. Puzder, P. Hyldgaard, and
     *   D. C. Langreth, Phys. Rev. B 76, 125112 (2007).
     *
     *   G. Roman-Perez and J. M. Soler, Phys. Rev. Lett. 103, 096102 (2009).
     *
     *
     * If you are using vdW-DF2, please also cite:
     *
     *   K. Lee, E. D. Murray, L. Kong, B. I. Lundqvist, and
     *   D. C. Langreth, Phys. Rev. B 82, 081101(R) (2010).
     *
     *
     * If you are calculating the stress with vdW-DF, please also cite:
     *
     *   R. Sabatini, E. Kucukbenli, B. Kolb, T. Thonhauser, and
     *   S. de Gironcoli, J. Phys.: Condens. Matter 24, 424209 (2012).
     *

     Carrying out vdW-DF run using the following parameters:

     Nqs =      20    Nr_points =    1024   r_max =   100.000
     q_mesh =
               0.00001000     0.04494208     0.09755937     0.15916263
               0.23128650     0.31572767     0.41458969     0.53033537
               0.66584808     0.82450364     1.01025438     1.22772762
               1.48234092     1.78043706     2.12944203     2.53805004
               3.01644009     3.57652955     4.23227104     5.00000000

     Gradients computed in reciprocal space

[...]

     Starting wfc are  144 randomized atomic wfcs

     Self-consistent Calculation

[...]

     total energy              =   -2237.96454246 Ry
     Harris-Foulkes estimate   =   -2237.96454302 Ry
     estimated scf accuracy    <       0.00000238 Ry

     iteration # 19     ecut=    36.75 Ry     beta=0.10
     Davidson diagonalization with overlap
     ethr =  1.28E-09,  avg # of iterations =  2.0

[...]

     negative rho (up, down):  6.818E-01 0.000E+00

     Adding external electric field

     Computed dipole along edir(3) :
        Dipole                0.0499 Ry au,          0.1268 Debye
        Dipole field          0.0001 Ry au

        Potential amp.       -0.0126 Ry
        Total length         45.2865 bohr

     End of self-consistent calculation

[...]

          k = 0.0594 0.0000 0.0000 ( 16978 PWs)   bands (ev):

[...]

          k =-0.0892-0.1544 0.0000 ( 17060 PWs)   bands (ev):

   -70.6526 -70.6348 -70.6172 -70.4004 -70.3762 -70.3625 -70.3175 -70.3011
   -70.2847 -40.8506 -40.7768 -40.7327 -40.7155 -40.6762 -40.6265 -40.6230
   -40.5507 -40.5421 -40.4872 -40.4034 -40.3996 -40.3573 -40.3436 -40.3366
   -40.3195 -40.3095 -40.2886 -40.2845 -40.2731 -40.2639 -40.2478 -40.2070
   -40.1943 -40.1841 -40.1791 -40.1333 -19.6718 -19.6614 -19.6476 -19.6402
   -19.6395 -19.3969 -19.3582 -19.3578 -19.3329 -19.3084 -19.3013 -19.3003
   -19.2998 -19.2723 -19.2628  -6.6401  -5.9307  -5.4808  -3.4167  -2.8397
    -2.6520  -2.4438  -2.1049  -1.6744  -1.5325  -1.4396  -1.3610  -1.3562
    -1.3408  -1.1488  -0.9363  -0.7275  -0.7079  -0.6910  -0.6201  -0.2763
    -0.2571   0.0001   0.2176   0.2471   0.2751   0.4195   0.5448   0.5590
     0.6386   0.6622   0.8141   0.8219   1.2580   1.2723   1.3984   1.4707
     1.5251   1.5954   1.7595   1.8296   1.8828   1.9041   1.9671   2.0068
     2.3650   2.4847   2.7154   3.0991   3.1375   3.2612   3.6221   4.1156
     4.4777   4.7185   4.7555   5.4264   5.6207   5.7739   7.0822   7.1961
     7.5113   7.8396   7.9573   8.1239   8.3100   8.3158   8.7408   8.8520
     8.9562   9.2472   9.3405

     the Fermi energy is     2.1095 ev

!    total energy              =   -2237.96454070 Ry
     Harris-Foulkes estimate   =   -2237.96454326 Ry
     estimated scf accuracy    <       0.00000068 Ry

     The total energy is the sum of the following terms:

     one-electron contribution =  -19137.69866989 Ry
     hartree contribution      =    9587.38431046 Ry
     xc contribution           =    -375.63952056 Ry
     ewald contribution        =    7688.09506311 Ry
     electric field correction =       0.00000692 Ry
     smearing contrib. (-TS)   =      -0.10573075 Ry

     convergence has been achieved in  19 iterations

 BEEF-vdW xc energy contributions
           1 :   -327.428094533704
           2 :    300.504311042569
           3 :   -254.189355246906
           4 :    200.433037199689
           5 :   -151.120461468194
           6 :    114.206518148752
           7 :   -91.8823722206864
           8 :    81.1988040024269
           9 :   -76.5183259199748
          10 :    72.4654788568192
          11 :   -66.0372417372574
          12 :    57.1365279625754
          13 :   -47.6546423817288
          14 :    39.8715746887615
          15 :   -35.0996148775961
          16 :    33.1642627320879
          17 :   -32.7732078569202
          18 :    32.3738841140681
          19 :   -30.9542232564267
          20 :    28.3927350662165
          21 :   -25.2843367343335
          22 :    22.4522133654534
          23 :   -20.4711251819886
          24 :    19.4398110902897
          25 :   -19.0495158395050
          26 :    18.8291242891976
          27 :   -18.3950463577420
          28 :    17.5846058620899
          29 :   -16.4520192481949
          30 :    15.1803920471286
          31 :   -31.9889510742411
          32 :   -24.0027164565233

     Forces acting on atoms (Ry/au):

     negative rho (up, down):  6.818E-01 0.000E+00
     atom    1 type  1   force =     0.00000603   -0.01192726    0.02178642
     atom    2 type  1   force =    -0.01032967    0.00596617    0.02179476
     atom    3 type  1   force =     0.01032925    0.00595893    0.02177949
     atom    4 type  2   force =     0.00004915   -0.00001009   -0.03363621
     atom    5 type  1   force =     0.00000112    0.01631561   -0.00275793
     atom    6 type  1   force =     0.01412434   -0.00815571   -0.00274956
     atom    7 type  1   force =    -0.01412980   -0.00815984   -0.00276011
     atom    8 type  2   force =    -0.00000362    0.00000193   -0.02552528
     atom    9 type  1   force =    -0.00001222    0.00006185    0.00034409
     atom   10 type  1   force =     0.00005658   -0.00003493    0.00034566
     atom   11 type  1   force =    -0.00005614   -0.00002046    0.00035036
     atom   12 type  2   force =    -0.00003503    0.00000380    0.00102831

     Total force =     0.066756     Total SCF correction =     0.004123

     entering subroutine stress ...

     negative rho (up, down):  6.818E-01 0.000E+00
          total   stress  (Ry/bohr**3)                   (kbar)     P=  -18.45
  -0.00016860  -0.00000001  -0.00000000        -24.80     -0.00     -0.00
  -0.00000001  -0.00016861  -0.00000000         -0.00    -24.80     -0.00
  -0.00000000  -0.00000000  -0.00003913         -0.00     -0.00     -5.76

 !ASE

     Writing output data file calc.save

     General routines

     Parallel routines

   This run was terminated on:   0: 0:13  28Dec2018

   JOB DONE.
Job  /afs/slac/g/suncat/bin/suncat-tsmpirun -x LD_LIBRARY_PATH -wdir /scratch/qe110803_I8Kfk pw.x -in pw.inp

TID   HOST_NAME   COMMAND_LINE            STATUS            TERMINATION_TIME
00000 suncat0271 pw.x -in pw.inp   Done                     12/28/2018 00:00:13
00001 suncat0271 pw.x -in pw.inp   Done                     12/28/2018 00:00:13
00002 suncat0271 pw.x -in pw.inp   Done                     12/28/2018 00:00:13
00003 suncat0271 pw.x -in pw.inp   Done                     12/28/2018 00:00:13
00004 suncat0271 pw.x -in pw.inp   Done                     12/28/2018 00:00:13
00005 suncat0271 pw.x -in pw.inp   Done                     12/28/2018 00:00:13
00006 suncat0271 pw.x -in pw.inp   Done                     12/28/2018 00:00:13
00007 suncat0271 pw.x -in pw.inp   Done                     12/28/2018 00:00:13
00008 suncat0260 pw.x -in pw.inp   Done                     12/28/2018 00:00:13
00009 suncat0260 pw.x -in pw.inp   Done                     12/28/2018 00:00:13
00010 suncat0260 pw.x -in pw.inp   Done                     12/28/2018 00:00:13
00011 suncat0260 pw.x -in pw.inp   Done                     12/28/2018 00:00:13
00012 suncat0260 pw.x -in pw.inp   Done                     12/28/2018 00:00:13
00013 suncat0260 pw.x -in pw.inp   Done                     12/28/2018 00:00:13
00014 suncat0260 pw.x -in pw.inp   Done                     12/28/2018 00:00:13
00015 suncat0260 pw.x -in pw.inp   Done                     12/28/2018 00:00:13
00016 suncat0259 pw.x -in pw.inp   Done                     12/28/2018 00:00:13
00017 suncat0259 pw.x -in pw.inp   Done                     12/28/2018 00:00:13
00018 suncat0259 pw.x -in pw.inp   Done                     12/28/2018 00:00:13
00019 suncat0259 pw.x -in pw.inp   Done                     12/28/2018 00:00:13
00020 suncat0259 pw.x -in pw.inp   Done                     12/28/2018 00:00:13
00021 suncat0259 pw.x -in pw.inp   Done                     12/28/2018 00:00:13
00022 suncat0259 pw.x -in pw.inp   Done                     12/28/2018 00:00:13
00023 suncat0259 pw.x -in pw.inp   Done                     12/28/2018 00:00:13
00024 suncat0232 pw.x -in pw.inp   Done                     12/28/2018 00:00:13
00025 suncat0232 pw.x -in pw.inp   Done                     12/28/2018 00:00:13
00026 suncat0232 pw.x -in pw.inp   Done                     12/28/2018 00:00:13
00027 suncat0232 pw.x -in pw.inp   Done                     12/28/2018 00:00:13
00028 suncat0232 pw.x -in pw.inp   Done                     12/28/2018 00:00:13
00029 suncat0232 pw.x -in pw.inp   Done                     12/28/2018 00:00:13
00030 suncat0232 pw.x -in pw.inp   Done                     12/28/2018 00:00:13
00031 suncat0232 pw.x -in pw.inp   Done                     12/28/2018 00:00:13
00032 suncat0220 pw.x -in pw.inp   Done                     12/28/2018 00:00:13
00033 suncat0220 pw.x -in pw.inp   Done                     12/28/2018 00:00:13
00034 suncat0220 pw.x -in pw.inp   Done                     12/28/2018 00:00:13
00035 suncat0220 pw.x -in pw.inp   Done                     12/28/2018 00:00:13
00036 suncat0220 pw.x -in pw.inp   Done                     12/28/2018 00:00:13
00037 suncat0220 pw.x -in pw.inp   Done                     12/28/2018 00:00:13
00038 suncat0220 pw.x -in pw.inp   Done                     12/28/2018 00:00:13
00039 suncat0220 pw.x -in pw.inp   Done                     12/28/2018 00:00:13
00040 suncat0219 pw.x -in pw.inp   Done                     12/28/2018 00:00:13
00041 suncat0219 pw.x -in pw.inp   Done                     12/28/2018 00:00:13
00042 suncat0219 pw.x -in pw.inp   Done                     12/28/2018 00:00:13
00043 suncat0219 pw.x -in pw.inp   Done                     12/28/2018 00:00:13
00044 suncat0219 pw.x -in pw.inp   Done                     12/28/2018 00:00:13
00045 suncat0219 pw.x -in pw.inp   Done                     12/28/2018 00:00:13
00046 suncat0219 pw.x -in pw.inp   Done                     12/28/2018 00:00:13
00047 suncat0219 pw.x -in pw.inp   Done                     12/28/2018 00:00:13
00048 suncat0201 pw.x -in pw.inp   Done                     12/28/2018 00:00:13
00049 suncat0201 pw.x -in pw.inp   Done                     12/28/2018 00:00:13
00050 suncat0201 pw.x -in pw.inp   Done                     12/28/2018 00:00:13
00051 suncat0201 pw.x -in pw.inp   Done                     12/28/2018 00:00:13
00052 suncat0201 pw.x -in pw.inp   Done                     12/28/2018 00:00:13
00053 suncat0201 pw.x -in pw.inp   Done                     12/28/2018 00:00:13
00054 suncat0201 pw.x -in pw.inp   Done                     12/28/2018 00:00:13
00055 suncat0201 pw.x -in pw.inp   Done                     12/28/2018 00:00:13
00056 suncat0200 pw.x -in pw.inp   Done                     12/28/2018 00:00:13
00057 suncat0200 pw.x -in pw.inp   Done                     12/28/2018 00:00:13
00058 suncat0200 pw.x -in pw.inp   Done                     12/28/2018 00:00:13
00059 suncat0200 pw.x -in pw.inp   Done                     12/28/2018 00:00:13
00060 suncat0200 pw.x -in pw.inp   Done                     12/28/2018 00:00:13
00061 suncat0200 pw.x -in pw.inp   Done                     12/28/2018 00:00:13
00062 suncat0200 pw.x -in pw.inp   Done                     12/28/2018 00:00:13
00063 suncat0200 pw.x -in pw.inp   Done                     12/28/2018 00:00:13