     Program PWSCF v.5.1rc2 (svn rev. 11289) starts on 19Dec2018 at 18:20:54

     Current dimensions of program PWSCF are:
     Max number of different atomic species (ntypx) = 10
     Max number of k-points (npk) =  40000
     Max angular momentum in pseudopotentials (lmaxx) =  3
     Presently stress not available with electric field

     IMPORTANT: XC functional enforced from input :
     Exchange-correlation      = BEEF-VDW ( 1  4 27 13 2)
     Any further DFT definition will be discarded
     Please, verify this is what you really want

     Subspace diagonalization in iterative solution of the eigenvalue problem:
     a serial algorithm will be used

     bravais-lattice index     =            0
     lattice parameter (alat)  =       1.8897  a.u.
     unit-cell volume          =    4518.8819 (a.u.)^3
     number of atoms/cell      =           12
     number of atomic types    =            2
     number of electrons       =        63.00
     number of Kohn-Sham states=           61
     kinetic-energy cutoff     =      36.7493  Ry
     charge density cutoff     =     367.4932  Ry
     convergence threshold     =      1.0E-06
     mixing beta               =       0.1000
     number of iterations used =           10  plain     mixing
     Exchange-correlation      = BEEF-VDW ( 1  4 27 13 2)
     nstep                     =           50

     celldm(1)=   1.889726  celldm(2)=   0.000000  celldm(3)=   0.000000
     celldm(4)=   0.000000  celldm(5)=   0.000000  celldm(6)=   0.000000

     crystal axes: (cart. coord. in units of alat)
               a(1) = (   5.608739   0.000000   0.000000 )
               a(2) = (  -2.804369   4.857310   0.000000 )
               a(3) = (   0.000000   0.000000  24.579516 )

     reciprocal axes: (cart. coord. in units 2 pi/alat)
               b(1) = (  0.178293  0.102938  0.000000 )
               b(2) = (  0.000000  0.205875  0.000000 )
               b(3) = (  0.000000  0.000000  0.040684 )

     PseudoPot. # 1 for Al read from file:
     /afs/slac.stanford.edu/u/if/mamunm/psp/gbrv1.5pbe/Al.UPF
     MD5 check sum: 0a6289f5291fc8f409219462bc851e1f
     Pseudo is Ultrasoft + core correction, Zval =  3.0
     Generated by new atomic code, or converted to UPF format
     Using radial grid of  893 points,  3 beta functions with:
                l(1) =   0
                l(2) =   1
                l(3) =   2
     Q(r) pseudized with  8 coefficients,  rinner =    0.900   0.900   0.900
                                                       0.900   0.900

     PseudoPot. # 2 for Ti read from file:
     /afs/slac.stanford.edu/u/if/mamunm/psp/gbrv1.5pbe/Ti.UPF
     MD5 check sum: 88a00a6731bd790ddea75d31a80cb452
     Pseudo is Ultrasoft + core correction, Zval = 12.0
     Generated by new atomic code, or converted to UPF format
     Using radial grid of  851 points,  6 beta functions with:
                l(1) =   0
                l(2) =   0
                l(3) =   1
                l(4) =   1
                l(5) =   2
                l(6) =   2
     Q(r) pseudized with  6 coefficients,  rinner =    1.000   1.000   1.000
                                                       1.000   1.000

     vdW kernel table read from file vdW_kernel_table
     MD5 check sum: 095c7af220d748ca6e76c0b4c6cfb241

     atomic species   valence    mass     pseudopotential
        Al1            3.00    26.98154     Al( 1.00)
        Ti1           12.00    47.86700     Ti( 1.00)

     No symmetry found

   Cartesian axes

     site n.     atom                  positions (alat units)
         1           Al1 tau(   1) = (   0.0000000   0.0000000  10.0000000  )
         2           Al1 tau(   2) = (  -1.4021847   2.4286551  10.0000000  )
         3           Al1 tau(   3) = (   1.4021847   2.4286551  10.0000000  )
         4           Ti1 tau(   4) = (   2.8043694   0.0000000  10.0000000  )
         5           Al1 tau(   5) = (   2.8043694   1.6191034  12.2897580  )
         6           Al1 tau(   6) = (   1.4021847   4.0477586  12.2897580  )
         7           Al1 tau(   7) = (  -1.4021847   4.0477586  12.2897580  )
         8           Ti1 tau(   8) = (   0.0000000   1.6191034  12.2897580  )
         9           Al1 tau(   9) = (  -0.0000000   3.2382069  14.5795161  )
        10           Al1 tau(  10) = (   1.4021847   0.8095517  14.5795161  )
        11           Al1 tau(  11) = (   4.2065541   0.8095517  14.5795161  )
        12           Ti1 tau(  12) = (   2.8043694   3.2382069  14.5795161  )

     number of k points=    20  Fermi-Dirac smearing, width (Ry)=  0.0110
                       cart. coord. in units 2pi/alat
        k(    1) = (   0.0000000   0.0000000   0.0000000), wk =   0.0555556
        k(    2) = (   0.0000000   0.0343125   0.0000000), wk =   0.1111111
        k(    3) = (   0.0000000   0.0686251   0.0000000), wk =   0.1111111
        k(    4) = (   0.0000000  -0.1029376   0.0000000), wk =   0.0555556
        k(    5) = (   0.0297155   0.0171563   0.0000000), wk =   0.1111111
        k(    6) = (   0.0297155   0.0514688   0.0000000), wk =   0.1111111
        k(    7) = (   0.0297155   0.0857814   0.0000000), wk =   0.1111111
        k(    8) = (   0.0297155  -0.0857814   0.0000000), wk =   0.1111111
        k(    9) = (   0.0297155  -0.0514688   0.0000000), wk =   0.1111111
        k(   10) = (   0.0297155  -0.0171563   0.0000000), wk =   0.1111111
        k(   11) = (   0.0594311   0.0343125   0.0000000), wk =   0.1111111
        k(   12) = (   0.0594311   0.0686251   0.0000000), wk =   0.1111111
        k(   13) = (   0.0594311   0.1029376   0.0000000), wk =   0.1111111
        k(   14) = (   0.0594311  -0.0686251   0.0000000), wk =   0.1111111
        k(   15) = (   0.0594311  -0.0343125   0.0000000), wk =   0.1111111
        k(   16) = (   0.0594311   0.0000000   0.0000000), wk =   0.1111111
        k(   17) = (  -0.0891466  -0.0514688   0.0000000), wk =   0.0555556
        k(   18) = (  -0.0891466  -0.0171563   0.0000000), wk =   0.1111111
        k(   19) = (  -0.0891466   0.0171563   0.0000000), wk =   0.1111111
        k(   20) = (  -0.0891466  -0.1544064   0.0000000), wk =   0.0555556

     Largest allocated arrays     est. size (Mb)     dimensions
     Largest temporary arrays     est. size (Mb)     dimensions

     Check: negative/imaginary core charge=   -0.000002    0.000000

     Initial potential from superposition of free atoms
     Check: negative starting charge=   -0.003580

     starting charge   59.97768, renormalised to   63.00000

     negative rho (up, down):  3.760E-03 0.000E+00

     *
     * You are using vdW-DF for exchange-correlation in this calculation.
     * Please cite the following three references that made this development
     * possible:
     *
     *   M. Dion, H. Rydberg, E. Schroder, D. C. Langreth, and
     *   B. I. Lundqvist, Phys. Rev. Lett. 92, 246401 (2004).
     *
     *   T. Thonhauser, V. R. Cooper, S. Li, A. Puzder, P. Hyldgaard, and
     *   D. C. Langreth, Phys. Rev. B 76, 125112 (2007).
     *
     *   G. Roman-Perez and J. M. Soler, Phys. Rev. Lett. 103, 096102 (2009).
     *
     *
     * If you are using vdW-DF2, please also cite:
     *
     *   K. Lee, E. D. Murray, L. Kong, B. I. Lundqvist, and
     *   D. C. Langreth, Phys. Rev. B 82, 081101(R) (2010).
     *
     *
     * If you are calculating the stress with vdW-DF, please also cite:
     *
     *   R. Sabatini, E. Kucukbenli, B. Kolb, T. Thonhauser, and
     *   S. de Gironcoli, J. Phys.: Condens. Matter 24, 424209 (2012).
     *

     Carrying out vdW-DF run using the following parameters:

     Nqs =      20    Nr_points =    1024   r_max =   100.000
     q_mesh =
               0.00001000     0.04494208     0.09755937     0.15916263
               0.23128650     0.31572767     0.41458969     0.53033537
               0.66584808     0.82450364     1.01025438     1.22772762
               1.48234092     1.78043706     2.12944203     2.53805004
               3.01644009     3.57652955     4.23227104     5.00000000

     Gradients computed in reciprocal space

     Adding external electric field

     Computed dipole along edir(3) :
        Dipole                0.0000 Ry au,          0.0000 Debye
        Dipole field          0.0000 Ry au

        Potential amp.       -0.0000 Ry
        Total length         45.2873 bohr

     Starting wfc are   66 randomized atomic wfcs

     Self-consistent Calculation

     iteration #  1     ecut=    36.75 Ry     beta=0.10
     Davidson diagonalization with overlap
     ethr =  1.00E-02,  avg # of iterations =  5.0

[...]

     total energy              =    -421.71982810 Ry
     Harris-Foulkes estimate   =    -421.90509118 Ry
     estimated scf accuracy    <       1.16414635 Ry

[...]

     End of self-consistent calculation

          k = 0.0000 0.0000 0.0000 ( 16955 PWs)   bands (ev):

   -57.6363 -57.6363 -57.4037 -34.0313 -34.0311 -33.7867 -33.7867 -33.7866
   -33.7866 -33.6688 -33.6688 -33.6598 -10.3368  -8.5797  -6.3117  -5.0396
    -5.0396  -4.5665  -4.4031  -4.4031  -3.6669  -3.3784  -3.3784  -3.0393
    -2.8036  -2.8035  -2.4959  -1.1757  -0.9120  -0.9120  -0.7656  -0.7656
    -0.2280  -0.2280  -0.0183  -0.0183   0.1879   0.4296   0.8843   0.8843
     1.1002   1.8812   1.9771   2.2827   2.2827   2.3282   2.3282   2.5526
     2.7441   2.7441   3.2147   3.4723   3.8329   4.3558   4.3925   4.3925
     4.5342   4.7664   4.8143   4.8143   6.0326

[...]

          k =-0.0891-0.0515 0.0000 ( 17060 PWs)   bands (ev):

[...]

     the Fermi energy is    -0.5380 ev

!    total energy              =    -421.71717641 Ry
     Harris-Foulkes estimate   =    -421.71717702 Ry
     estimated scf accuracy    <       0.00000024 Ry

     The total energy is the sum of the following terms:

     one-electron contribution =   -2290.74402771 Ry
     hartree contribution      =    1145.42327125 Ry
     xc contribution           =     -96.39794432 Ry
     ewald contribution        =     820.04358596 Ry
     electric field correction =       0.00000000 Ry
     smearing contrib. (-TS)   =      -0.04206159 Ry

     convergence has been achieved in  14 iterations

 BEEF-vdW xc energy contributions
           1 :   -81.3052779700288
           2 :    71.5739878487270
           3 :   -56.1117118125566
           4 :    40.4228517291081
           5 :   -28.5183751744974
           6 :    21.3507369619140
           7 :   -17.3544334811139
           8 :    14.2585271335126
           9 :   -10.7285271503261
          10 :    6.84081396018354
          11 :   -3.42871201425213
          12 :    1.09241659762266
          13 :   0.292696350275236
          14 :   -1.32916312342178
          15 :    2.50314860315898
          16 :   -3.82310622560054
          17 :    4.93314242127619
          18 :   -5.49402281073500
          19 :    5.45301070828549
          20 :   -5.01996059359433
          21 :    4.45145456036215
          22 :   -3.87196512719457
          23 :    3.25772522111461
          24 :   -2.54129497551517
          25 :    1.70733047270342
          26 :  -0.804538467188706
          27 :  -0.101629572063260
          28 :   0.962064375869119
          29 :   -1.73387781238318
[...]
     celldm(4)=   0.000000  celldm(5)=   0.000000  celldm(6)=   0.000000

     crystal axes: (cart. coord. in units of alat)
               a(1) = (   5.608739   0.000000   0.000000 )
               a(2) = (  -2.804369   4.857310   0.000000 )
               a(3) = (   0.000000   0.000000  24.579516 )

     reciprocal axes: (cart. coord. in units 2 pi/alat)
               b(1) = (  0.178293  0.102938  0.000000 )
               b(2) = (  0.000000  0.205875  0.000000 )
               b(3) = (  0.000000  0.000000  0.040684 )

     PseudoPot. # 1 for Al read from file:
     /afs/slac.stanford.edu/u/if/mamunm/psp/gbrv1.5pbe/Al.UPF
     MD5 check sum: 0a6289f5291fc8f409219462bc851e1f
     Pseudo is Ultrasoft + core correction, Zval =  3.0
     Generated by new atomic code, or converted to UPF format
     Using radial grid of  893 points,  3 beta functions with:
                l(1) =   0
                l(2) =   1
                l(3) =   2
     Q(r) pseudized with  8 coefficients,  rinner =    0.900   0.900   0.900
                                                       0.900   0.900

     PseudoPot. # 2 for Ti read from file:
     /afs/slac.stanford.edu/u/if/mamunm/psp/gbrv1.5pbe/Ti.UPF
     MD5 check sum: 88a00a6731bd790ddea75d31a80cb452
     Pseudo is Ultrasoft + core correction, Zval = 12.0
     Generated by new atomic code, or converted to UPF format
     Using radial grid of  851 points,  6 beta functions with:
                l(1) =   0
                l(2) =   0
                l(3) =   1
                l(4) =   1
                l(5) =   2
                l(6) =   2
     Q(r) pseudized with  6 coefficients,  rinner =    1.000   1.000   1.000
                                                       1.000   1.000

     vdW kernel table read from file vdW_kernel_table
     MD5 check sum: 095c7af220d748ca6e76c0b4c6cfb241

     atomic species   valence    mass     pseudopotential
        Al1            3.00    26.98154     Al( 1.00)
        Ti1           12.00    47.86700     Ti( 1.00)

     No symmetry found

   Cartesian axes

     site n.     atom                  positions (alat units)
         1           Al1 tau(   1) = (   0.0000000   0.0000000  10.0000000  )
         2           Al1 tau(   2) = (  -1.4021847   2.4286551  10.0000000  )
         3           Al1 tau(   3) = (   1.4021847   2.4286551  10.0000000  )
         4           Ti1 tau(   4) = (   2.8043694   0.0000000  10.0000000  )
         5           Al1 tau(   5) = (   2.8043694   1.6191034  12.2897580  )
         6           Al1 tau(   6) = (   1.4021847   4.0477586  12.2897580  )
         7           Al1 tau(   7) = (  -1.4021847   4.0477586  12.2897580  )
         8           Ti1 tau(   8) = (   0.0000000   1.6191034  12.2897580  )
         9           Al1 tau(   9) = (  -0.0000043   3.2402616  14.7541105  )
        10           Al1 tau(  10) = (   1.4039635   0.8085234  14.7541108  )
        11           Al1 tau(  11) = (   4.2047730   0.8085271  14.7541109  )
        12           Ti1 tau(  12) = (   2.8043758   3.2382054  14.4371403  )

     number of k points=    20  Fermi-Dirac smearing, width (Ry)=  0.0110
                       cart. coord. in units 2pi/alat
        k(    1) = (   0.0000000   0.0000000   0.0000000), wk =   0.0555556
        k(    2) = (   0.0000000   0.0343125   0.0000000), wk =   0.1111111
        k(    3) = (   0.0000000   0.0686251   0.0000000), wk =   0.1111111
        k(    4) = (   0.0000000  -0.1029376   0.0000000), wk =   0.0555556
        k(    5) = (   0.0297155   0.0171563   0.0000000), wk =   0.1111111
        k(    6) = (   0.0297155   0.0514688   0.0000000), wk =   0.1111111
        k(    7) = (   0.0297155   0.0857814   0.0000000), wk =   0.1111111
        k(    8) = (   0.0297155  -0.0857814   0.0000000), wk =   0.1111111
        k(    9) = (   0.0297155  -0.0514688   0.0000000), wk =   0.1111111
        k(   10) = (   0.0297155  -0.0171563   0.0000000), wk =   0.1111111
        k(   11) = (   0.0594311   0.0343125   0.0000000), wk =   0.1111111
        k(   12) = (   0.0594311   0.0686251   0.0000000), wk =   0.1111111
        k(   13) = (   0.0594311   0.1029376   0.0000000), wk =   0.1111111
        k(   14) = (   0.0594311  -0.0686251   0.0000000), wk =   0.1111111
        k(   15) = (   0.0594311  -0.0343125   0.0000000), wk =   0.1111111
        k(   16) = (   0.0594311   0.0000000   0.0000000), wk =   0.1111111
        k(   17) = (  -0.0891466  -0.0514688   0.0000000), wk =   0.0555556
        k(   18) = (  -0.0891466  -0.0171563   0.0000000), wk =   0.1111111
        k(   19) = (  -0.0891466   0.0171563   0.0000000), wk =   0.1111111
        k(   20) = (  -0.0891466  -0.1544064   0.0000000), wk =   0.0555556

     Largest allocated arrays     est. size (Mb)     dimensions
     Largest temporary arrays     est. size (Mb)     dimensions

     Check: negative/imaginary core charge=   -0.000002    0.000000

     Initial potential from superposition of free atoms
     Check: negative starting charge=   -0.003570

     starting charge   59.97768, renormalised to   63.00000

[...]

     *
     * You are using vdW-DF for exchange-correlation in this calculation.
     * Please cite the following three references that made this development
     * possible:
     *
     *   M. Dion, H. Rydberg, E. Schroder, D. C. Langreth, and
     *   B. I. Lundqvist, Phys. Rev. Lett. 92, 246401 (2004).
     *
     *   T. Thonhauser, V. R. Cooper, S. Li, A. Puzder, P. Hyldgaard, and
     *   D. C. Langreth, Phys. Rev. B 76, 125112 (2007).
     *
     *   G. Roman-Perez and J. M. Soler, Phys. Rev. Lett. 103, 096102 (2009).
     *
     *
     * If you are using vdW-DF2, please also cite:
     *
     *   K. Lee, E. D. Murray, L. Kong, B. I. Lundqvist, and
     *   D. C. Langreth, Phys. Rev. B 82, 081101(R) (2010).
     *
     *
     * If you are calculating the stress with vdW-DF, please also cite:
     *
     *   R. Sabatini, E. Kucukbenli, B. Kolb, T. Thonhauser, and
     *   S. de Gironcoli, J. Phys.: Condens. Matter 24, 424209 (2012).
     *

     Carrying out vdW-DF run using the following parameters:

     Nqs =      20    Nr_points =    1024   r_max =   100.000
     q_mesh =
               0.00001000     0.04494208     0.09755937     0.15916263
               0.23128650     0.31572767     0.41458969     0.53033537
               0.66584808     0.82450364     1.01025438     1.22772762
               1.48234092     1.78043706     2.12944203     2.53805004
               3.01644009     3.57652955     4.23227104     5.00000000

     Gradients computed in reciprocal space

[...]

     Starting wfc are   66 randomized atomic wfcs

     Self-consistent Calculation

[...]

     total energy              =    -421.73827021 Ry
     Harris-Foulkes estimate   =    -421.73827020 Ry
     estimated scf accuracy    <       0.00000119 Ry

     iteration # 15     ecut=    36.75 Ry     beta=0.10
     Davidson diagonalization with overlap
     ethr =  1.88E-09,  avg # of iterations =  2.0

[...]

     negative rho (up, down):  2.171E-03 0.000E+00

     Adding external electric field

     Computed dipole along edir(3) :
        Dipole                0.0010 Ry au,          0.0025 Debye
        Dipole field          0.0000 Ry au

        Potential amp.       -0.0002 Ry
        Total length         45.2873 bohr

     End of self-consistent calculation

[...]

          k = 0.0594 0.0000 0.0000 ( 16986 PWs)   bands (ev):

[...]

          k =-0.0891-0.1544 0.0000 ( 17060 PWs)   bands (ev):

   -57.6274 -57.4789 -57.4784 -34.0120 -33.8419 -33.7833 -33.7830 -33.7350
   -33.7350 -33.7246 -33.6553 -33.6551  -8.8414  -8.4863  -7.0241  -6.9099
    -5.8020  -5.6204  -4.9127  -4.1577  -4.0826  -3.4791  -2.5847  -2.0465
    -1.9069  -1.8516  -1.8461  -1.4417  -1.1883  -0.8520  -0.6634  -0.4130
     0.0073   0.4460   0.5705   0.7232   0.8476   0.9283   1.0071   1.1111
     1.4450   1.7232   2.1226   2.1971   2.3263   2.4937   2.8771   3.0266
     3.1883   3.3153   3.7340   4.2362   4.3737   4.3910   4.4349   4.5934
     4.8177   4.9006   4.9143   5.0057   5.4099

     the Fermi energy is    -0.5469 ev

!    total energy              =    -421.73826834 Ry
     Harris-Foulkes estimate   =    -421.73827033 Ry
     estimated scf accuracy    <       0.00000062 Ry

     The total energy is the sum of the following terms:

     one-electron contribution =   -2290.64289496 Ry
     hartree contribution      =    1145.39616242 Ry
     xc contribution           =     -96.30368627 Ry
     ewald contribution        =     819.85237866 Ry
     electric field correction =       0.00000000 Ry
     smearing contrib. (-TS)   =      -0.04022820 Ry

     convergence has been achieved in  15 iterations

 BEEF-vdW xc energy contributions
           1 :   -81.2567627827023
           2 :    71.5052452172548
           3 :   -56.0147413559378
           4 :    40.3058954698203
           5 :   -28.3960862992789
           6 :    21.2260572123402
           7 :   -17.2105999925730
           8 :    14.0731031384249
           9 :   -10.4959389266792
          10 :    6.57788827646445
          11 :   -3.15696691692176
          12 :   0.818652629055336
          13 :   0.576117078004827
          14 :   -1.62902564528319
          15 :    2.81503280534213
          16 :   -4.13549874651181
          17 :    5.23697486883020
          18 :   -5.78585650927118
          19 :    5.73033028886613
          20 :   -5.27604002389616
          21 :    4.67765155350136
          22 :   -4.06608994835368
          23 :    3.42875203434330
          24 :   -2.70224353106855
          25 :    1.86116599292556
          26 :  -0.938715654929297
          27 :  -3.293169250483174E-003
          28 :   0.900843352330213
          29 :   -1.69076231596827
          30 :    2.31006973618813
          31 :   -10.0333307087832
          32 :   -7.25181888946172

     Forces acting on atoms (Ry/au):

     negative rho (up, down):  2.171E-03 0.000E+00
     atom    1 type  1   force =    -0.00000011   -0.00058556   -0.02783079
     atom    2 type  1   force =    -0.00050712    0.00029275   -0.02783075
     atom    3 type  1   force =     0.00050715    0.00029288   -0.02783073
     atom    4 type  2   force =    -0.00000021   -0.00000001    0.05713631
     atom    5 type  1   force =     0.00000006   -0.00793715    0.00163676
     atom    6 type  1   force =    -0.00687348    0.00396833    0.00163722
     atom    7 type  1   force =     0.00687406    0.00396861    0.00163651
     atom    8 type  2   force =    -0.00000005   -0.00000027    0.02059498
     atom    9 type  1   force =     0.00000187   -0.00020021   -0.00030498
     atom   10 type  1   force =    -0.00017319    0.00010065   -0.00030498
     atom   11 type  1   force =     0.00017404    0.00009900   -0.00030501
     atom   12 type  2   force =    -0.00000301    0.00000097    0.00176546

     Total force =     0.078829     Total SCF correction =     0.001173

     entering subroutine stress ...

     negative rho (up, down):  2.171E-03 0.000E+00
          total   stress  (Ry/bohr**3)                   (kbar)     P=  -10.74
  -0.00012283   0.00000000  -0.00000000        -18.07      0.00     -0.00
   0.00000000  -0.00012283  -0.00000000          0.00    -18.07     -0.00
  -0.00000000  -0.00000000   0.00002672         -0.00     -0.00      3.93

 !ASE

     Writing output data file calc.save

     General routines

     Parallel routines

   This run was terminated on:  18:48:25  19Dec2018

   JOB DONE.
Job  /afs/slac/g/suncat/bin/suncat-tsmpirun -x LD_LIBRARY_PATH -wdir /scratch/qe773308_SVU7U pw.x -in pw.inp

TID   HOST_NAME   COMMAND_LINE            STATUS            TERMINATION_TIME
00000 suncat0087 pw.x -in pw.inp   Done                     12/19/2018 18:48:25
00001 suncat0087 pw.x -in pw.inp   Done                     12/19/2018 18:48:25
00002 suncat0087 pw.x -in pw.inp   Done                     12/19/2018 18:48:25
00003 suncat0087 pw.x -in pw.inp   Done                     12/19/2018 18:48:25
00004 suncat0087 pw.x -in pw.inp   Done                     12/19/2018 18:48:25
00005 suncat0087 pw.x -in pw.inp   Done                     12/19/2018 18:48:25
00006 suncat0087 pw.x -in pw.inp   Done                     12/19/2018 18:48:25
00007 suncat0087 pw.x -in pw.inp   Done                     12/19/2018 18:48:25
00008 suncat0086 pw.x -in pw.inp   Done                     12/19/2018 18:48:25
00009 suncat0086 pw.x -in pw.inp   Done                     12/19/2018 18:48:25
00010 suncat0086 pw.x -in pw.inp   Done                     12/19/2018 18:48:25
00011 suncat0086 pw.x -in pw.inp   Done                     12/19/2018 18:48:25
00012 suncat0086 pw.x -in pw.inp   Done                     12/19/2018 18:48:25
00013 suncat0086 pw.x -in pw.inp   Done                     12/19/2018 18:48:25
00014 suncat0086 pw.x -in pw.inp   Done                     12/19/2018 18:48:25
00015 suncat0086 pw.x -in pw.inp   Done                     12/19/2018 18:48:25
00016 suncat0085 pw.x -in pw.inp   Done                     12/19/2018 18:48:25
00017 suncat0085 pw.x -in pw.inp   Done                     12/19/2018 18:48:25
00018 suncat0085 pw.x -in pw.inp   Done                     12/19/2018 18:48:25
00019 suncat0085 pw.x -in pw.inp   Done                     12/19/2018 18:48:25
00020 suncat0085 pw.x -in pw.inp   Done                     12/19/2018 18:48:25
00021 suncat0085 pw.x -in pw.inp   Done                     12/19/2018 18:48:25
00022 suncat0085 pw.x -in pw.inp   Done                     12/19/2018 18:48:25
00023 suncat0085 pw.x -in pw.inp   Done                     12/19/2018 18:48:25
00024 suncat0084 pw.x -in pw.inp   Done                     12/19/2018 18:48:25
00025 suncat0084 pw.x -in pw.inp   Done                     12/19/2018 18:48:25
00026 suncat0084 pw.x -in pw.inp   Done                     12/19/2018 18:48:25
00027 suncat0084 pw.x -in pw.inp   Done                     12/19/2018 18:48:25
00028 suncat0084 pw.x -in pw.inp   Done                     12/19/2018 18:48:25
00029 suncat0084 pw.x -in pw.inp   Done                     12/19/2018 18:48:25
00030 suncat0084 pw.x -in pw.inp   Done                     12/19/2018 18:48:25
00031 suncat0084 pw.x -in pw.inp   Done                     12/19/2018 18:48:25
00032 suncat0178 pw.x -in pw.inp   Done                     12/19/2018 18:48:25
00033 suncat0178 pw.x -in pw.inp   Done                     12/19/2018 18:48:25
00034 suncat0178 pw.x -in pw.inp   Done                     12/19/2018 18:48:25
00035 suncat0178 pw.x -in pw.inp   Done                     12/19/2018 18:48:25
00036 suncat0178 pw.x -in pw.inp   Done                     12/19/2018 18:48:25
00037 suncat0178 pw.x -in pw.inp   Done                     12/19/2018 18:48:25
00038 suncat0178 pw.x -in pw.inp   Done                     12/19/2018 18:48:25
00039 suncat0178 pw.x -in pw.inp   Done                     12/19/2018 18:48:25
00040 suncat0177 pw.x -in pw.inp   Done                     12/19/2018 18:48:25
00041 suncat0177 pw.x -in pw.inp   Done                     12/19/2018 18:48:25
00042 suncat0177 pw.x -in pw.inp   Done                     12/19/2018 18:48:25
00043 suncat0177 pw.x -in pw.inp   Done                     12/19/2018 18:48:25
00044 suncat0177 pw.x -in pw.inp   Done                     12/19/2018 18:48:25
00045 suncat0177 pw.x -in pw.inp   Done                     12/19/2018 18:48:25
00046 suncat0177 pw.x -in pw.inp   Done                     12/19/2018 18:48:25
00047 suncat0177 pw.x -in pw.inp   Done                     12/19/2018 18:48:25
00048 suncat0172 pw.x -in pw.inp   Done                     12/19/2018 18:48:25
00049 suncat0172 pw.x -in pw.inp   Done                     12/19/2018 18:48:25
00050 suncat0172 pw.x -in pw.inp   Done                     12/19/2018 18:48:25
00051 suncat0172 pw.x -in pw.inp   Done                     12/19/2018 18:48:25
00052 suncat0172 pw.x -in pw.inp   Done                     12/19/2018 18:48:25
00053 suncat0172 pw.x -in pw.inp   Done                     12/19/2018 18:48:25
00054 suncat0172 pw.x -in pw.inp   Done                     12/19/2018 18:48:25
00055 suncat0172 pw.x -in pw.inp   Done                     12/19/2018 18:48:25
00056 suncat0171 pw.x -in pw.inp   Done                     12/19/2018 18:48:25
00057 suncat0171 pw.x -in pw.inp   Done                     12/19/2018 18:48:25
00058 suncat0171 pw.x -in pw.inp   Done                     12/19/2018 18:48:25
00059 suncat0171 pw.x -in pw.inp   Done                     12/19/2018 18:48:25
00060 suncat0171 pw.x -in pw.inp   Done                     12/19/2018 18:48:25
00061 suncat0171 pw.x -in pw.inp   Done                     12/19/2018 18:48:25
00062 suncat0171 pw.x -in pw.inp   Done                     12/19/2018 18:48:25
00063 suncat0171 pw.x -in pw.inp   Done                     12/19/2018 18:48:25