     Program PWSCF v.5.1rc2 (svn rev. 11289) starts on 25Dec2018 at 20:58:15

     Current dimensions of program PWSCF are:
     Max number of different atomic species (ntypx) = 10
     Max number of k-points (npk) =  40000
     Max angular momentum in pseudopotentials (lmaxx) =  3
     Presently stress not available with electric field

     IMPORTANT: XC functional enforced from input :
     Exchange-correlation      = BEEF-VDW ( 1  4 27 13 2)
     Any further DFT definition will be discarded
     Please, verify this is what you really want

     Subspace diagonalization in iterative solution of the eigenvalue problem:
     a serial algorithm will be used

     Generating pointlists ...
     new r_m :   0.4125 (alat units)  0.7795 (a.u.) for type    1
     new r_m :   0.4125 (alat units)  0.7795 (a.u.) for type    2

     bravais-lattice index     =            0
     lattice parameter (alat)  =       1.8897  a.u.
     unit-cell volume          =    3823.2928 (a.u.)^3
     number of atoms/cell      =           12
     number of atomic types    =            2
     number of electrons       =       189.00
     number of Kohn-Sham states=          124
     kinetic-energy cutoff     =      36.7493  Ry
     charge density cutoff     =     367.4932  Ry
     convergence threshold     =      1.0E-06
     mixing beta               =       0.1000
     number of iterations used =           10  plain     mixing
     Exchange-correlation      = BEEF-VDW ( 1  4 27 13 2)
     nstep                     =           50

     celldm(1)=   1.889726  celldm(2)=   0.000000  celldm(3)=   0.000000
     celldm(4)=   0.000000  celldm(5)=   0.000000  celldm(6)=   0.000000

     crystal axes: (cart. coord. in units of alat)
               a(1) = (   5.194869   0.000000   0.000000 )
               a(2) = (  -2.597434   4.498888   0.000000 )
               a(3) = (   0.000000   0.000000  24.241593 )

     reciprocal axes: (cart. coord. in units 2 pi/alat)
               b(1) = (  0.192498  0.111139  0.000000 )
               b(2) = (  0.000000  0.222277  0.000000 )
               b(3) = (  0.000000  0.000000  0.041251 )

     PseudoPot. # 1 for Fe read from file:
     /afs/slac.stanford.edu/u/if/mamunm/psp/gbrv1.5pbe/Fe.UPF
     MD5 check sum: a130daea23fe5165f5d574ae7f82ed95
     Pseudo is Ultrasoft + core correction, Zval = 16.0
     Generated by new atomic code, or converted to UPF format
     Using radial grid of  861 points,  6 beta functions with:
                l(1) =   0
                l(2) =   0
                l(3) =   1
                l(4) =   1
                l(5) =   2
                l(6) =   2
     Q(r) pseudized with  8 coefficients,  rinner =    1.000   1.000   1.000
                                                       1.000   1.000

     PseudoPot. # 2 for Rh read from file:
     /afs/slac.stanford.edu/u/if/mamunm/psp/gbrv1.5pbe/Rh.UPF
     MD5 check sum: 761627e959a2e3a1f56b0b5fe687810e
     Pseudo is Ultrasoft + core correction, Zval = 15.0
     Generated by new atomic code, or converted to UPF format
     Using radial grid of  969 points,  7 beta functions with:
                l(1) =   0
                l(2) =   0
                l(3) =   1
                l(4) =   1
                l(5) =   2
                l(6) =   2
                l(7) =   2
     Q(r) pseudized with  8 coefficients,  rinner =    1.200   1.200   1.200
                                                       1.200   1.200

     vdW kernel table read from file vdW_kernel_table
     MD5 check sum: 095c7af220d748ca6e76c0b4c6cfb241

     atomic species   valence    mass     pseudopotential
        Fe1           16.00    55.84500     Fe( 1.00)
        Rh1           15.00   102.90550     Rh( 1.00)

     Starting magnetic structure
     atomic species   magnetization
        Fe1          0.125
        Rh1          0.133

     No symmetry found

   Cartesian axes

     site n.     atom                  positions (alat units)
         1           Fe1 tau(   1) = (   0.0000000   0.0000000  10.0000000  )
         2           Fe1 tau(   2) = (  -1.2987172   2.2494442  10.0000000  )
         3           Fe1 tau(   3) = (   1.2987172   2.2494442  10.0000000  )
         4           Rh1 tau(   4) = (   2.5974344   0.0000000  10.0000000  )
         5           Fe1 tau(   5) = (   2.5974344   1.4996295  12.1207963  )
         6           Fe1 tau(   6) = (   1.2987172   3.7490737  12.1207963  )
         7           Fe1 tau(   7) = (  -1.2987172   3.7490737  12.1207963  )
         8           Rh1 tau(   8) = (   0.0000000   1.4996295  12.1207963  )
         9           Fe1 tau(   9) = (  -0.0000000   2.9992589  14.2415927  )
        10           Fe1 tau(  10) = (   1.2987172   0.7498147  14.2415927  )
        11           Fe1 tau(  11) = (   3.8961516   0.7498147  14.2415927  )
        12           Rh1 tau(  12) = (   2.5974344   2.9992589  14.2415927  )

     number of k points=    40  Fermi-Dirac smearing, width (Ry)=  0.0110
                       cart. coord. in units 2pi/alat
        k(    1) = (   0.0000000   0.0000000   0.0000000), wk =   0.0277778
        k(    2) = (   0.0000000   0.0370462   0.0000000), wk =   0.0555556
        k(    3) = (   0.0000000   0.0740924   0.0000000), wk =   0.0555556
        k(    4) = (   0.0000000  -0.1111386   0.0000000), wk =   0.0277778
        k(    5) = (   0.0320829   0.0185231   0.0000000), wk =   0.0555556
        k(    6) = (   0.0320829   0.0555693   0.0000000), wk =   0.0555556
        k(    7) = (   0.0320829   0.0926155   0.0000000), wk =   0.0555556
        k(    8) = (   0.0320829  -0.0926155   0.0000000), wk =   0.0555556
        k(    9) = (   0.0320829  -0.0555693   0.0000000), wk =   0.0555556
        k(   10) = (   0.0320829  -0.0185231   0.0000000), wk =   0.0555556
        k(   11) = (   0.0641659   0.0370462   0.0000000), wk =   0.0555556
        k(   12) = (   0.0641659   0.0740924   0.0000000), wk =   0.0555556
        k(   13) = (   0.0641659   0.1111386   0.0000000), wk =   0.0555556
        k(   14) = (   0.0641659  -0.0740924   0.0000000), wk =   0.0555556
        k(   15) = (   0.0641659  -0.0370462   0.0000000), wk =   0.0555556
        k(   16) = (   0.0641659   0.0000000   0.0000000), wk =   0.0555556
        k(   17) = (  -0.0962488  -0.0555693   0.0000000), wk =   0.0277778
        k(   18) = (  -0.0962488  -0.0185231   0.0000000), wk =   0.0555556
        k(   19) = (  -0.0962488   0.0185231   0.0000000), wk =   0.0555556
        k(   20) = (  -0.0962488  -0.1667078   0.0000000), wk =   0.0277778
        k(   21) = (   0.0000000   0.0000000   0.0000000), wk =   0.0277778
        k(   22) = (   0.0000000   0.0370462   0.0000000), wk =   0.0555556
        k(   23) = (   0.0000000   0.0740924   0.0000000), wk =   0.0555556
        k(   24) = (   0.0000000  -0.1111386   0.0000000), wk =   0.0277778
        k(   25) = (   0.0320829   0.0185231   0.0000000), wk =   0.0555556
        k(   26) = (   0.0320829   0.0555693   0.0000000), wk =   0.0555556
        k(   27) = (   0.0320829   0.0926155   0.0000000), wk =   0.0555556
        k(   28) = (   0.0320829  -0.0926155   0.0000000), wk =   0.0555556
        k(   29) = (   0.0320829  -0.0555693   0.0000000), wk =   0.0555556
        k(   30) = (   0.0320829  -0.0185231   0.0000000), wk =   0.0555556
        k(   31) = (   0.0641659   0.0370462   0.0000000), wk =   0.0555556
        k(   32) = (   0.0641659   0.0740924   0.0000000), wk =   0.0555556
        k(   33) = (   0.0641659   0.1111386   0.0000000), wk =   0.0555556
        k(   34) = (   0.0641659  -0.0740924   0.0000000), wk =   0.0555556
        k(   35) = (   0.0641659  -0.0370462   0.0000000), wk =   0.0555556
        k(   36) = (   0.0641659   0.0000000   0.0000000), wk =   0.0555556
        k(   37) = (  -0.0962488  -0.0555693   0.0000000), wk =   0.0277778
        k(   38) = (  -0.0962488  -0.0185231   0.0000000), wk =   0.0555556
        k(   39) = (  -0.0962488   0.0185231   0.0000000), wk =   0.0555556
        k(   40) = (  -0.0962488  -0.1667078   0.0000000), wk =   0.0277778

     Largest allocated arrays     est. size (Mb)     dimensions
     Largest temporary arrays     est. size (Mb)     dimensions

     Check: negative/imaginary core charge=   -0.000006    0.000000

     Initial potential from superposition of free atoms
     Check: negative starting charge=(component1):   -0.089261
     Check: negative starting charge=(component2):   -0.068253

     starting charge  178.49965, renormalised to  189.00000

     negative rho (up, down):  9.451E-02 7.227E-02

     *
     * You are using vdW-DF for exchange-correlation in this calculation.
     * Please cite the following three references that made this development
     * possible:
     *
     *   M. Dion, H. Rydberg, E. Schroder, D. C. Langreth, and
     *   B. I. Lundqvist, Phys. Rev. Lett. 92, 246401 (2004).
     *
     *   T. Thonhauser, V. R. Cooper, S. Li, A. Puzder, P. Hyldgaard, and
     *   D. C. Langreth, Phys. Rev. B 76, 125112 (2007).
     *
     *   G. Roman-Perez and J. M. Soler, Phys. Rev. Lett. 103, 096102 (2009).
     *
     *
     * If you are using vdW-DF2, please also cite:
     *
     *   K. Lee, E. D. Murray, L. Kong, B. I. Lundqvist, and
     *   D. C. Langreth, Phys. Rev. B 82, 081101(R) (2010).
     *
     *
     * If you are calculating the stress with vdW-DF, please also cite:
     *
     *   R. Sabatini, E. Kucukbenli, B. Kolb, T. Thonhauser, and
     *   S. de Gironcoli, J. Phys.: Condens. Matter 24, 424209 (2012).
     *

     Carrying out vdW-DF run using the following parameters:

     Nqs =      20    Nr_points =    1024   r_max =   100.000
     q_mesh =
               0.00001000     0.04494208     0.09755937     0.15916263
               0.23128650     0.31572767     0.41458969     0.53033537
               0.66584808     0.82450364     1.01025438     1.22772762
               1.48234092     1.78043706     2.12944203     2.53805004
               3.01644009     3.57652955     4.23227104     5.00000000

     Gradients computed in reciprocal space

     Adding external electric field

     Computed dipole along edir(3) :
        Dipole                0.0000 Ry au,          0.0000 Debye
        Dipole field          0.0000 Ry au

        Potential amp.       -0.0000 Ry
        Total length         44.6647 bohr

[...]

     Starting wfc are  153 randomized atomic wfcs

     Self-consistent Calculation

     iteration #  1     ecut=    36.75 Ry     beta=0.10
     Davidson diagonalization with overlap
     ethr =  1.00E-02,  avg # of iterations =  8.6

[...]

     Magnetic moment per site:
     atom:    1    charge:    7.2948    magn:    0.8950    constr:    0.0000
     atom:    2    charge:    7.2948    magn:    0.8950    constr:    0.0000
     atom:    3    charge:    7.2948    magn:    0.8950    constr:    0.0000
     atom:    4    charge:    2.7857    magn:    0.3515    constr:    0.0000
     atom:    5    charge:    7.3040    magn:    0.8875    constr:    0.0000
     atom:    6    charge:    7.3040    magn:    0.8875    constr:    0.0000
     atom:    7    charge:    7.3040    magn:    0.8875    constr:    0.0000
[...]
        k(    3) = (   0.0000000   0.0740924   0.0000000), wk =   0.0555556
        k(    4) = (   0.0000000  -0.1111386   0.0000000), wk =   0.0277778
        k(    5) = (   0.0320829   0.0185231   0.0000000), wk =   0.0555556
        k(    6) = (   0.0320829   0.0555693   0.0000000), wk =   0.0555556
        k(    7) = (   0.0320829   0.0926155   0.0000000), wk =   0.0555556
        k(    8) = (   0.0320829  -0.0926155   0.0000000), wk =   0.0555556
        k(    9) = (   0.0320829  -0.0555693   0.0000000), wk =   0.0555556
        k(   10) = (   0.0320829  -0.0185231   0.0000000), wk =   0.0555556
        k(   11) = (   0.0641659   0.0370462   0.0000000), wk =   0.0555556
        k(   12) = (   0.0641659   0.0740924   0.0000000), wk =   0.0555556
        k(   13) = (   0.0641659   0.1111386   0.0000000), wk =   0.0555556
        k(   14) = (   0.0641659  -0.0740924   0.0000000), wk =   0.0555556
        k(   15) = (   0.0641659  -0.0370462   0.0000000), wk =   0.0555556
        k(   16) = (   0.0641659   0.0000000   0.0000000), wk =   0.0555556
        k(   17) = (  -0.0962488  -0.0555693   0.0000000), wk =   0.0277778
        k(   18) = (  -0.0962488  -0.0185231   0.0000000), wk =   0.0555556
        k(   19) = (  -0.0962488   0.0185231   0.0000000), wk =   0.0555556
        k(   20) = (  -0.0962488  -0.1667078   0.0000000), wk =   0.0277778
        k(   21) = (   0.0000000   0.0000000   0.0000000), wk =   0.0277778
        k(   22) = (   0.0000000   0.0370462   0.0000000), wk =   0.0555556
        k(   23) = (   0.0000000   0.0740924   0.0000000), wk =   0.0555556
        k(   24) = (   0.0000000  -0.1111386   0.0000000), wk =   0.0277778
        k(   25) = (   0.0320829   0.0185231   0.0000000), wk =   0.0555556
        k(   26) = (   0.0320829   0.0555693   0.0000000), wk =   0.0555556
        k(   27) = (   0.0320829   0.0926155   0.0000000), wk =   0.0555556
        k(   28) = (   0.0320829  -0.0926155   0.0000000), wk =   0.0555556
        k(   29) = (   0.0320829  -0.0555693   0.0000000), wk =   0.0555556
        k(   30) = (   0.0320829  -0.0185231   0.0000000), wk =   0.0555556
        k(   31) = (   0.0641659   0.0370462   0.0000000), wk =   0.0555556
        k(   32) = (   0.0641659   0.0740924   0.0000000), wk =   0.0555556
        k(   33) = (   0.0641659   0.1111386   0.0000000), wk =   0.0555556
        k(   34) = (   0.0641659  -0.0740924   0.0000000), wk =   0.0555556
        k(   35) = (   0.0641659  -0.0370462   0.0000000), wk =   0.0555556
        k(   36) = (   0.0641659   0.0000000   0.0000000), wk =   0.0555556
        k(   37) = (  -0.0962488  -0.0555693   0.0000000), wk =   0.0277778
        k(   38) = (  -0.0962488  -0.0185231   0.0000000), wk =   0.0555556
        k(   39) = (  -0.0962488   0.0185231   0.0000000), wk =   0.0555556
        k(   40) = (  -0.0962488  -0.1667078   0.0000000), wk =   0.0277778

     Largest allocated arrays     est. size (Mb)     dimensions
     Largest temporary arrays     est. size (Mb)     dimensions

     Check: negative/imaginary core charge=   -0.000006    0.000000

     Initial potential from superposition of free atoms
     Check: negative starting charge=(component1):   -0.088938
     Check: negative starting charge=(component2):   -0.068006

     starting charge  178.49965, renormalised to  189.00000

[...]

     *
     * You are using vdW-DF for exchange-correlation in this calculation.
     * Please cite the following three references that made this development
     * possible:
     *
     *   M. Dion, H. Rydberg, E. Schroder, D. C. Langreth, and
     *   B. I. Lundqvist, Phys. Rev. Lett. 92, 246401 (2004).
     *
     *   T. Thonhauser, V. R. Cooper, S. Li, A. Puzder, P. Hyldgaard, and
     *   D. C. Langreth, Phys. Rev. B 76, 125112 (2007).
     *
     *   G. Roman-Perez and J. M. Soler, Phys. Rev. Lett. 103, 096102 (2009).
     *
     *
     * If you are using vdW-DF2, please also cite:
     *
     *   K. Lee, E. D. Murray, L. Kong, B. I. Lundqvist, and
     *   D. C. Langreth, Phys. Rev. B 82, 081101(R) (2010).
     *
     *
     * If you are calculating the stress with vdW-DF, please also cite:
     *
     *   R. Sabatini, E. Kucukbenli, B. Kolb, T. Thonhauser, and
     *   S. de Gironcoli, J. Phys.: Condens. Matter 24, 424209 (2012).
     *

     Carrying out vdW-DF run using the following parameters:

     Nqs =      20    Nr_points =    1024   r_max =   100.000
     q_mesh =
               0.00001000     0.04494208     0.09755937     0.15916263
               0.23128650     0.31572767     0.41458969     0.53033537
               0.66584808     0.82450364     1.01025438     1.22772762
               1.48234092     1.78043706     2.12944203     2.53805004
               3.01644009     3.57652955     4.23227104     5.00000000

     Gradients computed in reciprocal space

[...]

     Starting wfc are  153 randomized atomic wfcs

     Self-consistent Calculation

[...]

     total energy              =   -2778.60152922 Ry
     Harris-Foulkes estimate   =   -2778.60152826 Ry
     estimated scf accuracy    <       0.00000110 Ry

[...]

     iteration # 29     ecut=    36.75 Ry     beta=0.10
     Davidson diagonalization with overlap
     ethr =  5.83E-10,  avg # of iterations =  1.8

[...]

     negative rho (up, down):  7.704E-02 8.938E-02

[...]

     Adding external electric field

     Computed dipole along edir(3) :
        Dipole               -0.0079 Ry au,         -0.0201 Debye
        Dipole field         -0.0000 Ry au

        Potential amp.        0.0023 Ry
        Total length         44.6647 bohr

     Magnetic moment per site:
     atom:    1    charge:    7.0953    magn:    1.3708    constr:    0.0000
     atom:    2    charge:    7.0953    magn:    1.3708    constr:    0.0000
     atom:    3    charge:    7.0954    magn:    1.3707    constr:    0.0000
     atom:    4    charge:    2.7040    magn:    0.1071    constr:    0.0000
     atom:    5    charge:    7.1014    magn:    1.3670    constr:    0.0000
     atom:    6    charge:    7.1015    magn:    1.3669    constr:    0.0000
     atom:    7    charge:    7.1014    magn:    1.3669    constr:    0.0000
     atom:    8    charge:    2.7154    magn:    0.1341    constr:    0.0000
     atom:    9    charge:    7.0982    magn:    1.3839    constr:    0.0000
     atom:   10    charge:    7.0982    magn:    1.3839    constr:    0.0000
     atom:   11    charge:    7.0984    magn:    1.3838    constr:    0.0000
     atom:   12    charge:    2.7116    magn:    0.1112    constr:    0.0000

     End of self-consistent calculation

 ------ SPIN UP ------------

[...]

 ------ SPIN DOWN ----------

[...]

          k = 0.0642 0.0000 0.0000 ( 14385 PWs)   bands (ev):

[...]

          k =-0.0962-0.1667 0.0000 ( 14326 PWs)   bands (ev):

   -84.0838 -84.0759 -84.0632 -84.0629 -84.0560 -84.0543 -84.0473 -84.0467
   -84.0390 -50.2871 -50.2655 -50.2493 -50.2326 -50.2317 -50.2239 -50.2212
   -50.2138 -50.2045 -50.1869 -50.1851 -50.1761 -50.1701 -50.1640 -50.1628
   -50.1560 -50.1497 -50.1418 -50.1376 -50.1317 -50.1282 -50.1050 -50.0894
   -50.0772 -50.0716 -50.0584 -50.0495 -44.7910 -44.7854 -44.7695 -44.6085
   -44.6031 -44.5770 -44.5715 -44.4674 -44.4240  -4.3285  -4.2536  -3.0864
    -2.6597  -2.5598  -2.3764  -2.0948  -1.8829  -1.8453  -1.7862  -1.4585
    -1.4139  -1.2780  -1.1802  -1.1649  -0.9179  -0.8502  -0.7928  -0.7627
    -0.2633  -0.2559  -0.2168  -0.2039   0.0759   0.1370   0.3150   0.4922
     0.5629   0.5712   0.6465   0.7558   0.7870   0.8040   0.8760   0.9445
     1.0783   1.0837   1.2212   1.4273   1.5410   1.5689   1.7023   1.7171
     1.9171   1.9621   1.9825   2.0599   2.1311   2.2600   2.2962   2.2993
     2.3679   2.3820   2.5384   2.5702   2.5888   2.6392   2.7814   2.9218
     2.9728   3.2004   3.2196   3.2418   3.3566   3.9422   3.9838   4.6721
     4.8577   5.1959   5.2900   5.6731   5.7206   6.9143   6.9933   7.1077
     7.1137   7.6138   7.6258   7.7813

     the Fermi energy is     1.2230 ev

!    total energy              =   -2778.60153169 Ry
     Harris-Foulkes estimate   =   -2778.60152937 Ry
     estimated scf accuracy    <       0.00000062 Ry

     The total energy is the sum of the following terms:

     one-electron contribution =  -23927.63670471 Ry
     hartree contribution      =   11974.17539774 Ry
     xc contribution           =    -366.06420927 Ry
     ewald contribution        =    9541.01744254 Ry
     electric field correction =       0.00000021 Ry
     smearing contrib. (-TS)   =      -0.09345818 Ry

     total magnetization       =    27.74 Bohr mag/cell
     absolute magnetization    =    28.82 Bohr mag/cell

     convergence has been achieved in  29 iterations

 BEEF-vdW xc energy contributions
           1 :   -320.127047594938
           2 :    290.684315744265
           3 :   -241.120178091562
           4 :    185.606744786717
           5 :   -137.040822017598
           6 :    102.458788163151
           7 :   -81.9391012883361
           8 :    70.7491801545582
           9 :   -62.9823068216734
          10 :    54.5907551897799
          11 :   -44.5646331377154
          12 :    34.2094017772442
          13 :   -25.4695505133063
          14 :    19.4670095439737
          15 :   -16.0053071729354
          16 :    14.0080502133055
          17 :   -12.3438201637139
          18 :    10.4161646167425
          19 :   -8.25891823773657
          20 :    6.24225511045586
          21 :   -4.69881316176850
          22 :    3.70347991185173
          23 :   -3.08572103434472
          24 :    2.58102658812288
          25 :   -1.99389175265321
          26 :    1.27327122416011
          27 :  -0.500230262718901
          28 :  -0.180189839886111
          29 :   0.637436661171193
          30 :  -0.829880895880308
          31 :   -28.9631933363223
          32 :   -20.7817957192516

     Forces acting on atoms (Ry/au):

     negative rho (up, down):  7.704E-02 8.938E-02
     atom    1 type  1   force =     0.00002211   -0.00668677   -0.01239890
     atom    2 type  1   force =    -0.00579493    0.00335781   -0.01239076
     atom    3 type  1   force =     0.00580139    0.00333642   -0.01239142
     atom    4 type  2   force =     0.00000562    0.00000168   -0.01773264
     atom    5 type  1   force =    -0.00000762    0.00244519    0.01260404
     atom    6 type  1   force =     0.00210730   -0.00123014    0.01259771
     atom    7 type  1   force =    -0.00210160   -0.00121778    0.01260940
     atom    8 type  2   force =    -0.00000146    0.00000263    0.01757401
     atom    9 type  1   force =    -0.00000281   -0.00020033    0.00022459
     atom   10 type  1   force =    -0.00014341    0.00011319    0.00021634
     atom   11 type  1   force =     0.00014133    0.00011502    0.00022318
     atom   12 type  2   force =    -0.00002591   -0.00003691   -0.00113555

     Total force =     0.041405     Total SCF correction =     0.003351

     entering subroutine stress ...

     negative rho (up, down):  7.704E-02 8.938E-02
          total   stress  (Ry/bohr**3)                   (kbar)     P=   -6.54
  -0.00007006   0.00000003   0.00000000        -10.31      0.00      0.00
   0.00000003  -0.00007007   0.00000000          0.00    -10.31      0.00
   0.00000000   0.00000000   0.00000674          0.00      0.00      0.99

 !ASE

     Writing output data file calc.save

     General routines

     Parallel routines

   This run was terminated on:   0:25:13  26Dec2018

   JOB DONE.
Job  /afs/slac/g/suncat/bin/suncat-tsmpirun -x LD_LIBRARY_PATH -wdir /scratch/qe109640_g6OWt pw.x -in pw.inp

TID   HOST_NAME   COMMAND_LINE            STATUS            TERMINATION_TIME
00000 suncat0031 pw.x -in pw.inp   Done                     12/26/2018 00:25:14
00001 suncat0031 pw.x -in pw.inp   Done                     12/26/2018 00:25:14
00002 suncat0031 pw.x -in pw.inp   Done                     12/26/2018 00:25:14
00003 suncat0031 pw.x -in pw.inp   Done                     12/26/2018 00:25:14
00004 suncat0031 pw.x -in pw.inp   Done                     12/26/2018 00:25:14
00005 suncat0031 pw.x -in pw.inp   Done                     12/26/2018 00:25:14
00006 suncat0031 pw.x -in pw.inp   Done                     12/26/2018 00:25:14
00007 suncat0031 pw.x -in pw.inp   Done                     12/26/2018 00:25:14
00008 suncat0030 pw.x -in pw.inp   Done                     12/26/2018 00:25:14
00009 suncat0030 pw.x -in pw.inp   Done                     12/26/2018 00:25:14
00010 suncat0030 pw.x -in pw.inp   Done                     12/26/2018 00:25:14
00011 suncat0030 pw.x -in pw.inp   Done                     12/26/2018 00:25:14
00012 suncat0030 pw.x -in pw.inp   Done                     12/26/2018 00:25:14
00013 suncat0030 pw.x -in pw.inp   Done                     12/26/2018 00:25:14
00014 suncat0030 pw.x -in pw.inp   Done                     12/26/2018 00:25:14
00015 suncat0030 pw.x -in pw.inp   Done                     12/26/2018 00:25:14
00016 suncat0190 pw.x -in pw.inp   Done                     12/26/2018 00:25:14
00017 suncat0190 pw.x -in pw.inp   Done                     12/26/2018 00:25:14
00018 suncat0190 pw.x -in pw.inp   Done                     12/26/2018 00:25:14
00019 suncat0190 pw.x -in pw.inp   Done                     12/26/2018 00:25:14
00020 suncat0190 pw.x -in pw.inp   Done                     12/26/2018 00:25:14
00021 suncat0190 pw.x -in pw.inp   Done                     12/26/2018 00:25:14
00022 suncat0190 pw.x -in pw.inp   Done                     12/26/2018 00:25:14
00023 suncat0190 pw.x -in pw.inp   Done                     12/26/2018 00:25:14
00024 suncat0009 pw.x -in pw.inp   Done                     12/26/2018 00:25:14
00025 suncat0009 pw.x -in pw.inp   Done                     12/26/2018 00:25:14
00026 suncat0009 pw.x -in pw.inp   Done                     12/26/2018 00:25:14
00027 suncat0009 pw.x -in pw.inp   Done                     12/26/2018 00:25:14
00028 suncat0009 pw.x -in pw.inp   Done                     12/26/2018 00:25:14
00029 suncat0009 pw.x -in pw.inp   Done                     12/26/2018 00:25:14
00030 suncat0009 pw.x -in pw.inp   Done                     12/26/2018 00:25:14
00031 suncat0009 pw.x -in pw.inp   Done                     12/26/2018 00:25:14
00032 suncat0280 pw.x -in pw.inp   Done                     12/26/2018 00:25:14
00033 suncat0280 pw.x -in pw.inp   Done                     12/26/2018 00:25:14
00034 suncat0280 pw.x -in pw.inp   Done                     12/26/2018 00:25:14
00035 suncat0280 pw.x -in pw.inp   Done                     12/26/2018 00:25:14
00036 suncat0280 pw.x -in pw.inp   Done                     12/26/2018 00:25:14
00037 suncat0280 pw.x -in pw.inp   Done                     12/26/2018 00:25:14
00038 suncat0280 pw.x -in pw.inp   Done                     12/26/2018 00:25:14
00039 suncat0280 pw.x -in pw.inp   Done                     12/26/2018 00:25:14
00040 suncat0279 pw.x -in pw.inp   Done                     12/26/2018 00:25:14
00041 suncat0279 pw.x -in pw.inp   Done                     12/26/2018 00:25:14
00042 suncat0279 pw.x -in pw.inp   Done                     12/26/2018 00:25:14
00043 suncat0279 pw.x -in pw.inp   Done                     12/26/2018 00:25:14
00044 suncat0279 pw.x -in pw.inp   Done                     12/26/2018 00:25:14
00045 suncat0279 pw.x -in pw.inp   Done                     12/26/2018 00:25:14
00046 suncat0279 pw.x -in pw.inp   Done                     12/26/2018 00:25:14
00047 suncat0279 pw.x -in pw.inp   Done                     12/26/2018 00:25:14
00048 suncat0278 pw.x -in pw.inp   Done                     12/26/2018 00:25:14
00049 suncat0278 pw.x -in pw.inp   Done                     12/26/2018 00:25:14
00050 suncat0278 pw.x -in pw.inp   Done                     12/26/2018 00:25:14
00051 suncat0278 pw.x -in pw.inp   Done                     12/26/2018 00:25:14
00052 suncat0278 pw.x -in pw.inp   Done                     12/26/2018 00:25:14
00053 suncat0278 pw.x -in pw.inp   Done                     12/26/2018 00:25:14
00054 suncat0278 pw.x -in pw.inp   Done                     12/26/2018 00:25:14
00055 suncat0278 pw.x -in pw.inp   Done                     12/26/2018 00:25:14
00056 suncat0099 pw.x -in pw.inp   Done                     12/26/2018 00:25:14
00057 suncat0099 pw.x -in pw.inp   Done                     12/26/2018 00:25:14
00058 suncat0099 pw.x -in pw.inp   Done                     12/26/2018 00:25:14
00059 suncat0099 pw.x -in pw.inp   Done                     12/26/2018 00:25:14
00060 suncat0099 pw.x -in pw.inp   Done                     12/26/2018 00:25:14
00061 suncat0099 pw.x -in pw.inp   Done                     12/26/2018 00:25:14
00062 suncat0099 pw.x -in pw.inp   Done                     12/26/2018 00:25:14
00063 suncat0099 pw.x -in pw.inp   Done                     12/26/2018 00:25:14