     Program PWSCF v.5.1rc2 (svn rev. 11289) starts on 19Dec2018 at  7:14:13

     Current dimensions of program PWSCF are:
     Max number of different atomic species (ntypx) = 10
     Max number of k-points (npk) =  40000
     Max angular momentum in pseudopotentials (lmaxx) =  3
     Presently stress not available with electric field

     IMPORTANT: XC functional enforced from input :
     Exchange-correlation      = BEEF-VDW ( 1  4 27 13 2)
     Any further DFT definition will be discarded
     Please, verify this is what you really want

     Subspace diagonalization in iterative solution of the eigenvalue problem:
     a serial algorithm will be used

     Found symmetry operation: I + ( -0.5000 -0.5000  0.0000)
     This is a supercell, fractional translations are disabled

     bravais-lattice index     =            0
     lattice parameter (alat)  =       1.8897  a.u.
     unit-cell volume          =    5662.4357 (a.u.)^3
     number of atoms/cell      =           12
     number of atomic types    =            2
     number of electrons       =       150.00
     number of Kohn-Sham states=          105
     kinetic-energy cutoff     =      36.7493  Ry
     charge density cutoff     =     367.4932  Ry
     convergence threshold     =      1.0E-06
     mixing beta               =       0.1000
     number of iterations used =           10  plain     mixing
     Exchange-correlation      = BEEF-VDW ( 1  4 27 13 2)
     nstep                     =           50

     celldm(1)=   1.889726  celldm(2)=   0.000000  celldm(3)=   0.000000
     celldm(4)=   0.000000  celldm(5)=   0.000000  celldm(6)=   0.000000

     crystal axes: (cart. coord. in units of alat)
               a(1) = (   5.967058   0.000000   0.000000 )
               a(2) = (   1.883503   5.661995   0.000000 )
               a(3) = (   0.000000   0.000000  24.835731 )

     reciprocal axes: (cart. coord. in units 2 pi/alat)
               b(1) = (  0.167587 -0.055749  0.000000 )
               b(2) = (  0.000000  0.176616  0.000000 )
               b(3) = (  0.000000  0.000000  0.040265 )

     PseudoPot. # 1 for Cr read from file:
     /afs/slac.stanford.edu/u/if/mamunm/psp/gbrv1.5pbe/Cr.UPF
     MD5 check sum: 0d52af634a40206e4dee301ad30da4bf
     Pseudo is Ultrasoft + core correction, Zval = 14.0
     Generated by new atomic code, or converted to UPF format
     Using radial grid of  857 points,  6 beta functions with:
                l(1) =   0
                l(2) =   0
                l(3) =   1
                l(4) =   1
                l(5) =   2
                l(6) =   2
     Q(r) pseudized with  8 coefficients,  rinner =    0.950   0.950   0.950
                                                       0.950   0.950

     PseudoPot. # 2 for Y  read from file:
     /afs/slac.stanford.edu/u/if/mamunm/psp/gbrv1.5pbe/Y.UPF
     MD5 check sum: d034151ed7554c50b6e82763ed42c788
     Pseudo is Ultrasoft + core correction, Zval = 11.0
     Generated by new atomic code, or converted to UPF format
     Using radial grid of  885 points,  6 beta functions with:
                l(1) =   0
                l(2) =   0
                l(3) =   1
                l(4) =   1
                l(5) =   2
                l(6) =   2
     Q(r) pseudized with  8 coefficients,  rinner =    1.200   1.200   1.200
                                                       1.200   1.200

     vdW kernel table read from file vdW_kernel_table
     MD5 check sum: 095c7af220d748ca6e76c0b4c6cfb241

     atomic species   valence    mass     pseudopotential
        Cr1           14.00    51.99610     Cr( 1.00)
        Y1            11.00    88.90584     Y ( 1.00)

     No symmetry found

   Cartesian axes

     site n.     atom                  positions (alat units)
         1           Cr1 tau(   1) = (   0.0000000   0.0000000  10.0000000  )
         2           Cr1 tau(   2) = (   3.9252803   2.8309977  10.0000000  )
         3           Y1  tau(   3) = (   2.9835288   0.0000000  10.0000000  )
         4           Y1  tau(   4) = (   0.9417515   2.8309977  10.0000000  )
         5           Cr1 tau(   5) = (   5.9670575   4.3035720  12.4178654  )
         6           Cr1 tau(   6) = (   2.0417772   1.4725743  12.4178654  )
         7           Y1  tau(   7) = (   2.9835288   4.3035720  12.4178654  )
         8           Y1  tau(   8) = (   5.0253060   1.4725743  12.4178654  )
         9           Cr1 tau(   9) = (   4.0835545   2.9451485  14.8357308  )
        10           Cr1 tau(  10) = (   0.1582742   0.1141508  14.8357308  )
        11           Y1  tau(  11) = (   1.1000257   2.9451485  14.8357308  )
        12           Y1  tau(  12) = (   3.1418030   0.1141508  14.8357308  )

     number of k points=    20  Fermi-Dirac smearing, width (Ry)=  0.0110
                       cart. coord. in units 2pi/alat
        k(    1) = (   0.0000000   0.0000000   0.0000000), wk =   0.0555556
        k(    2) = (   0.0000000   0.0294360   0.0000000), wk =   0.1111111
        k(    3) = (   0.0000000   0.0588721   0.0000000), wk =   0.1111111
        k(    4) = (   0.0000000  -0.0883081   0.0000000), wk =   0.0555556
        k(    5) = (   0.0279311  -0.0092915   0.0000000), wk =   0.1111111
        k(    6) = (   0.0279311   0.0201445   0.0000000), wk =   0.1111111
        k(    7) = (   0.0279311   0.0495806   0.0000000), wk =   0.1111111
        k(    8) = (   0.0279311  -0.0975996   0.0000000), wk =   0.1111111
        k(    9) = (   0.0279311  -0.0681635   0.0000000), wk =   0.1111111
        k(   10) = (   0.0279311  -0.0387275   0.0000000), wk =   0.1111111
        k(   11) = (   0.0558623  -0.0185830   0.0000000), wk =   0.1111111
        k(   12) = (   0.0558623   0.0108531   0.0000000), wk =   0.1111111
        k(   13) = (   0.0558623   0.0402891   0.0000000), wk =   0.1111111
        k(   14) = (   0.0558623  -0.1068911   0.0000000), wk =   0.1111111
        k(   15) = (   0.0558623  -0.0774550   0.0000000), wk =   0.1111111
        k(   16) = (   0.0558623  -0.0480190   0.0000000), wk =   0.1111111
        k(   17) = (  -0.0837934   0.0278745   0.0000000), wk =   0.0555556
        k(   18) = (  -0.0837934   0.0573105   0.0000000), wk =   0.1111111
        k(   19) = (  -0.0837934   0.0867465   0.0000000), wk =   0.1111111
        k(   20) = (  -0.0837934  -0.0604336   0.0000000), wk =   0.0555556

     Largest allocated arrays     est. size (Mb)     dimensions
     Largest temporary arrays     est. size (Mb)     dimensions

     Check: negative/imaginary core charge=   -0.000002    0.000000

     Initial potential from superposition of free atoms
     Check: negative starting charge=   -0.007612

     starting charge  143.97309, renormalised to  150.00000

     negative rho (up, down):  7.931E-03 0.000E+00

     *
     * You are using vdW-DF for exchange-correlation in this calculation.
     * Please cite the following three references that made this development
     * possible:
     *
     *   M. Dion, H. Rydberg, E. Schroder, D. C. Langreth, and
     *   B. I. Lundqvist, Phys. Rev. Lett. 92, 246401 (2004).
     *
     *   T. Thonhauser, V. R. Cooper, S. Li, A. Puzder, P. Hyldgaard, and
     *   D. C. Langreth, Phys. Rev. B 76, 125112 (2007).
     *
     *   G. Roman-Perez and J. M. Soler, Phys. Rev. Lett. 103, 096102 (2009).
     *
     *
     * If you are using vdW-DF2, please also cite:
     *
     *   K. Lee, E. D. Murray, L. Kong, B. I. Lundqvist, and
     *   D. C. Langreth, Phys. Rev. B 82, 081101(R) (2010).
     *
     *
     * If you are calculating the stress with vdW-DF, please also cite:
     *
     *   R. Sabatini, E. Kucukbenli, B. Kolb, T. Thonhauser, and
     *   S. de Gironcoli, J. Phys.: Condens. Matter 24, 424209 (2012).
     *

     Carrying out vdW-DF run using the following parameters:

     Nqs =      20    Nr_points =    1024   r_max =   100.000
     q_mesh =
               0.00001000     0.04494208     0.09755937     0.15916263
               0.23128650     0.31572767     0.41458969     0.53033537
               0.66584808     0.82450364     1.01025438     1.22772762
               1.48234092     1.78043706     2.12944203     2.53805004
               3.01644009     3.57652955     4.23227104     5.00000000

     Gradients computed in reciprocal space

     Adding external electric field

     Computed dipole along edir(3) :
        Dipole                0.0000 Ry au,          0.0000 Debye
        Dipole field          0.0000 Ry au

        Potential amp.       -0.0000 Ry
        Total length         45.7594 bohr

     Starting wfc are  138 randomized atomic wfcs

     Self-consistent Calculation

     iteration #  1     ecut=    36.75 Ry     beta=0.10
     Davidson diagonalization with overlap
     ethr =  1.00E-02,  avg # of iterations =  3.0

[...]

     total energy              =   -1618.75095322 Ry
     Harris-Foulkes estimate   =   -1620.22637686 Ry
     estimated scf accuracy    <       8.59579949 Ry

[...]

     End of self-consistent calculation

          k = 0.0000 0.0000 0.0000 ( 21247 PWs)   bands (ev):

   -70.3034 -70.3025 -70.2755 -70.2755 -70.2746 -70.2746 -41.6719 -41.6712
   -41.6622 -41.6574 -41.6558 -41.6510 -41.6320 -41.6239 -41.6214 -41.6117
   -41.6044 -41.6043 -41.5913 -41.5614 -41.5415 -41.5411 -41.5400 -41.5389
   -41.4052 -41.3814 -41.3736 -41.3610 -40.6329 -40.6050 -21.5695 -21.5644
   -21.4904 -21.4715 -21.4638 -21.4216 -21.3868 -21.3688 -21.3610 -21.3294
   -21.1844 -21.1841 -20.8594 -20.6797 -20.6535 -20.6191 -20.6068 -20.4591
    -3.7976  -2.5784  -1.6466  -1.4254  -1.3821  -0.8463  -0.7814  -0.7466
    -0.6458  -0.6086  -0.5122  -0.4839  -0.0720   0.2218   0.3391   0.3435
     0.3783   0.4079   0.4875   0.5420   0.5731   0.6416   0.7134   0.8123
     0.8965   0.9668   1.0794   1.2390   1.3387   1.4072   1.4168   1.4301
     1.5359   1.7401   1.7607   1.9652   2.2105   2.2478   2.2935   2.5732
     2.6089   2.6849   3.0811   3.0900   3.1638   3.2578   3.4055   3.4409
     3.6546   3.8824   3.9119   3.9768   3.9850   4.1899   4.2600   4.2625
     4.3648

[...]

          k =-0.0838 0.0279 0.0000 ( 21312 PWs)   bands (ev):

[...]

     the Fermi energy is     0.9888 ev

!    total energy              =   -1619.09242953 Ry
     Harris-Foulkes estimate   =   -1619.09243336 Ry
     estimated scf accuracy    <       0.00000042 Ry

     The total energy is the sum of the following terms:

     one-electron contribution =  -10109.28569668 Ry
     hartree contribution      =    5048.79406131 Ry
     xc contribution           =    -309.29634397 Ry
     ewald contribution        =    3750.89034181 Ry
     electric field correction =       0.00000000 Ry
     smearing contrib. (-TS)   =      -0.19479198 Ry

     convergence has been achieved in  26 iterations

 BEEF-vdW xc energy contributions
           1 :   -268.905804061463
           2 :    241.544316924154
           3 :   -195.055376917847
           4 :    142.040620128141
           5 :   -94.1434872233420
           6 :    58.1089335228330
           7 :   -34.8933714651919
           8 :    21.5457155299626
           9 :   -14.2002456362737
          10 :    10.3241427277053
          11 :   -9.23815879175226
[...]

[...]

   This run was terminated on:  17:35: 5  19Dec2018

[...]

     Program PWSCF v.5.1rc2 (svn rev. 11289) starts on 19Dec2018 at 21: 0:47

[...]

     Program PWSCF v.5.1rc2 (svn rev. 11289) starts on 19Dec2018 at 22:11: 0

[...]

   This run was terminated on:  23: 3:59  19Dec2018

[...]

     Program PWSCF v.5.1rc2 (svn rev. 11289) starts on 19Dec2018 at 23: 4: 5

[...]

     Program PWSCF v.5.1rc2 (svn rev. 11289) starts on 19Dec2018 at 23:54:17

     Current dimensions of program PWSCF are:
     Max number of different atomic species (ntypx) = 10
     Max number of k-points (npk) =  40000
     Max angular momentum in pseudopotentials (lmaxx) =  3
     Presently stress not available with electric field

     IMPORTANT: XC functional enforced from input :
     Exchange-correlation      = BEEF-VDW ( 1  4 27 13 2)
     Any further DFT definition will be discarded
     Please, verify this is what you really want

     Subspace diagonalization in iterative solution of the eigenvalue problem:
     a serial algorithm will be used

     bravais-lattice index     =            0
     lattice parameter (alat)  =       1.8897  a.u.
     unit-cell volume          =    5662.4357 (a.u.)^3
     number of atoms/cell      =           12
     number of atomic types    =            2
     number of electrons       =       150.00
     number of Kohn-Sham states=          105
     kinetic-energy cutoff     =      36.7493  Ry
     charge density cutoff     =     367.4932  Ry
     convergence threshold     =      1.0E-06
     mixing beta               =       0.1000
     number of iterations used =           10  plain     mixing
     Exchange-correlation      = BEEF-VDW ( 1  4 27 13 2)
     nstep                     =           50

     celldm(1)=   1.889726  celldm(2)=   0.000000  celldm(3)=   0.000000
     celldm(4)=   0.000000  celldm(5)=   0.000000  celldm(6)=   0.000000

     crystal axes: (cart. coord. in units of alat)
               a(1) = (   5.967058   0.000000   0.000000 )
               a(2) = (   1.883503   5.661995   0.000000 )
               a(3) = (   0.000000   0.000000  24.835731 )

     reciprocal axes: (cart. coord. in units 2 pi/alat)
               b(1) = (  0.167587 -0.055749  0.000000 )
               b(2) = (  0.000000  0.176616  0.000000 )
               b(3) = (  0.000000  0.000000  0.040265 )

     PseudoPot. # 1 for Cr read from file:
     /afs/slac.stanford.edu/u/if/mamunm/psp/gbrv1.5pbe/Cr.UPF
     MD5 check sum: 0d52af634a40206e4dee301ad30da4bf
     Pseudo is Ultrasoft + core correction, Zval = 14.0
     Generated by new atomic code, or converted to UPF format
     Using radial grid of  857 points,  6 beta functions with:
                l(1) =   0
                l(2) =   0
                l(3) =   1
                l(4) =   1
                l(5) =   2
                l(6) =   2
     Q(r) pseudized with  8 coefficients,  rinner =    0.950   0.950   0.950
                                                       0.950   0.950

     PseudoPot. # 2 for Y  read from file:
     /afs/slac.stanford.edu/u/if/mamunm/psp/gbrv1.5pbe/Y.UPF
     MD5 check sum: d034151ed7554c50b6e82763ed42c788
     Pseudo is Ultrasoft + core correction, Zval = 11.0
     Generated by new atomic code, or converted to UPF format
     Using radial grid of  885 points,  6 beta functions with:
                l(1) =   0
                l(2) =   0
                l(3) =   1
                l(4) =   1
                l(5) =   2
                l(6) =   2
     Q(r) pseudized with  8 coefficients,  rinner =    1.200   1.200   1.200
                                                       1.200   1.200

     vdW kernel table read from file vdW_kernel_table
     MD5 check sum: 095c7af220d748ca6e76c0b4c6cfb241

     atomic species   valence    mass     pseudopotential
        Cr1           14.00    51.99610     Cr( 1.00)
        Y1            11.00    88.90584     Y ( 1.00)

     No symmetry found

   Cartesian axes

     site n.     atom                  positions (alat units)
         1           Cr1 tau(   1) = (   0.0000000   0.0000000  10.0000000  )
         2           Cr1 tau(   2) = (   3.9252803   2.8309977  10.0000000  )
         3           Y1  tau(   3) = (   2.9835288   0.0000000  10.0000000  )
         4           Y1  tau(   4) = (   0.9417515   2.8309977  10.0000000  )
         5           Cr1 tau(   5) = (   5.9670575   4.3035720  12.4178654  )
         6           Cr1 tau(   6) = (   2.0417772   1.4725743  12.4178654  )
         7           Y1  tau(   7) = (   2.9835288   4.3035720  12.4178654  )
         8           Y1  tau(   8) = (   5.0253060   1.4725743  12.4178654  )
         9           Cr1 tau(   9) = (   5.9643190   4.3018210  14.1869062  )
        10           Cr1 tau(  10) = (   2.0387049   1.4701436  14.1886759  )
        11           Y1  tau(  11) = (   2.9711721   4.2947552  15.6365049  )
        12           Y1  tau(  12) = (   5.0134722   1.4639644  15.6365107  )

     number of k points=    20  Fermi-Dirac smearing, width (Ry)=  0.0110
                       cart. coord. in units 2pi/alat
        k(    1) = (   0.0000000   0.0000000   0.0000000), wk =   0.0555556
        k(    2) = (   0.0000000   0.0294360   0.0000000), wk =   0.1111111
        k(    3) = (   0.0000000   0.0588721   0.0000000), wk =   0.1111111
        k(    4) = (   0.0000000  -0.0883081   0.0000000), wk =   0.0555556
        k(    5) = (   0.0279311  -0.0092915   0.0000000), wk =   0.1111111
        k(    6) = (   0.0279311   0.0201445   0.0000000), wk =   0.1111111
        k(    7) = (   0.0279311   0.0495806   0.0000000), wk =   0.1111111
        k(    8) = (   0.0279311  -0.0975996   0.0000000), wk =   0.1111111
        k(    9) = (   0.0279311  -0.0681635   0.0000000), wk =   0.1111111
        k(   10) = (   0.0279311  -0.0387275   0.0000000), wk =   0.1111111
        k(   11) = (   0.0558623  -0.0185830   0.0000000), wk =   0.1111111
        k(   12) = (   0.0558623   0.0108531   0.0000000), wk =   0.1111111
        k(   13) = (   0.0558623   0.0402891   0.0000000), wk =   0.1111111
        k(   14) = (   0.0558623  -0.1068911   0.0000000), wk =   0.1111111
        k(   15) = (   0.0558623  -0.0774550   0.0000000), wk =   0.1111111
        k(   16) = (   0.0558623  -0.0480190   0.0000000), wk =   0.1111111
        k(   17) = (  -0.0837934   0.0278745   0.0000000), wk =   0.0555556
        k(   18) = (  -0.0837934   0.0573105   0.0000000), wk =   0.1111111
        k(   19) = (  -0.0837934   0.0867465   0.0000000), wk =   0.1111111
        k(   20) = (  -0.0837934  -0.0604336   0.0000000), wk =   0.0555556

     Largest allocated arrays     est. size (Mb)     dimensions
     Largest temporary arrays     est. size (Mb)     dimensions

     Check: negative/imaginary core charge=   -0.000002    0.000000

     Initial potential from superposition of free atoms
     Check: negative starting charge=   -0.005987

     starting charge  143.97309, renormalised to  150.00000

[...]

     *
     * You are using vdW-DF for exchange-correlation in this calculation.
     * Please cite the following three references that made this development
     * possible:
     *
     *   M. Dion, H. Rydberg, E. Schroder, D. C. Langreth, and
     *   B. I. Lundqvist, Phys. Rev. Lett. 92, 246401 (2004).
     *
     *   T. Thonhauser, V. R. Cooper, S. Li, A. Puzder, P. Hyldgaard, and
     *   D. C. Langreth, Phys. Rev. B 76, 125112 (2007).
     *
     *   G. Roman-Perez and J. M. Soler, Phys. Rev. Lett. 103, 096102 (2009).
     *
     *
     * If you are using vdW-DF2, please also cite:
     *
     *   K. Lee, E. D. Murray, L. Kong, B. I. Lundqvist, and
     *   D. C. Langreth, Phys. Rev. B 82, 081101(R) (2010).
     *
     *
     * If you are calculating the stress with vdW-DF, please also cite:
     *
     *   R. Sabatini, E. Kucukbenli, B. Kolb, T. Thonhauser, and
     *   S. de Gironcoli, J. Phys.: Condens. Matter 24, 424209 (2012).
     *

     Carrying out vdW-DF run using the following parameters:

     Nqs =      20    Nr_points =    1024   r_max =   100.000
     q_mesh =
               0.00001000     0.04494208     0.09755937     0.15916263
               0.23128650     0.31572767     0.41458969     0.53033537
               0.66584808     0.82450364     1.01025438     1.22772762
               1.48234092     1.78043706     2.12944203     2.53805004
               3.01644009     3.57652955     4.23227104     5.00000000

     Gradients computed in reciprocal space

[...]

     Starting wfc are  138 randomized atomic wfcs

     Self-consistent Calculation

[...]

     iteration # 21     ecut=    36.75 Ry     beta=0.10
     Davidson diagonalization with overlap
     c_bands:  1 eigenvalues not converged
     ethr =  1.87E-06,  avg # of iterations =  7.0

[...]

     total energy              =   -1619.26379085 Ry
     Harris-Foulkes estimate   =   -1619.26378966 Ry
     estimated scf accuracy    <       0.00000171 Ry

     iteration # 33     ecut=    36.75 Ry     beta=0.10
     Davidson diagonalization with overlap
     ethr =  1.00E-09,  avg # of iterations =  2.9

[...]

     negative rho (up, down):  4.545E-03 0.000E+00

     Adding external electric field

     Computed dipole along edir(3) :
        Dipole                0.3164 Ry au,          0.8043 Debye
        Dipole field          0.0007 Ry au

        Potential amp.       -0.0643 Ry
        Total length         45.7594 bohr

     End of self-consistent calculation

[...]

          k = 0.0559-0.0480 0.0000 ( 21307 PWs)   bands (ev):

[...]

          k =-0.0838-0.0604 0.0000 ( 21330 PWs)   bands (ev):

   -70.7175 -70.7106 -69.8498 -69.8489 -69.6194 -69.6173 -43.4114 -43.3977
   -42.3346 -42.3065 -41.7387 -41.7314 -41.7041 -41.6821 -41.2391 -41.2372
   -41.2325 -41.1905 -41.1800 -41.1221 -41.1121 -41.0949 -41.0898 -41.0694
   -40.9925 -40.9697 -40.6424 -40.6221 -39.8167 -39.8086 -22.4202 -22.3820
   -22.3264 -22.1925 -22.1435 -21.9745 -21.2460 -21.1685 -21.1122 -21.0604
   -20.9816 -20.8616 -20.8528 -20.6573 -20.6430 -20.6408 -20.5912 -20.4701
    -1.8667  -1.6160  -1.3239  -1.2698  -1.1945  -1.0181  -0.9532  -0.6931
    -0.6474  -0.5944  -0.3872  -0.2581   0.0357   0.0400   0.2245   0.3230
     0.6293   0.6368   0.7606   0.8669   0.9890   1.0711   1.1112   1.1726
     1.3069   1.4346   1.4933   1.5128   1.5456   1.5885   1.6313   1.6636
     1.7192   1.7514   1.7545   1.9698   2.0192   2.2319   2.4056   2.4582
     2.6212   2.6609   2.8269   2.9978   3.0770   3.1605   3.3212   3.4114
     3.5333   3.7656   3.9621   4.0080   4.0096   4.1433   4.1974   4.2305
     4.3337

     the Fermi energy is     1.4148 ev

!    total energy              =   -1619.26379067 Ry
     Harris-Foulkes estimate   =   -1619.26379195 Ry
     estimated scf accuracy    <       0.00000027 Ry

     The total energy is the sum of the following terms:

     one-electron contribution =  -10091.22943308 Ry
     hartree contribution      =    5039.89005200 Ry
     xc contribution           =    -309.50549240 Ry
     ewald contribution        =    3741.71430939 Ry
     electric field correction =       0.00022221 Ry
     smearing contrib. (-TS)   =      -0.13344879 Ry

     convergence has been achieved in  33 iterations

 BEEF-vdW xc energy contributions
           1 :   -269.160955453703
           2 :    241.876031394388
           3 :   -195.504168390779
           4 :    142.547663484191
           5 :   -94.4926941868816
           6 :    57.9727587742647
           7 :   -34.0246167800610
           8 :    20.0056635352978
           9 :   -12.4282280832535
          10 :    8.94600301139485
          11 :   -8.71322414702865
          12 :    11.4812035507160
          13 :   -16.4606083734783
          14 :    21.8816713295850
          15 :   -25.5395091477752
          16 :    25.8618778367239
          17 :   -22.6998887175291
          18 :    17.2986418497530
          19 :   -11.5287580973607
          20 :    6.93966808592603
          21 :   -4.21562282877647
          22 :    3.23369952235225
          23 :   -3.50096888649114
          24 :    4.57366552759424
          25 :   -6.19690338494638
          26 :    8.17291889071407
          27 :   -10.1682625004314
          28 :    11.6784935777124
          29 :   -12.2141446762917
          30 :    11.5767566130615
          31 :   -26.0313211034232
          32 :   -18.1367357594918

     Forces acting on atoms (Ry/au):

     negative rho (up, down):  4.545E-03 0.000E+00
     atom    1 type  1   force =    -0.00073812   -0.00053119    0.03153846
     atom    2 type  1   force =    -0.00074865   -0.00054098    0.03154011
     atom    3 type  2   force =     0.00329714    0.00237797   -0.03358123
     atom    4 type  2   force =     0.00330151    0.00238163   -0.03357570
     atom    5 type  1   force =     0.00126364    0.00091033   -0.01447718
     atom    6 type  1   force =     0.00122588    0.00088536   -0.01338747
     atom    7 type  2   force =    -0.00400709   -0.00290392    0.01567521
     atom    8 type  2   force =    -0.00402148   -0.00288651    0.01567834
     atom    9 type  1   force =     0.00001833    0.00001667    0.00084979
     atom   10 type  1   force =     0.00010078    0.00006909   -0.00034550
     atom   11 type  2   force =     0.00016239    0.00009842    0.00004153
     atom   12 type  2   force =     0.00014567    0.00012313    0.00004366

     Total force =     0.072210     Total SCF correction =     0.001212

     entering subroutine stress ...

     negative rho (up, down):  4.545E-03 0.000E+00
          total   stress  (Ry/bohr**3)                   (kbar)     P=  -10.84
  -0.00010712   0.00000735  -0.00000374        -15.76      1.08     -0.55
   0.00000735  -0.00011201  -0.00000269          1.08    -16.48     -0.40
  -0.00000374  -0.00000269  -0.00000188         -0.55     -0.40     -0.28

 !ASE

     Writing output data file calc.save

     General routines

     Parallel routines

   This run was terminated on:   0:19:29  20Dec2018

   JOB DONE.
Job  /afs/slac/g/suncat/bin/suncat-tsmpirun -x LD_LIBRARY_PATH -wdir /scratch/qe529776_TwQSh pw.x -in pw.inp

TID   HOST_NAME   COMMAND_LINE            STATUS            TERMINATION_TIME
00000 suncat0061 pw.x -in pw.inp   Done                     12/20/2018 00:19:29
00001 suncat0061 pw.x -in pw.inp   Done                     12/20/2018 00:19:29
00002 suncat0061 pw.x -in pw.inp   Done                     12/20/2018 00:19:29
00003 suncat0061 pw.x -in pw.inp   Done                     12/20/2018 00:19:29
00004 suncat0061 pw.x -in pw.inp   Done                     12/20/2018 00:19:29
00005 suncat0061 pw.x -in pw.inp   Done                     12/20/2018 00:19:29
00006 suncat0061 pw.x -in pw.inp   Done                     12/20/2018 00:19:29
00007 suncat0061 pw.x -in pw.inp   Done                     12/20/2018 00:19:29
00008 suncat0060 pw.x -in pw.inp   Done                     12/20/2018 00:19:29
00009 suncat0060 pw.x -in pw.inp   Done                     12/20/2018 00:19:29
00010 suncat0060 pw.x -in pw.inp   Done                     12/20/2018 00:19:29
00011 suncat0060 pw.x -in pw.inp   Done                     12/20/2018 00:19:29
00012 suncat0060 pw.x -in pw.inp   Done                     12/20/2018 00:19:29
00013 suncat0060 pw.x -in pw.inp   Done                     12/20/2018 00:19:29
00014 suncat0060 pw.x -in pw.inp   Done                     12/20/2018 00:19:29
00015 suncat0060 pw.x -in pw.inp   Done                     12/20/2018 00:19:29
00016 suncat0059 pw.x -in pw.inp   Done                     12/20/2018 00:19:29
00017 suncat0059 pw.x -in pw.inp   Done                     12/20/2018 00:19:29
00018 suncat0059 pw.x -in pw.inp   Done                     12/20/2018 00:19:29
00019 suncat0059 pw.x -in pw.inp   Done                     12/20/2018 00:19:29
00020 suncat0059 pw.x -in pw.inp   Done                     12/20/2018 00:19:29
00021 suncat0059 pw.x -in pw.inp   Done                     12/20/2018 00:19:29
00022 suncat0059 pw.x -in pw.inp   Done                     12/20/2018 00:19:29
00023 suncat0059 pw.x -in pw.inp   Done                     12/20/2018 00:19:29
00024 suncat0058 pw.x -in pw.inp   Done                     12/20/2018 00:19:29
00025 suncat0058 pw.x -in pw.inp   Done                     12/20/2018 00:19:29
00026 suncat0058 pw.x -in pw.inp   Done                     12/20/2018 00:19:29
00027 suncat0058 pw.x -in pw.inp   Done                     12/20/2018 00:19:29
00028 suncat0058 pw.x -in pw.inp   Done                     12/20/2018 00:19:29
00029 suncat0058 pw.x -in pw.inp   Done                     12/20/2018 00:19:29
00030 suncat0058 pw.x -in pw.inp   Done                     12/20/2018 00:19:29
00031 suncat0058 pw.x -in pw.inp   Done                     12/20/2018 00:19:29