     Program PWSCF v.5.1rc2 (svn rev. 11289) starts on 19Dec2018 at 19:15:32

     Current dimensions of program PWSCF are:
     Max number of different atomic species (ntypx) = 10
     Max number of k-points (npk) =  40000
     Max angular momentum in pseudopotentials (lmaxx) =  3
     Presently stress not available with electric field

     IMPORTANT: XC functional enforced from input :
     Exchange-correlation      = BEEF-VDW ( 1  4 27 13 2)
     Any further DFT definition will be discarded
     Please, verify this is what you really want

     Subspace diagonalization in iterative solution of the eigenvalue problem:
     a serial algorithm will be used

     bravais-lattice index     =            0
     lattice parameter (alat)  =       1.8897  a.u.
     unit-cell volume          =    5141.1402 (a.u.)^3
     number of atoms/cell      =           12
     number of atomic types    =            2
     number of electrons       =       138.00
     number of Kohn-Sham states=           99
     kinetic-energy cutoff     =      36.7493  Ry
     charge density cutoff     =     367.4932  Ry
     convergence threshold     =      1.0E-06
     mixing beta               =       0.1000
     number of iterations used =           10  plain     mixing
     Exchange-correlation      = BEEF-VDW ( 1  4 27 13 2)
     nstep                     =           50

     celldm(1)=   1.889726  celldm(2)=   0.000000  celldm(3)=   0.000000
     celldm(4)=   0.000000  celldm(5)=   0.000000  celldm(6)=   0.000000

     crystal axes: (cart. coord. in units of alat)
               a(1) = (   5.948935   0.000000   0.000000 )
               a(2) = (  -2.974468   5.151929   0.000000 )
               a(3) = (   0.000000   0.000000  24.857285 )

     reciprocal axes: (cart. coord. in units 2 pi/alat)
               b(1) = (  0.168097  0.097051  0.000000 )
               b(2) = (  0.000000  0.194102  0.000000 )
               b(3) = (  0.000000  0.000000  0.040230 )

     PseudoPot. # 1 for Au read from file:
     /afs/slac.stanford.edu/u/if/mamunm/psp/gbrv1.5pbe/Au.UPF
     MD5 check sum: 9d7f43293ad2c663164586bc4b293ffc
     Pseudo is Ultrasoft + core correction, Zval = 11.0
     Generated by new atomic code, or converted to UPF format
     Using radial grid of  985 points,  7 beta functions with:
                l(1) =   0
                l(2) =   0
                l(3) =   1
                l(4) =   1
                l(5) =   2
                l(6) =   2
                l(7) =   3
     Q(r) pseudized with  6 coefficients,  rinner =    1.900   1.900   1.900
                                                       1.900   1.900   1.900
                                                       1.900

     PseudoPot. # 2 for Nb read from file:
     /afs/slac.stanford.edu/u/if/mamunm/psp/gbrv1.5pbe/Nb.UPF
     MD5 check sum: 573aab8a2fa660278ed4a62cd769473f
     Pseudo is Ultrasoft + core correction, Zval = 13.0
     Generated by new atomic code, or converted to UPF format
     Using radial grid of  887 points,  6 beta functions with:
                l(1) =   0
                l(2) =   0
                l(3) =   1
                l(4) =   1
                l(5) =   2
                l(6) =   2
     Q(r) pseudized with  6 coefficients,  rinner =    1.000   1.000   1.000
                                                       1.000   1.000

     vdW kernel table read from file vdW_kernel_table
     MD5 check sum: 095c7af220d748ca6e76c0b4c6cfb241

     atomic species   valence    mass     pseudopotential
        Au1           11.00   196.96657     Au( 1.00)
        Nb1           13.00    92.90637     Nb( 1.00)

     No symmetry found

   Cartesian axes

     site n.     atom                  positions (alat units)
         1           Au1 tau(   1) = (   0.0000000   0.0000000  10.0000000  )
         2           Au1 tau(   2) = (  -1.4872339   2.5759646  10.0000000  )
         3           Au1 tau(   3) = (   1.4872339   2.5759646  10.0000000  )
         4           Nb1 tau(   4) = (   2.9744677   0.0000000  10.0000000  )
         5           Au1 tau(   5) = (   2.9744677   1.7173098  12.4286427  )
         6           Au1 tau(   6) = (   1.4872339   4.2932744  12.4286427  )
         7           Au1 tau(   7) = (  -1.4872339   4.2932744  12.4286427  )
         8           Nb1 tau(   8) = (   0.0000000   1.7173098  12.4286427  )
         9           Au1 tau(   9) = (  -0.0000000   3.4346195  14.8572855  )
        10           Au1 tau(  10) = (   1.4872339   0.8586549  14.8572855  )
        11           Au1 tau(  11) = (   4.4617016   0.8586549  14.8572855  )
        12           Nb1 tau(  12) = (   2.9744677   3.4346195  14.8572855  )

     number of k points=    20  Fermi-Dirac smearing, width (Ry)=  0.0110
                       cart. coord. in units 2pi/alat
        k(    1) = (   0.0000000   0.0000000   0.0000000), wk =   0.0555556
        k(    2) = (   0.0000000   0.0323503   0.0000000), wk =   0.1111111
        k(    3) = (   0.0000000   0.0647007   0.0000000), wk =   0.1111111
        k(    4) = (   0.0000000  -0.0970510   0.0000000), wk =   0.0555556
        k(    5) = (   0.0280162   0.0161752   0.0000000), wk =   0.1111111
        k(    6) = (   0.0280162   0.0485255   0.0000000), wk =   0.1111111
        k(    7) = (   0.0280162   0.0808759   0.0000000), wk =   0.1111111
        k(    8) = (   0.0280162  -0.0808759   0.0000000), wk =   0.1111111
        k(    9) = (   0.0280162  -0.0485255   0.0000000), wk =   0.1111111
        k(   10) = (   0.0280162  -0.0161752   0.0000000), wk =   0.1111111
        k(   11) = (   0.0560324   0.0323503   0.0000000), wk =   0.1111111
        k(   12) = (   0.0560324   0.0647007   0.0000000), wk =   0.1111111
        k(   13) = (   0.0560324   0.0970510   0.0000000), wk =   0.1111111
        k(   14) = (   0.0560324  -0.0647007   0.0000000), wk =   0.1111111
        k(   15) = (   0.0560324  -0.0323503   0.0000000), wk =   0.1111111
        k(   16) = (   0.0560324   0.0000000   0.0000000), wk =   0.1111111
        k(   17) = (  -0.0840487  -0.0485255   0.0000000), wk =   0.0555556
        k(   18) = (  -0.0840487  -0.0161752   0.0000000), wk =   0.1111111
        k(   19) = (  -0.0840487   0.0161752   0.0000000), wk =   0.1111111
        k(   20) = (  -0.0840487  -0.1455765   0.0000000), wk =   0.0555556

     Largest allocated arrays     est. size (Mb)     dimensions
     Largest temporary arrays     est. size (Mb)     dimensions

     Check: negative/imaginary core charge=   -0.000002    0.000000

     Initial potential from superposition of free atoms
     Check: negative starting charge=   -0.002867

     starting charge  137.99070, renormalised to  138.00000

     negative rho (up, down):  2.867E-03 0.000E+00

     *
     * You are using vdW-DF for exchange-correlation in this calculation.
     * Please cite the following three references that made this development
     * possible:
     *
     *   M. Dion, H. Rydberg, E. Schroder, D. C. Langreth, and
     *   B. I. Lundqvist, Phys. Rev. Lett. 92, 246401 (2004).
     *
     *   T. Thonhauser, V. R. Cooper, S. Li, A. Puzder, P. Hyldgaard, and
     *   D. C. Langreth, Phys. Rev. B 76, 125112 (2007).
     *
     *   G. Roman-Perez and J. M. Soler, Phys. Rev. Lett. 103, 096102 (2009).
     *
     *
     * If you are using vdW-DF2, please also cite:
     *
     *   K. Lee, E. D. Murray, L. Kong, B. I. Lundqvist, and
     *   D. C. Langreth, Phys. Rev. B 82, 081101(R) (2010).
     *
     *
     * If you are calculating the stress with vdW-DF, please also cite:
     *
     *   R. Sabatini, E. Kucukbenli, B. Kolb, T. Thonhauser, and
     *   S. de Gironcoli, J. Phys.: Condens. Matter 24, 424209 (2012).
     *

     Carrying out vdW-DF run using the following parameters:

     Nqs =      20    Nr_points =    1024   r_max =   100.000
     q_mesh =
               0.00001000     0.04494208     0.09755937     0.15916263
               0.23128650     0.31572767     0.41458969     0.53033537
               0.66584808     0.82450364     1.01025438     1.22772762
               1.48234092     1.78043706     2.12944203     2.53805004
               3.01644009     3.57652955     4.23227104     5.00000000

     Gradients computed in reciprocal space

     Adding external electric field

     Computed dipole along edir(3) :
        Dipole               -0.0000 Ry au,         -0.0000 Debye
        Dipole field         -0.0000 Ry au

        Potential amp.        0.0000 Ry
        Total length         45.7991 bohr

     Starting wfc are  120 randomized atomic wfcs

     Self-consistent Calculation

     iteration #  1     ecut=    36.75 Ry     beta=0.10
     Davidson diagonalization with overlap
     ethr =  1.00E-02,  avg # of iterations =  8.1

     Threshold (ethr) on eigenvalues was too large:
     Diagonalizing with lowered threshold

     Davidson diagonalization with overlap
     ethr =  6.92E-04,  avg # of iterations =  2.4

[...]

     total energy              =   -1405.82920615 Ry
     Harris-Foulkes estimate   =   -1405.97121488 Ry
     estimated scf accuracy    <       1.00768323 Ry

[...]

     End of self-consistent calculation

          k = 0.0000 0.0000 0.0000 ( 19303 PWs)   bands (ev):

   -55.1628 -55.0194 -55.0193 -31.1989 -31.0849 -31.0849 -31.0406 -31.0373
   -30.9740 -30.9740 -30.9730 -30.9730  -6.9531  -5.6437  -5.3661  -5.0742
    -5.0742  -4.9957  -4.9759  -4.9759  -4.9127  -4.6887  -4.6719  -4.6719
    -4.5696  -4.5619  -4.5619  -3.7628  -3.6396  -3.6396  -3.5967  -3.5967
    -3.3140  -3.3086  -3.1973  -3.0532  -3.0532  -3.0469  -2.9540  -2.9540
    -2.8457  -2.8457  -2.6953  -2.6953  -2.6159  -2.6159  -2.3976  -2.0772
    -2.0772  -2.0038  -2.0038  -1.8104  -1.8104  -1.6507  -1.3870  -1.3870
    -1.2795  -1.1552  -1.0841  -1.0094  -0.0228   0.6035   0.8244   0.8244
     0.8368   0.8368   1.1297   1.1297   1.2332   1.2332   1.3365   1.7621
     1.7621   1.8295   1.8351   2.0138   2.0138   2.1850   2.1850   3.3438
     3.3438   3.4273   3.4273   3.6005   3.7764   4.7809   5.0679   5.1643
     5.1643   5.2777   5.2777   5.3640   6.2282   6.2282   6.2979   6.5995
     6.8881   7.1449   7.5660

[...]

          k =-0.0840-0.0485 0.0000 ( 19364 PWs)   bands (ev):

[...]

     the Fermi energy is     1.0036 ev

!    total energy              =   -1405.76164465 Ry
     Harris-Foulkes estimate   =   -1405.76164576 Ry
     estimated scf accuracy    <       0.00000052 Ry

     The total energy is the sum of the following terms:

     one-electron contribution =   -8799.49316803 Ry
     hartree contribution      =    4468.69274232 Ry
     xc contribution           =    -632.58853094 Ry
     ewald contribution        =    3557.72899734 Ry
     electric field correction =       0.00000000 Ry
     smearing contrib. (-TS)   =      -0.10168534 Ry

     convergence has been achieved in  15 iterations

 BEEF-vdW xc energy contributions
           1 :   -562.987968951928
           2 :    522.464029832985
           3 :   -450.218466379382
           4 :    360.655166718938
           5 :   -269.226103222098
           6 :    188.302174835969
           7 :   -124.803467197247
           8 :    79.9578089002499
           9 :   -50.8144707822750
[...]
                l(1) =   0
                l(2) =   0
                l(3) =   1
                l(4) =   1
                l(5) =   2
                l(6) =   2
                l(7) =   3
     Q(r) pseudized with  6 coefficients,  rinner =    1.900   1.900   1.900
                                                       1.900   1.900   1.900
                                                       1.900

     PseudoPot. # 2 for Nb read from file:
     /afs/slac.stanford.edu/u/if/mamunm/psp/gbrv1.5pbe/Nb.UPF
     MD5 check sum: 573aab8a2fa660278ed4a62cd769473f
     Pseudo is Ultrasoft + core correction, Zval = 13.0
     Generated by new atomic code, or converted to UPF format
     Using radial grid of  887 points,  6 beta functions with:
                l(1) =   0
                l(2) =   0
                l(3) =   1
                l(4) =   1
                l(5) =   2
                l(6) =   2
     Q(r) pseudized with  6 coefficients,  rinner =    1.000   1.000   1.000
                                                       1.000   1.000

     vdW kernel table read from file vdW_kernel_table
     MD5 check sum: 095c7af220d748ca6e76c0b4c6cfb241

     atomic species   valence    mass     pseudopotential
        Au1           11.00   196.96657     Au( 1.00)
        Nb1           13.00    92.90637     Nb( 1.00)

     No symmetry found

   Cartesian axes

     site n.     atom                  positions (alat units)
         1           Au1 tau(   1) = (   0.0000000   0.0000000  10.0000000  )
         2           Au1 tau(   2) = (  -1.4872339   2.5759646  10.0000000  )
         3           Au1 tau(   3) = (   1.4872339   2.5759646  10.0000000  )
         4           Nb1 tau(   4) = (   2.9744677   0.0000000  10.0000000  )
         5           Au1 tau(   5) = (   2.9744677   1.7173098  12.4286427  )
         6           Au1 tau(   6) = (   1.4872339   4.2932744  12.4286427  )
         7           Au1 tau(   7) = (  -1.4872339   4.2932744  12.4286427  )
         8           Nb1 tau(   8) = (   0.0000000   1.7173098  12.4286427  )
         9           Au1 tau(   9) = (  -0.0000079   3.4246189  14.8543610  )
        10           Au1 tau(  10) = (   1.4785761   0.8636443  14.8543533  )
        11           Au1 tau(  11) = (   4.4703503   0.8636707  14.8543612  )
        12           Nb1 tau(  12) = (   2.9744597   3.4346296  14.6872785  )

     number of k points=    20  Fermi-Dirac smearing, width (Ry)=  0.0110
                       cart. coord. in units 2pi/alat
        k(    1) = (   0.0000000   0.0000000   0.0000000), wk =   0.0555556
        k(    2) = (   0.0000000   0.0323503   0.0000000), wk =   0.1111111
        k(    3) = (   0.0000000   0.0647007   0.0000000), wk =   0.1111111
        k(    4) = (   0.0000000  -0.0970510   0.0000000), wk =   0.0555556
        k(    5) = (   0.0280162   0.0161752   0.0000000), wk =   0.1111111
        k(    6) = (   0.0280162   0.0485255   0.0000000), wk =   0.1111111
        k(    7) = (   0.0280162   0.0808759   0.0000000), wk =   0.1111111
        k(    8) = (   0.0280162  -0.0808759   0.0000000), wk =   0.1111111
        k(    9) = (   0.0280162  -0.0485255   0.0000000), wk =   0.1111111
        k(   10) = (   0.0280162  -0.0161752   0.0000000), wk =   0.1111111
        k(   11) = (   0.0560324   0.0323503   0.0000000), wk =   0.1111111
        k(   12) = (   0.0560324   0.0647007   0.0000000), wk =   0.1111111
        k(   13) = (   0.0560324   0.0970510   0.0000000), wk =   0.1111111
        k(   14) = (   0.0560324  -0.0647007   0.0000000), wk =   0.1111111
        k(   15) = (   0.0560324  -0.0323503   0.0000000), wk =   0.1111111
        k(   16) = (   0.0560324   0.0000000   0.0000000), wk =   0.1111111
        k(   17) = (  -0.0840487  -0.0485255   0.0000000), wk =   0.0555556
        k(   18) = (  -0.0840487  -0.0161752   0.0000000), wk =   0.1111111
        k(   19) = (  -0.0840487   0.0161752   0.0000000), wk =   0.1111111
        k(   20) = (  -0.0840487  -0.1455765   0.0000000), wk =   0.0555556

     Largest allocated arrays     est. size (Mb)     dimensions
     Largest temporary arrays     est. size (Mb)     dimensions

     Check: negative/imaginary core charge=   -0.000002    0.000000

     Initial potential from superposition of free atoms
     Check: negative starting charge=   -0.002834

     starting charge  137.99070, renormalised to  138.00000

[...]

     *
     * You are using vdW-DF for exchange-correlation in this calculation.
     * Please cite the following three references that made this development
     * possible:
     *
     *   M. Dion, H. Rydberg, E. Schroder, D. C. Langreth, and
     *   B. I. Lundqvist, Phys. Rev. Lett. 92, 246401 (2004).
     *
     *   T. Thonhauser, V. R. Cooper, S. Li, A. Puzder, P. Hyldgaard, and
     *   D. C. Langreth, Phys. Rev. B 76, 125112 (2007).
     *
     *   G. Roman-Perez and J. M. Soler, Phys. Rev. Lett. 103, 096102 (2009).
     *
     *
     * If you are using vdW-DF2, please also cite:
     *
     *   K. Lee, E. D. Murray, L. Kong, B. I. Lundqvist, and
     *   D. C. Langreth, Phys. Rev. B 82, 081101(R) (2010).
     *
     *
     * If you are calculating the stress with vdW-DF, please also cite:
     *
     *   R. Sabatini, E. Kucukbenli, B. Kolb, T. Thonhauser, and
     *   S. de Gironcoli, J. Phys.: Condens. Matter 24, 424209 (2012).
     *

     Carrying out vdW-DF run using the following parameters:

     Nqs =      20    Nr_points =    1024   r_max =   100.000
     q_mesh =
               0.00001000     0.04494208     0.09755937     0.15916263
               0.23128650     0.31572767     0.41458969     0.53033537
               0.66584808     0.82450364     1.01025438     1.22772762
               1.48234092     1.78043706     2.12944203     2.53805004
               3.01644009     3.57652955     4.23227104     5.00000000

     Gradients computed in reciprocal space

[...]

     Starting wfc are  120 randomized atomic wfcs

     Self-consistent Calculation

[...]

     Threshold (ethr) on eigenvalues was too large:
     Diagonalizing with lowered threshold

     Davidson diagonalization with overlap
     ethr =  6.63E-04,  avg # of iterations =  2.4

[...]

     total energy              =   -1405.78457991 Ry
     Harris-Foulkes estimate   =   -1405.78457928 Ry
     estimated scf accuracy    <       0.00000326 Ry

     iteration # 15     ecut=    36.75 Ry     beta=0.10
     Davidson diagonalization with overlap
     ethr =  2.36E-09,  avg # of iterations =  2.0

[...]

     negative rho (up, down):  2.619E-03 0.000E+00

     Adding external electric field

     Computed dipole along edir(3) :
        Dipole               -0.0282 Ry au,         -0.0716 Debye
        Dipole field         -0.0001 Ry au

        Potential amp.        0.0063 Ry
        Total length         45.7991 bohr

     End of self-consistent calculation

[...]

          k = 0.0560 0.0000 0.0000 ( 19321 PWs)   bands (ev):

[...]

          k =-0.0840-0.1456 0.0000 ( 19364 PWs)   bands (ev):

   -55.2019 -55.0540 -55.0514 -31.2472 -31.1280 -31.1242 -31.0882 -31.0657
   -31.0179 -31.0157 -31.0149 -31.0125  -5.7436  -5.5188  -4.8094  -4.6705
    -4.6591  -4.5839  -4.5656  -4.4255  -4.4058  -4.3219  -4.2405  -4.2232
    -4.0083  -3.9572  -3.9062  -3.8586  -3.8533  -3.8005  -3.7722  -3.6435
    -3.3298  -3.3283  -3.2369  -3.2070  -3.1527  -3.1454  -3.1207  -3.1014
    -3.0960  -3.0348  -3.0235  -3.0057  -2.9527  -2.9235  -2.8255  -2.7816
    -2.6667  -2.6396  -2.6198  -2.5355  -2.5156  -2.4937  -2.3527  -2.2824
    -1.9799  -1.8550  -1.5624  -1.5283  -1.3078  -1.2314  -0.5079  -0.2193
     0.1176   0.4834   0.5249   0.6785   0.8978   0.9059   1.0006   1.0186
     1.0243   1.2938   1.4964   1.5894   2.1390   2.1871   2.6873   2.6918
     3.8001   4.0376   4.3857   4.5083   4.7852   5.1654   6.0087   6.0353
     6.3233   6.6166   6.6459   6.6776   6.6932   6.9256   7.3518   7.5745
     7.5850   7.7164   7.8580

     the Fermi energy is     0.9573 ev

!    total energy              =   -1405.78458044 Ry
     Harris-Foulkes estimate   =   -1405.78458063 Ry
     estimated scf accuracy    <       0.00000089 Ry

     The total energy is the sum of the following terms:

     one-electron contribution =   -8862.51877006 Ry
     hartree contribution      =    4499.92092460 Ry
     xc contribution           =    -632.67315954 Ry
     ewald contribution        =    3589.58805011 Ry
     electric field correction =       0.00000194 Ry
     smearing contrib. (-TS)   =      -0.10162749 Ry

     convergence has been achieved in  15 iterations

 BEEF-vdW xc energy contributions
           1 :   -563.617612286493
           2 :    523.125848700478
           3 :   -450.923102448102
           4 :    361.379696182845
           5 :   -269.922208884632
           6 :    188.923092647879
           7 :   -125.332067572667
           8 :    80.4179707115075
           9 :   -51.2601820527118
          10 :    33.0658476859967
          11 :   -21.3174543795565
          12 :    13.0105740032793
          13 :   -6.80257534017733
          14 :    2.37444542188905
          15 :   0.409262589663854
          16 :   -2.04838250344187
          17 :    3.44122828314767
          18 :   -5.51588823560644
          19 :    8.74850280635383
          20 :   -12.8819861175593
          21 :    17.0014945786257
          22 :   -19.9313409223183
          23 :    20.7495012245258
          24 :   -19.1835138653647
          25 :    15.7167649884965
          26 :   -11.3841733907453
          27 :    7.36483080841469
          28 :   -4.55904886260737
          29 :    3.31830341647355
          30 :   -3.42022300088070
          31 :   -46.2379133969955
          32 :   -33.8621960107542

     Forces acting on atoms (Ry/au):

     negative rho (up, down):  2.619E-03 0.000E+00
     atom    1 type  1   force =     0.00000106    0.00193336   -0.00006953
     atom    2 type  1   force =     0.00167196   -0.00096638   -0.00006652
     atom    3 type  1   force =    -0.00167368   -0.00096465   -0.00006443
     atom    4 type  2   force =    -0.00000066    0.00000021    0.01719726
     atom    5 type  1   force =     0.00000075   -0.00849707   -0.00568162
     atom    6 type  1   force =    -0.00735743    0.00424393   -0.00567553
     atom    7 type  1   force =     0.00735765    0.00424722   -0.00568200
     atom    8 type  2   force =     0.00000028   -0.00000046    0.00012439
     atom    9 type  1   force =     0.00000145    0.00043736    0.00019597
     atom   10 type  1   force =     0.00038007   -0.00021564    0.00019893
     atom   11 type  1   force =    -0.00038040   -0.00021834    0.00020061
     atom   12 type  2   force =    -0.00000106    0.00000046   -0.00067752

     Total force =     0.024928     Total SCF correction =     0.003755
     SCF correction compared to forces is large: reduce conv_thr to get better values

     entering subroutine stress ...

     negative rho (up, down):  2.619E-03 0.000E+00
          total   stress  (Ry/bohr**3)                   (kbar)     P=  -12.60
  -0.00011893   0.00000000   0.00000000        -17.49      0.00      0.00
   0.00000000  -0.00011893  -0.00000000          0.00    -17.49     -0.00
   0.00000000  -0.00000000  -0.00001900          0.00     -0.00     -2.80

 !ASE

     Writing output data file calc.save

     General routines

     Parallel routines

   This run was terminated on:  20: 6:15  19Dec2018

   JOB DONE.
Job  /afs/slac/g/suncat/bin/suncat-tsmpirun -x LD_LIBRARY_PATH -wdir /scratch/qe773367_rjWFi pw.x -in pw.inp

TID   HOST_NAME   COMMAND_LINE            STATUS            TERMINATION_TIME
00000 suncat0192 pw.x -in pw.inp   Done                     12/19/2018 20:06:15
00001 suncat0192 pw.x -in pw.inp   Done                     12/19/2018 20:06:15
00002 suncat0192 pw.x -in pw.inp   Done                     12/19/2018 20:06:15
00003 suncat0192 pw.x -in pw.inp   Done                     12/19/2018 20:06:15
00004 suncat0192 pw.x -in pw.inp   Done                     12/19/2018 20:06:15
00005 suncat0192 pw.x -in pw.inp   Done                     12/19/2018 20:06:15
00006 suncat0192 pw.x -in pw.inp   Done                     12/19/2018 20:06:15
00007 suncat0192 pw.x -in pw.inp   Done                     12/19/2018 20:06:15
00008 suncat0191 pw.x -in pw.inp   Done                     12/19/2018 20:06:15
00009 suncat0191 pw.x -in pw.inp   Done                     12/19/2018 20:06:15
00010 suncat0191 pw.x -in pw.inp   Done                     12/19/2018 20:06:15
00011 suncat0191 pw.x -in pw.inp   Done                     12/19/2018 20:06:15
00012 suncat0191 pw.x -in pw.inp   Done                     12/19/2018 20:06:15
00013 suncat0191 pw.x -in pw.inp   Done                     12/19/2018 20:06:15
00014 suncat0191 pw.x -in pw.inp   Done                     12/19/2018 20:06:15
00015 suncat0191 pw.x -in pw.inp   Done                     12/19/2018 20:06:15
00016 suncat0190 pw.x -in pw.inp   Done                     12/19/2018 20:06:15
00017 suncat0190 pw.x -in pw.inp   Done                     12/19/2018 20:06:15
00018 suncat0190 pw.x -in pw.inp   Done                     12/19/2018 20:06:15
00019 suncat0190 pw.x -in pw.inp   Done                     12/19/2018 20:06:15
00020 suncat0190 pw.x -in pw.inp   Done                     12/19/2018 20:06:15
00021 suncat0190 pw.x -in pw.inp   Done                     12/19/2018 20:06:15
00022 suncat0190 pw.x -in pw.inp   Done                     12/19/2018 20:06:15
00023 suncat0190 pw.x -in pw.inp   Done                     12/19/2018 20:06:15
00024 suncat0009 pw.x -in pw.inp   Done                     12/19/2018 20:06:15
00025 suncat0009 pw.x -in pw.inp   Done                     12/19/2018 20:06:15
00026 suncat0009 pw.x -in pw.inp   Done                     12/19/2018 20:06:15
00027 suncat0009 pw.x -in pw.inp   Done                     12/19/2018 20:06:15
00028 suncat0009 pw.x -in pw.inp   Done                     12/19/2018 20:06:15
00029 suncat0009 pw.x -in pw.inp   Done                     12/19/2018 20:06:15
00030 suncat0009 pw.x -in pw.inp   Done                     12/19/2018 20:06:15
00031 suncat0009 pw.x -in pw.inp   Done                     12/19/2018 20:06:15
00032 suncat0008 pw.x -in pw.inp   Done                     12/19/2018 20:06:15
00033 suncat0008 pw.x -in pw.inp   Done                     12/19/2018 20:06:15
00034 suncat0008 pw.x -in pw.inp   Done                     12/19/2018 20:06:15
00035 suncat0008 pw.x -in pw.inp   Done                     12/19/2018 20:06:15
00036 suncat0008 pw.x -in pw.inp   Done                     12/19/2018 20:06:15
00037 suncat0008 pw.x -in pw.inp   Done                     12/19/2018 20:06:15
00038 suncat0008 pw.x -in pw.inp   Done                     12/19/2018 20:06:15
00039 suncat0008 pw.x -in pw.inp   Done                     12/19/2018 20:06:15
00040 suncat0007 pw.x -in pw.inp   Done                     12/19/2018 20:06:15
00041 suncat0007 pw.x -in pw.inp   Done                     12/19/2018 20:06:15
00042 suncat0007 pw.x -in pw.inp   Done                     12/19/2018 20:06:15
00043 suncat0007 pw.x -in pw.inp   Done                     12/19/2018 20:06:15
00044 suncat0007 pw.x -in pw.inp   Done                     12/19/2018 20:06:15
00045 suncat0007 pw.x -in pw.inp   Done                     12/19/2018 20:06:15
00046 suncat0007 pw.x -in pw.inp   Done                     12/19/2018 20:06:15
00047 suncat0007 pw.x -in pw.inp   Done                     12/19/2018 20:06:15
00048 suncat0006 pw.x -in pw.inp   Done                     12/19/2018 20:06:15
00049 suncat0006 pw.x -in pw.inp   Done                     12/19/2018 20:06:15
00050 suncat0006 pw.x -in pw.inp   Done                     12/19/2018 20:06:15
00051 suncat0006 pw.x -in pw.inp   Done                     12/19/2018 20:06:15
00052 suncat0006 pw.x -in pw.inp   Done                     12/19/2018 20:06:15
00053 suncat0006 pw.x -in pw.inp   Done                     12/19/2018 20:06:15
00054 suncat0006 pw.x -in pw.inp   Done                     12/19/2018 20:06:15
00055 suncat0006 pw.x -in pw.inp   Done                     12/19/2018 20:06:15
00056 suncat0005 pw.x -in pw.inp   Done                     12/19/2018 20:06:15
00057 suncat0005 pw.x -in pw.inp   Done                     12/19/2018 20:06:15
00058 suncat0005 pw.x -in pw.inp   Done                     12/19/2018 20:06:15
00059 suncat0005 pw.x -in pw.inp   Done                     12/19/2018 20:06:15
00060 suncat0005 pw.x -in pw.inp   Done                     12/19/2018 20:06:15
00061 suncat0005 pw.x -in pw.inp   Done                     12/19/2018 20:06:15
00062 suncat0005 pw.x -in pw.inp   Done                     12/19/2018 20:06:15
00063 suncat0005 pw.x -in pw.inp   Done                     12/19/2018 20:06:15