     Program PWSCF v.5.1rc2 (svn rev. 11289) starts on 31Dec2018 at 16:16:30

     Current dimensions of program PWSCF are:
     Max number of different atomic species (ntypx) = 10
     Max number of k-points (npk) =  40000
     Max angular momentum in pseudopotentials (lmaxx) =  3
     Presently stress not available with electric field

     IMPORTANT: XC functional enforced from input :
     Exchange-correlation      = BEEF-VDW ( 1  4 27 13 2)
     Any further DFT definition will be discarded
     Please, verify this is what you really want

     Subspace diagonalization in iterative solution of the eigenvalue problem:
     a serial algorithm will be used

     bravais-lattice index     =            0
     lattice parameter (alat)  =       1.8897  a.u.
     unit-cell volume          =    4541.1295 (a.u.)^3
     number of atoms/cell      =           12
     number of atomic types    =            2
     number of electrons       =       186.00
     number of Kohn-Sham states=          123
     kinetic-energy cutoff     =      36.7493  Ry
     charge density cutoff     =     367.4932  Ry
     convergence threshold     =      1.0E-06
     mixing beta               =       0.1000
     number of iterations used =           10  plain     mixing
     Exchange-correlation      = BEEF-VDW ( 1  4 27 13 2)
     nstep                     =           50

     celldm(1)=   1.889726  celldm(2)=   0.000000  celldm(3)=   0.000000
     celldm(4)=   0.000000  celldm(5)=   0.000000  celldm(6)=   0.000000

     crystal axes: (cart. coord. in units of alat)
               a(1) = (   5.621351   0.000000   0.000000 )
               a(2) = (  -2.810676   4.868233   0.000000 )
               a(3) = (   0.000000   0.000000  24.589814 )

     reciprocal axes: (cart. coord. in units 2 pi/alat)
               b(1) = (  0.177893  0.102707  0.000000 )
               b(2) = (  0.000000  0.205413  0.000000 )
               b(3) = (  0.000000  0.000000  0.040667 )

     PseudoPot. # 1 for Pt read from file:
     /afs/slac.stanford.edu/u/if/mamunm/psp/gbrv1.5pbe/Pt.UPF
     MD5 check sum: f09d6de1a584b5a045c4fc126da2d0c4
     Pseudo is Ultrasoft + core correction, Zval = 16.0
     Generated by new atomic code, or converted to UPF format
     Using radial grid of  985 points,  6 beta functions with:
                l(1) =   0
                l(2) =   0
                l(3) =   1
                l(4) =   1
                l(5) =   2
                l(6) =   2
     Q(r) pseudized with  8 coefficients,  rinner =    1.300   1.300   1.300
                                                       1.300   1.300

     PseudoPot. # 2 for Mo read from file:
     /afs/slac.stanford.edu/u/if/mamunm/psp/gbrv1.5pbe/Mo.UPF
     MD5 check sum: 30c4dcd161f5d35cd49bb5239c51a633
     Pseudo is Ultrasoft + core correction, Zval = 14.0
     Generated by new atomic code, or converted to UPF format
     Using radial grid of  889 points,  6 beta functions with:
                l(1) =   0
                l(2) =   0
                l(3) =   1
                l(4) =   1
                l(5) =   2
                l(6) =   2
     Q(r) pseudized with  6 coefficients,  rinner =    1.000   1.000   1.000
                                                       1.000   1.000

     vdW kernel table read from file vdW_kernel_table
     MD5 check sum: 095c7af220d748ca6e76c0b4c6cfb241

     atomic species   valence    mass     pseudopotential
        Pt1           16.00   195.08400     Pt( 1.00)
        Mo1           14.00    95.95000     Mo( 1.00)

     No symmetry found

   Cartesian axes

     site n.     atom                  positions (alat units)
         1           Pt1 tau(   1) = (   0.0000000   0.0000000  10.0000000  )
         2           Pt1 tau(   2) = (  -1.4053378   2.4341164  10.0000000  )
         3           Pt1 tau(   3) = (   1.4053378   2.4341164  10.0000000  )
         4           Mo1 tau(   4) = (   2.8106755   0.0000000  10.0000000  )
         5           Pt1 tau(   5) = (   2.8106755   1.6227443  12.2949069  )
         6           Pt1 tau(   6) = (   1.4053378   4.0568607  12.2949069  )
         7           Pt1 tau(   7) = (  -1.4053378   4.0568607  12.2949069  )
         8           Mo1 tau(   8) = (   0.0000000   1.6227443  12.2949069  )
         9           Pt1 tau(   9) = (  -0.0000000   3.2454885  14.5898139  )
        10           Pt1 tau(  10) = (   1.4053378   0.8113721  14.5898139  )
        11           Pt1 tau(  11) = (   4.2160133   0.8113721  14.5898139  )
        12           Mo1 tau(  12) = (   2.8106755   3.2454885  14.5898139  )

     number of k points=    20  Fermi-Dirac smearing, width (Ry)=  0.0110
                       cart. coord. in units 2pi/alat
        k(    1) = (   0.0000000   0.0000000   0.0000000), wk =   0.0555556
        k(    2) = (   0.0000000   0.0342356   0.0000000), wk =   0.1111111
        k(    3) = (   0.0000000   0.0684711   0.0000000), wk =   0.1111111
        k(    4) = (   0.0000000  -0.1027067   0.0000000), wk =   0.0555556
        k(    5) = (   0.0296489   0.0171178   0.0000000), wk =   0.1111111
        k(    6) = (   0.0296489   0.0513533   0.0000000), wk =   0.1111111
        k(    7) = (   0.0296489   0.0855889   0.0000000), wk =   0.1111111
        k(    8) = (   0.0296489  -0.0855889   0.0000000), wk =   0.1111111
        k(    9) = (   0.0296489  -0.0513533   0.0000000), wk =   0.1111111
        k(   10) = (   0.0296489  -0.0171178   0.0000000), wk =   0.1111111
        k(   11) = (   0.0592977   0.0342356   0.0000000), wk =   0.1111111
        k(   12) = (   0.0592977   0.0684711   0.0000000), wk =   0.1111111
        k(   13) = (   0.0592977   0.1027067   0.0000000), wk =   0.1111111
        k(   14) = (   0.0592977  -0.0684711   0.0000000), wk =   0.1111111
        k(   15) = (   0.0592977  -0.0342356   0.0000000), wk =   0.1111111
        k(   16) = (   0.0592977   0.0000000   0.0000000), wk =   0.1111111
        k(   17) = (  -0.0889466  -0.0513533   0.0000000), wk =   0.0555556
        k(   18) = (  -0.0889466  -0.0171178   0.0000000), wk =   0.1111111
        k(   19) = (  -0.0889466   0.0171178   0.0000000), wk =   0.1111111
        k(   20) = (  -0.0889466  -0.1540600   0.0000000), wk =   0.0555556

     Largest allocated arrays     est. size (Mb)     dimensions
     Largest temporary arrays     est. size (Mb)     dimensions

     Check: negative/imaginary core charge=   -0.000001    0.000000

     Initial potential from superposition of free atoms
     Check: negative starting charge=   -1.633057

     starting charge  181.49671, renormalised to  186.00000

     negative rho (up, down):  1.674E+00 0.000E+00

     *
     * You are using vdW-DF for exchange-correlation in this calculation.
     * Please cite the following three references that made this development
     * possible:
     *
     *   M. Dion, H. Rydberg, E. Schroder, D. C. Langreth, and
     *   B. I. Lundqvist, Phys. Rev. Lett. 92, 246401 (2004).
     *
     *   T. Thonhauser, V. R. Cooper, S. Li, A. Puzder, P. Hyldgaard, and
     *   D. C. Langreth, Phys. Rev. B 76, 125112 (2007).
     *
     *   G. Roman-Perez and J. M. Soler, Phys. Rev. Lett. 103, 096102 (2009).
     *
     *
     * If you are using vdW-DF2, please also cite:
     *
     *   K. Lee, E. D. Murray, L. Kong, B. I. Lundqvist, and
     *   D. C. Langreth, Phys. Rev. B 82, 081101(R) (2010).
     *
     *
     * If you are calculating the stress with vdW-DF, please also cite:
     *
     *   R. Sabatini, E. Kucukbenli, B. Kolb, T. Thonhauser, and
     *   S. de Gironcoli, J. Phys.: Condens. Matter 24, 424209 (2012).
     *

     Carrying out vdW-DF run using the following parameters:

     Nqs =      20    Nr_points =    1024   r_max =   100.000
     q_mesh =
               0.00001000     0.04494208     0.09755937     0.15916263
               0.23128650     0.31572767     0.41458969     0.53033537
               0.66584808     0.82450364     1.01025438     1.22772762
               1.48234092     1.78043706     2.12944203     2.53805004
               3.01644009     3.57652955     4.23227104     5.00000000

     Gradients computed in reciprocal space

     Adding external electric field

     Computed dipole along edir(3) :
        Dipole               -0.0000 Ry au,         -0.0000 Debye
        Dipole field         -0.0000 Ry au

        Potential amp.        0.0000 Ry
        Total length         45.3063 bohr

     Starting wfc are  147 randomized atomic wfcs

     Self-consistent Calculation

     iteration #  1     ecut=    36.75 Ry     beta=0.10
     Davidson diagonalization with overlap
     ethr =  1.00E-02,  avg # of iterations =  8.0

[...]

     total energy              =   -2330.46032491 Ry
     Harris-Foulkes estimate   =   -2334.00436617 Ry
     estimated scf accuracy    <      20.89912594 Ry

[...]

     End of self-consistent calculation

          k = 0.0000 0.0000 0.0000 ( 17075 PWs)   bands (ev):

   -60.0665 -59.7422 -59.7418 -51.3306 -51.2203 -51.2203 -51.1323 -51.1323
   -51.1233 -51.0725 -51.0104 -51.0104 -50.8777 -50.8758 -50.8758 -50.8748
   -50.8553 -50.8553 -50.7544 -50.7510 -50.6290 -50.6290 -50.6283 -50.6283
   -50.5779 -50.5575 -50.5403 -50.5403 -50.5304 -50.5304 -34.0869 -34.0199
   -34.0199 -33.7427 -33.7353 -33.7212 -33.7212 -33.7193 -33.7193  -6.4903
    -4.8139  -4.5739  -4.2615  -4.2615  -4.0787  -4.0121  -4.0121  -3.8345
    -3.5572  -3.5572  -3.5282  -3.3521  -3.3521  -3.2577  -2.1544  -1.9892
    -1.9892  -1.8145  -1.8145  -1.5612  -1.3625  -1.2493  -1.2110  -1.2110
    -1.1707  -0.9735  -0.9735  -0.6981  -0.6981  -0.6098  -0.6098  -0.5206
    -0.5206   0.2243   0.6127   0.6127   0.6150   0.6150   0.7320   0.7320
     0.7551   0.9967   1.3846   1.5761   1.5761   1.7226   1.7966   2.1614
     2.2232   2.2635   2.2635   2.6870   2.6870   2.6988   3.0307   3.0307
     3.0959   3.1827   3.1827   3.3072   3.3072   3.3247   3.5858   3.5858
     3.7415   3.7415   5.1760   5.1760   5.2552   5.2552   5.3456   5.6245
     6.5028   6.7661   7.1101   7.9881   7.9881   8.0190   8.0190   8.0399
     8.7830   9.0557   9.0557

[...]

          k =-0.0889-0.0514 0.0000 ( 17120 PWs)   bands (ev):

[...]

     the Fermi energy is     2.0709 ev

!    total energy              =   -2331.10321980 Ry
     Harris-Foulkes estimate   =   -2331.10319448 Ry
     estimated scf accuracy    <       0.00000096 Ry

     The total energy is the sum of the following terms:

     one-electron contribution =  -18649.40739723 Ry
     hartree contribution      =    9348.50275450 Ry
     xc contribution           =    -587.21985207 Ry
     ewald contribution        =    7557.10430008 Ry
     electric field correction =       0.00000000 Ry
     smearing contrib. (-TS)   =      -0.08302508 Ry

     convergence has been achieved in  16 iterations

 BEEF-vdW xc energy contributions
           1 :   -520.680015356673
           2 :    483.801966601037
           3 :   -417.942604109084
           4 :    336.117202170908
           5 :   -252.455062799239
           6 :    178.440236214935
           7 :   -120.573077765042
           8 :    79.9153119796099
           9 :   -53.3582554248216
          10 :    35.8741386809858
[...]
     Pseudo is Ultrasoft + core correction, Zval = 16.0
     Generated by new atomic code, or converted to UPF format
     Using radial grid of  985 points,  6 beta functions with:
                l(1) =   0
                l(2) =   0
                l(3) =   1
                l(4) =   1
                l(5) =   2
                l(6) =   2
     Q(r) pseudized with  8 coefficients,  rinner =    1.300   1.300   1.300
                                                       1.300   1.300

     PseudoPot. # 2 for Mo read from file:
     /afs/slac.stanford.edu/u/if/mamunm/psp/gbrv1.5pbe/Mo.UPF
     MD5 check sum: 30c4dcd161f5d35cd49bb5239c51a633
     Pseudo is Ultrasoft + core correction, Zval = 14.0
     Generated by new atomic code, or converted to UPF format
     Using radial grid of  889 points,  6 beta functions with:
                l(1) =   0
                l(2) =   0
                l(3) =   1
                l(4) =   1
                l(5) =   2
                l(6) =   2
     Q(r) pseudized with  6 coefficients,  rinner =    1.000   1.000   1.000
                                                       1.000   1.000

     vdW kernel table read from file vdW_kernel_table
     MD5 check sum: 095c7af220d748ca6e76c0b4c6cfb241

     atomic species   valence    mass     pseudopotential
        Pt1           16.00   195.08400     Pt( 1.00)
        Mo1           14.00    95.95000     Mo( 1.00)

     No symmetry found

   Cartesian axes

     site n.     atom                  positions (alat units)
         1           Pt1 tau(   1) = (   0.0000000   0.0000000  10.0000000  )
         2           Pt1 tau(   2) = (  -1.4053378   2.4341164  10.0000000  )
         3           Pt1 tau(   3) = (   1.4053378   2.4341164  10.0000000  )
         4           Mo1 tau(   4) = (   2.8106755   0.0000000  10.0000000  )
         5           Pt1 tau(   5) = (   2.8106755   1.6227443  12.2949069  )
         6           Pt1 tau(   6) = (   1.4053378   4.0568607  12.2949069  )
         7           Pt1 tau(   7) = (  -1.4053378   4.0568607  12.2949069  )
         8           Mo1 tau(   8) = (   0.0000000   1.6227443  12.2949069  )
         9           Pt1 tau(   9) = (  -0.0000000   3.2088901  14.5658365  )
        10           Pt1 tau(  10) = (   1.3736426   0.8296720  14.5658366  )
        11           Pt1 tau(  11) = (   4.2477087   0.8296715  14.5658366  )
        12           Mo1 tau(  12) = (   2.8106752   3.2454884  14.5236884  )

     number of k points=    20  Fermi-Dirac smearing, width (Ry)=  0.0110
                       cart. coord. in units 2pi/alat
        k(    1) = (   0.0000000   0.0000000   0.0000000), wk =   0.0555556
        k(    2) = (   0.0000000   0.0342356   0.0000000), wk =   0.1111111
        k(    3) = (   0.0000000   0.0684711   0.0000000), wk =   0.1111111
        k(    4) = (   0.0000000  -0.1027067   0.0000000), wk =   0.0555556
        k(    5) = (   0.0296489   0.0171178   0.0000000), wk =   0.1111111
        k(    6) = (   0.0296489   0.0513533   0.0000000), wk =   0.1111111
        k(    7) = (   0.0296489   0.0855889   0.0000000), wk =   0.1111111
        k(    8) = (   0.0296489  -0.0855889   0.0000000), wk =   0.1111111
        k(    9) = (   0.0296489  -0.0513533   0.0000000), wk =   0.1111111
        k(   10) = (   0.0296489  -0.0171178   0.0000000), wk =   0.1111111
        k(   11) = (   0.0592977   0.0342356   0.0000000), wk =   0.1111111
        k(   12) = (   0.0592977   0.0684711   0.0000000), wk =   0.1111111
        k(   13) = (   0.0592977   0.1027067   0.0000000), wk =   0.1111111
        k(   14) = (   0.0592977  -0.0684711   0.0000000), wk =   0.1111111
        k(   15) = (   0.0592977  -0.0342356   0.0000000), wk =   0.1111111
        k(   16) = (   0.0592977   0.0000000   0.0000000), wk =   0.1111111
        k(   17) = (  -0.0889466  -0.0513533   0.0000000), wk =   0.0555556
        k(   18) = (  -0.0889466  -0.0171178   0.0000000), wk =   0.1111111
        k(   19) = (  -0.0889466   0.0171178   0.0000000), wk =   0.1111111
        k(   20) = (  -0.0889466  -0.1540600   0.0000000), wk =   0.0555556

     Largest allocated arrays     est. size (Mb)     dimensions
     Largest temporary arrays     est. size (Mb)     dimensions

     Check: negative/imaginary core charge=   -0.000001    0.000000

     Initial potential from superposition of free atoms
     Check: negative starting charge=   -1.638442

     starting charge  181.49671, renormalised to  186.00000

[...]

     *
     * You are using vdW-DF for exchange-correlation in this calculation.
     * Please cite the following three references that made this development
     * possible:
     *
     *   M. Dion, H. Rydberg, E. Schroder, D. C. Langreth, and
     *   B. I. Lundqvist, Phys. Rev. Lett. 92, 246401 (2004).
     *
     *   T. Thonhauser, V. R. Cooper, S. Li, A. Puzder, P. Hyldgaard, and
     *   D. C. Langreth, Phys. Rev. B 76, 125112 (2007).
     *
     *   G. Roman-Perez and J. M. Soler, Phys. Rev. Lett. 103, 096102 (2009).
     *
     *
     * If you are using vdW-DF2, please also cite:
     *
     *   K. Lee, E. D. Murray, L. Kong, B. I. Lundqvist, and
     *   D. C. Langreth, Phys. Rev. B 82, 081101(R) (2010).
     *
     *
     * If you are calculating the stress with vdW-DF, please also cite:
     *
     *   R. Sabatini, E. Kucukbenli, B. Kolb, T. Thonhauser, and
     *   S. de Gironcoli, J. Phys.: Condens. Matter 24, 424209 (2012).
     *

     Carrying out vdW-DF run using the following parameters:

     Nqs =      20    Nr_points =    1024   r_max =   100.000
     q_mesh =
               0.00001000     0.04494208     0.09755937     0.15916263
               0.23128650     0.31572767     0.41458969     0.53033537
               0.66584808     0.82450364     1.01025438     1.22772762
               1.48234092     1.78043706     2.12944203     2.53805004
               3.01644009     3.57652955     4.23227104     5.00000000

     Gradients computed in reciprocal space

[...]

     Starting wfc are  147 randomized atomic wfcs

     Self-consistent Calculation

[...]

     total energy              =   -2331.11994771 Ry
     Harris-Foulkes estimate   =   -2331.11994413 Ry
     estimated scf accuracy    <       0.00000205 Ry

     iteration # 17     ecut=    36.75 Ry     beta=0.10
     Davidson diagonalization with overlap
     ethr =  1.10E-09,  avg # of iterations =  1.2

[...]

     negative rho (up, down):  1.575E+00 0.000E+00

     Adding external electric field

     Computed dipole along edir(3) :
        Dipole                0.0072 Ry au,          0.0184 Debye
        Dipole field          0.0000 Ry au

        Potential amp.       -0.0018 Ry
        Total length         45.3063 bohr

     End of self-consistent calculation

[...]

          k = 0.0593 0.0000 0.0000 ( 17068 PWs)   bands (ev):

[...]

          k =-0.0889-0.1541 0.0000 ( 17120 PWs)   bands (ev):

   -60.0580 -59.7425 -59.7096 -51.3014 -51.2299 -51.1958 -51.1878 -51.1629
   -51.1304 -51.1167 -51.0938 -51.0309 -50.8980 -50.8527 -50.8488 -50.8270
   -50.8128 -50.7962 -50.7757 -50.7593 -50.7431 -50.7046 -50.6698 -50.6195
   -50.6006 -50.5850 -50.5731 -50.5399 -50.5289 -50.5171 -34.0913 -34.0220
   -34.0149 -33.7480 -33.7344 -33.7274 -33.7024 -33.7015 -33.6954  -4.9770
    -4.7073  -3.6533  -3.5581  -3.4321  -3.3532  -3.3086  -3.2352  -3.1611
    -2.9695  -2.9395  -2.7237  -2.6580  -2.4136  -2.4103  -2.2872  -2.2642
    -2.2195  -2.0739  -1.9754  -1.6098  -1.5696  -1.4215  -1.2818  -1.2389
    -1.2278  -1.1546  -1.0684  -0.9945  -0.9850  -0.9017  -0.8820  -0.8036
    -0.7836  -0.7160  -0.5886  -0.4688  -0.3776  -0.3114  -0.1430  -0.0591
     0.0931   0.2349   0.3069   0.3525   0.5161   0.8448   0.9343   0.9437
     0.9684   1.4026   1.5817   1.7849   1.8011   1.8511   1.9893   1.9943
     2.0929   2.4488   2.5526   2.6095   2.8857   2.9418   3.6086   3.9378
     3.9777   4.3656   5.0212   5.5793   6.0316   6.5000   6.7167   7.0330
     7.5085   7.9761   7.9994   8.5483   8.5707   8.6075   8.6216   9.3309
     9.7582   9.7792   9.8509

     the Fermi energy is     2.0856 ev

!    total energy              =   -2331.11996349 Ry
     Harris-Foulkes estimate   =   -2331.11994790 Ry
     estimated scf accuracy    <       0.00000092 Ry

     The total energy is the sum of the following terms:

     one-electron contribution =  -18739.17756736 Ry
     hartree contribution      =    9393.34412822 Ry
     xc contribution           =    -587.30686164 Ry
     ewald contribution        =    7602.10309383 Ry
     electric field correction =       0.00000014 Ry
     smearing contrib. (-TS)   =      -0.08275667 Ry

     convergence has been achieved in  17 iterations

 BEEF-vdW xc energy contributions
           1 :   -521.153106878275
           2 :    484.307667434918
           3 :   -418.493310670096
           4 :    336.695216027946
           5 :   -253.018402596222
           6 :    178.943077989283
           7 :   -120.989734705230
           8 :    80.2546958019970
           9 :   -53.6617686373306
          10 :    36.1970768449739
          11 :   -23.1881105044952
          12 :    11.8033413474536
          13 :   -1.41303528053800
          14 :   -7.05796874906241
          15 :    12.2721972024275
          16 :   -13.5309949004819
          17 :    11.2944104719869
          18 :   -7.04622864756357
          19 :    2.67771271560912
          20 :   0.248549071382172
          21 :   -1.01421263611996
          22 :  -0.150399225808656
          23 :    2.34588119305795
          24 :   -4.49195610786717
          25 :    5.78816979754663
          26 :   -5.97195260307444
          27 :    5.30644916269057
          28 :   -4.35791784664525
          29 :    3.69474429543004
          30 :   -3.64816340636537
          31 :   -44.3119007493121
          32 :   -32.9481211197462

     Forces acting on atoms (Ry/au):

     negative rho (up, down):  1.575E+00 0.000E+00
     atom    1 type  1   force =    -0.00000011    0.02061196    0.00289813
     atom    2 type  1   force =     0.01785051   -0.01030618    0.00289802
     atom    3 type  1   force =    -0.01785052   -0.01030590    0.00289799
     atom    4 type  2   force =     0.00000017    0.00000005    0.01026015
     atom    5 type  1   force =    -0.00000010   -0.00298274   -0.00379505
     atom    6 type  1   force =    -0.00258318    0.00149133   -0.00379492
     atom    7 type  1   force =     0.00258316    0.00149130   -0.00379484
     atom    8 type  2   force =     0.00000005    0.00000009   -0.00709829
     atom    9 type  1   force =     0.00000012   -0.00017809   -0.00014907
     atom   10 type  1   force =    -0.00015419    0.00008913   -0.00014920
     atom   11 type  1   force =     0.00015425    0.00008911   -0.00014927
     atom   12 type  2   force =    -0.00000016   -0.00000006   -0.00002366

     Total force =     0.039057     Total SCF correction =     0.003260

     entering subroutine stress ...

     negative rho (up, down):  1.575E+00 0.000E+00
          total   stress  (Ry/bohr**3)                   (kbar)     P=  -24.57
  -0.00023525   0.00000000  -0.00000000        -34.61      0.00     -0.00
   0.00000000  -0.00023525  -0.00000000          0.00    -34.61     -0.00
  -0.00000000  -0.00000000  -0.00003067         -0.00     -0.00     -4.51

 !ASE

     Writing output data file calc.save

     General routines

     Parallel routines

   This run was terminated on:  17:20: 8  31Dec2018

   JOB DONE.
Job  /afs/slac/g/suncat/bin/suncat-tsmpirun -x LD_LIBRARY_PATH -wdir /scratch/qe648812_F0shY pw.x -in pw.inp

TID   HOST_NAME   COMMAND_LINE            STATUS            TERMINATION_TIME
00000 suncat0121 pw.x -in pw.inp   Done                     12/31/2018 17:20:08
00001 suncat0121 pw.x -in pw.inp   Done                     12/31/2018 17:20:08
00002 suncat0121 pw.x -in pw.inp   Done                     12/31/2018 17:20:08
00003 suncat0121 pw.x -in pw.inp   Done                     12/31/2018 17:20:08
00004 suncat0121 pw.x -in pw.inp   Done                     12/31/2018 17:20:08
00005 suncat0121 pw.x -in pw.inp   Done                     12/31/2018 17:20:08
00006 suncat0121 pw.x -in pw.inp   Done                     12/31/2018 17:20:08
00007 suncat0121 pw.x -in pw.inp   Done                     12/31/2018 17:20:08
00008 suncat0115 pw.x -in pw.inp   Done                     12/31/2018 17:20:08
00009 suncat0115 pw.x -in pw.inp   Done                     12/31/2018 17:20:08
00010 suncat0115 pw.x -in pw.inp   Done                     12/31/2018 17:20:08
00011 suncat0115 pw.x -in pw.inp   Done                     12/31/2018 17:20:08
00012 suncat0115 pw.x -in pw.inp   Done                     12/31/2018 17:20:08
00013 suncat0115 pw.x -in pw.inp   Done                     12/31/2018 17:20:08
00014 suncat0115 pw.x -in pw.inp   Done                     12/31/2018 17:20:08
00015 suncat0115 pw.x -in pw.inp   Done                     12/31/2018 17:20:08
00016 suncat0228 pw.x -in pw.inp   Done                     12/31/2018 17:20:08
00017 suncat0228 pw.x -in pw.inp   Done                     12/31/2018 17:20:08
00018 suncat0228 pw.x -in pw.inp   Done                     12/31/2018 17:20:08
00019 suncat0228 pw.x -in pw.inp   Done                     12/31/2018 17:20:08
00020 suncat0228 pw.x -in pw.inp   Done                     12/31/2018 17:20:08
00021 suncat0228 pw.x -in pw.inp   Done                     12/31/2018 17:20:08
00022 suncat0228 pw.x -in pw.inp   Done                     12/31/2018 17:20:08
00023 suncat0228 pw.x -in pw.inp   Done                     12/31/2018 17:20:08
00024 suncat0227 pw.x -in pw.inp   Done                     12/31/2018 17:20:08
00025 suncat0227 pw.x -in pw.inp   Done                     12/31/2018 17:20:08
00026 suncat0227 pw.x -in pw.inp   Done                     12/31/2018 17:20:08
00027 suncat0227 pw.x -in pw.inp   Done                     12/31/2018 17:20:08
00028 suncat0227 pw.x -in pw.inp   Done                     12/31/2018 17:20:08
00029 suncat0227 pw.x -in pw.inp   Done                     12/31/2018 17:20:08
00030 suncat0227 pw.x -in pw.inp   Done                     12/31/2018 17:20:08
00031 suncat0227 pw.x -in pw.inp   Done                     12/31/2018 17:20:08
00032 suncat0217 pw.x -in pw.inp   Done                     12/31/2018 17:20:08
00033 suncat0217 pw.x -in pw.inp   Done                     12/31/2018 17:20:08
00034 suncat0217 pw.x -in pw.inp   Done                     12/31/2018 17:20:08
00035 suncat0217 pw.x -in pw.inp   Done                     12/31/2018 17:20:08
00036 suncat0217 pw.x -in pw.inp   Done                     12/31/2018 17:20:08
00037 suncat0217 pw.x -in pw.inp   Done                     12/31/2018 17:20:08
00038 suncat0217 pw.x -in pw.inp   Done                     12/31/2018 17:20:08
00039 suncat0217 pw.x -in pw.inp   Done                     12/31/2018 17:20:08
00040 suncat0216 pw.x -in pw.inp   Done                     12/31/2018 17:20:08
00041 suncat0216 pw.x -in pw.inp   Done                     12/31/2018 17:20:08
00042 suncat0216 pw.x -in pw.inp   Done                     12/31/2018 17:20:08
00043 suncat0216 pw.x -in pw.inp   Done                     12/31/2018 17:20:08
00044 suncat0216 pw.x -in pw.inp   Done                     12/31/2018 17:20:08
00045 suncat0216 pw.x -in pw.inp   Done                     12/31/2018 17:20:08
00046 suncat0216 pw.x -in pw.inp   Done                     12/31/2018 17:20:08
00047 suncat0216 pw.x -in pw.inp   Done                     12/31/2018 17:20:08
00048 suncat0215 pw.x -in pw.inp   Done                     12/31/2018 17:20:08
00049 suncat0215 pw.x -in pw.inp   Done                     12/31/2018 17:20:08
00050 suncat0215 pw.x -in pw.inp   Done                     12/31/2018 17:20:08
00051 suncat0215 pw.x -in pw.inp   Done                     12/31/2018 17:20:08
00052 suncat0215 pw.x -in pw.inp   Done                     12/31/2018 17:20:08
00053 suncat0215 pw.x -in pw.inp   Done                     12/31/2018 17:20:08
00054 suncat0215 pw.x -in pw.inp   Done                     12/31/2018 17:20:08
00055 suncat0215 pw.x -in pw.inp   Done                     12/31/2018 17:20:08
00056 suncat0210 pw.x -in pw.inp   Done                     12/31/2018 17:20:08
00057 suncat0210 pw.x -in pw.inp   Done                     12/31/2018 17:20:08
00058 suncat0210 pw.x -in pw.inp   Done                     12/31/2018 17:20:08
00059 suncat0210 pw.x -in pw.inp   Done                     12/31/2018 17:20:08
00060 suncat0210 pw.x -in pw.inp   Done                     12/31/2018 17:20:08
00061 suncat0210 pw.x -in pw.inp   Done                     12/31/2018 17:20:08
00062 suncat0210 pw.x -in pw.inp   Done                     12/31/2018 17:20:08
00063 suncat0210 pw.x -in pw.inp   Done                     12/31/2018 17:20:08