     Program PWSCF v.5.1rc2 (svn rev. 11289) starts on 25Dec2018 at  2:56:33

     Current dimensions of program PWSCF are:
     Max number of different atomic species (ntypx) = 10
     Max number of k-points (npk) =  40000
     Max angular momentum in pseudopotentials (lmaxx) =  3
     Presently stress not available with electric field

     IMPORTANT: XC functional enforced from input :
     Exchange-correlation      = BEEF-VDW ( 1  4 27 13 2)
     Any further DFT definition will be discarded
     Please, verify this is what you really want

     Subspace diagonalization in iterative solution of the eigenvalue problem:
     a serial algorithm will be used

     Found symmetry operation: I + ( -0.5000  0.5000  0.0000)
     This is a supercell, fractional translations are disabled

     bravais-lattice index     =            0
     lattice parameter (alat)  =       1.8897  a.u.
     unit-cell volume          =    4451.9038 (a.u.)^3
     number of atoms/cell      =           12
     number of atomic types    =            2
     number of electrons       =       180.00
     number of Kohn-Sham states=          120
     kinetic-energy cutoff     =      36.7493  Ry
     charge density cutoff     =     367.4932  Ry
     convergence threshold     =      1.0E-06
     mixing beta               =       0.1000
     number of iterations used =           10  plain     mixing
     Exchange-correlation      = BEEF-VDW ( 1  4 27 13 2)
     nstep                     =           50

     celldm(1)=   1.889726  celldm(2)=   0.000000  celldm(3)=   0.000000
     celldm(4)=   0.000000  celldm(5)=   0.000000  celldm(6)=   0.000000

     crystal axes: (cart. coord. in units of alat)
               a(1) = (   5.555546   0.000000   0.000000 )
               a(2) = (   2.732066   4.837345   0.000000 )
               a(3) = (   0.000000   0.000000  24.547960 )

     reciprocal axes: (cart. coord. in units 2 pi/alat)
               b(1) = (  0.180000 -0.101662  0.000000 )
               b(2) = (  0.000000  0.206725  0.000000 )
               b(3) = (  0.000000  0.000000  0.040737 )

     PseudoPot. # 1 for W  read from file:
     /afs/slac.stanford.edu/u/if/mamunm/psp/gbrv1.5pbe/W.UPF
     MD5 check sum: 9c083fa34c2a2ea0f02f1f893e16e1c8
     Pseudo is Ultrasoft + core correction, Zval = 14.0
     Generated by new atomic code, or converted to UPF format
     Using radial grid of  923 points,  8 beta functions with:
                l(1) =   0
                l(2) =   0
                l(3) =   0
                l(4) =   1
                l(5) =   1
                l(6) =   2
                l(7) =   2
                l(8) =   3
     Q(r) pseudized with  6 coefficients,  rinner =    1.350   1.350   1.350
                                                       1.350   1.350   1.350
                                                       1.350

     PseudoPot. # 2 for Os read from file:
     /afs/slac.stanford.edu/u/if/mamunm/psp/gbrv1.5pbe/Os.UPF
     MD5 check sum: a3fb40a04f0c37c25c34bbc47164c9a8
     Pseudo is Ultrasoft + core correction, Zval = 16.0
     Generated by new atomic code, or converted to UPF format
     Using radial grid of  983 points,  8 beta functions with:
                l(1) =   0
                l(2) =   0
                l(3) =   1
                l(4) =   1
                l(5) =   2
                l(6) =   2
                l(7) =   3
                l(8) =   3
     Q(r) pseudized with  8 coefficients,  rinner =    1.150   1.150   1.150
                                                       1.150   1.150   1.150
                                                       1.150

     vdW kernel table read from file vdW_kernel_table
     MD5 check sum: 095c7af220d748ca6e76c0b4c6cfb241

     atomic species   valence    mass     pseudopotential
        W1            14.00   183.84000     W ( 1.00)
        Os1           16.00   190.23000     Os( 1.00)

     No symmetry found

   Cartesian axes

     site n.     atom                  positions (alat units)
         1           W1  tau(   1) = (   0.0000000   0.0000000  10.0000000  )
         2           W1  tau(   2) = (   4.1438061   2.4186723  10.0000000  )
         3           Os1 tau(   3) = (   2.7777729   0.0000000  10.0000000  )
         4           Os1 tau(   4) = (   1.3660332   2.4186723  10.0000000  )
         5           W1  tau(   5) = (   5.5555459   3.2426819  12.2739798  )
         6           W1  tau(   6) = (   1.4117398   0.8240096  12.2739798  )
         7           Os1 tau(   7) = (   2.7777729   3.2426819  12.2739798  )
         8           Os1 tau(   8) = (   4.1895127   0.8240096  12.2739798  )
         9           W1  tau(   9) = (   2.8234795   1.6480191  14.5479596  )
        10           W1  tau(  10) = (   6.9672856   4.0666915  14.5479596  )
        11           Os1 tau(  11) = (   5.6012524   1.6480191  14.5479596  )
        12           Os1 tau(  12) = (   4.1895127   4.0666915  14.5479596  )

     number of k points=    20  Fermi-Dirac smearing, width (Ry)=  0.0110
                       cart. coord. in units 2pi/alat
        k(    1) = (   0.0000000   0.0000000   0.0000000), wk =   0.0555556
        k(    2) = (   0.0000000   0.0344542   0.0000000), wk =   0.1111111
        k(    3) = (   0.0000000   0.0689083   0.0000000), wk =   0.1111111
        k(    4) = (   0.0000000  -0.1033625   0.0000000), wk =   0.0555556
        k(    5) = (   0.0300001  -0.0169436   0.0000000), wk =   0.1111111
        k(    6) = (   0.0300001   0.0175105   0.0000000), wk =   0.1111111
        k(    7) = (   0.0300001   0.0519647   0.0000000), wk =   0.1111111
        k(    8) = (   0.0300001  -0.1203061   0.0000000), wk =   0.1111111
        k(    9) = (   0.0300001  -0.0858519   0.0000000), wk =   0.1111111
        k(   10) = (   0.0300001  -0.0513978   0.0000000), wk =   0.1111111
        k(   11) = (   0.0600001  -0.0338872   0.0000000), wk =   0.1111111
        k(   12) = (   0.0600001   0.0005669   0.0000000), wk =   0.1111111
        k(   13) = (   0.0600001   0.0350211   0.0000000), wk =   0.1111111
        k(   14) = (   0.0600001  -0.1372497   0.0000000), wk =   0.1111111
        k(   15) = (   0.0600001  -0.1027956   0.0000000), wk =   0.1111111
        k(   16) = (   0.0600001  -0.0683414   0.0000000), wk =   0.1111111
        k(   17) = (  -0.0900002   0.0508309   0.0000000), wk =   0.0555556
        k(   18) = (  -0.0900002   0.0852850   0.0000000), wk =   0.1111111
        k(   19) = (  -0.0900002   0.1197392   0.0000000), wk =   0.1111111
        k(   20) = (  -0.0900002  -0.0525316   0.0000000), wk =   0.0555556

     Largest allocated arrays     est. size (Mb)     dimensions
     Largest temporary arrays     est. size (Mb)     dimensions

     Initial potential from superposition of free atoms
     Check: negative starting charge=   -1.120848

     starting charge  176.39774, renormalised to  180.00000

     negative rho (up, down):  1.144E+00 0.000E+00

     *
     * You are using vdW-DF for exchange-correlation in this calculation.
     * Please cite the following three references that made this development
     * possible:
     *
     *   M. Dion, H. Rydberg, E. Schroder, D. C. Langreth, and
     *   B. I. Lundqvist, Phys. Rev. Lett. 92, 246401 (2004).
     *
     *   T. Thonhauser, V. R. Cooper, S. Li, A. Puzder, P. Hyldgaard, and
     *   D. C. Langreth, Phys. Rev. B 76, 125112 (2007).
     *
     *   G. Roman-Perez and J. M. Soler, Phys. Rev. Lett. 103, 096102 (2009).
     *
     *
     * If you are using vdW-DF2, please also cite:
     *
     *   K. Lee, E. D. Murray, L. Kong, B. I. Lundqvist, and
     *   D. C. Langreth, Phys. Rev. B 82, 081101(R) (2010).
     *
     *
     * If you are calculating the stress with vdW-DF, please also cite:
     *
     *   R. Sabatini, E. Kucukbenli, B. Kolb, T. Thonhauser, and
     *   S. de Gironcoli, J. Phys.: Condens. Matter 24, 424209 (2012).
     *

     Carrying out vdW-DF run using the following parameters:

     Nqs =      20    Nr_points =    1024   r_max =   100.000
     q_mesh =
               0.00001000     0.04494208     0.09755937     0.15916263
               0.23128650     0.31572767     0.41458969     0.53033537
               0.66584808     0.82450364     1.01025438     1.22772762
               1.48234092     1.78043706     2.12944203     2.53805004
               3.01644009     3.57652955     4.23227104     5.00000000

     Gradients computed in reciprocal space

     Adding external electric field

     Computed dipole along edir(3) :
        Dipole                0.0000 Ry au,          0.0000 Debye
        Dipole field          0.0000 Ry au

        Potential amp.       -0.0000 Ry
        Total length         45.2292 bohr

     Starting wfc are  156 randomized atomic wfcs

     Self-consistent Calculation

     iteration #  1     ecut=    36.75 Ry     beta=0.10
     Davidson diagonalization with overlap
     ethr =  1.00E-02,  avg # of iterations =  2.5

[...]

     total energy              =   -2161.29804276 Ry
     Harris-Foulkes estimate   =   -2161.70458061 Ry
     estimated scf accuracy    <       2.55428787 Ry

[...]

     End of self-consistent calculation

          k = 0.0000 0.0000 0.0000 ( 16707 PWs)   bands (ev):

   -83.8059 -83.7855 -83.5244 -83.5242 -83.5043 -83.5041 -71.7687 -71.7571
   -71.7374 -71.7259 -71.7149 -71.6947 -43.2858 -43.1868 -43.1395 -43.0965
   -43.0478 -42.9665 -42.9643 -42.8850 -42.8537 -42.8146 -42.8047 -42.7654
   -42.7638 -42.7578 -42.7178 -42.7089 -42.5731 -42.5728 -36.2006 -36.0964
   -36.0337 -36.0270 -36.0221 -35.9722 -35.8997 -35.8721 -35.8242 -35.8125
   -35.7639 -35.7636 -35.7055 -35.5737 -35.5190 -35.5132 -35.3623 -35.3585
    -6.1471  -4.2552  -3.6520  -3.2256  -3.2176  -3.2029  -2.9268  -2.9236
    -2.9147  -2.3008  -2.2468  -2.2382  -2.1382  -2.0840  -2.0612  -0.7328
    -0.6631  -0.5083   0.2097   0.2251   0.2761   0.3927   0.6129   0.7773
     1.0809   1.1251   1.1502   1.3366   1.3637   1.4939   1.6497   1.6793
     1.7834   1.9476   1.9608   2.0608   2.8410   2.8540   3.0065   3.0763
     3.1358   3.1533   3.2849   3.9207   4.0281   4.1987   4.3954   4.4067
     4.4662   4.6275   4.8565   4.9857   5.0403   5.2357   5.6344   5.8183
     5.9238   5.9889   6.0790   6.1576   6.2293   6.7368   6.7656   6.9096
     6.9804   7.0608   7.0776   7.0861   7.1817   7.2580   7.4608   7.5601

[...]

          k =-0.0900 0.0508 0.0000 ( 16726 PWs)   bands (ev):

[...]

     the Fermi energy is     2.7101 ev

!    total energy              =   -2161.17356812 Ry
     Harris-Foulkes estimate   =   -2161.17356440 Ry
     estimated scf accuracy    <       0.00000076 Ry

     The total energy is the sum of the following terms:

     one-electron contribution =  -17819.92135316 Ry
     hartree contribution      =    8892.67964361 Ry
     xc contribution           =    -487.26356080 Ry
     ewald contribution        =    7253.40100452 Ry
     electric field correction =       0.00000000 Ry
     smearing contrib. (-TS)   =      -0.06930229 Ry

     convergence has been achieved in  15 iterations

 BEEF-vdW xc energy contributions
           1 :   -427.954995917128
           2 :    396.351465986880
[...]
     Using radial grid of  923 points,  8 beta functions with:
                l(1) =   0
                l(2) =   0
                l(3) =   0
                l(4) =   1
                l(5) =   1
                l(6) =   2
                l(7) =   2
                l(8) =   3
     Q(r) pseudized with  6 coefficients,  rinner =    1.350   1.350   1.350
                                                       1.350   1.350   1.350
                                                       1.350

     PseudoPot. # 2 for Os read from file:
     /afs/slac.stanford.edu/u/if/mamunm/psp/gbrv1.5pbe/Os.UPF
     MD5 check sum: a3fb40a04f0c37c25c34bbc47164c9a8
     Pseudo is Ultrasoft + core correction, Zval = 16.0
     Generated by new atomic code, or converted to UPF format
     Using radial grid of  983 points,  8 beta functions with:
                l(1) =   0
                l(2) =   0
                l(3) =   1
                l(4) =   1
                l(5) =   2
                l(6) =   2
                l(7) =   3
                l(8) =   3
     Q(r) pseudized with  8 coefficients,  rinner =    1.150   1.150   1.150
                                                       1.150   1.150   1.150
                                                       1.150

     vdW kernel table read from file vdW_kernel_table
     MD5 check sum: 095c7af220d748ca6e76c0b4c6cfb241

     atomic species   valence    mass     pseudopotential
        W1            14.00   183.84000     W ( 1.00)
        Os1           16.00   190.23000     Os( 1.00)

     No symmetry found

   Cartesian axes

     site n.     atom                  positions (alat units)
         1           W1  tau(   1) = (   0.0000000   0.0000000  10.0000000  )
         2           W1  tau(   2) = (   4.1438061   2.4186723  10.0000000  )
         3           Os1 tau(   3) = (   2.7777729   0.0000000  10.0000000  )
         4           Os1 tau(   4) = (   1.3660332   2.4186723  10.0000000  )
         5           W1  tau(   5) = (   5.5555459   3.2426819  12.2739798  )
         6           W1  tau(   6) = (   1.4117398   0.8240096  12.2739798  )
         7           Os1 tau(   7) = (   2.7777729   3.2426819  12.2739798  )
         8           Os1 tau(   8) = (   4.1895127   0.8240096  12.2739798  )
         9           W1  tau(   9) = (   2.8215491   1.6468935  14.4355166  )
        10           W1  tau(  10) = (   6.9653542   4.0655633  14.4355150  )
        11           Os1 tau(  11) = (   5.5903774   1.6416735  14.4657210  )
        12           Os1 tau(  12) = (   4.1786405   4.0603447  14.4657206  )

     number of k points=    20  Fermi-Dirac smearing, width (Ry)=  0.0110
                       cart. coord. in units 2pi/alat
        k(    1) = (   0.0000000   0.0000000   0.0000000), wk =   0.0555556
        k(    2) = (   0.0000000   0.0344542   0.0000000), wk =   0.1111111
        k(    3) = (   0.0000000   0.0689083   0.0000000), wk =   0.1111111
        k(    4) = (   0.0000000  -0.1033625   0.0000000), wk =   0.0555556
        k(    5) = (   0.0300001  -0.0169436   0.0000000), wk =   0.1111111
        k(    6) = (   0.0300001   0.0175105   0.0000000), wk =   0.1111111
        k(    7) = (   0.0300001   0.0519647   0.0000000), wk =   0.1111111
        k(    8) = (   0.0300001  -0.1203061   0.0000000), wk =   0.1111111
        k(    9) = (   0.0300001  -0.0858519   0.0000000), wk =   0.1111111
        k(   10) = (   0.0300001  -0.0513978   0.0000000), wk =   0.1111111
        k(   11) = (   0.0600001  -0.0338872   0.0000000), wk =   0.1111111
        k(   12) = (   0.0600001   0.0005669   0.0000000), wk =   0.1111111
        k(   13) = (   0.0600001   0.0350211   0.0000000), wk =   0.1111111
        k(   14) = (   0.0600001  -0.1372497   0.0000000), wk =   0.1111111
        k(   15) = (   0.0600001  -0.1027956   0.0000000), wk =   0.1111111
        k(   16) = (   0.0600001  -0.0683414   0.0000000), wk =   0.1111111
        k(   17) = (  -0.0900002   0.0508309   0.0000000), wk =   0.0555556
        k(   18) = (  -0.0900002   0.0852850   0.0000000), wk =   0.1111111
        k(   19) = (  -0.0900002   0.1197392   0.0000000), wk =   0.1111111
        k(   20) = (  -0.0900002  -0.0525316   0.0000000), wk =   0.0555556

     Largest allocated arrays     est. size (Mb)     dimensions
     Largest temporary arrays     est. size (Mb)     dimensions

     Initial potential from superposition of free atoms
     Check: negative starting charge=   -1.121073

     starting charge  176.39774, renormalised to  180.00000

[...]

     *
     * You are using vdW-DF for exchange-correlation in this calculation.
     * Please cite the following three references that made this development
     * possible:
     *
     *   M. Dion, H. Rydberg, E. Schroder, D. C. Langreth, and
     *   B. I. Lundqvist, Phys. Rev. Lett. 92, 246401 (2004).
     *
     *   T. Thonhauser, V. R. Cooper, S. Li, A. Puzder, P. Hyldgaard, and
     *   D. C. Langreth, Phys. Rev. B 76, 125112 (2007).
     *
     *   G. Roman-Perez and J. M. Soler, Phys. Rev. Lett. 103, 096102 (2009).
     *
     *
     * If you are using vdW-DF2, please also cite:
     *
     *   K. Lee, E. D. Murray, L. Kong, B. I. Lundqvist, and
     *   D. C. Langreth, Phys. Rev. B 82, 081101(R) (2010).
     *
     *
     * If you are calculating the stress with vdW-DF, please also cite:
     *
     *   R. Sabatini, E. Kucukbenli, B. Kolb, T. Thonhauser, and
     *   S. de Gironcoli, J. Phys.: Condens. Matter 24, 424209 (2012).
     *

     Carrying out vdW-DF run using the following parameters:

     Nqs =      20    Nr_points =    1024   r_max =   100.000
     q_mesh =
               0.00001000     0.04494208     0.09755937     0.15916263
               0.23128650     0.31572767     0.41458969     0.53033537
               0.66584808     0.82450364     1.01025438     1.22772762
               1.48234092     1.78043706     2.12944203     2.53805004
               3.01644009     3.57652955     4.23227104     5.00000000

     Gradients computed in reciprocal space

[...]

     Starting wfc are  156 randomized atomic wfcs

     Self-consistent Calculation

[...]

     total energy              =   -2161.18689474 Ry
     Harris-Foulkes estimate   =   -2161.18689357 Ry
     estimated scf accuracy    <       0.00000101 Ry

     iteration # 16     ecut=    36.75 Ry     beta=0.10
     Davidson diagonalization with overlap
     ethr =  5.64E-10,  avg # of iterations =  2.1

[...]

     negative rho (up, down):  1.146E+00 0.000E+00

     Adding external electric field

     Computed dipole along edir(3) :
        Dipole                0.0272 Ry au,          0.0692 Debye
        Dipole field          0.0001 Ry au

        Potential amp.       -0.0070 Ry
        Total length         45.2292 bohr

     End of self-consistent calculation

[...]

          k = 0.0600-0.0683 0.0000 ( 16776 PWs)   bands (ev):

[...]

          k =-0.0900-0.0525 0.0000 ( 16784 PWs)   bands (ev):

   -83.8036 -83.7831 -83.5039 -83.4838 -83.4789 -83.4587 -71.7780 -71.7357
   -71.6846 -71.6409 -71.6051 -71.5624 -43.3030 -43.1975 -43.1533 -43.0965
   -43.0523 -42.9423 -42.9296 -42.9041 -42.8335 -42.7920 -42.7633 -42.7321
   -42.7271 -42.7096 -42.6914 -42.6709 -42.5549 -42.5404 -36.1784 -36.1224
   -36.0546 -36.0381 -35.9331 -35.9231 -35.8623 -35.8562 -35.8000 -35.7773
   -35.7355 -35.7268 -35.6552 -35.4766 -35.4606 -35.3970 -35.3751 -35.2487
    -4.3321  -4.1262  -2.6822  -2.6099  -2.2817  -2.2809  -2.2135  -2.0846
    -1.8965  -1.8521  -1.5397  -1.3276  -1.1223  -0.9389  -0.8733  -0.7915
    -0.6707  -0.5503  -0.2625  -0.2059  -0.1768   0.3545   0.3882   0.6057
     0.6448   0.7052   0.7632   0.7788   0.9501   1.1482   1.2550   1.2978
     1.3225   1.3610   1.3893   1.5697   1.6619   1.6873   1.7364   1.7682
     1.9376   2.1971   2.5859   2.6957   2.8350   2.8599   3.3437   3.4956
     3.5190   3.5720   3.8046   3.8387   4.0796   4.2395   4.6570   4.8649
     4.9855   5.0948   5.2894   5.4441   5.4722   5.9952   6.3136   6.4500
     6.5741   6.9101   7.3134   7.4643   7.8674   8.3338   8.6828   8.7860

     the Fermi energy is     2.7289 ev

!    total energy              =   -2161.18689765 Ry
     Harris-Foulkes estimate   =   -2161.18689474 Ry
     estimated scf accuracy    <       0.00000027 Ry

     The total energy is the sum of the following terms:

     one-electron contribution =  -18067.50142923 Ry
     hartree contribution      =    9016.66144672 Ry
     xc contribution           =    -487.54312210 Ry
     ewald contribution        =    7377.26229668 Ry
     electric field correction =       0.00000209 Ry
     smearing contrib. (-TS)   =      -0.06609181 Ry

     convergence has been achieved in  16 iterations

 BEEF-vdW xc energy contributions
           1 :   -428.235759352038
           2 :    396.719577640887
           3 :   -341.036748801872
           4 :    273.239048105845
           5 :   -206.176235463965
           6 :    149.851270309520
           7 :   -109.223586652315
           8 :    83.9689698604532
           9 :   -69.9699680084827
          10 :    61.7004783924132
          11 :   -54.4838437655803
          12 :    45.8361489952564
          13 :   -35.6305048994003
          14 :    25.3169580435224
          15 :   -16.7418652471563
          16 :    11.1260944246403
          17 :   -8.57342163438216
          18 :    8.18546872683760
          19 :   -8.60524610153720
          20 :    8.66097457395762
          21 :   -7.80274558525139
          22 :    6.17010199689986
          23 :   -4.33411480232576
          24 :    2.89942605712986
          25 :   -2.18400490727424
          26 :    2.11123290327635
          27 :   -2.32372087773689
          28 :    2.41722740440059
          29 :   -2.15524400803429
          30 :    1.55804493872074
          31 :   -39.5537471234258
          32 :   -29.9339962489963

     Forces acting on atoms (Ry/au):

     negative rho (up, down):  1.146E+00 0.000E+00
     atom    1 type  1   force =    -0.00116438   -0.00068015    0.03162511
     atom    2 type  1   force =    -0.00116430   -0.00067887    0.03162457
     atom    3 type  2   force =     0.00300394    0.00175272    0.01595731
     atom    4 type  2   force =     0.00300427    0.00175427    0.01595717
     atom    5 type  1   force =    -0.00004052   -0.00002400   -0.02137150
     atom    6 type  1   force =    -0.00004093   -0.00002349   -0.02137072
     atom    7 type  2   force =    -0.00075113   -0.00043795   -0.02708000
     atom    8 type  2   force =    -0.00075118   -0.00043879   -0.02707976
     atom    9 type  1   force =    -0.00086836   -0.00050783    0.00031353
     atom   10 type  1   force =    -0.00086735   -0.00050567    0.00031405
     atom   11 type  2   force =    -0.00017960   -0.00010683    0.00055476
     atom   12 type  2   force =    -0.00018046   -0.00010340    0.00055548

     Total force =     0.070156     Total SCF correction =     0.003303

     entering subroutine stress ...

     negative rho (up, down):  1.146E+00 0.000E+00
          total   stress  (Ry/bohr**3)                   (kbar)     P=  -33.73
  -0.00027187   0.00000379  -0.00000492        -39.99      0.56     -0.72
   0.00000379  -0.00027616  -0.00000287          0.56    -40.62     -0.42
  -0.00000492  -0.00000287  -0.00013984         -0.72     -0.42    -20.57

 !ASE

     Writing output data file calc.save

     General routines

     Parallel routines

   This run was terminated on:   4: 7:43  25Dec2018

   JOB DONE.
Job  /afs/slac/g/suncat/bin/suncat-tsmpirun -x LD_LIBRARY_PATH -wdir /scratch/qe109163_z9Mmc pw.x -in pw.inp

TID   HOST_NAME   COMMAND_LINE            STATUS            TERMINATION_TIME
00000 suncat0044 pw.x -in pw.inp   Done                     12/25/2018 04:07:43
00001 suncat0044 pw.x -in pw.inp   Done                     12/25/2018 04:07:43
00002 suncat0044 pw.x -in pw.inp   Done                     12/25/2018 04:07:44
00003 suncat0044 pw.x -in pw.inp   Done                     12/25/2018 04:07:43
00004 suncat0044 pw.x -in pw.inp   Done                     12/25/2018 04:07:43
00005 suncat0044 pw.x -in pw.inp   Done                     12/25/2018 04:07:43
00006 suncat0044 pw.x -in pw.inp   Done                     12/25/2018 04:07:43
00007 suncat0044 pw.x -in pw.inp   Done                     12/25/2018 04:07:43
00008 suncat0038 pw.x -in pw.inp   Done                     12/25/2018 04:07:43
00009 suncat0038 pw.x -in pw.inp   Done                     12/25/2018 04:07:43
00010 suncat0038 pw.x -in pw.inp   Done                     12/25/2018 04:07:43
00011 suncat0038 pw.x -in pw.inp   Done                     12/25/2018 04:07:43
00012 suncat0038 pw.x -in pw.inp   Done                     12/25/2018 04:07:43
00013 suncat0038 pw.x -in pw.inp   Done                     12/25/2018 04:07:43
00014 suncat0038 pw.x -in pw.inp   Done                     12/25/2018 04:07:43
00015 suncat0038 pw.x -in pw.inp   Done                     12/25/2018 04:07:43
00016 suncat0037 pw.x -in pw.inp   Done                     12/25/2018 04:07:43
00017 suncat0037 pw.x -in pw.inp   Done                     12/25/2018 04:07:43
00018 suncat0037 pw.x -in pw.inp   Done                     12/25/2018 04:07:44
00019 suncat0037 pw.x -in pw.inp   Done                     12/25/2018 04:07:43
00020 suncat0037 pw.x -in pw.inp   Done                     12/25/2018 04:07:43
00021 suncat0037 pw.x -in pw.inp   Done                     12/25/2018 04:07:43
00022 suncat0037 pw.x -in pw.inp   Done                     12/25/2018 04:07:43
00023 suncat0037 pw.x -in pw.inp   Done                     12/25/2018 04:07:43
00024 suncat0036 pw.x -in pw.inp   Done                     12/25/2018 04:07:43
00025 suncat0036 pw.x -in pw.inp   Done                     12/25/2018 04:07:44
00026 suncat0036 pw.x -in pw.inp   Done                     12/25/2018 04:07:44
00027 suncat0036 pw.x -in pw.inp   Done                     12/25/2018 04:07:43
00028 suncat0036 pw.x -in pw.inp   Done                     12/25/2018 04:07:43
00029 suncat0036 pw.x -in pw.inp   Done                     12/25/2018 04:07:44
00030 suncat0036 pw.x -in pw.inp   Done                     12/25/2018 04:07:43
00031 suncat0036 pw.x -in pw.inp   Done                     12/25/2018 04:07:44
00032 suncat0035 pw.x -in pw.inp   Done                     12/25/2018 04:07:43
00033 suncat0035 pw.x -in pw.inp   Done                     12/25/2018 04:07:43
00034 suncat0035 pw.x -in pw.inp   Done                     12/25/2018 04:07:43
00035 suncat0035 pw.x -in pw.inp   Done                     12/25/2018 04:07:43
00036 suncat0035 pw.x -in pw.inp   Done                     12/25/2018 04:07:43
00037 suncat0035 pw.x -in pw.inp   Done                     12/25/2018 04:07:43
00038 suncat0035 pw.x -in pw.inp   Done                     12/25/2018 04:07:43
00039 suncat0035 pw.x -in pw.inp   Done                     12/25/2018 04:07:43
00040 suncat0033 pw.x -in pw.inp   Done                     12/25/2018 04:07:44
00041 suncat0033 pw.x -in pw.inp   Done                     12/25/2018 04:07:44
00042 suncat0033 pw.x -in pw.inp   Done                     12/25/2018 04:07:44
00043 suncat0033 pw.x -in pw.inp   Done                     12/25/2018 04:07:43
00044 suncat0033 pw.x -in pw.inp   Done                     12/25/2018 04:07:43
00045 suncat0033 pw.x -in pw.inp   Done                     12/25/2018 04:07:44
00046 suncat0033 pw.x -in pw.inp   Done                     12/25/2018 04:07:44
00047 suncat0033 pw.x -in pw.inp   Done                     12/25/2018 04:07:44
00048 suncat0032 pw.x -in pw.inp   Done                     12/25/2018 04:07:44
00049 suncat0032 pw.x -in pw.inp   Done                     12/25/2018 04:07:43
00050 suncat0032 pw.x -in pw.inp   Done                     12/25/2018 04:07:43
00051 suncat0032 pw.x -in pw.inp   Done                     12/25/2018 04:07:43
00052 suncat0032 pw.x -in pw.inp   Done                     12/25/2018 04:07:43
00053 suncat0032 pw.x -in pw.inp   Done                     12/25/2018 04:07:43
00054 suncat0032 pw.x -in pw.inp   Done                     12/25/2018 04:07:43
00055 suncat0032 pw.x -in pw.inp   Done                     12/25/2018 04:07:43
00056 suncat0019 pw.x -in pw.inp   Done                     12/25/2018 04:07:43
00057 suncat0019 pw.x -in pw.inp   Done                     12/25/2018 04:07:43
00058 suncat0019 pw.x -in pw.inp   Done                     12/25/2018 04:07:44
00059 suncat0019 pw.x -in pw.inp   Done                     12/25/2018 04:07:44
00060 suncat0019 pw.x -in pw.inp   Done                     12/25/2018 04:07:43
00061 suncat0019 pw.x -in pw.inp   Done                     12/25/2018 04:07:43
00062 suncat0019 pw.x -in pw.inp   Done                     12/25/2018 04:07:43
00063 suncat0019 pw.x -in pw.inp   Done                     12/25/2018 04:07:44