     Program PWSCF v.5.1rc2 (svn rev. 11289) starts on 26Dec2018 at  7:20:12

     Current dimensions of program PWSCF are:
     Max number of different atomic species (ntypx) = 10
     Max number of k-points (npk) =  40000
     Max angular momentum in pseudopotentials (lmaxx) =  3
     Presently stress not available with electric field

     IMPORTANT: XC functional enforced from input :
     Exchange-correlation      = BEEF-VDW ( 1  4 27 13 2)
     Any further DFT definition will be discarded
     Please, verify this is what you really want

     Subspace diagonalization in iterative solution of the eigenvalue problem:
     a serial algorithm will be used

     bravais-lattice index     =            0
     lattice parameter (alat)  =       1.8897  a.u.
     unit-cell volume          =    5396.3697 (a.u.)^3
     number of atoms/cell      =           12
     number of atomic types    =            2
     number of electrons       =       153.00
     number of Kohn-Sham states=          106
     kinetic-energy cutoff     =      36.7493  Ry
     charge density cutoff     =     367.4932  Ry
     convergence threshold     =      1.0E-06
     mixing beta               =       0.1000
     number of iterations used =           10  plain     mixing
     Exchange-correlation      = BEEF-VDW ( 1  4 27 13 2)
     nstep                     =           50

     celldm(1)=   1.889726  celldm(2)=   0.000000  celldm(3)=   0.000000
     celldm(4)=   0.000000  celldm(5)=   0.000000  celldm(6)=   0.000000

     crystal axes: (cart. coord. in units of alat)
               a(1) = (   6.081579   0.000000   0.000000 )
               a(2) = (  -3.040789   5.266802   0.000000 )
               a(3) = (   0.000000   0.000000  24.965588 )

     reciprocal axes: (cart. coord. in units 2 pi/alat)
               b(1) = (  0.164431  0.094934  0.000000 )
               b(2) = (  0.000000  0.189869  0.000000 )
               b(3) = (  0.000000  0.000000  0.040055 )

     PseudoPot. # 1 for Hf read from file:
     /afs/slac.stanford.edu/u/if/mamunm/psp/gbrv1.5pbe/Hf.UPF
     MD5 check sum: 8ee9378dfe14276e333edf04c5e4aa26
     Pseudo is Ultrasoft + core correction, Zval = 12.0
     Generated by new atomic code, or converted to UPF format
     Using radial grid of  921 points,  8 beta functions with:
                l(1) =   0
                l(2) =   0
                l(3) =   0
                l(4) =   1
                l(5) =   1
                l(6) =   2
                l(7) =   2
                l(8) =   3
     Q(r) pseudized with  6 coefficients,  rinner =    1.200   1.200   1.200
                                                       1.200   1.200   1.200
                                                       1.200

     PseudoPot. # 2 for Rh read from file:
     /afs/slac.stanford.edu/u/if/mamunm/psp/gbrv1.5pbe/Rh.UPF
     MD5 check sum: 761627e959a2e3a1f56b0b5fe687810e
     Pseudo is Ultrasoft + core correction, Zval = 15.0
     Generated by new atomic code, or converted to UPF format
     Using radial grid of  969 points,  7 beta functions with:
                l(1) =   0
                l(2) =   0
                l(3) =   1
                l(4) =   1
                l(5) =   2
                l(6) =   2
                l(7) =   2
     Q(r) pseudized with  8 coefficients,  rinner =    1.200   1.200   1.200
                                                       1.200   1.200

     vdW kernel table read from file vdW_kernel_table
     MD5 check sum: 095c7af220d748ca6e76c0b4c6cfb241

     atomic species   valence    mass     pseudopotential
        Hf1           12.00   178.49000     Hf( 1.00)
        Rh1           15.00   102.90550     Rh( 1.00)

     No symmetry found

   Cartesian axes

     site n.     atom                  positions (alat units)
         1           Hf1 tau(   1) = (   0.0000000   0.0000000  10.0000000  )
         2           Hf1 tau(   2) = (  -1.5203947   2.6334008  10.0000000  )
         3           Hf1 tau(   3) = (   1.5203947   2.6334008  10.0000000  )
         4           Rh1 tau(   4) = (   3.0407894   0.0000000  10.0000000  )
         5           Hf1 tau(   5) = (   3.0407894   1.7556006  12.4827941  )
         6           Hf1 tau(   6) = (   1.5203947   4.3890014  12.4827941  )
         7           Hf1 tau(   7) = (  -1.5203947   4.3890014  12.4827941  )
         8           Rh1 tau(   8) = (   0.0000000   1.7556006  12.4827941  )
         9           Hf1 tau(   9) = (  -0.0000000   3.5112011  14.9655882  )
        10           Hf1 tau(  10) = (   1.5203947   0.8778003  14.9655882  )
        11           Hf1 tau(  11) = (   4.5611840   0.8778003  14.9655882  )
        12           Rh1 tau(  12) = (   3.0407894   3.5112011  14.9655882  )

     number of k points=    20  Fermi-Dirac smearing, width (Ry)=  0.0110
                       cart. coord. in units 2pi/alat
        k(    1) = (   0.0000000   0.0000000   0.0000000), wk =   0.0555556
        k(    2) = (   0.0000000   0.0316448   0.0000000), wk =   0.1111111
        k(    3) = (   0.0000000   0.0632895   0.0000000), wk =   0.1111111
        k(    4) = (   0.0000000  -0.0949343   0.0000000), wk =   0.0555556
        k(    5) = (   0.0274052   0.0158224   0.0000000), wk =   0.1111111
        k(    6) = (   0.0274052   0.0474671   0.0000000), wk =   0.1111111
        k(    7) = (   0.0274052   0.0791119   0.0000000), wk =   0.1111111
        k(    8) = (   0.0274052  -0.0791119   0.0000000), wk =   0.1111111
        k(    9) = (   0.0274052  -0.0474671   0.0000000), wk =   0.1111111
        k(   10) = (   0.0274052  -0.0158224   0.0000000), wk =   0.1111111
        k(   11) = (   0.0548103   0.0316448   0.0000000), wk =   0.1111111
        k(   12) = (   0.0548103   0.0632895   0.0000000), wk =   0.1111111
        k(   13) = (   0.0548103   0.0949343   0.0000000), wk =   0.1111111
        k(   14) = (   0.0548103  -0.0632895   0.0000000), wk =   0.1111111
        k(   15) = (   0.0548103  -0.0316448   0.0000000), wk =   0.1111111
        k(   16) = (   0.0548103   0.0000000   0.0000000), wk =   0.1111111
        k(   17) = (  -0.0822155  -0.0474671   0.0000000), wk =   0.0555556
        k(   18) = (  -0.0822155  -0.0158224   0.0000000), wk =   0.1111111
        k(   19) = (  -0.0822155   0.0158224   0.0000000), wk =   0.1111111
        k(   20) = (  -0.0822155  -0.1424014   0.0000000), wk =   0.0555556

     Largest allocated arrays     est. size (Mb)     dimensions
     Largest temporary arrays     est. size (Mb)     dimensions

     Check: negative/imaginary core charge=   -0.000003    0.000000

     Initial potential from superposition of free atoms
     Check: negative starting charge=   -1.125773

     starting charge  133.49969, renormalised to  153.00000

     negative rho (up, down):  1.290E+00 0.000E+00

     *
     * You are using vdW-DF for exchange-correlation in this calculation.
     * Please cite the following three references that made this development
     * possible:
     *
     *   M. Dion, H. Rydberg, E. Schroder, D. C. Langreth, and
     *   B. I. Lundqvist, Phys. Rev. Lett. 92, 246401 (2004).
     *
     *   T. Thonhauser, V. R. Cooper, S. Li, A. Puzder, P. Hyldgaard, and
     *   D. C. Langreth, Phys. Rev. B 76, 125112 (2007).
     *
     *   G. Roman-Perez and J. M. Soler, Phys. Rev. Lett. 103, 096102 (2009).
     *
     *
     * If you are using vdW-DF2, please also cite:
     *
     *   K. Lee, E. D. Murray, L. Kong, B. I. Lundqvist, and
     *   D. C. Langreth, Phys. Rev. B 82, 081101(R) (2010).
     *
     *
     * If you are calculating the stress with vdW-DF, please also cite:
     *
     *   R. Sabatini, E. Kucukbenli, B. Kolb, T. Thonhauser, and
     *   S. de Gironcoli, J. Phys.: Condens. Matter 24, 424209 (2012).
     *

     Carrying out vdW-DF run using the following parameters:

     Nqs =      20    Nr_points =    1024   r_max =   100.000
     q_mesh =
               0.00001000     0.04494208     0.09755937     0.15916263
               0.23128650     0.31572767     0.41458969     0.53033537
               0.66584808     0.82450364     1.01025438     1.22772762
               1.48234092     1.78043706     2.12944203     2.53805004
               3.01644009     3.57652955     4.23227104     5.00000000

     Gradients computed in reciprocal space

     Adding external electric field

     Computed dipole along edir(3) :
        Dipole                0.0000 Ry au,          0.0000 Debye
        Dipole field          0.0000 Ry au

        Potential amp.       -0.0000 Ry
        Total length         45.9987 bohr

     Starting wfc are  153 randomized atomic wfcs

     Self-consistent Calculation

     iteration #  1     ecut=    36.75 Ry     beta=0.10
     Davidson diagonalization with overlap
     ethr =  1.00E-02,  avg # of iterations =  7.8

[...]

     total energy              =   -1935.17814288 Ry
     Harris-Foulkes estimate   =   -1986.30653598 Ry
     estimated scf accuracy    <     287.30753629 Ry

[...]

     End of self-consistent calculation

          k = 0.0000 0.0000 0.0000 ( 20311 PWs)   bands (ev):

   -60.8805 -60.8792 -60.8304 -60.8304 -60.8302 -60.8302 -60.4661 -60.4170
   -60.4170 -44.6183 -44.6183 -44.5945 -44.2857 -44.2857 -44.2854 -44.2854
   -44.2458 -44.2455 -29.7836 -29.7484 -29.6554 -29.5850 -29.5850 -29.5339
   -29.5339 -29.5326 -29.5326 -29.5309 -29.4363 -29.4363 -29.4265 -29.1859
   -29.1667 -29.1348 -29.1348 -28.9868 -28.9868 -28.9715 -28.9715 -28.9152
   -28.8860 -28.8860 -28.7847 -28.6593 -28.6593  -4.9320  -3.5073  -2.5419
    -2.0354  -2.0354  -1.9344  -1.9344  -1.6399  -1.5265  -1.4092  -1.4092
    -1.2352  -1.2352  -1.1273  -0.9379  -0.4468  -0.4468  -0.0908  -0.0908
     0.0575   0.4252   0.5041   1.2168   1.3261   1.3261   1.5658   1.5658
     1.7329   1.7883   1.7921   1.7921   2.2003   2.2003   2.2807   2.3870
     2.3870   2.5625   2.6011   2.6011   2.9163   2.9163   3.3322   3.3322
     3.3965   3.4022   3.5422   3.5422   3.9081   4.9903   5.0894   5.0895
     5.1501   5.2674   5.5139   5.6968   5.6968   5.8646   5.8721   5.8722
     5.9328   5.9328

[...]

          k =-0.0822-0.0475 0.0000 ( 20348 PWs)   bands (ev):

[...]

     the Fermi energy is     1.7162 ev

!    total energy              =   -1961.73172586 Ry
     Harris-Foulkes estimate   =   -1961.76672467 Ry
     estimated scf accuracy    <       0.00000032 Ry

     The total energy is the sum of the following terms:

     one-electron contribution =  -10561.09889813 Ry
     hartree contribution      =    5279.82875599 Ry
     xc contribution           =    -789.14827122 Ry
     ewald contribution        =    4108.79215200 Ry
     electric field correction =       0.00000001 Ry
     smearing contrib. (-TS)   =      -0.10546451 Ry

     convergence has been achieved in  22 iterations

 BEEF-vdW xc energy contributions
           1 :   -709.680198309757
           2 :    658.836278057283
           3 :   -568.828534946502
           4 :    458.543570375336
           5 :   -347.658144578375
           6 :    251.026389354661
           7 :   -176.034597474280
           8 :    123.191382836572
           9 :   -88.7775912465021
          10 :    67.7301767962364
          11 :   -55.4937733447139
[...]
     Pseudo is Ultrasoft + core correction, Zval = 12.0
     Generated by new atomic code, or converted to UPF format
     Using radial grid of  921 points,  8 beta functions with:
                l(1) =   0
                l(2) =   0
                l(3) =   0
                l(4) =   1
                l(5) =   1
                l(6) =   2
                l(7) =   2
                l(8) =   3
     Q(r) pseudized with  6 coefficients,  rinner =    1.200   1.200   1.200
                                                       1.200   1.200   1.200
                                                       1.200

     PseudoPot. # 2 for Rh read from file:
     /afs/slac.stanford.edu/u/if/mamunm/psp/gbrv1.5pbe/Rh.UPF
     MD5 check sum: 761627e959a2e3a1f56b0b5fe687810e
     Pseudo is Ultrasoft + core correction, Zval = 15.0
     Generated by new atomic code, or converted to UPF format
     Using radial grid of  969 points,  7 beta functions with:
                l(1) =   0
                l(2) =   0
                l(3) =   1
                l(4) =   1
                l(5) =   2
                l(6) =   2
                l(7) =   2
     Q(r) pseudized with  8 coefficients,  rinner =    1.200   1.200   1.200
                                                       1.200   1.200

     vdW kernel table read from file vdW_kernel_table
     MD5 check sum: 095c7af220d748ca6e76c0b4c6cfb241

     atomic species   valence    mass     pseudopotential
        Hf1           12.00   178.49000     Hf( 1.00)
        Rh1           15.00   102.90550     Rh( 1.00)

     No symmetry found

   Cartesian axes

     site n.     atom                  positions (alat units)
         1           Hf1 tau(   1) = (   0.0000000   0.0000000  10.0000000  )
         2           Hf1 tau(   2) = (  -1.5203947   2.6334008  10.0000000  )
         3           Hf1 tau(   3) = (   1.5203947   2.6334008  10.0000000  )
         4           Rh1 tau(   4) = (   3.0407894   0.0000000  10.0000000  )
         5           Hf1 tau(   5) = (   3.0407894   1.7556006  12.4827941  )
         6           Hf1 tau(   6) = (   1.5203947   4.3890014  12.4827941  )
         7           Hf1 tau(   7) = (  -1.5203947   4.3890014  12.4827941  )
         8           Rh1 tau(   8) = (   0.0000000   1.7556006  12.4827941  )
         9           Hf1 tau(   9) = (   0.0000005   3.4731822  14.9513292  )
        10           Hf1 tau(  10) = (   1.4874640   0.8968112  14.9513263  )
        11           Hf1 tau(  11) = (   4.5941071   0.8968039  14.9513324  )
        12           Rh1 tau(  12) = (   3.0407863   3.5112042  14.6410804  )

     number of k points=    20  Fermi-Dirac smearing, width (Ry)=  0.0110
                       cart. coord. in units 2pi/alat
        k(    1) = (   0.0000000   0.0000000   0.0000000), wk =   0.0555556
        k(    2) = (   0.0000000   0.0316448   0.0000000), wk =   0.1111111
        k(    3) = (   0.0000000   0.0632895   0.0000000), wk =   0.1111111
        k(    4) = (   0.0000000  -0.0949343   0.0000000), wk =   0.0555556
        k(    5) = (   0.0274052   0.0158224   0.0000000), wk =   0.1111111
        k(    6) = (   0.0274052   0.0474671   0.0000000), wk =   0.1111111
        k(    7) = (   0.0274052   0.0791119   0.0000000), wk =   0.1111111
        k(    8) = (   0.0274052  -0.0791119   0.0000000), wk =   0.1111111
        k(    9) = (   0.0274052  -0.0474671   0.0000000), wk =   0.1111111
        k(   10) = (   0.0274052  -0.0158224   0.0000000), wk =   0.1111111
        k(   11) = (   0.0548103   0.0316448   0.0000000), wk =   0.1111111
        k(   12) = (   0.0548103   0.0632895   0.0000000), wk =   0.1111111
        k(   13) = (   0.0548103   0.0949343   0.0000000), wk =   0.1111111
        k(   14) = (   0.0548103  -0.0632895   0.0000000), wk =   0.1111111
        k(   15) = (   0.0548103  -0.0316448   0.0000000), wk =   0.1111111
        k(   16) = (   0.0548103   0.0000000   0.0000000), wk =   0.1111111
        k(   17) = (  -0.0822155  -0.0474671   0.0000000), wk =   0.0555556
        k(   18) = (  -0.0822155  -0.0158224   0.0000000), wk =   0.1111111
        k(   19) = (  -0.0822155   0.0158224   0.0000000), wk =   0.1111111
        k(   20) = (  -0.0822155  -0.1424014   0.0000000), wk =   0.0555556

     Largest allocated arrays     est. size (Mb)     dimensions
     Largest temporary arrays     est. size (Mb)     dimensions

     Check: negative/imaginary core charge=   -0.000003    0.000000

     Initial potential from superposition of free atoms
     Check: negative starting charge=   -1.126330

     starting charge  133.49969, renormalised to  153.00000

[...]

     *
     * You are using vdW-DF for exchange-correlation in this calculation.
     * Please cite the following three references that made this development
     * possible:
     *
     *   M. Dion, H. Rydberg, E. Schroder, D. C. Langreth, and
     *   B. I. Lundqvist, Phys. Rev. Lett. 92, 246401 (2004).
     *
     *   T. Thonhauser, V. R. Cooper, S. Li, A. Puzder, P. Hyldgaard, and
     *   D. C. Langreth, Phys. Rev. B 76, 125112 (2007).
     *
     *   G. Roman-Perez and J. M. Soler, Phys. Rev. Lett. 103, 096102 (2009).
     *
     *
     * If you are using vdW-DF2, please also cite:
     *
     *   K. Lee, E. D. Murray, L. Kong, B. I. Lundqvist, and
     *   D. C. Langreth, Phys. Rev. B 82, 081101(R) (2010).
     *
     *
     * If you are calculating the stress with vdW-DF, please also cite:
     *
     *   R. Sabatini, E. Kucukbenli, B. Kolb, T. Thonhauser, and
     *   S. de Gironcoli, J. Phys.: Condens. Matter 24, 424209 (2012).
     *

     Carrying out vdW-DF run using the following parameters:

     Nqs =      20    Nr_points =    1024   r_max =   100.000
     q_mesh =
               0.00001000     0.04494208     0.09755937     0.15916263
               0.23128650     0.31572767     0.41458969     0.53033537
               0.66584808     0.82450364     1.01025438     1.22772762
               1.48234092     1.78043706     2.12944203     2.53805004
               3.01644009     3.57652955     4.23227104     5.00000000

     Gradients computed in reciprocal space

[...]

     Starting wfc are  153 randomized atomic wfcs

     Self-consistent Calculation

[...]

     total energy              =   -1961.77991413 Ry
     Harris-Foulkes estimate   =   -1961.77991415 Ry
     estimated scf accuracy    <       0.00000219 Ry

     iteration # 24     ecut=    36.75 Ry     beta=0.10
     Davidson diagonalization with overlap
     ethr =  1.43E-09,  avg # of iterations =  1.8

[...]

     negative rho (up, down):  1.190E+00 0.000E+00

     Adding external electric field

     Computed dipole along edir(3) :
        Dipole                0.0560 Ry au,          0.1423 Debye
        Dipole field          0.0001 Ry au

        Potential amp.       -0.0120 Ry
        Total length         45.9987 bohr

     End of self-consistent calculation

[...]

          k = 0.0548 0.0000 0.0000 ( 20329 PWs)   bands (ev):

[...]

          k =-0.0822-0.1424 0.0000 ( 20348 PWs)   bands (ev):

   -60.8002 -60.7869 -60.7790 -60.7704 -60.7639 -60.7538 -60.3840 -60.3676
   -60.3511 -44.5407 -44.5405 -44.5218 -44.4782 -44.4300 -44.4298 -44.2348
   -44.2346 -44.2122 -29.5838 -29.5489 -29.5390 -29.4937 -29.4723 -29.4345
   -29.4051 -29.4034 -29.3600 -29.3456 -29.3195 -29.3077 -29.2650 -29.2522
   -29.2462 -29.2071 -29.1956 -28.9822 -28.9672 -28.9424 -28.9246 -28.8965
   -28.8536 -28.8178 -28.8155 -28.7971 -28.6341  -3.2831  -3.1687  -2.0246
    -1.9474  -1.4886  -1.4042  -1.3550  -1.3176  -0.9974  -0.8876  -0.8333
    -0.6518  -0.6236  -0.5934  -0.5042  -0.4142  -0.3410  -0.1746  -0.1434
    -0.0779   0.1518   0.1836   0.3650   0.7073   0.8156   1.1144   1.2553
     1.2777   1.3145   1.3481   1.5704   1.5913   1.7118   1.8200   1.9192
     2.0650   2.2108   2.2599   2.5173   2.6072   2.6755   3.1726   3.2327
     3.3174   3.4158   3.4926   3.5947   3.6938   3.7126   4.5113   4.6570
     4.7196   4.8104   4.8907   5.1224   5.2841   5.3450   5.4345   5.5052
     5.6366   5.8129

     the Fermi energy is     1.7857 ev

!    total energy              =   -1961.77991496 Ry
     Harris-Foulkes estimate   =   -1961.77991379 Ry
     estimated scf accuracy    <       0.00000065 Ry

     The total energy is the sum of the following terms:

     one-electron contribution =  -10716.92184709 Ry
     hartree contribution      =    5357.97417880 Ry
     xc contribution           =    -789.30643057 Ry
     ewald contribution        =    4186.57788656 Ry
     electric field correction =       0.00000730 Ry
     smearing contrib. (-TS)   =      -0.10370996 Ry

     convergence has been achieved in  24 iterations

 BEEF-vdW xc energy contributions
           1 :   -710.850549282317
           2 :    660.064784578703
           3 :   -570.124453733540
           4 :    459.851042612824
           5 :   -348.884623279066
           6 :    252.097120728209
           7 :   -176.940418610360
           8 :    123.998908308132
           9 :   -89.5936184041245
          10 :    68.6413489009057
          11 :   -56.5210307199366
          12 :    49.6176722313384
          13 :   -45.0620425478987
          14 :    40.3937242327561
          15 :   -33.6422727217422
          16 :    23.7887306662903
          17 :   -11.2274591951116
          18 :   -2.22689022034660
          19 :    13.9495478564414
          20 :   -21.5240475283586
          21 :    23.6817287631349
          22 :   -20.7338165389696
          23 :    14.3407542566316
          24 :   -6.82378753419914
          25 :   0.390237699150816
          26 :    3.40482344928000
          27 :   -3.86288745501020
          28 :    1.09874128598562
          29 :    4.09749091484809
          30 :   -10.4228430195711
          31 :   -53.1525203455466
          32 :   -38.4831449419369

     Forces acting on atoms (Ry/au):

     negative rho (up, down):  1.190E+00 0.000E+00
     atom    1 type  1   force =    -0.00000076    0.02045169   -0.00335730
     atom    2 type  1   force =     0.01771140   -0.01022672   -0.00335818
     atom    3 type  1   force =    -0.01771163   -0.01022544   -0.00335920
     atom    4 type  2   force =     0.00000036    0.00000016    0.03547507
     atom    5 type  1   force =     0.00000142   -0.00343272   -0.00507521
     atom    6 type  1   force =    -0.00297202    0.00171727   -0.00507544
     atom    7 type  1   force =     0.00297244    0.00171623   -0.00507590
     atom    8 type  2   force =    -0.00000007   -0.00000012   -0.00707899
     atom    9 type  1   force =    -0.00000084   -0.00129878   -0.00094527
     atom   10 type  1   force =    -0.00112289    0.00064848   -0.00094543
     atom   11 type  1   force =     0.00112320    0.00065017   -0.00094550
     atom   12 type  2   force =    -0.00000061   -0.00000022   -0.00025866

     Total force =     0.052131     Total SCF correction =     0.003007

     entering subroutine stress ...

     negative rho (up, down):  1.190E+00 0.000E+00
          total   stress  (Ry/bohr**3)                   (kbar)     P=  -18.71
  -0.00015157  -0.00000000  -0.00000000        -22.30     -0.00     -0.00
  -0.00000000  -0.00015156   0.00000000         -0.00    -22.30      0.00
  -0.00000000   0.00000000  -0.00007838         -0.00      0.00    -11.53

 !ASE

     Writing output data file calc.save

     General routines

     Parallel routines

   This run was terminated on:  10:19:16  26Dec2018

   JOB DONE.
Job  /afs/slac/g/suncat/bin/suncat-tsmpirun -x LD_LIBRARY_PATH -wdir /scratch/qe109763_Fd4ZB pw.x -in pw.inp

TID   HOST_NAME   COMMAND_LINE            STATUS            TERMINATION_TIME
00000 suncat0083 pw.x -in pw.inp   Done                     12/26/2018 10:19:16
00001 suncat0083 pw.x -in pw.inp   Done                     12/26/2018 10:19:16
00002 suncat0083 pw.x -in pw.inp   Done                     12/26/2018 10:19:16
00003 suncat0083 pw.x -in pw.inp   Done                     12/26/2018 10:19:16
00004 suncat0083 pw.x -in pw.inp   Done                     12/26/2018 10:19:16
00005 suncat0083 pw.x -in pw.inp   Done                     12/26/2018 10:19:16
00006 suncat0083 pw.x -in pw.inp   Done                     12/26/2018 10:19:16
00007 suncat0083 pw.x -in pw.inp   Done                     12/26/2018 10:19:16
00008 suncat0081 pw.x -in pw.inp   Done                     12/26/2018 10:19:16
00009 suncat0081 pw.x -in pw.inp   Done                     12/26/2018 10:19:16
00010 suncat0081 pw.x -in pw.inp   Done                     12/26/2018 10:19:16
00011 suncat0081 pw.x -in pw.inp   Done                     12/26/2018 10:19:16
00012 suncat0081 pw.x -in pw.inp   Done                     12/26/2018 10:19:16
00013 suncat0081 pw.x -in pw.inp   Done                     12/26/2018 10:19:16
00014 suncat0081 pw.x -in pw.inp   Done                     12/26/2018 10:19:16
00015 suncat0081 pw.x -in pw.inp   Done                     12/26/2018 10:19:16
00016 suncat0076 pw.x -in pw.inp   Done                     12/26/2018 10:19:16
00017 suncat0076 pw.x -in pw.inp   Done                     12/26/2018 10:19:16
00018 suncat0076 pw.x -in pw.inp   Done                     12/26/2018 10:19:16
00019 suncat0076 pw.x -in pw.inp   Done                     12/26/2018 10:19:16
00020 suncat0076 pw.x -in pw.inp   Done                     12/26/2018 10:19:16
00021 suncat0076 pw.x -in pw.inp   Done                     12/26/2018 10:19:16
00022 suncat0076 pw.x -in pw.inp   Done                     12/26/2018 10:19:16
00023 suncat0076 pw.x -in pw.inp   Done                     12/26/2018 10:19:16
00024 suncat0041 pw.x -in pw.inp   Done                     12/26/2018 10:19:16
00025 suncat0041 pw.x -in pw.inp   Done                     12/26/2018 10:19:16
00026 suncat0041 pw.x -in pw.inp   Done                     12/26/2018 10:19:16
00027 suncat0041 pw.x -in pw.inp   Done                     12/26/2018 10:19:16
00028 suncat0041 pw.x -in pw.inp   Done                     12/26/2018 10:19:16
00029 suncat0041 pw.x -in pw.inp   Done                     12/26/2018 10:19:16
00030 suncat0041 pw.x -in pw.inp   Done                     12/26/2018 10:19:16
00031 suncat0041 pw.x -in pw.inp   Done                     12/26/2018 10:19:16
00032 suncat0039 pw.x -in pw.inp   Done                     12/26/2018 10:19:16
00033 suncat0039 pw.x -in pw.inp   Done                     12/26/2018 10:19:16
00034 suncat0039 pw.x -in pw.inp   Done                     12/26/2018 10:19:16
00035 suncat0039 pw.x -in pw.inp   Done                     12/26/2018 10:19:16
00036 suncat0039 pw.x -in pw.inp   Done                     12/26/2018 10:19:16
00037 suncat0039 pw.x -in pw.inp   Done                     12/26/2018 10:19:16
00038 suncat0039 pw.x -in pw.inp   Done                     12/26/2018 10:19:16
00039 suncat0039 pw.x -in pw.inp   Done                     12/26/2018 10:19:16
00040 suncat0034 pw.x -in pw.inp   Done                     12/26/2018 10:19:16
00041 suncat0034 pw.x -in pw.inp   Done                     12/26/2018 10:19:16
00042 suncat0034 pw.x -in pw.inp   Done                     12/26/2018 10:19:16
00043 suncat0034 pw.x -in pw.inp   Done                     12/26/2018 10:19:16
00044 suncat0034 pw.x -in pw.inp   Done                     12/26/2018 10:19:16
00045 suncat0034 pw.x -in pw.inp   Done                     12/26/2018 10:19:16
00046 suncat0034 pw.x -in pw.inp   Done                     12/26/2018 10:19:16
00047 suncat0034 pw.x -in pw.inp   Done                     12/26/2018 10:19:16
00048 suncat0029 pw.x -in pw.inp   Done                     12/26/2018 10:19:16
00049 suncat0029 pw.x -in pw.inp   Done                     12/26/2018 10:19:16
00050 suncat0029 pw.x -in pw.inp   Done                     12/26/2018 10:19:16
00051 suncat0029 pw.x -in pw.inp   Done                     12/26/2018 10:19:16
00052 suncat0029 pw.x -in pw.inp   Done                     12/26/2018 10:19:16
00053 suncat0029 pw.x -in pw.inp   Done                     12/26/2018 10:19:16
00054 suncat0029 pw.x -in pw.inp   Done                     12/26/2018 10:19:16
00055 suncat0029 pw.x -in pw.inp   Done                     12/26/2018 10:19:16
00056 suncat0199 pw.x -in pw.inp   Done                     12/26/2018 10:19:16
00057 suncat0199 pw.x -in pw.inp   Done                     12/26/2018 10:19:16
00058 suncat0199 pw.x -in pw.inp   Done                     12/26/2018 10:19:16
00059 suncat0199 pw.x -in pw.inp   Done                     12/26/2018 10:19:16
00060 suncat0199 pw.x -in pw.inp   Done                     12/26/2018 10:19:16
00061 suncat0199 pw.x -in pw.inp   Done                     12/26/2018 10:19:16
00062 suncat0199 pw.x -in pw.inp   Done                     12/26/2018 10:19:16
00063 suncat0199 pw.x -in pw.inp   Done                     12/26/2018 10:19:16