     Program PWSCF v.5.1rc2 (svn rev. 11289) starts on 27Dec2018 at  9:22:54

     Current dimensions of program PWSCF are:
     Max number of different atomic species (ntypx) = 10
     Max number of k-points (npk) =  40000
     Max angular momentum in pseudopotentials (lmaxx) =  3
     Presently stress not available with electric field

     IMPORTANT: XC functional enforced from input :
     Exchange-correlation      = BEEF-VDW ( 1  4 27 13 2)
     Any further DFT definition will be discarded
     Please, verify this is what you really want

     Subspace diagonalization in iterative solution of the eigenvalue problem:
     a serial algorithm will be used

     Generating pointlists ...
     new r_m :   0.4125 (alat units)  0.7795 (a.u.) for type    1
     new r_m :   0.4125 (alat units)  0.7795 (a.u.) for type    2

     bravais-lattice index     =            0
     lattice parameter (alat)  =       1.8897  a.u.
     unit-cell volume          =    4006.1899 (a.u.)^3
     number of atoms/cell      =           12
     number of atomic types    =            2
     number of electrons       =       204.00
     number of Kohn-Sham states=          132
     kinetic-energy cutoff     =      36.7493  Ry
     charge density cutoff     =     367.4932  Ry
     convergence threshold     =      1.0E-06
     mixing beta               =       0.1000
     number of iterations used =           10  plain     mixing
     Exchange-correlation      = BEEF-VDW ( 1  4 27 13 2)
     nstep                     =           50

     celldm(1)=   1.889726  celldm(2)=   0.000000  celldm(3)=   0.000000
     celldm(4)=   0.000000  celldm(5)=   0.000000  celldm(6)=   0.000000

     crystal axes: (cart. coord. in units of alat)
               a(1) = (   5.307605   0.000000   0.000000 )
               a(2) = (  -2.653803   4.596521   0.000000 )
               a(3) = (   0.000000   0.000000  24.333641 )

     reciprocal axes: (cart. coord. in units 2 pi/alat)
               b(1) = (  0.188409  0.108778  0.000000 )
               b(2) = (  0.000000  0.217556  0.000000 )
               b(3) = (  0.000000  0.000000  0.041095 )

     PseudoPot. # 1 for Ni read from file:
     /afs/slac.stanford.edu/u/if/mamunm/psp/gbrv1.5pbe/Ni.UPF
     MD5 check sum: 1ee80287db30b12d2bc1f57a5b5d6409
     Pseudo is Ultrasoft + core correction, Zval = 18.0
     Generated by new atomic code, or converted to UPF format
     Using radial grid of  865 points,  6 beta functions with:
                l(1) =   0
                l(2) =   0
                l(3) =   1
                l(4) =   1
                l(5) =   2
                l(6) =   2
     Q(r) pseudized with 10 coefficients,  rinner =    0.980   0.980   0.980
                                                       0.980   0.980

     PseudoPot. # 2 for Sn read from file:
     /afs/slac.stanford.edu/u/if/mamunm/psp/gbrv1.5pbe/Sn.UPF
     MD5 check sum: 469debedee59599fedebd795477fea03
     Pseudo is Ultrasoft + core correction, Zval = 14.0
     Generated by new atomic code, or converted to UPF format
     Using radial grid of  891 points,  6 beta functions with:
                l(1) =   0
                l(2) =   0
                l(3) =   1
                l(4) =   1
                l(5) =   2
                l(6) =   2
     Q(r) pseudized with  8 coefficients,  rinner =    1.350   1.350   1.350
                                                       1.350   1.350

     vdW kernel table read from file vdW_kernel_table
     MD5 check sum: 095c7af220d748ca6e76c0b4c6cfb241

     atomic species   valence    mass     pseudopotential
        Ni1           18.00    58.69340     Ni( 1.00)
        Sn1           14.00   118.71000     Sn( 1.00)

     Starting magnetic structure
     atomic species   magnetization
        Ni1          0.111
        Sn1          0.143

     No symmetry found

   Cartesian axes

     site n.     atom                  positions (alat units)
         1           Ni1 tau(   1) = (   0.0000000   0.0000000  10.0000000  )
         2           Ni1 tau(   2) = (  -1.3269013   2.2982604  10.0000000  )
         3           Ni1 tau(   3) = (   1.3269013   2.2982604  10.0000000  )
         4           Sn1 tau(   4) = (   2.6538025   0.0000000  10.0000000  )
         5           Ni1 tau(   5) = (   2.6538025   1.5321736  12.1668207  )
         6           Ni1 tau(   6) = (   1.3269013   3.8304340  12.1668207  )
         7           Ni1 tau(   7) = (  -1.3269013   3.8304340  12.1668207  )
         8           Sn1 tau(   8) = (   0.0000000   1.5321736  12.1668207  )
         9           Ni1 tau(   9) = (  -0.0000000   3.0643472  14.3336414  )
        10           Ni1 tau(  10) = (   1.3269013   0.7660868  14.3336414  )
        11           Ni1 tau(  11) = (   3.9807038   0.7660868  14.3336414  )
        12           Sn1 tau(  12) = (   2.6538025   3.0643472  14.3336414  )

     number of k points=    40  Fermi-Dirac smearing, width (Ry)=  0.0110
                       cart. coord. in units 2pi/alat
        k(    1) = (   0.0000000   0.0000000   0.0000000), wk =   0.0277778
        k(    2) = (   0.0000000   0.0362593   0.0000000), wk =   0.0555556
        k(    3) = (   0.0000000   0.0725186   0.0000000), wk =   0.0555556
        k(    4) = (   0.0000000  -0.1087779   0.0000000), wk =   0.0277778
        k(    5) = (   0.0314015   0.0181297   0.0000000), wk =   0.0555556
        k(    6) = (   0.0314015   0.0543890   0.0000000), wk =   0.0555556
        k(    7) = (   0.0314015   0.0906483   0.0000000), wk =   0.0555556
        k(    8) = (   0.0314015  -0.0906483   0.0000000), wk =   0.0555556
        k(    9) = (   0.0314015  -0.0543890   0.0000000), wk =   0.0555556
        k(   10) = (   0.0314015  -0.0181297   0.0000000), wk =   0.0555556
        k(   11) = (   0.0628030   0.0362593   0.0000000), wk =   0.0555556
        k(   12) = (   0.0628030   0.0725186   0.0000000), wk =   0.0555556
        k(   13) = (   0.0628030   0.1087779   0.0000000), wk =   0.0555556
        k(   14) = (   0.0628030  -0.0725186   0.0000000), wk =   0.0555556
        k(   15) = (   0.0628030  -0.0362593   0.0000000), wk =   0.0555556
        k(   16) = (   0.0628030  -0.0000000   0.0000000), wk =   0.0555556
        k(   17) = (  -0.0942044  -0.0543890   0.0000000), wk =   0.0277778
        k(   18) = (  -0.0942044  -0.0181297   0.0000000), wk =   0.0555556
        k(   19) = (  -0.0942044   0.0181297   0.0000000), wk =   0.0555556
        k(   20) = (  -0.0942044  -0.1631669   0.0000000), wk =   0.0277778
        k(   21) = (   0.0000000   0.0000000   0.0000000), wk =   0.0277778
        k(   22) = (   0.0000000   0.0362593   0.0000000), wk =   0.0555556
        k(   23) = (   0.0000000   0.0725186   0.0000000), wk =   0.0555556
        k(   24) = (   0.0000000  -0.1087779   0.0000000), wk =   0.0277778
        k(   25) = (   0.0314015   0.0181297   0.0000000), wk =   0.0555556
        k(   26) = (   0.0314015   0.0543890   0.0000000), wk =   0.0555556
        k(   27) = (   0.0314015   0.0906483   0.0000000), wk =   0.0555556
        k(   28) = (   0.0314015  -0.0906483   0.0000000), wk =   0.0555556
        k(   29) = (   0.0314015  -0.0543890   0.0000000), wk =   0.0555556
        k(   30) = (   0.0314015  -0.0181297   0.0000000), wk =   0.0555556
        k(   31) = (   0.0628030   0.0362593   0.0000000), wk =   0.0555556
        k(   32) = (   0.0628030   0.0725186   0.0000000), wk =   0.0555556
        k(   33) = (   0.0628030   0.1087779   0.0000000), wk =   0.0555556
        k(   34) = (   0.0628030  -0.0725186   0.0000000), wk =   0.0555556
        k(   35) = (   0.0628030  -0.0362593   0.0000000), wk =   0.0555556
        k(   36) = (   0.0628030  -0.0000000   0.0000000), wk =   0.0555556
        k(   37) = (  -0.0942044  -0.0543890   0.0000000), wk =   0.0277778
        k(   38) = (  -0.0942044  -0.0181297   0.0000000), wk =   0.0555556
        k(   39) = (  -0.0942044   0.0181297   0.0000000), wk =   0.0555556
        k(   40) = (  -0.0942044  -0.1631669   0.0000000), wk =   0.0277778

     Largest allocated arrays     est. size (Mb)     dimensions
     Largest temporary arrays     est. size (Mb)     dimensions

     Check: negative/imaginary core charge=   -0.000002    0.000000

     Initial potential from superposition of free atoms
     Check: negative starting charge=(component1):   -0.000565
     Check: negative starting charge=(component2):   -0.000439

     starting charge  182.99986, renormalised to  204.00000

     negative rho (up, down):  6.294E-04 4.899E-04

     *
     * You are using vdW-DF for exchange-correlation in this calculation.
     * Please cite the following three references that made this development
     * possible:
     *
     *   M. Dion, H. Rydberg, E. Schroder, D. C. Langreth, and
     *   B. I. Lundqvist, Phys. Rev. Lett. 92, 246401 (2004).
     *
     *   T. Thonhauser, V. R. Cooper, S. Li, A. Puzder, P. Hyldgaard, and
     *   D. C. Langreth, Phys. Rev. B 76, 125112 (2007).
     *
     *   G. Roman-Perez and J. M. Soler, Phys. Rev. Lett. 103, 096102 (2009).
     *
     *
     * If you are using vdW-DF2, please also cite:
     *
     *   K. Lee, E. D. Murray, L. Kong, B. I. Lundqvist, and
     *   D. C. Langreth, Phys. Rev. B 82, 081101(R) (2010).
     *
     *
     * If you are calculating the stress with vdW-DF, please also cite:
     *
     *   R. Sabatini, E. Kucukbenli, B. Kolb, T. Thonhauser, and
     *   S. de Gironcoli, J. Phys.: Condens. Matter 24, 424209 (2012).
     *

     Carrying out vdW-DF run using the following parameters:

     Nqs =      20    Nr_points =    1024   r_max =   100.000
     q_mesh =
               0.00001000     0.04494208     0.09755937     0.15916263
               0.23128650     0.31572767     0.41458969     0.53033537
               0.66584808     0.82450364     1.01025438     1.22772762
               1.48234092     1.78043706     2.12944203     2.53805004
               3.01644009     3.57652955     4.23227104     5.00000000

     Gradients computed in reciprocal space

     Adding external electric field

     Computed dipole along edir(3) :
        Dipole                0.0000 Ry au,          0.0000 Debye
        Dipole field          0.0000 Ry au

        Potential amp.       -0.0000 Ry
        Total length         44.8343 bohr

[...]

     Starting wfc are  144 randomized atomic wfcs

     Self-consistent Calculation

     iteration #  1     ecut=    36.75 Ry     beta=0.10
     Davidson diagonalization with overlap
     ethr =  1.00E-02,  avg # of iterations =  8.2

[...]

     Magnetic moment per site:
     atom:    1    charge:    9.8713    magn:    1.0465    constr:    0.0000
     atom:    2    charge:    9.8713    magn:    1.0465    constr:    0.0000
     atom:    3    charge:    9.8713    magn:    1.0465    constr:    0.0000
     atom:    4    charge:    3.8126    magn:    0.5037    constr:    0.0000
     atom:    5    charge:    9.8725    magn:    1.0470    constr:    0.0000
     atom:    6    charge:    9.8725    magn:    1.0469    constr:    0.0000
     atom:    7    charge:    9.8725    magn:    1.0470    constr:    0.0000
     atom:    8    charge:    3.8134    magn:    0.5039    constr:    0.0000
[...]
        k(    4) = (   0.0000000  -0.1087779   0.0000000), wk =   0.0277778
        k(    5) = (   0.0314015   0.0181297   0.0000000), wk =   0.0555556
        k(    6) = (   0.0314015   0.0543890   0.0000000), wk =   0.0555556
        k(    7) = (   0.0314015   0.0906483   0.0000000), wk =   0.0555556
        k(    8) = (   0.0314015  -0.0906483   0.0000000), wk =   0.0555556
        k(    9) = (   0.0314015  -0.0543890   0.0000000), wk =   0.0555556
        k(   10) = (   0.0314015  -0.0181297   0.0000000), wk =   0.0555556
        k(   11) = (   0.0628030   0.0362593   0.0000000), wk =   0.0555556
        k(   12) = (   0.0628030   0.0725186   0.0000000), wk =   0.0555556
        k(   13) = (   0.0628030   0.1087779   0.0000000), wk =   0.0555556
        k(   14) = (   0.0628030  -0.0725186   0.0000000), wk =   0.0555556
        k(   15) = (   0.0628030  -0.0362593   0.0000000), wk =   0.0555556
        k(   16) = (   0.0628030  -0.0000000   0.0000000), wk =   0.0555556
        k(   17) = (  -0.0942044  -0.0543890   0.0000000), wk =   0.0277778
        k(   18) = (  -0.0942044  -0.0181297   0.0000000), wk =   0.0555556
        k(   19) = (  -0.0942044   0.0181297   0.0000000), wk =   0.0555556
        k(   20) = (  -0.0942044  -0.1631669   0.0000000), wk =   0.0277778
        k(   21) = (   0.0000000   0.0000000   0.0000000), wk =   0.0277778
        k(   22) = (   0.0000000   0.0362593   0.0000000), wk =   0.0555556
        k(   23) = (   0.0000000   0.0725186   0.0000000), wk =   0.0555556
        k(   24) = (   0.0000000  -0.1087779   0.0000000), wk =   0.0277778
        k(   25) = (   0.0314015   0.0181297   0.0000000), wk =   0.0555556
        k(   26) = (   0.0314015   0.0543890   0.0000000), wk =   0.0555556
        k(   27) = (   0.0314015   0.0906483   0.0000000), wk =   0.0555556
        k(   28) = (   0.0314015  -0.0906483   0.0000000), wk =   0.0555556
        k(   29) = (   0.0314015  -0.0543890   0.0000000), wk =   0.0555556
        k(   30) = (   0.0314015  -0.0181297   0.0000000), wk =   0.0555556
        k(   31) = (   0.0628030   0.0362593   0.0000000), wk =   0.0555556
        k(   32) = (   0.0628030   0.0725186   0.0000000), wk =   0.0555556
        k(   33) = (   0.0628030   0.1087779   0.0000000), wk =   0.0555556
        k(   34) = (   0.0628030  -0.0725186   0.0000000), wk =   0.0555556
        k(   35) = (   0.0628030  -0.0362593   0.0000000), wk =   0.0555556
        k(   36) = (   0.0628030  -0.0000000   0.0000000), wk =   0.0555556
        k(   37) = (  -0.0942044  -0.0543890   0.0000000), wk =   0.0277778
        k(   38) = (  -0.0942044  -0.0181297   0.0000000), wk =   0.0555556
        k(   39) = (  -0.0942044   0.0181297   0.0000000), wk =   0.0555556
        k(   40) = (  -0.0942044  -0.1631669   0.0000000), wk =   0.0277778

     Largest allocated arrays     est. size (Mb)     dimensions
     Largest temporary arrays     est. size (Mb)     dimensions

     Check: negative/imaginary core charge=   -0.000002    0.000000

     Initial potential from superposition of free atoms
     Check: negative starting charge=(component1):   -0.000548
     Check: negative starting charge=(component2):   -0.000426

     starting charge  182.99986, renormalised to  204.00000

[...]

     *
     * You are using vdW-DF for exchange-correlation in this calculation.
     * Please cite the following three references that made this development
     * possible:
     *
     *   M. Dion, H. Rydberg, E. Schroder, D. C. Langreth, and
     *   B. I. Lundqvist, Phys. Rev. Lett. 92, 246401 (2004).
     *
     *   T. Thonhauser, V. R. Cooper, S. Li, A. Puzder, P. Hyldgaard, and
     *   D. C. Langreth, Phys. Rev. B 76, 125112 (2007).
     *
     *   G. Roman-Perez and J. M. Soler, Phys. Rev. Lett. 103, 096102 (2009).
     *
     *
     * If you are using vdW-DF2, please also cite:
     *
     *   K. Lee, E. D. Murray, L. Kong, B. I. Lundqvist, and
     *   D. C. Langreth, Phys. Rev. B 82, 081101(R) (2010).
     *
     *
     * If you are calculating the stress with vdW-DF, please also cite:
     *
     *   R. Sabatini, E. Kucukbenli, B. Kolb, T. Thonhauser, and
     *   S. de Gironcoli, J. Phys.: Condens. Matter 24, 424209 (2012).
     *

     Carrying out vdW-DF run using the following parameters:

     Nqs =      20    Nr_points =    1024   r_max =   100.000
     q_mesh =
               0.00001000     0.04494208     0.09755937     0.15916263
               0.23128650     0.31572767     0.41458969     0.53033537
               0.66584808     0.82450364     1.01025438     1.22772762
               1.48234092     1.78043706     2.12944203     2.53805004
               3.01644009     3.57652955     4.23227104     5.00000000

     Gradients computed in reciprocal space

[...]

     Starting wfc are  144 randomized atomic wfcs

     Self-consistent Calculation

[...]

     total energy              =   -3581.99038742 Ry
     Harris-Foulkes estimate   =   -3581.99038402 Ry
     estimated scf accuracy    <       0.00000102 Ry

[...]

     iteration # 39     ecut=    36.75 Ry     beta=0.10
     Davidson diagonalization with overlap
     ethr =  5.00E-10,  avg # of iterations =  1.4

[...]

     negative rho (up, down):  8.268E-04 8.264E-04

[...]

     Adding external electric field

     Computed dipole along edir(3) :
        Dipole                0.0284 Ry au,          0.0721 Debye
        Dipole field          0.0001 Ry au

        Potential amp.       -0.0080 Ry
        Total length         44.8343 bohr

     Magnetic moment per site:
     atom:    1    charge:    9.3562    magn:    0.0022    constr:    0.0000
     atom:    2    charge:    9.3562    magn:    0.0021    constr:    0.0000
     atom:    3    charge:    9.3563    magn:    0.0021    constr:    0.0000
     atom:    4    charge:    3.5200    magn:   -0.0000    constr:    0.0000
     atom:    5    charge:    9.3531    magn:   -0.0011    constr:    0.0000
     atom:    6    charge:    9.3530    magn:   -0.0012    constr:    0.0000
     atom:    7    charge:    9.3530    magn:   -0.0010    constr:    0.0000
     atom:    8    charge:    3.5244    magn:   -0.0000    constr:    0.0000
     atom:    9    charge:    9.3602    magn:    0.0016    constr:    0.0000
     atom:   10    charge:    9.3602    magn:    0.0018    constr:    0.0000
     atom:   11    charge:    9.3602    magn:    0.0013    constr:    0.0000
     atom:   12    charge:    3.5190    magn:   -0.0000    constr:    0.0000

     End of self-consistent calculation

 ------ SPIN UP ------------

[...]

 ------ SPIN DOWN ----------

[...]

          k = 0.0628-0.0000 0.0000 ( 15076 PWs)   bands (ev):

[...]

          k =-0.0942-0.1632 0.0000 ( 15094 PWs)   bands (ev):

  -102.1068-102.1046-102.1021-101.9312-101.9269-101.9254-101.8641-101.8618
  -101.8595 -62.5504 -62.5405 -62.5346 -62.5269 -62.5185 -62.5093 -62.4599
   -62.4465 -62.4294 -62.4107 -62.4003 -62.3922 -62.3621 -62.3536 -62.3427
   -62.3352 -62.3333 -62.3169 -62.2978 -62.2793 -62.2580 -62.2333 -62.2279
   -62.2237 -62.1579 -62.1545 -62.1510 -20.8567 -20.8509 -20.8343 -20.8291
   -20.8267 -20.6807 -20.6395 -20.6383 -20.6238 -20.5908 -20.5899 -20.5848
   -20.5799 -20.5569 -20.5505  -8.1959  -7.4710  -6.6818  -4.8707  -3.7925
    -3.6547  -3.5335  -2.3403  -2.2603  -2.1391  -1.9385  -1.9051  -1.8388
    -1.6273  -1.4459  -1.3080  -1.2463  -1.2020  -1.1837  -1.1639  -1.0617
    -0.9828  -0.9279  -0.7943  -0.7748  -0.7369  -0.5937  -0.5531  -0.5260
    -0.4923  -0.4358  -0.4070  -0.3256  -0.2186  -0.1603  -0.1266  -0.1265
    -0.0745  -0.0604   0.0143   0.0406   0.0489   0.1021   0.1076   0.2072
     0.3055   0.3666   0.4228   0.6069   0.7516   0.8533   0.9744   1.4147
     1.5676   1.6769   2.1422   2.9162   3.0122   3.6635   4.9674   5.6975
     6.0193   6.1873   6.3709   6.4847   6.5907   6.6720   6.8126   7.0586
     7.0813   7.1176   7.6636   7.6992   8.0340   8.0938   8.1811   8.2921
     8.3628   8.4784   8.8417   9.3820

     the Fermi energy is     0.9157 ev

!    total energy              =   -3581.99040498 Ry
     Harris-Foulkes estimate   =   -3581.99038766 Ry
     estimated scf accuracy    <       0.00000080 Ry

     The total energy is the sum of the following terms:

     one-electron contribution =  -27610.05442406 Ry
     hartree contribution      =   13833.23976412 Ry
     xc contribution           =    -465.13133470 Ry
     ewald contribution        =   10660.02526494 Ry
     electric field correction =       0.00000253 Ry
     smearing contrib. (-TS)   =      -0.06967781 Ry

     total magnetization       =     0.01 Bohr mag/cell
     absolute magnetization    =     0.03 Bohr mag/cell

     convergence has been achieved in  39 iterations

 BEEF-vdW xc energy contributions
           1 :   -409.563048865492
           2 :    372.539052795976
           3 :   -310.111379421768
           4 :    240.159536722164
           5 :   -179.215658577406
           6 :    136.433375705651
           7 :   -111.794761488873
           8 :    98.7504455930261
           9 :   -89.2505868328597
          10 :    78.1657645059642
          11 :   -64.9515667604948
          12 :    52.2874219652877
          13 :   -43.1946382652280
          14 :    38.6923409588314
          15 :   -37.3225899293224
          16 :    36.4397436964789
          17 :   -34.0813505421448
          18 :    30.0718715362249
          19 :   -25.7615921169488
          20 :    22.7842934923368
          21 :   -21.8218622825423
          22 :    22.2047991432221
          23 :   -22.5166583620058
          24 :    21.6536584923876
          25 :   -19.5562673388410
          26 :    17.1344370132888
          27 :   -15.5272577037642
          28 :    15.2710117617016
          29 :   -15.9646970820131
          30 :    16.6143821742123
          31 :   -34.4628181086018
          32 :   -24.4555757168615

     Forces acting on atoms (Ry/au):

     negative rho (up, down):  8.268E-04 8.264E-04
     atom    1 type  1   force =     0.00001026   -0.01019516    0.01607016
     atom    2 type  1   force =    -0.00880584    0.00512415    0.01604800
     atom    3 type  1   force =     0.00880395    0.00511110    0.01603047
     atom    4 type  2   force =    -0.00000981   -0.00003798   -0.03747723
     atom    5 type  1   force =     0.00003205    0.01077442    0.00138151
     atom    6 type  1   force =     0.00934770   -0.00536236    0.00139760
     atom    7 type  1   force =    -0.00934496   -0.00539837    0.00137253
     atom    8 type  2   force =    -0.00004177   -0.00001351   -0.01298373
     atom    9 type  1   force =    -0.00001520    0.00066755   -0.00058604
     atom   10 type  1   force =     0.00052336   -0.00037996   -0.00055589
     atom   11 type  1   force =    -0.00051491   -0.00035815   -0.00054730
     atom   12 type  2   force =     0.00001515    0.00006825   -0.00015009

     Total force =     0.054899     Total SCF correction =     0.001993

     entering subroutine stress ...

     negative rho (up, down):  8.268E-04 8.264E-04
          total   stress  (Ry/bohr**3)                   (kbar)     P=  -58.22
  -0.00043276   0.00000000   0.00000000        -63.66      0.00      0.00
   0.00000000  -0.00043276   0.00000001          0.00    -63.66      0.00
   0.00000000   0.00000001  -0.00032180          0.00      0.00    -47.34

 !ASE

     Writing output data file calc.save

     General routines

     Parallel routines

   This run was terminated on:  14:36:21  27Dec2018

   JOB DONE.
Job  /afs/slac/g/suncat/bin/suncat-tsmpirun -x LD_LIBRARY_PATH -wdir /scratch/qe110284_FKQuf pw.x -in pw.inp

TID   HOST_NAME   COMMAND_LINE            STATUS            TERMINATION_TIME
00000 suncat0136 pw.x -in pw.inp   Done                     12/27/2018 14:36:21
00001 suncat0136 pw.x -in pw.inp   Done                     12/27/2018 14:36:21
00002 suncat0136 pw.x -in pw.inp   Done                     12/27/2018 14:36:21
00003 suncat0136 pw.x -in pw.inp   Done                     12/27/2018 14:36:21
00004 suncat0136 pw.x -in pw.inp   Done                     12/27/2018 14:36:21
00005 suncat0136 pw.x -in pw.inp   Done                     12/27/2018 14:36:21
00006 suncat0136 pw.x -in pw.inp   Done                     12/27/2018 14:36:21
00007 suncat0136 pw.x -in pw.inp   Done                     12/27/2018 14:36:21
00008 suncat0135 pw.x -in pw.inp   Done                     12/27/2018 14:36:21
00009 suncat0135 pw.x -in pw.inp   Done                     12/27/2018 14:36:21
00010 suncat0135 pw.x -in pw.inp   Done                     12/27/2018 14:36:21
00011 suncat0135 pw.x -in pw.inp   Done                     12/27/2018 14:36:21
00012 suncat0135 pw.x -in pw.inp   Done                     12/27/2018 14:36:21
00013 suncat0135 pw.x -in pw.inp   Done                     12/27/2018 14:36:21
00014 suncat0135 pw.x -in pw.inp   Done                     12/27/2018 14:36:21
00015 suncat0135 pw.x -in pw.inp   Done                     12/27/2018 14:36:21
00016 suncat0134 pw.x -in pw.inp   Done                     12/27/2018 14:36:21
00017 suncat0134 pw.x -in pw.inp   Done                     12/27/2018 14:36:21
00018 suncat0134 pw.x -in pw.inp   Done                     12/27/2018 14:36:21
00019 suncat0134 pw.x -in pw.inp   Done                     12/27/2018 14:36:21
00020 suncat0134 pw.x -in pw.inp   Done                     12/27/2018 14:36:21
00021 suncat0134 pw.x -in pw.inp   Done                     12/27/2018 14:36:21
00022 suncat0134 pw.x -in pw.inp   Done                     12/27/2018 14:36:21
00023 suncat0134 pw.x -in pw.inp   Done                     12/27/2018 14:36:21
00024 suncat0232 pw.x -in pw.inp   Done                     12/27/2018 14:36:21
00025 suncat0232 pw.x -in pw.inp   Done                     12/27/2018 14:36:21
00026 suncat0232 pw.x -in pw.inp   Done                     12/27/2018 14:36:21
00027 suncat0232 pw.x -in pw.inp   Done                     12/27/2018 14:36:21
00028 suncat0232 pw.x -in pw.inp   Done                     12/27/2018 14:36:21
00029 suncat0232 pw.x -in pw.inp   Done                     12/27/2018 14:36:21
00030 suncat0232 pw.x -in pw.inp   Done                     12/27/2018 14:36:21
00031 suncat0232 pw.x -in pw.inp   Done                     12/27/2018 14:36:21
00032 suncat0220 pw.x -in pw.inp   Done                     12/27/2018 14:36:21
00033 suncat0220 pw.x -in pw.inp   Done                     12/27/2018 14:36:21
00034 suncat0220 pw.x -in pw.inp   Done                     12/27/2018 14:36:21
00035 suncat0220 pw.x -in pw.inp   Done                     12/27/2018 14:36:21
00036 suncat0220 pw.x -in pw.inp   Done                     12/27/2018 14:36:21
00037 suncat0220 pw.x -in pw.inp   Done                     12/27/2018 14:36:21
00038 suncat0220 pw.x -in pw.inp   Done                     12/27/2018 14:36:21
00039 suncat0220 pw.x -in pw.inp   Done                     12/27/2018 14:36:21
00040 suncat0219 pw.x -in pw.inp   Done                     12/27/2018 14:36:21
00041 suncat0219 pw.x -in pw.inp   Done                     12/27/2018 14:36:21
00042 suncat0219 pw.x -in pw.inp   Done                     12/27/2018 14:36:21
00043 suncat0219 pw.x -in pw.inp   Done                     12/27/2018 14:36:21
00044 suncat0219 pw.x -in pw.inp   Done                     12/27/2018 14:36:21
00045 suncat0219 pw.x -in pw.inp   Done                     12/27/2018 14:36:21
00046 suncat0219 pw.x -in pw.inp   Done                     12/27/2018 14:36:21
00047 suncat0219 pw.x -in pw.inp   Done                     12/27/2018 14:36:21
00048 suncat0201 pw.x -in pw.inp   Done                     12/27/2018 14:36:21
00049 suncat0201 pw.x -in pw.inp   Done                     12/27/2018 14:36:21
00050 suncat0201 pw.x -in pw.inp   Done                     12/27/2018 14:36:21
00051 suncat0201 pw.x -in pw.inp   Done                     12/27/2018 14:36:21
00052 suncat0201 pw.x -in pw.inp   Done                     12/27/2018 14:36:21
00053 suncat0201 pw.x -in pw.inp   Done                     12/27/2018 14:36:21
00054 suncat0201 pw.x -in pw.inp   Done                     12/27/2018 14:36:21
00055 suncat0201 pw.x -in pw.inp   Done                     12/27/2018 14:36:21
00056 suncat0200 pw.x -in pw.inp   Done                     12/27/2018 14:36:21
00057 suncat0200 pw.x -in pw.inp   Done                     12/27/2018 14:36:21
00058 suncat0200 pw.x -in pw.inp   Done                     12/27/2018 14:36:21
00059 suncat0200 pw.x -in pw.inp   Done                     12/27/2018 14:36:21
00060 suncat0200 pw.x -in pw.inp   Done                     12/27/2018 14:36:21
00061 suncat0200 pw.x -in pw.inp   Done                     12/27/2018 14:36:21
00062 suncat0200 pw.x -in pw.inp   Done                     12/27/2018 14:36:21
00063 suncat0200 pw.x -in pw.inp   Done                     12/27/2018 14:36:21