     Program PWSCF v.5.1rc2 (svn rev. 11289) starts on 19Dec2018 at 20:17:22

     Current dimensions of program PWSCF are:
     Max number of different atomic species (ntypx) = 10
     Max number of k-points (npk) =  40000
     Max angular momentum in pseudopotentials (lmaxx) =  3
     Presently stress not available with electric field

     IMPORTANT: XC functional enforced from input :
     Exchange-correlation      = BEEF-VDW ( 1  4 27 13 2)
     Any further DFT definition will be discarded
     Please, verify this is what you really want

     Subspace diagonalization in iterative solution of the eigenvalue problem:
     a serial algorithm will be used

     bravais-lattice index     =            0
     lattice parameter (alat)  =       1.8897  a.u.
     unit-cell volume          =    4939.2728 (a.u.)^3
     number of atoms/cell      =           12
     number of atomic types    =            2
     number of electrons       =       159.00
     number of Kohn-Sham states=          109
     kinetic-energy cutoff     =      36.7493  Ry
     charge density cutoff     =     367.4932  Ry
     convergence threshold     =      1.0E-06
     mixing beta               =       0.1000
     number of iterations used =           10  plain     mixing
     Exchange-correlation      = BEEF-VDW ( 1  4 27 13 2)
     nstep                     =           50

     celldm(1)=   1.889726  celldm(2)=   0.000000  celldm(3)=   0.000000
     celldm(4)=   0.000000  celldm(5)=   0.000000  celldm(6)=   0.000000

     crystal axes: (cart. coord. in units of alat)
               a(1) = (   5.841308   0.000000   0.000000 )
               a(2) = (  -2.920654   5.058721   0.000000 )
               a(3) = (   0.000000   0.000000  24.769408 )

     reciprocal axes: (cart. coord. in units 2 pi/alat)
               b(1) = (  0.171195  0.098839  0.000000 )
               b(2) = (  0.000000  0.197678  0.000000 )
               b(3) = (  0.000000  0.000000  0.040372 )

     PseudoPot. # 1 for Au read from file:
     /afs/slac.stanford.edu/u/if/mamunm/psp/gbrv1.5pbe/Au.UPF
     MD5 check sum: 9d7f43293ad2c663164586bc4b293ffc
     Pseudo is Ultrasoft + core correction, Zval = 11.0
     Generated by new atomic code, or converted to UPF format
     Using radial grid of  985 points,  7 beta functions with:
                l(1) =   0
                l(2) =   0
                l(3) =   1
                l(4) =   1
                l(5) =   2
                l(6) =   2
                l(7) =   3
     Q(r) pseudized with  6 coefficients,  rinner =    1.900   1.900   1.900
                                                       1.900   1.900   1.900
                                                       1.900

     PseudoPot. # 2 for Zn read from file:
     /afs/slac.stanford.edu/u/if/mamunm/psp/gbrv1.5pbe/Zn.UPF
     MD5 check sum: df62231357ef9e81f77b2b3087fa5675
     Pseudo is Ultrasoft, Zval = 20.0
     Generated by new atomic code, or converted to UPF format
     Using radial grid of  943 points,  6 beta functions with:
                l(1) =   0
                l(2) =   0
                l(3) =   1
                l(4) =   1
                l(5) =   2
                l(6) =   2
     Q(r) pseudized with  8 coefficients,  rinner =    1.100   1.100   1.100
                                                       1.100   1.100

     vdW kernel table read from file vdW_kernel_table
     MD5 check sum: 095c7af220d748ca6e76c0b4c6cfb241

     atomic species   valence    mass     pseudopotential
        Au1           11.00   196.96657     Au( 1.00)
        Zn1           20.00    65.38000     Zn( 1.00)

     No symmetry found

   Cartesian axes

     site n.     atom                  positions (alat units)
         1           Au1 tau(   1) = (   0.0000000   0.0000000  10.0000000  )
         2           Au1 tau(   2) = (  -1.4603269   2.5293604  10.0000000  )
         3           Au1 tau(   3) = (   1.4603269   2.5293604  10.0000000  )
         4           Zn1 tau(   4) = (   2.9206538   0.0000000  10.0000000  )
         5           Au1 tau(   5) = (   2.9206538   1.6862403  12.3847039  )
         6           Au1 tau(   6) = (   1.4603269   4.2156007  12.3847039  )
         7           Au1 tau(   7) = (  -1.4603269   4.2156007  12.3847039  )
         8           Zn1 tau(   8) = (   0.0000000   1.6862403  12.3847039  )
         9           Au1 tau(   9) = (  -0.0000000   3.3724805  14.7694077  )
        10           Au1 tau(  10) = (   1.4603269   0.8431201  14.7694077  )
        11           Au1 tau(  11) = (   4.3809807   0.8431201  14.7694077  )
        12           Zn1 tau(  12) = (   2.9206538   3.3724805  14.7694077  )

     number of k points=    20  Fermi-Dirac smearing, width (Ry)=  0.0110
                       cart. coord. in units 2pi/alat
        k(    1) = (   0.0000000   0.0000000   0.0000000), wk =   0.0555556
        k(    2) = (   0.0000000   0.0329464   0.0000000), wk =   0.1111111
        k(    3) = (   0.0000000   0.0658928   0.0000000), wk =   0.1111111
        k(    4) = (   0.0000000  -0.0988392   0.0000000), wk =   0.0555556
        k(    5) = (   0.0285324   0.0164732   0.0000000), wk =   0.1111111
        k(    6) = (   0.0285324   0.0494196   0.0000000), wk =   0.1111111
        k(    7) = (   0.0285324   0.0823660   0.0000000), wk =   0.1111111
        k(    8) = (   0.0285324  -0.0823660   0.0000000), wk =   0.1111111
        k(    9) = (   0.0285324  -0.0494196   0.0000000), wk =   0.1111111
        k(   10) = (   0.0285324  -0.0164732   0.0000000), wk =   0.1111111
        k(   11) = (   0.0570648   0.0329464   0.0000000), wk =   0.1111111
        k(   12) = (   0.0570648   0.0658928   0.0000000), wk =   0.1111111
        k(   13) = (   0.0570648   0.0988392   0.0000000), wk =   0.1111111
        k(   14) = (   0.0570648  -0.0658928   0.0000000), wk =   0.1111111
        k(   15) = (   0.0570648  -0.0329464   0.0000000), wk =   0.1111111
        k(   16) = (   0.0570648   0.0000000   0.0000000), wk =   0.1111111
        k(   17) = (  -0.0855973  -0.0494196   0.0000000), wk =   0.0555556
        k(   18) = (  -0.0855973  -0.0164732   0.0000000), wk =   0.1111111
        k(   19) = (  -0.0855973   0.0164732   0.0000000), wk =   0.1111111
        k(   20) = (  -0.0855973  -0.1482588   0.0000000), wk =   0.0555556

     Largest allocated arrays     est. size (Mb)     dimensions
     Largest temporary arrays     est. size (Mb)     dimensions

     Check: negative/imaginary core charge=   -0.000002    0.000000

     Initial potential from superposition of free atoms
     Check: negative starting charge=   -0.000446

     starting charge  158.99848, renormalised to  159.00000

     negative rho (up, down):  4.464E-04 0.000E+00

     *
     * You are using vdW-DF for exchange-correlation in this calculation.
     * Please cite the following three references that made this development
     * possible:
     *
     *   M. Dion, H. Rydberg, E. Schroder, D. C. Langreth, and
     *   B. I. Lundqvist, Phys. Rev. Lett. 92, 246401 (2004).
     *
     *   T. Thonhauser, V. R. Cooper, S. Li, A. Puzder, P. Hyldgaard, and
     *   D. C. Langreth, Phys. Rev. B 76, 125112 (2007).
     *
     *   G. Roman-Perez and J. M. Soler, Phys. Rev. Lett. 103, 096102 (2009).
     *
     *
     * If you are using vdW-DF2, please also cite:
     *
     *   K. Lee, E. D. Murray, L. Kong, B. I. Lundqvist, and
     *   D. C. Langreth, Phys. Rev. B 82, 081101(R) (2010).
     *
     *
     * If you are calculating the stress with vdW-DF, please also cite:
     *
     *   R. Sabatini, E. Kucukbenli, B. Kolb, T. Thonhauser, and
     *   S. de Gironcoli, J. Phys.: Condens. Matter 24, 424209 (2012).
     *

     Carrying out vdW-DF run using the following parameters:

     Nqs =      20    Nr_points =    1024   r_max =   100.000
     q_mesh =
               0.00001000     0.04494208     0.09755937     0.15916263
               0.23128650     0.31572767     0.41458969     0.53033537
               0.66584808     0.82450364     1.01025438     1.22772762
               1.48234092     1.78043706     2.12944203     2.53805004
               3.01644009     3.57652955     4.23227104     5.00000000

     Gradients computed in reciprocal space

     Adding external electric field

     Computed dipole along edir(3) :
        Dipole                0.0000 Ry au,          0.0000 Debye
        Dipole field          0.0000 Ry au

        Potential amp.       -0.0000 Ry
        Total length         45.6372 bohr

     Starting wfc are  120 randomized atomic wfcs

     Self-consistent Calculation

     iteration #  1     ecut=    36.75 Ry     beta=0.10
     Davidson diagonalization with overlap
     ethr =  1.00E-02,  avg # of iterations =  8.2

     Threshold (ethr) on eigenvalues was too large:
     Diagonalizing with lowered threshold

     Davidson diagonalization with overlap
     ethr =  1.52E-04,  avg # of iterations =  5.5

[...]

     total energy              =   -2438.78110800 Ry
     Harris-Foulkes estimate   =   -2438.80882086 Ry
     estimated scf accuracy    <       0.26089099 Ry

[...]

     End of self-consistent calculation

          k = 0.0000 0.0000 0.0000 ( 18679 PWs)   bands (ev):

  -126.1503-125.9469-125.9469 -80.3405 -80.3405 -80.3382 -80.1563 -80.1562
   -80.1241 -80.1241 -80.1241 -80.1241  -8.3453  -7.3264  -7.3264  -7.3009
    -7.2388  -7.2388  -7.1529  -7.1026  -7.0569  -7.0569  -7.0186  -7.0186
    -6.9208  -6.9208  -6.8907  -6.8907  -6.4816  -6.3327  -6.0779  -5.7421
    -5.4850  -5.3190  -5.3190  -5.1884  -5.0594  -5.0594  -4.7874  -4.7874
    -4.7163  -4.7163  -4.5438  -4.2275  -4.2275  -3.9150  -3.9024  -3.9024
    -3.6972  -3.6363  -3.3987  -3.2978  -3.2977  -3.2692  -3.2692  -3.1102
    -3.1102  -2.7992  -2.7576  -2.7576  -2.6939  -2.6938  -2.5249  -2.5249
    -2.4541  -2.4541  -2.2426  -2.2426  -2.0530  -1.8435  -1.8435  -1.8204
    -1.5806  -1.4951  -1.4606  -0.0591   0.0294   0.0294   0.4623   0.6568
     0.8625   0.8625   1.1798   1.1798   1.2101   2.5731   2.9668   2.9668
     3.4560   3.9061   3.9061   4.0389   4.3562   4.6209   4.6209   4.7068
     4.9306   5.9492   6.2376   7.3687   7.5559   8.0074   8.0074   8.0908
     8.1896   8.3187   8.3187   9.3067   9.3068

[...]

          k =-0.0856-0.0494 0.0000 ( 18584 PWs)   bands (ev):

[...]

     the Fermi energy is     0.3730 ev

!    total energy              =   -2438.74800556 Ry
     Harris-Foulkes estimate   =   -2438.74800372 Ry
     estimated scf accuracy    <       0.00000099 Ry

     The total energy is the sum of the following terms:

     one-electron contribution =  -13440.52357137 Ry
     hartree contribution      =    6786.71716221 Ry
     xc contribution           =    -706.32643454 Ry
     ewald contribution        =    4921.40595450 Ry
     electric field correction =       0.00000000 Ry
     smearing contrib. (-TS)   =      -0.02111637 Ry

     convergence has been achieved in  13 iterations

 BEEF-vdW xc energy contributions
           1 :   -630.170673209067
           2 :    583.192672681593
           3 :   -500.332615110801
           4 :    399.340492061514
           5 :   -298.370559409771
           6 :    210.741799239109
[...]
                l(2) =   0
                l(3) =   1
                l(4) =   1
                l(5) =   2
                l(6) =   2
                l(7) =   3
     Q(r) pseudized with  6 coefficients,  rinner =    1.900   1.900   1.900
                                                       1.900   1.900   1.900
                                                       1.900

     PseudoPot. # 2 for Zn read from file:
     /afs/slac.stanford.edu/u/if/mamunm/psp/gbrv1.5pbe/Zn.UPF
     MD5 check sum: df62231357ef9e81f77b2b3087fa5675
     Pseudo is Ultrasoft, Zval = 20.0
     Generated by new atomic code, or converted to UPF format
     Using radial grid of  943 points,  6 beta functions with:
                l(1) =   0
                l(2) =   0
                l(3) =   1
                l(4) =   1
                l(5) =   2
                l(6) =   2
     Q(r) pseudized with  8 coefficients,  rinner =    1.100   1.100   1.100
                                                       1.100   1.100

     vdW kernel table read from file vdW_kernel_table
     MD5 check sum: 095c7af220d748ca6e76c0b4c6cfb241

     atomic species   valence    mass     pseudopotential
        Au1           11.00   196.96657     Au( 1.00)
        Zn1           20.00    65.38000     Zn( 1.00)

     No symmetry found

   Cartesian axes

     site n.     atom                  positions (alat units)
         1           Au1 tau(   1) = (   0.0000000   0.0000000  10.0000000  )
         2           Au1 tau(   2) = (  -1.4603269   2.5293604  10.0000000  )
         3           Au1 tau(   3) = (   1.4603269   2.5293604  10.0000000  )
         4           Zn1 tau(   4) = (   2.9206538   0.0000000  10.0000000  )
         5           Au1 tau(   5) = (   2.9206538   1.6862403  12.3847039  )
         6           Au1 tau(   6) = (   1.4603269   4.2156007  12.3847039  )
         7           Au1 tau(   7) = (  -1.4603269   4.2156007  12.3847039  )
         8           Zn1 tau(   8) = (   0.0000000   1.6862403  12.3847039  )
         9           Au1 tau(   9) = (  -0.0000014   3.3495902  14.8673584  )
        10           Au1 tau(  10) = (   1.4404905   0.8545861  14.8673299  )
        11           Au1 tau(  11) = (   4.4008208   0.8545797  14.8673347  )
        12           Zn1 tau(  12) = (   2.9206931   3.3724880  14.7841712  )

     number of k points=    20  Fermi-Dirac smearing, width (Ry)=  0.0110
                       cart. coord. in units 2pi/alat
        k(    1) = (   0.0000000   0.0000000   0.0000000), wk =   0.0555556
        k(    2) = (   0.0000000   0.0329464   0.0000000), wk =   0.1111111
        k(    3) = (   0.0000000   0.0658928   0.0000000), wk =   0.1111111
        k(    4) = (   0.0000000  -0.0988392   0.0000000), wk =   0.0555556
        k(    5) = (   0.0285324   0.0164732   0.0000000), wk =   0.1111111
        k(    6) = (   0.0285324   0.0494196   0.0000000), wk =   0.1111111
        k(    7) = (   0.0285324   0.0823660   0.0000000), wk =   0.1111111
        k(    8) = (   0.0285324  -0.0823660   0.0000000), wk =   0.1111111
        k(    9) = (   0.0285324  -0.0494196   0.0000000), wk =   0.1111111
        k(   10) = (   0.0285324  -0.0164732   0.0000000), wk =   0.1111111
        k(   11) = (   0.0570648   0.0329464   0.0000000), wk =   0.1111111
        k(   12) = (   0.0570648   0.0658928   0.0000000), wk =   0.1111111
        k(   13) = (   0.0570648   0.0988392   0.0000000), wk =   0.1111111
        k(   14) = (   0.0570648  -0.0658928   0.0000000), wk =   0.1111111
        k(   15) = (   0.0570648  -0.0329464   0.0000000), wk =   0.1111111
        k(   16) = (   0.0570648   0.0000000   0.0000000), wk =   0.1111111
        k(   17) = (  -0.0855973  -0.0494196   0.0000000), wk =   0.0555556
        k(   18) = (  -0.0855973  -0.0164732   0.0000000), wk =   0.1111111
        k(   19) = (  -0.0855973   0.0164732   0.0000000), wk =   0.1111111
        k(   20) = (  -0.0855973  -0.1482588   0.0000000), wk =   0.0555556

     Largest allocated arrays     est. size (Mb)     dimensions
     Largest temporary arrays     est. size (Mb)     dimensions

     Check: negative/imaginary core charge=   -0.000002    0.000000

     Initial potential from superposition of free atoms
     Check: negative starting charge=   -0.000440

     starting charge  158.99848, renormalised to  159.00000

[...]

     *
     * You are using vdW-DF for exchange-correlation in this calculation.
     * Please cite the following three references that made this development
     * possible:
     *
     *   M. Dion, H. Rydberg, E. Schroder, D. C. Langreth, and
     *   B. I. Lundqvist, Phys. Rev. Lett. 92, 246401 (2004).
     *
     *   T. Thonhauser, V. R. Cooper, S. Li, A. Puzder, P. Hyldgaard, and
     *   D. C. Langreth, Phys. Rev. B 76, 125112 (2007).
     *
     *   G. Roman-Perez and J. M. Soler, Phys. Rev. Lett. 103, 096102 (2009).
     *
     *
     * If you are using vdW-DF2, please also cite:
     *
     *   K. Lee, E. D. Murray, L. Kong, B. I. Lundqvist, and
     *   D. C. Langreth, Phys. Rev. B 82, 081101(R) (2010).
     *
     *
     * If you are calculating the stress with vdW-DF, please also cite:
     *
     *   R. Sabatini, E. Kucukbenli, B. Kolb, T. Thonhauser, and
     *   S. de Gironcoli, J. Phys.: Condens. Matter 24, 424209 (2012).
     *

     Carrying out vdW-DF run using the following parameters:

     Nqs =      20    Nr_points =    1024   r_max =   100.000
     q_mesh =
               0.00001000     0.04494208     0.09755937     0.15916263
               0.23128650     0.31572767     0.41458969     0.53033537
               0.66584808     0.82450364     1.01025438     1.22772762
               1.48234092     1.78043706     2.12944203     2.53805004
               3.01644009     3.57652955     4.23227104     5.00000000

     Gradients computed in reciprocal space

[...]

     Starting wfc are  120 randomized atomic wfcs

     Self-consistent Calculation

[...]

     Threshold (ethr) on eigenvalues was too large:
     Diagonalizing with lowered threshold

     Davidson diagonalization with overlap
     ethr =  1.52E-04,  avg # of iterations =  5.6

[...]

     total energy              =   -2438.77401608 Ry
     Harris-Foulkes estimate   =   -2438.77401490 Ry
     estimated scf accuracy    <       0.00000145 Ry

     iteration # 13     ecut=    36.75 Ry     beta=0.10
     Davidson diagonalization with overlap
     ethr =  9.15E-10,  avg # of iterations =  2.0

[...]

     negative rho (up, down):  5.451E-04 0.000E+00

     Adding external electric field

     Computed dipole along edir(3) :
        Dipole               -0.0121 Ry au,         -0.0307 Debye
        Dipole field         -0.0000 Ry au

        Potential amp.        0.0028 Ry
        Total length         45.6372 bohr

     End of self-consistent calculation

[...]

          k = 0.0571 0.0000 0.0000 ( 18555 PWs)   bands (ev):

[...]

          k =-0.0856-0.1483 0.0000 ( 18584 PWs)   bands (ev):

  -126.1410-125.9670-125.9484 -80.3305 -80.3293 -80.3293 -80.1756 -80.1563
   -80.1446 -80.1445 -80.1261 -80.1260  -7.2593  -7.1657  -7.1622  -7.1348
    -7.1260  -7.0700  -7.0259  -6.9967  -6.9778  -6.9646  -6.9031  -6.9031
    -6.8960  -6.8906  -6.8701  -6.5946  -6.4800  -5.6028  -5.4527  -5.4019
    -5.3355  -5.1263  -4.9771  -4.9337  -4.7897  -4.6419  -4.5663  -4.5133
    -4.4758  -4.4319  -4.3850  -4.3055  -4.1583  -4.0537  -3.8416  -3.7385
    -3.7279  -3.6976  -3.6202  -3.6173  -3.5812  -3.5708  -3.5140  -3.4532
    -3.4087  -3.2973  -3.2648  -3.1729  -3.1649  -3.1113  -3.0417  -3.0365
    -3.0179  -2.9596  -2.8395  -2.7703  -2.7247  -2.6678  -2.5493  -2.4055
    -2.2461  -2.1351  -1.9709  -1.7343  -1.1819  -0.4362  -0.1978   0.0388
     0.2730   0.9277   2.2039   2.7881   2.8460   2.9545   4.7603   5.0838
     5.2428   5.2675   5.4665   5.5207   5.8045   6.1248   6.1681   6.1941
     6.3116   6.3547   6.7007   6.8453   7.3988   7.4032   7.5452   7.5775
     7.7998   7.9150   8.0177   8.1688   8.6768

     the Fermi energy is     0.3327 ev

!    total energy              =   -2438.77401849 Ry
     Harris-Foulkes estimate   =   -2438.77401633 Ry
     estimated scf accuracy    <       0.00000057 Ry

     The total energy is the sum of the following terms:

     one-electron contribution =  -13321.98589706 Ry
     hartree contribution      =    6727.52852440 Ry
     xc contribution           =    -706.28367953 Ry
     ewald contribution        =    4861.98794973 Ry
     electric field correction =       0.00000037 Ry
     smearing contrib. (-TS)   =      -0.02091640 Ry

     convergence has been achieved in  13 iterations

 BEEF-vdW xc energy contributions
           1 :   -630.772524251840
           2 :    583.733005128165
           3 :   -500.797751734388
           4 :    399.777394081515
           5 :   -298.859031803256
           6 :    211.345993071796
           7 :   -143.330077464207
           8 :    94.5014851853649
           9 :   -60.9340861124045
          10 :    38.0620763849554
          11 :   -22.4931596061474
          12 :    12.2869232561662
          13 :   -6.27891630932845
          14 :    3.32766291402015
          15 :   -2.06008293085529
          16 :    1.10824012154706
          17 :   0.511868729824982
          18 :   -3.21083315350995
          19 :    6.87751126039893
          20 :   -11.0336077863255
          21 :    14.9570074314370
          22 :   -17.7949012709349
          23 :    18.7673724915178
          24 :   -17.4903953650736
          25 :    14.2677052452424
          26 :   -10.1162477959792
          27 :    6.39845683349063
          28 :   -4.20289300382581
          29 :    3.82429497439750
          30 :   -4.68119207479469
          31 :   -49.5474274540970
          32 :   -35.6833426592548

     Forces acting on atoms (Ry/au):

     negative rho (up, down):  5.451E-04 0.000E+00
     atom    1 type  1   force =    -0.00000018    0.01070375   -0.01044347
     atom    2 type  1   force =     0.00927063   -0.00535348   -0.01044497
     atom    3 type  1   force =    -0.00927187   -0.00535329   -0.01044608
     atom    4 type  2   force =     0.00000320    0.00000053    0.00036679
     atom    5 type  1   force =     0.00000027   -0.00394424    0.00916063
     atom    6 type  1   force =    -0.00341706    0.00197300    0.00916031
     atom    7 type  1   force =     0.00341474    0.00197428    0.00916010
     atom    8 type  2   force =    -0.00000368   -0.00000253    0.00332428
     atom    9 type  1   force =     0.00000072    0.00112879    0.00015826
     atom   10 type  1   force =     0.00097730   -0.00056292    0.00016140
     atom   11 type  1   force =    -0.00097620   -0.00056307    0.00016180
     atom   12 type  2   force =     0.00000213   -0.00000081   -0.00031903

     Total force =     0.031380     Total SCF correction =     0.003429
     SCF correction compared to forces is large: reduce conv_thr to get better values

     entering subroutine stress ...

     negative rho (up, down):  5.451E-04 0.000E+00
          total   stress  (Ry/bohr**3)                   (kbar)     P=  -12.82
  -0.00013734  -0.00000000  -0.00000000        -20.20     -0.00     -0.00
  -0.00000000  -0.00013734  -0.00000000         -0.00    -20.20     -0.00
  -0.00000000  -0.00000000   0.00001330         -0.00     -0.00      1.96

 !ASE

     Writing output data file calc.save

     General routines

     Parallel routines

   This run was terminated on:  21:44:34  19Dec2018

   JOB DONE.
Job  /afs/slac/g/suncat/bin/suncat-tsmpirun -x LD_LIBRARY_PATH -wdir /scratch/qe773409_lK4qZ pw.x -in pw.inp

TID   HOST_NAME   COMMAND_LINE            STATUS            TERMINATION_TIME
00000 suncat0013 pw.x -in pw.inp   Done                     12/19/2018 21:44:34
00001 suncat0013 pw.x -in pw.inp   Done                     12/19/2018 21:44:34
00002 suncat0013 pw.x -in pw.inp   Done                     12/19/2018 21:44:34
00003 suncat0013 pw.x -in pw.inp   Done                     12/19/2018 21:44:34
00004 suncat0013 pw.x -in pw.inp   Done                     12/19/2018 21:44:34
00005 suncat0013 pw.x -in pw.inp   Done                     12/19/2018 21:44:34
00006 suncat0013 pw.x -in pw.inp   Done                     12/19/2018 21:44:34
00007 suncat0013 pw.x -in pw.inp   Done                     12/19/2018 21:44:34
00008 suncat0199 pw.x -in pw.inp   Done                     12/19/2018 21:44:34
00009 suncat0199 pw.x -in pw.inp   Done                     12/19/2018 21:44:34
00010 suncat0199 pw.x -in pw.inp   Done                     12/19/2018 21:44:34
00011 suncat0199 pw.x -in pw.inp   Done                     12/19/2018 21:44:34
00012 suncat0199 pw.x -in pw.inp   Done                     12/19/2018 21:44:34
00013 suncat0199 pw.x -in pw.inp   Done                     12/19/2018 21:44:34
00014 suncat0199 pw.x -in pw.inp   Done                     12/19/2018 21:44:34
00015 suncat0199 pw.x -in pw.inp   Done                     12/19/2018 21:44:34
00016 suncat0010 pw.x -in pw.inp   Done                     12/19/2018 21:44:34
00017 suncat0010 pw.x -in pw.inp   Done                     12/19/2018 21:44:34
00018 suncat0010 pw.x -in pw.inp   Done                     12/19/2018 21:44:34
00019 suncat0010 pw.x -in pw.inp   Done                     12/19/2018 21:44:34
00020 suncat0010 pw.x -in pw.inp   Done                     12/19/2018 21:44:34
00021 suncat0010 pw.x -in pw.inp   Done                     12/19/2018 21:44:34
00022 suncat0010 pw.x -in pw.inp   Done                     12/19/2018 21:44:34
00023 suncat0010 pw.x -in pw.inp   Done                     12/19/2018 21:44:34
00024 suncat0198 pw.x -in pw.inp   Done                     12/19/2018 21:44:34
00025 suncat0198 pw.x -in pw.inp   Done                     12/19/2018 21:44:34
00026 suncat0198 pw.x -in pw.inp   Done                     12/19/2018 21:44:34
00027 suncat0198 pw.x -in pw.inp   Done                     12/19/2018 21:44:34
00028 suncat0198 pw.x -in pw.inp   Done                     12/19/2018 21:44:34
00029 suncat0198 pw.x -in pw.inp   Done                     12/19/2018 21:44:34
00030 suncat0198 pw.x -in pw.inp   Done                     12/19/2018 21:44:34
00031 suncat0198 pw.x -in pw.inp   Done                     12/19/2018 21:44:34
00032 suncat0196 pw.x -in pw.inp   Done                     12/19/2018 21:44:34
00033 suncat0196 pw.x -in pw.inp   Done                     12/19/2018 21:44:34
00034 suncat0196 pw.x -in pw.inp   Done                     12/19/2018 21:44:34
00035 suncat0196 pw.x -in pw.inp   Done                     12/19/2018 21:44:34
00036 suncat0196 pw.x -in pw.inp   Done                     12/19/2018 21:44:34
00037 suncat0196 pw.x -in pw.inp   Done                     12/19/2018 21:44:34
00038 suncat0196 pw.x -in pw.inp   Done                     12/19/2018 21:44:34
00039 suncat0196 pw.x -in pw.inp   Done                     12/19/2018 21:44:34
00040 suncat0195 pw.x -in pw.inp   Done                     12/19/2018 21:44:34
00041 suncat0195 pw.x -in pw.inp   Done                     12/19/2018 21:44:34
00042 suncat0195 pw.x -in pw.inp   Done                     12/19/2018 21:44:34
00043 suncat0195 pw.x -in pw.inp   Done                     12/19/2018 21:44:34
00044 suncat0195 pw.x -in pw.inp   Done                     12/19/2018 21:44:34
00045 suncat0195 pw.x -in pw.inp   Done                     12/19/2018 21:44:34
00046 suncat0195 pw.x -in pw.inp   Done                     12/19/2018 21:44:34
00047 suncat0195 pw.x -in pw.inp   Done                     12/19/2018 21:44:34
00048 suncat0194 pw.x -in pw.inp   Done                     12/19/2018 21:44:34
00049 suncat0194 pw.x -in pw.inp   Done                     12/19/2018 21:44:34
00050 suncat0194 pw.x -in pw.inp   Done                     12/19/2018 21:44:34
00051 suncat0194 pw.x -in pw.inp   Done                     12/19/2018 21:44:34
00052 suncat0194 pw.x -in pw.inp   Done                     12/19/2018 21:44:34
00053 suncat0194 pw.x -in pw.inp   Done                     12/19/2018 21:44:34
00054 suncat0194 pw.x -in pw.inp   Done                     12/19/2018 21:44:34
00055 suncat0194 pw.x -in pw.inp   Done                     12/19/2018 21:44:34
00056 suncat0193 pw.x -in pw.inp   Done                     12/19/2018 21:44:34
00057 suncat0193 pw.x -in pw.inp   Done                     12/19/2018 21:44:34
00058 suncat0193 pw.x -in pw.inp   Done                     12/19/2018 21:44:34
00059 suncat0193 pw.x -in pw.inp   Done                     12/19/2018 21:44:34
00060 suncat0193 pw.x -in pw.inp   Done                     12/19/2018 21:44:34
00061 suncat0193 pw.x -in pw.inp   Done                     12/19/2018 21:44:34
00062 suncat0193 pw.x -in pw.inp   Done                     12/19/2018 21:44:34
00063 suncat0193 pw.x -in pw.inp   Done                     12/19/2018 21:44:34