     Program PWSCF v.5.1rc2 (svn rev. 11289) starts on 29Dec2018 at 22:12:39

     Current dimensions of program PWSCF are:
     Max number of different atomic species (ntypx) = 10
     Max number of k-points (npk) =  40000
     Max angular momentum in pseudopotentials (lmaxx) =  3
     Presently stress not available with electric field

     IMPORTANT: XC functional enforced from input :
     Exchange-correlation      = BEEF-VDW ( 1  4 27 13 2)
     Any further DFT definition will be discarded
     Please, verify this is what you really want

     Subspace diagonalization in iterative solution of the eigenvalue problem:
     a serial algorithm will be used

     Found symmetry operation: I + ( -0.5000 -0.5000  0.0000)
     This is a supercell, fractional translations are disabled

     bravais-lattice index     =            0
     lattice parameter (alat)  =       1.8897  a.u.
     unit-cell volume          =    4573.4619 (a.u.)^3
     number of atoms/cell      =           12
     number of atomic types    =            2
     number of electrons       =       174.00
     number of Kohn-Sham states=          117
     kinetic-energy cutoff     =      36.7493  Ry
     charge density cutoff     =     367.4932  Ry
     convergence threshold     =      1.0E-06
     mixing beta               =       0.1000
     number of iterations used =           10  plain     mixing
     Exchange-correlation      = BEEF-VDW ( 1  4 27 13 2)
     nstep                     =           50

     celldm(1)=   1.889726  celldm(2)=   0.000000  celldm(3)=   0.000000
     celldm(4)=   0.000000  celldm(5)=   0.000000  celldm(6)=   0.000000

     crystal axes: (cart. coord. in units of alat)
               a(1) = (   5.425608   0.000000   0.000000 )
               a(2) = (   1.816445   5.112509   0.000000 )
               a(3) = (   0.000000   0.000000  24.432388 )

     reciprocal axes: (cart. coord. in units 2 pi/alat)
               b(1) = (  0.184311 -0.065485  0.000000 )
               b(2) = (  0.000000  0.195599  0.000000 )
               b(3) = (  0.000000  0.000000  0.040929 )

     PseudoPot. # 1 for Tc read from file:
     /afs/slac.stanford.edu/u/if/mamunm/psp/gbrv1.5pbe/Tc.UPF
     MD5 check sum: 9eb49e5b028550b2339a02317eb7b844
     Pseudo is Ultrasoft + core correction, Zval = 15.0
     Generated by new atomic code, or converted to UPF format
     Using radial grid of  965 points,  6 beta functions with:
                l(1) =   0
                l(2) =   0
                l(3) =   1
                l(4) =   1
                l(5) =   2
                l(6) =   2
     Q(r) pseudized with  8 coefficients,  rinner =    1.300   1.300   1.300
                                                       1.300   1.300

     PseudoPot. # 2 for W  read from file:
     /afs/slac.stanford.edu/u/if/mamunm/psp/gbrv1.5pbe/W.UPF
     MD5 check sum: 9c083fa34c2a2ea0f02f1f893e16e1c8
     Pseudo is Ultrasoft + core correction, Zval = 14.0
     Generated by new atomic code, or converted to UPF format
     Using radial grid of  923 points,  8 beta functions with:
                l(1) =   0
                l(2) =   0
                l(3) =   0
                l(4) =   1
                l(5) =   1
                l(6) =   2
                l(7) =   2
                l(8) =   3
     Q(r) pseudized with  6 coefficients,  rinner =    1.350   1.350   1.350
                                                       1.350   1.350   1.350
                                                       1.350

     vdW kernel table read from file vdW_kernel_table
     MD5 check sum: 095c7af220d748ca6e76c0b4c6cfb241

     atomic species   valence    mass     pseudopotential
        Tc1           15.00    97.90721     Tc( 1.00)
        W1            14.00   183.84000     W ( 1.00)

     No symmetry found

   Cartesian axes

     site n.     atom                  positions (alat units)
         1           Tc1 tau(   1) = (   0.0000000   0.0000000  10.0000000  )
         2           Tc1 tau(   2) = (   3.6210269   2.5562546  10.0000000  )
         3           W1  tau(   3) = (   2.7128041   0.0000000  10.0000000  )
         4           W1  tau(   4) = (   0.9082227   2.5562546  10.0000000  )
         5           Tc1 tau(   5) = (   5.4256083   3.8301943  12.2161940  )
         6           Tc1 tau(   6) = (   1.8045814   1.2739396  12.2161940  )
         7           W1  tau(   7) = (   2.7128041   3.8301943  12.2161940  )
         8           W1  tau(   8) = (   4.5173856   1.2739396  12.2161940  )
         9           Tc1 tau(   9) = (   3.6091628   2.5478793  14.4323879  )
        10           Tc1 tau(  10) = (   7.2301897   5.1041339  14.4323879  )
        11           W1  tau(  11) = (   6.3219670   2.5478793  14.4323879  )
        12           W1  tau(  12) = (   4.5173856   5.1041339  14.4323879  )

     number of k points=    20  Fermi-Dirac smearing, width (Ry)=  0.0110
                       cart. coord. in units 2pi/alat
        k(    1) = (   0.0000000   0.0000000   0.0000000), wk =   0.0555556
        k(    2) = (   0.0000000   0.0325998   0.0000000), wk =   0.1111111
        k(    3) = (   0.0000000   0.0651996   0.0000000), wk =   0.1111111
        k(    4) = (   0.0000000  -0.0977993   0.0000000), wk =   0.0555556
        k(    5) = (   0.0307185  -0.0109141   0.0000000), wk =   0.1111111
        k(    6) = (   0.0307185   0.0216857   0.0000000), wk =   0.1111111
        k(    7) = (   0.0307185   0.0542854   0.0000000), wk =   0.1111111
        k(    8) = (   0.0307185  -0.1087134   0.0000000), wk =   0.1111111
        k(    9) = (   0.0307185  -0.0761137   0.0000000), wk =   0.1111111
        k(   10) = (   0.0307185  -0.0435139   0.0000000), wk =   0.1111111
        k(   11) = (   0.0614370  -0.0218282   0.0000000), wk =   0.1111111
        k(   12) = (   0.0614370   0.0107715   0.0000000), wk =   0.1111111
        k(   13) = (   0.0614370   0.0433713   0.0000000), wk =   0.1111111
        k(   14) = (   0.0614370  -0.1196276   0.0000000), wk =   0.1111111
        k(   15) = (   0.0614370  -0.0870278   0.0000000), wk =   0.1111111
        k(   16) = (   0.0614370  -0.0544280   0.0000000), wk =   0.1111111
        k(   17) = (  -0.0921556   0.0327423   0.0000000), wk =   0.0555556
        k(   18) = (  -0.0921556   0.0653421   0.0000000), wk =   0.1111111
        k(   19) = (  -0.0921556   0.0979419   0.0000000), wk =   0.1111111
        k(   20) = (  -0.0921556  -0.0650570   0.0000000), wk =   0.0555556

     Largest allocated arrays     est. size (Mb)     dimensions
     Largest temporary arrays     est. size (Mb)     dimensions

     Check: negative/imaginary core charge=   -0.000011    0.000000

     Initial potential from superposition of free atoms
     Check: negative starting charge=   -1.138633

     starting charge  167.39779, renormalised to  174.00000

     negative rho (up, down):  1.184E+00 0.000E+00

     *
     * You are using vdW-DF for exchange-correlation in this calculation.
     * Please cite the following three references that made this development
     * possible:
     *
     *   M. Dion, H. Rydberg, E. Schroder, D. C. Langreth, and
     *   B. I. Lundqvist, Phys. Rev. Lett. 92, 246401 (2004).
     *
     *   T. Thonhauser, V. R. Cooper, S. Li, A. Puzder, P. Hyldgaard, and
     *   D. C. Langreth, Phys. Rev. B 76, 125112 (2007).
     *
     *   G. Roman-Perez and J. M. Soler, Phys. Rev. Lett. 103, 096102 (2009).
     *
     *
     * If you are using vdW-DF2, please also cite:
     *
     *   K. Lee, E. D. Murray, L. Kong, B. I. Lundqvist, and
     *   D. C. Langreth, Phys. Rev. B 82, 081101(R) (2010).
     *
     *
     * If you are calculating the stress with vdW-DF, please also cite:
     *
     *   R. Sabatini, E. Kucukbenli, B. Kolb, T. Thonhauser, and
     *   S. de Gironcoli, J. Phys.: Condens. Matter 24, 424209 (2012).
     *

     Carrying out vdW-DF run using the following parameters:

     Nqs =      20    Nr_points =    1024   r_max =   100.000
     q_mesh =
               0.00001000     0.04494208     0.09755937     0.15916263
               0.23128650     0.31572767     0.41458969     0.53033537
               0.66584808     0.82450364     1.01025438     1.22772762
               1.48234092     1.78043706     2.12944203     2.53805004
               3.01644009     3.57652955     4.23227104     5.00000000

     Gradients computed in reciprocal space

     Adding external electric field

     Computed dipole along edir(3) :
        Dipole               -0.0000 Ry au,         -0.0000 Debye
        Dipole field         -0.0000 Ry au

        Potential amp.        0.0000 Ry
        Total length         45.0163 bohr

     Starting wfc are  156 randomized atomic wfcs

     Self-consistent Calculation

     iteration #  1     ecut=    36.75 Ry     beta=0.10
     Davidson diagonalization with overlap
     ethr =  1.00E-02,  avg # of iterations =  3.1

[...]

     total energy              =   -2014.93714301 Ry
     Harris-Foulkes estimate   =   -2015.50402273 Ry
     estimated scf accuracy    <       4.02302320 Ry

[...]

     End of self-consistent calculation

          k = 0.0000 0.0000 0.0000 ( 17163 PWs)   bands (ev):

   -72.7113 -72.7006 -72.4348 -72.4344 -72.4248 -72.4244 -65.2236 -65.2114
   -64.6365 -64.6358 -64.6244 -64.6242 -37.6682 -37.5868 -37.5581 -37.4013
   -37.3587 -37.3044 -37.1707 -37.0589 -37.0330 -37.0037 -36.9984 -36.9890
   -36.8503 -36.7987 -36.7307 -36.7083 -36.6549 -36.6330 -36.6073 -36.5630
   -36.5481 -36.5375 -36.5242 -36.4802 -36.4531 -36.4164 -36.4009 -36.3224
   -36.1894 -36.1783 -36.1583 -36.1434 -36.1380 -36.1159 -36.0519 -36.0514
    -5.5579  -3.6460  -3.5155  -3.4114  -3.2407  -3.1204  -2.9446  -2.8586
    -2.7171  -2.6412  -2.0134  -1.9649  -1.6438  -1.3713  -1.2798  -1.2585
    -1.1760  -1.0523  -0.8111  -0.7071  -0.6167  -0.6118  -0.2315   0.2797
     0.4747   0.5067   0.6841   0.7149   1.2273   1.6623   1.7822   1.9481
     1.9961   2.4050   2.6888   2.7165   2.8732   3.0912   3.1611   3.3101
     3.4889   3.4909   3.5681   3.6116   3.6754   3.7104   3.7945   3.8410
     3.8731   3.9887   4.0543   4.1354   4.1362   4.1657   4.3331   4.5005
     4.7184   4.7713   4.8565   5.3660   5.4067   5.5028   5.8025   5.8212
     5.9160   5.9310   6.1719   6.7800   6.8865

[...]

          k =-0.0922 0.0327 0.0000 ( 17206 PWs)   bands (ev):

[...]

     the Fermi energy is     2.3955 ev

!    total energy              =   -2014.11080896 Ry
     Harris-Foulkes estimate   =   -2014.11080330 Ry
     estimated scf accuracy    <       0.00000048 Ry

     The total energy is the sum of the following terms:

     one-electron contribution =  -16310.17458205 Ry
     hartree contribution      =    8142.62771378 Ry
     xc contribution           =    -453.52885027 Ry
     ewald contribution        =    6607.03971145 Ry
     electric field correction =       0.00000000 Ry
     smearing contrib. (-TS)   =      -0.07480187 Ry

     convergence has been achieved in  15 iterations

 BEEF-vdW xc energy contributions
           1 :   -398.405748609019
           2 :    367.678062446622
           3 :   -313.287732834969
           4 :    246.681336628467
           5 :   -179.964655697067
[...]
     Generated by new atomic code, or converted to UPF format
     Using radial grid of  965 points,  6 beta functions with:
                l(1) =   0
                l(2) =   0
                l(3) =   1
                l(4) =   1
                l(5) =   2
                l(6) =   2
     Q(r) pseudized with  8 coefficients,  rinner =    1.300   1.300   1.300
                                                       1.300   1.300

     PseudoPot. # 2 for W  read from file:
     /afs/slac.stanford.edu/u/if/mamunm/psp/gbrv1.5pbe/W.UPF
     MD5 check sum: 9c083fa34c2a2ea0f02f1f893e16e1c8
     Pseudo is Ultrasoft + core correction, Zval = 14.0
     Generated by new atomic code, or converted to UPF format
     Using radial grid of  923 points,  8 beta functions with:
                l(1) =   0
                l(2) =   0
                l(3) =   0
                l(4) =   1
                l(5) =   1
                l(6) =   2
                l(7) =   2
                l(8) =   3
     Q(r) pseudized with  6 coefficients,  rinner =    1.350   1.350   1.350
                                                       1.350   1.350   1.350
                                                       1.350

     vdW kernel table read from file vdW_kernel_table
     MD5 check sum: 095c7af220d748ca6e76c0b4c6cfb241

     atomic species   valence    mass     pseudopotential
        Tc1           15.00    97.90721     Tc( 1.00)
        W1            14.00   183.84000     W ( 1.00)

     No symmetry found

   Cartesian axes

     site n.     atom                  positions (alat units)
         1           Tc1 tau(   1) = (   0.0000000   0.0000000  10.0000000  )
         2           Tc1 tau(   2) = (   3.6210269   2.5562546  10.0000000  )
         3           W1  tau(   3) = (   2.7128041   0.0000000  10.0000000  )
         4           W1  tau(   4) = (   0.9082227   2.5562546  10.0000000  )
         5           Tc1 tau(   5) = (   5.4256083   3.8301943  12.2161940  )
         6           Tc1 tau(   6) = (   1.8045814   1.2739396  12.2161940  )
         7           W1  tau(   7) = (   2.7128041   3.8301943  12.2161940  )
         8           W1  tau(   8) = (   4.5173856   1.2739396  12.2161940  )
         9           Tc1 tau(   9) = (   3.6119826   2.5498697  14.3038638  )
        10           Tc1 tau(  10) = (   7.2330085   5.1061243  14.3038642  )
        11           W1  tau(  11) = (   6.3249673   2.5499989  14.3966991  )
        12           W1  tau(  12) = (   4.5203862   5.1062526  14.3966976  )

     number of k points=    20  Fermi-Dirac smearing, width (Ry)=  0.0110
                       cart. coord. in units 2pi/alat
        k(    1) = (   0.0000000   0.0000000   0.0000000), wk =   0.0555556
        k(    2) = (   0.0000000   0.0325998   0.0000000), wk =   0.1111111
        k(    3) = (   0.0000000   0.0651996   0.0000000), wk =   0.1111111
        k(    4) = (   0.0000000  -0.0977993   0.0000000), wk =   0.0555556
        k(    5) = (   0.0307185  -0.0109141   0.0000000), wk =   0.1111111
        k(    6) = (   0.0307185   0.0216857   0.0000000), wk =   0.1111111
        k(    7) = (   0.0307185   0.0542854   0.0000000), wk =   0.1111111
        k(    8) = (   0.0307185  -0.1087134   0.0000000), wk =   0.1111111
        k(    9) = (   0.0307185  -0.0761137   0.0000000), wk =   0.1111111
        k(   10) = (   0.0307185  -0.0435139   0.0000000), wk =   0.1111111
        k(   11) = (   0.0614370  -0.0218282   0.0000000), wk =   0.1111111
        k(   12) = (   0.0614370   0.0107715   0.0000000), wk =   0.1111111
        k(   13) = (   0.0614370   0.0433713   0.0000000), wk =   0.1111111
        k(   14) = (   0.0614370  -0.1196276   0.0000000), wk =   0.1111111
        k(   15) = (   0.0614370  -0.0870278   0.0000000), wk =   0.1111111
        k(   16) = (   0.0614370  -0.0544280   0.0000000), wk =   0.1111111
        k(   17) = (  -0.0921556   0.0327423   0.0000000), wk =   0.0555556
        k(   18) = (  -0.0921556   0.0653421   0.0000000), wk =   0.1111111
        k(   19) = (  -0.0921556   0.0979419   0.0000000), wk =   0.1111111
        k(   20) = (  -0.0921556  -0.0650570   0.0000000), wk =   0.0555556

     Largest allocated arrays     est. size (Mb)     dimensions
     Largest temporary arrays     est. size (Mb)     dimensions

     Check: negative/imaginary core charge=   -0.000011    0.000000

     Initial potential from superposition of free atoms
     Check: negative starting charge=   -1.137819

     starting charge  167.39779, renormalised to  174.00000

[...]

     *
     * You are using vdW-DF for exchange-correlation in this calculation.
     * Please cite the following three references that made this development
     * possible:
     *
     *   M. Dion, H. Rydberg, E. Schroder, D. C. Langreth, and
     *   B. I. Lundqvist, Phys. Rev. Lett. 92, 246401 (2004).
     *
     *   T. Thonhauser, V. R. Cooper, S. Li, A. Puzder, P. Hyldgaard, and
     *   D. C. Langreth, Phys. Rev. B 76, 125112 (2007).
     *
     *   G. Roman-Perez and J. M. Soler, Phys. Rev. Lett. 103, 096102 (2009).
     *
     *
     * If you are using vdW-DF2, please also cite:
     *
     *   K. Lee, E. D. Murray, L. Kong, B. I. Lundqvist, and
     *   D. C. Langreth, Phys. Rev. B 82, 081101(R) (2010).
     *
     *
     * If you are calculating the stress with vdW-DF, please also cite:
     *
     *   R. Sabatini, E. Kucukbenli, B. Kolb, T. Thonhauser, and
     *   S. de Gironcoli, J. Phys.: Condens. Matter 24, 424209 (2012).
     *

     Carrying out vdW-DF run using the following parameters:

     Nqs =      20    Nr_points =    1024   r_max =   100.000
     q_mesh =
               0.00001000     0.04494208     0.09755937     0.15916263
               0.23128650     0.31572767     0.41458969     0.53033537
               0.66584808     0.82450364     1.01025438     1.22772762
               1.48234092     1.78043706     2.12944203     2.53805004
               3.01644009     3.57652955     4.23227104     5.00000000

     Gradients computed in reciprocal space

[...]

     Starting wfc are  156 randomized atomic wfcs

     Self-consistent Calculation

[...]

     total energy              =   -2014.12154383 Ry
     Harris-Foulkes estimate   =   -2014.12154247 Ry
     estimated scf accuracy    <       0.00000187 Ry

     iteration # 15     ecut=    36.75 Ry     beta=0.10
     Davidson diagonalization with overlap
     ethr =  1.07E-09,  avg # of iterations =  2.0

[...]

     negative rho (up, down):  1.196E+00 0.000E+00

     Adding external electric field

     Computed dipole along edir(3) :
        Dipole                0.0393 Ry au,          0.0998 Debye
        Dipole field          0.0001 Ry au

        Potential amp.       -0.0097 Ry
        Total length         45.0163 bohr

     End of self-consistent calculation

[...]

          k = 0.0614-0.0544 0.0000 ( 17178 PWs)   bands (ev):

[...]

          k =-0.0922-0.0651 0.0000 ( 17236 PWs)   bands (ev):

   -72.6695 -72.6592 -72.4016 -72.3917 -72.3900 -72.3801 -65.1852 -65.1723
   -64.6163 -64.6033 -64.5918 -64.5788 -37.4614 -37.3374 -37.2694 -37.2234
   -37.2074 -37.1972 -37.1490 -37.0862 -37.0676 -36.8585 -36.8045 -36.7909
   -36.6884 -36.6341 -36.6289 -36.6153 -36.6136 -36.6092 -36.6001 -36.5364
   -36.5210 -36.5157 -36.5004 -36.4473 -36.4261 -36.4164 -36.4091 -36.3948
   -36.3877 -36.3765 -36.3721 -36.3504 -36.3166 -36.2730 -36.2448 -36.2144
    -3.5843  -3.3764  -2.5362  -2.2677  -2.1283  -2.0302  -1.9496  -1.9315
    -1.7181  -1.3952  -1.3228  -1.0435  -0.9460  -0.9190  -0.9125  -0.7339
    -0.7201  -0.5889  -0.4257  -0.1949  -0.1275   0.0293   0.2694   0.4202
     0.5766   0.6856   0.6874   0.6901   0.8219   0.9384   0.9707   0.9780
     1.1719   1.2229   1.2817   1.2873   1.3876   1.4679   1.4931   1.9596
     2.0321   2.2345   2.2728   2.4641   2.5267   2.6849   2.7091   2.7404
     2.9351   2.9508   3.0769   3.2736   3.4850   3.5030   3.7000   3.7257
     3.8164   4.3838   4.4240   4.8166   4.9269   4.9849   5.2106   5.3730
     5.5279   5.7019   6.2899   6.2941   6.5695

     the Fermi energy is     2.4311 ev

!    total energy              =   -2014.12154973 Ry
     Harris-Foulkes estimate   =   -2014.12154428 Ry
     estimated scf accuracy    <       0.00000096 Ry

     The total energy is the sum of the following terms:

     one-electron contribution =  -16504.68542647 Ry
     hartree contribution      =    8240.06360646 Ry
     xc contribution           =    -453.73551928 Ry
     ewald contribution        =    6704.30581552 Ry
     electric field correction =       0.00000424 Ry
     smearing contrib. (-TS)   =      -0.07003019 Ry

     convergence has been achieved in  15 iterations

 BEEF-vdW xc energy contributions
           1 :   -398.614515942421
           2 :    367.956023766277
           3 :   -313.657910025635
           4 :    247.102205390802
           5 :   -180.345930536217
           6 :    122.637901006989
           7 :   -78.5022000269738
           8 :    47.7456577595079
           9 :   -27.0795674627179
          10 :    12.3617260655042
          11 :  -0.498082263496372
          12 :   -9.68581824174464
          13 :    17.6632198596818
          14 :   -22.1674698670870
          15 :    22.2853746863914
          16 :   -18.1837044958683
          17 :    11.1958652208309
          18 :   -3.35019004280196
          19 :   -3.37556715728226
          20 :    7.69145101856463
          21 :   -9.26837490306224
          22 :    8.57793600636944
          23 :   -6.45967510743094
          24 :    3.66189279402170
          25 :  -0.589503755383816
          26 :   -2.66891099719373
          27 :    6.11581277566984
          28 :   -9.60128294302751
          29 :    12.7154819374914
          30 :   -14.8791210194759
          31 :   -36.8019387716287
          32 :   -27.3404210950140

     Forces acting on atoms (Ry/au):

     negative rho (up, down):  1.196E+00 0.000E+00
     atom    1 type  1   force =    -0.00021273   -0.00014992    0.03639504
     atom    2 type  1   force =    -0.00021273   -0.00015043    0.03639385
     atom    3 type  2   force =    -0.00036780   -0.00025997    0.00324401
     atom    4 type  2   force =    -0.00036791   -0.00025978    0.00324412
     atom    5 type  1   force =    -0.00007881   -0.00005579   -0.01524257
     atom    6 type  1   force =    -0.00007755   -0.00005413   -0.01524198
     atom    7 type  2   force =     0.00009242    0.00006102   -0.02408578
     atom    8 type  2   force =     0.00008847    0.00006658   -0.02408561
     atom    9 type  1   force =     0.00029769    0.00020995   -0.00008403
     atom   10 type  1   force =     0.00029747    0.00021020   -0.00008447
     atom   11 type  2   force =     0.00027067    0.00019061   -0.00022583
     atom   12 type  2   force =     0.00027082    0.00019166   -0.00022676

     Total force =     0.065546     Total SCF correction =     0.002777

     entering subroutine stress ...

     negative rho (up, down):  1.196E+00 0.000E+00
          total   stress  (Ry/bohr**3)                   (kbar)     P=  -33.54
  -0.00026610   0.00004562   0.00000200        -39.14      6.71      0.29
   0.00004562  -0.00029851   0.00000141          6.71    -43.91      0.21
   0.00000200   0.00000141  -0.00011946          0.29      0.21    -17.57

 !ASE

     Writing output data file calc.save

     General routines

     Parallel routines

   This run was terminated on:  23:14:42  29Dec2018

   JOB DONE.
Job  /afs/slac/g/suncat/bin/suncat-tsmpirun -x LD_LIBRARY_PATH -wdir /scratch/qe387734_vp2i8 pw.x -in pw.inp

TID   HOST_NAME   COMMAND_LINE            STATUS            TERMINATION_TIME
00000 suncat0020 pw.x -in pw.inp   Done                     12/29/2018 23:14:42
00001 suncat0020 pw.x -in pw.inp   Done                     12/29/2018 23:14:42
00002 suncat0020 pw.x -in pw.inp   Done                     12/29/2018 23:14:42
00003 suncat0020 pw.x -in pw.inp   Done                     12/29/2018 23:14:42
00004 suncat0020 pw.x -in pw.inp   Done                     12/29/2018 23:14:42
00005 suncat0020 pw.x -in pw.inp   Done                     12/29/2018 23:14:42
00006 suncat0020 pw.x -in pw.inp   Done                     12/29/2018 23:14:42
00007 suncat0020 pw.x -in pw.inp   Done                     12/29/2018 23:14:42
00008 suncat0014 pw.x -in pw.inp   Done                     12/29/2018 23:14:42
00009 suncat0014 pw.x -in pw.inp   Done                     12/29/2018 23:14:42
00010 suncat0014 pw.x -in pw.inp   Done                     12/29/2018 23:14:42
00011 suncat0014 pw.x -in pw.inp   Done                     12/29/2018 23:14:42
00012 suncat0014 pw.x -in pw.inp   Done                     12/29/2018 23:14:42
00013 suncat0014 pw.x -in pw.inp   Done                     12/29/2018 23:14:42
00014 suncat0014 pw.x -in pw.inp   Done                     12/29/2018 23:14:42
00015 suncat0014 pw.x -in pw.inp   Done                     12/29/2018 23:14:42
00016 suncat0199 pw.x -in pw.inp   Done                     12/29/2018 23:14:42
00017 suncat0199 pw.x -in pw.inp   Done                     12/29/2018 23:14:42
00018 suncat0199 pw.x -in pw.inp   Done                     12/29/2018 23:14:42
00019 suncat0199 pw.x -in pw.inp   Done                     12/29/2018 23:14:42
00020 suncat0199 pw.x -in pw.inp   Done                     12/29/2018 23:14:42
00021 suncat0199 pw.x -in pw.inp   Done                     12/29/2018 23:14:42
00022 suncat0199 pw.x -in pw.inp   Done                     12/29/2018 23:14:42
00023 suncat0199 pw.x -in pw.inp   Done                     12/29/2018 23:14:42
00024 suncat0006 pw.x -in pw.inp   Done                     12/29/2018 23:14:42
00025 suncat0006 pw.x -in pw.inp   Done                     12/29/2018 23:14:42
00026 suncat0006 pw.x -in pw.inp   Done                     12/29/2018 23:14:42
00027 suncat0006 pw.x -in pw.inp   Done                     12/29/2018 23:14:42
00028 suncat0006 pw.x -in pw.inp   Done                     12/29/2018 23:14:42
00029 suncat0006 pw.x -in pw.inp   Done                     12/29/2018 23:14:42
00030 suncat0006 pw.x -in pw.inp   Done                     12/29/2018 23:14:42
00031 suncat0006 pw.x -in pw.inp   Done                     12/29/2018 23:14:42
00032 suncat0005 pw.x -in pw.inp   Done                     12/29/2018 23:14:42
00033 suncat0005 pw.x -in pw.inp   Done                     12/29/2018 23:14:42
00034 suncat0005 pw.x -in pw.inp   Done                     12/29/2018 23:14:42
00035 suncat0005 pw.x -in pw.inp   Done                     12/29/2018 23:14:42
00036 suncat0005 pw.x -in pw.inp   Done                     12/29/2018 23:14:42
00037 suncat0005 pw.x -in pw.inp   Done                     12/29/2018 23:14:42
00038 suncat0005 pw.x -in pw.inp   Done                     12/29/2018 23:14:42
00039 suncat0005 pw.x -in pw.inp   Done                     12/29/2018 23:14:42
00040 suncat0004 pw.x -in pw.inp   Done                     12/29/2018 23:14:42
00041 suncat0004 pw.x -in pw.inp   Done                     12/29/2018 23:14:42
00042 suncat0004 pw.x -in pw.inp   Done                     12/29/2018 23:14:42
00043 suncat0004 pw.x -in pw.inp   Done                     12/29/2018 23:14:42
00044 suncat0004 pw.x -in pw.inp   Done                     12/29/2018 23:14:42
00045 suncat0004 pw.x -in pw.inp   Done                     12/29/2018 23:14:42
00046 suncat0004 pw.x -in pw.inp   Done                     12/29/2018 23:14:42
00047 suncat0004 pw.x -in pw.inp   Done                     12/29/2018 23:14:42
00048 suncat0187 pw.x -in pw.inp   Done                     12/29/2018 23:14:42
00049 suncat0187 pw.x -in pw.inp   Done                     12/29/2018 23:14:42
00050 suncat0187 pw.x -in pw.inp   Done                     12/29/2018 23:14:42
00051 suncat0187 pw.x -in pw.inp   Done                     12/29/2018 23:14:42
00052 suncat0187 pw.x -in pw.inp   Done                     12/29/2018 23:14:42
00053 suncat0187 pw.x -in pw.inp   Done                     12/29/2018 23:14:42
00054 suncat0187 pw.x -in pw.inp   Done                     12/29/2018 23:14:42
00055 suncat0187 pw.x -in pw.inp   Done                     12/29/2018 23:14:42
00056 suncat0186 pw.x -in pw.inp   Done                     12/29/2018 23:14:42
00057 suncat0186 pw.x -in pw.inp   Done                     12/29/2018 23:14:42
00058 suncat0186 pw.x -in pw.inp   Done                     12/29/2018 23:14:42
00059 suncat0186 pw.x -in pw.inp   Done                     12/29/2018 23:14:42
00060 suncat0186 pw.x -in pw.inp   Done                     12/29/2018 23:14:42
00061 suncat0186 pw.x -in pw.inp   Done                     12/29/2018 23:14:42
00062 suncat0186 pw.x -in pw.inp   Done                     12/29/2018 23:14:42
00063 suncat0186 pw.x -in pw.inp   Done                     12/29/2018 23:14:42