     Program PWSCF v.5.1rc2 (svn rev. 11289) starts on 31Dec2018 at 22:11:51

     Current dimensions of program PWSCF are:
     Max number of different atomic species (ntypx) = 10
     Max number of k-points (npk) =  40000
     Max angular momentum in pseudopotentials (lmaxx) =  3
     Presently stress not available with electric field

     IMPORTANT: XC functional enforced from input :
     Exchange-correlation      = BEEF-VDW ( 1  4 27 13 2)
     Any further DFT definition will be discarded
     Please, verify this is what you really want

     Subspace diagonalization in iterative solution of the eigenvalue problem:
     a serial algorithm will be used

     bravais-lattice index     =            0
     lattice parameter (alat)  =       1.8897  a.u.
     unit-cell volume          =    4264.4369 (a.u.)^3
     number of atoms/cell      =           12
     number of atomic types    =            2
     number of electrons       =       192.00
     number of Kohn-Sham states=          126
     kinetic-energy cutoff     =      36.7493  Ry
     charge density cutoff     =     367.4932  Ry
     convergence threshold     =      1.0E-06
     mixing beta               =       0.1000
     number of iterations used =           10  plain     mixing
     Exchange-correlation      = BEEF-VDW ( 1  4 27 13 2)
     nstep                     =           50

     celldm(1)=   1.889726  celldm(2)=   0.000000  celldm(3)=   0.000000
     celldm(4)=   0.000000  celldm(5)=   0.000000  celldm(6)=   0.000000

     crystal axes: (cart. coord. in units of alat)
               a(1) = (   5.461884   0.000000   0.000000 )
               a(2) = (  -2.730942   4.730130   0.000000 )
               a(3) = (   0.000000   0.000000  24.459610 )

     reciprocal axes: (cart. coord. in units 2 pi/alat)
               b(1) = (  0.183087  0.105705  0.000000 )
               b(2) = (  0.000000  0.211411  0.000000 )
               b(3) = (  0.000000  0.000000  0.040884 )

     PseudoPot. # 1 for Rh read from file:
     /afs/slac.stanford.edu/u/if/mamunm/psp/gbrv1.5pbe/Rh.UPF
     MD5 check sum: 761627e959a2e3a1f56b0b5fe687810e
     Pseudo is Ultrasoft + core correction, Zval = 15.0
     Generated by new atomic code, or converted to UPF format
     Using radial grid of  969 points,  7 beta functions with:
                l(1) =   0
                l(2) =   0
                l(3) =   1
                l(4) =   1
                l(5) =   2
                l(6) =   2
                l(7) =   2
     Q(r) pseudized with  8 coefficients,  rinner =    1.200   1.200   1.200
                                                       1.200   1.200

     PseudoPot. # 2 for Ga read from file:
     /afs/slac.stanford.edu/u/if/mamunm/psp/gbrv1.5pbe/Ga.UPF
     MD5 check sum: ccd671392a58a050fbb373893b4fcd66
     Pseudo is Ultrasoft + core correction, Zval = 19.0
     Generated by new atomic code, or converted to UPF format
     Using radial grid of  871 points,  6 beta functions with:
                l(1) =   0
                l(2) =   0
                l(3) =   1
                l(4) =   1
                l(5) =   2
                l(6) =   2
     Q(r) pseudized with  8 coefficients,  rinner =    1.250   1.250   1.250
                                                       1.250   1.250

     vdW kernel table read from file vdW_kernel_table
     MD5 check sum: 095c7af220d748ca6e76c0b4c6cfb241

     atomic species   valence    mass     pseudopotential
        Rh1           15.00   102.90550     Rh( 1.00)
        Ga1           19.00    69.72300     Ga( 1.00)

     No symmetry found

   Cartesian axes

     site n.     atom                  positions (alat units)
         1           Rh1 tau(   1) = (   0.0000000   0.0000000  10.0000000  )
         2           Rh1 tau(   2) = (  -1.3654710   2.3650651  10.0000000  )
         3           Rh1 tau(   3) = (   1.3654710   2.3650651  10.0000000  )
         4           Ga1 tau(   4) = (   2.7309420   0.0000000  10.0000000  )
         5           Rh1 tau(   5) = (   2.7309420   1.5767101  12.2298048  )
         6           Rh1 tau(   6) = (   1.3654710   3.9417752  12.2298048  )
         7           Rh1 tau(   7) = (  -1.3654710   3.9417752  12.2298048  )
         8           Ga1 tau(   8) = (   0.0000000   1.5767101  12.2298048  )
         9           Rh1 tau(   9) = (  -0.0000000   3.1534202  14.4596096  )
        10           Rh1 tau(  10) = (   1.3654710   0.7883550  14.4596096  )
        11           Rh1 tau(  11) = (   4.0964130   0.7883550  14.4596096  )
        12           Ga1 tau(  12) = (   2.7309420   3.1534202  14.4596096  )

     number of k points=    20  Fermi-Dirac smearing, width (Ry)=  0.0110
                       cart. coord. in units 2pi/alat
        k(    1) = (   0.0000000   0.0000000   0.0000000), wk =   0.0555556
        k(    2) = (   0.0000000   0.0352351   0.0000000), wk =   0.1111111
        k(    3) = (   0.0000000   0.0704702   0.0000000), wk =   0.1111111
        k(    4) = (   0.0000000  -0.1057053   0.0000000), wk =   0.0555556
        k(    5) = (   0.0305145   0.0176176   0.0000000), wk =   0.1111111
        k(    6) = (   0.0305145   0.0528527   0.0000000), wk =   0.1111111
        k(    7) = (   0.0305145   0.0880878   0.0000000), wk =   0.1111111
        k(    8) = (   0.0305145  -0.0880878   0.0000000), wk =   0.1111111
        k(    9) = (   0.0305145  -0.0528527   0.0000000), wk =   0.1111111
        k(   10) = (   0.0305145  -0.0176176   0.0000000), wk =   0.1111111
        k(   11) = (   0.0610290   0.0352351   0.0000000), wk =   0.1111111
        k(   12) = (   0.0610290   0.0704702   0.0000000), wk =   0.1111111
        k(   13) = (   0.0610290   0.1057053   0.0000000), wk =   0.1111111
        k(   14) = (   0.0610290  -0.0704702   0.0000000), wk =   0.1111111
        k(   15) = (   0.0610290  -0.0352351   0.0000000), wk =   0.1111111
        k(   16) = (   0.0610290   0.0000000   0.0000000), wk =   0.1111111
        k(   17) = (  -0.0915435  -0.0528527   0.0000000), wk =   0.0555556
        k(   18) = (  -0.0915435  -0.0176176   0.0000000), wk =   0.1111111
        k(   19) = (  -0.0915435   0.0176176   0.0000000), wk =   0.1111111
        k(   20) = (  -0.0915435  -0.1585580   0.0000000), wk =   0.0555556

     Largest allocated arrays     est. size (Mb)     dimensions
     Largest temporary arrays     est. size (Mb)     dimensions

     Initial potential from superposition of free atoms
     Check: negative starting charge=   -0.492469

     starting charge  184.49911, renormalised to  192.00000

     negative rho (up, down):  5.125E-01 0.000E+00

     *
     * You are using vdW-DF for exchange-correlation in this calculation.
     * Please cite the following three references that made this development
     * possible:
     *
     *   M. Dion, H. Rydberg, E. Schroder, D. C. Langreth, and
     *   B. I. Lundqvist, Phys. Rev. Lett. 92, 246401 (2004).
     *
     *   T. Thonhauser, V. R. Cooper, S. Li, A. Puzder, P. Hyldgaard, and
     *   D. C. Langreth, Phys. Rev. B 76, 125112 (2007).
     *
     *   G. Roman-Perez and J. M. Soler, Phys. Rev. Lett. 103, 096102 (2009).
     *
     *
     * If you are using vdW-DF2, please also cite:
     *
     *   K. Lee, E. D. Murray, L. Kong, B. I. Lundqvist, and
     *   D. C. Langreth, Phys. Rev. B 82, 081101(R) (2010).
     *
     *
     * If you are calculating the stress with vdW-DF, please also cite:
     *
     *   R. Sabatini, E. Kucukbenli, B. Kolb, T. Thonhauser, and
     *   S. de Gironcoli, J. Phys.: Condens. Matter 24, 424209 (2012).
     *

     Carrying out vdW-DF run using the following parameters:

     Nqs =      20    Nr_points =    1024   r_max =   100.000
     q_mesh =
               0.00001000     0.04494208     0.09755937     0.15916263
               0.23128650     0.31572767     0.41458969     0.53033537
               0.66584808     0.82450364     1.01025438     1.22772762
               1.48234092     1.78043706     2.12944203     2.53805004
               3.01644009     3.57652955     4.23227104     5.00000000

     Gradients computed in reciprocal space

     Adding external electric field

     Computed dipole along edir(3) :
        Dipole               -0.0000 Ry au,         -0.0000 Debye
        Dipole field         -0.0000 Ry au

        Potential amp.        0.0000 Ry
        Total length         45.0664 bohr

     Starting wfc are  144 randomized atomic wfcs

     Self-consistent Calculation

     iteration #  1     ecut=    36.75 Ry     beta=0.10
     Davidson diagonalization with overlap
     ethr =  1.00E-02,  avg # of iterations =  7.2

[...]

     total energy              =   -2800.91371568 Ry
     Harris-Foulkes estimate   =   -2804.13513599 Ry
     estimated scf accuracy    <      18.63149892 Ry

[...]

     iteration #  9     ecut=    36.75 Ry     beta=0.10
     Davidson diagonalization with overlap
     c_bands:  1 eigenvalues not converged
     c_bands:  1 eigenvalues not converged
     ethr =  8.65E-06,  avg # of iterations =  4.5

[...]

     End of self-consistent calculation

          k = 0.0000 0.0000 0.0000 ( 15989 PWs)   bands (ev):

   -93.1098 -93.1098 -93.0991 -92.8661 -92.8660 -92.8206 -92.8206 -92.8205
   -92.8205 -45.2272 -45.1471 -45.1471 -45.0868 -45.0412 -45.0412 -44.9417
   -44.9355 -44.9172 -44.7793 -44.7793 -44.7548 -44.7548 -44.7200 -44.7200
   -44.5959 -44.5538 -44.5538 -44.5482 -44.5310 -44.5304 -44.5304 -44.5244
   -44.4959 -44.4959 -44.4913 -44.4913 -13.5006 -13.5006 -13.4864 -13.4704
   -13.4704 -13.2263 -13.2170 -13.2002 -13.2002 -13.1897 -13.1897 -13.1844
   -13.1844 -13.1839 -13.1839  -7.3032  -5.7975  -5.7933  -3.8316  -3.2548
    -3.1992  -2.7040  -2.7039  -2.6672  -2.5039  -2.5039  -2.4333  -2.4333
    -2.1301  -2.0573  -2.0573  -1.3890  -1.3890  -1.1739  -1.1739  -0.9357
    -0.9044  -0.7110  -0.3757  -0.3757  -0.3399  -0.1413  -0.1413   0.2628
     0.2628   0.6182   0.6182   0.6414   0.6970   0.7294   0.7294   1.0448
     1.0448   1.1865   1.1865   1.2076   1.2986   1.2986   1.5287   1.5287
     1.8176   1.9042   1.9042   2.2376   2.5464   2.5928   2.6949   3.1626
     3.4747   3.5026   3.5026   3.5351   3.5351   4.6637   5.0715   5.7365
     6.0917   6.3292   6.6324   7.3611   8.2283   8.2766   8.2766   8.3966
     8.3966   9.1176   9.1176   9.3878   9.6448   9.8738

[...]

          k =-0.0915-0.0529 0.0000 ( 16072 PWs)   bands (ev):

[...]

     the Fermi energy is     1.3850 ev

!    total energy              =   -2799.79445762 Ry
     Harris-Foulkes estimate   =   -2799.79445184 Ry
     estimated scf accuracy    <       0.00000041 Ry

     The total energy is the sum of the following terms:

     one-electron contribution =  -22208.02269384 Ry
     hartree contribution      =   11139.24424709 Ry
     xc contribution           =    -428.81689142 Ry
     ewald contribution        =    8697.89008130 Ry
     electric field correction =       0.00000000 Ry
     smearing contrib. (-TS)   =      -0.08920074 Ry

     convergence has been achieved in  16 iterations

 BEEF-vdW xc energy contributions
           1 :   -377.045548806911
           2 :    345.056749737644
           3 :   -290.349045652039
           4 :    227.377912385350
[...]
     Pseudo is Ultrasoft + core correction, Zval = 15.0
     Generated by new atomic code, or converted to UPF format
     Using radial grid of  969 points,  7 beta functions with:
                l(1) =   0
                l(2) =   0
                l(3) =   1
                l(4) =   1
                l(5) =   2
                l(6) =   2
                l(7) =   2
     Q(r) pseudized with  8 coefficients,  rinner =    1.200   1.200   1.200
                                                       1.200   1.200

     PseudoPot. # 2 for Ga read from file:
     /afs/slac.stanford.edu/u/if/mamunm/psp/gbrv1.5pbe/Ga.UPF
     MD5 check sum: ccd671392a58a050fbb373893b4fcd66
     Pseudo is Ultrasoft + core correction, Zval = 19.0
     Generated by new atomic code, or converted to UPF format
     Using radial grid of  871 points,  6 beta functions with:
                l(1) =   0
                l(2) =   0
                l(3) =   1
                l(4) =   1
                l(5) =   2
                l(6) =   2
     Q(r) pseudized with  8 coefficients,  rinner =    1.250   1.250   1.250
                                                       1.250   1.250

     vdW kernel table read from file vdW_kernel_table
     MD5 check sum: 095c7af220d748ca6e76c0b4c6cfb241

     atomic species   valence    mass     pseudopotential
        Rh1           15.00   102.90550     Rh( 1.00)
        Ga1           19.00    69.72300     Ga( 1.00)

     No symmetry found

   Cartesian axes

     site n.     atom                  positions (alat units)
         1           Rh1 tau(   1) = (   0.0000000   0.0000000  10.0000000  )
         2           Rh1 tau(   2) = (  -1.3654710   2.3650651  10.0000000  )
         3           Rh1 tau(   3) = (   1.3654710   2.3650651  10.0000000  )
         4           Ga1 tau(   4) = (   2.7309420   0.0000000  10.0000000  )
         5           Rh1 tau(   5) = (   2.7309420   1.5767101  12.2298048  )
         6           Rh1 tau(   6) = (   1.3654710   3.9417752  12.2298048  )
         7           Rh1 tau(   7) = (  -1.3654710   3.9417752  12.2298048  )
         8           Ga1 tau(   8) = (   0.0000000   1.5767101  12.2298048  )
         9           Rh1 tau(   9) = (  -0.0000014   3.1396609  14.3867049  )
        10           Rh1 tau(  10) = (   1.3535570   0.7952287  14.3867050  )
        11           Rh1 tau(  11) = (   4.1083171   0.7952252  14.3867153  )
        12           Ga1 tau(  12) = (   2.7309412   3.1534915  14.4908848  )

     number of k points=    20  Fermi-Dirac smearing, width (Ry)=  0.0110
                       cart. coord. in units 2pi/alat
        k(    1) = (   0.0000000   0.0000000   0.0000000), wk =   0.0555556
        k(    2) = (   0.0000000   0.0352351   0.0000000), wk =   0.1111111
        k(    3) = (   0.0000000   0.0704702   0.0000000), wk =   0.1111111
        k(    4) = (   0.0000000  -0.1057053   0.0000000), wk =   0.0555556
        k(    5) = (   0.0305145   0.0176176   0.0000000), wk =   0.1111111
        k(    6) = (   0.0305145   0.0528527   0.0000000), wk =   0.1111111
        k(    7) = (   0.0305145   0.0880878   0.0000000), wk =   0.1111111
        k(    8) = (   0.0305145  -0.0880878   0.0000000), wk =   0.1111111
        k(    9) = (   0.0305145  -0.0528527   0.0000000), wk =   0.1111111
        k(   10) = (   0.0305145  -0.0176176   0.0000000), wk =   0.1111111
        k(   11) = (   0.0610290   0.0352351   0.0000000), wk =   0.1111111
        k(   12) = (   0.0610290   0.0704702   0.0000000), wk =   0.1111111
        k(   13) = (   0.0610290   0.1057053   0.0000000), wk =   0.1111111
        k(   14) = (   0.0610290  -0.0704702   0.0000000), wk =   0.1111111
        k(   15) = (   0.0610290  -0.0352351   0.0000000), wk =   0.1111111
        k(   16) = (   0.0610290   0.0000000   0.0000000), wk =   0.1111111
        k(   17) = (  -0.0915435  -0.0528527   0.0000000), wk =   0.0555556
        k(   18) = (  -0.0915435  -0.0176176   0.0000000), wk =   0.1111111
        k(   19) = (  -0.0915435   0.0176176   0.0000000), wk =   0.1111111
        k(   20) = (  -0.0915435  -0.1585580   0.0000000), wk =   0.0555556

     Largest allocated arrays     est. size (Mb)     dimensions
     Largest temporary arrays     est. size (Mb)     dimensions

     Initial potential from superposition of free atoms
     Check: negative starting charge=   -0.491571

     starting charge  184.49911, renormalised to  192.00000

[...]

     *
     * You are using vdW-DF for exchange-correlation in this calculation.
     * Please cite the following three references that made this development
     * possible:
     *
     *   M. Dion, H. Rydberg, E. Schroder, D. C. Langreth, and
     *   B. I. Lundqvist, Phys. Rev. Lett. 92, 246401 (2004).
     *
     *   T. Thonhauser, V. R. Cooper, S. Li, A. Puzder, P. Hyldgaard, and
     *   D. C. Langreth, Phys. Rev. B 76, 125112 (2007).
     *
     *   G. Roman-Perez and J. M. Soler, Phys. Rev. Lett. 103, 096102 (2009).
     *
     *
     * If you are using vdW-DF2, please also cite:
     *
     *   K. Lee, E. D. Murray, L. Kong, B. I. Lundqvist, and
     *   D. C. Langreth, Phys. Rev. B 82, 081101(R) (2010).
     *
     *
     * If you are calculating the stress with vdW-DF, please also cite:
     *
     *   R. Sabatini, E. Kucukbenli, B. Kolb, T. Thonhauser, and
     *   S. de Gironcoli, J. Phys.: Condens. Matter 24, 424209 (2012).
     *

     Carrying out vdW-DF run using the following parameters:

     Nqs =      20    Nr_points =    1024   r_max =   100.000
     q_mesh =
               0.00001000     0.04494208     0.09755937     0.15916263
               0.23128650     0.31572767     0.41458969     0.53033537
               0.66584808     0.82450364     1.01025438     1.22772762
               1.48234092     1.78043706     2.12944203     2.53805004
               3.01644009     3.57652955     4.23227104     5.00000000

     Gradients computed in reciprocal space

[...]

     Starting wfc are  144 randomized atomic wfcs

     Self-consistent Calculation

[...]

     total energy              =   -2799.79840799 Ry
     Harris-Foulkes estimate   =   -2799.79840710 Ry
     estimated scf accuracy    <       0.00000125 Ry

     iteration # 18     ecut=    36.75 Ry     beta=0.10
     Davidson diagonalization with overlap
     ethr =  6.49E-10,  avg # of iterations =  1.0

[...]

     negative rho (up, down):  5.092E-01 0.000E+00

     Adding external electric field

     Computed dipole along edir(3) :
        Dipole                0.0076 Ry au,          0.0194 Debye
        Dipole field          0.0000 Ry au

        Potential amp.       -0.0020 Ry
        Total length         45.0664 bohr

     End of self-consistent calculation

[...]

          k = 0.0610 0.0000 0.0000 ( 16034 PWs)   bands (ev):

[...]

          k =-0.0915-0.1586 0.0000 ( 16072 PWs)   bands (ev):

   -93.0810 -93.0809 -93.0670 -92.8609 -92.8522 -92.8110 -92.8110 -92.8067
   -92.8066 -45.1929 -45.1188 -45.1082 -45.0784 -45.0672 -45.0241 -45.0151
   -44.9396 -44.8577 -44.8105 -44.8005 -44.7227 -44.6786 -44.6725 -44.6675
   -44.6440 -44.6398 -44.6170 -44.6033 -44.5992 -44.5830 -44.5764 -44.5345
   -44.5296 -44.5163 -44.5148 -44.4815 -13.4708 -13.4592 -13.4513 -13.4436
   -13.4419 -13.2066 -13.2000 -13.1859 -13.1811 -13.1765 -13.1746 -13.1641
   -13.1610 -13.1548 -13.1519  -6.1553  -5.5927  -5.0100  -3.6775  -3.2407
    -3.1650  -2.8974  -2.7155  -2.3325  -2.2614  -2.2294  -2.1591  -2.0811
    -1.9810  -1.9425  -1.8408  -1.6497  -1.5915  -1.3981  -1.3611  -1.1215
    -0.9692  -0.7824  -0.7526  -0.6905  -0.5847  -0.4746  -0.4644  -0.4496
    -0.2933  -0.2722  -0.2096  -0.2077   0.1467   0.1909   0.3586   0.3742
     0.3860   0.4489   0.7028   0.7136   0.8077   0.8568   0.8839   0.9186
     1.2766   1.4861   1.6687   1.8622   2.3036   2.5469   2.5853   3.5937
     3.8521   4.1804   4.4403   5.0429   5.3105   5.5639   6.8303   6.8857
     7.4044   7.5872   7.6195   7.8879   8.0153   8.0909   8.6384   8.6522
     8.8271   8.9550   9.0836   9.2226   9.5168   9.7187

     the Fermi energy is     1.3993 ev

!    total energy              =   -2799.79841163 Ry
     Harris-Foulkes estimate   =   -2799.79840804 Ry
     estimated scf accuracy    <       0.00000013 Ry

     The total energy is the sum of the following terms:

     one-electron contribution =  -22335.77901245 Ry
     hartree contribution      =   11203.10528960 Ry
     xc contribution           =    -428.88861784 Ry
     ewald contribution        =    8761.85003136 Ry
     electric field correction =       0.00000017 Ry
     smearing contrib. (-TS)   =      -0.08610247 Ry

     convergence has been achieved in  18 iterations

 BEEF-vdW xc energy contributions
           1 :   -377.123333698779
           2 :    345.176736744344
           3 :   -290.520819198698
           4 :    227.567747047817
           5 :   -170.146319461212
           6 :    126.834155673952
           7 :   -99.2232173708373
           8 :    83.3622859797770
           9 :   -73.1164225836432
          10 :    63.4959784627585
          11 :   -52.4246147567906
          12 :    40.5344762967848
          13 :   -29.6871761625992
          14 :    21.3915737784215
          15 :   -15.9980693589669
          16 :    12.8348510232398
          17 :   -10.8576246729863
          18 :    9.23408980861001
          19 :   -7.55359773119238
          20 :    5.71991288739287
          21 :   -3.77361084346518
          22 :    1.82658088937956
          23 :  -9.723820331066690E-002
          24 :   -1.10334053346605
          25 :    1.53254881408839
          26 :   -1.24203674186811
          27 :   0.660399972191158
          28 :  -0.399797661706543
          29 :   0.873539944849654
          30 :   -1.99192133494023
          31 :   -33.8461868633545
          32 :   -24.7405903469201

     Forces acting on atoms (Ry/au):

     negative rho (up, down):  5.092E-01 0.000E+00
     atom    1 type  1   force =    -0.00000032    0.00656421    0.01570926
     atom    2 type  1   force =     0.00568241   -0.00328190    0.01570831
     atom    3 type  1   force =    -0.00568401   -0.00328216    0.01570821
     atom    4 type  2   force =    -0.00002139    0.00000338   -0.00478130
     atom    5 type  1   force =    -0.00000106    0.00559710   -0.01032427
     atom    6 type  1   force =     0.00484570   -0.00279891   -0.01032692
     atom    7 type  1   force =    -0.00484776   -0.00279908   -0.01032748
     atom    8 type  2   force =     0.00002169   -0.00000032   -0.01282822
     atom    9 type  1   force =    -0.00000244    0.00030320    0.00036709
     atom   10 type  1   force =     0.00026383   -0.00014589    0.00036696
     atom   11 type  1   force =    -0.00026823   -0.00014564    0.00036530
     atom   12 type  2   force =     0.00001158   -0.00001400    0.00036306

     Total force =     0.038362     Total SCF correction =     0.001393

     entering subroutine stress ...

     negative rho (up, down):  5.092E-01 0.000E+00
          total   stress  (Ry/bohr**3)                   (kbar)     P=  -31.28
  -0.00023773  -0.00000000   0.00000000        -34.97     -0.00      0.00
  -0.00000000  -0.00023774  -0.00000000         -0.00    -34.97     -0.00
   0.00000000  -0.00000000  -0.00016253          0.00     -0.00    -23.91

 !ASE

     Writing output data file calc.save

     General routines

     Parallel routines

   This run was terminated on:  23:14:14  31Dec2018

   JOB DONE.
Job  /afs/slac/g/suncat/bin/suncat-tsmpirun -x LD_LIBRARY_PATH -wdir /scratch/qe648874_P5tde pw.x -in pw.inp

TID   HOST_NAME   COMMAND_LINE            STATUS            TERMINATION_TIME
00000 suncat0046 pw.x -in pw.inp   Done                     12/31/2018 23:14:14
00001 suncat0046 pw.x -in pw.inp   Done                     12/31/2018 23:14:14
00002 suncat0046 pw.x -in pw.inp   Done                     12/31/2018 23:14:14
00003 suncat0046 pw.x -in pw.inp   Done                     12/31/2018 23:14:14
00004 suncat0046 pw.x -in pw.inp   Done                     12/31/2018 23:14:14
00005 suncat0046 pw.x -in pw.inp   Done                     12/31/2018 23:14:14
00006 suncat0046 pw.x -in pw.inp   Done                     12/31/2018 23:14:14
00007 suncat0046 pw.x -in pw.inp   Done                     12/31/2018 23:14:14
00008 suncat0044 pw.x -in pw.inp   Done                     12/31/2018 23:14:14
00009 suncat0044 pw.x -in pw.inp   Done                     12/31/2018 23:14:14
00010 suncat0044 pw.x -in pw.inp   Done                     12/31/2018 23:14:14
00011 suncat0044 pw.x -in pw.inp   Done                     12/31/2018 23:14:14
00012 suncat0044 pw.x -in pw.inp   Done                     12/31/2018 23:14:14
00013 suncat0044 pw.x -in pw.inp   Done                     12/31/2018 23:14:14
00014 suncat0044 pw.x -in pw.inp   Done                     12/31/2018 23:14:14
00015 suncat0044 pw.x -in pw.inp   Done                     12/31/2018 23:14:14
00016 suncat0043 pw.x -in pw.inp   Done                     12/31/2018 23:14:14
00017 suncat0043 pw.x -in pw.inp   Done                     12/31/2018 23:14:14
00018 suncat0043 pw.x -in pw.inp   Done                     12/31/2018 23:14:14
00019 suncat0043 pw.x -in pw.inp   Done                     12/31/2018 23:14:14
00020 suncat0043 pw.x -in pw.inp   Done                     12/31/2018 23:14:14
00021 suncat0043 pw.x -in pw.inp   Done                     12/31/2018 23:14:14
00022 suncat0043 pw.x -in pw.inp   Done                     12/31/2018 23:14:14
00023 suncat0043 pw.x -in pw.inp   Done                     12/31/2018 23:14:14
00024 suncat0025 pw.x -in pw.inp   Done                     12/31/2018 23:14:14
00025 suncat0025 pw.x -in pw.inp   Done                     12/31/2018 23:14:14
00026 suncat0025 pw.x -in pw.inp   Done                     12/31/2018 23:14:14
00027 suncat0025 pw.x -in pw.inp   Done                     12/31/2018 23:14:14
00028 suncat0025 pw.x -in pw.inp   Done                     12/31/2018 23:14:14
00029 suncat0025 pw.x -in pw.inp   Done                     12/31/2018 23:14:14
00030 suncat0025 pw.x -in pw.inp   Done                     12/31/2018 23:14:14
00031 suncat0025 pw.x -in pw.inp   Done                     12/31/2018 23:14:14
00032 suncat0013 pw.x -in pw.inp   Done                     12/31/2018 23:14:14
00033 suncat0013 pw.x -in pw.inp   Done                     12/31/2018 23:14:14
00034 suncat0013 pw.x -in pw.inp   Done                     12/31/2018 23:14:14
00035 suncat0013 pw.x -in pw.inp   Done                     12/31/2018 23:14:14
00036 suncat0013 pw.x -in pw.inp   Done                     12/31/2018 23:14:14
00037 suncat0013 pw.x -in pw.inp   Done                     12/31/2018 23:14:14
00038 suncat0013 pw.x -in pw.inp   Done                     12/31/2018 23:14:14
00039 suncat0013 pw.x -in pw.inp   Done                     12/31/2018 23:14:14
00040 suncat0008 pw.x -in pw.inp   Done                     12/31/2018 23:14:14
00041 suncat0008 pw.x -in pw.inp   Done                     12/31/2018 23:14:14
00042 suncat0008 pw.x -in pw.inp   Done                     12/31/2018 23:14:14
00043 suncat0008 pw.x -in pw.inp   Done                     12/31/2018 23:14:14
00044 suncat0008 pw.x -in pw.inp   Done                     12/31/2018 23:14:14
00045 suncat0008 pw.x -in pw.inp   Done                     12/31/2018 23:14:14
00046 suncat0008 pw.x -in pw.inp   Done                     12/31/2018 23:14:14
00047 suncat0008 pw.x -in pw.inp   Done                     12/31/2018 23:14:14
00048 suncat0178 pw.x -in pw.inp   Done                     12/31/2018 23:14:14
00049 suncat0178 pw.x -in pw.inp   Done                     12/31/2018 23:14:14
00050 suncat0178 pw.x -in pw.inp   Done                     12/31/2018 23:14:14
00051 suncat0178 pw.x -in pw.inp   Done                     12/31/2018 23:14:14
00052 suncat0178 pw.x -in pw.inp   Done                     12/31/2018 23:14:14
00053 suncat0178 pw.x -in pw.inp   Done                     12/31/2018 23:14:14
00054 suncat0178 pw.x -in pw.inp   Done                     12/31/2018 23:14:14
00055 suncat0178 pw.x -in pw.inp   Done                     12/31/2018 23:14:14
00056 suncat0177 pw.x -in pw.inp   Done                     12/31/2018 23:14:14
00057 suncat0177 pw.x -in pw.inp   Done                     12/31/2018 23:14:14
00058 suncat0177 pw.x -in pw.inp   Done                     12/31/2018 23:14:14
00059 suncat0177 pw.x -in pw.inp   Done                     12/31/2018 23:14:14
00060 suncat0177 pw.x -in pw.inp   Done                     12/31/2018 23:14:14
00061 suncat0177 pw.x -in pw.inp   Done                     12/31/2018 23:14:14
00062 suncat0177 pw.x -in pw.inp   Done                     12/31/2018 23:14:14
00063 suncat0177 pw.x -in pw.inp   Done                     12/31/2018 23:14:14