     Program PWSCF v.5.1rc2 (svn rev. 11289) starts on 27Dec2018 at 18:50:29

     Current dimensions of program PWSCF are:
     Max number of different atomic species (ntypx) = 10
     Max number of k-points (npk) =  40000
     Max angular momentum in pseudopotentials (lmaxx) =  3
     Presently stress not available with electric field

     IMPORTANT: XC functional enforced from input :
     Exchange-correlation      = BEEF-VDW ( 1  4 27 13 2)
     Any further DFT definition will be discarded
     Please, verify this is what you really want

     Subspace diagonalization in iterative solution of the eigenvalue problem:
     a serial algorithm will be used

     bravais-lattice index     =            0
     lattice parameter (alat)  =       1.8897  a.u.
     unit-cell volume          =    4663.7786 (a.u.)^3
     number of atoms/cell      =           12
     number of atomic types    =            2
     number of electrons       =       177.00
     number of Kohn-Sham states=          118
     kinetic-energy cutoff     =      36.7493  Ry
     charge density cutoff     =     367.4932  Ry
     convergence threshold     =      1.0E-06
     mixing beta               =       0.1000
     number of iterations used =           10  plain     mixing
     Exchange-correlation      = BEEF-VDW ( 1  4 27 13 2)
     nstep                     =           50

     celldm(1)=   1.889726  celldm(2)=   0.000000  celldm(3)=   0.000000
     celldm(4)=   0.000000  celldm(5)=   0.000000  celldm(6)=   0.000000

     crystal axes: (cart. coord. in units of alat)
               a(1) = (   5.690252   0.000000   0.000000 )
               a(2) = (  -2.845126   4.927903   0.000000 )
               a(3) = (   0.000000   0.000000  24.646071 )

     reciprocal axes: (cart. coord. in units 2 pi/alat)
               b(1) = (  0.175739  0.101463  0.000000 )
               b(2) = (  0.000000  0.202926  0.000000 )
               b(3) = (  0.000000  0.000000  0.040574 )

     PseudoPot. # 1 for Pt read from file:
     /afs/slac.stanford.edu/u/if/mamunm/psp/gbrv1.5pbe/Pt.UPF
     MD5 check sum: f09d6de1a584b5a045c4fc126da2d0c4
     Pseudo is Ultrasoft + core correction, Zval = 16.0
     Generated by new atomic code, or converted to UPF format
     Using radial grid of  985 points,  6 beta functions with:
                l(1) =   0
                l(2) =   0
                l(3) =   1
                l(4) =   1
                l(5) =   2
                l(6) =   2
     Q(r) pseudized with  8 coefficients,  rinner =    1.300   1.300   1.300
                                                       1.300   1.300

     PseudoPot. # 2 for Sc read from file:
     /afs/slac.stanford.edu/u/if/mamunm/psp/gbrv1.5pbe/Sc.UPF
     MD5 check sum: db30a2753ba66ef00f23801d899b7e7f
     Pseudo is Ultrasoft + core correction, Zval = 11.0
     Generated by new atomic code, or converted to UPF format
     Using radial grid of  849 points,  6 beta functions with:
                l(1) =   0
                l(2) =   0
                l(3) =   1
                l(4) =   1
                l(5) =   2
                l(6) =   2
     Q(r) pseudized with  6 coefficients,  rinner =    1.200   1.200   1.200
                                                       1.200   1.200

     vdW kernel table read from file vdW_kernel_table
     MD5 check sum: 095c7af220d748ca6e76c0b4c6cfb241

     atomic species   valence    mass     pseudopotential
        Pt1           16.00   195.08400     Pt( 1.00)
        Sc1           11.00    44.95591     Sc( 1.00)

     No symmetry found

   Cartesian axes

     site n.     atom                  positions (alat units)
         1           Pt1 tau(   1) = (   0.0000000   0.0000000  10.0000000  )
         2           Pt1 tau(   2) = (  -1.4225630   2.4639514  10.0000000  )
         3           Pt1 tau(   3) = (   1.4225630   2.4639514  10.0000000  )
         4           Sc1 tau(   4) = (   2.8451260   0.0000000  10.0000000  )
         5           Pt1 tau(   5) = (   2.8451260   1.6426343  12.3230356  )
         6           Pt1 tau(   6) = (   1.4225630   4.1065856  12.3230356  )
         7           Pt1 tau(   7) = (  -1.4225630   4.1065856  12.3230356  )
         8           Sc1 tau(   8) = (  -0.0000000   1.6426343  12.3230356  )
         9           Pt1 tau(   9) = (  -0.0000000   3.2852685  14.6460713  )
        10           Pt1 tau(  10) = (   1.4225630   0.8213171  14.6460713  )
        11           Pt1 tau(  11) = (   4.2676890   0.8213171  14.6460713  )
        12           Sc1 tau(  12) = (   2.8451260   3.2852685  14.6460713  )

     number of k points=    20  Fermi-Dirac smearing, width (Ry)=  0.0110
                       cart. coord. in units 2pi/alat
        k(    1) = (   0.0000000   0.0000000   0.0000000), wk =   0.0555556
        k(    2) = (   0.0000000   0.0338210   0.0000000), wk =   0.1111111
        k(    3) = (   0.0000000   0.0676420   0.0000000), wk =   0.1111111
        k(    4) = (   0.0000000  -0.1014630   0.0000000), wk =   0.0555556
        k(    5) = (   0.0292899   0.0169105   0.0000000), wk =   0.1111111
        k(    6) = (   0.0292899   0.0507315   0.0000000), wk =   0.1111111
        k(    7) = (   0.0292899   0.0845525   0.0000000), wk =   0.1111111
        k(    8) = (   0.0292899  -0.0845525   0.0000000), wk =   0.1111111
        k(    9) = (   0.0292899  -0.0507315   0.0000000), wk =   0.1111111
        k(   10) = (   0.0292899  -0.0169105   0.0000000), wk =   0.1111111
        k(   11) = (   0.0585797   0.0338210   0.0000000), wk =   0.1111111
        k(   12) = (   0.0585797   0.0676420   0.0000000), wk =   0.1111111
        k(   13) = (   0.0585797   0.1014630   0.0000000), wk =   0.1111111
        k(   14) = (   0.0585797  -0.0676420   0.0000000), wk =   0.1111111
        k(   15) = (   0.0585797  -0.0338210   0.0000000), wk =   0.1111111
        k(   16) = (   0.0585797   0.0000000   0.0000000), wk =   0.1111111
        k(   17) = (  -0.0878696  -0.0507315   0.0000000), wk =   0.0555556
        k(   18) = (  -0.0878696  -0.0169105   0.0000000), wk =   0.1111111
        k(   19) = (  -0.0878696   0.0169105   0.0000000), wk =   0.1111111
        k(   20) = (  -0.0878696  -0.1521946   0.0000000), wk =   0.0555556

     Largest allocated arrays     est. size (Mb)     dimensions
     Largest temporary arrays     est. size (Mb)     dimensions

     Check: negative/imaginary core charge=   -0.000001    0.000000

     Initial potential from superposition of free atoms
     Check: negative starting charge=   -1.632999

     starting charge  172.49269, renormalised to  177.00000

     negative rho (up, down):  1.676E+00 0.000E+00

     *
     * You are using vdW-DF for exchange-correlation in this calculation.
     * Please cite the following three references that made this development
     * possible:
     *
     *   M. Dion, H. Rydberg, E. Schroder, D. C. Langreth, and
     *   B. I. Lundqvist, Phys. Rev. Lett. 92, 246401 (2004).
     *
     *   T. Thonhauser, V. R. Cooper, S. Li, A. Puzder, P. Hyldgaard, and
     *   D. C. Langreth, Phys. Rev. B 76, 125112 (2007).
     *
     *   G. Roman-Perez and J. M. Soler, Phys. Rev. Lett. 103, 096102 (2009).
     *
     *
     * If you are using vdW-DF2, please also cite:
     *
     *   K. Lee, E. D. Murray, L. Kong, B. I. Lundqvist, and
     *   D. C. Langreth, Phys. Rev. B 82, 081101(R) (2010).
     *
     *
     * If you are calculating the stress with vdW-DF, please also cite:
     *
     *   R. Sabatini, E. Kucukbenli, B. Kolb, T. Thonhauser, and
     *   S. de Gironcoli, J. Phys.: Condens. Matter 24, 424209 (2012).
     *

     Carrying out vdW-DF run using the following parameters:

     Nqs =      20    Nr_points =    1024   r_max =   100.000
     q_mesh =
               0.00001000     0.04494208     0.09755937     0.15916263
               0.23128650     0.31572767     0.41458969     0.53033537
               0.66584808     0.82450364     1.01025438     1.22772762
               1.48234092     1.78043706     2.12944203     2.53805004
               3.01644009     3.57652955     4.23227104     5.00000000

     Gradients computed in reciprocal space

     Adding external electric field

     Computed dipole along edir(3) :
        Dipole                0.0000 Ry au,          0.0000 Debye
        Dipole field          0.0000 Ry au

        Potential amp.       -0.0000 Ry
        Total length         45.4100 bohr

     Starting wfc are  147 randomized atomic wfcs

     Self-consistent Calculation

     iteration #  1     ecut=    36.75 Ry     beta=0.10
     Davidson diagonalization with overlap
     ethr =  1.00E-02,  avg # of iterations =  7.9

[...]

     total energy              =   -2196.46062490 Ry
     Harris-Foulkes estimate   =   -2198.85438628 Ry
     estimated scf accuracy    <      14.77719063 Ry

[...]

     End of self-consistent calculation

          k = 0.0000 0.0000 0.0000 ( 17603 PWs)   bands (ev):

   -51.0970 -50.9632 -50.9632 -50.9588 -50.9291 -50.9291 -50.8305 -50.8305
   -50.8182 -50.7202 -50.7125 -50.6801 -50.6801 -50.6664 -50.6664 -50.5697
   -50.5663 -50.4921 -50.4921 -50.4905 -50.4905 -50.4388 -50.4227 -50.4087
   -50.4087 -50.4013 -50.4013 -48.4310 -48.4282 -47.8767 -27.1004 -27.0920
   -26.9446 -26.9446 -26.9423 -26.9423 -26.4861 -26.4861 -26.4371  -6.0704
    -4.5189  -4.1284  -3.6542  -3.6542  -3.6432  -3.4147  -3.4147  -3.3591
    -3.0767  -3.0357  -3.0357  -2.8785  -2.8785  -2.8773  -1.9853  -1.6141
    -1.6141  -1.6135  -1.6135  -1.2073  -1.1057  -1.0240  -0.9077  -0.6398
    -0.6398  -0.6080  -0.6080  -0.4297  -0.4297  -0.2858  -0.2858  -0.1131
    -0.1131   0.2537   0.6798   0.6798   0.7126   0.7126   0.8591   0.8691
     0.8691   1.3856   1.5240   1.5240   1.8146   1.8368   2.1030   2.1580
     2.4847   2.7039   3.1323   3.1323   3.4714   3.8253   3.8253   3.9175
     3.9175   4.0656   4.0656   4.0875   4.0875   4.1522   4.3486   4.3486
     4.8900   4.8900   5.4093   5.4093   5.5178   5.8366   5.8622   5.8622
     6.1122   6.2119   6.4975   7.3846   7.6322   7.6322

[...]

          k =-0.0879-0.0507 0.0000 ( 17508 PWs)   bands (ev):

[...]

     the Fermi energy is     1.7073 ev

!    total energy              =   -2196.32106022 Ry
     Harris-Foulkes estimate   =   -2196.32104140 Ry
     estimated scf accuracy    <       0.00000060 Ry

     The total energy is the sum of the following terms:

     one-electron contribution =  -16514.32860948 Ry
     hartree contribution      =    8281.73811230 Ry
     xc contribution           =    -569.50887693 Ry
     ewald contribution        =    6605.83496208 Ry
     electric field correction =       0.00000000 Ry
     smearing contrib. (-TS)   =      -0.05664820 Ry

     convergence has been achieved in  16 iterations

 BEEF-vdW xc energy contributions
           1 :   -505.042659513282
           2 :    468.320033131638
           3 :   -403.285485758775
           4 :    323.407827785202
           5 :   -242.617197783842
           6 :    171.516865026458
           7 :   -115.588806201862
           8 :    75.3962408364426
           9 :   -48.1411539338708
          10 :    29.6794205953911
          11 :   -16.2357554440852
          12 :    5.37162172543822
[...]
     MD5 check sum: f09d6de1a584b5a045c4fc126da2d0c4
     Pseudo is Ultrasoft + core correction, Zval = 16.0
     Generated by new atomic code, or converted to UPF format
     Using radial grid of  985 points,  6 beta functions with:
                l(1) =   0
                l(2) =   0
                l(3) =   1
                l(4) =   1
                l(5) =   2
                l(6) =   2
     Q(r) pseudized with  8 coefficients,  rinner =    1.300   1.300   1.300
                                                       1.300   1.300

     PseudoPot. # 2 for Sc read from file:
     /afs/slac.stanford.edu/u/if/mamunm/psp/gbrv1.5pbe/Sc.UPF
     MD5 check sum: db30a2753ba66ef00f23801d899b7e7f
     Pseudo is Ultrasoft + core correction, Zval = 11.0
     Generated by new atomic code, or converted to UPF format
     Using radial grid of  849 points,  6 beta functions with:
                l(1) =   0
                l(2) =   0
                l(3) =   1
                l(4) =   1
                l(5) =   2
                l(6) =   2
     Q(r) pseudized with  6 coefficients,  rinner =    1.200   1.200   1.200
                                                       1.200   1.200

     vdW kernel table read from file vdW_kernel_table
     MD5 check sum: 095c7af220d748ca6e76c0b4c6cfb241

     atomic species   valence    mass     pseudopotential
        Pt1           16.00   195.08400     Pt( 1.00)
        Sc1           11.00    44.95591     Sc( 1.00)

     No symmetry found

   Cartesian axes

     site n.     atom                  positions (alat units)
         1           Pt1 tau(   1) = (   0.0000000   0.0000000  10.0000000  )
         2           Pt1 tau(   2) = (  -1.4225630   2.4639514  10.0000000  )
         3           Pt1 tau(   3) = (   1.4225630   2.4639514  10.0000000  )
         4           Sc1 tau(   4) = (   2.8451260   0.0000000  10.0000000  )
         5           Pt1 tau(   5) = (   2.8451260   1.6426343  12.3230356  )
         6           Pt1 tau(   6) = (   1.4225630   4.1065856  12.3230356  )
         7           Pt1 tau(   7) = (  -1.4225630   4.1065856  12.3230356  )
         8           Sc1 tau(   8) = (  -0.0000000   1.6426343  12.3230356  )
         9           Pt1 tau(   9) = (   0.0000004   3.2515834  14.6327510  )
        10           Pt1 tau(  10) = (   1.3933917   0.8381600  14.6327500  )
        11           Pt1 tau(  11) = (   4.2968622   0.8381584  14.6327514  )
        12           Sc1 tau(  12) = (   2.8451284   3.2852670  14.6412951  )

     number of k points=    20  Fermi-Dirac smearing, width (Ry)=  0.0110
                       cart. coord. in units 2pi/alat
        k(    1) = (   0.0000000   0.0000000   0.0000000), wk =   0.0555556
        k(    2) = (   0.0000000   0.0338210   0.0000000), wk =   0.1111111
        k(    3) = (   0.0000000   0.0676420   0.0000000), wk =   0.1111111
        k(    4) = (   0.0000000  -0.1014630   0.0000000), wk =   0.0555556
        k(    5) = (   0.0292899   0.0169105   0.0000000), wk =   0.1111111
        k(    6) = (   0.0292899   0.0507315   0.0000000), wk =   0.1111111
        k(    7) = (   0.0292899   0.0845525   0.0000000), wk =   0.1111111
        k(    8) = (   0.0292899  -0.0845525   0.0000000), wk =   0.1111111
        k(    9) = (   0.0292899  -0.0507315   0.0000000), wk =   0.1111111
        k(   10) = (   0.0292899  -0.0169105   0.0000000), wk =   0.1111111
        k(   11) = (   0.0585797   0.0338210   0.0000000), wk =   0.1111111
        k(   12) = (   0.0585797   0.0676420   0.0000000), wk =   0.1111111
        k(   13) = (   0.0585797   0.1014630   0.0000000), wk =   0.1111111
        k(   14) = (   0.0585797  -0.0676420   0.0000000), wk =   0.1111111
        k(   15) = (   0.0585797  -0.0338210   0.0000000), wk =   0.1111111
        k(   16) = (   0.0585797   0.0000000   0.0000000), wk =   0.1111111
        k(   17) = (  -0.0878696  -0.0507315   0.0000000), wk =   0.0555556
        k(   18) = (  -0.0878696  -0.0169105   0.0000000), wk =   0.1111111
        k(   19) = (  -0.0878696   0.0169105   0.0000000), wk =   0.1111111
        k(   20) = (  -0.0878696  -0.1521946   0.0000000), wk =   0.0555556

     Largest allocated arrays     est. size (Mb)     dimensions
     Largest temporary arrays     est. size (Mb)     dimensions

     Check: negative/imaginary core charge=   -0.000001    0.000000

     Initial potential from superposition of free atoms
     Check: negative starting charge=   -1.644260

     starting charge  172.49269, renormalised to  177.00000

[...]

     *
     * You are using vdW-DF for exchange-correlation in this calculation.
     * Please cite the following three references that made this development
     * possible:
     *
     *   M. Dion, H. Rydberg, E. Schroder, D. C. Langreth, and
     *   B. I. Lundqvist, Phys. Rev. Lett. 92, 246401 (2004).
     *
     *   T. Thonhauser, V. R. Cooper, S. Li, A. Puzder, P. Hyldgaard, and
     *   D. C. Langreth, Phys. Rev. B 76, 125112 (2007).
     *
     *   G. Roman-Perez and J. M. Soler, Phys. Rev. Lett. 103, 096102 (2009).
     *
     *
     * If you are using vdW-DF2, please also cite:
     *
     *   K. Lee, E. D. Murray, L. Kong, B. I. Lundqvist, and
     *   D. C. Langreth, Phys. Rev. B 82, 081101(R) (2010).
     *
     *
     * If you are calculating the stress with vdW-DF, please also cite:
     *
     *   R. Sabatini, E. Kucukbenli, B. Kolb, T. Thonhauser, and
     *   S. de Gironcoli, J. Phys.: Condens. Matter 24, 424209 (2012).
     *

     Carrying out vdW-DF run using the following parameters:

     Nqs =      20    Nr_points =    1024   r_max =   100.000
     q_mesh =
               0.00001000     0.04494208     0.09755937     0.15916263
               0.23128650     0.31572767     0.41458969     0.53033537
               0.66584808     0.82450364     1.01025438     1.22772762
               1.48234092     1.78043706     2.12944203     2.53805004
               3.01644009     3.57652955     4.23227104     5.00000000

     Gradients computed in reciprocal space

[...]

     Starting wfc are  147 randomized atomic wfcs

     Self-consistent Calculation

[...]

     total energy              =   -2196.33643285 Ry
     Harris-Foulkes estimate   =   -2196.33642764 Ry
     estimated scf accuracy    <       0.00000282 Ry

     iteration # 16     ecut=    36.75 Ry     beta=0.10
     Davidson diagonalization with overlap
     ethr =  1.60E-09,  avg # of iterations =  2.1

[...]

     negative rho (up, down):  1.578E+00 0.000E+00

     Adding external electric field

     Computed dipole along edir(3) :
        Dipole               -0.0004 Ry au,         -0.0011 Debye
        Dipole field         -0.0000 Ry au

        Potential amp.        0.0001 Ry
        Total length         45.4100 bohr

     End of self-consistent calculation

[...]

          k = 0.0586 0.0000 0.0000 ( 17565 PWs)   bands (ev):

[...]

          k =-0.0879-0.1522 0.0000 ( 17508 PWs)   bands (ev):

   -51.0412 -50.9695 -50.9489 -50.9395 -50.9317 -50.9018 -50.9010 -50.8803
   -50.8264 -50.7036 -50.6836 -50.6458 -50.6454 -50.6244 -50.6171 -50.6129
   -50.6066 -50.5840 -50.5786 -50.5137 -50.4995 -50.4359 -50.4249 -50.4211
   -50.4147 -50.4109 -50.4039 -48.4257 -48.4149 -47.8378 -27.0979 -27.0871
   -26.9562 -26.9482 -26.9462 -26.9379 -26.4678 -26.4590 -26.4065  -4.6470
    -4.2712  -3.3670  -3.0540  -3.0288  -2.9487  -2.9336  -2.6181  -2.5891
    -2.5745  -2.4714  -2.4401  -2.0827  -2.0569  -2.0145  -1.9632  -1.9219
    -1.8025  -1.6550  -1.6166  -1.2239  -1.1548  -1.1176  -1.0766  -1.0751
    -0.9786  -0.8957  -0.8732  -0.8694  -0.7838  -0.7491  -0.7334  -0.6586
    -0.5440  -0.3399  -0.3377  -0.1929  -0.1256  -0.0722   0.0209   0.1255
     0.2057   0.3864   0.4196   0.8519   0.8789   1.0037   1.0563   1.4423
     1.7139   1.8268   1.9480   2.6017   2.9826   3.4108   3.4923   3.5093
     3.5146   3.7114   3.8043   3.9179   4.0206   4.1614   4.2441   4.3057
     4.6982   5.0617   5.3166   6.2027   6.3085   6.3192   6.5521   6.7843
     7.2957   7.3225   7.4492   7.8731   7.9082   7.9133

     the Fermi energy is     1.7079 ev

!    total energy              =   -2196.33645097 Ry
     Harris-Foulkes estimate   =   -2196.33643314 Ry
     estimated scf accuracy    <       0.00000063 Ry

     The total energy is the sum of the following terms:

     one-electron contribution =  -16541.63346520 Ry
     hartree contribution      =    8295.35201756 Ry
     xc contribution           =    -569.53539042 Ry
     ewald contribution        =    6619.53694197 Ry
     electric field correction =       0.00000000 Ry
     smearing contrib. (-TS)   =      -0.05655488 Ry

     convergence has been achieved in  16 iterations

 BEEF-vdW xc energy contributions
           1 :   -505.461719978911
           2 :    468.748785676336
           3 :   -403.725455522735
           4 :    323.850301762697
           5 :   -243.048478114058
           6 :    171.927316115885
           7 :   -115.978693082251
           8 :    75.7746254640163
           9 :   -48.5199238202101
          10 :    30.0676490798659
          11 :   -16.6381894271667
          12 :    5.78982962243219
          13 :    3.38354843772004
          14 :   -10.6130014496125
          15 :    15.0991995800559
          16 :   -16.2233964557712
          17 :    14.0967640511398
          18 :   -9.74317781189029
          19 :    4.81827653337257
          20 :  -0.991589951870537
          21 :  -0.708875856091481
          22 :   0.251371181192098
          23 :    1.52088041178240
          24 :   -3.40538177693736
          25 :    4.44743044005634
          26 :   -4.31816700907336
          27 :    3.31037322216116
          28 :   -2.03925529419041
          29 :    1.06964363413101
          30 :  -0.675731548182966
          31 :   -42.6344456327109
          32 :   -31.4053803255642

     Forces acting on atoms (Ry/au):

     negative rho (up, down):  1.578E+00 0.000E+00
     atom    1 type  1   force =     0.00000012    0.01628347    0.00228076
     atom    2 type  1   force =     0.01410210   -0.00814188    0.00228021
     atom    3 type  1   force =    -0.01410173   -0.00814174    0.00228066
     atom    4 type  2   force =     0.00000043    0.00000024    0.00131659
     atom    5 type  1   force =     0.00000099   -0.00068603    0.00030412
     atom    6 type  1   force =    -0.00059402    0.00034319    0.00030466
     atom    7 type  1   force =     0.00059428    0.00034252    0.00030410
     atom    8 type  2   force =    -0.00000271    0.00000115   -0.00448120
     atom    9 type  1   force =     0.00000014    0.00006494   -0.00139210
     atom   10 type  1   force =     0.00005658   -0.00003244   -0.00139253
     atom   11 type  1   force =    -0.00005643   -0.00003282   -0.00139246
     atom   12 type  2   force =     0.00000025   -0.00000060   -0.00041280

     Total force =     0.028992     Total SCF correction =     0.000806

     entering subroutine stress ...

     negative rho (up, down):  1.578E+00 0.000E+00
          total   stress  (Ry/bohr**3)                   (kbar)     P=  -14.96
  -0.00013867  -0.00000000  -0.00000000        -20.40     -0.00     -0.00
  -0.00000000  -0.00013866  -0.00000000         -0.00    -20.40     -0.00
  -0.00000000  -0.00000000  -0.00002769         -0.00     -0.00     -4.07

 !ASE

     Writing output data file calc.save

     General routines

     Parallel routines

   This run was terminated on:  19:23:23  27Dec2018

   JOB DONE.
Job  /afs/slac/g/suncat/bin/suncat-tsmpirun -x LD_LIBRARY_PATH -wdir /scratch/qe110560_STdV2 pw.x -in pw.inp

TID   HOST_NAME   COMMAND_LINE            STATUS            TERMINATION_TIME
00000 suncat0277 pw.x -in pw.inp   Done                     12/27/2018 19:23:23
00001 suncat0277 pw.x -in pw.inp   Done                     12/27/2018 19:23:23
00002 suncat0277 pw.x -in pw.inp   Done                     12/27/2018 19:23:23
00003 suncat0277 pw.x -in pw.inp   Done                     12/27/2018 19:23:23
00004 suncat0277 pw.x -in pw.inp   Done                     12/27/2018 19:23:23
00005 suncat0277 pw.x -in pw.inp   Done                     12/27/2018 19:23:23
00006 suncat0277 pw.x -in pw.inp   Done                     12/27/2018 19:23:23
00007 suncat0277 pw.x -in pw.inp   Done                     12/27/2018 19:23:23
00008 suncat0276 pw.x -in pw.inp   Done                     12/27/2018 19:23:23
00009 suncat0276 pw.x -in pw.inp   Done                     12/27/2018 19:23:23
00010 suncat0276 pw.x -in pw.inp   Done                     12/27/2018 19:23:23
00011 suncat0276 pw.x -in pw.inp   Done                     12/27/2018 19:23:23
00012 suncat0276 pw.x -in pw.inp   Done                     12/27/2018 19:23:23
00013 suncat0276 pw.x -in pw.inp   Done                     12/27/2018 19:23:23
00014 suncat0276 pw.x -in pw.inp   Done                     12/27/2018 19:23:23
00015 suncat0276 pw.x -in pw.inp   Done                     12/27/2018 19:23:23
00016 suncat0274 pw.x -in pw.inp   Done                     12/27/2018 19:23:23
00017 suncat0274 pw.x -in pw.inp   Done                     12/27/2018 19:23:23
00018 suncat0274 pw.x -in pw.inp   Done                     12/27/2018 19:23:23
00019 suncat0274 pw.x -in pw.inp   Done                     12/27/2018 19:23:23
00020 suncat0274 pw.x -in pw.inp   Done                     12/27/2018 19:23:23
00021 suncat0274 pw.x -in pw.inp   Done                     12/27/2018 19:23:23
00022 suncat0274 pw.x -in pw.inp   Done                     12/27/2018 19:23:23
00023 suncat0274 pw.x -in pw.inp   Done                     12/27/2018 19:23:23
00024 suncat0273 pw.x -in pw.inp   Done                     12/27/2018 19:23:23
00025 suncat0273 pw.x -in pw.inp   Done                     12/27/2018 19:23:23
00026 suncat0273 pw.x -in pw.inp   Done                     12/27/2018 19:23:23
00027 suncat0273 pw.x -in pw.inp   Done                     12/27/2018 19:23:23
00028 suncat0273 pw.x -in pw.inp   Done                     12/27/2018 19:23:23
00029 suncat0273 pw.x -in pw.inp   Done                     12/27/2018 19:23:23
00030 suncat0273 pw.x -in pw.inp   Done                     12/27/2018 19:23:23
00031 suncat0273 pw.x -in pw.inp   Done                     12/27/2018 19:23:23
00032 suncat0230 pw.x -in pw.inp   Done                     12/27/2018 19:23:23
00033 suncat0230 pw.x -in pw.inp   Done                     12/27/2018 19:23:23
00034 suncat0230 pw.x -in pw.inp   Done                     12/27/2018 19:23:23
00035 suncat0230 pw.x -in pw.inp   Done                     12/27/2018 19:23:23
00036 suncat0230 pw.x -in pw.inp   Done                     12/27/2018 19:23:23
00037 suncat0230 pw.x -in pw.inp   Done                     12/27/2018 19:23:23
00038 suncat0230 pw.x -in pw.inp   Done                     12/27/2018 19:23:23
00039 suncat0230 pw.x -in pw.inp   Done                     12/27/2018 19:23:23
00040 suncat0229 pw.x -in pw.inp   Done                     12/27/2018 19:23:23
00041 suncat0229 pw.x -in pw.inp   Done                     12/27/2018 19:23:23
00042 suncat0229 pw.x -in pw.inp   Done                     12/27/2018 19:23:23
00043 suncat0229 pw.x -in pw.inp   Done                     12/27/2018 19:23:23
00044 suncat0229 pw.x -in pw.inp   Done                     12/27/2018 19:23:23
00045 suncat0229 pw.x -in pw.inp   Done                     12/27/2018 19:23:23
00046 suncat0229 pw.x -in pw.inp   Done                     12/27/2018 19:23:23
00047 suncat0229 pw.x -in pw.inp   Done                     12/27/2018 19:23:23
00048 suncat0205 pw.x -in pw.inp   Done                     12/27/2018 19:23:23
00049 suncat0205 pw.x -in pw.inp   Done                     12/27/2018 19:23:23
00050 suncat0205 pw.x -in pw.inp   Done                     12/27/2018 19:23:23
00051 suncat0205 pw.x -in pw.inp   Done                     12/27/2018 19:23:23
00052 suncat0205 pw.x -in pw.inp   Done                     12/27/2018 19:23:23
00053 suncat0205 pw.x -in pw.inp   Done                     12/27/2018 19:23:23
00054 suncat0205 pw.x -in pw.inp   Done                     12/27/2018 19:23:23
00055 suncat0205 pw.x -in pw.inp   Done                     12/27/2018 19:23:23
00056 suncat0204 pw.x -in pw.inp   Done                     12/27/2018 19:23:23
00057 suncat0204 pw.x -in pw.inp   Done                     12/27/2018 19:23:23
00058 suncat0204 pw.x -in pw.inp   Done                     12/27/2018 19:23:23
00059 suncat0204 pw.x -in pw.inp   Done                     12/27/2018 19:23:23
00060 suncat0204 pw.x -in pw.inp   Done                     12/27/2018 19:23:23
00061 suncat0204 pw.x -in pw.inp   Done                     12/27/2018 19:23:23
00062 suncat0204 pw.x -in pw.inp   Done                     12/27/2018 19:23:23
00063 suncat0204 pw.x -in pw.inp   Done                     12/27/2018 19:23:23