     Program PWSCF v.5.1rc2 (svn rev. 11289) starts on 19Dec2018 at 15: 8: 6

     Current dimensions of program PWSCF are:
     Max number of different atomic species (ntypx) = 10
     Max number of k-points (npk) =  40000
     Max angular momentum in pseudopotentials (lmaxx) =  3
     Presently stress not available with electric field

     IMPORTANT: XC functional enforced from input :
     Exchange-correlation      = BEEF-VDW ( 1  4 27 13 2)
     Any further DFT definition will be discarded
     Please, verify this is what you really want

     Subspace diagonalization in iterative solution of the eigenvalue problem:
     a serial algorithm will be used

     bravais-lattice index     =            0
     lattice parameter (alat)  =       1.8897  a.u.
     unit-cell volume          =    4794.3352 (a.u.)^3
     number of atoms/cell      =           12
     number of atomic types    =            2
     number of electrons       =       228.00
     number of Kohn-Sham states=          144
     kinetic-energy cutoff     =      36.7493  Ry
     charge density cutoff     =     367.4932  Ry
     convergence threshold     =      1.0E-06
     mixing beta               =       0.1000
     number of iterations used =           10  plain     mixing
     Exchange-correlation      = BEEF-VDW ( 1  4 27 13 2)
     nstep                     =           50

     celldm(1)=   1.889726  celldm(2)=   0.000000  celldm(3)=   0.000000
     celldm(4)=   0.000000  celldm(5)=   0.000000  celldm(6)=   0.000000

     crystal axes: (cart. coord. in units of alat)
               a(1) = (   5.762460   0.000000   0.000000 )
               a(2) = (  -2.881230   4.990436   0.000000 )
               a(3) = (   0.000000   0.000000  24.705029 )

     reciprocal axes: (cart. coord. in units 2 pi/alat)
               b(1) = (  0.173537  0.100192  0.000000 )
               b(2) = (  0.000000  0.200383  0.000000 )
               b(3) = (  0.000000  0.000000  0.040478 )

     PseudoPot. # 1 for Ag read from file:
     /afs/slac.stanford.edu/u/if/mamunm/psp/gbrv1.5pbe/Ag.UPF
     MD5 check sum: d66d668201baa78d5eb5b04ef7011058
     Pseudo is Ultrasoft + core correction, Zval = 19.0
     Generated by new atomic code, or converted to UPF format
     Using radial grid of  887 points,  6 beta functions with:
                l(1) =   0
                l(2) =   0
                l(3) =   1
                l(4) =   1
                l(5) =   2
                l(6) =   2
     Q(r) pseudized with  6 coefficients,  rinner =    1.300   1.300   1.300
                                                       1.300   1.300

     PseudoPot. # 2 for Cu read from file:
     /afs/slac.stanford.edu/u/if/mamunm/psp/gbrv1.5pbe/Cu.UPF
     MD5 check sum: 6e991ff952a84172a2a52a1c1e996048
     Pseudo is Ultrasoft + core correction, Zval = 19.0
     Generated by new atomic code, or converted to UPF format
     Using radial grid of  867 points,  6 beta functions with:
                l(1) =   0
                l(2) =   0
                l(3) =   1
                l(4) =   1
                l(5) =   2
                l(6) =   2
     Q(r) pseudized with  8 coefficients,  rinner =    1.150   1.150   1.150
                                                       1.150   1.150

     vdW kernel table read from file vdW_kernel_table
     MD5 check sum: 095c7af220d748ca6e76c0b4c6cfb241

     atomic species   valence    mass     pseudopotential
        Ag1           19.00   107.86820     Ag( 1.00)
        Cu1           19.00    63.54600     Cu( 1.00)

     No symmetry found

   Cartesian axes

     site n.     atom                  positions (alat units)
         1           Ag1 tau(   1) = (   0.0000000   0.0000000  10.0000000  )
         2           Ag1 tau(   2) = (  -1.4406149   2.4952182  10.0000000  )
         3           Ag1 tau(   3) = (   1.4406149   2.4952182  10.0000000  )
         4           Cu1 tau(   4) = (   2.8812298   0.0000000  10.0000000  )
         5           Ag1 tau(   5) = (   2.8812298   1.6634788  12.3525143  )
         6           Ag1 tau(   6) = (   1.4406149   4.1586971  12.3525143  )
         7           Ag1 tau(   7) = (  -1.4406149   4.1586971  12.3525143  )
         8           Cu1 tau(   8) = (   0.0000000   1.6634788  12.3525143  )
         9           Ag1 tau(   9) = (  -0.0000000   3.3269577  14.7050286  )
        10           Ag1 tau(  10) = (   1.4406149   0.8317394  14.7050286  )
        11           Ag1 tau(  11) = (   4.3218448   0.8317394  14.7050286  )
        12           Cu1 tau(  12) = (   2.8812298   3.3269577  14.7050286  )

     number of k points=    20  Fermi-Dirac smearing, width (Ry)=  0.0110
                       cart. coord. in units 2pi/alat
        k(    1) = (   0.0000000   0.0000000   0.0000000), wk =   0.0555556
        k(    2) = (   0.0000000   0.0333972   0.0000000), wk =   0.1111111
        k(    3) = (   0.0000000   0.0667944   0.0000000), wk =   0.1111111
        k(    4) = (   0.0000000  -0.1001916   0.0000000), wk =   0.0555556
        k(    5) = (   0.0289228   0.0166986   0.0000000), wk =   0.1111111
        k(    6) = (   0.0289228   0.0500958   0.0000000), wk =   0.1111111
        k(    7) = (   0.0289228   0.0834930   0.0000000), wk =   0.1111111
        k(    8) = (   0.0289228  -0.0834930   0.0000000), wk =   0.1111111
        k(    9) = (   0.0289228  -0.0500958   0.0000000), wk =   0.1111111
        k(   10) = (   0.0289228  -0.0166986   0.0000000), wk =   0.1111111
        k(   11) = (   0.0578457   0.0333972   0.0000000), wk =   0.1111111
        k(   12) = (   0.0578457   0.0667944   0.0000000), wk =   0.1111111
        k(   13) = (   0.0578457   0.1001916   0.0000000), wk =   0.1111111
        k(   14) = (   0.0578457  -0.0667944   0.0000000), wk =   0.1111111
        k(   15) = (   0.0578457  -0.0333972   0.0000000), wk =   0.1111111
        k(   16) = (   0.0578457   0.0000000   0.0000000), wk =   0.1111111
        k(   17) = (  -0.0867685  -0.0500958   0.0000000), wk =   0.0555556
        k(   18) = (  -0.0867685  -0.0166986   0.0000000), wk =   0.1111111
        k(   19) = (  -0.0867685   0.0166986   0.0000000), wk =   0.1111111
        k(   20) = (  -0.0867685  -0.1502875   0.0000000), wk =   0.0555556

     Largest allocated arrays     est. size (Mb)     dimensions
     Largest temporary arrays     est. size (Mb)     dimensions

     Initial potential from superposition of free atoms
     Check: negative starting charge=   -0.001976

     starting charge  220.49957, renormalised to  228.00000

     negative rho (up, down):  2.044E-03 0.000E+00

     *
     * You are using vdW-DF for exchange-correlation in this calculation.
     * Please cite the following three references that made this development
     * possible:
     *
     *   M. Dion, H. Rydberg, E. Schroder, D. C. Langreth, and
     *   B. I. Lundqvist, Phys. Rev. Lett. 92, 246401 (2004).
     *
     *   T. Thonhauser, V. R. Cooper, S. Li, A. Puzder, P. Hyldgaard, and
     *   D. C. Langreth, Phys. Rev. B 76, 125112 (2007).
     *
     *   G. Roman-Perez and J. M. Soler, Phys. Rev. Lett. 103, 096102 (2009).
     *
     *
     * If you are using vdW-DF2, please also cite:
     *
     *   K. Lee, E. D. Murray, L. Kong, B. I. Lundqvist, and
     *   D. C. Langreth, Phys. Rev. B 82, 081101(R) (2010).
     *
     *
     * If you are calculating the stress with vdW-DF, please also cite:
     *
     *   R. Sabatini, E. Kucukbenli, B. Kolb, T. Thonhauser, and
     *   S. de Gironcoli, J. Phys.: Condens. Matter 24, 424209 (2012).
     *

     Carrying out vdW-DF run using the following parameters:

     Nqs =      20    Nr_points =    1024   r_max =   100.000
     q_mesh =
               0.00001000     0.04494208     0.09755937     0.15916263
               0.23128650     0.31572767     0.41458969     0.53033537
               0.66584808     0.82450364     1.01025438     1.22772762
               1.48234092     1.78043706     2.12944203     2.53805004
               3.01644009     3.57652955     4.23227104     5.00000000

     Gradients computed in reciprocal space

     Adding external electric field

     Computed dipole along edir(3) :
        Dipole                0.0000 Ry au,          0.0000 Debye
        Dipole field          0.0000 Ry au

        Potential amp.       -0.0000 Ry
        Total length         45.5186 bohr

     Starting wfc are  156 randomized atomic wfcs

     Self-consistent Calculation

     iteration #  1     ecut=    36.75 Ry     beta=0.10
     Davidson diagonalization with overlap
     ethr =  1.00E-02,  avg # of iterations =  7.0

[...]

     total energy              =   -3884.62591873 Ry
     Harris-Foulkes estimate   =   -3890.09450352 Ry
     estimated scf accuracy    <      31.85892881 Ry

[...]

     End of self-consistent calculation

          k = 0.0000 0.0000 0.0000 ( 18067 PWs)   bands (ev):

  -111.0477-110.8125-110.8123 -91.1142 -91.1053 -91.1053 -90.8576 -90.8575
   -90.8488 -90.8488 -90.8487 -90.8487 -68.4610 -68.4606 -68.4606 -68.2362
   -68.2362 -68.2360 -68.2360 -68.2069 -68.2067 -54.6819 -54.6341 -54.6341
   -54.6087 -54.5967 -54.5967 -54.5749 -54.5625 -54.5625 -54.4279 -54.4264
   -54.3794 -54.3794 -54.3766 -54.3766 -54.3332 -54.3269 -54.3227 -54.3227
   -54.3221 -54.3214 -54.3196 -54.3196 -54.3110 -54.3110 -54.3106 -54.3106
    -5.8509  -5.1068  -4.9671  -4.7942  -4.7696  -4.6479  -4.6479  -4.5698
    -4.4807  -4.4355  -4.4355  -4.3549  -4.3549  -4.1659  -4.1659  -3.9621
    -3.7198  -3.7198  -3.5403  -3.5403  -3.4654  -3.3666  -3.2744  -3.1401
    -3.1401  -3.0487  -3.0487  -2.9340  -2.9170  -2.9170  -2.8013  -2.8013
    -2.7115  -2.7115  -2.6701  -2.5065  -2.5065  -2.4752  -2.4752  -2.2742
    -2.2742  -2.1246  -1.9902  -1.9902  -1.9616  -1.7224  -1.7018  -1.2109
    -1.0447  -1.0075  -1.0075  -0.9270  -0.9270  -0.8803  -0.8803  -0.7542
    -0.7461  -0.7461  -0.7089  -0.7089  -0.6562  -0.6562  -0.2096   1.4808
     1.4808   1.4941   1.5515   2.2656   2.3651   2.3651   2.7274   2.7795
     2.7795   4.5335   4.8042   5.1061   5.1061   5.1403   5.5067   5.5450
     5.9803   5.9803   6.2507   6.4996   6.7478   6.7478   7.0040   8.6959
     8.7509   8.8655   9.0966   9.0966   9.1923   9.3805   9.3805  10.2872

[...]

          k =-0.0868-0.0501 0.0000 ( 18020 PWs)   bands (ev):

[...]

     the Fermi energy is     1.0434 ev

!    total energy              =   -3884.59019862 Ry
     Harris-Foulkes estimate   =   -3884.59019592 Ry
     estimated scf accuracy    <       0.00000049 Ry

     The total energy is the sum of the following terms:

     one-electron contribution =  -28209.80793602 Ry
     hartree contribution      =   14102.16947277 Ry
     xc contribution           =    -390.81235934 Ry
     ewald contribution        =   10613.88651268 Ry
     electric field correction =       0.00000000 Ry
     smearing contrib. (-TS)   =      -0.02588871 Ry

     convergence has been achieved in  17 iterations

 BEEF-vdW xc energy contributions
           1 :   -340.967100875687
           2 :    308.924353006956
           3 :   -255.174565743086
           4 :    195.479951947999
           5 :   -144.206313358956
           6 :    109.105351922571
           7 :   -89.9360226378315
[...]
                l(1) =   0
                l(2) =   0
                l(3) =   1
                l(4) =   1
                l(5) =   2
                l(6) =   2
     Q(r) pseudized with  6 coefficients,  rinner =    1.300   1.300   1.300
                                                       1.300   1.300

     PseudoPot. # 2 for Cu read from file:
     /afs/slac.stanford.edu/u/if/mamunm/psp/gbrv1.5pbe/Cu.UPF
     MD5 check sum: 6e991ff952a84172a2a52a1c1e996048
     Pseudo is Ultrasoft + core correction, Zval = 19.0
     Generated by new atomic code, or converted to UPF format
     Using radial grid of  867 points,  6 beta functions with:
                l(1) =   0
                l(2) =   0
                l(3) =   1
                l(4) =   1
                l(5) =   2
                l(6) =   2
     Q(r) pseudized with  8 coefficients,  rinner =    1.150   1.150   1.150
                                                       1.150   1.150

     vdW kernel table read from file vdW_kernel_table
     MD5 check sum: 095c7af220d748ca6e76c0b4c6cfb241

     atomic species   valence    mass     pseudopotential
        Ag1           19.00   107.86820     Ag( 1.00)
        Cu1           19.00    63.54600     Cu( 1.00)

     No symmetry found

   Cartesian axes

     site n.     atom                  positions (alat units)
         1           Ag1 tau(   1) = (   0.0000000   0.0000000  10.0000000  )
         2           Ag1 tau(   2) = (  -1.4406149   2.4952182  10.0000000  )
         3           Ag1 tau(   3) = (   1.4406149   2.4952182  10.0000000  )
         4           Cu1 tau(   4) = (   2.8812298   0.0000000  10.0000000  )
         5           Ag1 tau(   5) = (   2.8812298   1.6634788  12.3525143  )
         6           Ag1 tau(   6) = (   1.4406149   4.1586971  12.3525143  )
         7           Ag1 tau(   7) = (  -1.4406149   4.1586971  12.3525143  )
         8           Cu1 tau(   8) = (   0.0000000   1.6634788  12.3525143  )
         9           Ag1 tau(   9) = (   0.0000010   3.3101989  14.7561899  )
        10           Ag1 tau(  10) = (   1.4261011   0.8401204  14.7561899  )
        11           Ag1 tau(  11) = (   4.3363592   0.8401192  14.7561893  )
        12           Cu1 tau(  12) = (   2.8812245   3.3269529  14.5916734  )

     number of k points=    20  Fermi-Dirac smearing, width (Ry)=  0.0110
                       cart. coord. in units 2pi/alat
        k(    1) = (   0.0000000   0.0000000   0.0000000), wk =   0.0555556
        k(    2) = (   0.0000000   0.0333972   0.0000000), wk =   0.1111111
        k(    3) = (   0.0000000   0.0667944   0.0000000), wk =   0.1111111
        k(    4) = (   0.0000000  -0.1001916   0.0000000), wk =   0.0555556
        k(    5) = (   0.0289228   0.0166986   0.0000000), wk =   0.1111111
        k(    6) = (   0.0289228   0.0500958   0.0000000), wk =   0.1111111
        k(    7) = (   0.0289228   0.0834930   0.0000000), wk =   0.1111111
        k(    8) = (   0.0289228  -0.0834930   0.0000000), wk =   0.1111111
        k(    9) = (   0.0289228  -0.0500958   0.0000000), wk =   0.1111111
        k(   10) = (   0.0289228  -0.0166986   0.0000000), wk =   0.1111111
        k(   11) = (   0.0578457   0.0333972   0.0000000), wk =   0.1111111
        k(   12) = (   0.0578457   0.0667944   0.0000000), wk =   0.1111111
        k(   13) = (   0.0578457   0.1001916   0.0000000), wk =   0.1111111
        k(   14) = (   0.0578457  -0.0667944   0.0000000), wk =   0.1111111
        k(   15) = (   0.0578457  -0.0333972   0.0000000), wk =   0.1111111
        k(   16) = (   0.0578457   0.0000000   0.0000000), wk =   0.1111111
        k(   17) = (  -0.0867685  -0.0500958   0.0000000), wk =   0.0555556
        k(   18) = (  -0.0867685  -0.0166986   0.0000000), wk =   0.1111111
        k(   19) = (  -0.0867685   0.0166986   0.0000000), wk =   0.1111111
        k(   20) = (  -0.0867685  -0.1502875   0.0000000), wk =   0.0555556

     Largest allocated arrays     est. size (Mb)     dimensions
     Largest temporary arrays     est. size (Mb)     dimensions

     Initial potential from superposition of free atoms
     Check: negative starting charge=   -0.001962

     starting charge  220.49957, renormalised to  228.00000

[...]

     *
     * You are using vdW-DF for exchange-correlation in this calculation.
     * Please cite the following three references that made this development
     * possible:
     *
     *   M. Dion, H. Rydberg, E. Schroder, D. C. Langreth, and
     *   B. I. Lundqvist, Phys. Rev. Lett. 92, 246401 (2004).
     *
     *   T. Thonhauser, V. R. Cooper, S. Li, A. Puzder, P. Hyldgaard, and
     *   D. C. Langreth, Phys. Rev. B 76, 125112 (2007).
     *
     *   G. Roman-Perez and J. M. Soler, Phys. Rev. Lett. 103, 096102 (2009).
     *
     *
     * If you are using vdW-DF2, please also cite:
     *
     *   K. Lee, E. D. Murray, L. Kong, B. I. Lundqvist, and
     *   D. C. Langreth, Phys. Rev. B 82, 081101(R) (2010).
     *
     *
     * If you are calculating the stress with vdW-DF, please also cite:
     *
     *   R. Sabatini, E. Kucukbenli, B. Kolb, T. Thonhauser, and
     *   S. de Gironcoli, J. Phys.: Condens. Matter 24, 424209 (2012).
     *

     Carrying out vdW-DF run using the following parameters:

     Nqs =      20    Nr_points =    1024   r_max =   100.000
     q_mesh =
               0.00001000     0.04494208     0.09755937     0.15916263
               0.23128650     0.31572767     0.41458969     0.53033537
               0.66584808     0.82450364     1.01025438     1.22772762
               1.48234092     1.78043706     2.12944203     2.53805004
               3.01644009     3.57652955     4.23227104     5.00000000

     Gradients computed in reciprocal space

[...]

     Starting wfc are  156 randomized atomic wfcs

     Self-consistent Calculation

[...]

     total energy              =   -3884.59797890 Ry
     Harris-Foulkes estimate   =   -3884.59797793 Ry
     estimated scf accuracy    <       0.00000138 Ry

     iteration # 16     ecut=    36.75 Ry     beta=0.10
     Davidson diagonalization with overlap
     ethr =  6.04E-10,  avg # of iterations =  2.0

[...]

     negative rho (up, down):  1.918E-03 0.000E+00

     Adding external electric field

     Computed dipole along edir(3) :
        Dipole                0.0004 Ry au,          0.0011 Debye
        Dipole field          0.0000 Ry au

        Potential amp.       -0.0001 Ry
        Total length         45.5186 bohr

     End of self-consistent calculation

[...]

          k = 0.0578 0.0000 0.0000 ( 18043 PWs)   bands (ev):

[...]

          k =-0.0868-0.1503 0.0000 ( 18020 PWs)   bands (ev):

  -111.0335-110.8737-110.8199 -91.1149 -91.1119 -91.1090 -90.8540 -90.8511
   -90.8482 -90.8231 -90.8199 -90.8170 -68.4475 -68.4475 -68.4454 -68.2925
   -68.2925 -68.2750 -68.2429 -68.2429 -68.2155 -54.6585 -54.6185 -54.6103
   -54.6062 -54.6051 -54.6035 -54.6018 -54.5972 -54.5696 -54.4009 -54.3732
   -54.3613 -54.3541 -54.3487 -54.3477 -54.3348 -54.3260 -54.3231 -54.3224
   -54.3211 -54.3202 -54.3144 -54.3135 -54.2928 -54.2888 -54.2870 -54.2835
    -4.7864  -4.6119  -4.5441  -4.4549  -4.3888  -4.2876  -4.2119  -4.1450
    -4.1266  -4.0877  -4.0504  -4.0297  -3.8566  -3.8468  -3.7880  -3.7678
    -3.7587  -3.6937  -3.5587  -3.4169  -3.3560  -3.2970  -3.2909  -3.2350
    -3.2314  -3.1727  -3.1303  -3.1123  -3.0552  -3.0364  -3.0112  -2.9594
    -2.9576  -2.9436  -2.8844  -2.8389  -2.8267  -2.8006  -2.7253  -2.6612
    -2.6283  -2.5676  -2.5592  -2.4119  -2.2730  -2.1456  -2.0657  -1.9016
    -1.4808  -1.3558  -1.2365  -1.1425  -1.1100  -1.0159  -1.0055  -0.9924
    -0.9850  -0.9604  -0.9578  -0.9017  -0.8182  -0.8077  -0.7888  -0.6917
     0.8223   0.9716   1.2791   1.3445   2.1082   2.2686   3.8505   3.8955
     4.2891   4.4689   6.0430   6.0809   6.7235   6.7360   6.9293   6.9642
     6.9987   7.0212   7.0838   7.4283   7.4343   7.5093   8.0068   8.0249
     8.2973   8.3880   8.6678   8.7010   8.9544   9.0654   9.1705   9.3702

     the Fermi energy is     1.0404 ev

!    total energy              =   -3884.59798228 Ry
     Harris-Foulkes estimate   =   -3884.59797903 Ry
     estimated scf accuracy    <       0.00000038 Ry

     The total energy is the sum of the following terms:

     one-electron contribution =  -28169.34736154 Ry
     hartree contribution      =   14081.97643575 Ry
     xc contribution           =    -390.80841170 Ry
     ewald contribution        =   10593.60731553 Ry
     electric field correction =       0.00000000 Ry
     smearing contrib. (-TS)   =      -0.02596032 Ry

     convergence has been achieved in  16 iterations

 BEEF-vdW xc energy contributions
           1 :   -341.117096133777
           2 :    309.062655438506
           3 :   -255.300101300456
           4 :    195.604159772201
           5 :   -144.345229818304
           6 :    109.268442184561
           7 :   -90.1194229637651
           8 :    81.0836577993906
           9 :   -75.1344560204269
          10 :    67.7369472575402
          11 :   -58.1874989850909
          12 :    48.4768985424170
          13 :   -40.9717426344431
          14 :    36.5846226150571
          15 :   -34.4270358367535
          16 :    32.7828739558369
          17 :   -30.4379163828092
          18 :    27.3711996146225
          19 :   -24.4569313973084
          20 :    22.5741208491219
          21 :   -21.8699768749325
          22 :    21.6843843894148
          23 :   -21.0975539629725
          24 :    19.6233038438840
          25 :   -17.5333656909482
          26 :    15.6161309406913
          27 :   -14.5908284550217
          28 :    14.6113304100441
          29 :   -15.1949943569478
          30 :    15.5878758746643
          31 :   -31.8063017966425
          32 :   -22.7637352446205

     Forces acting on atoms (Ry/au):

     negative rho (up, down):  1.918E-03 0.000E+00
     atom    1 type  1   force =    -0.00000007    0.00658399   -0.00600451
     atom    2 type  1   force =     0.00570188   -0.00329209   -0.00600453
     atom    3 type  1   force =    -0.00570200   -0.00329212   -0.00600470
     atom    4 type  2   force =     0.00000051    0.00000048    0.01080326
     atom    5 type  1   force =     0.00000013   -0.00363970    0.00205164
     atom    6 type  1   force =    -0.00315185    0.00181992    0.00205160
     atom    7 type  1   force =     0.00315171    0.00181968    0.00205198
     atom    8 type  2   force =    -0.00000077   -0.00000036    0.00234711
     atom    9 type  1   force =    -0.00000050    0.00114301   -0.00029714
     atom   10 type  1   force =     0.00098969   -0.00057200   -0.00029710
     atom   11 type  1   force =    -0.00098985   -0.00057157   -0.00029722
     atom   12 type  2   force =     0.00000112    0.00000074   -0.00040039

     Total force =     0.020424     Total SCF correction =     0.003077
     SCF correction compared to forces is large: reduce conv_thr to get better values

     entering subroutine stress ...

     negative rho (up, down):  1.918E-03 0.000E+00
          total   stress  (Ry/bohr**3)                   (kbar)     P=   -6.93
  -0.00005691  -0.00000000   0.00000000         -8.37     -0.00      0.00
  -0.00000000  -0.00005691   0.00000000         -0.00     -8.37      0.00
   0.00000000   0.00000000  -0.00002740          0.00      0.00     -4.03

 !ASE

     Writing output data file calc.save

     General routines

     Parallel routines

   This run was terminated on:  16: 6:32  19Dec2018

   JOB DONE.
Job  /afs/slac/g/suncat/bin/suncat-tsmpirun -x LD_LIBRARY_PATH -wdir /scratch/qe773153_UZ5V6 pw.x -in pw.inp

TID   HOST_NAME   COMMAND_LINE            STATUS            TERMINATION_TIME
00000 suncat0110 pw.x -in pw.inp   Done                     12/19/2018 16:06:32
00001 suncat0110 pw.x -in pw.inp   Done                     12/19/2018 16:06:32
00002 suncat0110 pw.x -in pw.inp   Done                     12/19/2018 16:06:32
00003 suncat0110 pw.x -in pw.inp   Done                     12/19/2018 16:06:32
00004 suncat0110 pw.x -in pw.inp   Done                     12/19/2018 16:06:32
00005 suncat0110 pw.x -in pw.inp   Done                     12/19/2018 16:06:32
00006 suncat0110 pw.x -in pw.inp   Done                     12/19/2018 16:06:32
00007 suncat0110 pw.x -in pw.inp   Done                     12/19/2018 16:06:32
00008 suncat0105 pw.x -in pw.inp   Done                     12/19/2018 16:06:32
00009 suncat0105 pw.x -in pw.inp   Done                     12/19/2018 16:06:32
00010 suncat0105 pw.x -in pw.inp   Done                     12/19/2018 16:06:32
00011 suncat0105 pw.x -in pw.inp   Done                     12/19/2018 16:06:32
00012 suncat0105 pw.x -in pw.inp   Done                     12/19/2018 16:06:32
00013 suncat0105 pw.x -in pw.inp   Done                     12/19/2018 16:06:32
00014 suncat0105 pw.x -in pw.inp   Done                     12/19/2018 16:06:32
00015 suncat0105 pw.x -in pw.inp   Done                     12/19/2018 16:06:32
00016 suncat0100 pw.x -in pw.inp   Done                     12/19/2018 16:06:32
00017 suncat0100 pw.x -in pw.inp   Done                     12/19/2018 16:06:32
00018 suncat0100 pw.x -in pw.inp   Done                     12/19/2018 16:06:32
00019 suncat0100 pw.x -in pw.inp   Done                     12/19/2018 16:06:32
00020 suncat0100 pw.x -in pw.inp   Done                     12/19/2018 16:06:32
00021 suncat0100 pw.x -in pw.inp   Done                     12/19/2018 16:06:32
00022 suncat0100 pw.x -in pw.inp   Done                     12/19/2018 16:06:32
00023 suncat0100 pw.x -in pw.inp   Done                     12/19/2018 16:06:32
00024 suncat0283 pw.x -in pw.inp   Done                     12/19/2018 16:06:32
00025 suncat0283 pw.x -in pw.inp   Done                     12/19/2018 16:06:32
00026 suncat0283 pw.x -in pw.inp   Done                     12/19/2018 16:06:32
00027 suncat0283 pw.x -in pw.inp   Done                     12/19/2018 16:06:32
00028 suncat0283 pw.x -in pw.inp   Done                     12/19/2018 16:06:32
00029 suncat0283 pw.x -in pw.inp   Done                     12/19/2018 16:06:32
00030 suncat0283 pw.x -in pw.inp   Done                     12/19/2018 16:06:32
00031 suncat0283 pw.x -in pw.inp   Done                     12/19/2018 16:06:32
00032 suncat0282 pw.x -in pw.inp   Done                     12/19/2018 16:06:32
00033 suncat0282 pw.x -in pw.inp   Done                     12/19/2018 16:06:32
00034 suncat0282 pw.x -in pw.inp   Done                     12/19/2018 16:06:32
00035 suncat0282 pw.x -in pw.inp   Done                     12/19/2018 16:06:32
00036 suncat0282 pw.x -in pw.inp   Done                     12/19/2018 16:06:32
00037 suncat0282 pw.x -in pw.inp   Done                     12/19/2018 16:06:32
00038 suncat0282 pw.x -in pw.inp   Done                     12/19/2018 16:06:32
00039 suncat0282 pw.x -in pw.inp   Done                     12/19/2018 16:06:32
00040 suncat0280 pw.x -in pw.inp   Done                     12/19/2018 16:06:32
00041 suncat0280 pw.x -in pw.inp   Done                     12/19/2018 16:06:32
00042 suncat0280 pw.x -in pw.inp   Done                     12/19/2018 16:06:32
00043 suncat0280 pw.x -in pw.inp   Done                     12/19/2018 16:06:32
00044 suncat0280 pw.x -in pw.inp   Done                     12/19/2018 16:06:32
00045 suncat0280 pw.x -in pw.inp   Done                     12/19/2018 16:06:32
00046 suncat0280 pw.x -in pw.inp   Done                     12/19/2018 16:06:32
00047 suncat0280 pw.x -in pw.inp   Done                     12/19/2018 16:06:32
00048 suncat0279 pw.x -in pw.inp   Done                     12/19/2018 16:06:32
00049 suncat0279 pw.x -in pw.inp   Done                     12/19/2018 16:06:32
00050 suncat0279 pw.x -in pw.inp   Done                     12/19/2018 16:06:32
00051 suncat0279 pw.x -in pw.inp   Done                     12/19/2018 16:06:32
00052 suncat0279 pw.x -in pw.inp   Done                     12/19/2018 16:06:32
00053 suncat0279 pw.x -in pw.inp   Done                     12/19/2018 16:06:32
00054 suncat0279 pw.x -in pw.inp   Done                     12/19/2018 16:06:32
00055 suncat0279 pw.x -in pw.inp   Done                     12/19/2018 16:06:32
00056 suncat0278 pw.x -in pw.inp   Done                     12/19/2018 16:06:32
00057 suncat0278 pw.x -in pw.inp   Done                     12/19/2018 16:06:32
00058 suncat0278 pw.x -in pw.inp   Done                     12/19/2018 16:06:32
00059 suncat0278 pw.x -in pw.inp   Done                     12/19/2018 16:06:32
00060 suncat0278 pw.x -in pw.inp   Done                     12/19/2018 16:06:32
00061 suncat0278 pw.x -in pw.inp   Done                     12/19/2018 16:06:32
00062 suncat0278 pw.x -in pw.inp   Done                     12/19/2018 16:06:32
00063 suncat0278 pw.x -in pw.inp   Done                     12/19/2018 16:06:32