     Program PWSCF v.5.1rc2 (svn rev. 11289) starts on  1Jan2019 at  0: 3:52

     Current dimensions of program PWSCF are:
     Max number of different atomic species (ntypx) = 10
     Max number of k-points (npk) =  40000
     Max angular momentum in pseudopotentials (lmaxx) =  3
     Presently stress not available with electric field

     IMPORTANT: XC functional enforced from input :
     Exchange-correlation      = BEEF-VDW ( 1  4 27 13 2)
     Any further DFT definition will be discarded
     Please, verify this is what you really want

     Subspace diagonalization in iterative solution of the eigenvalue problem:
     a serial algorithm will be used

     bravais-lattice index     =            0
     lattice parameter (alat)  =       1.8897  a.u.
     unit-cell volume          =    4104.9994 (a.u.)^3
     number of atoms/cell      =           12
     number of atomic types    =            2
     number of electrons       =       201.00
     number of Kohn-Sham states=          130
     kinetic-energy cutoff     =      36.7493  Ry
     charge density cutoff     =     367.4932  Ry
     convergence threshold     =      1.0E-06
     mixing beta               =       0.1000
     number of iterations used =           10  plain     mixing
     Exchange-correlation      = BEEF-VDW ( 1  4 27 13 2)
     nstep                     =           50

     celldm(1)=   1.889726  celldm(2)=   0.000000  celldm(3)=   0.000000
     celldm(4)=   0.000000  celldm(5)=   0.000000  celldm(6)=   0.000000

     crystal axes: (cart. coord. in units of alat)
               a(1) = (   5.367289   0.000000   0.000000 )
               a(2) = (  -2.683644   4.648208   0.000000 )
               a(3) = (   0.000000   0.000000  24.382373 )

     reciprocal axes: (cart. coord. in units 2 pi/alat)
               b(1) = (  0.186314  0.107568  0.000000 )
               b(2) = (  0.000000  0.215137  0.000000 )
               b(3) = (  0.000000  0.000000  0.041013 )

     PseudoPot. # 1 for Ru read from file:
     /afs/slac.stanford.edu/u/if/mamunm/psp/gbrv1.5pbe/Ru.UPF
     MD5 check sum: 7158a806dd851261a58e6920c40ebe78
     Pseudo is Ultrasoft + core correction, Zval = 16.0
     Generated by new atomic code, or converted to UPF format
     Using radial grid of  967 points,  6 beta functions with:
                l(1) =   0
                l(2) =   0
                l(3) =   1
                l(4) =   1
                l(5) =   2
                l(6) =   2
     Q(r) pseudized with  8 coefficients,  rinner =    1.300   1.300   1.300
                                                       1.300   1.300

     PseudoPot. # 2 for Cu read from file:
     /afs/slac.stanford.edu/u/if/mamunm/psp/gbrv1.5pbe/Cu.UPF
     MD5 check sum: 6e991ff952a84172a2a52a1c1e996048
     Pseudo is Ultrasoft + core correction, Zval = 19.0
     Generated by new atomic code, or converted to UPF format
     Using radial grid of  867 points,  6 beta functions with:
                l(1) =   0
                l(2) =   0
                l(3) =   1
                l(4) =   1
                l(5) =   2
                l(6) =   2
     Q(r) pseudized with  8 coefficients,  rinner =    1.150   1.150   1.150
                                                       1.150   1.150

     vdW kernel table read from file vdW_kernel_table
     MD5 check sum: 095c7af220d748ca6e76c0b4c6cfb241

     atomic species   valence    mass     pseudopotential
        Ru1           16.00   101.07000     Ru( 1.00)
        Cu1           19.00    63.54600     Cu( 1.00)

     No symmetry found

   Cartesian axes

     site n.     atom                  positions (alat units)
         1           Ru1 tau(   1) = (   0.0000000   0.0000000  10.0000000  )
         2           Ru1 tau(   2) = (  -1.3418221   2.3241041  10.0000000  )
         3           Ru1 tau(   3) = (   1.3418221   2.3241041  10.0000000  )
         4           Cu1 tau(   4) = (   2.6836443   0.0000000  10.0000000  )
         5           Ru1 tau(   5) = (   2.6836443   1.5494028  12.1911864  )
         6           Ru1 tau(   6) = (   1.3418221   3.8735069  12.1911864  )
         7           Ru1 tau(   7) = (  -1.3418221   3.8735069  12.1911864  )
         8           Cu1 tau(   8) = (   0.0000000   1.5494028  12.1911864  )
         9           Ru1 tau(   9) = (  -0.0000000   3.0988055  14.3823728  )
        10           Ru1 tau(  10) = (   1.3418221   0.7747014  14.3823728  )
        11           Ru1 tau(  11) = (   4.0254664   0.7747014  14.3823728  )
        12           Cu1 tau(  12) = (   2.6836443   3.0988055  14.3823728  )

     number of k points=    20  Fermi-Dirac smearing, width (Ry)=  0.0110
                       cart. coord. in units 2pi/alat
        k(    1) = (   0.0000000   0.0000000   0.0000000), wk =   0.0555556
        k(    2) = (   0.0000000   0.0358561   0.0000000), wk =   0.1111111
        k(    3) = (   0.0000000   0.0717122   0.0000000), wk =   0.1111111
        k(    4) = (   0.0000000  -0.1075683   0.0000000), wk =   0.0555556
        k(    5) = (   0.0310523   0.0179281   0.0000000), wk =   0.1111111
        k(    6) = (   0.0310523   0.0537842   0.0000000), wk =   0.1111111
        k(    7) = (   0.0310523   0.0896403   0.0000000), wk =   0.1111111
        k(    8) = (   0.0310523  -0.0896403   0.0000000), wk =   0.1111111
        k(    9) = (   0.0310523  -0.0537842   0.0000000), wk =   0.1111111
        k(   10) = (   0.0310523  -0.0179281   0.0000000), wk =   0.1111111
        k(   11) = (   0.0621046   0.0358561   0.0000000), wk =   0.1111111
        k(   12) = (   0.0621046   0.0717122   0.0000000), wk =   0.1111111
        k(   13) = (   0.0621046   0.1075683   0.0000000), wk =   0.1111111
        k(   14) = (   0.0621046  -0.0717122   0.0000000), wk =   0.1111111
        k(   15) = (   0.0621046  -0.0358561   0.0000000), wk =   0.1111111
        k(   16) = (   0.0621046   0.0000000   0.0000000), wk =   0.1111111
        k(   17) = (  -0.0931569  -0.0537842   0.0000000), wk =   0.0555556
        k(   18) = (  -0.0931569  -0.0179281   0.0000000), wk =   0.1111111
        k(   19) = (  -0.0931569   0.0179281   0.0000000), wk =   0.1111111
        k(   20) = (  -0.0931569  -0.1613525   0.0000000), wk =   0.0555556

     Largest allocated arrays     est. size (Mb)     dimensions
     Largest temporary arrays     est. size (Mb)     dimensions

     Initial potential from superposition of free atoms
     Check: negative starting charge=   -0.655908

     starting charge  188.99985, renormalised to  201.00000

     negative rho (up, down):  6.976E-01 0.000E+00

     *
     * You are using vdW-DF for exchange-correlation in this calculation.
     * Please cite the following three references that made this development
     * possible:
     *
     *   M. Dion, H. Rydberg, E. Schroder, D. C. Langreth, and
     *   B. I. Lundqvist, Phys. Rev. Lett. 92, 246401 (2004).
     *
     *   T. Thonhauser, V. R. Cooper, S. Li, A. Puzder, P. Hyldgaard, and
     *   D. C. Langreth, Phys. Rev. B 76, 125112 (2007).
     *
     *   G. Roman-Perez and J. M. Soler, Phys. Rev. Lett. 103, 096102 (2009).
     *
     *
     * If you are using vdW-DF2, please also cite:
     *
     *   K. Lee, E. D. Murray, L. Kong, B. I. Lundqvist, and
     *   D. C. Langreth, Phys. Rev. B 82, 081101(R) (2010).
     *
     *
     * If you are calculating the stress with vdW-DF, please also cite:
     *
     *   R. Sabatini, E. Kucukbenli, B. Kolb, T. Thonhauser, and
     *   S. de Gironcoli, J. Phys.: Condens. Matter 24, 424209 (2012).
     *

     Carrying out vdW-DF run using the following parameters:

     Nqs =      20    Nr_points =    1024   r_max =   100.000
     q_mesh =
               0.00001000     0.04494208     0.09755937     0.15916263
               0.23128650     0.31572767     0.41458969     0.53033537
               0.66584808     0.82450364     1.01025438     1.22772762
               1.48234092     1.78043706     2.12944203     2.53805004
               3.01644009     3.57652955     4.23227104     5.00000000

     Gradients computed in reciprocal space

     Adding external electric field

     Computed dipole along edir(3) :
        Dipole                0.0000 Ry au,          0.0000 Debye
        Dipole field          0.0000 Ry au

        Potential amp.       -0.0000 Ry
        Total length         44.9241 bohr

     Starting wfc are  156 randomized atomic wfcs

     Self-consistent Calculation

     iteration #  1     ecut=    36.75 Ry     beta=0.10
     Davidson diagonalization with overlap
     ethr =  1.00E-02,  avg # of iterations =  7.8

[...]

     total energy              =   -2949.89503484 Ry
     Harris-Foulkes estimate   =   -2982.15118773 Ry
     estimated scf accuracy    <     180.11054410 Ry

[...]

     End of self-consistent calculation

          k = 0.0000 0.0000 0.0000 ( 15473 PWs)   bands (ev):

  -111.1020-110.8110-110.8101 -71.3441 -71.2556 -71.2554 -70.9630 -70.9584
   -70.8772 -70.8771 -70.8760 -70.8760 -68.4890 -68.4890 -68.4757 -68.2514
   -68.2514 -68.2506 -68.2506 -68.0825 -68.0812 -41.7063 -41.4471 -41.4438
   -41.4437 -41.3787 -41.3256 -41.3255 -41.2952 -41.0544 -41.0374 -41.0374
   -40.9670 -40.9669 -40.9276 -40.9275 -40.8489 -40.7679 -40.7679 -40.7382
   -40.7048 -40.7048 -40.6578 -40.6406 -40.6395 -40.6395 -40.6324 -40.6324
    -5.3622  -3.9824  -3.8708  -3.7753  -3.3125  -3.1820  -3.1820  -2.9946
    -2.9477  -2.9240  -2.9239  -2.7853  -2.7853  -2.4334  -2.4334  -1.7682
    -1.5269  -1.5269  -1.2538  -1.2297  -1.2297  -1.0012  -0.9217  -0.9217
    -0.8707  -0.6798  -0.6798  -0.6046  -0.6045  -0.5227  -0.5227  -0.1307
    -0.0413   0.1314   0.1314   0.1620   0.1620   0.5268   0.5675   0.5675
     1.0566   1.1788   1.1789   1.5653   1.6260   1.7857   1.7858   2.0322
     2.0322   2.0417   2.0417   2.2920   2.2920   2.3845   2.3846   2.5838
     2.5838   2.5983   3.0774   3.1064   3.1064   3.5222   3.5222   3.6083
     3.9331   3.9631   3.9998   5.3207   5.3304   5.6664   5.6664   5.6887
     5.6887   6.2123   6.4227   7.0295   7.9077   8.3982   8.4626   8.8764
     9.7267   9.7293

[...]

          k =-0.0932-0.0538 0.0000 ( 15426 PWs)   bands (ev):

[...]

     the Fermi energy is     1.7794 ev

!    total energy              =   -2970.55162187 Ry
     Harris-Foulkes estimate   =   -2970.55162275 Ry
     estimated scf accuracy    <       0.00000043 Ry

     The total energy is the sum of the following terms:

     one-electron contribution =  -25217.74199973 Ry
     hartree contribution      =   12611.85543740 Ry
     xc contribution           =    -361.24660886 Ry
     ewald contribution        =    9996.68824656 Ry
     electric field correction =       0.00000000 Ry
     smearing contrib. (-TS)   =      -0.10669723 Ry

     convergence has been achieved in  30 iterations

 BEEF-vdW xc energy contributions
           1 :   -315.645517991853
           2 :    288.560048277686
           3 :   -241.992913197020
           4 :    187.931540041201
           5 :   -138.147125328836
           6 :    100.342307331579
           7 :   -76.4961679253919
           8 :    63.7215913684119
           9 :   -56.8135963239448
          10 :    51.0488829851158
[...]
     Pseudo is Ultrasoft + core correction, Zval = 16.0
     Generated by new atomic code, or converted to UPF format
     Using radial grid of  967 points,  6 beta functions with:
                l(1) =   0
                l(2) =   0
                l(3) =   1
                l(4) =   1
                l(5) =   2
                l(6) =   2
     Q(r) pseudized with  8 coefficients,  rinner =    1.300   1.300   1.300
                                                       1.300   1.300

     PseudoPot. # 2 for Cu read from file:
     /afs/slac.stanford.edu/u/if/mamunm/psp/gbrv1.5pbe/Cu.UPF
     MD5 check sum: 6e991ff952a84172a2a52a1c1e996048
     Pseudo is Ultrasoft + core correction, Zval = 19.0
     Generated by new atomic code, or converted to UPF format
     Using radial grid of  867 points,  6 beta functions with:
                l(1) =   0
                l(2) =   0
                l(3) =   1
                l(4) =   1
                l(5) =   2
                l(6) =   2
     Q(r) pseudized with  8 coefficients,  rinner =    1.150   1.150   1.150
                                                       1.150   1.150

     vdW kernel table read from file vdW_kernel_table
     MD5 check sum: 095c7af220d748ca6e76c0b4c6cfb241

     atomic species   valence    mass     pseudopotential
        Ru1           16.00   101.07000     Ru( 1.00)
        Cu1           19.00    63.54600     Cu( 1.00)

     No symmetry found

   Cartesian axes

     site n.     atom                  positions (alat units)
         1           Ru1 tau(   1) = (   0.0000000   0.0000000  10.0000000  )
         2           Ru1 tau(   2) = (  -1.3418221   2.3241041  10.0000000  )
         3           Ru1 tau(   3) = (   1.3418221   2.3241041  10.0000000  )
         4           Cu1 tau(   4) = (   2.6836443   0.0000000  10.0000000  )
         5           Ru1 tau(   5) = (   2.6836443   1.5494028  12.1911864  )
         6           Ru1 tau(   6) = (   1.3418221   3.8735069  12.1911864  )
         7           Ru1 tau(   7) = (  -1.3418221   3.8735069  12.1911864  )
         8           Cu1 tau(   8) = (   0.0000000   1.5494028  12.1911864  )
         9           Ru1 tau(   9) = (  -0.0000969   3.1337127  14.3209113  )
        10           Ru1 tau(  10) = (   1.3720478   0.7572475  14.3208998  )
        11           Ru1 tau(  11) = (   3.9951927   0.7573309  14.3208919  )
        12           Cu1 tau(  12) = (   2.6835774   3.0988724  14.3816387  )

     number of k points=    20  Fermi-Dirac smearing, width (Ry)=  0.0110
                       cart. coord. in units 2pi/alat
        k(    1) = (   0.0000000   0.0000000   0.0000000), wk =   0.0555556
        k(    2) = (   0.0000000   0.0358561   0.0000000), wk =   0.1111111
        k(    3) = (   0.0000000   0.0717122   0.0000000), wk =   0.1111111
        k(    4) = (   0.0000000  -0.1075683   0.0000000), wk =   0.0555556
        k(    5) = (   0.0310523   0.0179281   0.0000000), wk =   0.1111111
        k(    6) = (   0.0310523   0.0537842   0.0000000), wk =   0.1111111
        k(    7) = (   0.0310523   0.0896403   0.0000000), wk =   0.1111111
        k(    8) = (   0.0310523  -0.0896403   0.0000000), wk =   0.1111111
        k(    9) = (   0.0310523  -0.0537842   0.0000000), wk =   0.1111111
        k(   10) = (   0.0310523  -0.0179281   0.0000000), wk =   0.1111111
        k(   11) = (   0.0621046   0.0358561   0.0000000), wk =   0.1111111
        k(   12) = (   0.0621046   0.0717122   0.0000000), wk =   0.1111111
        k(   13) = (   0.0621046   0.1075683   0.0000000), wk =   0.1111111
        k(   14) = (   0.0621046  -0.0717122   0.0000000), wk =   0.1111111
        k(   15) = (   0.0621046  -0.0358561   0.0000000), wk =   0.1111111
        k(   16) = (   0.0621046   0.0000000   0.0000000), wk =   0.1111111
        k(   17) = (  -0.0931569  -0.0537842   0.0000000), wk =   0.0555556
        k(   18) = (  -0.0931569  -0.0179281   0.0000000), wk =   0.1111111
        k(   19) = (  -0.0931569   0.0179281   0.0000000), wk =   0.1111111
        k(   20) = (  -0.0931569  -0.1613525   0.0000000), wk =   0.0555556

     Largest allocated arrays     est. size (Mb)     dimensions
     Largest temporary arrays     est. size (Mb)     dimensions

     Initial potential from superposition of free atoms
     Check: negative starting charge=   -0.655444

     starting charge  188.99985, renormalised to  201.00000

[...]

     *
     * You are using vdW-DF for exchange-correlation in this calculation.
     * Please cite the following three references that made this development
     * possible:
     *
     *   M. Dion, H. Rydberg, E. Schroder, D. C. Langreth, and
     *   B. I. Lundqvist, Phys. Rev. Lett. 92, 246401 (2004).
     *
     *   T. Thonhauser, V. R. Cooper, S. Li, A. Puzder, P. Hyldgaard, and
     *   D. C. Langreth, Phys. Rev. B 76, 125112 (2007).
     *
     *   G. Roman-Perez and J. M. Soler, Phys. Rev. Lett. 103, 096102 (2009).
     *
     *
     * If you are using vdW-DF2, please also cite:
     *
     *   K. Lee, E. D. Murray, L. Kong, B. I. Lundqvist, and
     *   D. C. Langreth, Phys. Rev. B 82, 081101(R) (2010).
     *
     *
     * If you are calculating the stress with vdW-DF, please also cite:
     *
     *   R. Sabatini, E. Kucukbenli, B. Kolb, T. Thonhauser, and
     *   S. de Gironcoli, J. Phys.: Condens. Matter 24, 424209 (2012).
     *

     Carrying out vdW-DF run using the following parameters:

     Nqs =      20    Nr_points =    1024   r_max =   100.000
     q_mesh =
               0.00001000     0.04494208     0.09755937     0.15916263
               0.23128650     0.31572767     0.41458969     0.53033537
               0.66584808     0.82450364     1.01025438     1.22772762
               1.48234092     1.78043706     2.12944203     2.53805004
               3.01644009     3.57652955     4.23227104     5.00000000

     Gradients computed in reciprocal space

[...]

     Starting wfc are  156 randomized atomic wfcs

     Self-consistent Calculation

[...]

     total energy              =   -2970.55629070 Ry
     Harris-Foulkes estimate   =   -2970.55629193 Ry
     estimated scf accuracy    <       0.00000552 Ry

     iteration # 32     ecut=    36.75 Ry     beta=0.10
     Davidson diagonalization with overlap
     ethr =  2.50E-09,  avg # of iterations =  1.0

[...]

     negative rho (up, down):  6.796E-01 0.000E+00

     Adding external electric field

     Computed dipole along edir(3) :
        Dipole                0.0136 Ry au,          0.0346 Debye
        Dipole field          0.0000 Ry au

        Potential amp.       -0.0037 Ry
        Total length         44.9241 bohr

     End of self-consistent calculation

[...]

          k = 0.0621 0.0000 0.0000 ( 15442 PWs)   bands (ev):

[...]

          k =-0.0932-0.1614 0.0000 ( 15426 PWs)   bands (ev):

  -111.1256-110.8106-110.8016 -71.3337 -71.3038 -71.2736 -70.9697 -70.9349
   -70.9090 -70.9043 -70.8762 -70.8479 -68.5108 -68.5070 -68.5068 -68.2510
   -68.2508 -68.2418 -68.2416 -68.0844 -68.0730 -41.6029 -41.4871 -41.4048
   -41.3897 -41.2926 -41.2768 -41.2260 -41.2250 -41.2154 -41.1529 -40.9926
   -40.9788 -40.9416 -40.8981 -40.8892 -40.8606 -40.8354 -40.8241 -40.8034
   -40.7827 -40.7757 -40.7460 -40.7300 -40.7014 -40.6921 -40.6617 -40.6147
    -3.8426  -3.7214  -3.1095  -2.8590  -2.7414  -2.6969  -2.4970  -2.4142
    -2.3615  -2.3089  -2.2491  -2.0473  -1.9863  -1.9296  -1.8301  -1.7816
    -1.5960  -1.5274  -1.3723  -1.3532  -1.3223  -1.2736  -1.0197  -1.0003
    -0.9644  -0.9394  -0.8815  -0.7757  -0.7313  -0.6801  -0.5049  -0.4455
    -0.4117  -0.2185  -0.1953  -0.1160  -0.0899  -0.0522   0.0558   0.1078
     0.2583   0.3467   0.4350   0.5808   0.5919   0.5982   0.8463   0.9246
     1.0706   1.1663   1.2444   1.5809   1.6582   1.6680   1.7337   1.8234
     1.8587   1.9509   2.1086   2.2080   2.3321   2.7036   3.0686   3.6120
     4.0139   4.0444   4.4147   5.2953   5.8270   6.2328   6.2441   6.6160
     7.4896   7.7520   7.8582   7.8896   8.4577   8.5145   8.7224   8.7296
     9.7606   9.7842

     the Fermi energy is     1.7956 ev

!    total energy              =   -2970.55629195 Ry
     Harris-Foulkes estimate   =   -2970.55629108 Ry
     estimated scf accuracy    <       0.00000026 Ry

     The total energy is the sum of the following terms:

     one-electron contribution =  -25371.57796792 Ry
     hartree contribution      =   12688.73571319 Ry
     xc contribution           =    -361.34779263 Ry
     ewald contribution        =   10073.73886388 Ry
     electric field correction =       0.00000057 Ry
     smearing contrib. (-TS)   =      -0.10510903 Ry

     convergence has been achieved in  32 iterations

 BEEF-vdW xc energy contributions
           1 :   -315.751500797145
           2 :    288.711601074889
           3 :   -242.205003716027
           4 :    188.175021001023
           5 :   -138.360642964323
           6 :    100.463790529224
           7 :   -76.4969353267686
           8 :    63.6242400227471
           9 :   -56.6833831431634
          10 :    50.9624921801925
          11 :   -43.9710726808582
          12 :    35.6779316513584
          13 :   -27.5407810824869
          14 :    21.1486113153709
          15 :   -17.2595623461482
          16 :    15.5832174861393
          17 :   -15.1692048429850
          18 :    14.9973037722395
          19 :   -14.4034248869389
          20 :    13.1931573124236
          21 :   -11.5166078649822
          22 :    9.67470911652839
          23 :   -7.98363437691449
          24 :    6.71120918416835
          25 :   -6.02926601265449
          26 :    5.94525263708897
          27 :   -6.24846068487295
          28 :    6.54422421601419
          29 :   -6.41101071022791
          30 :    5.62251883923784
          31 :   -30.1455648894822
          32 :   -22.2210784024537

     Forces acting on atoms (Ry/au):

     negative rho (up, down):  6.796E-01 0.000E+00
     atom    1 type  1   force =    -0.00000436   -0.01518947    0.01378539
     atom    2 type  1   force =    -0.01315742    0.00759557    0.01378164
     atom    3 type  1   force =     0.01315413    0.00759865    0.01378382
     atom    4 type  2   force =    -0.00001437   -0.00000186   -0.00208689
     atom    5 type  1   force =    -0.00000088    0.00491326   -0.01038077
     atom    6 type  1   force =     0.00424275   -0.00245087   -0.01037527
     atom    7 type  1   force =    -0.00425182   -0.00245516   -0.01037981
     atom    8 type  2   force =     0.00000869   -0.00001343   -0.00573159
     atom    9 type  1   force =     0.00001234   -0.00086078   -0.00048444
     atom   10 type  1   force =    -0.00074787    0.00043904   -0.00047910
     atom   11 type  1   force =     0.00074926    0.00042572   -0.00047841
     atom   12 type  2   force =     0.00000955   -0.00000068   -0.00095457

     Total force =     0.041215     Total SCF correction =     0.002215

     entering subroutine stress ...

     negative rho (up, down):  6.796E-01 0.000E+00
          total   stress  (Ry/bohr**3)                   (kbar)     P=  -23.37
  -0.00020700  -0.00000001   0.00000002        -30.45     -0.00      0.00
  -0.00000001  -0.00020701  -0.00000001         -0.00    -30.45     -0.00
   0.00000002  -0.00000001  -0.00006259          0.00     -0.00     -9.21

 !ASE

     Writing output data file calc.save

     General routines

     Parallel routines

   This run was terminated on:   1:32:31   1Jan2019

   JOB DONE.
Job  /afs/slac/g/suncat/bin/suncat-tsmpirun -x LD_LIBRARY_PATH -wdir /scratch/qe648909_nQNJ3 pw.x -in pw.inp

TID   HOST_NAME   COMMAND_LINE            STATUS            TERMINATION_TIME
00000 suncat0146 pw.x -in pw.inp   Done                     01/01/2019 01:32:31
00001 suncat0146 pw.x -in pw.inp   Done                     01/01/2019 01:32:31
00002 suncat0146 pw.x -in pw.inp   Done                     01/01/2019 01:32:31
00003 suncat0146 pw.x -in pw.inp   Done                     01/01/2019 01:32:31
00004 suncat0146 pw.x -in pw.inp   Done                     01/01/2019 01:32:31
00005 suncat0146 pw.x -in pw.inp   Done                     01/01/2019 01:32:31
00006 suncat0146 pw.x -in pw.inp   Done                     01/01/2019 01:32:31
00007 suncat0146 pw.x -in pw.inp   Done                     01/01/2019 01:32:31
00008 suncat0136 pw.x -in pw.inp   Done                     01/01/2019 01:32:31
00009 suncat0136 pw.x -in pw.inp   Done                     01/01/2019 01:32:31
00010 suncat0136 pw.x -in pw.inp   Done                     01/01/2019 01:32:31
00011 suncat0136 pw.x -in pw.inp   Done                     01/01/2019 01:32:31
00012 suncat0136 pw.x -in pw.inp   Done                     01/01/2019 01:32:31
00013 suncat0136 pw.x -in pw.inp   Done                     01/01/2019 01:32:31
00014 suncat0136 pw.x -in pw.inp   Done                     01/01/2019 01:32:31
00015 suncat0136 pw.x -in pw.inp   Done                     01/01/2019 01:32:31
00016 suncat0248 pw.x -in pw.inp   Done                     01/01/2019 01:32:31
00017 suncat0248 pw.x -in pw.inp   Done                     01/01/2019 01:32:31
00018 suncat0248 pw.x -in pw.inp   Done                     01/01/2019 01:32:31
00019 suncat0248 pw.x -in pw.inp   Done                     01/01/2019 01:32:31
00020 suncat0248 pw.x -in pw.inp   Done                     01/01/2019 01:32:31
00021 suncat0248 pw.x -in pw.inp   Done                     01/01/2019 01:32:31
00022 suncat0248 pw.x -in pw.inp   Done                     01/01/2019 01:32:31
00023 suncat0248 pw.x -in pw.inp   Done                     01/01/2019 01:32:31
00024 suncat0247 pw.x -in pw.inp   Done                     01/01/2019 01:32:31
00025 suncat0247 pw.x -in pw.inp   Done                     01/01/2019 01:32:31
00026 suncat0247 pw.x -in pw.inp   Done                     01/01/2019 01:32:31
00027 suncat0247 pw.x -in pw.inp   Done                     01/01/2019 01:32:31
00028 suncat0247 pw.x -in pw.inp   Done                     01/01/2019 01:32:31
00029 suncat0247 pw.x -in pw.inp   Done                     01/01/2019 01:32:31
00030 suncat0247 pw.x -in pw.inp   Done                     01/01/2019 01:32:31
00031 suncat0247 pw.x -in pw.inp   Done                     01/01/2019 01:32:31
00032 suncat0246 pw.x -in pw.inp   Done                     01/01/2019 01:32:31
00033 suncat0246 pw.x -in pw.inp   Done                     01/01/2019 01:32:31
00034 suncat0246 pw.x -in pw.inp   Done                     01/01/2019 01:32:31
00035 suncat0246 pw.x -in pw.inp   Done                     01/01/2019 01:32:31
00036 suncat0246 pw.x -in pw.inp   Done                     01/01/2019 01:32:31
00037 suncat0246 pw.x -in pw.inp   Done                     01/01/2019 01:32:31
00038 suncat0246 pw.x -in pw.inp   Done                     01/01/2019 01:32:31
00039 suncat0246 pw.x -in pw.inp   Done                     01/01/2019 01:32:31
00040 suncat0245 pw.x -in pw.inp   Done                     01/01/2019 01:32:31
00041 suncat0245 pw.x -in pw.inp   Done                     01/01/2019 01:32:31
00042 suncat0245 pw.x -in pw.inp   Done                     01/01/2019 01:32:31
00043 suncat0245 pw.x -in pw.inp   Done                     01/01/2019 01:32:31
00044 suncat0245 pw.x -in pw.inp   Done                     01/01/2019 01:32:31
00045 suncat0245 pw.x -in pw.inp   Done                     01/01/2019 01:32:31
00046 suncat0245 pw.x -in pw.inp   Done                     01/01/2019 01:32:31
00047 suncat0245 pw.x -in pw.inp   Done                     01/01/2019 01:32:31
00048 suncat0214 pw.x -in pw.inp   Done                     01/01/2019 01:32:31
00049 suncat0214 pw.x -in pw.inp   Done                     01/01/2019 01:32:31
00050 suncat0214 pw.x -in pw.inp   Done                     01/01/2019 01:32:31
00051 suncat0214 pw.x -in pw.inp   Done                     01/01/2019 01:32:31
00052 suncat0214 pw.x -in pw.inp   Done                     01/01/2019 01:32:31
00053 suncat0214 pw.x -in pw.inp   Done                     01/01/2019 01:32:31
00054 suncat0214 pw.x -in pw.inp   Done                     01/01/2019 01:32:31
00055 suncat0214 pw.x -in pw.inp   Done                     01/01/2019 01:32:31
00056 suncat0213 pw.x -in pw.inp   Done                     01/01/2019 01:32:31
00057 suncat0213 pw.x -in pw.inp   Done                     01/01/2019 01:32:31
00058 suncat0213 pw.x -in pw.inp   Done                     01/01/2019 01:32:31
00059 suncat0213 pw.x -in pw.inp   Done                     01/01/2019 01:32:31
00060 suncat0213 pw.x -in pw.inp   Done                     01/01/2019 01:32:31
00061 suncat0213 pw.x -in pw.inp   Done                     01/01/2019 01:32:31
00062 suncat0213 pw.x -in pw.inp   Done                     01/01/2019 01:32:31
00063 suncat0213 pw.x -in pw.inp   Done                     01/01/2019 01:32:31