     Program PWSCF v.5.1rc2 (svn rev. 11289) starts on 20Dec2018 at  6:32:31

     Current dimensions of program PWSCF are:
     Max number of different atomic species (ntypx) = 10
     Max number of k-points (npk) =  40000
     Max angular momentum in pseudopotentials (lmaxx) =  3
     Presently stress not available with electric field

     IMPORTANT: XC functional enforced from input :
     Exchange-correlation      = BEEF-VDW ( 1  4 27 13 2)
     Any further DFT definition will be discarded
     Please, verify this is what you really want

     Subspace diagonalization in iterative solution of the eigenvalue problem:
     a serial algorithm will be used

     Generating pointlists ...
     new r_m :   0.4125 (alat units)  0.7795 (a.u.) for type    1
     new r_m :   0.4125 (alat units)  0.7795 (a.u.) for type    2

     bravais-lattice index     =            0
     lattice parameter (alat)  =       1.8897  a.u.
     unit-cell volume          =    3941.0268 (a.u.)^3
     number of atoms/cell      =           12
     number of atomic types    =            2
     number of electrons       =       192.00
     number of Kohn-Sham states=          126
     kinetic-energy cutoff     =      36.7493  Ry
     charge density cutoff     =     367.4932  Ry
     convergence threshold     =      1.0E-06
     mixing beta               =       0.1000
     number of iterations used =           10  plain     mixing
     Exchange-correlation      = BEEF-VDW ( 1  4 27 13 2)
     nstep                     =           50

     celldm(1)=   1.889726  celldm(2)=   0.000000  celldm(3)=   0.000000
     celldm(4)=   0.000000  celldm(5)=   0.000000  celldm(6)=   0.000000

     crystal axes: (cart. coord. in units of alat)
               a(1) = (   5.267783   0.000000   0.000000 )
               a(2) = (  -2.633891   4.562034   0.000000 )
               a(3) = (   0.000000   0.000000  24.301127 )

     reciprocal axes: (cart. coord. in units 2 pi/alat)
               b(1) = (  0.189833  0.109600  0.000000 )
               b(2) = (  0.000000  0.219200  0.000000 )
               b(3) = (  0.000000  0.000000  0.041150 )

     PseudoPot. # 1 for Co read from file:
     /afs/slac.stanford.edu/u/if/mamunm/psp/gbrv1.5pbe/Co.UPF
     MD5 check sum: 5f91765df6ddd3222702df6e7b74a16d
     Pseudo is Ultrasoft + core correction, Zval = 17.0
     Generated by new atomic code, or converted to UPF format
     Using radial grid of  863 points,  6 beta functions with:
                l(1) =   0
                l(2) =   0
                l(3) =   1
                l(4) =   1
                l(5) =   2
                l(6) =   2
     Q(r) pseudized with  8 coefficients,  rinner =    1.200   1.200   1.200
                                                       1.200   1.200

     PseudoPot. # 2 for In read from file:
     /afs/slac.stanford.edu/u/if/mamunm/psp/gbrv1.5pbe/In.UPF
     MD5 check sum: 90777abd96fbb83f2e67db2a40c566b9
     Pseudo is Ultrasoft + core correction, Zval = 13.0
     Generated by new atomic code, or converted to UPF format
     Using radial grid of  889 points,  6 beta functions with:
                l(1) =   0
                l(2) =   0
                l(3) =   1
                l(4) =   1
                l(5) =   2
                l(6) =   2
     Q(r) pseudized with  6 coefficients,  rinner =    1.400   1.400   1.400
                                                       1.400   1.400

     vdW kernel table read from file vdW_kernel_table
     MD5 check sum: 095c7af220d748ca6e76c0b4c6cfb241

     atomic species   valence    mass     pseudopotential
        Co1           17.00    58.93319     Co( 1.00)
        In1           13.00   114.81800     In( 1.00)

     Starting magnetic structure
     atomic species   magnetization
        Co1          0.118
        In1          0.154

     No symmetry found

   Cartesian axes

     site n.     atom                  positions (alat units)
         1           Co1 tau(   1) = (   0.0000000   0.0000000  10.0000000  )
         2           Co1 tau(   2) = (  -1.3169457   2.2810169  10.0000000  )
         3           Co1 tau(   3) = (   1.3169457   2.2810169  10.0000000  )
         4           In1 tau(   4) = (   2.6338915   0.0000000  10.0000000  )
         5           Co1 tau(   5) = (   2.6338915   1.5206780  12.1505634  )
         6           Co1 tau(   6) = (   1.3169457   3.8016949  12.1505634  )
         7           Co1 tau(   7) = (  -1.3169457   3.8016949  12.1505634  )
         8           In1 tau(   8) = (   0.0000000   1.5206780  12.1505634  )
         9           Co1 tau(   9) = (  -0.0000000   3.0413559  14.3011268  )
        10           Co1 tau(  10) = (   1.3169457   0.7603390  14.3011268  )
        11           Co1 tau(  11) = (   3.9508372   0.7603390  14.3011268  )
        12           In1 tau(  12) = (   2.6338915   3.0413559  14.3011268  )

     number of k points=    40  Fermi-Dirac smearing, width (Ry)=  0.0110
                       cart. coord. in units 2pi/alat
        k(    1) = (   0.0000000   0.0000000   0.0000000), wk =   0.0277778
        k(    2) = (   0.0000000   0.0365334   0.0000000), wk =   0.0555556
        k(    3) = (   0.0000000   0.0730668   0.0000000), wk =   0.0555556
        k(    4) = (   0.0000000  -0.1096002   0.0000000), wk =   0.0277778
        k(    5) = (   0.0316389   0.0182667   0.0000000), wk =   0.0555556
        k(    6) = (   0.0316389   0.0548001   0.0000000), wk =   0.0555556
        k(    7) = (   0.0316389   0.0913335   0.0000000), wk =   0.0555556
        k(    8) = (   0.0316389  -0.0913335   0.0000000), wk =   0.0555556
        k(    9) = (   0.0316389  -0.0548001   0.0000000), wk =   0.0555556
        k(   10) = (   0.0316389  -0.0182667   0.0000000), wk =   0.0555556
        k(   11) = (   0.0632777   0.0365334   0.0000000), wk =   0.0555556
        k(   12) = (   0.0632777   0.0730668   0.0000000), wk =   0.0555556
        k(   13) = (   0.0632777   0.1096002   0.0000000), wk =   0.0555556
        k(   14) = (   0.0632777  -0.0730668   0.0000000), wk =   0.0555556
        k(   15) = (   0.0632777  -0.0365334   0.0000000), wk =   0.0555556
        k(   16) = (   0.0632777   0.0000000   0.0000000), wk =   0.0555556
        k(   17) = (  -0.0949166  -0.0548001   0.0000000), wk =   0.0277778
        k(   18) = (  -0.0949166  -0.0182667   0.0000000), wk =   0.0555556
        k(   19) = (  -0.0949166   0.0182667   0.0000000), wk =   0.0555556
        k(   20) = (  -0.0949166  -0.1644004   0.0000000), wk =   0.0277778
        k(   21) = (   0.0000000   0.0000000   0.0000000), wk =   0.0277778
        k(   22) = (   0.0000000   0.0365334   0.0000000), wk =   0.0555556
        k(   23) = (   0.0000000   0.0730668   0.0000000), wk =   0.0555556
        k(   24) = (   0.0000000  -0.1096002   0.0000000), wk =   0.0277778
        k(   25) = (   0.0316389   0.0182667   0.0000000), wk =   0.0555556
        k(   26) = (   0.0316389   0.0548001   0.0000000), wk =   0.0555556
        k(   27) = (   0.0316389   0.0913335   0.0000000), wk =   0.0555556
        k(   28) = (   0.0316389  -0.0913335   0.0000000), wk =   0.0555556
        k(   29) = (   0.0316389  -0.0548001   0.0000000), wk =   0.0555556
        k(   30) = (   0.0316389  -0.0182667   0.0000000), wk =   0.0555556
        k(   31) = (   0.0632777   0.0365334   0.0000000), wk =   0.0555556
        k(   32) = (   0.0632777   0.0730668   0.0000000), wk =   0.0555556
        k(   33) = (   0.0632777   0.1096002   0.0000000), wk =   0.0555556
        k(   34) = (   0.0632777  -0.0730668   0.0000000), wk =   0.0555556
        k(   35) = (   0.0632777  -0.0365334   0.0000000), wk =   0.0555556
        k(   36) = (   0.0632777   0.0000000   0.0000000), wk =   0.0555556
        k(   37) = (  -0.0949166  -0.0548001   0.0000000), wk =   0.0277778
        k(   38) = (  -0.0949166  -0.0182667   0.0000000), wk =   0.0555556
        k(   39) = (  -0.0949166   0.0182667   0.0000000), wk =   0.0555556
        k(   40) = (  -0.0949166  -0.1644004   0.0000000), wk =   0.0277778

     Largest allocated arrays     est. size (Mb)     dimensions
     Largest temporary arrays     est. size (Mb)     dimensions

     Check: negative/imaginary core charge=   -0.000005    0.000000

     Initial potential from superposition of free atoms
     Check: negative starting charge=(component1):   -0.000199
     Check: negative starting charge=(component2):   -0.000157

     starting charge  178.49994, renormalised to  192.00000

     negative rho (up, down):  2.142E-04 1.685E-04

     *
     * You are using vdW-DF for exchange-correlation in this calculation.
     * Please cite the following three references that made this development
     * possible:
     *
     *   M. Dion, H. Rydberg, E. Schroder, D. C. Langreth, and
     *   B. I. Lundqvist, Phys. Rev. Lett. 92, 246401 (2004).
     *
     *   T. Thonhauser, V. R. Cooper, S. Li, A. Puzder, P. Hyldgaard, and
     *   D. C. Langreth, Phys. Rev. B 76, 125112 (2007).
     *
     *   G. Roman-Perez and J. M. Soler, Phys. Rev. Lett. 103, 096102 (2009).
     *
     *
     * If you are using vdW-DF2, please also cite:
     *
     *   K. Lee, E. D. Murray, L. Kong, B. I. Lundqvist, and
     *   D. C. Langreth, Phys. Rev. B 82, 081101(R) (2010).
     *
     *
     * If you are calculating the stress with vdW-DF, please also cite:
     *
     *   R. Sabatini, E. Kucukbenli, B. Kolb, T. Thonhauser, and
     *   S. de Gironcoli, J. Phys.: Condens. Matter 24, 424209 (2012).
     *

     Carrying out vdW-DF run using the following parameters:

     Nqs =      20    Nr_points =    1024   r_max =   100.000
     q_mesh =
               0.00001000     0.04494208     0.09755937     0.15916263
               0.23128650     0.31572767     0.41458969     0.53033537
               0.66584808     0.82450364     1.01025438     1.22772762
               1.48234092     1.78043706     2.12944203     2.53805004
               3.01644009     3.57652955     4.23227104     5.00000000

     Gradients computed in reciprocal space

     Adding external electric field

     Computed dipole along edir(3) :
        Dipole                0.0000 Ry au,          0.0000 Debye
        Dipole field          0.0000 Ry au

        Potential amp.       -0.0000 Ry
        Total length         44.7744 bohr

[...]

     Starting wfc are  144 randomized atomic wfcs

     Self-consistent Calculation

     iteration #  1     ecut=    36.75 Ry     beta=0.10
     Davidson diagonalization with overlap
     ethr =  1.00E-02,  avg # of iterations =  8.1

[...]

     Magnetic moment per site:
     atom:    1    charge:    8.5225    magn:    0.9559    constr:    0.0000
     atom:    2    charge:    8.5225    magn:    0.9559    constr:    0.0000
     atom:    3    charge:    8.5224    magn:    0.9559    constr:    0.0000
     atom:    4    charge:    3.2415    magn:    0.4574    constr:    0.0000
     atom:    5    charge:    8.5234    magn:    0.9542    constr:    0.0000
     atom:    6    charge:    8.5234    magn:    0.9542    constr:    0.0000
     atom:    7    charge:    8.5235    magn:    0.9542    constr:    0.0000
     atom:    8    charge:    3.2406    magn:    0.4571    constr:    0.0000
[...]
        k(    4) = (   0.0000000  -0.1096002   0.0000000), wk =   0.0277778
        k(    5) = (   0.0316389   0.0182667   0.0000000), wk =   0.0555556
        k(    6) = (   0.0316389   0.0548001   0.0000000), wk =   0.0555556
        k(    7) = (   0.0316389   0.0913335   0.0000000), wk =   0.0555556
        k(    8) = (   0.0316389  -0.0913335   0.0000000), wk =   0.0555556
        k(    9) = (   0.0316389  -0.0548001   0.0000000), wk =   0.0555556
        k(   10) = (   0.0316389  -0.0182667   0.0000000), wk =   0.0555556
        k(   11) = (   0.0632777   0.0365334   0.0000000), wk =   0.0555556
        k(   12) = (   0.0632777   0.0730668   0.0000000), wk =   0.0555556
        k(   13) = (   0.0632777   0.1096002   0.0000000), wk =   0.0555556
        k(   14) = (   0.0632777  -0.0730668   0.0000000), wk =   0.0555556
        k(   15) = (   0.0632777  -0.0365334   0.0000000), wk =   0.0555556
        k(   16) = (   0.0632777   0.0000000   0.0000000), wk =   0.0555556
        k(   17) = (  -0.0949166  -0.0548001   0.0000000), wk =   0.0277778
        k(   18) = (  -0.0949166  -0.0182667   0.0000000), wk =   0.0555556
        k(   19) = (  -0.0949166   0.0182667   0.0000000), wk =   0.0555556
        k(   20) = (  -0.0949166  -0.1644004   0.0000000), wk =   0.0277778
        k(   21) = (   0.0000000   0.0000000   0.0000000), wk =   0.0277778
        k(   22) = (   0.0000000   0.0365334   0.0000000), wk =   0.0555556
        k(   23) = (   0.0000000   0.0730668   0.0000000), wk =   0.0555556
        k(   24) = (   0.0000000  -0.1096002   0.0000000), wk =   0.0277778
        k(   25) = (   0.0316389   0.0182667   0.0000000), wk =   0.0555556
        k(   26) = (   0.0316389   0.0548001   0.0000000), wk =   0.0555556
        k(   27) = (   0.0316389   0.0913335   0.0000000), wk =   0.0555556
        k(   28) = (   0.0316389  -0.0913335   0.0000000), wk =   0.0555556
        k(   29) = (   0.0316389  -0.0548001   0.0000000), wk =   0.0555556
        k(   30) = (   0.0316389  -0.0182667   0.0000000), wk =   0.0555556
        k(   31) = (   0.0632777   0.0365334   0.0000000), wk =   0.0555556
        k(   32) = (   0.0632777   0.0730668   0.0000000), wk =   0.0555556
        k(   33) = (   0.0632777   0.1096002   0.0000000), wk =   0.0555556
        k(   34) = (   0.0632777  -0.0730668   0.0000000), wk =   0.0555556
        k(   35) = (   0.0632777  -0.0365334   0.0000000), wk =   0.0555556
        k(   36) = (   0.0632777   0.0000000   0.0000000), wk =   0.0555556
        k(   37) = (  -0.0949166  -0.0548001   0.0000000), wk =   0.0277778
        k(   38) = (  -0.0949166  -0.0182667   0.0000000), wk =   0.0555556
        k(   39) = (  -0.0949166   0.0182667   0.0000000), wk =   0.0555556
        k(   40) = (  -0.0949166  -0.1644004   0.0000000), wk =   0.0277778

     Largest allocated arrays     est. size (Mb)     dimensions
     Largest temporary arrays     est. size (Mb)     dimensions

     Check: negative/imaginary core charge=   -0.000005    0.000000

     Initial potential from superposition of free atoms
     Check: negative starting charge=(component1):   -0.000195
     Check: negative starting charge=(component2):   -0.000154

     starting charge  178.49994, renormalised to  192.00000

[...]

     *
     * You are using vdW-DF for exchange-correlation in this calculation.
     * Please cite the following three references that made this development
     * possible:
     *
     *   M. Dion, H. Rydberg, E. Schroder, D. C. Langreth, and
     *   B. I. Lundqvist, Phys. Rev. Lett. 92, 246401 (2004).
     *
     *   T. Thonhauser, V. R. Cooper, S. Li, A. Puzder, P. Hyldgaard, and
     *   D. C. Langreth, Phys. Rev. B 76, 125112 (2007).
     *
     *   G. Roman-Perez and J. M. Soler, Phys. Rev. Lett. 103, 096102 (2009).
     *
     *
     * If you are using vdW-DF2, please also cite:
     *
     *   K. Lee, E. D. Murray, L. Kong, B. I. Lundqvist, and
     *   D. C. Langreth, Phys. Rev. B 82, 081101(R) (2010).
     *
     *
     * If you are calculating the stress with vdW-DF, please also cite:
     *
     *   R. Sabatini, E. Kucukbenli, B. Kolb, T. Thonhauser, and
     *   S. de Gironcoli, J. Phys.: Condens. Matter 24, 424209 (2012).
     *

     Carrying out vdW-DF run using the following parameters:

     Nqs =      20    Nr_points =    1024   r_max =   100.000
     q_mesh =
               0.00001000     0.04494208     0.09755937     0.15916263
               0.23128650     0.31572767     0.41458969     0.53033537
               0.66584808     0.82450364     1.01025438     1.22772762
               1.48234092     1.78043706     2.12944203     2.53805004
               3.01644009     3.57652955     4.23227104     5.00000000

     Gradients computed in reciprocal space

[...]

     Starting wfc are  144 randomized atomic wfcs

     Self-consistent Calculation

[...]

     total energy              =   -3099.90791715 Ry
     Harris-Foulkes estimate   =   -3099.90791692 Ry
     estimated scf accuracy    <       0.00000515 Ry

[...]

     iteration # 36     ecut=    36.75 Ry     beta=0.10
     Davidson diagonalization with overlap
     ethr =  2.27E-09,  avg # of iterations =  1.0

[...]

     negative rho (up, down):  5.753E-04 3.941E-04

[...]

     Adding external electric field

     Computed dipole along edir(3) :
        Dipole                0.0551 Ry au,          0.1400 Debye
        Dipole field          0.0002 Ry au

        Potential amp.       -0.0157 Ry
        Total length         44.7744 bohr

     Magnetic moment per site:
     atom:    1    charge:    8.3011    magn:    0.8919    constr:    0.0000
     atom:    2    charge:    8.3011    magn:    0.8920    constr:    0.0000
     atom:    3    charge:    8.3012    magn:    0.8919    constr:    0.0000
     atom:    4    charge:    3.0786    magn:   -0.0034    constr:    0.0000
     atom:    5    charge:    8.2949    magn:    0.8563    constr:    0.0000
     atom:    6    charge:    8.2949    magn:    0.8563    constr:    0.0000
     atom:    7    charge:    8.2951    magn:    0.8562    constr:    0.0000
     atom:    8    charge:    3.0818    magn:   -0.0052    constr:    0.0000
     atom:    9    charge:    8.2904    magn:    0.9006    constr:    0.0000
     atom:   10    charge:    8.2905    magn:    0.9006    constr:    0.0000
     atom:   11    charge:    8.2904    magn:    0.9006    constr:    0.0000
     atom:   12    charge:    3.0735    magn:   -0.0036    constr:    0.0000

     End of self-consistent calculation

 ------ SPIN UP ------------

[...]

 ------ SPIN DOWN ----------

[...]

          k = 0.0633 0.0000 0.0000 ( 14837 PWs)   bands (ev):

[...]

          k =-0.0949-0.1644 0.0000 ( 14814 PWs)   bands (ev):

   -92.9777 -92.9728 -92.9683 -92.8980 -92.8812 -92.8790 -92.7988 -92.7943
   -92.7899 -56.3832 -56.3666 -56.3636 -56.3577 -56.3542 -56.3423 -56.3362
   -56.3216 -56.3080 -56.2919 -56.2891 -56.2615 -56.2448 -56.2258 -56.2111
   -56.2039 -56.1975 -56.1965 -56.1874 -56.1802 -56.1788 -56.1639 -56.1542
   -56.1222 -56.1078 -56.1006 -56.0867 -13.7124 -13.6886 -13.6751 -13.6574
   -13.6456 -13.4922 -13.4676 -13.4622 -13.4597 -13.4352 -13.4346 -13.4294
   -13.4221 -13.4177 -13.4011  -6.7830  -6.1770  -4.9603  -4.1877  -3.0393
    -2.9968  -2.8051  -1.8181  -1.6093  -1.4913  -1.2809  -1.1614  -1.0644
    -0.9519  -0.8732  -0.7168  -0.6811  -0.5837  -0.4620  -0.4484  -0.4098
    -0.3495  -0.1756  -0.1520  -0.1117  -0.0380   0.0689   0.1962   0.2271
     0.3043   0.3919   0.4021   0.4967   0.8020   0.8304   0.8420   0.8833
     0.9578   0.9603   1.0421   1.1059   1.1564   1.1660   1.2128   1.2832
     1.4603   1.5402   1.5622   1.7213   1.8744   1.8962   2.0097   2.5881
     2.7352   2.9547   3.1837   3.8220   4.2934   4.5192   5.8166   6.2335
     6.7654   6.7864   6.8746   7.1866   7.2357   7.3040   7.5978   7.6871
     7.9291   8.1135   8.1498   8.2073   8.3920   8.6040

     the Fermi energy is     1.0267 ev

!    total energy              =   -3099.90791767 Ry
     Harris-Foulkes estimate   =   -3099.90791733 Ry
     estimated scf accuracy    <       0.00000099 Ry

     The total energy is the sum of the following terms:

     one-electron contribution =  -24521.02996771 Ry
     hartree contribution      =   12287.95324703 Ry
     xc contribution           =    -421.80264598 Ry
     ewald contribution        =    9555.06518086 Ry
     electric field correction =       0.00000968 Ry
     smearing contrib. (-TS)   =      -0.09374155 Ry

     total magnetization       =    13.85 Bohr mag/cell
     absolute magnetization    =    15.96 Bohr mag/cell

     convergence has been achieved in  36 iterations

 BEEF-vdW xc energy contributions
           1 :   -371.061456179559
           2 :    337.383849244366
           3 :   -280.118503551412
           4 :    214.768150721415
           5 :   -155.671396131598
           6 :    110.850810644146
           7 :   -80.5845927954403
           8 :    59.7755961780089
           9 :   -42.2794058471176
          10 :    24.5814414313684
          11 :   -7.03351995837187
          12 :   -7.50650642579683
          13 :    16.2755810168771
          14 :   -18.6583364810180
          15 :    16.5384324454022
          16 :   -13.0426802011854
          17 :    10.7065457447453
          18 :   -10.2869533461481
          19 :    10.8321526034360
          20 :   -10.7667213258692
          21 :    9.14447584521264
          22 :   -6.26580476335096
          23 :    3.36184921735082
          24 :   -1.69880559417351
          25 :    1.75854144279162
          26 :   -3.02133705601938
          27 :    4.40273588260305
          28 :   -4.98389183921182
          29 :    4.52884089879467
          30 :   -3.50254725009489
          31 :   -31.9787962878567
          32 :   -22.5311657748256

     Forces acting on atoms (Ry/au):

     negative rho (up, down):  5.753E-04 3.941E-04
     atom    1 type  1   force =    -0.00004434   -0.02166561    0.01012595
     atom    2 type  1   force =    -0.01878594    0.01081164    0.01012895
     atom    3 type  1   force =     0.01877510    0.01085688    0.01016360
     atom    4 type  2   force =     0.00000804    0.00000780   -0.06583965
     atom    5 type  1   force =     0.00004011    0.01937046    0.01079354
     atom    6 type  1   force =     0.01675689   -0.00966086    0.01084064
     atom    7 type  1   force =    -0.01677432   -0.00971771    0.01073558
     atom    8 type  2   force =    -0.00002303    0.00000663    0.00013836
     atom    9 type  1   force =     0.00012146    0.00000257    0.00065616
     atom   10 type  1   force =     0.00003722    0.00004467    0.00064377
     atom   11 type  1   force =    -0.00000478   -0.00007691    0.00056905
     atom   12 type  2   force =    -0.00010641    0.00002046    0.00104405

     Total force =     0.086773     Total SCF correction =     0.003694

     entering subroutine stress ...

     negative rho (up, down):  5.753E-04 3.941E-04
          total   stress  (Ry/bohr**3)                   (kbar)     P=   -5.56
  -0.00006319   0.00000001  -0.00000003         -9.30      0.00     -0.00
   0.00000001  -0.00006321   0.00000000          0.00     -9.30      0.00
  -0.00000003   0.00000000   0.00001301         -0.00      0.00      1.91

 !ASE

     Writing output data file calc.save

     General routines

     Parallel routines

   This run was terminated on:  11:20:20  20Dec2018

   JOB DONE.
Job  /afs/slac/g/suncat/bin/suncat-tsmpirun -x LD_LIBRARY_PATH -wdir /scratch/qe773512_J1GTh pw.x -in pw.inp

TID   HOST_NAME   COMMAND_LINE            STATUS            TERMINATION_TIME
00000 suncat0031 pw.x -in pw.inp   Done                     12/20/2018 11:20:20
00001 suncat0031 pw.x -in pw.inp   Done                     12/20/2018 11:20:20
00002 suncat0031 pw.x -in pw.inp   Done                     12/20/2018 11:20:20
00003 suncat0031 pw.x -in pw.inp   Done                     12/20/2018 11:20:20
00004 suncat0031 pw.x -in pw.inp   Done                     12/20/2018 11:20:20
00005 suncat0031 pw.x -in pw.inp   Done                     12/20/2018 11:20:20
00006 suncat0031 pw.x -in pw.inp   Done                     12/20/2018 11:20:20
00007 suncat0031 pw.x -in pw.inp   Done                     12/20/2018 11:20:20
00008 suncat0030 pw.x -in pw.inp   Done                     12/20/2018 11:20:20
00009 suncat0030 pw.x -in pw.inp   Done                     12/20/2018 11:20:20
00010 suncat0030 pw.x -in pw.inp   Done                     12/20/2018 11:20:20
00011 suncat0030 pw.x -in pw.inp   Done                     12/20/2018 11:20:20
00012 suncat0030 pw.x -in pw.inp   Done                     12/20/2018 11:20:20
00013 suncat0030 pw.x -in pw.inp   Done                     12/20/2018 11:20:20
00014 suncat0030 pw.x -in pw.inp   Done                     12/20/2018 11:20:20
00015 suncat0030 pw.x -in pw.inp   Done                     12/20/2018 11:20:20
00016 suncat0029 pw.x -in pw.inp   Done                     12/20/2018 11:20:20
00017 suncat0029 pw.x -in pw.inp   Done                     12/20/2018 11:20:20
00018 suncat0029 pw.x -in pw.inp   Done                     12/20/2018 11:20:20
00019 suncat0029 pw.x -in pw.inp   Done                     12/20/2018 11:20:20
00020 suncat0029 pw.x -in pw.inp   Done                     12/20/2018 11:20:20
00021 suncat0029 pw.x -in pw.inp   Done                     12/20/2018 11:20:20
00022 suncat0029 pw.x -in pw.inp   Done                     12/20/2018 11:20:20
00023 suncat0029 pw.x -in pw.inp   Done                     12/20/2018 11:20:20
00024 suncat0028 pw.x -in pw.inp   Done                     12/20/2018 11:20:20
00025 suncat0028 pw.x -in pw.inp   Done                     12/20/2018 11:20:20
00026 suncat0028 pw.x -in pw.inp   Done                     12/20/2018 11:20:20
00027 suncat0028 pw.x -in pw.inp   Done                     12/20/2018 11:20:20
00028 suncat0028 pw.x -in pw.inp   Done                     12/20/2018 11:20:20
00029 suncat0028 pw.x -in pw.inp   Done                     12/20/2018 11:20:20
00030 suncat0028 pw.x -in pw.inp   Done                     12/20/2018 11:20:20
00031 suncat0028 pw.x -in pw.inp   Done                     12/20/2018 11:20:20
00032 suncat0016 pw.x -in pw.inp   Done                     12/20/2018 11:20:20
00033 suncat0016 pw.x -in pw.inp   Done                     12/20/2018 11:20:20
00034 suncat0016 pw.x -in pw.inp   Done                     12/20/2018 11:20:20
00035 suncat0016 pw.x -in pw.inp   Done                     12/20/2018 11:20:20
00036 suncat0016 pw.x -in pw.inp   Done                     12/20/2018 11:20:20
00037 suncat0016 pw.x -in pw.inp   Done                     12/20/2018 11:20:20
00038 suncat0016 pw.x -in pw.inp   Done                     12/20/2018 11:20:20
00039 suncat0016 pw.x -in pw.inp   Done                     12/20/2018 11:20:20
00040 suncat0015 pw.x -in pw.inp   Done                     12/20/2018 11:20:20
00041 suncat0015 pw.x -in pw.inp   Done                     12/20/2018 11:20:20
00042 suncat0015 pw.x -in pw.inp   Done                     12/20/2018 11:20:20
00043 suncat0015 pw.x -in pw.inp   Done                     12/20/2018 11:20:20
00044 suncat0015 pw.x -in pw.inp   Done                     12/20/2018 11:20:20
00045 suncat0015 pw.x -in pw.inp   Done                     12/20/2018 11:20:20
00046 suncat0015 pw.x -in pw.inp   Done                     12/20/2018 11:20:20
00047 suncat0015 pw.x -in pw.inp   Done                     12/20/2018 11:20:20
00048 suncat0014 pw.x -in pw.inp   Done                     12/20/2018 11:20:20
00049 suncat0014 pw.x -in pw.inp   Done                     12/20/2018 11:20:20
00050 suncat0014 pw.x -in pw.inp   Done                     12/20/2018 11:20:20
00051 suncat0014 pw.x -in pw.inp   Done                     12/20/2018 11:20:20
00052 suncat0014 pw.x -in pw.inp   Done                     12/20/2018 11:20:20
00053 suncat0014 pw.x -in pw.inp   Done                     12/20/2018 11:20:20
00054 suncat0014 pw.x -in pw.inp   Done                     12/20/2018 11:20:20
00055 suncat0014 pw.x -in pw.inp   Done                     12/20/2018 11:20:20
00056 suncat0192 pw.x -in pw.inp   Done                     12/20/2018 11:20:20
00057 suncat0192 pw.x -in pw.inp   Done                     12/20/2018 11:20:20
00058 suncat0192 pw.x -in pw.inp   Done                     12/20/2018 11:20:20
00059 suncat0192 pw.x -in pw.inp   Done                     12/20/2018 11:20:20
00060 suncat0192 pw.x -in pw.inp   Done                     12/20/2018 11:20:20
00061 suncat0192 pw.x -in pw.inp   Done                     12/20/2018 11:20:20
00062 suncat0192 pw.x -in pw.inp   Done                     12/20/2018 11:20:20
00063 suncat0192 pw.x -in pw.inp   Done                     12/20/2018 11:20:20