     Program PWSCF v.5.1rc2 (svn rev. 11289) starts on 26Dec2018 at 16:41:48

     Current dimensions of program PWSCF are:
     Max number of different atomic species (ntypx) = 10
     Max number of k-points (npk) =  40000
     Max angular momentum in pseudopotentials (lmaxx) =  3
     Presently stress not available with electric field

     IMPORTANT: XC functional enforced from input :
     Exchange-correlation      = BEEF-VDW ( 1  4 27 13 2)
     Any further DFT definition will be discarded
     Please, verify this is what you really want

     Subspace diagonalization in iterative solution of the eigenvalue problem:
     a serial algorithm will be used

     bravais-lattice index     =            0
     lattice parameter (alat)  =       1.8897  a.u.
     unit-cell volume          =    4570.9634 (a.u.)^3
     number of atoms/cell      =           12
     number of atomic types    =            2
     number of electrons       =       171.00
     number of Kohn-Sham states=          115
     kinetic-energy cutoff     =      36.7493  Ry
     charge density cutoff     =     367.4932  Ry
     convergence threshold     =      1.0E-06
     mixing beta               =       0.1000
     number of iterations used =           10  plain     mixing
     Exchange-correlation      = BEEF-VDW ( 1  4 27 13 2)
     nstep                     =           50

     celldm(1)=   1.889726  celldm(2)=   0.000000  celldm(3)=   0.000000
     celldm(4)=   0.000000  celldm(5)=   0.000000  celldm(6)=   0.000000

     crystal axes: (cart. coord. in units of alat)
               a(1) = (   5.638208   0.000000   0.000000 )
               a(2) = (  -2.819104   4.882832   0.000000 )
               a(3) = (   0.000000   0.000000  24.603578 )

     reciprocal axes: (cart. coord. in units 2 pi/alat)
               b(1) = (  0.177361  0.102400  0.000000 )
               b(2) = (  0.000000  0.204799  0.000000 )
               b(3) = (  0.000000  0.000000  0.040644 )

     PseudoPot. # 1 for Ir read from file:
     /afs/slac.stanford.edu/u/if/mamunm/psp/gbrv1.5pbe/Ir.UPF
     MD5 check sum: 8836f839c3459d2b385c504ce6d91f2c
     Pseudo is Ultrasoft + core correction, Zval = 15.0
     Generated by new atomic code, or converted to UPF format
     Using radial grid of  983 points,  7 beta functions with:
                l(1) =   0
                l(2) =   0
                l(3) =   1
                l(4) =   1
                l(5) =   1
                l(6) =   2
                l(7) =   2
     Q(r) pseudized with  8 coefficients,  rinner =    1.400   1.400   1.400
                                                       1.400   1.400

     PseudoPot. # 2 for Zr read from file:
     /afs/slac.stanford.edu/u/if/mamunm/psp/gbrv1.5pbe/Zr.UPF
     MD5 check sum: 5db81b1e868ab7776c4564c113de050b
     Pseudo is Ultrasoft + core correction, Zval = 12.0
     Generated by new atomic code, or converted to UPF format
     Using radial grid of  887 points,  6 beta functions with:
                l(1) =   0
                l(2) =   0
                l(3) =   1
                l(4) =   1
                l(5) =   2
                l(6) =   2
     Q(r) pseudized with  6 coefficients,  rinner =    1.200   1.200   1.200
                                                       1.200   1.200

     vdW kernel table read from file vdW_kernel_table
     MD5 check sum: 095c7af220d748ca6e76c0b4c6cfb241

     atomic species   valence    mass     pseudopotential
        Ir1           15.00   192.21700     Ir( 1.00)
        Zr1           12.00    91.22400     Zr( 1.00)

     No symmetry found

   Cartesian axes

     site n.     atom                  positions (alat units)
         1           Ir1 tau(   1) = (   0.0000000   0.0000000  10.0000000  )
         2           Ir1 tau(   2) = (  -1.4095521   2.4414158  10.0000000  )
         3           Ir1 tau(   3) = (   1.4095521   2.4414158  10.0000000  )
         4           Zr1 tau(   4) = (   2.8191042   0.0000000  10.0000000  )
         5           Ir1 tau(   5) = (   2.8191042   1.6276106  12.3017889  )
         6           Ir1 tau(   6) = (   1.4095521   4.0690264  12.3017889  )
         7           Ir1 tau(   7) = (  -1.4095521   4.0690264  12.3017889  )
         8           Zr1 tau(   8) = (   0.0000000   1.6276106  12.3017889  )
         9           Ir1 tau(   9) = (  -0.0000000   3.2552211  14.6035778  )
        10           Ir1 tau(  10) = (   1.4095521   0.8138053  14.6035778  )
        11           Ir1 tau(  11) = (   4.2286563   0.8138053  14.6035778  )
        12           Zr1 tau(  12) = (   2.8191042   3.2552211  14.6035778  )

     number of k points=    20  Fermi-Dirac smearing, width (Ry)=  0.0110
                       cart. coord. in units 2pi/alat
        k(    1) = (   0.0000000   0.0000000   0.0000000), wk =   0.0555556
        k(    2) = (   0.0000000   0.0341332   0.0000000), wk =   0.1111111
        k(    3) = (   0.0000000   0.0682664   0.0000000), wk =   0.1111111
        k(    4) = (   0.0000000  -0.1023996   0.0000000), wk =   0.0555556
        k(    5) = (   0.0295602   0.0170666   0.0000000), wk =   0.1111111
        k(    6) = (   0.0295602   0.0511998   0.0000000), wk =   0.1111111
        k(    7) = (   0.0295602   0.0853330   0.0000000), wk =   0.1111111
        k(    8) = (   0.0295602  -0.0853330   0.0000000), wk =   0.1111111
        k(    9) = (   0.0295602  -0.0511998   0.0000000), wk =   0.1111111
        k(   10) = (   0.0295602  -0.0170666   0.0000000), wk =   0.1111111
        k(   11) = (   0.0591204   0.0341332   0.0000000), wk =   0.1111111
        k(   12) = (   0.0591204   0.0682664   0.0000000), wk =   0.1111111
        k(   13) = (   0.0591204   0.1023996   0.0000000), wk =   0.1111111
        k(   14) = (   0.0591204  -0.0682664   0.0000000), wk =   0.1111111
        k(   15) = (   0.0591204  -0.0341332   0.0000000), wk =   0.1111111
        k(   16) = (   0.0591204   0.0000000   0.0000000), wk =   0.1111111
        k(   17) = (  -0.0886807  -0.0511998   0.0000000), wk =   0.0555556
        k(   18) = (  -0.0886807  -0.0170666   0.0000000), wk =   0.1111111
        k(   19) = (  -0.0886807   0.0170666   0.0000000), wk =   0.1111111
        k(   20) = (  -0.0886807  -0.1535994   0.0000000), wk =   0.0555556

     Largest allocated arrays     est. size (Mb)     dimensions
     Largest temporary arrays     est. size (Mb)     dimensions

     Initial potential from superposition of free atoms
     Check: negative starting charge=   -3.476449

     starting charge  166.49327, renormalised to  171.00000

     negative rho (up, down):  3.571E+00 0.000E+00

     *
     * You are using vdW-DF for exchange-correlation in this calculation.
     * Please cite the following three references that made this development
     * possible:
     *
     *   M. Dion, H. Rydberg, E. Schroder, D. C. Langreth, and
     *   B. I. Lundqvist, Phys. Rev. Lett. 92, 246401 (2004).
     *
     *   T. Thonhauser, V. R. Cooper, S. Li, A. Puzder, P. Hyldgaard, and
     *   D. C. Langreth, Phys. Rev. B 76, 125112 (2007).
     *
     *   G. Roman-Perez and J. M. Soler, Phys. Rev. Lett. 103, 096102 (2009).
     *
     *
     * If you are using vdW-DF2, please also cite:
     *
     *   K. Lee, E. D. Murray, L. Kong, B. I. Lundqvist, and
     *   D. C. Langreth, Phys. Rev. B 82, 081101(R) (2010).
     *
     *
     * If you are calculating the stress with vdW-DF, please also cite:
     *
     *   R. Sabatini, E. Kucukbenli, B. Kolb, T. Thonhauser, and
     *   S. de Gironcoli, J. Phys.: Condens. Matter 24, 424209 (2012).
     *

     Carrying out vdW-DF run using the following parameters:

     Nqs =      20    Nr_points =    1024   r_max =   100.000
     q_mesh =
               0.00001000     0.04494208     0.09755937     0.15916263
               0.23128650     0.31572767     0.41458969     0.53033537
               0.66584808     0.82450364     1.01025438     1.22772762
               1.48234092     1.78043706     2.12944203     2.53805004
               3.01644009     3.57652955     4.23227104     5.00000000

     Gradients computed in reciprocal space

     Adding external electric field

     Computed dipole along edir(3) :
        Dipole                0.0000 Ry au,          0.0000 Debye
        Dipole field          0.0000 Ry au

        Potential amp.       -0.0000 Ry
        Total length         45.3317 bohr

     Starting wfc are  147 randomized atomic wfcs

     Self-consistent Calculation

     iteration #  1     ecut=    36.75 Ry     beta=0.10
     Davidson diagonalization with overlap
     ethr =  1.00E-02,  avg # of iterations =  6.8

[...]

     total energy              =   -1949.90840074 Ry
     Harris-Foulkes estimate   =   -1952.18848433 Ry
     estimated scf accuracy    <      14.30900436 Ry

[...]

     End of self-consistent calculation

          k = 0.0000 0.0000 0.0000 ( 17255 PWs)   bands (ev):

   -47.1061 -47.0160 -46.9824 -46.9257 -46.9257 -46.8755 -46.8755 -46.8211
   -46.7374 -46.6686 -46.6686 -46.6645 -46.6104 -46.5454 -46.4922 -46.4922
   -46.4722 -46.4722 -46.3425 -46.3424 -46.3384 -46.3262 -46.3262 -46.3085
   -46.3041 -46.2936 -46.2499 -46.2499 -46.2482 -46.2482 -25.0825 -25.0576
   -24.8988 -24.8988 -24.8926 -24.8926 -24.5583 -24.5583 -24.4900  -5.6654
    -4.0290  -3.7614  -3.3952  -3.3952  -3.1645  -3.1645  -3.1028  -2.7436
    -2.6218  -2.6218  -2.4753  -2.4329  -2.4329  -2.1955  -1.1913  -1.0020
    -1.0020  -0.7210  -0.7210  -0.3788  -0.1441  -0.1296  -0.1254   0.1609
     0.1609   0.3314   0.3314   0.5594   0.5594   0.6871   0.6871   0.8538
     0.8538   1.4909   1.5828   1.9479   1.9479   1.9543   1.9543   2.1174
     2.1174   2.1771   2.8784   2.8808   2.8808   3.1118   3.1638   3.4299
     3.8457   3.8998   4.1712   4.2438   4.2438   4.8765   4.8765   5.0629
     5.0629   5.2357   5.4593   5.4593   5.6167   5.6167   5.7944   5.7944
     6.4071   6.4071   6.5216   6.5295   6.7415   6.7415   6.9403   7.1628
     7.7261   7.7261   7.9241

[...]

          k =-0.0887-0.0512 0.0000 ( 17240 PWs)   bands (ev):

[...]

     the Fermi energy is     2.3197 ev

!    total energy              =   -1949.59655060 Ry
     Harris-Foulkes estimate   =   -1949.59653030 Ry
     estimated scf accuracy    <       0.00000062 Ry

     The total energy is the sum of the following terms:

     one-electron contribution =  -15562.03352254 Ry
     hartree contribution      =    7803.96813567 Ry
     xc contribution           =    -523.26284332 Ry
     ewald contribution        =    6331.80585841 Ry
     electric field correction =       0.00000000 Ry
     smearing contrib. (-TS)   =      -0.07417882 Ry

     convergence has been achieved in  16 iterations

 BEEF-vdW xc energy contributions
           1 :   -461.727990597575
           2 :    428.413964225802
           3 :   -369.170066089721
           4 :    296.129748791722
           5 :   -222.344899457195
           6 :    158.265208680080
           7 :   -109.579778468660
           8 :    76.8303201877487
           9 :   -56.6111990383220
          10 :    43.7001226633992
          11 :   -33.2626162410492
          12 :    22.3663458909624
          13 :   -10.4244811025378
          14 :   -1.34676717426748
[...]
     /afs/slac.stanford.edu/u/if/mamunm/psp/gbrv1.5pbe/Ir.UPF
     MD5 check sum: 8836f839c3459d2b385c504ce6d91f2c
     Pseudo is Ultrasoft + core correction, Zval = 15.0
     Generated by new atomic code, or converted to UPF format
     Using radial grid of  983 points,  7 beta functions with:
                l(1) =   0
                l(2) =   0
                l(3) =   1
                l(4) =   1
                l(5) =   1
                l(6) =   2
                l(7) =   2
     Q(r) pseudized with  8 coefficients,  rinner =    1.400   1.400   1.400
                                                       1.400   1.400

     PseudoPot. # 2 for Zr read from file:
     /afs/slac.stanford.edu/u/if/mamunm/psp/gbrv1.5pbe/Zr.UPF
     MD5 check sum: 5db81b1e868ab7776c4564c113de050b
     Pseudo is Ultrasoft + core correction, Zval = 12.0
     Generated by new atomic code, or converted to UPF format
     Using radial grid of  887 points,  6 beta functions with:
                l(1) =   0
                l(2) =   0
                l(3) =   1
                l(4) =   1
                l(5) =   2
                l(6) =   2
     Q(r) pseudized with  6 coefficients,  rinner =    1.200   1.200   1.200
                                                       1.200   1.200

     vdW kernel table read from file vdW_kernel_table
     MD5 check sum: 095c7af220d748ca6e76c0b4c6cfb241

     atomic species   valence    mass     pseudopotential
        Ir1           15.00   192.21700     Ir( 1.00)
        Zr1           12.00    91.22400     Zr( 1.00)

     No symmetry found

   Cartesian axes

     site n.     atom                  positions (alat units)
         1           Ir1 tau(   1) = (   0.0000000   0.0000000  10.0000000  )
         2           Ir1 tau(   2) = (  -1.4095521   2.4414158  10.0000000  )
         3           Ir1 tau(   3) = (   1.4095521   2.4414158  10.0000000  )
         4           Zr1 tau(   4) = (   2.8191042   0.0000000  10.0000000  )
         5           Ir1 tau(   5) = (   2.8191042   1.6276106  12.3017889  )
         6           Ir1 tau(   6) = (   1.4095521   4.0690264  12.3017889  )
         7           Ir1 tau(   7) = (  -1.4095521   4.0690264  12.3017889  )
         8           Zr1 tau(   8) = (   0.0000000   1.6276106  12.3017889  )
         9           Ir1 tau(   9) = (  -0.0000018   3.2360890  14.5209584  )
        10           Ir1 tau(  10) = (   1.3929813   0.8233631  14.5209599  )
        11           Ir1 tau(  11) = (   4.2452254   0.8233651  14.5209598  )
        12           Zr1 tau(  12) = (   2.8191015   3.2552099  14.5831090  )

     number of k points=    20  Fermi-Dirac smearing, width (Ry)=  0.0110
                       cart. coord. in units 2pi/alat
        k(    1) = (   0.0000000   0.0000000   0.0000000), wk =   0.0555556
        k(    2) = (   0.0000000   0.0341332   0.0000000), wk =   0.1111111
        k(    3) = (   0.0000000   0.0682664   0.0000000), wk =   0.1111111
        k(    4) = (   0.0000000  -0.1023996   0.0000000), wk =   0.0555556
        k(    5) = (   0.0295602   0.0170666   0.0000000), wk =   0.1111111
        k(    6) = (   0.0295602   0.0511998   0.0000000), wk =   0.1111111
        k(    7) = (   0.0295602   0.0853330   0.0000000), wk =   0.1111111
        k(    8) = (   0.0295602  -0.0853330   0.0000000), wk =   0.1111111
        k(    9) = (   0.0295602  -0.0511998   0.0000000), wk =   0.1111111
        k(   10) = (   0.0295602  -0.0170666   0.0000000), wk =   0.1111111
        k(   11) = (   0.0591204   0.0341332   0.0000000), wk =   0.1111111
        k(   12) = (   0.0591204   0.0682664   0.0000000), wk =   0.1111111
        k(   13) = (   0.0591204   0.1023996   0.0000000), wk =   0.1111111
        k(   14) = (   0.0591204  -0.0682664   0.0000000), wk =   0.1111111
        k(   15) = (   0.0591204  -0.0341332   0.0000000), wk =   0.1111111
        k(   16) = (   0.0591204   0.0000000   0.0000000), wk =   0.1111111
        k(   17) = (  -0.0886807  -0.0511998   0.0000000), wk =   0.0555556
        k(   18) = (  -0.0886807  -0.0170666   0.0000000), wk =   0.1111111
        k(   19) = (  -0.0886807   0.0170666   0.0000000), wk =   0.1111111
        k(   20) = (  -0.0886807  -0.1535994   0.0000000), wk =   0.0555556

     Largest allocated arrays     est. size (Mb)     dimensions
     Largest temporary arrays     est. size (Mb)     dimensions

     Initial potential from superposition of free atoms
     Check: negative starting charge=   -3.470031

     starting charge  166.49327, renormalised to  171.00000

[...]

     *
     * You are using vdW-DF for exchange-correlation in this calculation.
     * Please cite the following three references that made this development
     * possible:
     *
     *   M. Dion, H. Rydberg, E. Schroder, D. C. Langreth, and
     *   B. I. Lundqvist, Phys. Rev. Lett. 92, 246401 (2004).
     *
     *   T. Thonhauser, V. R. Cooper, S. Li, A. Puzder, P. Hyldgaard, and
     *   D. C. Langreth, Phys. Rev. B 76, 125112 (2007).
     *
     *   G. Roman-Perez and J. M. Soler, Phys. Rev. Lett. 103, 096102 (2009).
     *
     *
     * If you are using vdW-DF2, please also cite:
     *
     *   K. Lee, E. D. Murray, L. Kong, B. I. Lundqvist, and
     *   D. C. Langreth, Phys. Rev. B 82, 081101(R) (2010).
     *
     *
     * If you are calculating the stress with vdW-DF, please also cite:
     *
     *   R. Sabatini, E. Kucukbenli, B. Kolb, T. Thonhauser, and
     *   S. de Gironcoli, J. Phys.: Condens. Matter 24, 424209 (2012).
     *

     Carrying out vdW-DF run using the following parameters:

     Nqs =      20    Nr_points =    1024   r_max =   100.000
     q_mesh =
               0.00001000     0.04494208     0.09755937     0.15916263
               0.23128650     0.31572767     0.41458969     0.53033537
               0.66584808     0.82450364     1.01025438     1.22772762
               1.48234092     1.78043706     2.12944203     2.53805004
               3.01644009     3.57652955     4.23227104     5.00000000

     Gradients computed in reciprocal space

[...]

     Starting wfc are  147 randomized atomic wfcs

     Self-consistent Calculation

[...]

     total energy              =   -1949.61218373 Ry
     Harris-Foulkes estimate   =   -1949.61217341 Ry
     estimated scf accuracy    <       0.00000193 Ry

     iteration # 17     ecut=    36.75 Ry     beta=0.10
     Davidson diagonalization with overlap
     ethr =  1.13E-09,  avg # of iterations =  2.6

[...]

     negative rho (up, down):  3.129E+00 0.000E+00

     Adding external electric field

     Computed dipole along edir(3) :
        Dipole                0.0191 Ry au,          0.0485 Debye
        Dipole field          0.0001 Ry au

        Potential amp.       -0.0048 Ry
        Total length         45.3317 bohr

     End of self-consistent calculation

[...]

          k = 0.0591 0.0000 0.0000 ( 17198 PWs)   bands (ev):

[...]

          k =-0.0887-0.1536 0.0000 ( 17240 PWs)   bands (ev):

   -47.0794 -47.0423 -46.9967 -46.9123 -46.8979 -46.8890 -46.8451 -46.8233
   -46.8188 -46.7923 -46.6878 -46.5762 -46.5067 -46.4625 -46.4348 -46.4213
   -46.3934 -46.3929 -46.3824 -46.3625 -46.3601 -46.3547 -46.3496 -46.3451
   -46.3232 -46.2951 -46.2884 -46.2823 -46.2257 -46.2052 -25.0621 -25.0243
   -24.9178 -24.8944 -24.8790 -24.8546 -24.5015 -24.4754 -24.4014  -4.1453
    -3.8130  -2.7095  -2.6197  -2.5158  -2.4543  -2.3325  -2.2720  -2.1786
    -1.9077  -1.8633  -1.7524  -1.6494  -1.4227  -1.3733  -1.1971  -1.1544
    -1.0653  -0.9124  -0.7960  -0.4702  -0.4261  -0.2266  -0.1842  -0.1057
    -0.0522  -0.0243   0.1183   0.1359   0.1582   0.2344   0.2373   0.3285
     0.3810   0.6075   0.6836   0.7976   0.9602   1.0342   1.1381   1.1451
     1.4105   1.5935   1.7155   1.7317   1.8605   2.2161   2.2393   2.2853
     2.3485   2.8713   3.4490   3.4591   3.4890   4.1747   4.2945   4.4486
     4.5605   4.6078   4.9663   5.1792   5.1833   5.4661   5.4833   5.6670
     5.9450   6.5817   6.8364   7.2992   7.7206   8.0593   8.1226   8.3307
     8.5008   8.5367   8.6419

     the Fermi energy is     2.3451 ev

!    total energy              =   -1949.61218249 Ry
     Harris-Foulkes estimate   =   -1949.61218403 Ry
     estimated scf accuracy    <       0.00000037 Ry

     The total energy is the sum of the following terms:

     one-electron contribution =  -15718.10885439 Ry
     hartree contribution      =    7882.07773829 Ry
     xc contribution           =    -523.41318280 Ry
     ewald contribution        =    6409.90426686 Ry
     electric field correction =       0.00000100 Ry
     smearing contrib. (-TS)   =      -0.07215144 Ry

     convergence has been achieved in  17 iterations

 BEEF-vdW xc energy contributions
           1 :   -462.142096808248
           2 :    428.889819664986
           3 :   -369.729903597648
           4 :    296.739234331303
           5 :   -222.926314053345
           6 :    158.735298795168
           7 :   -109.892984132346
           8 :    77.0039289922175
           9 :   -56.7185610876674
          10 :    43.8360534749584
          11 :   -33.4991660327354
          12 :    22.7214467938059
          13 :   -10.8572346233858
          14 :  -0.913773812781301
          15 :    10.6568341038395
          16 :   -16.7808414252760
          17 :    18.7565023957998
          18 :   -17.2736940826903
          19 :    13.8865445883714
          20 :   -10.3745744328241
          21 :    8.10920440893119
          22 :   -7.65962602700131
          23 :    8.73755128566586
          24 :   -10.4508138659151
          25 :    11.7378638937373
          26 :   -11.8127197640233
          27 :    10.4579921607622
          28 :   -8.06884431504125
          29 :    5.44840850987998
          30 :   -3.45339919565197
          31 :   -40.9447442152474
          32 :   -30.6655672864816

     Forces acting on atoms (Ry/au):

     negative rho (up, down):  3.129E+00 0.000E+00
     atom    1 type  1   force =    -0.00000003    0.00789356    0.02055441
     atom    2 type  1   force =     0.00683617   -0.00394667    0.02055424
     atom    3 type  1   force =    -0.00683584   -0.00394684    0.02055394
     atom    4 type  2   force =     0.00000001   -0.00000020    0.00229791
     atom    5 type  1   force =    -0.00000018    0.00454835   -0.01276394
     atom    6 type  1   force =     0.00393967   -0.00227491   -0.01276423
     atom    7 type  1   force =    -0.00393995   -0.00227493   -0.01276416
     atom    8 type  2   force =     0.00000012   -0.00000019   -0.02530780
     atom    9 type  1   force =     0.00000003    0.00004565   -0.00004541
     atom   10 type  1   force =     0.00004006   -0.00002248   -0.00004543
     atom   11 type  1   force =    -0.00004012   -0.00002259   -0.00004559
     atom   12 type  2   force =     0.00000005    0.00000125   -0.00022395

     Total force =     0.051488     Total SCF correction =     0.001394

     entering subroutine stress ...

     negative rho (up, down):  3.129E+00 0.000E+00
          total   stress  (Ry/bohr**3)                   (kbar)     P=  -21.40
  -0.00017181  -0.00000000   0.00000000        -25.27     -0.00      0.00
  -0.00000000  -0.00017181   0.00000000         -0.00    -25.27      0.00
   0.00000000   0.00000000  -0.00009289          0.00      0.00    -13.66

 !ASE

     Writing output data file calc.save

     General routines

     Parallel routines

   This run was terminated on:  17:49:35  26Dec2018

   JOB DONE.
Job  /afs/slac/g/suncat/bin/suncat-tsmpirun -x LD_LIBRARY_PATH -wdir /scratch/qe109980_OrxrJ pw.x -in pw.inp

TID   HOST_NAME   COMMAND_LINE            STATUS            TERMINATION_TIME
00000 suncat0042 pw.x -in pw.inp   Done                     12/26/2018 17:49:35
00001 suncat0042 pw.x -in pw.inp   Done                     12/26/2018 17:49:35
00002 suncat0042 pw.x -in pw.inp   Done                     12/26/2018 17:49:35
00003 suncat0042 pw.x -in pw.inp   Done                     12/26/2018 17:49:35
00004 suncat0042 pw.x -in pw.inp   Done                     12/26/2018 17:49:35
00005 suncat0042 pw.x -in pw.inp   Done                     12/26/2018 17:49:35
00006 suncat0042 pw.x -in pw.inp   Done                     12/26/2018 17:49:35
00007 suncat0042 pw.x -in pw.inp   Done                     12/26/2018 17:49:35
00008 suncat0020 pw.x -in pw.inp   Done                     12/26/2018 17:49:35
00009 suncat0020 pw.x -in pw.inp   Done                     12/26/2018 17:49:35
00010 suncat0020 pw.x -in pw.inp   Done                     12/26/2018 17:49:35
00011 suncat0020 pw.x -in pw.inp   Done                     12/26/2018 17:49:35
00012 suncat0020 pw.x -in pw.inp   Done                     12/26/2018 17:49:35
00013 suncat0020 pw.x -in pw.inp   Done                     12/26/2018 17:49:35
00014 suncat0020 pw.x -in pw.inp   Done                     12/26/2018 17:49:35
00015 suncat0020 pw.x -in pw.inp   Done                     12/26/2018 17:49:35
00016 suncat0196 pw.x -in pw.inp   Done                     12/26/2018 17:49:35
00017 suncat0196 pw.x -in pw.inp   Done                     12/26/2018 17:49:35
00018 suncat0196 pw.x -in pw.inp   Done                     12/26/2018 17:49:35
00019 suncat0196 pw.x -in pw.inp   Done                     12/26/2018 17:49:35
00020 suncat0196 pw.x -in pw.inp   Done                     12/26/2018 17:49:35
00021 suncat0196 pw.x -in pw.inp   Done                     12/26/2018 17:49:35
00022 suncat0196 pw.x -in pw.inp   Done                     12/26/2018 17:49:35
00023 suncat0196 pw.x -in pw.inp   Done                     12/26/2018 17:49:35
00024 suncat0194 pw.x -in pw.inp   Done                     12/26/2018 17:49:35
00025 suncat0194 pw.x -in pw.inp   Done                     12/26/2018 17:49:35
00026 suncat0194 pw.x -in pw.inp   Done                     12/26/2018 17:49:35
00027 suncat0194 pw.x -in pw.inp   Done                     12/26/2018 17:49:35
00028 suncat0194 pw.x -in pw.inp   Done                     12/26/2018 17:49:35
00029 suncat0194 pw.x -in pw.inp   Done                     12/26/2018 17:49:35
00030 suncat0194 pw.x -in pw.inp   Done                     12/26/2018 17:49:35
00031 suncat0194 pw.x -in pw.inp   Done                     12/26/2018 17:49:35
00032 suncat0121 pw.x -in pw.inp   Done                     12/26/2018 17:49:35
00033 suncat0121 pw.x -in pw.inp   Done                     12/26/2018 17:49:35
00034 suncat0121 pw.x -in pw.inp   Done                     12/26/2018 17:49:35
00035 suncat0121 pw.x -in pw.inp   Done                     12/26/2018 17:49:35
00036 suncat0121 pw.x -in pw.inp   Done                     12/26/2018 17:49:35
00037 suncat0121 pw.x -in pw.inp   Done                     12/26/2018 17:49:35
00038 suncat0121 pw.x -in pw.inp   Done                     12/26/2018 17:49:35
00039 suncat0121 pw.x -in pw.inp   Done                     12/26/2018 17:49:35
00040 suncat0115 pw.x -in pw.inp   Done                     12/26/2018 17:49:35
00041 suncat0115 pw.x -in pw.inp   Done                     12/26/2018 17:49:35
00042 suncat0115 pw.x -in pw.inp   Done                     12/26/2018 17:49:35
00043 suncat0115 pw.x -in pw.inp   Done                     12/26/2018 17:49:35
00044 suncat0115 pw.x -in pw.inp   Done                     12/26/2018 17:49:35
00045 suncat0115 pw.x -in pw.inp   Done                     12/26/2018 17:49:35
00046 suncat0115 pw.x -in pw.inp   Done                     12/26/2018 17:49:35
00047 suncat0115 pw.x -in pw.inp   Done                     12/26/2018 17:49:35
00048 suncat0228 pw.x -in pw.inp   Done                     12/26/2018 17:49:35
00049 suncat0228 pw.x -in pw.inp   Done                     12/26/2018 17:49:35
00050 suncat0228 pw.x -in pw.inp   Done                     12/26/2018 17:49:35
00051 suncat0228 pw.x -in pw.inp   Done                     12/26/2018 17:49:35
00052 suncat0228 pw.x -in pw.inp   Done                     12/26/2018 17:49:35
00053 suncat0228 pw.x -in pw.inp   Done                     12/26/2018 17:49:35
00054 suncat0228 pw.x -in pw.inp   Done                     12/26/2018 17:49:35
00055 suncat0228 pw.x -in pw.inp   Done                     12/26/2018 17:49:35
00056 suncat0227 pw.x -in pw.inp   Done                     12/26/2018 17:49:35
00057 suncat0227 pw.x -in pw.inp   Done                     12/26/2018 17:49:35
00058 suncat0227 pw.x -in pw.inp   Done                     12/26/2018 17:49:35
00059 suncat0227 pw.x -in pw.inp   Done                     12/26/2018 17:49:35
00060 suncat0227 pw.x -in pw.inp   Done                     12/26/2018 17:49:35
00061 suncat0227 pw.x -in pw.inp   Done                     12/26/2018 17:49:35
00062 suncat0227 pw.x -in pw.inp   Done                     12/26/2018 17:49:35
00063 suncat0227 pw.x -in pw.inp   Done                     12/26/2018 17:49:35