     Program PWSCF v.5.1rc2 (svn rev. 11289) starts on 25Dec2018 at 18: 7:21

     Current dimensions of program PWSCF are:
     Max number of different atomic species (ntypx) = 10
     Max number of k-points (npk) =  40000
     Max angular momentum in pseudopotentials (lmaxx) =  3
     Presently stress not available with electric field

     IMPORTANT: XC functional enforced from input :
     Exchange-correlation      = BEEF-VDW ( 1  4 27 13 2)
     Any further DFT definition will be discarded
     Please, verify this is what you really want

     Subspace diagonalization in iterative solution of the eigenvalue problem:
     a serial algorithm will be used

     bravais-lattice index     =            0
     lattice parameter (alat)  =       1.8897  a.u.
     unit-cell volume          =    3913.3653 (a.u.)^3
     number of atoms/cell      =           12
     number of atomic types    =            2
     number of electrons       =       219.00
     number of Kohn-Sham states=          139
     kinetic-energy cutoff     =      36.7493  Ry
     charge density cutoff     =     367.4932  Ry
     convergence threshold     =      1.0E-06
     mixing beta               =       0.1000
     number of iterations used =           10  plain     mixing
     Exchange-correlation      = BEEF-VDW ( 1  4 27 13 2)
     nstep                     =           50

     celldm(1)=   1.889726  celldm(2)=   0.000000  celldm(3)=   0.000000
     celldm(4)=   0.000000  celldm(5)=   0.000000  celldm(6)=   0.000000

     crystal axes: (cart. coord. in units of alat)
               a(1) = (   5.250765   0.000000   0.000000 )
               a(2) = (  -2.625382   4.547296   0.000000 )
               a(3) = (   0.000000   0.000000  24.287232 )

     reciprocal axes: (cart. coord. in units 2 pi/alat)
               b(1) = (  0.190448  0.109955  0.000000 )
               b(2) = (  0.000000  0.219911  0.000000 )
               b(3) = (  0.000000  0.000000  0.041174 )

     PseudoPot. # 1 for Cu read from file:
     /afs/slac.stanford.edu/u/if/mamunm/psp/gbrv1.5pbe/Cu.UPF
     MD5 check sum: 6e991ff952a84172a2a52a1c1e996048
     Pseudo is Ultrasoft + core correction, Zval = 19.0
     Generated by new atomic code, or converted to UPF format
     Using radial grid of  867 points,  6 beta functions with:
                l(1) =   0
                l(2) =   0
                l(3) =   1
                l(4) =   1
                l(5) =   2
                l(6) =   2
     Q(r) pseudized with  8 coefficients,  rinner =    1.150   1.150   1.150
                                                       1.150   1.150

     PseudoPot. # 2 for Ru read from file:
     /afs/slac.stanford.edu/u/if/mamunm/psp/gbrv1.5pbe/Ru.UPF
     MD5 check sum: 7158a806dd851261a58e6920c40ebe78
     Pseudo is Ultrasoft + core correction, Zval = 16.0
     Generated by new atomic code, or converted to UPF format
     Using radial grid of  967 points,  6 beta functions with:
                l(1) =   0
                l(2) =   0
                l(3) =   1
                l(4) =   1
                l(5) =   2
                l(6) =   2
     Q(r) pseudized with  8 coefficients,  rinner =    1.300   1.300   1.300
                                                       1.300   1.300

     vdW kernel table read from file vdW_kernel_table
     MD5 check sum: 095c7af220d748ca6e76c0b4c6cfb241

     atomic species   valence    mass     pseudopotential
        Cu1           19.00    63.54600     Cu( 1.00)
        Ru1           16.00   101.07000     Ru( 1.00)

     No symmetry found

   Cartesian axes

     site n.     atom                  positions (alat units)
         1           Cu1 tau(   1) = (   0.0000000   0.0000000  10.0000000  )
         2           Cu1 tau(   2) = (  -1.3126912   2.2736479  10.0000000  )
         3           Cu1 tau(   3) = (   1.3126912   2.2736479  10.0000000  )
         4           Ru1 tau(   4) = (   2.6253824   0.0000000  10.0000000  )
         5           Cu1 tau(   5) = (   2.6253824   1.5157653  12.1436158  )
         6           Cu1 tau(   6) = (   1.3126912   3.7894131  12.1436158  )
         7           Cu1 tau(   7) = (  -1.3126912   3.7894131  12.1436158  )
         8           Ru1 tau(   8) = (  -0.0000000   1.5157653  12.1436158  )
         9           Cu1 tau(   9) = (  -0.0000000   3.0315305  14.2872316  )
        10           Cu1 tau(  10) = (   1.3126912   0.7578826  14.2872316  )
        11           Cu1 tau(  11) = (   3.9380737   0.7578826  14.2872316  )
        12           Ru1 tau(  12) = (   2.6253824   3.0315305  14.2872316  )

     number of k points=    20  Fermi-Dirac smearing, width (Ry)=  0.0110
                       cart. coord. in units 2pi/alat
        k(    1) = (   0.0000000   0.0000000   0.0000000), wk =   0.0555556
        k(    2) = (   0.0000000   0.0366518   0.0000000), wk =   0.1111111
        k(    3) = (   0.0000000   0.0733036   0.0000000), wk =   0.1111111
        k(    4) = (   0.0000000  -0.1099555   0.0000000), wk =   0.0555556
        k(    5) = (   0.0317414   0.0183259   0.0000000), wk =   0.1111111
        k(    6) = (   0.0317414   0.0549777   0.0000000), wk =   0.1111111
        k(    7) = (   0.0317414   0.0916296   0.0000000), wk =   0.1111111
        k(    8) = (   0.0317414  -0.0916296   0.0000000), wk =   0.1111111
        k(    9) = (   0.0317414  -0.0549777   0.0000000), wk =   0.1111111
        k(   10) = (   0.0317414  -0.0183259   0.0000000), wk =   0.1111111
        k(   11) = (   0.0634828   0.0366518   0.0000000), wk =   0.1111111
        k(   12) = (   0.0634828   0.0733036   0.0000000), wk =   0.1111111
        k(   13) = (   0.0634828   0.1099555   0.0000000), wk =   0.1111111
        k(   14) = (   0.0634828  -0.0733036   0.0000000), wk =   0.1111111
        k(   15) = (   0.0634828  -0.0366518   0.0000000), wk =   0.1111111
        k(   16) = (   0.0634828   0.0000000   0.0000000), wk =   0.1111111
        k(   17) = (  -0.0952242  -0.0549777   0.0000000), wk =   0.0555556
        k(   18) = (  -0.0952242  -0.0183259   0.0000000), wk =   0.1111111
        k(   19) = (  -0.0952242   0.0183259   0.0000000), wk =   0.1111111
        k(   20) = (  -0.0952242  -0.1649332   0.0000000), wk =   0.0555556

     Largest allocated arrays     est. size (Mb)     dimensions
     Largest temporary arrays     est. size (Mb)     dimensions

     Initial potential from superposition of free atoms
     Check: negative starting charge=   -0.221604

     starting charge  206.99994, renormalised to  219.00000

     negative rho (up, down):  2.345E-01 0.000E+00

     *
     * You are using vdW-DF for exchange-correlation in this calculation.
     * Please cite the following three references that made this development
     * possible:
     *
     *   M. Dion, H. Rydberg, E. Schroder, D. C. Langreth, and
     *   B. I. Lundqvist, Phys. Rev. Lett. 92, 246401 (2004).
     *
     *   T. Thonhauser, V. R. Cooper, S. Li, A. Puzder, P. Hyldgaard, and
     *   D. C. Langreth, Phys. Rev. B 76, 125112 (2007).
     *
     *   G. Roman-Perez and J. M. Soler, Phys. Rev. Lett. 103, 096102 (2009).
     *
     *
     * If you are using vdW-DF2, please also cite:
     *
     *   K. Lee, E. D. Murray, L. Kong, B. I. Lundqvist, and
     *   D. C. Langreth, Phys. Rev. B 82, 081101(R) (2010).
     *
     *
     * If you are calculating the stress with vdW-DF, please also cite:
     *
     *   R. Sabatini, E. Kucukbenli, B. Kolb, T. Thonhauser, and
     *   S. de Gironcoli, J. Phys.: Condens. Matter 24, 424209 (2012).
     *

     Carrying out vdW-DF run using the following parameters:

     Nqs =      20    Nr_points =    1024   r_max =   100.000
     q_mesh =
               0.00001000     0.04494208     0.09755937     0.15916263
               0.23128650     0.31572767     0.41458969     0.53033537
               0.66584808     0.82450364     1.01025438     1.22772762
               1.48234092     1.78043706     2.12944203     2.53805004
               3.01644009     3.57652955     4.23227104     5.00000000

     Gradients computed in reciprocal space

     Adding external electric field

     Computed dipole along edir(3) :
        Dipole                0.0000 Ry au,          0.0000 Debye
        Dipole field          0.0000 Ry au

        Potential amp.       -0.0000 Ry
        Total length         44.7488 bohr

     Starting wfc are  156 randomized atomic wfcs

     Self-consistent Calculation

     iteration #  1     ecut=    36.75 Ry     beta=0.10
     Davidson diagonalization with overlap
     ethr =  1.00E-02,  avg # of iterations =  7.3

[...]

     total energy              =   -4208.68160629 Ry
     Harris-Foulkes estimate   =   -4242.87827339 Ry
     estimated scf accuracy    <     192.60199960 Ry

[...]

     End of self-consistent calculation

          k = 0.0000 0.0000 0.0000 ( 14789 PWs)   bands (ev):

  -111.6258-111.6211-111.6211-111.5014-111.5014-111.4968-111.4968-111.4968
  -111.4968 -71.5665 -71.2002 -71.1998 -69.0599 -69.0599 -69.0548 -69.0371
   -69.0347 -69.0347 -68.9706 -68.9704 -68.9704 -68.9699 -68.9699 -68.9484
   -68.9480 -68.9330 -68.9330 -68.9305 -68.9302 -68.8877 -68.8877 -68.8876
   -68.8876 -68.8182 -68.8155 -68.8068 -68.8068 -68.8057 -68.8057 -41.6152
   -41.5094 -41.5094 -41.2093 -41.2093 -41.2089 -41.2089 -41.1491 -41.1478
    -6.8046  -5.0789  -4.1078  -3.8078  -3.8078  -3.6966  -3.6966  -3.2430
    -3.1987  -3.1987  -3.1301  -3.1301  -3.1140  -3.0703  -2.8577  -2.3808
    -2.3808  -2.3037  -2.0441  -2.0441  -1.9554  -1.9129  -1.8493  -1.8096
    -1.8096  -1.7841  -1.7261  -1.7261  -1.6390  -1.6390  -1.5763  -1.5763
    -1.5051  -1.5051  -1.2509  -1.0965  -1.0965  -1.0811  -1.0811  -1.0260
    -1.0260  -0.8631  -0.7522  -0.7522  -0.7053  -0.6949  -0.6189  -0.5896
    -0.5896   0.0403   0.3169   0.3169   0.3257   0.3257   0.4161   0.4161
     0.5903   0.5903   0.8600   0.8600   1.0186   1.1468   1.1468   1.1777
     1.6511   2.1044   2.1044   3.2022   3.3546   3.3546   3.4962   3.4962
     3.5717   4.8943   5.1618   5.6130   6.5121   6.6023   6.6023   6.8897
     6.8897   7.1361   7.4215   7.7653   7.9135   7.9135   8.3645   8.8797
     9.3906  10.3316  10.3316

[...]

          k =-0.0952-0.0550 0.0000 ( 14722 PWs)   bands (ev):

[...]

     the Fermi energy is     0.7797 ev

!    total energy              =   -4229.50634886 Ry
     Harris-Foulkes estimate   =   -4229.50634355 Ry
     estimated scf accuracy    <       0.00000016 Ry

     The total energy is the sum of the following terms:

     one-electron contribution =  -32771.54981497 Ry
     hartree contribution      =   16398.08533208 Ry
     xc contribution           =    -440.44512147 Ry
     ewald contribution        =   12584.48095205 Ry
     electric field correction =       0.00000000 Ry
     smearing contrib. (-TS)   =      -0.07769655 Ry

     convergence has been achieved in  22 iterations

 BEEF-vdW xc energy contributions
           1 :   -388.921986194462
           2 :    353.395062995840
           3 :   -292.963088327081
           4 :    223.988264876497
           5 :   -161.691522524249
           6 :    114.779768791274
           7 :   -83.8977303612810
           8 :    63.9980182879139
[...]
                l(1) =   0
                l(2) =   0
                l(3) =   1
                l(4) =   1
                l(5) =   2
                l(6) =   2
     Q(r) pseudized with  8 coefficients,  rinner =    1.150   1.150   1.150
                                                       1.150   1.150

     PseudoPot. # 2 for Ru read from file:
     /afs/slac.stanford.edu/u/if/mamunm/psp/gbrv1.5pbe/Ru.UPF
     MD5 check sum: 7158a806dd851261a58e6920c40ebe78
     Pseudo is Ultrasoft + core correction, Zval = 16.0
     Generated by new atomic code, or converted to UPF format
     Using radial grid of  967 points,  6 beta functions with:
                l(1) =   0
                l(2) =   0
                l(3) =   1
                l(4) =   1
                l(5) =   2
                l(6) =   2
     Q(r) pseudized with  8 coefficients,  rinner =    1.300   1.300   1.300
                                                       1.300   1.300

     vdW kernel table read from file vdW_kernel_table
     MD5 check sum: 095c7af220d748ca6e76c0b4c6cfb241

     atomic species   valence    mass     pseudopotential
        Cu1           19.00    63.54600     Cu( 1.00)
        Ru1           16.00   101.07000     Ru( 1.00)

     No symmetry found

   Cartesian axes

     site n.     atom                  positions (alat units)
         1           Cu1 tau(   1) = (   0.0000000   0.0000000  10.0000000  )
         2           Cu1 tau(   2) = (  -1.3126912   2.2736479  10.0000000  )
         3           Cu1 tau(   3) = (   1.3126912   2.2736479  10.0000000  )
         4           Ru1 tau(   4) = (   2.6253824   0.0000000  10.0000000  )
         5           Cu1 tau(   5) = (   2.6253824   1.5157653  12.1436158  )
         6           Cu1 tau(   6) = (   1.3126912   3.7894131  12.1436158  )
         7           Cu1 tau(   7) = (  -1.3126912   3.7894131  12.1436158  )
         8           Ru1 tau(   8) = (  -0.0000000   1.5157653  12.1436158  )
         9           Cu1 tau(   9) = (   0.0000037   3.0468199  14.2893442  )
        10           Cu1 tau(  10) = (   1.3259397   0.7502402  14.2893410  )
        11           Cu1 tau(  11) = (   3.9248189   0.7502383  14.2893434  )
        12           Ru1 tau(  12) = (   2.6253827   3.0315302  14.2109640  )

     number of k points=    20  Fermi-Dirac smearing, width (Ry)=  0.0110
                       cart. coord. in units 2pi/alat
        k(    1) = (   0.0000000   0.0000000   0.0000000), wk =   0.0555556
        k(    2) = (   0.0000000   0.0366518   0.0000000), wk =   0.1111111
        k(    3) = (   0.0000000   0.0733036   0.0000000), wk =   0.1111111
        k(    4) = (   0.0000000  -0.1099555   0.0000000), wk =   0.0555556
        k(    5) = (   0.0317414   0.0183259   0.0000000), wk =   0.1111111
        k(    6) = (   0.0317414   0.0549777   0.0000000), wk =   0.1111111
        k(    7) = (   0.0317414   0.0916296   0.0000000), wk =   0.1111111
        k(    8) = (   0.0317414  -0.0916296   0.0000000), wk =   0.1111111
        k(    9) = (   0.0317414  -0.0549777   0.0000000), wk =   0.1111111
        k(   10) = (   0.0317414  -0.0183259   0.0000000), wk =   0.1111111
        k(   11) = (   0.0634828   0.0366518   0.0000000), wk =   0.1111111
        k(   12) = (   0.0634828   0.0733036   0.0000000), wk =   0.1111111
        k(   13) = (   0.0634828   0.1099555   0.0000000), wk =   0.1111111
        k(   14) = (   0.0634828  -0.0733036   0.0000000), wk =   0.1111111
        k(   15) = (   0.0634828  -0.0366518   0.0000000), wk =   0.1111111
        k(   16) = (   0.0634828   0.0000000   0.0000000), wk =   0.1111111
        k(   17) = (  -0.0952242  -0.0549777   0.0000000), wk =   0.0555556
        k(   18) = (  -0.0952242  -0.0183259   0.0000000), wk =   0.1111111
        k(   19) = (  -0.0952242   0.0183259   0.0000000), wk =   0.1111111
        k(   20) = (  -0.0952242  -0.1649332   0.0000000), wk =   0.0555556

     Largest allocated arrays     est. size (Mb)     dimensions
     Largest temporary arrays     est. size (Mb)     dimensions

     Initial potential from superposition of free atoms
     Check: negative starting charge=   -0.221371

     starting charge  206.99994, renormalised to  219.00000

[...]

     *
     * You are using vdW-DF for exchange-correlation in this calculation.
     * Please cite the following three references that made this development
     * possible:
     *
     *   M. Dion, H. Rydberg, E. Schroder, D. C. Langreth, and
     *   B. I. Lundqvist, Phys. Rev. Lett. 92, 246401 (2004).
     *
     *   T. Thonhauser, V. R. Cooper, S. Li, A. Puzder, P. Hyldgaard, and
     *   D. C. Langreth, Phys. Rev. B 76, 125112 (2007).
     *
     *   G. Roman-Perez and J. M. Soler, Phys. Rev. Lett. 103, 096102 (2009).
     *
     *
     * If you are using vdW-DF2, please also cite:
     *
     *   K. Lee, E. D. Murray, L. Kong, B. I. Lundqvist, and
     *   D. C. Langreth, Phys. Rev. B 82, 081101(R) (2010).
     *
     *
     * If you are calculating the stress with vdW-DF, please also cite:
     *
     *   R. Sabatini, E. Kucukbenli, B. Kolb, T. Thonhauser, and
     *   S. de Gironcoli, J. Phys.: Condens. Matter 24, 424209 (2012).
     *

     Carrying out vdW-DF run using the following parameters:

     Nqs =      20    Nr_points =    1024   r_max =   100.000
     q_mesh =
               0.00001000     0.04494208     0.09755937     0.15916263
               0.23128650     0.31572767     0.41458969     0.53033537
               0.66584808     0.82450364     1.01025438     1.22772762
               1.48234092     1.78043706     2.12944203     2.53805004
               3.01644009     3.57652955     4.23227104     5.00000000

     Gradients computed in reciprocal space

[...]

     Starting wfc are  156 randomized atomic wfcs

     Self-consistent Calculation

[...]

     total energy              =   -4229.50787119 Ry
     Harris-Foulkes estimate   =   -4229.50786994 Ry
     estimated scf accuracy    <       0.00000177 Ry

     iteration # 22     ecut=    36.75 Ry     beta=0.10
     Davidson diagonalization with overlap
     ethr =  8.07E-10,  avg # of iterations =  2.0

[...]

     negative rho (up, down):  2.273E-01 0.000E+00

     Adding external electric field

     Computed dipole along edir(3) :
        Dipole               -0.0025 Ry au,         -0.0063 Debye
        Dipole field         -0.0000 Ry au

        Potential amp.        0.0007 Ry
        Total length         44.7488 bohr

     End of self-consistent calculation

[...]

          k = 0.0635 0.0000 0.0000 ( 14741 PWs)   bands (ev):

[...]

          k =-0.0952-0.1649 0.0000 ( 14722 PWs)   bands (ev):

  -111.6559-111.6544-111.6528-111.5077-111.5061-111.5046-111.4977-111.4960
  -111.4945 -71.5809 -71.2337 -71.2054 -69.0923 -69.0837 -69.0807 -69.0802
   -69.0771 -69.0692 -68.9862 -68.9801 -68.9719 -68.9714 -68.9660 -68.9647
   -68.9633 -68.9567 -68.9534 -68.9234 -68.9142 -68.9109 -68.9004 -68.8970
   -68.8865 -68.8209 -68.8175 -68.8133 -68.8091 -68.8058 -68.8020 -41.6256
   -41.5256 -41.5244 -41.2438 -41.2425 -41.2162 -41.2150 -41.1886 -41.1527
    -5.1146  -5.0522  -3.8062  -3.6201  -3.3298  -3.2245  -3.2053  -3.0879
    -2.8553  -2.8398  -2.7765  -2.6316  -2.5656  -2.5419  -2.4834  -2.4732
    -2.2935  -2.2688  -2.2621  -2.1930  -2.1839  -2.1660  -1.9487  -1.9179
    -1.8359  -1.8296  -1.8066  -1.7940  -1.7937  -1.7333  -1.7108  -1.7058
    -1.6668  -1.6391  -1.5964  -1.5867  -1.5290  -1.4665  -1.4037  -1.3608
    -1.3549  -1.2751  -1.2327  -1.2161  -1.2002  -1.0144  -0.9855  -0.9802
    -0.8192  -0.7007  -0.6837  -0.6832  -0.1725  -0.0748  -0.0401   0.0879
     0.0951   0.1435   0.2668   0.3638   0.4326   0.4419   0.7397   1.1429
     1.3513   1.9877   2.4809   2.8867   3.1638   3.6925   4.4563   4.5890
     5.3809   5.4622   6.5123   6.5281   7.0760   7.1161   7.3665   7.3702
     7.9086   8.2573   8.3550   8.3954   8.5267   8.8565   8.8671   8.9301
     9.0775   9.1629   9.7094

     the Fermi energy is     0.7700 ev

!    total energy              =   -4229.50787608 Ry
     Harris-Foulkes estimate   =   -4229.50787146 Ry
     estimated scf accuracy    <       0.00000047 Ry

     The total energy is the sum of the following terms:

     one-electron contribution =  -32836.75984714 Ry
     hartree contribution      =   16430.58358412 Ry
     xc contribution           =    -440.46538281 Ry
     ewald contribution        =   12617.21056242 Ry
     electric field correction =       0.00000002 Ry
     smearing contrib. (-TS)   =      -0.07679269 Ry

     convergence has been achieved in  22 iterations

 BEEF-vdW xc energy contributions
           1 :   -388.945024626572
           2 :    353.434382278943
           3 :   -293.021244102646
           4 :    224.050250507844
           5 :   -161.734038238502
           6 :    114.787173534149
           7 :   -83.8733432134047
           8 :    63.9627578419637
           9 :   -48.7062390358642
          10 :    34.1727035245088
          11 :   -20.1173553515137
          12 :    8.66907484761509
          13 :   -1.84726754335304
          14 :  -0.267132212414595
          15 :  -0.358615980419586
          16 :    1.07780157193866
          17 :  -0.242977523037666
          18 :   -1.99610264757592
          19 :    4.19637551449830
          20 :   -4.91776628458700
          21 :    3.82747267783532
          22 :   -1.87503275883614
          23 :   0.518067047477587
          24 :  -0.642995744521158
          25 :    1.97470905840845
          26 :   -3.35818609705996
          27 :    3.65036448226749
          28 :   -2.55201432171458
          29 :   0.792708963049790
          30 :   0.429019999466789
          31 :   -32.5819284544334
          32 :   -22.7783261124814

     Forces acting on atoms (Ry/au):

     negative rho (up, down):  2.273E-01 0.000E+00
     atom    1 type  1   force =     0.00000145   -0.00504016    0.00065970
     atom    2 type  1   force =    -0.00436515    0.00252056    0.00065962
     atom    3 type  1   force =     0.00436494    0.00251889    0.00066023
     atom    4 type  2   force =    -0.00000007    0.00000001    0.01736965
     atom    5 type  1   force =    -0.00000175   -0.00408792   -0.00677878
     atom    6 type  1   force =    -0.00353903    0.00204195   -0.00677624
     atom    7 type  1   force =     0.00353961    0.00204540   -0.00677777
     atom    8 type  2   force =    -0.00000094   -0.00000060    0.00293153
     atom    9 type  1   force =    -0.00000059    0.00074095   -0.00109007
     atom   10 type  1   force =     0.00064019   -0.00037001   -0.00109039
     atom   11 type  1   force =    -0.00063917   -0.00037120   -0.00109018
     atom   12 type  2   force =     0.00000051    0.00000214    0.00132270

     Total force =     0.024139     Total SCF correction =     0.005904
     SCF correction compared to forces is large: reduce conv_thr to get better values

     entering subroutine stress ...

     negative rho (up, down):  2.273E-01 0.000E+00
          total   stress  (Ry/bohr**3)                   (kbar)     P=  -20.05
  -0.00015963   0.00000000  -0.00000000        -23.48      0.00     -0.00
   0.00000000  -0.00015963   0.00000000          0.00    -23.48      0.00
  -0.00000000   0.00000000  -0.00008963         -0.00      0.00    -13.18

 !ASE

     Writing output data file calc.save

     General routines

     Parallel routines

   This run was terminated on:  19:30:12  25Dec2018

   JOB DONE.
Job  /afs/slac/g/suncat/bin/suncat-tsmpirun -x LD_LIBRARY_PATH -wdir /scratch/qe109591_ebNnu pw.x -in pw.inp

TID   HOST_NAME   COMMAND_LINE            STATUS            TERMINATION_TIME
00000 suncat0139 pw.x -in pw.inp   Done                     12/25/2018 19:30:12
00001 suncat0139 pw.x -in pw.inp   Done                     12/25/2018 19:30:12
00002 suncat0139 pw.x -in pw.inp   Done                     12/25/2018 19:30:12
00003 suncat0139 pw.x -in pw.inp   Done                     12/25/2018 19:30:12
00004 suncat0139 pw.x -in pw.inp   Done                     12/25/2018 19:30:12
00005 suncat0139 pw.x -in pw.inp   Done                     12/25/2018 19:30:12
00006 suncat0139 pw.x -in pw.inp   Done                     12/25/2018 19:30:12
00007 suncat0139 pw.x -in pw.inp   Done                     12/25/2018 19:30:12
00008 suncat0124 pw.x -in pw.inp   Done                     12/25/2018 19:30:12
00009 suncat0124 pw.x -in pw.inp   Done                     12/25/2018 19:30:12
00010 suncat0124 pw.x -in pw.inp   Done                     12/25/2018 19:30:12
00011 suncat0124 pw.x -in pw.inp   Done                     12/25/2018 19:30:12
00012 suncat0124 pw.x -in pw.inp   Done                     12/25/2018 19:30:12
00013 suncat0124 pw.x -in pw.inp   Done                     12/25/2018 19:30:12
00014 suncat0124 pw.x -in pw.inp   Done                     12/25/2018 19:30:12
00015 suncat0124 pw.x -in pw.inp   Done                     12/25/2018 19:30:12
00016 suncat0123 pw.x -in pw.inp   Done                     12/25/2018 19:30:12
00017 suncat0123 pw.x -in pw.inp   Done                     12/25/2018 19:30:12
00018 suncat0123 pw.x -in pw.inp   Done                     12/25/2018 19:30:12
00019 suncat0123 pw.x -in pw.inp   Done                     12/25/2018 19:30:12
00020 suncat0123 pw.x -in pw.inp   Done                     12/25/2018 19:30:12
00021 suncat0123 pw.x -in pw.inp   Done                     12/25/2018 19:30:12
00022 suncat0123 pw.x -in pw.inp   Done                     12/25/2018 19:30:12
00023 suncat0123 pw.x -in pw.inp   Done                     12/25/2018 19:30:12
00024 suncat0122 pw.x -in pw.inp   Done                     12/25/2018 19:30:12
00025 suncat0122 pw.x -in pw.inp   Done                     12/25/2018 19:30:12
00026 suncat0122 pw.x -in pw.inp   Done                     12/25/2018 19:30:12
00027 suncat0122 pw.x -in pw.inp   Done                     12/25/2018 19:30:12
00028 suncat0122 pw.x -in pw.inp   Done                     12/25/2018 19:30:12
00029 suncat0122 pw.x -in pw.inp   Done                     12/25/2018 19:30:12
00030 suncat0122 pw.x -in pw.inp   Done                     12/25/2018 19:30:12
00031 suncat0122 pw.x -in pw.inp   Done                     12/25/2018 19:30:12
00032 suncat0241 pw.x -in pw.inp   Done                     12/25/2018 19:30:12
00033 suncat0241 pw.x -in pw.inp   Done                     12/25/2018 19:30:12
00034 suncat0241 pw.x -in pw.inp   Done                     12/25/2018 19:30:12
00035 suncat0241 pw.x -in pw.inp   Done                     12/25/2018 19:30:12
00036 suncat0241 pw.x -in pw.inp   Done                     12/25/2018 19:30:12
00037 suncat0241 pw.x -in pw.inp   Done                     12/25/2018 19:30:12
00038 suncat0241 pw.x -in pw.inp   Done                     12/25/2018 19:30:12
00039 suncat0241 pw.x -in pw.inp   Done                     12/25/2018 19:30:12
00040 suncat0240 pw.x -in pw.inp   Done                     12/25/2018 19:30:12
00041 suncat0240 pw.x -in pw.inp   Done                     12/25/2018 19:30:12
00042 suncat0240 pw.x -in pw.inp   Done                     12/25/2018 19:30:12
00043 suncat0240 pw.x -in pw.inp   Done                     12/25/2018 19:30:12
00044 suncat0240 pw.x -in pw.inp   Done                     12/25/2018 19:30:12
00045 suncat0240 pw.x -in pw.inp   Done                     12/25/2018 19:30:12
00046 suncat0240 pw.x -in pw.inp   Done                     12/25/2018 19:30:12
00047 suncat0240 pw.x -in pw.inp   Done                     12/25/2018 19:30:12
00048 suncat0239 pw.x -in pw.inp   Done                     12/25/2018 19:30:12
00049 suncat0239 pw.x -in pw.inp   Done                     12/25/2018 19:30:12
00050 suncat0239 pw.x -in pw.inp   Done                     12/25/2018 19:30:12
00051 suncat0239 pw.x -in pw.inp   Done                     12/25/2018 19:30:12
00052 suncat0239 pw.x -in pw.inp   Done                     12/25/2018 19:30:12
00053 suncat0239 pw.x -in pw.inp   Done                     12/25/2018 19:30:12
00054 suncat0239 pw.x -in pw.inp   Done                     12/25/2018 19:30:12
00055 suncat0239 pw.x -in pw.inp   Done                     12/25/2018 19:30:12
00056 suncat0098 pw.x -in pw.inp   Done                     12/25/2018 19:30:12
00057 suncat0098 pw.x -in pw.inp   Done                     12/25/2018 19:30:12
00058 suncat0098 pw.x -in pw.inp   Done                     12/25/2018 19:30:12
00059 suncat0098 pw.x -in pw.inp   Done                     12/25/2018 19:30:12
00060 suncat0098 pw.x -in pw.inp   Done                     12/25/2018 19:30:12
00061 suncat0098 pw.x -in pw.inp   Done                     12/25/2018 19:30:12
00062 suncat0098 pw.x -in pw.inp   Done                     12/25/2018 19:30:12
00063 suncat0098 pw.x -in pw.inp   Done                     12/25/2018 19:30:12