     Program PWSCF v.5.1rc2 (svn rev. 11289) starts on 26Dec2018 at 16:24:24

     Current dimensions of program PWSCF are:
     Max number of different atomic species (ntypx) = 10
     Max number of k-points (npk) =  40000
     Max angular momentum in pseudopotentials (lmaxx) =  3
     Presently stress not available with electric field

     IMPORTANT: XC functional enforced from input :
     Exchange-correlation      = BEEF-VDW ( 1  4 27 13 2)
     Any further DFT definition will be discarded
     Please, verify this is what you really want

     Subspace diagonalization in iterative solution of the eigenvalue problem:
     a serial algorithm will be used

     bravais-lattice index     =            0
     lattice parameter (alat)  =       1.8897  a.u.
     unit-cell volume          =    4317.7038 (a.u.)^3
     number of atoms/cell      =           12
     number of atomic types    =            2
     number of electrons       =       171.00
     number of Kohn-Sham states=          115
     kinetic-energy cutoff     =      36.7493  Ry
     charge density cutoff     =     367.4932  Ry
     convergence threshold     =      1.0E-06
     mixing beta               =       0.1000
     number of iterations used =           10  plain     mixing
     Exchange-correlation      = BEEF-VDW ( 1  4 27 13 2)
     nstep                     =           50

     celldm(1)=   1.889726  celldm(2)=   0.000000  celldm(3)=   0.000000
     celldm(4)=   0.000000  celldm(5)=   0.000000  celldm(6)=   0.000000

     crystal axes: (cart. coord. in units of alat)
               a(1) = (   5.493035   0.000000   0.000000 )
               a(2) = (  -2.746517   4.757108   0.000000 )
               a(3) = (   0.000000   0.000000  24.485044 )

     reciprocal axes: (cart. coord. in units 2 pi/alat)
               b(1) = (  0.182049  0.105106  0.000000 )
               b(2) = (  0.000000  0.210212  0.000000 )
               b(3) = (  0.000000  0.000000  0.040841 )

     PseudoPot. # 1 for Ir read from file:
     /afs/slac.stanford.edu/u/if/mamunm/psp/gbrv1.5pbe/Ir.UPF
     MD5 check sum: 8836f839c3459d2b385c504ce6d91f2c
     Pseudo is Ultrasoft + core correction, Zval = 15.0
     Generated by new atomic code, or converted to UPF format
     Using radial grid of  983 points,  7 beta functions with:
                l(1) =   0
                l(2) =   0
                l(3) =   1
                l(4) =   1
                l(5) =   1
                l(6) =   2
                l(7) =   2
     Q(r) pseudized with  8 coefficients,  rinner =    1.400   1.400   1.400
                                                       1.400   1.400

     PseudoPot. # 2 for Ti read from file:
     /afs/slac.stanford.edu/u/if/mamunm/psp/gbrv1.5pbe/Ti.UPF
     MD5 check sum: 88a00a6731bd790ddea75d31a80cb452
     Pseudo is Ultrasoft + core correction, Zval = 12.0
     Generated by new atomic code, or converted to UPF format
     Using radial grid of  851 points,  6 beta functions with:
                l(1) =   0
                l(2) =   0
                l(3) =   1
                l(4) =   1
                l(5) =   2
                l(6) =   2
     Q(r) pseudized with  6 coefficients,  rinner =    1.000   1.000   1.000
                                                       1.000   1.000

     vdW kernel table read from file vdW_kernel_table
     MD5 check sum: 095c7af220d748ca6e76c0b4c6cfb241

     atomic species   valence    mass     pseudopotential
        Ir1           15.00   192.21700     Ir( 1.00)
        Ti1           12.00    47.86700     Ti( 1.00)

     No symmetry found

   Cartesian axes

     site n.     atom                  positions (alat units)
         1           Ir1 tau(   1) = (   0.0000000   0.0000000  10.0000000  )
         2           Ir1 tau(   2) = (  -1.3732587   2.3785539  10.0000000  )
         3           Ir1 tau(   3) = (   1.3732587   2.3785539  10.0000000  )
         4           Ti1 tau(   4) = (   2.7465175   0.0000000  10.0000000  )
         5           Ir1 tau(   5) = (   2.7465175   1.5857026  12.2425221  )
         6           Ir1 tau(   6) = (   1.3732587   3.9642565  12.2425221  )
         7           Ir1 tau(   7) = (  -1.3732587   3.9642565  12.2425221  )
         8           Ti1 tau(   8) = (   0.0000000   1.5857026  12.2425221  )
         9           Ir1 tau(   9) = (  -0.0000000   3.1714052  14.4850442  )
        10           Ir1 tau(  10) = (   1.3732587   0.7928513  14.4850442  )
        11           Ir1 tau(  11) = (   4.1197762   0.7928513  14.4850442  )
        12           Ti1 tau(  12) = (   2.7465175   3.1714052  14.4850442  )

     number of k points=    20  Fermi-Dirac smearing, width (Ry)=  0.0110
                       cart. coord. in units 2pi/alat
        k(    1) = (   0.0000000   0.0000000   0.0000000), wk =   0.0555556
        k(    2) = (   0.0000000   0.0350353   0.0000000), wk =   0.1111111
        k(    3) = (   0.0000000   0.0700706   0.0000000), wk =   0.1111111
        k(    4) = (   0.0000000  -0.1051059   0.0000000), wk =   0.0555556
        k(    5) = (   0.0303415   0.0175176   0.0000000), wk =   0.1111111
        k(    6) = (   0.0303415   0.0525529   0.0000000), wk =   0.1111111
        k(    7) = (   0.0303415   0.0875882   0.0000000), wk =   0.1111111
        k(    8) = (   0.0303415  -0.0875882   0.0000000), wk =   0.1111111
        k(    9) = (   0.0303415  -0.0525529   0.0000000), wk =   0.1111111
        k(   10) = (   0.0303415  -0.0175176   0.0000000), wk =   0.1111111
        k(   11) = (   0.0606829   0.0350353   0.0000000), wk =   0.1111111
        k(   12) = (   0.0606829   0.0700706   0.0000000), wk =   0.1111111
        k(   13) = (   0.0606829   0.1051059   0.0000000), wk =   0.1111111
        k(   14) = (   0.0606829  -0.0700706   0.0000000), wk =   0.1111111
        k(   15) = (   0.0606829  -0.0350353   0.0000000), wk =   0.1111111
        k(   16) = (   0.0606829   0.0000000   0.0000000), wk =   0.1111111
        k(   17) = (  -0.0910244  -0.0525529   0.0000000), wk =   0.0555556
        k(   18) = (  -0.0910244  -0.0175176   0.0000000), wk =   0.1111111
        k(   19) = (  -0.0910244   0.0175176   0.0000000), wk =   0.1111111
        k(   20) = (  -0.0910244  -0.1576588   0.0000000), wk =   0.0555556

     Largest allocated arrays     est. size (Mb)     dimensions
     Largest temporary arrays     est. size (Mb)     dimensions

     Check: negative/imaginary core charge=   -0.000002    0.000000

     Initial potential from superposition of free atoms
     Check: negative starting charge=   -3.274256

     starting charge  163.49958, renormalised to  171.00000

     negative rho (up, down):  3.424E+00 0.000E+00

     *
     * You are using vdW-DF for exchange-correlation in this calculation.
     * Please cite the following three references that made this development
     * possible:
     *
     *   M. Dion, H. Rydberg, E. Schroder, D. C. Langreth, and
     *   B. I. Lundqvist, Phys. Rev. Lett. 92, 246401 (2004).
     *
     *   T. Thonhauser, V. R. Cooper, S. Li, A. Puzder, P. Hyldgaard, and
     *   D. C. Langreth, Phys. Rev. B 76, 125112 (2007).
     *
     *   G. Roman-Perez and J. M. Soler, Phys. Rev. Lett. 103, 096102 (2009).
     *
     *
     * If you are using vdW-DF2, please also cite:
     *
     *   K. Lee, E. D. Murray, L. Kong, B. I. Lundqvist, and
     *   D. C. Langreth, Phys. Rev. B 82, 081101(R) (2010).
     *
     *
     * If you are calculating the stress with vdW-DF, please also cite:
     *
     *   R. Sabatini, E. Kucukbenli, B. Kolb, T. Thonhauser, and
     *   S. de Gironcoli, J. Phys.: Condens. Matter 24, 424209 (2012).
     *

     Carrying out vdW-DF run using the following parameters:

     Nqs =      20    Nr_points =    1024   r_max =   100.000
     q_mesh =
               0.00001000     0.04494208     0.09755937     0.15916263
               0.23128650     0.31572767     0.41458969     0.53033537
               0.66584808     0.82450364     1.01025438     1.22772762
               1.48234092     1.78043706     2.12944203     2.53805004
               3.01644009     3.57652955     4.23227104     5.00000000

     Gradients computed in reciprocal space

     Adding external electric field

     Computed dipole along edir(3) :
        Dipole                0.0000 Ry au,          0.0000 Debye
        Dipole field          0.0000 Ry au

        Potential amp.       -0.0000 Ry
        Total length         45.1133 bohr

     Starting wfc are  138 randomized atomic wfcs

     Self-consistent Calculation

     iteration #  1     ecut=    36.75 Ry     beta=0.10
     Davidson diagonalization with overlap
     ethr =  1.00E-02,  avg # of iterations =  8.4

[...]

     total energy              =   -2003.26845712 Ry
     Harris-Foulkes estimate   =   -2018.86205399 Ry
     estimated scf accuracy    <      88.33286860 Ry

[...]

     End of self-consistent calculation

          k = 0.0000 0.0000 0.0000 ( 16103 PWs)   bands (ev):

   -55.3716 -55.3704 -55.2436 -47.5302 -47.3824 -47.3824 -47.3619 -47.2999
   -47.2999 -47.1333 -47.0870 -47.0659 -47.0378 -47.0378 -46.8953 -46.8953
   -46.8641 -46.8641 -46.7666 -46.7252 -46.7252 -46.7213 -46.6985 -46.6985
   -46.6512 -46.6445 -46.5985 -46.5985 -46.5962 -46.5962 -31.7104 -31.7009
   -31.4961 -31.4961 -31.4943 -31.4943 -31.4768 -31.4768 -31.3942  -6.3835
    -4.6385  -4.2468  -3.9300  -3.7589  -3.7589  -3.4718  -3.4319  -3.4319
    -3.1035  -3.0569  -3.0569  -2.8243  -2.7226  -2.7226  -1.8595  -1.3181
    -1.3181  -1.1277  -1.1277  -0.7490  -0.6387  -0.4932  -0.4134  -0.0677
    -0.0677   0.1055   0.1055   0.1123   0.1123   0.5200   0.5200   0.6737
     0.6737   1.2914   1.3031   1.6986   1.6986   1.7605   1.7605   1.8912
     1.9299   1.9299   2.6885   2.7369   2.7889   2.7889   2.8525   3.4419
     3.4781   3.4781   3.8247   3.8740   3.8740   3.9039   3.9646   4.0984
     4.0984   4.1351   4.3129   4.3129   4.6213   4.6213   4.8552   4.8552
     4.9987   4.9987   5.9078   5.9078   5.9724   6.1840   6.1840   6.3839
     6.4544   6.6116   7.0208

[...]

          k =-0.0910-0.0526 0.0000 ( 16188 PWs)   bands (ev):

[...]

     the Fermi energy is     2.1200 ev

!    total energy              =   -2009.98823747 Ry
     Harris-Foulkes estimate   =   -2009.98823555 Ry
     estimated scf accuracy    <       0.00000061 Ry

     The total energy is the sum of the following terms:

     one-electron contribution =  -16604.05983500 Ry
     hartree contribution      =    8321.64373118 Ry
     xc contribution           =    -524.08669480 Ry
     ewald contribution        =    6796.58942614 Ry
     electric field correction =       0.00000006 Ry
     smearing contrib. (-TS)   =      -0.07486505 Ry

     convergence has been achieved in  19 iterations

 BEEF-vdW xc energy contributions
           1 :   -462.863516088991
           2 :    428.940768926720
           3 :   -368.919404559473
           4 :    295.474765554609
           5 :   -221.904687041117
           6 :    158.439406039387
           7 :   -110.263683946201
           8 :    77.4961658523223
           9 :   -56.6724439060097
          10 :    42.8857768444282
          11 :   -31.7417210526609
          12 :    20.5459707604714
[...]
     MD5 check sum: 8836f839c3459d2b385c504ce6d91f2c
     Pseudo is Ultrasoft + core correction, Zval = 15.0
     Generated by new atomic code, or converted to UPF format
     Using radial grid of  983 points,  7 beta functions with:
                l(1) =   0
                l(2) =   0
                l(3) =   1
                l(4) =   1
                l(5) =   1
                l(6) =   2
                l(7) =   2
     Q(r) pseudized with  8 coefficients,  rinner =    1.400   1.400   1.400
                                                       1.400   1.400

     PseudoPot. # 2 for Ti read from file:
     /afs/slac.stanford.edu/u/if/mamunm/psp/gbrv1.5pbe/Ti.UPF
     MD5 check sum: 88a00a6731bd790ddea75d31a80cb452
     Pseudo is Ultrasoft + core correction, Zval = 12.0
     Generated by new atomic code, or converted to UPF format
     Using radial grid of  851 points,  6 beta functions with:
                l(1) =   0
                l(2) =   0
                l(3) =   1
                l(4) =   1
                l(5) =   2
                l(6) =   2
     Q(r) pseudized with  6 coefficients,  rinner =    1.000   1.000   1.000
                                                       1.000   1.000

     vdW kernel table read from file vdW_kernel_table
     MD5 check sum: 095c7af220d748ca6e76c0b4c6cfb241

     atomic species   valence    mass     pseudopotential
        Ir1           15.00   192.21700     Ir( 1.00)
        Ti1           12.00    47.86700     Ti( 1.00)

     No symmetry found

   Cartesian axes

     site n.     atom                  positions (alat units)
         1           Ir1 tau(   1) = (   0.0000000   0.0000000  10.0000000  )
         2           Ir1 tau(   2) = (  -1.3732587   2.3785539  10.0000000  )
         3           Ir1 tau(   3) = (   1.3732587   2.3785539  10.0000000  )
         4           Ti1 tau(   4) = (   2.7465175   0.0000000  10.0000000  )
         5           Ir1 tau(   5) = (   2.7465175   1.5857026  12.2425221  )
         6           Ir1 tau(   6) = (   1.3732587   3.9642565  12.2425221  )
         7           Ir1 tau(   7) = (  -1.3732587   3.9642565  12.2425221  )
         8           Ti1 tau(   8) = (   0.0000000   1.5857026  12.2425221  )
         9           Ir1 tau(   9) = (   0.0000014   3.1417751  14.4101592  )
        10           Ir1 tau(  10) = (   1.3475996   0.8076702  14.4101601  )
        11           Ir1 tau(  11) = (   4.1454331   0.8076685  14.4101594  )
        12           Ti1 tau(  12) = (   2.7465165   3.1714030  14.3965096  )

     number of k points=    20  Fermi-Dirac smearing, width (Ry)=  0.0110
                       cart. coord. in units 2pi/alat
        k(    1) = (   0.0000000   0.0000000   0.0000000), wk =   0.0555556
        k(    2) = (   0.0000000   0.0350353   0.0000000), wk =   0.1111111
        k(    3) = (   0.0000000   0.0700706   0.0000000), wk =   0.1111111
        k(    4) = (   0.0000000  -0.1051059   0.0000000), wk =   0.0555556
        k(    5) = (   0.0303415   0.0175176   0.0000000), wk =   0.1111111
        k(    6) = (   0.0303415   0.0525529   0.0000000), wk =   0.1111111
        k(    7) = (   0.0303415   0.0875882   0.0000000), wk =   0.1111111
        k(    8) = (   0.0303415  -0.0875882   0.0000000), wk =   0.1111111
        k(    9) = (   0.0303415  -0.0525529   0.0000000), wk =   0.1111111
        k(   10) = (   0.0303415  -0.0175176   0.0000000), wk =   0.1111111
        k(   11) = (   0.0606829   0.0350353   0.0000000), wk =   0.1111111
        k(   12) = (   0.0606829   0.0700706   0.0000000), wk =   0.1111111
        k(   13) = (   0.0606829   0.1051059   0.0000000), wk =   0.1111111
        k(   14) = (   0.0606829  -0.0700706   0.0000000), wk =   0.1111111
        k(   15) = (   0.0606829  -0.0350353   0.0000000), wk =   0.1111111
        k(   16) = (   0.0606829   0.0000000   0.0000000), wk =   0.1111111
        k(   17) = (  -0.0910244  -0.0525529   0.0000000), wk =   0.0555556
        k(   18) = (  -0.0910244  -0.0175176   0.0000000), wk =   0.1111111
        k(   19) = (  -0.0910244   0.0175176   0.0000000), wk =   0.1111111
        k(   20) = (  -0.0910244  -0.1576588   0.0000000), wk =   0.0555556

     Largest allocated arrays     est. size (Mb)     dimensions
     Largest temporary arrays     est. size (Mb)     dimensions

     Check: negative/imaginary core charge=   -0.000002    0.000000

     Initial potential from superposition of free atoms
     Check: negative starting charge=   -3.270207

     starting charge  163.49958, renormalised to  171.00000

[...]

     *
     * You are using vdW-DF for exchange-correlation in this calculation.
     * Please cite the following three references that made this development
     * possible:
     *
     *   M. Dion, H. Rydberg, E. Schroder, D. C. Langreth, and
     *   B. I. Lundqvist, Phys. Rev. Lett. 92, 246401 (2004).
     *
     *   T. Thonhauser, V. R. Cooper, S. Li, A. Puzder, P. Hyldgaard, and
     *   D. C. Langreth, Phys. Rev. B 76, 125112 (2007).
     *
     *   G. Roman-Perez and J. M. Soler, Phys. Rev. Lett. 103, 096102 (2009).
     *
     *
     * If you are using vdW-DF2, please also cite:
     *
     *   K. Lee, E. D. Murray, L. Kong, B. I. Lundqvist, and
     *   D. C. Langreth, Phys. Rev. B 82, 081101(R) (2010).
     *
     *
     * If you are calculating the stress with vdW-DF, please also cite:
     *
     *   R. Sabatini, E. Kucukbenli, B. Kolb, T. Thonhauser, and
     *   S. de Gironcoli, J. Phys.: Condens. Matter 24, 424209 (2012).
     *

     Carrying out vdW-DF run using the following parameters:

     Nqs =      20    Nr_points =    1024   r_max =   100.000
     q_mesh =
               0.00001000     0.04494208     0.09755937     0.15916263
               0.23128650     0.31572767     0.41458969     0.53033537
               0.66584808     0.82450364     1.01025438     1.22772762
               1.48234092     1.78043706     2.12944203     2.53805004
               3.01644009     3.57652955     4.23227104     5.00000000

     Gradients computed in reciprocal space

[...]

     Starting wfc are  138 randomized atomic wfcs

     Self-consistent Calculation

[...]

     total energy              =   -2009.99717026 Ry
     Harris-Foulkes estimate   =   -2009.99716711 Ry
     estimated scf accuracy    <       0.00000115 Ry

     iteration # 20     ecut=    36.75 Ry     beta=0.10
     Davidson diagonalization with overlap
     ethr =  6.71E-10,  avg # of iterations =  2.2

[...]

     negative rho (up, down):  2.904E+00 0.000E+00

     Adding external electric field

     Computed dipole along edir(3) :
        Dipole               -0.0005 Ry au,         -0.0014 Debye
        Dipole field         -0.0000 Ry au

        Potential amp.        0.0001 Ry
        Total length         45.1133 bohr

     End of self-consistent calculation

[...]

          k = 0.0607 0.0000 0.0000 ( 16262 PWs)   bands (ev):

[...]

          k =-0.0910-0.1577 0.0000 ( 16188 PWs)   bands (ev):

   -55.3951 -55.2878 -55.1922 -47.4932 -47.4079 -47.3955 -47.3677 -47.3179
   -47.3091 -47.2799 -47.2779 -47.1051 -47.0320 -46.9632 -46.8854 -46.8330
   -46.8207 -46.8048 -46.7916 -46.7832 -46.7784 -46.7624 -46.7594 -46.7554
   -46.7421 -46.7128 -46.6937 -46.6934 -46.6575 -46.6004 -31.7372 -31.6185
   -31.5282 -31.5190 -31.4511 -31.4425 -31.4404 -31.4295 -31.3461  -4.9190
    -4.4758  -3.4061  -3.1688  -3.1452  -2.9916  -2.9905  -2.6601  -2.6265
    -2.5785  -2.4428  -2.3474  -2.0288  -1.9441  -1.8495  -1.8340  -1.7627
    -1.4576  -1.3864  -1.3115  -0.7656  -0.7399  -0.6909  -0.6134  -0.5568
    -0.5257  -0.4320  -0.3562  -0.2818  -0.2775  -0.2407  -0.0721  -0.0097
     0.0458   0.3310   0.4068   0.4912   0.6581   0.7635   0.8749   0.8857
     1.2249   1.4006   1.5260   1.5509   1.5961   1.9896   2.0090   2.0442
     2.1868   2.7149   2.8358   3.0457   3.2359   3.3321   3.3683   3.4639
     3.5186   3.8098   3.8417   3.8608   4.2759   4.4378   4.8183   4.8673
     5.1223   5.5813   6.2676   6.4039   6.7010   6.9230   7.0782   7.9132
     8.0050   8.0242   8.1890

     the Fermi energy is     2.1160 ev

!    total energy              =   -2009.99718023 Ry
     Harris-Foulkes estimate   =   -2009.99717036 Ry
     estimated scf accuracy    <       0.00000038 Ry

     The total energy is the sum of the following terms:

     one-electron contribution =  -16789.68230757 Ry
     hartree contribution      =    8414.34677457 Ry
     xc contribution           =    -524.25947888 Ry
     ewald contribution        =    6889.67023009 Ry
     electric field correction =       0.00000000 Ry
     smearing contrib. (-TS)   =      -0.07239844 Ry

     convergence has been achieved in  20 iterations

 BEEF-vdW xc energy contributions
           1 :   -463.041149569570
           2 :    429.187777332527
           3 :   -369.257045987304
           4 :    295.858444440236
           5 :   -222.246628380373
           6 :    158.655396636094
           7 :   -110.316192290478
           8 :    77.4110236611814
           9 :   -56.5235391454215
          10 :    42.7597288723808
          11 :   -31.7025866141754
          12 :    20.6152453515390
          13 :   -8.73670651575753
          14 :   -3.13569142789697
          15 :    13.4157383692424
          16 :   -20.5423983174525
          17 :    23.6331062757515
          18 :   -22.8457389477437
          19 :    19.3582013002481
          20 :   -14.9694389260248
          21 :    11.4511327208266
          22 :   -9.89817728132903
          23 :    10.3499506406309
          24 :   -11.8639582691525
          25 :    13.0207424720510
          26 :   -12.6284895933226
          27 :    10.2854515956677
          28 :   -6.53439019463599
          29 :    2.55534962333672
          30 :   0.417579056500017
          31 :   -40.5921895463823
          32 :   -30.2491304581299

     Forces acting on atoms (Ry/au):

     negative rho (up, down):  2.904E+00 0.000E+00
     atom    1 type  1   force =     0.00000014    0.01814291    0.01836199
     atom    2 type  1   force =     0.01571256   -0.00907193    0.01836202
     atom    3 type  1   force =    -0.01571209   -0.00907154    0.01836232
     atom    4 type  2   force =     0.00000003   -0.00000018    0.01731750
     atom    5 type  1   force =    -0.00000008    0.00293476   -0.01856359
     atom    6 type  1   force =     0.00254173   -0.00146708   -0.01856273
     atom    7 type  1   force =    -0.00254217   -0.00146708   -0.01856321
     atom    8 type  2   force =    -0.00000018   -0.00000000   -0.01569546
     atom    9 type  1   force =    -0.00000070   -0.00027293   -0.00010868
     atom   10 type  1   force =    -0.00023799    0.00013550   -0.00010969
     atom   11 type  1   force =     0.00023851    0.00013623   -0.00010922
     atom   12 type  2   force =     0.00000024    0.00000135   -0.00069125

     Total force =     0.060047     Total SCF correction =     0.002199

     entering subroutine stress ...

     negative rho (up, down):  2.904E+00 0.000E+00
          total   stress  (Ry/bohr**3)                   (kbar)     P=  -22.15
  -0.00017250  -0.00000000   0.00000000        -25.38     -0.00      0.00
  -0.00000000  -0.00017250  -0.00000000         -0.00    -25.38     -0.00
   0.00000000  -0.00000000  -0.00010671          0.00     -0.00    -15.70

 !ASE

     Writing output data file calc.save

     General routines

     Parallel routines

   This run was terminated on:  17:29: 7  26Dec2018

   JOB DONE.
Job  /afs/slac/g/suncat/bin/suncat-tsmpirun -x LD_LIBRARY_PATH -wdir /scratch/qe109970_sPQqo pw.x -in pw.inp

TID   HOST_NAME   COMMAND_LINE            STATUS            TERMINATION_TIME
00000 suncat0183 pw.x -in pw.inp   Done                     12/26/2018 17:29:07
00001 suncat0183 pw.x -in pw.inp   Done                     12/26/2018 17:29:07
00002 suncat0183 pw.x -in pw.inp   Done                     12/26/2018 17:29:07
00003 suncat0183 pw.x -in pw.inp   Done                     12/26/2018 17:29:07
00004 suncat0183 pw.x -in pw.inp   Done                     12/26/2018 17:29:07
00005 suncat0183 pw.x -in pw.inp   Done                     12/26/2018 17:29:07
00006 suncat0183 pw.x -in pw.inp   Done                     12/26/2018 17:29:07
00007 suncat0183 pw.x -in pw.inp   Done                     12/26/2018 17:29:07
00008 suncat0182 pw.x -in pw.inp   Done                     12/26/2018 17:29:07
00009 suncat0182 pw.x -in pw.inp   Done                     12/26/2018 17:29:07
00010 suncat0182 pw.x -in pw.inp   Done                     12/26/2018 17:29:07
00011 suncat0182 pw.x -in pw.inp   Done                     12/26/2018 17:29:07
00012 suncat0182 pw.x -in pw.inp   Done                     12/26/2018 17:29:07
00013 suncat0182 pw.x -in pw.inp   Done                     12/26/2018 17:29:07
00014 suncat0182 pw.x -in pw.inp   Done                     12/26/2018 17:29:07
00015 suncat0182 pw.x -in pw.inp   Done                     12/26/2018 17:29:07
00016 suncat0181 pw.x -in pw.inp   Done                     12/26/2018 17:29:07
00017 suncat0181 pw.x -in pw.inp   Done                     12/26/2018 17:29:07
00018 suncat0181 pw.x -in pw.inp   Done                     12/26/2018 17:29:07
00019 suncat0181 pw.x -in pw.inp   Done                     12/26/2018 17:29:07
00020 suncat0181 pw.x -in pw.inp   Done                     12/26/2018 17:29:07
00021 suncat0181 pw.x -in pw.inp   Done                     12/26/2018 17:29:07
00022 suncat0181 pw.x -in pw.inp   Done                     12/26/2018 17:29:07
00023 suncat0181 pw.x -in pw.inp   Done                     12/26/2018 17:29:07
00024 suncat0252 pw.x -in pw.inp   Done                     12/26/2018 17:29:07
00025 suncat0252 pw.x -in pw.inp   Done                     12/26/2018 17:29:07
00026 suncat0252 pw.x -in pw.inp   Done                     12/26/2018 17:29:07
00027 suncat0252 pw.x -in pw.inp   Done                     12/26/2018 17:29:07
00028 suncat0252 pw.x -in pw.inp   Done                     12/26/2018 17:29:07
00029 suncat0252 pw.x -in pw.inp   Done                     12/26/2018 17:29:07
00030 suncat0252 pw.x -in pw.inp   Done                     12/26/2018 17:29:07
00031 suncat0252 pw.x -in pw.inp   Done                     12/26/2018 17:29:07
00032 suncat0226 pw.x -in pw.inp   Done                     12/26/2018 17:29:07
00033 suncat0226 pw.x -in pw.inp   Done                     12/26/2018 17:29:07
00034 suncat0226 pw.x -in pw.inp   Done                     12/26/2018 17:29:07
00035 suncat0226 pw.x -in pw.inp   Done                     12/26/2018 17:29:07
00036 suncat0226 pw.x -in pw.inp   Done                     12/26/2018 17:29:07
00037 suncat0226 pw.x -in pw.inp   Done                     12/26/2018 17:29:07
00038 suncat0226 pw.x -in pw.inp   Done                     12/26/2018 17:29:07
00039 suncat0226 pw.x -in pw.inp   Done                     12/26/2018 17:29:07
00040 suncat0225 pw.x -in pw.inp   Done                     12/26/2018 17:29:07
00041 suncat0225 pw.x -in pw.inp   Done                     12/26/2018 17:29:07
00042 suncat0225 pw.x -in pw.inp   Done                     12/26/2018 17:29:07
00043 suncat0225 pw.x -in pw.inp   Done                     12/26/2018 17:29:07
00044 suncat0225 pw.x -in pw.inp   Done                     12/26/2018 17:29:07
00045 suncat0225 pw.x -in pw.inp   Done                     12/26/2018 17:29:07
00046 suncat0225 pw.x -in pw.inp   Done                     12/26/2018 17:29:07
00047 suncat0225 pw.x -in pw.inp   Done                     12/26/2018 17:29:07
00048 suncat0224 pw.x -in pw.inp   Done                     12/26/2018 17:29:07
00049 suncat0224 pw.x -in pw.inp   Done                     12/26/2018 17:29:07
00050 suncat0224 pw.x -in pw.inp   Done                     12/26/2018 17:29:07
00051 suncat0224 pw.x -in pw.inp   Done                     12/26/2018 17:29:07
00052 suncat0224 pw.x -in pw.inp   Done                     12/26/2018 17:29:07
00053 suncat0224 pw.x -in pw.inp   Done                     12/26/2018 17:29:07
00054 suncat0224 pw.x -in pw.inp   Done                     12/26/2018 17:29:07
00055 suncat0224 pw.x -in pw.inp   Done                     12/26/2018 17:29:07
00056 suncat0223 pw.x -in pw.inp   Done                     12/26/2018 17:29:07
00057 suncat0223 pw.x -in pw.inp   Done                     12/26/2018 17:29:07
00058 suncat0223 pw.x -in pw.inp   Done                     12/26/2018 17:29:07
00059 suncat0223 pw.x -in pw.inp   Done                     12/26/2018 17:29:07
00060 suncat0223 pw.x -in pw.inp   Done                     12/26/2018 17:29:07
00061 suncat0223 pw.x -in pw.inp   Done                     12/26/2018 17:29:07
00062 suncat0223 pw.x -in pw.inp   Done                     12/26/2018 17:29:07
00063 suncat0223 pw.x -in pw.inp   Done                     12/26/2018 17:29:07