     Program PWSCF v.5.1rc2 (svn rev. 11289) starts on 25Dec2018 at 19:27:54

     Current dimensions of program PWSCF are:
     Max number of different atomic species (ntypx) = 10
     Max number of k-points (npk) =  40000
     Max angular momentum in pseudopotentials (lmaxx) =  3
     Presently stress not available with electric field

     IMPORTANT: XC functional enforced from input :
     Exchange-correlation      = BEEF-VDW ( 1  4 27 13 2)
     Any further DFT definition will be discarded
     Please, verify this is what you really want

     Subspace diagonalization in iterative solution of the eigenvalue problem:
     a serial algorithm will be used

     Generating pointlists ...
     new r_m :   0.4125 (alat units)  0.7795 (a.u.) for type    1
     new r_m :   0.4125 (alat units)  0.7795 (a.u.) for type    2

     bravais-lattice index     =            0
     lattice parameter (alat)  =       1.8897  a.u.
     unit-cell volume          =    4131.5769 (a.u.)^3
     number of atoms/cell      =           12
     number of atomic types    =            2
     number of electrons       =       180.00
     number of Kohn-Sham states=          120
     kinetic-energy cutoff     =      36.7493  Ry
     charge density cutoff     =     367.4932  Ry
     convergence threshold     =      1.0E-06
     mixing beta               =       0.1000
     number of iterations used =           10  plain     mixing
     Exchange-correlation      = BEEF-VDW ( 1  4 27 13 2)
     nstep                     =           50

     celldm(1)=   1.889726  celldm(2)=   0.000000  celldm(3)=   0.000000
     celldm(4)=   0.000000  celldm(5)=   0.000000  celldm(6)=   0.000000

     crystal axes: (cart. coord. in units of alat)
               a(1) = (   5.383202   0.000000   0.000000 )
               a(2) = (  -2.691601   4.661989   0.000000 )
               a(3) = (   0.000000   0.000000  24.395366 )

     reciprocal axes: (cart. coord. in units 2 pi/alat)
               b(1) = (  0.185763  0.107250  0.000000 )
               b(2) = (  0.000000  0.214501  0.000000 )
               b(3) = (  0.000000  0.000000  0.040991 )

     PseudoPot. # 1 for Fe read from file:
     /afs/slac.stanford.edu/u/if/mamunm/psp/gbrv1.5pbe/Fe.UPF
     MD5 check sum: a130daea23fe5165f5d574ae7f82ed95
     Pseudo is Ultrasoft + core correction, Zval = 16.0
     Generated by new atomic code, or converted to UPF format
     Using radial grid of  861 points,  6 beta functions with:
                l(1) =   0
                l(2) =   0
                l(3) =   1
                l(4) =   1
                l(5) =   2
                l(6) =   2
     Q(r) pseudized with  8 coefficients,  rinner =    1.000   1.000   1.000
                                                       1.000   1.000

     PseudoPot. # 2 for Hf read from file:
     /afs/slac.stanford.edu/u/if/mamunm/psp/gbrv1.5pbe/Hf.UPF
     MD5 check sum: 8ee9378dfe14276e333edf04c5e4aa26
     Pseudo is Ultrasoft + core correction, Zval = 12.0
     Generated by new atomic code, or converted to UPF format
     Using radial grid of  921 points,  8 beta functions with:
                l(1) =   0
                l(2) =   0
                l(3) =   0
                l(4) =   1
                l(5) =   1
                l(6) =   2
                l(7) =   2
                l(8) =   3
     Q(r) pseudized with  6 coefficients,  rinner =    1.200   1.200   1.200
                                                       1.200   1.200   1.200
                                                       1.200

     vdW kernel table read from file vdW_kernel_table
     MD5 check sum: 095c7af220d748ca6e76c0b4c6cfb241

     atomic species   valence    mass     pseudopotential
        Fe1           16.00    55.84500     Fe( 1.00)
        Hf1           12.00   178.49000     Hf( 1.00)

     Starting magnetic structure
     atomic species   magnetization
        Fe1          0.125
        Hf1          0.167

     No symmetry found

   Cartesian axes

     site n.     atom                  positions (alat units)
         1           Fe1 tau(   1) = (   0.0000000   0.0000000  10.0000000  )
         2           Fe1 tau(   2) = (  -1.3458004   2.3309946  10.0000000  )
         3           Fe1 tau(   3) = (   1.3458004   2.3309946  10.0000000  )
         4           Hf1 tau(   4) = (   2.6916008   0.0000000  10.0000000  )
         5           Fe1 tau(   5) = (   2.6916008   1.5539964  12.1976828  )
         6           Fe1 tau(   6) = (   1.3458004   3.8849911  12.1976828  )
         7           Fe1 tau(   7) = (  -1.3458004   3.8849911  12.1976828  )
         8           Hf1 tau(   8) = (   0.0000000   1.5539964  12.1976828  )
         9           Fe1 tau(   9) = (  -0.0000000   3.1079928  14.3953656  )
        10           Fe1 tau(  10) = (   1.3458004   0.7769982  14.3953656  )
        11           Fe1 tau(  11) = (   4.0374011   0.7769982  14.3953656  )
        12           Hf1 tau(  12) = (   2.6916008   3.1079928  14.3953656  )

     number of k points=    40  Fermi-Dirac smearing, width (Ry)=  0.0110
                       cart. coord. in units 2pi/alat
        k(    1) = (   0.0000000   0.0000000   0.0000000), wk =   0.0277778
        k(    2) = (   0.0000000   0.0357501   0.0000000), wk =   0.0555556
        k(    3) = (   0.0000000   0.0715002   0.0000000), wk =   0.0555556
        k(    4) = (   0.0000000  -0.1072504   0.0000000), wk =   0.0277778
        k(    5) = (   0.0309605   0.0178751   0.0000000), wk =   0.0555556
        k(    6) = (   0.0309605   0.0536252   0.0000000), wk =   0.0555556
        k(    7) = (   0.0309605   0.0893753   0.0000000), wk =   0.0555556
        k(    8) = (   0.0309605  -0.0893753   0.0000000), wk =   0.0555556
        k(    9) = (   0.0309605  -0.0536252   0.0000000), wk =   0.0555556
        k(   10) = (   0.0309605  -0.0178751   0.0000000), wk =   0.0555556
        k(   11) = (   0.0619210   0.0357501   0.0000000), wk =   0.0555556
        k(   12) = (   0.0619210   0.0715002   0.0000000), wk =   0.0555556
        k(   13) = (   0.0619210   0.1072504   0.0000000), wk =   0.0555556
        k(   14) = (   0.0619210  -0.0715002   0.0000000), wk =   0.0555556
        k(   15) = (   0.0619210  -0.0357501   0.0000000), wk =   0.0555556
        k(   16) = (   0.0619210   0.0000000   0.0000000), wk =   0.0555556
        k(   17) = (  -0.0928815  -0.0536252   0.0000000), wk =   0.0277778
        k(   18) = (  -0.0928815  -0.0178751   0.0000000), wk =   0.0555556
        k(   19) = (  -0.0928815   0.0178751   0.0000000), wk =   0.0555556
        k(   20) = (  -0.0928815  -0.1608755   0.0000000), wk =   0.0277778
        k(   21) = (   0.0000000   0.0000000   0.0000000), wk =   0.0277778
        k(   22) = (   0.0000000   0.0357501   0.0000000), wk =   0.0555556
        k(   23) = (   0.0000000   0.0715002   0.0000000), wk =   0.0555556
        k(   24) = (   0.0000000  -0.1072504   0.0000000), wk =   0.0277778
        k(   25) = (   0.0309605   0.0178751   0.0000000), wk =   0.0555556
        k(   26) = (   0.0309605   0.0536252   0.0000000), wk =   0.0555556
        k(   27) = (   0.0309605   0.0893753   0.0000000), wk =   0.0555556
        k(   28) = (   0.0309605  -0.0893753   0.0000000), wk =   0.0555556
        k(   29) = (   0.0309605  -0.0536252   0.0000000), wk =   0.0555556
        k(   30) = (   0.0309605  -0.0178751   0.0000000), wk =   0.0555556
        k(   31) = (   0.0619210   0.0357501   0.0000000), wk =   0.0555556
        k(   32) = (   0.0619210   0.0715002   0.0000000), wk =   0.0555556
        k(   33) = (   0.0619210   0.1072504   0.0000000), wk =   0.0555556
        k(   34) = (   0.0619210  -0.0715002   0.0000000), wk =   0.0555556
        k(   35) = (   0.0619210  -0.0357501   0.0000000), wk =   0.0555556
        k(   36) = (   0.0619210   0.0000000   0.0000000), wk =   0.0555556
        k(   37) = (  -0.0928815  -0.0536252   0.0000000), wk =   0.0277778
        k(   38) = (  -0.0928815  -0.0178751   0.0000000), wk =   0.0555556
        k(   39) = (  -0.0928815   0.0178751   0.0000000), wk =   0.0555556
        k(   40) = (  -0.0928815  -0.1608755   0.0000000), wk =   0.0277778

     Largest allocated arrays     est. size (Mb)     dimensions
     Largest temporary arrays     est. size (Mb)     dimensions

     Check: negative/imaginary core charge=   -0.000006    0.000000

     Initial potential from superposition of free atoms
     Check: negative starting charge=(component1):   -0.189044
     Check: negative starting charge=(component2):   -0.134978

     starting charge  164.99994, renormalised to  180.00000

     negative rho (up, down):  2.062E-01 1.472E-01

     *
     * You are using vdW-DF for exchange-correlation in this calculation.
     * Please cite the following three references that made this development
     * possible:
     *
     *   M. Dion, H. Rydberg, E. Schroder, D. C. Langreth, and
     *   B. I. Lundqvist, Phys. Rev. Lett. 92, 246401 (2004).
     *
     *   T. Thonhauser, V. R. Cooper, S. Li, A. Puzder, P. Hyldgaard, and
     *   D. C. Langreth, Phys. Rev. B 76, 125112 (2007).
     *
     *   G. Roman-Perez and J. M. Soler, Phys. Rev. Lett. 103, 096102 (2009).
     *
     *
     * If you are using vdW-DF2, please also cite:
     *
     *   K. Lee, E. D. Murray, L. Kong, B. I. Lundqvist, and
     *   D. C. Langreth, Phys. Rev. B 82, 081101(R) (2010).
     *
     *
     * If you are calculating the stress with vdW-DF, please also cite:
     *
     *   R. Sabatini, E. Kucukbenli, B. Kolb, T. Thonhauser, and
     *   S. de Gironcoli, J. Phys.: Condens. Matter 24, 424209 (2012).
     *

     Carrying out vdW-DF run using the following parameters:

     Nqs =      20    Nr_points =    1024   r_max =   100.000
     q_mesh =
               0.00001000     0.04494208     0.09755937     0.15916263
               0.23128650     0.31572767     0.41458969     0.53033537
               0.66584808     0.82450364     1.01025438     1.22772762
               1.48234092     1.78043706     2.12944203     2.53805004
               3.01644009     3.57652955     4.23227104     5.00000000

     Gradients computed in reciprocal space

     Adding external electric field

     Computed dipole along edir(3) :
        Dipole               -0.0000 Ry au,         -0.0000 Debye
        Dipole field         -0.0000 Ry au

        Potential amp.        0.0000 Ry
        Total length         44.9480 bohr

[...]

     Starting wfc are  156 randomized atomic wfcs

     Self-consistent Calculation

     iteration #  1     ecut=    36.75 Ry     beta=0.10
     Davidson diagonalization with overlap
     ethr =  1.00E-02,  avg # of iterations =  8.3

[...]

     Magnetic moment per site:
     atom:    1    charge:    7.3258    magn:    0.8742    constr:    0.0000
     atom:    2    charge:    7.3258    magn:    0.8742    constr:    0.0000
     atom:    3    charge:    7.3258    magn:    0.8742    constr:    0.0000
     atom:    4    charge:    1.2102    magn:    0.1835    constr:    0.0000
     atom:    5    charge:    7.3269    magn:    0.8754    constr:    0.0000
     atom:    6    charge:    7.3269    magn:    0.8754    constr:    0.0000
[...]
        k(    4) = (   0.0000000  -0.1072504   0.0000000), wk =   0.0277778
        k(    5) = (   0.0309605   0.0178751   0.0000000), wk =   0.0555556
        k(    6) = (   0.0309605   0.0536252   0.0000000), wk =   0.0555556
        k(    7) = (   0.0309605   0.0893753   0.0000000), wk =   0.0555556
        k(    8) = (   0.0309605  -0.0893753   0.0000000), wk =   0.0555556
        k(    9) = (   0.0309605  -0.0536252   0.0000000), wk =   0.0555556
        k(   10) = (   0.0309605  -0.0178751   0.0000000), wk =   0.0555556
        k(   11) = (   0.0619210   0.0357501   0.0000000), wk =   0.0555556
        k(   12) = (   0.0619210   0.0715002   0.0000000), wk =   0.0555556
        k(   13) = (   0.0619210   0.1072504   0.0000000), wk =   0.0555556
        k(   14) = (   0.0619210  -0.0715002   0.0000000), wk =   0.0555556
        k(   15) = (   0.0619210  -0.0357501   0.0000000), wk =   0.0555556
        k(   16) = (   0.0619210   0.0000000   0.0000000), wk =   0.0555556
        k(   17) = (  -0.0928815  -0.0536252   0.0000000), wk =   0.0277778
        k(   18) = (  -0.0928815  -0.0178751   0.0000000), wk =   0.0555556
        k(   19) = (  -0.0928815   0.0178751   0.0000000), wk =   0.0555556
        k(   20) = (  -0.0928815  -0.1608755   0.0000000), wk =   0.0277778
        k(   21) = (   0.0000000   0.0000000   0.0000000), wk =   0.0277778
        k(   22) = (   0.0000000   0.0357501   0.0000000), wk =   0.0555556
        k(   23) = (   0.0000000   0.0715002   0.0000000), wk =   0.0555556
        k(   24) = (   0.0000000  -0.1072504   0.0000000), wk =   0.0277778
        k(   25) = (   0.0309605   0.0178751   0.0000000), wk =   0.0555556
        k(   26) = (   0.0309605   0.0536252   0.0000000), wk =   0.0555556
        k(   27) = (   0.0309605   0.0893753   0.0000000), wk =   0.0555556
        k(   28) = (   0.0309605  -0.0893753   0.0000000), wk =   0.0555556
        k(   29) = (   0.0309605  -0.0536252   0.0000000), wk =   0.0555556
        k(   30) = (   0.0309605  -0.0178751   0.0000000), wk =   0.0555556
        k(   31) = (   0.0619210   0.0357501   0.0000000), wk =   0.0555556
        k(   32) = (   0.0619210   0.0715002   0.0000000), wk =   0.0555556
        k(   33) = (   0.0619210   0.1072504   0.0000000), wk =   0.0555556
        k(   34) = (   0.0619210  -0.0715002   0.0000000), wk =   0.0555556
        k(   35) = (   0.0619210  -0.0357501   0.0000000), wk =   0.0555556
        k(   36) = (   0.0619210   0.0000000   0.0000000), wk =   0.0555556
        k(   37) = (  -0.0928815  -0.0536252   0.0000000), wk =   0.0277778
        k(   38) = (  -0.0928815  -0.0178751   0.0000000), wk =   0.0555556
        k(   39) = (  -0.0928815   0.0178751   0.0000000), wk =   0.0555556
        k(   40) = (  -0.0928815  -0.1608755   0.0000000), wk =   0.0277778

     Largest allocated arrays     est. size (Mb)     dimensions
     Largest temporary arrays     est. size (Mb)     dimensions

     Check: negative/imaginary core charge=   -0.000006    0.000000

     Initial potential from superposition of free atoms
     Check: negative starting charge=(component1):   -0.189083
     Check: negative starting charge=(component2):   -0.135009

     starting charge  164.99994, renormalised to  180.00000

[...]

     *
     * You are using vdW-DF for exchange-correlation in this calculation.
     * Please cite the following three references that made this development
     * possible:
     *
     *   M. Dion, H. Rydberg, E. Schroder, D. C. Langreth, and
     *   B. I. Lundqvist, Phys. Rev. Lett. 92, 246401 (2004).
     *
     *   T. Thonhauser, V. R. Cooper, S. Li, A. Puzder, P. Hyldgaard, and
     *   D. C. Langreth, Phys. Rev. B 76, 125112 (2007).
     *
     *   G. Roman-Perez and J. M. Soler, Phys. Rev. Lett. 103, 096102 (2009).
     *
     *
     * If you are using vdW-DF2, please also cite:
     *
     *   K. Lee, E. D. Murray, L. Kong, B. I. Lundqvist, and
     *   D. C. Langreth, Phys. Rev. B 82, 081101(R) (2010).
     *
     *
     * If you are calculating the stress with vdW-DF, please also cite:
     *
     *   R. Sabatini, E. Kucukbenli, B. Kolb, T. Thonhauser, and
     *   S. de Gironcoli, J. Phys.: Condens. Matter 24, 424209 (2012).
     *

     Carrying out vdW-DF run using the following parameters:

     Nqs =      20    Nr_points =    1024   r_max =   100.000
     q_mesh =
               0.00001000     0.04494208     0.09755937     0.15916263
               0.23128650     0.31572767     0.41458969     0.53033537
               0.66584808     0.82450364     1.01025438     1.22772762
               1.48234092     1.78043706     2.12944203     2.53805004
               3.01644009     3.57652955     4.23227104     5.00000000

     Gradients computed in reciprocal space

[...]

     Starting wfc are  156 randomized atomic wfcs

     Self-consistent Calculation

[...]

     total energy              =   -2743.69452842 Ry
     Harris-Foulkes estimate   =   -2743.69452633 Ry
     estimated scf accuracy    <       0.00000113 Ry

[...]

     iteration # 37     ecut=    36.75 Ry     beta=0.10
     Davidson diagonalization with overlap
     ethr =  6.27E-10,  avg # of iterations =  2.0

[...]

     negative rho (up, down):  1.746E-01 1.705E-01

[...]

     Adding external electric field

     Computed dipole along edir(3) :
        Dipole                0.0319 Ry au,          0.0812 Debye
        Dipole field          0.0001 Ry au

        Potential amp.       -0.0087 Ry
        Total length         44.9480 bohr

     Magnetic moment per site:
     atom:    1    charge:    7.0843    magn:    1.1504    constr:    0.0000
     atom:    2    charge:    7.0845    magn:    1.1502    constr:    0.0000
     atom:    3    charge:    7.0843    magn:    1.1503    constr:    0.0000
     atom:    4    charge:    1.1445    magn:   -0.0146    constr:    0.0000
     atom:    5    charge:    7.0705    magn:    1.0767    constr:    0.0000
     atom:    6    charge:    7.0705    magn:    1.0767    constr:    0.0000
     atom:    7    charge:    7.0705    magn:    1.0767    constr:    0.0000
     atom:    8    charge:    1.1425    magn:   -0.0141    constr:    0.0000
     atom:    9    charge:    7.0822    magn:    1.1357    constr:    0.0000
     atom:   10    charge:    7.0823    magn:    1.1356    constr:    0.0000
     atom:   11    charge:    7.0822    magn:    1.1357    constr:    0.0000
     atom:   12    charge:    1.1396    magn:   -0.0136    constr:    0.0000

     End of self-consistent calculation

 ------ SPIN UP ------------

[...]

 ------ SPIN DOWN ----------

[...]

          k = 0.0619 0.0000 0.0000 ( 15512 PWs)   bands (ev):

[...]

          k =-0.0929-0.1609 0.0000 ( 15562 PWs)   bands (ev):

   -84.2770 -84.2710 -84.2652 -84.1171 -84.1017 -84.0982 -84.0945 -84.0891
   -84.0831 -61.1985 -61.0188 -60.6188 -50.4504 -50.4096 -50.4095 -50.4013
   -50.3992 -50.3751 -50.3449 -50.3317 -50.3082 -50.2907 -50.2747 -50.2723
   -50.2506 -50.2486 -50.2460 -50.2370 -50.1988 -50.1800 -50.1670 -50.1635
   -50.1549 -50.1485 -50.1374 -50.1211 -50.1126 -50.0925 -50.0749 -29.8988
   -29.7587 -29.7489 -29.7286 -29.6120 -29.6017 -29.3034 -29.2928 -29.2738
    -4.2583  -4.0770  -2.8513  -2.3099  -1.8836  -1.5947  -1.4739  -1.2680
    -1.1435  -0.8833  -0.7071  -0.3786  -0.3142  -0.2523  -0.1828  -0.1030
     0.0568   0.1329   0.2160   0.2706   0.3168   0.3469   0.4883   0.5401
     0.7058   0.7121   0.7593   0.8272   0.8420   0.9364   1.0552   1.0799
     1.1573   1.2241   1.3836   1.3954   1.5023   1.6208   1.6309   1.8409
     1.8780   1.9449   1.9633   2.1142   2.1990   2.2960   2.3227   2.3733
     2.5116   2.6753   2.6822   2.7876   2.8882   3.0265   3.5436   3.6054
     3.7494   3.8171   3.9408   4.1105   4.1434   4.1603   4.2263   4.3409
     4.4484   5.0933   5.4427   6.0802   6.2044   6.4428   6.7291   6.8045

     the Fermi energy is     1.3287 ev

!    total energy              =   -2743.69453173 Ry
     Harris-Foulkes estimate   =   -2743.69452787 Ry
     estimated scf accuracy    <       0.00000089 Ry

     The total energy is the sum of the following terms:

     one-electron contribution =  -20435.30548722 Ry
     hartree contribution      =   10215.09831926 Ry
     xc contribution           =    -504.78778394 Ry
     ewald contribution        =    7981.39443655 Ry
     electric field correction =       0.00000310 Ry
     smearing contrib. (-TS)   =      -0.09401948 Ry

     total magnetization       =    18.99 Bohr mag/cell
     absolute magnetization    =    23.96 Bohr mag/cell

     convergence has been achieved in  37 iterations

 BEEF-vdW xc energy contributions
           1 :   -448.640085609188
           2 :    411.188616163333
           3 :   -346.930903954349
           4 :    272.362275178682
           5 :   -203.151902880084
           6 :    148.888499850240
           7 :   -111.499090745543
           8 :    87.2355104196902
           9 :   -70.4499950621741
          10 :    56.8520239036612
          11 :   -44.8471416189024
          12 :    34.8606712509301
          13 :   -27.6947172119932
          14 :    23.1875418563642
          15 :   -19.9908733468699
          16 :    16.3639904524236
          17 :   -11.2838301708794
          18 :    5.04599880012654
          19 :   0.977423428410589
          20 :   -5.20199893010829
          21 :    6.71317409333341
          22 :   -5.68145345019008
          23 :    3.15352428665909
          24 :  -0.467657081371726
          25 :   -1.33725457067874
          26 :    1.81609668595081
          27 :   -1.07528577797490
          28 :  -0.479360842274275
          29 :    2.39114449967161
          30 :   -4.28786464936729
          31 :   -36.1130733710286
          32 :   -25.7090707361638

     Forces acting on atoms (Ry/au):

     negative rho (up, down):  1.746E-01 1.705E-01
     atom    1 type  1   force =    -0.00000806   -0.01611202    0.00379151
     atom    2 type  1   force =    -0.01394074    0.00804929    0.00379019
     atom    3 type  1   force =     0.01394237    0.00805956    0.00379730
     atom    4 type  2   force =    -0.00000802    0.00000465   -0.01730692
     atom    5 type  1   force =    -0.00001628    0.00980736    0.00121725
     atom    6 type  1   force =     0.00850644   -0.00490741    0.00120277
     atom    7 type  1   force =    -0.00850518   -0.00488794    0.00122667
     atom    8 type  2   force =    -0.00001198    0.00001855    0.00358267
     atom    9 type  1   force =     0.00001301   -0.00020440   -0.00045738
     atom   10 type  1   force =    -0.00019364    0.00009506   -0.00043383
     atom   11 type  1   force =     0.00020612    0.00008598   -0.00042292
     atom   12 type  2   force =     0.00001597   -0.00000868    0.00001269

     Total force =     0.037784     Total SCF correction =     0.004464
     SCF correction compared to forces is large: reduce conv_thr to get better values

     entering subroutine stress ...

     negative rho (up, down):  1.746E-01 1.705E-01
          total   stress  (Ry/bohr**3)                   (kbar)     P=  -11.19
  -0.00010835  -0.00000003  -0.00000001        -15.94     -0.00     -0.00
  -0.00000003  -0.00010839   0.00000001         -0.00    -15.95      0.00
  -0.00000001   0.00000001  -0.00001144         -0.00      0.00     -1.68

 !ASE

     Writing output data file calc.save

     General routines

     Parallel routines

   This run was terminated on:   2: 7:42  26Dec2018

   JOB DONE.
Job  /afs/slac/g/suncat/bin/suncat-tsmpirun -x LD_LIBRARY_PATH -wdir /scratch/qe109620_5gEwZ pw.x -in pw.inp

TID   HOST_NAME   COMMAND_LINE            STATUS            TERMINATION_TIME
00000 suncat0042 pw.x -in pw.inp   Done                     12/26/2018 02:07:42
00001 suncat0042 pw.x -in pw.inp   Done                     12/26/2018 02:07:42
00002 suncat0042 pw.x -in pw.inp   Done                     12/26/2018 02:07:42
00003 suncat0042 pw.x -in pw.inp   Done                     12/26/2018 02:07:42
00004 suncat0042 pw.x -in pw.inp   Done                     12/26/2018 02:07:42
00005 suncat0042 pw.x -in pw.inp   Done                     12/26/2018 02:07:42
00006 suncat0042 pw.x -in pw.inp   Done                     12/26/2018 02:07:42
00007 suncat0042 pw.x -in pw.inp   Done                     12/26/2018 02:07:42
00008 suncat0020 pw.x -in pw.inp   Done                     12/26/2018 02:07:42
00009 suncat0020 pw.x -in pw.inp   Done                     12/26/2018 02:07:42
00010 suncat0020 pw.x -in pw.inp   Done                     12/26/2018 02:07:42
00011 suncat0020 pw.x -in pw.inp   Done                     12/26/2018 02:07:42
00012 suncat0020 pw.x -in pw.inp   Done                     12/26/2018 02:07:42
00013 suncat0020 pw.x -in pw.inp   Done                     12/26/2018 02:07:42
00014 suncat0020 pw.x -in pw.inp   Done                     12/26/2018 02:07:42
00015 suncat0020 pw.x -in pw.inp   Done                     12/26/2018 02:07:42
00016 suncat0196 pw.x -in pw.inp   Done                     12/26/2018 02:07:42
00017 suncat0196 pw.x -in pw.inp   Done                     12/26/2018 02:07:42
00018 suncat0196 pw.x -in pw.inp   Done                     12/26/2018 02:07:42
00019 suncat0196 pw.x -in pw.inp   Done                     12/26/2018 02:07:42
00020 suncat0196 pw.x -in pw.inp   Done                     12/26/2018 02:07:42
00021 suncat0196 pw.x -in pw.inp   Done                     12/26/2018 02:07:42
00022 suncat0196 pw.x -in pw.inp   Done                     12/26/2018 02:07:42
00023 suncat0196 pw.x -in pw.inp   Done                     12/26/2018 02:07:42
00024 suncat0194 pw.x -in pw.inp   Done                     12/26/2018 02:07:42
00025 suncat0194 pw.x -in pw.inp   Done                     12/26/2018 02:07:42
00026 suncat0194 pw.x -in pw.inp   Done                     12/26/2018 02:07:42
00027 suncat0194 pw.x -in pw.inp   Done                     12/26/2018 02:07:42
00028 suncat0194 pw.x -in pw.inp   Done                     12/26/2018 02:07:42
00029 suncat0194 pw.x -in pw.inp   Done                     12/26/2018 02:07:42
00030 suncat0194 pw.x -in pw.inp   Done                     12/26/2018 02:07:42
00031 suncat0194 pw.x -in pw.inp   Done                     12/26/2018 02:07:42
00032 suncat0121 pw.x -in pw.inp   Done                     12/26/2018 02:07:42
00033 suncat0121 pw.x -in pw.inp   Done                     12/26/2018 02:07:42
00034 suncat0121 pw.x -in pw.inp   Done                     12/26/2018 02:07:42
00035 suncat0121 pw.x -in pw.inp   Done                     12/26/2018 02:07:42
00036 suncat0121 pw.x -in pw.inp   Done                     12/26/2018 02:07:42
00037 suncat0121 pw.x -in pw.inp   Done                     12/26/2018 02:07:42
00038 suncat0121 pw.x -in pw.inp   Done                     12/26/2018 02:07:42
00039 suncat0121 pw.x -in pw.inp   Done                     12/26/2018 02:07:42
00040 suncat0115 pw.x -in pw.inp   Done                     12/26/2018 02:07:42
00041 suncat0115 pw.x -in pw.inp   Done                     12/26/2018 02:07:42
00042 suncat0115 pw.x -in pw.inp   Done                     12/26/2018 02:07:42
00043 suncat0115 pw.x -in pw.inp   Done                     12/26/2018 02:07:42
00044 suncat0115 pw.x -in pw.inp   Done                     12/26/2018 02:07:42
00045 suncat0115 pw.x -in pw.inp   Done                     12/26/2018 02:07:42
00046 suncat0115 pw.x -in pw.inp   Done                     12/26/2018 02:07:42
00047 suncat0115 pw.x -in pw.inp   Done                     12/26/2018 02:07:42
00048 suncat0228 pw.x -in pw.inp   Done                     12/26/2018 02:07:42
00049 suncat0228 pw.x -in pw.inp   Done                     12/26/2018 02:07:42
00050 suncat0228 pw.x -in pw.inp   Done                     12/26/2018 02:07:42
00051 suncat0228 pw.x -in pw.inp   Done                     12/26/2018 02:07:42
00052 suncat0228 pw.x -in pw.inp   Done                     12/26/2018 02:07:42
00053 suncat0228 pw.x -in pw.inp   Done                     12/26/2018 02:07:42
00054 suncat0228 pw.x -in pw.inp   Done                     12/26/2018 02:07:42
00055 suncat0228 pw.x -in pw.inp   Done                     12/26/2018 02:07:42
00056 suncat0227 pw.x -in pw.inp   Done                     12/26/2018 02:07:42
00057 suncat0227 pw.x -in pw.inp   Done                     12/26/2018 02:07:42
00058 suncat0227 pw.x -in pw.inp   Done                     12/26/2018 02:07:42
00059 suncat0227 pw.x -in pw.inp   Done                     12/26/2018 02:07:42
00060 suncat0227 pw.x -in pw.inp   Done                     12/26/2018 02:07:42
00061 suncat0227 pw.x -in pw.inp   Done                     12/26/2018 02:07:42
00062 suncat0227 pw.x -in pw.inp   Done                     12/26/2018 02:07:42
00063 suncat0227 pw.x -in pw.inp   Done                     12/26/2018 02:07:42