     Program PWSCF v.5.1rc2 (svn rev. 11289) starts on 20Dec2018 at  1:43:58

     Current dimensions of program PWSCF are:
     Max number of different atomic species (ntypx) = 10
     Max number of k-points (npk) =  40000
     Max angular momentum in pseudopotentials (lmaxx) =  3
     Presently stress not available with electric field

     IMPORTANT: XC functional enforced from input :
     Exchange-correlation      = BEEF-VDW ( 1  4 27 13 2)
     Any further DFT definition will be discarded
     Please, verify this is what you really want

     Subspace diagonalization in iterative solution of the eigenvalue problem:
     a serial algorithm will be used

     bravais-lattice index     =            0
     lattice parameter (alat)  =       1.8897  a.u.
     unit-cell volume          =    5537.3374 (a.u.)^3
     number of atoms/cell      =           12
     number of atomic types    =            2
     number of electrons       =       144.00
     number of Kohn-Sham states=          102
     kinetic-energy cutoff     =      36.7493  Ry
     charge density cutoff     =     367.4932  Ry
     convergence threshold     =      1.0E-06
     mixing beta               =       0.1000
     number of iterations used =           10  plain     mixing
     Exchange-correlation      = BEEF-VDW ( 1  4 27 13 2)
     nstep                     =           50

     celldm(1)=   1.889726  celldm(2)=   0.000000  celldm(3)=   0.000000
     celldm(4)=   0.000000  celldm(5)=   0.000000  celldm(6)=   0.000000

     crystal axes: (cart. coord. in units of alat)
               a(1) = (   6.153289   0.000000   0.000000 )
               a(2) = (  -3.076644   5.328904   0.000000 )
               a(3) = (   0.000000   0.000000  25.024139 )

     reciprocal axes: (cart. coord. in units 2 pi/alat)
               b(1) = (  0.162515  0.093828  0.000000 )
               b(2) = (  0.000000  0.187656  0.000000 )
               b(3) = (  0.000000  0.000000  0.039961 )

     PseudoPot. # 1 for Cd read from file:
     /afs/slac.stanford.edu/u/if/mamunm/psp/gbrv1.5pbe/Cd.UPF
     MD5 check sum: 17164a7926edb8e0dc231208abae86a6
     Pseudo is Ultrasoft + core correction, Zval = 12.0
     Generated by new atomic code, or converted to UPF format
     Using radial grid of  889 points,  6 beta functions with:
                l(1) =   0
                l(2) =   0
                l(3) =   1
                l(4) =   1
                l(5) =   2
                l(6) =   2
     Q(r) pseudized with  6 coefficients,  rinner =    1.000   1.000   1.000
                                                       1.000   1.000

     PseudoPot. # 2 for Ti read from file:
     /afs/slac.stanford.edu/u/if/mamunm/psp/gbrv1.5pbe/Ti.UPF
     MD5 check sum: 88a00a6731bd790ddea75d31a80cb452
     Pseudo is Ultrasoft + core correction, Zval = 12.0
     Generated by new atomic code, or converted to UPF format
     Using radial grid of  851 points,  6 beta functions with:
                l(1) =   0
                l(2) =   0
                l(3) =   1
                l(4) =   1
                l(5) =   2
                l(6) =   2
     Q(r) pseudized with  6 coefficients,  rinner =    1.000   1.000   1.000
                                                       1.000   1.000

     vdW kernel table read from file vdW_kernel_table
     MD5 check sum: 095c7af220d748ca6e76c0b4c6cfb241

     atomic species   valence    mass     pseudopotential
        Cd1           12.00   112.41400     Cd( 1.00)
        Ti1           12.00    47.86700     Ti( 1.00)

     No symmetry found

   Cartesian axes

     site n.     atom                  positions (alat units)
         1           Cd1 tau(   1) = (   0.0000000   0.0000000  10.0000000  )
         2           Cd1 tau(   2) = (   4.6149666   2.6644522  10.0000000  )
         3           Cd1 tau(   3) = (   1.5383222   2.6644522  10.0000000  )
         4           Ti1 tau(   4) = (   3.0766444   0.0000000  10.0000000  )
         5           Cd1 tau(   5) = (   3.0766444   1.7763015  12.5120696  )
         6           Cd1 tau(   6) = (   1.5383222   4.4407537  12.5120696  )
         7           Cd1 tau(   7) = (  -1.5383222   4.4407537  12.5120696  )
         8           Ti1 tau(   8) = (   0.0000000   1.7763015  12.5120696  )
         9           Cd1 tau(   9) = (  -0.0000000   3.5526030  15.0241393  )
        10           Cd1 tau(  10) = (   1.5383222   0.8881507  15.0241393  )
        11           Cd1 tau(  11) = (   4.6149666   0.8881507  15.0241393  )
        12           Ti1 tau(  12) = (   3.0766444   3.5526030  15.0241393  )

     number of k points=    20  Fermi-Dirac smearing, width (Ry)=  0.0110
                       cart. coord. in units 2pi/alat
        k(    1) = (   0.0000000   0.0000000   0.0000000), wk =   0.0555556
        k(    2) = (   0.0000000   0.0312760   0.0000000), wk =   0.1111111
        k(    3) = (   0.0000000   0.0625519   0.0000000), wk =   0.1111111
        k(    4) = (   0.0000000  -0.0938279   0.0000000), wk =   0.0555556
        k(    5) = (   0.0270858   0.0156380   0.0000000), wk =   0.1111111
        k(    6) = (   0.0270858   0.0469140   0.0000000), wk =   0.1111111
        k(    7) = (   0.0270858   0.0781899   0.0000000), wk =   0.1111111
        k(    8) = (   0.0270858  -0.0781899   0.0000000), wk =   0.1111111
        k(    9) = (   0.0270858  -0.0469140   0.0000000), wk =   0.1111111
        k(   10) = (   0.0270858  -0.0156380   0.0000000), wk =   0.1111111
        k(   11) = (   0.0541716   0.0312760   0.0000000), wk =   0.1111111
        k(   12) = (   0.0541716   0.0625519   0.0000000), wk =   0.1111111
        k(   13) = (   0.0541716   0.0938279   0.0000000), wk =   0.1111111
        k(   14) = (   0.0541716  -0.0625519   0.0000000), wk =   0.1111111
        k(   15) = (   0.0541716  -0.0312760   0.0000000), wk =   0.1111111
        k(   16) = (   0.0541716   0.0000000   0.0000000), wk =   0.1111111
        k(   17) = (  -0.0812574  -0.0469140   0.0000000), wk =   0.0555556
        k(   18) = (  -0.0812574  -0.0156380   0.0000000), wk =   0.1111111
        k(   19) = (  -0.0812574   0.0156380   0.0000000), wk =   0.1111111
        k(   20) = (  -0.0812574  -0.1407419   0.0000000), wk =   0.0555556

     Largest allocated arrays     est. size (Mb)     dimensions
     Largest temporary arrays     est. size (Mb)     dimensions

     Check: negative/imaginary core charge=   -0.000002    0.000000

     Initial potential from superposition of free atoms
     Check: negative starting charge=   -0.202351

     starting charge  136.49950, renormalised to  144.00000

     negative rho (up, down):  2.135E-01 0.000E+00

     *
     * You are using vdW-DF for exchange-correlation in this calculation.
     * Please cite the following three references that made this development
     * possible:
     *
     *   M. Dion, H. Rydberg, E. Schroder, D. C. Langreth, and
     *   B. I. Lundqvist, Phys. Rev. Lett. 92, 246401 (2004).
     *
     *   T. Thonhauser, V. R. Cooper, S. Li, A. Puzder, P. Hyldgaard, and
     *   D. C. Langreth, Phys. Rev. B 76, 125112 (2007).
     *
     *   G. Roman-Perez and J. M. Soler, Phys. Rev. Lett. 103, 096102 (2009).
     *
     *
     * If you are using vdW-DF2, please also cite:
     *
     *   K. Lee, E. D. Murray, L. Kong, B. I. Lundqvist, and
     *   D. C. Langreth, Phys. Rev. B 82, 081101(R) (2010).
     *
     *
     * If you are calculating the stress with vdW-DF, please also cite:
     *
     *   R. Sabatini, E. Kucukbenli, B. Kolb, T. Thonhauser, and
     *   S. de Gironcoli, J. Phys.: Condens. Matter 24, 424209 (2012).
     *

     Carrying out vdW-DF run using the following parameters:

     Nqs =      20    Nr_points =    1024   r_max =   100.000
     q_mesh =
               0.00001000     0.04494208     0.09755937     0.15916263
               0.23128650     0.31572767     0.41458969     0.53033537
               0.66584808     0.82450364     1.01025438     1.22772762
               1.48234092     1.78043706     2.12944203     2.53805004
               3.01644009     3.57652955     4.23227104     5.00000000

     Gradients computed in reciprocal space

     Adding external electric field

     Computed dipole along edir(3) :
        Dipole               -0.0000 Ry au,         -0.0000 Debye
        Dipole field         -0.0000 Ry au

        Potential amp.        0.0000 Ry
        Total length         46.1066 bohr

     Starting wfc are  111 randomized atomic wfcs

     Self-consistent Calculation

     iteration #  1     ecut=    36.75 Ry     beta=0.10
     Davidson diagonalization with overlap
     ethr =  1.00E-02,  avg # of iterations =  8.6

[...]

     total energy              =   -1404.39314696 Ry
     Harris-Foulkes estimate   =   -1405.50815815 Ry
     estimated scf accuracy    <       6.30521290 Ry

[...]

     End of self-consistent calculation

          k = 0.0000 0.0000 0.0000 ( 20851 PWs)   bands (ev):

   -56.8622 -56.8622 -56.8362 -33.2223 -33.2220 -33.1340 -33.0280 -33.0280
   -33.0192 -33.0192 -33.0189 -33.0189  -8.8651  -8.7385  -8.7174  -8.7173
    -8.6988  -8.6708  -8.6058  -8.5337  -8.5337  -8.4931  -8.4931  -8.4442
    -8.4440  -8.3779  -8.3137  -8.3137  -8.2902  -8.1973  -8.1670  -8.1670
    -8.0746  -8.0627  -7.9654  -7.9651  -7.9222  -7.9220  -7.9063  -7.9063
    -7.8494  -7.8493  -7.8380  -7.7864  -7.7864  -7.7450  -7.7449  -7.7291
    -7.7291  -7.5724  -7.5723  -7.5362  -7.4672  -7.4671  -7.4304  -7.3657
    -7.3537  -6.9632  -5.3561  -2.9992  -1.4508  -1.4508  -1.2438  -1.2438
    -1.0589  -0.5257  -0.3331  -0.3330  -0.1826   0.0308   0.0308   0.2789
     1.0527   1.0907   1.0907   1.1210   1.1210   1.3039   1.3039   1.7063
     1.7063   1.7681   1.8132   1.9630   1.9630   3.2373   3.2373   3.3993
     3.4204   3.4204   3.7408   3.8595   4.0472   4.0473   4.4327   4.4701
     4.8314   5.4568   5.6776   6.4143   6.4143   6.6877

[...]

          k =-0.0813-0.0469 0.0000 ( 20804 PWs)   bands (ev):

[...]

     the Fermi energy is     0.7007 ev

!    total energy              =   -1404.28944820 Ry
     Harris-Foulkes estimate   =   -1404.28945409 Ry
     estimated scf accuracy    <       0.00000046 Ry

     The total energy is the sum of the following terms:

     one-electron contribution =   -9146.49257720 Ry
     hartree contribution      =    4639.76724860 Ry
     xc contribution           =    -423.35859409 Ry
     ewald contribution        =    3525.87904484 Ry
     electric field correction =       0.00000000 Ry
     smearing contrib. (-TS)   =      -0.08457034 Ry

     convergence has been achieved in  17 iterations

 BEEF-vdW xc energy contributions
           1 :   -369.991706032277
           2 :    337.543335664646
           3 :   -283.011953474453
           4 :    222.133567606222
           5 :   -169.136936953858
           6 :    131.619896311448
           7 :   -109.357040828219
           8 :    96.8175509282945
           9 :   -87.4036816237005
          10 :    76.9597080668974
          11 :   -64.9885604107104
          12 :    53.5303181785732
          13 :   -44.9426152722490
          14 :    40.1395804362870
          15 :   -38.2051691904465
          16 :    37.2476719546912
[...]
               b(3) = (  0.000000  0.000000  0.039961 )

     PseudoPot. # 1 for Cd read from file:
     /afs/slac.stanford.edu/u/if/mamunm/psp/gbrv1.5pbe/Cd.UPF
     MD5 check sum: 17164a7926edb8e0dc231208abae86a6
     Pseudo is Ultrasoft + core correction, Zval = 12.0
     Generated by new atomic code, or converted to UPF format
     Using radial grid of  889 points,  6 beta functions with:
                l(1) =   0
                l(2) =   0
                l(3) =   1
                l(4) =   1
                l(5) =   2
                l(6) =   2
     Q(r) pseudized with  6 coefficients,  rinner =    1.000   1.000   1.000
                                                       1.000   1.000

     PseudoPot. # 2 for Ti read from file:
     /afs/slac.stanford.edu/u/if/mamunm/psp/gbrv1.5pbe/Ti.UPF
     MD5 check sum: 88a00a6731bd790ddea75d31a80cb452
     Pseudo is Ultrasoft + core correction, Zval = 12.0
     Generated by new atomic code, or converted to UPF format
     Using radial grid of  851 points,  6 beta functions with:
                l(1) =   0
                l(2) =   0
                l(3) =   1
                l(4) =   1
                l(5) =   2
                l(6) =   2
     Q(r) pseudized with  6 coefficients,  rinner =    1.000   1.000   1.000
                                                       1.000   1.000

     vdW kernel table read from file vdW_kernel_table
     MD5 check sum: 095c7af220d748ca6e76c0b4c6cfb241

     atomic species   valence    mass     pseudopotential
        Cd1           12.00   112.41400     Cd( 1.00)
        Ti1           12.00    47.86700     Ti( 1.00)

     No symmetry found

   Cartesian axes

     site n.     atom                  positions (alat units)
         1           Cd1 tau(   1) = (   0.0000000   0.0000000  10.0000000  )
         2           Cd1 tau(   2) = (   4.6149666   2.6644522  10.0000000  )
         3           Cd1 tau(   3) = (   1.5383222   2.6644522  10.0000000  )
         4           Ti1 tau(   4) = (   3.0766444   0.0000000  10.0000000  )
         5           Cd1 tau(   5) = (   3.0766444   1.7763015  12.5120696  )
         6           Cd1 tau(   6) = (   1.5383222   4.4407537  12.5120696  )
         7           Cd1 tau(   7) = (  -1.5383222   4.4407537  12.5120696  )
         8           Ti1 tau(   8) = (   0.0000000   1.7763015  12.5120696  )
         9           Cd1 tau(   9) = (   0.0000006   3.5572206  15.1837652  )
        10           Cd1 tau(  10) = (   1.5423021   0.8858639  15.1837517  )
        11           Cd1 tau(  11) = (   4.6109828   0.8858400  15.1837885  )
        12           Ti1 tau(  12) = (   3.0766344   3.5526103  14.8400189  )

     number of k points=    20  Fermi-Dirac smearing, width (Ry)=  0.0110
                       cart. coord. in units 2pi/alat
        k(    1) = (   0.0000000   0.0000000   0.0000000), wk =   0.0555556
        k(    2) = (   0.0000000   0.0312760   0.0000000), wk =   0.1111111
        k(    3) = (   0.0000000   0.0625519   0.0000000), wk =   0.1111111
        k(    4) = (   0.0000000  -0.0938279   0.0000000), wk =   0.0555556
        k(    5) = (   0.0270858   0.0156380   0.0000000), wk =   0.1111111
        k(    6) = (   0.0270858   0.0469140   0.0000000), wk =   0.1111111
        k(    7) = (   0.0270858   0.0781899   0.0000000), wk =   0.1111111
        k(    8) = (   0.0270858  -0.0781899   0.0000000), wk =   0.1111111
        k(    9) = (   0.0270858  -0.0469140   0.0000000), wk =   0.1111111
        k(   10) = (   0.0270858  -0.0156380   0.0000000), wk =   0.1111111
        k(   11) = (   0.0541716   0.0312760   0.0000000), wk =   0.1111111
        k(   12) = (   0.0541716   0.0625519   0.0000000), wk =   0.1111111
        k(   13) = (   0.0541716   0.0938279   0.0000000), wk =   0.1111111
        k(   14) = (   0.0541716  -0.0625519   0.0000000), wk =   0.1111111
        k(   15) = (   0.0541716  -0.0312760   0.0000000), wk =   0.1111111
        k(   16) = (   0.0541716   0.0000000   0.0000000), wk =   0.1111111
        k(   17) = (  -0.0812574  -0.0469140   0.0000000), wk =   0.0555556
        k(   18) = (  -0.0812574  -0.0156380   0.0000000), wk =   0.1111111
        k(   19) = (  -0.0812574   0.0156380   0.0000000), wk =   0.1111111
        k(   20) = (  -0.0812574  -0.1407419   0.0000000), wk =   0.0555556

     Largest allocated arrays     est. size (Mb)     dimensions
     Largest temporary arrays     est. size (Mb)     dimensions

     Check: negative/imaginary core charge=   -0.000002    0.000000

     Initial potential from superposition of free atoms
     Check: negative starting charge=   -0.203341

     starting charge  136.49950, renormalised to  144.00000

[...]

     *
     * You are using vdW-DF for exchange-correlation in this calculation.
     * Please cite the following three references that made this development
     * possible:
     *
     *   M. Dion, H. Rydberg, E. Schroder, D. C. Langreth, and
     *   B. I. Lundqvist, Phys. Rev. Lett. 92, 246401 (2004).
     *
     *   T. Thonhauser, V. R. Cooper, S. Li, A. Puzder, P. Hyldgaard, and
     *   D. C. Langreth, Phys. Rev. B 76, 125112 (2007).
     *
     *   G. Roman-Perez and J. M. Soler, Phys. Rev. Lett. 103, 096102 (2009).
     *
     *
     * If you are using vdW-DF2, please also cite:
     *
     *   K. Lee, E. D. Murray, L. Kong, B. I. Lundqvist, and
     *   D. C. Langreth, Phys. Rev. B 82, 081101(R) (2010).
     *
     *
     * If you are calculating the stress with vdW-DF, please also cite:
     *
     *   R. Sabatini, E. Kucukbenli, B. Kolb, T. Thonhauser, and
     *   S. de Gironcoli, J. Phys.: Condens. Matter 24, 424209 (2012).
     *

     Carrying out vdW-DF run using the following parameters:

     Nqs =      20    Nr_points =    1024   r_max =   100.000
     q_mesh =
               0.00001000     0.04494208     0.09755937     0.15916263
               0.23128650     0.31572767     0.41458969     0.53033537
               0.66584808     0.82450364     1.01025438     1.22772762
               1.48234092     1.78043706     2.12944203     2.53805004
               3.01644009     3.57652955     4.23227104     5.00000000

     Gradients computed in reciprocal space

[...]

     Starting wfc are  111 randomized atomic wfcs

     Self-consistent Calculation

[...]

     total energy              =   -1404.30295661 Ry
     Harris-Foulkes estimate   =   -1404.30295688 Ry
     estimated scf accuracy    <       0.00000134 Ry

     iteration # 20     ecut=    36.75 Ry     beta=0.10
     Davidson diagonalization with overlap
     ethr =  9.31E-10,  avg # of iterations =  3.0

[...]

     negative rho (up, down):  2.091E-01 0.000E+00

     Adding external electric field

     Computed dipole along edir(3) :
        Dipole               -0.0587 Ry au,         -0.1491 Debye
        Dipole field         -0.0001 Ry au

        Potential amp.        0.0123 Ry
        Total length         46.1066 bohr

     End of self-consistent calculation

[...]

          k = 0.0542 0.0000 0.0000 ( 20821 PWs)   bands (ev):

[...]

          k =-0.0813-0.1407 0.0000 ( 20804 PWs)   bands (ev):

   -56.9407 -56.9066 -56.8303 -33.2635 -33.2375 -33.1560 -33.1262 -33.1260
   -33.0662 -33.0658 -33.0045 -33.0042  -8.6738  -8.5928  -8.5770  -8.4952
    -8.4820  -8.4582  -8.4076  -8.3683  -8.3617  -8.3449  -8.3364  -8.3319
    -8.2787  -8.2581  -8.2018  -8.1794  -8.1491  -8.1245  -8.1223  -8.0931
    -8.0910  -8.0718  -8.0616  -8.0316  -8.0282  -8.0149  -7.9854  -7.9645
    -7.9605  -7.9347  -7.9314  -7.9132  -7.9095  -7.8960  -7.8699  -7.8645
    -7.8631  -7.8379  -7.8179  -7.7876  -7.7425  -7.7314  -7.6223  -7.5420
    -7.4539  -5.5042  -5.3032  -3.9535  -3.8530  -2.7058  -2.3117  -1.8287
    -1.3033  -1.1643  -0.7267   0.1080   0.3497   0.4210   0.4422   0.4961
     0.6826   0.7671   0.9133   0.9997   1.3100   1.3533   1.6169   1.6866
     2.0438   2.1497   2.4312   2.5653   2.5768   2.8548   4.1468   4.3711
     4.4862   4.7062   4.7230   4.8773   4.9406   5.0630   5.2594   5.2777
     5.7109   5.7372   5.7434   6.0437   6.0793   6.5712

     the Fermi energy is     0.6428 ev

!    total energy              =   -1404.30295312 Ry
     Harris-Foulkes estimate   =   -1404.30295613 Ry
     estimated scf accuracy    <       0.00000051 Ry

     The total energy is the sum of the following terms:

     one-electron contribution =   -9047.43352610 Ry
     hartree contribution      =    4590.14822139 Ry
     xc contribution           =    -423.31850108 Ry
     ewald contribution        =    3476.38941975 Ry
     electric field correction =       0.00000781 Ry
     smearing contrib. (-TS)   =      -0.08857489 Ry

     convergence has been achieved in  20 iterations

 BEEF-vdW xc energy contributions
           1 :   -370.079272035809
           2 :    337.588080756251
           3 :   -283.009299819841
           4 :    222.124138071428
           5 :   -169.176549430786
           6 :    131.735833828482
           7 :   -109.523861634067
           8 :    96.9755233349693
           9 :   -87.5073671091729
          10 :    77.0145420186740
          11 :   -65.0430946777306
          12 :    53.6331002266043
          13 :   -45.1020487245063
          14 :    40.3192873254255
          15 :   -38.3552399029495
          16 :    37.3443106548771
          17 :   -35.7322531849692
          18 :    33.0679768320309
          19 :   -29.9868943644318
          20 :    27.5750504088699
          21 :   -26.6081558365767
          22 :    27.1117732285737
          23 :   -28.4215731336938
          24 :    29.6164696044700
          25 :   -30.0325650254997
          26 :    29.5737159914330
          27 :   -28.6816605266351
          28 :    28.0127634059742
          29 :   -28.0207539578518
          30 :    28.6853696793688
          31 :   -34.0516012500623
          32 :   -24.7751630908908

     Forces acting on atoms (Ry/au):

     negative rho (up, down):  2.091E-01 0.000E+00
     atom    1 type  1   force =    -0.00000264   -0.00071439   -0.01149453
     atom    2 type  1   force =    -0.00061390    0.00035381   -0.01149788
     atom    3 type  1   force =     0.00062212    0.00036299   -0.01150213
     atom    4 type  2   force =    -0.00000022   -0.00000088    0.02070797
     atom    5 type  1   force =     0.00000009   -0.00796500    0.00113805
     atom    6 type  1   force =    -0.00690257    0.00398555    0.00114177
     atom    7 type  1   force =     0.00689768    0.00398003    0.00114279
     atom    8 type  2   force =    -0.00000141   -0.00000077    0.00964425
     atom    9 type  1   force =    -0.00000013    0.00016079   -0.00018146
     atom   10 type  1   force =     0.00013912   -0.00008164   -0.00017396
     atom   11 type  1   force =    -0.00013975   -0.00007982   -0.00018202
     atom   12 type  2   force =     0.00000162   -0.00000066    0.00125713

     Total force =     0.033407     Total SCF correction =     0.002831

     entering subroutine stress ...

     negative rho (up, down):  2.091E-01 0.000E+00
          total   stress  (Ry/bohr**3)                   (kbar)     P=   -6.48
  -0.00006121  -0.00000000  -0.00000000         -9.00     -0.00     -0.00
  -0.00000000  -0.00006121  -0.00000000         -0.00     -9.01     -0.00
  -0.00000000  -0.00000000  -0.00000962         -0.00     -0.00     -1.42

 !ASE

     Writing output data file calc.save

     General routines

     Parallel routines

   This run was terminated on:   3:12:29  20Dec2018

   JOB DONE.
Job  /afs/slac/g/suncat/bin/suncat-tsmpirun -x LD_LIBRARY_PATH -wdir /scratch/qe773474_mwHm9 pw.x -in pw.inp

TID   HOST_NAME   COMMAND_LINE            STATUS            TERMINATION_TIME
00000 suncat0141 pw.x -in pw.inp   Done                     12/20/2018 03:12:29
00001 suncat0141 pw.x -in pw.inp   Done                     12/20/2018 03:12:29
00002 suncat0141 pw.x -in pw.inp   Done                     12/20/2018 03:12:29
00003 suncat0141 pw.x -in pw.inp   Done                     12/20/2018 03:12:29
00004 suncat0141 pw.x -in pw.inp   Done                     12/20/2018 03:12:29
00005 suncat0141 pw.x -in pw.inp   Done                     12/20/2018 03:12:29
00006 suncat0141 pw.x -in pw.inp   Done                     12/20/2018 03:12:29
00007 suncat0141 pw.x -in pw.inp   Done                     12/20/2018 03:12:29
00008 suncat0140 pw.x -in pw.inp   Done                     12/20/2018 03:12:29
00009 suncat0140 pw.x -in pw.inp   Done                     12/20/2018 03:12:29
00010 suncat0140 pw.x -in pw.inp   Done                     12/20/2018 03:12:29
00011 suncat0140 pw.x -in pw.inp   Done                     12/20/2018 03:12:29
00012 suncat0140 pw.x -in pw.inp   Done                     12/20/2018 03:12:29
00013 suncat0140 pw.x -in pw.inp   Done                     12/20/2018 03:12:29
00014 suncat0140 pw.x -in pw.inp   Done                     12/20/2018 03:12:29
00015 suncat0140 pw.x -in pw.inp   Done                     12/20/2018 03:12:29
00016 suncat0139 pw.x -in pw.inp   Done                     12/20/2018 03:12:29
00017 suncat0139 pw.x -in pw.inp   Done                     12/20/2018 03:12:29
00018 suncat0139 pw.x -in pw.inp   Done                     12/20/2018 03:12:29
00019 suncat0139 pw.x -in pw.inp   Done                     12/20/2018 03:12:29
00020 suncat0139 pw.x -in pw.inp   Done                     12/20/2018 03:12:29
00021 suncat0139 pw.x -in pw.inp   Done                     12/20/2018 03:12:29
00022 suncat0139 pw.x -in pw.inp   Done                     12/20/2018 03:12:29
00023 suncat0139 pw.x -in pw.inp   Done                     12/20/2018 03:12:29
00024 suncat0138 pw.x -in pw.inp   Done                     12/20/2018 03:12:29
00025 suncat0138 pw.x -in pw.inp   Done                     12/20/2018 03:12:29
00026 suncat0138 pw.x -in pw.inp   Done                     12/20/2018 03:12:29
00027 suncat0138 pw.x -in pw.inp   Done                     12/20/2018 03:12:29
00028 suncat0138 pw.x -in pw.inp   Done                     12/20/2018 03:12:29
00029 suncat0138 pw.x -in pw.inp   Done                     12/20/2018 03:12:29
00030 suncat0138 pw.x -in pw.inp   Done                     12/20/2018 03:12:29
00031 suncat0138 pw.x -in pw.inp   Done                     12/20/2018 03:12:29
00032 suncat0214 pw.x -in pw.inp   Done                     12/20/2018 03:12:29
00033 suncat0214 pw.x -in pw.inp   Done                     12/20/2018 03:12:29
00034 suncat0214 pw.x -in pw.inp   Done                     12/20/2018 03:12:29
00035 suncat0214 pw.x -in pw.inp   Done                     12/20/2018 03:12:29
00036 suncat0214 pw.x -in pw.inp   Done                     12/20/2018 03:12:29
00037 suncat0214 pw.x -in pw.inp   Done                     12/20/2018 03:12:29
00038 suncat0214 pw.x -in pw.inp   Done                     12/20/2018 03:12:29
00039 suncat0214 pw.x -in pw.inp   Done                     12/20/2018 03:12:29
00040 suncat0213 pw.x -in pw.inp   Done                     12/20/2018 03:12:29
00041 suncat0213 pw.x -in pw.inp   Done                     12/20/2018 03:12:29
00042 suncat0213 pw.x -in pw.inp   Done                     12/20/2018 03:12:29
00043 suncat0213 pw.x -in pw.inp   Done                     12/20/2018 03:12:29
00044 suncat0213 pw.x -in pw.inp   Done                     12/20/2018 03:12:29
00045 suncat0213 pw.x -in pw.inp   Done                     12/20/2018 03:12:29
00046 suncat0213 pw.x -in pw.inp   Done                     12/20/2018 03:12:29
00047 suncat0213 pw.x -in pw.inp   Done                     12/20/2018 03:12:29
00048 suncat0209 pw.x -in pw.inp   Done                     12/20/2018 03:12:29
00049 suncat0209 pw.x -in pw.inp   Done                     12/20/2018 03:12:29
00050 suncat0209 pw.x -in pw.inp   Done                     12/20/2018 03:12:29
00051 suncat0209 pw.x -in pw.inp   Done                     12/20/2018 03:12:29
00052 suncat0209 pw.x -in pw.inp   Done                     12/20/2018 03:12:29
00053 suncat0209 pw.x -in pw.inp   Done                     12/20/2018 03:12:29
00054 suncat0209 pw.x -in pw.inp   Done                     12/20/2018 03:12:29
00055 suncat0209 pw.x -in pw.inp   Done                     12/20/2018 03:12:29
00056 suncat0203 pw.x -in pw.inp   Done                     12/20/2018 03:12:29
00057 suncat0203 pw.x -in pw.inp   Done                     12/20/2018 03:12:29
00058 suncat0203 pw.x -in pw.inp   Done                     12/20/2018 03:12:29
00059 suncat0203 pw.x -in pw.inp   Done                     12/20/2018 03:12:29
00060 suncat0203 pw.x -in pw.inp   Done                     12/20/2018 03:12:29
00061 suncat0203 pw.x -in pw.inp   Done                     12/20/2018 03:12:29
00062 suncat0203 pw.x -in pw.inp   Done                     12/20/2018 03:12:29
00063 suncat0203 pw.x -in pw.inp   Done                     12/20/2018 03:12:29