     Program PWSCF v.5.1rc2 (svn rev. 11289) starts on 30Dec2018 at  4:44:43

     Current dimensions of program PWSCF are:
     Max number of different atomic species (ntypx) = 10
     Max number of k-points (npk) =  40000
     Max angular momentum in pseudopotentials (lmaxx) =  3
     Presently stress not available with electric field

     IMPORTANT: XC functional enforced from input :
     Exchange-correlation      = BEEF-VDW ( 1  4 27 13 2)
     Any further DFT definition will be discarded
     Please, verify this is what you really want

     Subspace diagonalization in iterative solution of the eigenvalue problem:
     a serial algorithm will be used

     Generating pointlists ...
     new r_m :   0.4125 (alat units)  0.7795 (a.u.) for type    1
     new r_m :   0.4125 (alat units)  0.7795 (a.u.) for type    2

     bravais-lattice index     =            0
     lattice parameter (alat)  =       1.8897  a.u.
     unit-cell volume          =    3803.3427 (a.u.)^3
     number of atoms/cell      =           12
     number of atomic types    =            2
     number of electrons       =       153.00
     number of Kohn-Sham states=          106
     kinetic-energy cutoff     =      36.7493  Ry
     charge density cutoff     =     367.4932  Ry
     convergence threshold     =      1.0E-06
     mixing beta               =       0.1000
     number of iterations used =           10  plain     mixing
     Exchange-correlation      = BEEF-VDW ( 1  4 27 13 2)
     nstep                     =           50

     celldm(1)=   1.889726  celldm(2)=   0.000000  celldm(3)=   0.000000
     celldm(4)=   0.000000  celldm(5)=   0.000000  celldm(6)=   0.000000

     crystal axes: (cart. coord. in units of alat)
               a(1) = (   5.182387   0.000000   0.000000 )
               a(2) = (  -2.591194   4.488079   0.000000 )
               a(3) = (   0.000000   0.000000  24.231401 )

     reciprocal axes: (cart. coord. in units 2 pi/alat)
               b(1) = (  0.192961  0.111406  0.000000 )
               b(2) = (  0.000000  0.222812  0.000000 )
               b(3) = (  0.000000  0.000000  0.041269 )

     PseudoPot. # 1 for Fe read from file:
     /afs/slac.stanford.edu/u/if/mamunm/psp/gbrv1.5pbe/Fe.UPF
     MD5 check sum: a130daea23fe5165f5d574ae7f82ed95
     Pseudo is Ultrasoft + core correction, Zval = 16.0
     Generated by new atomic code, or converted to UPF format
     Using radial grid of  861 points,  6 beta functions with:
                l(1) =   0
                l(2) =   0
                l(3) =   1
                l(4) =   1
                l(5) =   2
                l(6) =   2
     Q(r) pseudized with  8 coefficients,  rinner =    1.000   1.000   1.000
                                                       1.000   1.000

     PseudoPot. # 2 for Al read from file:
     /afs/slac.stanford.edu/u/if/mamunm/psp/gbrv1.5pbe/Al.UPF
     MD5 check sum: 0a6289f5291fc8f409219462bc851e1f
     Pseudo is Ultrasoft + core correction, Zval =  3.0
     Generated by new atomic code, or converted to UPF format
     Using radial grid of  893 points,  3 beta functions with:
                l(1) =   0
                l(2) =   1
                l(3) =   2
     Q(r) pseudized with  8 coefficients,  rinner =    0.900   0.900   0.900
                                                       0.900   0.900

     vdW kernel table read from file vdW_kernel_table
     MD5 check sum: 095c7af220d748ca6e76c0b4c6cfb241

     atomic species   valence    mass     pseudopotential
        Fe1           16.00    55.84500     Fe( 1.00)
        Al1            3.00    26.98154     Al( 1.00)

     Starting magnetic structure
     atomic species   magnetization
        Fe1          0.125
        Al1          0.667

     No symmetry found

   Cartesian axes

     site n.     atom                  positions (alat units)
         1           Fe1 tau(   1) = (   0.0000000   0.0000000  10.0000000  )
         2           Fe1 tau(   2) = (  -1.2955968   2.2440394  10.0000000  )
         3           Fe1 tau(   3) = (   1.2955968   2.2440394  10.0000000  )
         4           Al1 tau(   4) = (   2.5911935   0.0000000  10.0000000  )
         5           Fe1 tau(   5) = (   2.5911935   1.4960263  12.1157007  )
         6           Fe1 tau(   6) = (   1.2955968   3.7400657  12.1157007  )
         7           Fe1 tau(   7) = (  -1.2955968   3.7400657  12.1157007  )
         8           Al1 tau(   8) = (   0.0000000   1.4960263  12.1157007  )
         9           Fe1 tau(   9) = (  -0.0000000   2.9920526  14.2314013  )
        10           Fe1 tau(  10) = (   1.2955968   0.7480131  14.2314013  )
        11           Fe1 tau(  11) = (   3.8867903   0.7480131  14.2314013  )
        12           Al1 tau(  12) = (   2.5911935   2.9920526  14.2314013  )

     number of k points=    40  Fermi-Dirac smearing, width (Ry)=  0.0110
                       cart. coord. in units 2pi/alat
        k(    1) = (   0.0000000   0.0000000   0.0000000), wk =   0.0277778
        k(    2) = (   0.0000000   0.0371354   0.0000000), wk =   0.0555556
        k(    3) = (   0.0000000   0.0742708   0.0000000), wk =   0.0555556
        k(    4) = (   0.0000000  -0.1114062   0.0000000), wk =   0.0277778
        k(    5) = (   0.0321602   0.0185677   0.0000000), wk =   0.0555556
        k(    6) = (   0.0321602   0.0557031   0.0000000), wk =   0.0555556
        k(    7) = (   0.0321602   0.0928385   0.0000000), wk =   0.0555556
        k(    8) = (   0.0321602  -0.0928385   0.0000000), wk =   0.0555556
        k(    9) = (   0.0321602  -0.0557031   0.0000000), wk =   0.0555556
        k(   10) = (   0.0321602  -0.0185677   0.0000000), wk =   0.0555556
        k(   11) = (   0.0643204   0.0371354   0.0000000), wk =   0.0555556
        k(   12) = (   0.0643204   0.0742708   0.0000000), wk =   0.0555556
        k(   13) = (   0.0643204   0.1114062   0.0000000), wk =   0.0555556
        k(   14) = (   0.0643204  -0.0742708   0.0000000), wk =   0.0555556
        k(   15) = (   0.0643204  -0.0371354   0.0000000), wk =   0.0555556
        k(   16) = (   0.0643204   0.0000000   0.0000000), wk =   0.0555556
        k(   17) = (  -0.0964806  -0.0557031   0.0000000), wk =   0.0277778
        k(   18) = (  -0.0964806  -0.0185677   0.0000000), wk =   0.0555556
        k(   19) = (  -0.0964806   0.0185677   0.0000000), wk =   0.0555556
        k(   20) = (  -0.0964806  -0.1671094   0.0000000), wk =   0.0277778
        k(   21) = (   0.0000000   0.0000000   0.0000000), wk =   0.0277778
        k(   22) = (   0.0000000   0.0371354   0.0000000), wk =   0.0555556
        k(   23) = (   0.0000000   0.0742708   0.0000000), wk =   0.0555556
        k(   24) = (   0.0000000  -0.1114062   0.0000000), wk =   0.0277778
        k(   25) = (   0.0321602   0.0185677   0.0000000), wk =   0.0555556
        k(   26) = (   0.0321602   0.0557031   0.0000000), wk =   0.0555556
        k(   27) = (   0.0321602   0.0928385   0.0000000), wk =   0.0555556
        k(   28) = (   0.0321602  -0.0928385   0.0000000), wk =   0.0555556
        k(   29) = (   0.0321602  -0.0557031   0.0000000), wk =   0.0555556
        k(   30) = (   0.0321602  -0.0185677   0.0000000), wk =   0.0555556
        k(   31) = (   0.0643204   0.0371354   0.0000000), wk =   0.0555556
        k(   32) = (   0.0643204   0.0742708   0.0000000), wk =   0.0555556
        k(   33) = (   0.0643204   0.1114062   0.0000000), wk =   0.0555556
        k(   34) = (   0.0643204  -0.0742708   0.0000000), wk =   0.0555556
        k(   35) = (   0.0643204  -0.0371354   0.0000000), wk =   0.0555556
        k(   36) = (   0.0643204   0.0000000   0.0000000), wk =   0.0555556
        k(   37) = (  -0.0964806  -0.0557031   0.0000000), wk =   0.0277778
        k(   38) = (  -0.0964806  -0.0185677   0.0000000), wk =   0.0555556
        k(   39) = (  -0.0964806   0.0185677   0.0000000), wk =   0.0555556
        k(   40) = (  -0.0964806  -0.1671094   0.0000000), wk =   0.0277778

     Largest allocated arrays     est. size (Mb)     dimensions
     Largest temporary arrays     est. size (Mb)     dimensions

     Check: negative/imaginary core charge=   -0.000006    0.000000

     Initial potential from superposition of free atoms
     Check: negative starting charge=(component1):   -0.000128

     starting charge  143.99255, renormalised to  153.00000

     negative rho (up, down):  1.362E-04 8.358E-05

     *
     * You are using vdW-DF for exchange-correlation in this calculation.
     * Please cite the following three references that made this development
     * possible:
     *
     *   M. Dion, H. Rydberg, E. Schroder, D. C. Langreth, and
     *   B. I. Lundqvist, Phys. Rev. Lett. 92, 246401 (2004).
     *
     *   T. Thonhauser, V. R. Cooper, S. Li, A. Puzder, P. Hyldgaard, and
     *   D. C. Langreth, Phys. Rev. B 76, 125112 (2007).
     *
     *   G. Roman-Perez and J. M. Soler, Phys. Rev. Lett. 103, 096102 (2009).
     *
     *
     * If you are using vdW-DF2, please also cite:
     *
     *   K. Lee, E. D. Murray, L. Kong, B. I. Lundqvist, and
     *   D. C. Langreth, Phys. Rev. B 82, 081101(R) (2010).
     *
     *
     * If you are calculating the stress with vdW-DF, please also cite:
     *
     *   R. Sabatini, E. Kucukbenli, B. Kolb, T. Thonhauser, and
     *   S. de Gironcoli, J. Phys.: Condens. Matter 24, 424209 (2012).
     *

     Carrying out vdW-DF run using the following parameters:

     Nqs =      20    Nr_points =    1024   r_max =   100.000
     q_mesh =
               0.00001000     0.04494208     0.09755937     0.15916263
               0.23128650     0.31572767     0.41458969     0.53033537
               0.66584808     0.82450364     1.01025438     1.22772762
               1.48234092     1.78043706     2.12944203     2.53805004
               3.01644009     3.57652955     4.23227104     5.00000000

     Gradients computed in reciprocal space

     Adding external electric field

     Computed dipole along edir(3) :
        Dipole                0.0000 Ry au,          0.0000 Debye
        Dipole field          0.0000 Ry au

        Potential amp.       -0.0000 Ry
        Total length         44.6459 bohr

[...]

     Starting wfc are  129 randomized atomic wfcs

     Self-consistent Calculation

     iteration #  1     ecut=    36.75 Ry     beta=0.10
     Davidson diagonalization with overlap
     ethr =  1.00E-02,  avg # of iterations =  7.8

[...]

     Magnetic moment per site:
     atom:    1    charge:    7.2696    magn:    0.8958    constr:    0.0000
     atom:    2    charge:    7.2696    magn:    0.8958    constr:    0.0000
     atom:    3    charge:    7.2696    magn:    0.8958    constr:    0.0000
     atom:    4    charge:    0.0933    magn:    0.0512    constr:    0.0000
     atom:    5    charge:    7.2850    magn:    0.8988    constr:    0.0000
     atom:    6    charge:    7.2850    magn:    0.8988    constr:    0.0000
     atom:    7    charge:    7.2850    magn:    0.8988    constr:    0.0000
     atom:    8    charge:    0.0957    magn:    0.0518    constr:    0.0000
     atom:    9    charge:    7.2696    magn:    0.8958    constr:    0.0000
[...]
                       cart. coord. in units 2pi/alat
        k(    1) = (   0.0000000   0.0000000   0.0000000), wk =   0.0277778
        k(    2) = (   0.0000000   0.0371354   0.0000000), wk =   0.0555556
        k(    3) = (   0.0000000   0.0742708   0.0000000), wk =   0.0555556
        k(    4) = (   0.0000000  -0.1114062   0.0000000), wk =   0.0277778
        k(    5) = (   0.0321602   0.0185677   0.0000000), wk =   0.0555556
        k(    6) = (   0.0321602   0.0557031   0.0000000), wk =   0.0555556
        k(    7) = (   0.0321602   0.0928385   0.0000000), wk =   0.0555556
        k(    8) = (   0.0321602  -0.0928385   0.0000000), wk =   0.0555556
        k(    9) = (   0.0321602  -0.0557031   0.0000000), wk =   0.0555556
        k(   10) = (   0.0321602  -0.0185677   0.0000000), wk =   0.0555556
        k(   11) = (   0.0643204   0.0371354   0.0000000), wk =   0.0555556
        k(   12) = (   0.0643204   0.0742708   0.0000000), wk =   0.0555556
        k(   13) = (   0.0643204   0.1114062   0.0000000), wk =   0.0555556
        k(   14) = (   0.0643204  -0.0742708   0.0000000), wk =   0.0555556
        k(   15) = (   0.0643204  -0.0371354   0.0000000), wk =   0.0555556
        k(   16) = (   0.0643204   0.0000000   0.0000000), wk =   0.0555556
        k(   17) = (  -0.0964806  -0.0557031   0.0000000), wk =   0.0277778
        k(   18) = (  -0.0964806  -0.0185677   0.0000000), wk =   0.0555556
        k(   19) = (  -0.0964806   0.0185677   0.0000000), wk =   0.0555556
        k(   20) = (  -0.0964806  -0.1671094   0.0000000), wk =   0.0277778
        k(   21) = (   0.0000000   0.0000000   0.0000000), wk =   0.0277778
        k(   22) = (   0.0000000   0.0371354   0.0000000), wk =   0.0555556
        k(   23) = (   0.0000000   0.0742708   0.0000000), wk =   0.0555556
        k(   24) = (   0.0000000  -0.1114062   0.0000000), wk =   0.0277778
        k(   25) = (   0.0321602   0.0185677   0.0000000), wk =   0.0555556
        k(   26) = (   0.0321602   0.0557031   0.0000000), wk =   0.0555556
        k(   27) = (   0.0321602   0.0928385   0.0000000), wk =   0.0555556
        k(   28) = (   0.0321602  -0.0928385   0.0000000), wk =   0.0555556
        k(   29) = (   0.0321602  -0.0557031   0.0000000), wk =   0.0555556
        k(   30) = (   0.0321602  -0.0185677   0.0000000), wk =   0.0555556
        k(   31) = (   0.0643204   0.0371354   0.0000000), wk =   0.0555556
        k(   32) = (   0.0643204   0.0742708   0.0000000), wk =   0.0555556
        k(   33) = (   0.0643204   0.1114062   0.0000000), wk =   0.0555556
        k(   34) = (   0.0643204  -0.0742708   0.0000000), wk =   0.0555556
        k(   35) = (   0.0643204  -0.0371354   0.0000000), wk =   0.0555556
        k(   36) = (   0.0643204   0.0000000   0.0000000), wk =   0.0555556
        k(   37) = (  -0.0964806  -0.0557031   0.0000000), wk =   0.0277778
        k(   38) = (  -0.0964806  -0.0185677   0.0000000), wk =   0.0555556
        k(   39) = (  -0.0964806   0.0185677   0.0000000), wk =   0.0555556
        k(   40) = (  -0.0964806  -0.1671094   0.0000000), wk =   0.0277778

     Largest allocated arrays     est. size (Mb)     dimensions
     Largest temporary arrays     est. size (Mb)     dimensions

     Check: negative/imaginary core charge=   -0.000006    0.000000

     Initial potential from superposition of free atoms
     Check: negative starting charge=(component1):   -0.000123

     starting charge  143.99255, renormalised to  153.00000

[...]

     *
     * You are using vdW-DF for exchange-correlation in this calculation.
     * Please cite the following three references that made this development
     * possible:
     *
     *   M. Dion, H. Rydberg, E. Schroder, D. C. Langreth, and
     *   B. I. Lundqvist, Phys. Rev. Lett. 92, 246401 (2004).
     *
     *   T. Thonhauser, V. R. Cooper, S. Li, A. Puzder, P. Hyldgaard, and
     *   D. C. Langreth, Phys. Rev. B 76, 125112 (2007).
     *
     *   G. Roman-Perez and J. M. Soler, Phys. Rev. Lett. 103, 096102 (2009).
     *
     *
     * If you are using vdW-DF2, please also cite:
     *
     *   K. Lee, E. D. Murray, L. Kong, B. I. Lundqvist, and
     *   D. C. Langreth, Phys. Rev. B 82, 081101(R) (2010).
     *
     *
     * If you are calculating the stress with vdW-DF, please also cite:
     *
     *   R. Sabatini, E. Kucukbenli, B. Kolb, T. Thonhauser, and
     *   S. de Gironcoli, J. Phys.: Condens. Matter 24, 424209 (2012).
     *

     Carrying out vdW-DF run using the following parameters:

     Nqs =      20    Nr_points =    1024   r_max =   100.000
     q_mesh =
               0.00001000     0.04494208     0.09755937     0.15916263
               0.23128650     0.31572767     0.41458969     0.53033537
               0.66584808     0.82450364     1.01025438     1.22772762
               1.48234092     1.78043706     2.12944203     2.53805004
               3.01644009     3.57652955     4.23227104     5.00000000

     Gradients computed in reciprocal space

[...]

     Starting wfc are  129 randomized atomic wfcs

     Self-consistent Calculation

[...]

     total energy              =   -2282.73112968 Ry
     Harris-Foulkes estimate   =   -2282.73112788 Ry
     estimated scf accuracy    <       0.00000132 Ry

[...]

     iteration # 29     ecut=    36.75 Ry     beta=0.10
     Davidson diagonalization with overlap
     ethr =  8.65E-10,  avg # of iterations =  1.0

[...]

     negative rho (up, down):  2.760E-04 9.533E-04

[...]

     Adding external electric field

     Computed dipole along edir(3) :
        Dipole               -0.0038 Ry au,         -0.0097 Debye
        Dipole field         -0.0000 Ry au

        Potential amp.        0.0011 Ry
        Total length         44.6459 bohr

     Magnetic moment per site:
     atom:    1    charge:    7.0945    magn:    1.2378    constr:    0.0000
     atom:    2    charge:    7.0944    magn:    1.2378    constr:    0.0000
     atom:    3    charge:    7.0944    magn:    1.2379    constr:    0.0000
     atom:    4    charge:    0.0831    magn:   -0.0108    constr:    0.0000
     atom:    5    charge:    7.0962    magn:    1.1779    constr:    0.0000
     atom:    6    charge:    7.0962    magn:    1.1779    constr:    0.0000
     atom:    7    charge:    7.0961    magn:    1.1779    constr:    0.0000
     atom:    8    charge:    0.0836    magn:   -0.0105    constr:    0.0000
     atom:    9    charge:    7.0869    magn:    1.2170    constr:    0.0000
     atom:   10    charge:    7.0870    magn:    1.2170    constr:    0.0000
     atom:   11    charge:    7.0870    magn:    1.2170    constr:    0.0000
     atom:   12    charge:    0.0813    magn:   -0.0108    constr:    0.0000

     End of self-consistent calculation

 ------ SPIN UP ------------

[...]

 ------ SPIN DOWN ----------

[...]

          k = 0.0643 0.0000 0.0000 ( 14319 PWs)   bands (ev):

[...]

          k =-0.0965-0.1671 0.0000 ( 14278 PWs)   bands (ev):

   -85.0916 -85.0819 -85.0718 -84.9633 -84.9628 -84.9541 -84.9526 -84.9447
   -84.9437 -51.2970 -51.2429 -51.2374 -51.2288 -51.2226 -51.2049 -51.2029
   -51.1685 -51.1453 -51.1302 -51.1027 -51.1002 -51.0908 -51.0811 -51.0772
   -51.0726 -51.0655 -51.0554 -51.0510 -51.0363 -51.0101 -51.0045 -50.9995
   -50.9899 -50.9654 -50.9296 -50.9258  -6.9707  -6.5118  -5.2469  -4.6334
    -3.5878  -3.4208  -3.1507  -2.1885  -2.1569  -2.1071  -1.6833  -1.4905
    -1.3383  -1.3138  -1.0381  -0.8887  -0.8123  -0.7887  -0.7734  -0.5435
    -0.5158  -0.4258  -0.3415  -0.2165  -0.2078  -0.0278   0.0221   0.1279
     0.2927   0.3420   0.4029   0.4226   0.5046   0.9672   1.0626   1.1531
     1.2010   1.2373   1.2657   1.3345   1.3961   1.4113   1.4437   1.5768
     1.6258   1.6548   1.8162   2.0103   2.0951   2.1227   2.1568   2.4077
     2.7137   3.2096   3.2673   3.3533   3.8010   4.2248   4.3674   5.7584
     5.8472   6.3503   6.3817   6.4363   6.7060   6.7431   6.7944   7.2358
     7.3635   7.4682

     the Fermi energy is     0.3726 ev

!    total energy              =   -2282.73113620 Ry
     Harris-Foulkes estimate   =   -2282.73112974 Ry
     estimated scf accuracy    <       0.00000065 Ry

     The total energy is the sum of the following terms:

     one-electron contribution =  -16600.83887873 Ry
     hartree contribution      =    8299.16367235 Ry
     xc contribution           =    -286.17103770 Ry
     ewald contribution        =    6305.18366244 Ry
     electric field correction =       0.00000005 Ry
     smearing contrib. (-TS)   =      -0.06855461 Ry

     total magnetization       =    21.83 Bohr mag/cell
     absolute magnetization    =    24.30 Bohr mag/cell

     convergence has been achieved in  29 iterations

 BEEF-vdW xc energy contributions
           1 :   -249.793442113804
           2 :    225.466211961620
           3 :   -184.958265349687
           4 :    140.465362578268
           5 :   -102.707402495249
           6 :    76.9636289339779
           7 :   -62.4287578094899
           8 :    54.5029571066526
           9 :   -48.2045679684175
          10 :    40.6976159334606
          11 :   -31.9195071578787
          12 :    23.5260201721869
          13 :   -17.2302197776646
          14 :    13.6213925797169
          15 :   -12.0101937421216
          16 :    11.0916321444992
          17 :   -9.81704956567853
          18 :    7.89001506103432
          19 :   -5.70286580555626
          20 :    3.89198386180095
          21 :   -2.87332464011376
          22 :    2.61352476975833
          23 :   -2.71143392736644
          24 :    2.66864989414228
          25 :   -2.17447077835595
          26 :    1.24561380643746
          27 :  -0.177458717260492
          28 :  -0.648820764200650
          29 :   0.982059974967797
          30 :  -0.835301677079656
          31 :   -22.6736041438691
          32 :   -16.0533558755035

     Forces acting on atoms (Ry/au):

     negative rho (up, down):  2.760E-04 9.533E-04
     atom    1 type  1   force =     0.00001503   -0.00561437    0.01236184
     atom    2 type  1   force =    -0.00485807    0.00282191    0.01235666
     atom    3 type  1   force =     0.00486056    0.00280510    0.01233442
     atom    4 type  2   force =     0.00000205    0.00000376   -0.02566838
     atom    5 type  1   force =     0.00000279    0.00805221   -0.00101020
     atom    6 type  1   force =     0.00695453   -0.00403505   -0.00098584
     atom    7 type  1   force =    -0.00695304   -0.00403755   -0.00097802
     atom    8 type  2   force =    -0.00000425   -0.00000097   -0.00949511
     atom    9 type  1   force =    -0.00004359    0.00031195   -0.00003278
     atom   10 type  1   force =     0.00024647   -0.00019834   -0.00003398
     atom   11 type  1   force =    -0.00025234   -0.00015074   -0.00002048
     atom   12 type  2   force =     0.00002987    0.00004208    0.00117187

     Total force =     0.038730     Total SCF correction =     0.002283

     entering subroutine stress ...

     negative rho (up, down):  2.760E-04 9.533E-04
          total   stress  (Ry/bohr**3)                   (kbar)     P=  -10.55
  -0.00009859   0.00000001   0.00000001        -14.50      0.00      0.00
   0.00000001  -0.00009858   0.00000001          0.00    -14.50      0.00
   0.00000001   0.00000001  -0.00001790          0.00      0.00     -2.63

 !ASE

     Writing output data file calc.save

     General routines

     Parallel routines

   This run was terminated on:   8:46:32  30Dec2018

   JOB DONE.
Job  /afs/slac/g/suncat/bin/suncat-tsmpirun -x LD_LIBRARY_PATH -wdir /scratch/qe648429_4WQci pw.x -in pw.inp

TID   HOST_NAME   COMMAND_LINE            STATUS            TERMINATION_TIME
00000 suncat0198 pw.x -in pw.inp   Done                     12/30/2018 08:46:32
00001 suncat0198 pw.x -in pw.inp   Done                     12/30/2018 08:46:32
00002 suncat0198 pw.x -in pw.inp   Done                     12/30/2018 08:46:32
00003 suncat0198 pw.x -in pw.inp   Done                     12/30/2018 08:46:32
00004 suncat0198 pw.x -in pw.inp   Done                     12/30/2018 08:46:32
00005 suncat0198 pw.x -in pw.inp   Done                     12/30/2018 08:46:32
00006 suncat0198 pw.x -in pw.inp   Done                     12/30/2018 08:46:32
00007 suncat0198 pw.x -in pw.inp   Done                     12/30/2018 08:46:32
00008 suncat0194 pw.x -in pw.inp   Done                     12/30/2018 08:46:32
00009 suncat0194 pw.x -in pw.inp   Done                     12/30/2018 08:46:32
00010 suncat0194 pw.x -in pw.inp   Done                     12/30/2018 08:46:32
00011 suncat0194 pw.x -in pw.inp   Done                     12/30/2018 08:46:32
00012 suncat0194 pw.x -in pw.inp   Done                     12/30/2018 08:46:32
00013 suncat0194 pw.x -in pw.inp   Done                     12/30/2018 08:46:32
00014 suncat0194 pw.x -in pw.inp   Done                     12/30/2018 08:46:32
00015 suncat0194 pw.x -in pw.inp   Done                     12/30/2018 08:46:32
00016 suncat0193 pw.x -in pw.inp   Done                     12/30/2018 08:46:32
00017 suncat0193 pw.x -in pw.inp   Done                     12/30/2018 08:46:32
00018 suncat0193 pw.x -in pw.inp   Done                     12/30/2018 08:46:32
00019 suncat0193 pw.x -in pw.inp   Done                     12/30/2018 08:46:32
00020 suncat0193 pw.x -in pw.inp   Done                     12/30/2018 08:46:32
00021 suncat0193 pw.x -in pw.inp   Done                     12/30/2018 08:46:32
00022 suncat0193 pw.x -in pw.inp   Done                     12/30/2018 08:46:32
00023 suncat0193 pw.x -in pw.inp   Done                     12/30/2018 08:46:32
00024 suncat0192 pw.x -in pw.inp   Done                     12/30/2018 08:46:32
00025 suncat0192 pw.x -in pw.inp   Done                     12/30/2018 08:46:32
00026 suncat0192 pw.x -in pw.inp   Done                     12/30/2018 08:46:32
00027 suncat0192 pw.x -in pw.inp   Done                     12/30/2018 08:46:32
00028 suncat0192 pw.x -in pw.inp   Done                     12/30/2018 08:46:32
00029 suncat0192 pw.x -in pw.inp   Done                     12/30/2018 08:46:32
00030 suncat0192 pw.x -in pw.inp   Done                     12/30/2018 08:46:32
00031 suncat0192 pw.x -in pw.inp   Done                     12/30/2018 08:46:32
00032 suncat0188 pw.x -in pw.inp   Done                     12/30/2018 08:46:32
00033 suncat0188 pw.x -in pw.inp   Done                     12/30/2018 08:46:32
00034 suncat0188 pw.x -in pw.inp   Done                     12/30/2018 08:46:32
00035 suncat0188 pw.x -in pw.inp   Done                     12/30/2018 08:46:32
00036 suncat0188 pw.x -in pw.inp   Done                     12/30/2018 08:46:32
00037 suncat0188 pw.x -in pw.inp   Done                     12/30/2018 08:46:32
00038 suncat0188 pw.x -in pw.inp   Done                     12/30/2018 08:46:32
00039 suncat0188 pw.x -in pw.inp   Done                     12/30/2018 08:46:32
00040 suncat0129 pw.x -in pw.inp   Done                     12/30/2018 08:46:32
00041 suncat0129 pw.x -in pw.inp   Done                     12/30/2018 08:46:32
00042 suncat0129 pw.x -in pw.inp   Done                     12/30/2018 08:46:32
00043 suncat0129 pw.x -in pw.inp   Done                     12/30/2018 08:46:32
00044 suncat0129 pw.x -in pw.inp   Done                     12/30/2018 08:46:32
00045 suncat0129 pw.x -in pw.inp   Done                     12/30/2018 08:46:32
00046 suncat0129 pw.x -in pw.inp   Done                     12/30/2018 08:46:32
00047 suncat0129 pw.x -in pw.inp   Done                     12/30/2018 08:46:32
00048 suncat0254 pw.x -in pw.inp   Done                     12/30/2018 08:46:32
00049 suncat0254 pw.x -in pw.inp   Done                     12/30/2018 08:46:32
00050 suncat0254 pw.x -in pw.inp   Done                     12/30/2018 08:46:32
00051 suncat0254 pw.x -in pw.inp   Done                     12/30/2018 08:46:32
00052 suncat0254 pw.x -in pw.inp   Done                     12/30/2018 08:46:32
00053 suncat0254 pw.x -in pw.inp   Done                     12/30/2018 08:46:32
00054 suncat0254 pw.x -in pw.inp   Done                     12/30/2018 08:46:32
00055 suncat0254 pw.x -in pw.inp   Done                     12/30/2018 08:46:32
00056 suncat0253 pw.x -in pw.inp   Done                     12/30/2018 08:46:32
00057 suncat0253 pw.x -in pw.inp   Done                     12/30/2018 08:46:32
00058 suncat0253 pw.x -in pw.inp   Done                     12/30/2018 08:46:32
00059 suncat0253 pw.x -in pw.inp   Done                     12/30/2018 08:46:32
00060 suncat0253 pw.x -in pw.inp   Done                     12/30/2018 08:46:32
00061 suncat0253 pw.x -in pw.inp   Done                     12/30/2018 08:46:32
00062 suncat0253 pw.x -in pw.inp   Done                     12/30/2018 08:46:32
00063 suncat0253 pw.x -in pw.inp   Done                     12/30/2018 08:46:32