     Program PWSCF v.5.1rc2 (svn rev. 11289) starts on 30Dec2018 at 12:32:32

     Current dimensions of program PWSCF are:
     Max number of different atomic species (ntypx) = 10
     Max number of k-points (npk) =  40000
     Max angular momentum in pseudopotentials (lmaxx) =  3
     Presently stress not available with electric field

     IMPORTANT: XC functional enforced from input :
     Exchange-correlation      = BEEF-VDW ( 1  4 27 13 2)
     Any further DFT definition will be discarded
     Please, verify this is what you really want

     Subspace diagonalization in iterative solution of the eigenvalue problem:
     a serial algorithm will be used

     bravais-lattice index     =            0
     lattice parameter (alat)  =       1.8897  a.u.
     unit-cell volume          =    7755.8137 (a.u.)^3
     number of atoms/cell      =           12
     number of atomic types    =            2
     number of electrons       =       135.00
     number of Kohn-Sham states=           97
     kinetic-energy cutoff     =      36.7493  Ry
     charge density cutoff     =     367.4932  Ry
     convergence threshold     =      1.0E-06
     mixing beta               =       0.1000
     number of iterations used =           10  plain     mixing
     Exchange-correlation      = BEEF-VDW ( 1  4 27 13 2)
     nstep                     =           50

     celldm(1)=   1.889726  celldm(2)=   0.000000  celldm(3)=   0.000000
     celldm(4)=   0.000000  celldm(5)=   0.000000  celldm(6)=   0.000000

     crystal axes: (cart. coord. in units of alat)
               a(1) = (   7.165029   0.000000   0.000000 )
               a(2) = (  -3.582514   6.205097   0.000000 )
               a(3) = (   0.000000   0.000000  25.850221 )

     reciprocal axes: (cart. coord. in units 2 pi/alat)
               b(1) = (  0.139567  0.080579  0.000000 )
               b(2) = (  0.000000  0.161158  0.000000 )
               b(3) = (  0.000000  0.000000  0.038684 )

     PseudoPot. # 1 for La read from file:
     /afs/slac.stanford.edu/u/if/mamunm/psp/gbrv1.5pbe/La.UPF
     MD5 check sum: 5937b0c7494ba0601a847275249473aa
     Pseudo is Ultrasoft + core correction, Zval = 11.0
     Generated by new atomic code, or converted to UPF format
     Using radial grid of  995 points,  8 beta functions with:
                l(1) =   0
                l(2) =   0
                l(3) =   1
                l(4) =   1
                l(5) =   2
                l(6) =   2
                l(7) =   3
                l(8) =   3
     Q(r) pseudized with  8 coefficients,  rinner =    1.700   1.700   1.700
                                                       1.700   1.700   1.700
                                                       1.700

     PseudoPot. # 2 for Hf read from file:
     /afs/slac.stanford.edu/u/if/mamunm/psp/gbrv1.5pbe/Hf.UPF
     MD5 check sum: 8ee9378dfe14276e333edf04c5e4aa26
     Pseudo is Ultrasoft + core correction, Zval = 12.0
     Generated by new atomic code, or converted to UPF format
     Using radial grid of  921 points,  8 beta functions with:
                l(1) =   0
                l(2) =   0
                l(3) =   0
                l(4) =   1
                l(5) =   1
                l(6) =   2
                l(7) =   2
                l(8) =   3
     Q(r) pseudized with  6 coefficients,  rinner =    1.200   1.200   1.200
                                                       1.200   1.200   1.200
                                                       1.200

     vdW kernel table read from file vdW_kernel_table
     MD5 check sum: 095c7af220d748ca6e76c0b4c6cfb241

     atomic species   valence    mass     pseudopotential
        La1           11.00   138.90547     La( 1.00)
        Hf1           12.00   178.49000     Hf( 1.00)

     No symmetry found

   Cartesian axes

     site n.     atom                  positions (alat units)
         1           La1 tau(   1) = (   0.0000000   0.0000000  10.0000000  )
         2           La1 tau(   2) = (   5.3737715   3.1025484  10.0000000  )
         3           La1 tau(   3) = (   1.7912572   3.1025484  10.0000000  )
         4           Hf1 tau(   4) = (   3.5825144   0.0000000  10.0000000  )
         5           La1 tau(   5) = (   3.5825144   2.0683656  12.9251107  )
         6           La1 tau(   6) = (   1.7912572   5.1709141  12.9251107  )
         7           La1 tau(   7) = (  -1.7912572   5.1709141  12.9251107  )
         8           Hf1 tau(   8) = (   0.0000000   2.0683656  12.9251107  )
         9           La1 tau(   9) = (  -0.0000000   4.1367313  15.8502214  )
        10           La1 tau(  10) = (   1.7912572   1.0341828  15.8502214  )
        11           La1 tau(  11) = (   5.3737715   1.0341828  15.8502214  )
        12           Hf1 tau(  12) = (   3.5825144   4.1367313  15.8502214  )

     number of k points=    20  Fermi-Dirac smearing, width (Ry)=  0.0110
                       cart. coord. in units 2pi/alat
        k(    1) = (   0.0000000   0.0000000   0.0000000), wk =   0.0555556
        k(    2) = (   0.0000000   0.0268596   0.0000000), wk =   0.1111111
        k(    3) = (   0.0000000   0.0537193   0.0000000), wk =   0.1111111
        k(    4) = (   0.0000000  -0.0805789   0.0000000), wk =   0.0555556
        k(    5) = (   0.0232611   0.0134298   0.0000000), wk =   0.1111111
        k(    6) = (   0.0232611   0.0402895   0.0000000), wk =   0.1111111
        k(    7) = (   0.0232611   0.0671491   0.0000000), wk =   0.1111111
        k(    8) = (   0.0232611  -0.0671491   0.0000000), wk =   0.1111111
        k(    9) = (   0.0232611  -0.0402895   0.0000000), wk =   0.1111111
        k(   10) = (   0.0232611  -0.0134298   0.0000000), wk =   0.1111111
        k(   11) = (   0.0465223   0.0268596   0.0000000), wk =   0.1111111
        k(   12) = (   0.0465223   0.0537193   0.0000000), wk =   0.1111111
        k(   13) = (   0.0465223   0.0805789   0.0000000), wk =   0.1111111
        k(   14) = (   0.0465223  -0.0537193   0.0000000), wk =   0.1111111
        k(   15) = (   0.0465223  -0.0268596   0.0000000), wk =   0.1111111
        k(   16) = (   0.0465223   0.0000000   0.0000000), wk =   0.1111111
        k(   17) = (  -0.0697834  -0.0402895   0.0000000), wk =   0.0555556
        k(   18) = (  -0.0697834  -0.0134298   0.0000000), wk =   0.1111111
        k(   19) = (  -0.0697834   0.0134298   0.0000000), wk =   0.1111111
        k(   20) = (  -0.0697834  -0.1208684   0.0000000), wk =   0.0555556

     Largest allocated arrays     est. size (Mb)     dimensions
     Largest temporary arrays     est. size (Mb)     dimensions

     Check: negative/imaginary core charge=   -0.000002    0.000000

     Initial potential from superposition of free atoms
     Check: negative starting charge=   -0.950166

     starting charge  128.71138, renormalised to  135.00000

     negative rho (up, down):  9.966E-01 0.000E+00

     *
     * You are using vdW-DF for exchange-correlation in this calculation.
     * Please cite the following three references that made this development
     * possible:
     *
     *   M. Dion, H. Rydberg, E. Schroder, D. C. Langreth, and
     *   B. I. Lundqvist, Phys. Rev. Lett. 92, 246401 (2004).
     *
     *   T. Thonhauser, V. R. Cooper, S. Li, A. Puzder, P. Hyldgaard, and
     *   D. C. Langreth, Phys. Rev. B 76, 125112 (2007).
     *
     *   G. Roman-Perez and J. M. Soler, Phys. Rev. Lett. 103, 096102 (2009).
     *
     *
     * If you are using vdW-DF2, please also cite:
     *
     *   K. Lee, E. D. Murray, L. Kong, B. I. Lundqvist, and
     *   D. C. Langreth, Phys. Rev. B 82, 081101(R) (2010).
     *
     *
     * If you are calculating the stress with vdW-DF, please also cite:
     *
     *   R. Sabatini, E. Kucukbenli, B. Kolb, T. Thonhauser, and
     *   S. de Gironcoli, J. Phys.: Condens. Matter 24, 424209 (2012).
     *

     Carrying out vdW-DF run using the following parameters:

     Nqs =      20    Nr_points =    1024   r_max =   100.000
     q_mesh =
               0.00001000     0.04494208     0.09755937     0.15916263
               0.23128650     0.31572767     0.41458969     0.53033537
               0.66584808     0.82450364     1.01025438     1.22772762
               1.48234092     1.78043706     2.12944203     2.53805004
               3.01644009     3.57652955     4.23227104     5.00000000

     Gradients computed in reciprocal space

     Adding external electric field

     Computed dipole along edir(3) :
        Dipole                0.0000 Ry au,          0.0000 Debye
        Dipole field          0.0000 Ry au

        Potential amp.       -0.0000 Ry
        Total length         47.6286 bohr

     Starting wfc are  219 randomized atomic wfcs

     Self-consistent Calculation

     iteration #  1     ecut=    36.75 Ry     beta=0.10
     Davidson diagonalization with overlap
     ethr =  1.00E-02,  avg # of iterations =  2.0

[...]

     total energy              =   -1417.53248855 Ry
     Harris-Foulkes estimate   =   -1418.91667707 Ry
     estimated scf accuracy    <       8.35140457 Ry

[...]

     iteration #  9     ecut=    36.75 Ry     beta=0.10
     Davidson diagonalization with overlap
     c_bands:  2 eigenvalues not converged
     c_bands:  1 eigenvalues not converged
     c_bands:  1 eigenvalues not converged
     c_bands:  1 eigenvalues not converged
     ethr =  1.26E-05,  avg # of iterations = 16.9

[...]

     End of self-consistent calculation

          k = 0.0000 0.0000 0.0000 ( 29201 PWs)   bands (ev):

   -61.3584 -61.3583 -61.0375 -31.2960 -31.2864 -31.1327 -31.1327 -31.1306
   -31.1306 -30.8297 -30.6786 -30.6784 -29.8904 -29.8869 -29.7941 -29.7941
   -29.7930 -29.7930 -29.5156 -29.5156 -29.4807 -15.7120 -15.6240 -15.3324
   -15.2189 -15.2189 -15.1053 -15.1052 -15.0637 -15.0598 -15.0598 -14.9692
   -14.7770 -14.7770 -14.4937 -14.4936 -14.4539 -14.4061 -14.2683 -14.2683
   -14.2641 -14.2641 -14.2195 -14.1465 -14.1464 -13.9520 -13.8506 -13.8505
    -2.0306  -1.3125  -1.2666  -0.2700   0.1838   0.1838   0.2476   0.2486
     0.5042   0.5043   0.5769   0.6835   0.6835   0.7345   0.7345   1.1888
     1.5266   1.5266   1.9291   2.0717   2.2503   2.3755   2.3755   2.6336
     2.6962   3.0608   3.0609   3.1163   3.1354   3.1354   3.1938   3.1939
     3.2051   3.2704   3.2817   3.3117   3.3117   3.3224   3.3469   3.3469
     3.3588   3.3588   3.3874   3.3874   3.4537   3.4538   3.4939   3.5172
     3.5639

[...]

          k =-0.0698-0.0403 0.0000 ( 29180 PWs)   bands (ev):

[...]

     the Fermi energy is     1.8514 ev

!    total energy              =   -1417.59457072 Ry
     Harris-Foulkes estimate   =   -1417.59456565 Ry
     estimated scf accuracy    <       0.00000072 Ry

     The total energy is the sum of the following terms:

     one-electron contribution =   -5431.20150665 Ry
     hartree contribution      =    2720.36831687 Ry
     xc contribution           =    -688.34325437 Ry
     ewald contribution        =    1981.70603743 Ry
     electric field correction =       0.00000000 Ry
     smearing contrib. (-TS)   =      -0.12416400 Ry

     convergence has been achieved in  20 iterations

 BEEF-vdW xc energy contributions
           1 :   -613.670818361497
[...]
                                                       1.700

     PseudoPot. # 2 for Hf read from file:
     /afs/slac.stanford.edu/u/if/mamunm/psp/gbrv1.5pbe/Hf.UPF
     MD5 check sum: 8ee9378dfe14276e333edf04c5e4aa26
     Pseudo is Ultrasoft + core correction, Zval = 12.0
     Generated by new atomic code, or converted to UPF format
     Using radial grid of  921 points,  8 beta functions with:
                l(1) =   0
                l(2) =   0
                l(3) =   0
                l(4) =   1
                l(5) =   1
                l(6) =   2
                l(7) =   2
                l(8) =   3
     Q(r) pseudized with  6 coefficients,  rinner =    1.200   1.200   1.200
                                                       1.200   1.200   1.200
                                                       1.200

     vdW kernel table read from file vdW_kernel_table
     MD5 check sum: 095c7af220d748ca6e76c0b4c6cfb241

     atomic species   valence    mass     pseudopotential
        La1           11.00   138.90547     La( 1.00)
        Hf1           12.00   178.49000     Hf( 1.00)

     No symmetry found

   Cartesian axes

     site n.     atom                  positions (alat units)
         1           La1 tau(   1) = (   0.0000000   0.0000000  10.0000000  )
         2           La1 tau(   2) = (   5.3737715   3.1025484  10.0000000  )
         3           La1 tau(   3) = (   1.7912572   3.1025484  10.0000000  )
         4           Hf1 tau(   4) = (   3.5825144   0.0000000  10.0000000  )
         5           La1 tau(   5) = (   3.5825144   2.0683656  12.9251107  )
         6           La1 tau(   6) = (   1.7912572   5.1709141  12.9251107  )
         7           La1 tau(   7) = (  -1.7912572   5.1709141  12.9251107  )
         8           Hf1 tau(   8) = (   0.0000000   2.0683656  12.9251107  )
         9           La1 tau(   9) = (   0.0000113   4.0848018  15.8521448  )
        10           La1 tau(  10) = (   1.7463296   1.0601514  15.8520991  )
        11           La1 tau(  11) = (   5.4187056   1.0601361  15.8520974  )
        12           Hf1 tau(  12) = (   3.5825057   4.1366685  15.5266862  )

     number of k points=    20  Fermi-Dirac smearing, width (Ry)=  0.0110
                       cart. coord. in units 2pi/alat
        k(    1) = (   0.0000000   0.0000000   0.0000000), wk =   0.0555556
        k(    2) = (   0.0000000   0.0268596   0.0000000), wk =   0.1111111
        k(    3) = (   0.0000000   0.0537193   0.0000000), wk =   0.1111111
        k(    4) = (   0.0000000  -0.0805789   0.0000000), wk =   0.0555556
        k(    5) = (   0.0232611   0.0134298   0.0000000), wk =   0.1111111
        k(    6) = (   0.0232611   0.0402895   0.0000000), wk =   0.1111111
        k(    7) = (   0.0232611   0.0671491   0.0000000), wk =   0.1111111
        k(    8) = (   0.0232611  -0.0671491   0.0000000), wk =   0.1111111
        k(    9) = (   0.0232611  -0.0402895   0.0000000), wk =   0.1111111
        k(   10) = (   0.0232611  -0.0134298   0.0000000), wk =   0.1111111
        k(   11) = (   0.0465223   0.0268596   0.0000000), wk =   0.1111111
        k(   12) = (   0.0465223   0.0537193   0.0000000), wk =   0.1111111
        k(   13) = (   0.0465223   0.0805789   0.0000000), wk =   0.1111111
        k(   14) = (   0.0465223  -0.0537193   0.0000000), wk =   0.1111111
        k(   15) = (   0.0465223  -0.0268596   0.0000000), wk =   0.1111111
        k(   16) = (   0.0465223   0.0000000   0.0000000), wk =   0.1111111
        k(   17) = (  -0.0697834  -0.0402895   0.0000000), wk =   0.0555556
        k(   18) = (  -0.0697834  -0.0134298   0.0000000), wk =   0.1111111
        k(   19) = (  -0.0697834   0.0134298   0.0000000), wk =   0.1111111
        k(   20) = (  -0.0697834  -0.1208684   0.0000000), wk =   0.0555556

     Largest allocated arrays     est. size (Mb)     dimensions
     Largest temporary arrays     est. size (Mb)     dimensions

     Check: negative/imaginary core charge=   -0.000002    0.000000

     Initial potential from superposition of free atoms
     Check: negative starting charge=   -0.949089

     starting charge  128.71138, renormalised to  135.00000

[...]

     *
     * You are using vdW-DF for exchange-correlation in this calculation.
     * Please cite the following three references that made this development
     * possible:
     *
     *   M. Dion, H. Rydberg, E. Schroder, D. C. Langreth, and
     *   B. I. Lundqvist, Phys. Rev. Lett. 92, 246401 (2004).
     *
     *   T. Thonhauser, V. R. Cooper, S. Li, A. Puzder, P. Hyldgaard, and
     *   D. C. Langreth, Phys. Rev. B 76, 125112 (2007).
     *
     *   G. Roman-Perez and J. M. Soler, Phys. Rev. Lett. 103, 096102 (2009).
     *
     *
     * If you are using vdW-DF2, please also cite:
     *
     *   K. Lee, E. D. Murray, L. Kong, B. I. Lundqvist, and
     *   D. C. Langreth, Phys. Rev. B 82, 081101(R) (2010).
     *
     *
     * If you are calculating the stress with vdW-DF, please also cite:
     *
     *   R. Sabatini, E. Kucukbenli, B. Kolb, T. Thonhauser, and
     *   S. de Gironcoli, J. Phys.: Condens. Matter 24, 424209 (2012).
     *

     Carrying out vdW-DF run using the following parameters:

     Nqs =      20    Nr_points =    1024   r_max =   100.000
     q_mesh =
               0.00001000     0.04494208     0.09755937     0.15916263
               0.23128650     0.31572767     0.41458969     0.53033537
               0.66584808     0.82450364     1.01025438     1.22772762
               1.48234092     1.78043706     2.12944203     2.53805004
               3.01644009     3.57652955     4.23227104     5.00000000

     Gradients computed in reciprocal space

[...]

     Starting wfc are  219 randomized atomic wfcs

     Self-consistent Calculation

[...]

     iteration # 12     ecut=    36.75 Ry     beta=0.10
     Davidson diagonalization with overlap
     c_bands:  2 eigenvalues not converged
     c_bands:  1 eigenvalues not converged
     c_bands:  1 eigenvalues not converged
     c_bands:  2 eigenvalues not converged
     c_bands:  2 eigenvalues not converged
     c_bands:  1 eigenvalues not converged
     c_bands:  1 eigenvalues not converged
     c_bands:  1 eigenvalues not converged
     c_bands:  2 eigenvalues not converged
     ethr =  1.70E-06,  avg # of iterations = 16.7

[...]

     total energy              =   -1417.62844767 Ry
     Harris-Foulkes estimate   =   -1417.62844700 Ry
     estimated scf accuracy    <       0.00000187 Ry

     iteration # 21     ecut=    36.75 Ry     beta=0.10
     Davidson diagonalization with overlap
     ethr =  1.39E-09,  avg # of iterations =  4.2

[...]

     negative rho (up, down):  7.591E-01 0.000E+00

     Adding external electric field

     Computed dipole along edir(3) :
        Dipole                0.0484 Ry au,          0.1231 Debye
        Dipole field          0.0001 Ry au

        Potential amp.       -0.0075 Ry
        Total length         47.6286 bohr

     End of self-consistent calculation

[...]

          k = 0.0465 0.0000 0.0000 ( 29181 PWs)   bands (ev):

[...]

          k =-0.0698-0.1209 0.0000 ( 29180 PWs)   bands (ev):

   -61.3420 -61.1139 -60.9953 -31.2368 -31.2189 -31.1711 -31.1625 -31.1203
   -31.1106 -30.6910 -30.6370 -30.5845 -29.8774 -29.7730 -29.7709 -29.6423
   -29.5807 -29.5791 -29.4766 -29.4740 -29.4357 -15.4044 -15.3460 -15.2046
   -15.0536 -15.0220 -14.9602 -14.9388 -14.8656 -14.8589 -14.8577 -14.8441
   -14.8090 -14.7743 -14.7643 -14.7218 -14.7210 -14.6951 -14.3664 -14.3173
   -14.2881 -14.2646 -14.1918 -14.1396 -14.1224 -14.0963 -14.0491 -13.7988
    -0.8553  -0.8469  -0.3845   0.3814   0.5511   0.7750   0.9792   1.0019
     1.0290   1.0310   1.1694   1.2726   1.3735   1.4332   1.6229   1.6285
     1.7072   1.7309   1.7960   1.8815   1.9165   1.9656   2.0883   2.0980
     2.2407   2.2980   2.3072   2.4350   2.4573   2.5427   2.6073   2.7091
     2.7817   2.8178   2.8245   2.8419   3.0735   3.0814   3.2391   3.3400
     3.3633   3.3669   3.4385   3.4441   3.4651   3.4736   3.4893   3.5032
     3.5597

     the Fermi energy is     1.8775 ev

!    total energy              =   -1417.62845161 Ry
     Harris-Foulkes estimate   =   -1417.62844814 Ry
     estimated scf accuracy    <       0.00000035 Ry

     The total energy is the sum of the following terms:

     one-electron contribution =   -5497.82771595 Ry
     hartree contribution      =    2753.96398973 Ry
     xc contribution           =    -688.46627105 Ry
     ewald contribution        =    2014.82484987 Ry
     electric field correction =       0.00000380 Ry
     smearing contrib. (-TS)   =      -0.12330800 Ry

     convergence has been achieved in  21 iterations

 BEEF-vdW xc energy contributions
           1 :   -614.436932293239
           2 :    567.505964884260
           3 :   -484.260726781002
           4 :    382.077260212827
           5 :   -279.482051407070
           6 :    191.102939799959
           7 :   -124.930263534336
           8 :    82.1958234709991
           9 :   -59.1595111312892
          10 :    49.6017815659377
          11 :   -47.0291122962941
          12 :    46.0513343909259
          13 :   -42.9618397465946
          14 :    35.8390948258748
          15 :   -24.4907327145605
          16 :    10.2840892359934
          17 :    4.26901063084256
          18 :   -16.2757155471495
          19 :    23.4175927255159
          20 :   -24.7554163762115
          21 :    21.0313339907327
          22 :   -14.3417677089047
          23 :    7.32482917951108
          24 :   -2.22508469305376
          25 :   0.217173907093638
          26 :   -1.22541624637199
          27 :    4.22108908560324
          28 :   -7.78899370701993
          29 :    10.6871682225419
          30 :   -12.2044443323925
          31 :   -49.3405750879488
          32 :   -35.4651965545015

     Forces acting on atoms (Ry/au):

     negative rho (up, down):  7.591E-01 0.000E+00
     atom    1 type  1   force =    -0.00000161    0.00782659   -0.00277291
     atom    2 type  1   force =     0.00677855   -0.00391242   -0.00277280
     atom    3 type  1   force =    -0.00677660   -0.00391378   -0.00277227
     atom    4 type  2   force =     0.00000214    0.00000108    0.02754166
     atom    5 type  1   force =    -0.00000152   -0.00557018   -0.00679182
     atom    6 type  1   force =    -0.00482421    0.00278342   -0.00678846
     atom    7 type  1   force =     0.00482393    0.00278622   -0.00678544
     atom    8 type  2   force =     0.00000238   -0.00000204    0.00334151
     atom    9 type  1   force =    -0.00000247   -0.00041461   -0.00098295
     atom   10 type  1   force =    -0.00036007    0.00020425   -0.00097863
     atom   11 type  1   force =     0.00035924    0.00020882   -0.00097750
     atom   12 type  2   force =     0.00000023    0.00000264    0.00073961

     Total force =     0.034811     Total SCF correction =     0.001301

     entering subroutine stress ...

     negative rho (up, down):  7.591E-01 0.000E+00
          total   stress  (Ry/bohr**3)                   (kbar)     P=   -4.32
  -0.00003287  -0.00000000  -0.00000000         -4.84     -0.00     -0.00
  -0.00000000  -0.00003287   0.00000000         -0.00     -4.83      0.00
  -0.00000000   0.00000000  -0.00002232         -0.00      0.00     -3.28

 !ASE

     Writing output data file calc.save

     General routines

     Parallel routines

   This run was terminated on:  16:34: 8  30Dec2018

   JOB DONE.
Job  /afs/slac/g/suncat/bin/suncat-tsmpirun -x LD_LIBRARY_PATH -wdir /scratch/qe648555_YbXGW pw.x -in pw.inp

TID   HOST_NAME   COMMAND_LINE            STATUS            TERMINATION_TIME
00000 suncat0251 pw.x -in pw.inp   Done                     12/30/2018 16:34:08
00001 suncat0251 pw.x -in pw.inp   Done                     12/30/2018 16:34:08
00002 suncat0251 pw.x -in pw.inp   Done                     12/30/2018 16:34:08
00003 suncat0251 pw.x -in pw.inp   Done                     12/30/2018 16:34:08
00004 suncat0251 pw.x -in pw.inp   Done                     12/30/2018 16:34:08
00005 suncat0251 pw.x -in pw.inp   Done                     12/30/2018 16:34:08
00006 suncat0251 pw.x -in pw.inp   Done                     12/30/2018 16:34:08
00007 suncat0251 pw.x -in pw.inp   Done                     12/30/2018 16:34:08
00008 suncat0244 pw.x -in pw.inp   Done                     12/30/2018 16:34:08
00009 suncat0244 pw.x -in pw.inp   Done                     12/30/2018 16:34:08
00010 suncat0244 pw.x -in pw.inp   Done                     12/30/2018 16:34:08
00011 suncat0244 pw.x -in pw.inp   Done                     12/30/2018 16:34:08
00012 suncat0244 pw.x -in pw.inp   Done                     12/30/2018 16:34:08
00013 suncat0244 pw.x -in pw.inp   Done                     12/30/2018 16:34:08
00014 suncat0244 pw.x -in pw.inp   Done                     12/30/2018 16:34:08
00015 suncat0244 pw.x -in pw.inp   Done                     12/30/2018 16:34:08
00016 suncat0243 pw.x -in pw.inp   Done                     12/30/2018 16:34:08
00017 suncat0243 pw.x -in pw.inp   Done                     12/30/2018 16:34:08
00018 suncat0243 pw.x -in pw.inp   Done                     12/30/2018 16:34:08
00019 suncat0243 pw.x -in pw.inp   Done                     12/30/2018 16:34:08
00020 suncat0243 pw.x -in pw.inp   Done                     12/30/2018 16:34:08
00021 suncat0243 pw.x -in pw.inp   Done                     12/30/2018 16:34:08
00022 suncat0243 pw.x -in pw.inp   Done                     12/30/2018 16:34:08
00023 suncat0243 pw.x -in pw.inp   Done                     12/30/2018 16:34:08
00024 suncat0242 pw.x -in pw.inp   Done                     12/30/2018 16:34:08
00025 suncat0242 pw.x -in pw.inp   Done                     12/30/2018 16:34:08
00026 suncat0242 pw.x -in pw.inp   Done                     12/30/2018 16:34:08
00027 suncat0242 pw.x -in pw.inp   Done                     12/30/2018 16:34:08
00028 suncat0242 pw.x -in pw.inp   Done                     12/30/2018 16:34:08
00029 suncat0242 pw.x -in pw.inp   Done                     12/30/2018 16:34:08
00030 suncat0242 pw.x -in pw.inp   Done                     12/30/2018 16:34:08
00031 suncat0242 pw.x -in pw.inp   Done                     12/30/2018 16:34:08
00032 suncat0209 pw.x -in pw.inp   Done                     12/30/2018 16:34:08
00033 suncat0209 pw.x -in pw.inp   Done                     12/30/2018 16:34:08
00034 suncat0209 pw.x -in pw.inp   Done                     12/30/2018 16:34:08
00035 suncat0209 pw.x -in pw.inp   Done                     12/30/2018 16:34:08
00036 suncat0209 pw.x -in pw.inp   Done                     12/30/2018 16:34:08
00037 suncat0209 pw.x -in pw.inp   Done                     12/30/2018 16:34:08
00038 suncat0209 pw.x -in pw.inp   Done                     12/30/2018 16:34:08
00039 suncat0209 pw.x -in pw.inp   Done                     12/30/2018 16:34:08
00040 suncat0205 pw.x -in pw.inp   Done                     12/30/2018 16:34:08
00041 suncat0205 pw.x -in pw.inp   Done                     12/30/2018 16:34:08
00042 suncat0205 pw.x -in pw.inp   Done                     12/30/2018 16:34:08
00043 suncat0205 pw.x -in pw.inp   Done                     12/30/2018 16:34:08
00044 suncat0205 pw.x -in pw.inp   Done                     12/30/2018 16:34:08
00045 suncat0205 pw.x -in pw.inp   Done                     12/30/2018 16:34:08
00046 suncat0205 pw.x -in pw.inp   Done                     12/30/2018 16:34:08
00047 suncat0205 pw.x -in pw.inp   Done                     12/30/2018 16:34:08
00048 suncat0204 pw.x -in pw.inp   Done                     12/30/2018 16:34:08
00049 suncat0204 pw.x -in pw.inp   Done                     12/30/2018 16:34:08
00050 suncat0204 pw.x -in pw.inp   Done                     12/30/2018 16:34:08
00051 suncat0204 pw.x -in pw.inp   Done                     12/30/2018 16:34:08
00052 suncat0204 pw.x -in pw.inp   Done                     12/30/2018 16:34:08
00053 suncat0204 pw.x -in pw.inp   Done                     12/30/2018 16:34:08
00054 suncat0204 pw.x -in pw.inp   Done                     12/30/2018 16:34:08
00055 suncat0204 pw.x -in pw.inp   Done                     12/30/2018 16:34:08
00056 suncat0203 pw.x -in pw.inp   Done                     12/30/2018 16:34:08
00057 suncat0203 pw.x -in pw.inp   Done                     12/30/2018 16:34:08
00058 suncat0203 pw.x -in pw.inp   Done                     12/30/2018 16:34:08
00059 suncat0203 pw.x -in pw.inp   Done                     12/30/2018 16:34:08
00060 suncat0203 pw.x -in pw.inp   Done                     12/30/2018 16:34:08
00061 suncat0203 pw.x -in pw.inp   Done                     12/30/2018 16:34:08
00062 suncat0203 pw.x -in pw.inp   Done                     12/30/2018 16:34:08
00063 suncat0203 pw.x -in pw.inp   Done                     12/30/2018 16:34:08