     Program PWSCF v.5.1rc2 (svn rev. 11289) starts on 26Dec2018 at  9:38:45

     Current dimensions of program PWSCF are:
     Max number of different atomic species (ntypx) = 10
     Max number of k-points (npk) =  40000
     Max angular momentum in pseudopotentials (lmaxx) =  3
     Presently stress not available with electric field

     IMPORTANT: XC functional enforced from input :
     Exchange-correlation      = BEEF-VDW ( 1  4 27 13 2)
     Any further DFT definition will be discarded
     Please, verify this is what you really want

     Subspace diagonalization in iterative solution of the eigenvalue problem:
     a serial algorithm will be used

     bravais-lattice index     =            0
     lattice parameter (alat)  =       1.8897  a.u.
     unit-cell volume          =    5659.0015 (a.u.)^3
     number of atoms/cell      =           12
     number of atomic types    =            2
     number of electrons       =       147.00
     number of Kohn-Sham states=          103
     kinetic-energy cutoff     =      36.7493  Ry
     charge density cutoff     =     367.4932  Ry
     convergence threshold     =      1.0E-06
     mixing beta               =       0.1000
     number of iterations used =           10  plain     mixing
     Exchange-correlation      = BEEF-VDW ( 1  4 27 13 2)
     nstep                     =           50

     celldm(1)=   1.889726  celldm(2)=   0.000000  celldm(3)=   0.000000
     celldm(4)=   0.000000  celldm(5)=   0.000000  celldm(6)=   0.000000

     crystal axes: (cart. coord. in units of alat)
               a(1) = (   6.214334   0.000000   0.000000 )
               a(2) = (  -3.107167   5.381772   0.000000 )
               a(3) = (   0.000000   0.000000  25.073983 )

     reciprocal axes: (cart. coord. in units 2 pi/alat)
               b(1) = (  0.160918  0.092906  0.000000 )
               b(2) = (  0.000000  0.185812  0.000000 )
               b(3) = (  0.000000  0.000000  0.039882 )

     PseudoPot. # 1 for Hg read from file:
     /afs/slac.stanford.edu/u/if/mamunm/psp/gbrv1.5pbe/Hg.UPF
     MD5 check sum: 8f42caffe07f7fd9c0a564347f8c5498
     Pseudo is Ultrasoft + core correction, Zval = 12.0
     Generated by new atomic code, or converted to UPF format
     Using radial grid of  985 points,  6 beta functions with:
                l(1) =   0
                l(2) =   0
                l(3) =   1
                l(4) =   1
                l(5) =   2
                l(6) =   2
     Q(r) pseudized with  8 coefficients,  rinner =    2.000   2.000   2.000
                                                       2.000   2.000

     PseudoPot. # 2 for Nb read from file:
     /afs/slac.stanford.edu/u/if/mamunm/psp/gbrv1.5pbe/Nb.UPF
     MD5 check sum: 573aab8a2fa660278ed4a62cd769473f
     Pseudo is Ultrasoft + core correction, Zval = 13.0
     Generated by new atomic code, or converted to UPF format
     Using radial grid of  887 points,  6 beta functions with:
                l(1) =   0
                l(2) =   0
                l(3) =   1
                l(4) =   1
                l(5) =   2
                l(6) =   2
     Q(r) pseudized with  6 coefficients,  rinner =    1.000   1.000   1.000
                                                       1.000   1.000

     vdW kernel table read from file vdW_kernel_table
     MD5 check sum: 095c7af220d748ca6e76c0b4c6cfb241

     atomic species   valence    mass     pseudopotential
        Hg1           12.00   200.59200     Hg( 1.00)
        Nb1           13.00    92.90637     Nb( 1.00)

     No symmetry found

   Cartesian axes

     site n.     atom                  positions (alat units)
         1           Hg1 tau(   1) = (   0.0000000   0.0000000  10.0000000  )
         2           Hg1 tau(   2) = (  -1.5535836   2.6908858  10.0000000  )
         3           Hg1 tau(   3) = (   1.5535836   2.6908858  10.0000000  )
         4           Nb1 tau(   4) = (   3.1071672   0.0000000  10.0000000  )
         5           Hg1 tau(   5) = (   3.1071672   1.7939238  12.5369914  )
         6           Hg1 tau(   6) = (   1.5535836   4.4848096  12.5369914  )
         7           Hg1 tau(   7) = (  -1.5535836   4.4848096  12.5369914  )
         8           Nb1 tau(   8) = (   0.0000000   1.7939238  12.5369914  )
         9           Hg1 tau(   9) = (  -0.0000000   3.5878477  15.0739829  )
        10           Hg1 tau(  10) = (   1.5535836   0.8969619  15.0739829  )
        11           Hg1 tau(  11) = (   4.6607509   0.8969619  15.0739829  )
        12           Nb1 tau(  12) = (   3.1071672   3.5878477  15.0739829  )

     number of k points=    20  Fermi-Dirac smearing, width (Ry)=  0.0110
                       cart. coord. in units 2pi/alat
        k(    1) = (   0.0000000   0.0000000   0.0000000), wk =   0.0555556
        k(    2) = (   0.0000000   0.0309687   0.0000000), wk =   0.1111111
        k(    3) = (   0.0000000   0.0619375   0.0000000), wk =   0.1111111
        k(    4) = (   0.0000000  -0.0929062   0.0000000), wk =   0.0555556
        k(    5) = (   0.0268197   0.0154844   0.0000000), wk =   0.1111111
        k(    6) = (   0.0268197   0.0464531   0.0000000), wk =   0.1111111
        k(    7) = (   0.0268197   0.0774218   0.0000000), wk =   0.1111111
        k(    8) = (   0.0268197  -0.0774218   0.0000000), wk =   0.1111111
        k(    9) = (   0.0268197  -0.0464531   0.0000000), wk =   0.1111111
        k(   10) = (   0.0268197  -0.0154844   0.0000000), wk =   0.1111111
        k(   11) = (   0.0536394   0.0309687   0.0000000), wk =   0.1111111
        k(   12) = (   0.0536394   0.0619375   0.0000000), wk =   0.1111111
        k(   13) = (   0.0536394   0.0929062   0.0000000), wk =   0.1111111
        k(   14) = (   0.0536394  -0.0619375   0.0000000), wk =   0.1111111
        k(   15) = (   0.0536394  -0.0309687   0.0000000), wk =   0.1111111
        k(   16) = (   0.0536394   0.0000000   0.0000000), wk =   0.1111111
        k(   17) = (  -0.0804591  -0.0464531   0.0000000), wk =   0.0555556
        k(   18) = (  -0.0804591  -0.0154844   0.0000000), wk =   0.1111111
        k(   19) = (  -0.0804591   0.0154844   0.0000000), wk =   0.1111111
        k(   20) = (  -0.0804591  -0.1393593   0.0000000), wk =   0.0555556

     Largest allocated arrays     est. size (Mb)     dimensions
     Largest temporary arrays     est. size (Mb)     dimensions

     Initial potential from superposition of free atoms
     Check: negative starting charge=   -0.002939

     starting charge  146.99128, renormalised to  147.00000

     negative rho (up, down):  2.939E-03 0.000E+00

     *
     * You are using vdW-DF for exchange-correlation in this calculation.
     * Please cite the following three references that made this development
     * possible:
     *
     *   M. Dion, H. Rydberg, E. Schroder, D. C. Langreth, and
     *   B. I. Lundqvist, Phys. Rev. Lett. 92, 246401 (2004).
     *
     *   T. Thonhauser, V. R. Cooper, S. Li, A. Puzder, P. Hyldgaard, and
     *   D. C. Langreth, Phys. Rev. B 76, 125112 (2007).
     *
     *   G. Roman-Perez and J. M. Soler, Phys. Rev. Lett. 103, 096102 (2009).
     *
     *
     * If you are using vdW-DF2, please also cite:
     *
     *   K. Lee, E. D. Murray, L. Kong, B. I. Lundqvist, and
     *   D. C. Langreth, Phys. Rev. B 82, 081101(R) (2010).
     *
     *
     * If you are calculating the stress with vdW-DF, please also cite:
     *
     *   R. Sabatini, E. Kucukbenli, B. Kolb, T. Thonhauser, and
     *   S. de Gironcoli, J. Phys.: Condens. Matter 24, 424209 (2012).
     *

     Carrying out vdW-DF run using the following parameters:

     Nqs =      20    Nr_points =    1024   r_max =   100.000
     q_mesh =
               0.00001000     0.04494208     0.09755937     0.15916263
               0.23128650     0.31572767     0.41458969     0.53033537
               0.66584808     0.82450364     1.01025438     1.22772762
               1.48234092     1.78043706     2.12944203     2.53805004
               3.01644009     3.57652955     4.23227104     5.00000000

     Gradients computed in reciprocal space

     Adding external electric field

     Computed dipole along edir(3) :
        Dipole               -0.0000 Ry au,         -0.0000 Debye
        Dipole field         -0.0000 Ry au

        Potential amp.        0.0000 Ry
        Total length         46.1984 bohr

     Starting wfc are  120 randomized atomic wfcs

     Self-consistent Calculation

     iteration #  1     ecut=    36.75 Ry     beta=0.10
     Davidson diagonalization with overlap
     ethr =  1.00E-02,  avg # of iterations =  8.4

     Threshold (ethr) on eigenvalues was too large:
     Diagonalizing with lowered threshold

     Davidson diagonalization with overlap
     ethr =  1.79E-04,  avg # of iterations =  5.4

[...]

     total energy              =   -1337.11276605 Ry
     Harris-Foulkes estimate   =   -1337.13886222 Ry
     estimated scf accuracy    <       0.26996082 Ry

[...]

     End of self-consistent calculation

          k = 0.0000 0.0000 0.0000 ( 21331 PWs)   bands (ev):

   -54.6099 -54.4455 -54.4454 -30.6954 -30.5805 -30.5805 -30.5635 -30.5622
   -30.3936 -30.3936 -30.3932 -30.3932  -7.6562  -7.1411  -7.0563  -7.0359
    -7.0358  -7.0335  -6.9577  -6.8665  -6.8665  -6.8564  -6.7364  -6.7364
    -6.6389  -6.6389  -6.4908  -6.3480  -6.3134  -6.3134  -6.1449  -6.0826
    -6.0826  -5.9837  -5.9540  -5.8890  -5.8890  -5.7940  -5.7940  -5.6804
    -5.6804  -5.6152  -5.6152  -5.5107  -5.4647  -5.4646  -5.3958  -5.3958
    -5.3690  -5.3690  -5.2865  -5.1468  -5.1468  -5.0826  -4.9526  -4.9422
    -4.9422  -4.7617  -4.7438  -3.0181  -1.5632  -1.5632  -1.2095  -1.2095
    -0.5401  -0.4085  -0.4085  -0.0416   0.4795   0.5711   0.5711   0.9285
     1.4037   1.4037   1.5543   1.5815   1.5815   1.7518   1.7518   2.4011
     2.4011   2.5757   2.6151   2.6586   2.6586   3.6250   3.6250   3.6712
     3.6712   4.2263   4.3477   4.3478   4.6207   4.8172   5.2440   5.3372
     5.6982   6.1585   6.6523   7.2275   7.2275   7.5237   7.5237

[...]

          k =-0.0805-0.0465 0.0000 ( 21288 PWs)   bands (ev):

[...]

     the Fermi energy is     1.1790 ev

!    total energy              =   -1337.08509254 Ry
     Harris-Foulkes estimate   =   -1337.08509207 Ry
     estimated scf accuracy    <       0.00000070 Ry

     The total energy is the sum of the following terms:

     one-electron contribution =   -9110.55751339 Ry
     hartree contribution      =    4622.12329507 Ry
     xc contribution           =    -420.94566500 Ry
     ewald contribution        =    3572.37077845 Ry
     electric field correction =       0.00000000 Ry
     smearing contrib. (-TS)   =      -0.07598768 Ry

     convergence has been achieved in  14 iterations

 BEEF-vdW xc energy contributions
           1 :   -367.877580681566
           2 :    338.240096821977
           3 :   -286.708104416096
           4 :    225.572793983473
           5 :   -167.203388874430
           6 :    120.267433574219
           7 :   -87.9481364332663
           8 :    68.3986651859778
           9 :   -56.8478667680054
          10 :    48.2339967716248
          11 :   -39.2363374560182
          12 :    29.0014143673425
[...]
     MD5 check sum: 8f42caffe07f7fd9c0a564347f8c5498
     Pseudo is Ultrasoft + core correction, Zval = 12.0
     Generated by new atomic code, or converted to UPF format
     Using radial grid of  985 points,  6 beta functions with:
                l(1) =   0
                l(2) =   0
                l(3) =   1
                l(4) =   1
                l(5) =   2
                l(6) =   2
     Q(r) pseudized with  8 coefficients,  rinner =    2.000   2.000   2.000
                                                       2.000   2.000

     PseudoPot. # 2 for Nb read from file:
     /afs/slac.stanford.edu/u/if/mamunm/psp/gbrv1.5pbe/Nb.UPF
     MD5 check sum: 573aab8a2fa660278ed4a62cd769473f
     Pseudo is Ultrasoft + core correction, Zval = 13.0
     Generated by new atomic code, or converted to UPF format
     Using radial grid of  887 points,  6 beta functions with:
                l(1) =   0
                l(2) =   0
                l(3) =   1
                l(4) =   1
                l(5) =   2
                l(6) =   2
     Q(r) pseudized with  6 coefficients,  rinner =    1.000   1.000   1.000
                                                       1.000   1.000

     vdW kernel table read from file vdW_kernel_table
     MD5 check sum: 095c7af220d748ca6e76c0b4c6cfb241

     atomic species   valence    mass     pseudopotential
        Hg1           12.00   200.59200     Hg( 1.00)
        Nb1           13.00    92.90637     Nb( 1.00)

     No symmetry found

   Cartesian axes

     site n.     atom                  positions (alat units)
         1           Hg1 tau(   1) = (   0.0000000   0.0000000  10.0000000  )
         2           Hg1 tau(   2) = (  -1.5535836   2.6908858  10.0000000  )
         3           Hg1 tau(   3) = (   1.5535836   2.6908858  10.0000000  )
         4           Nb1 tau(   4) = (   3.1071672   0.0000000  10.0000000  )
         5           Hg1 tau(   5) = (   3.1071672   1.7939238  12.5369914  )
         6           Hg1 tau(   6) = (   1.5535836   4.4848096  12.5369914  )
         7           Hg1 tau(   7) = (  -1.5535836   4.4848096  12.5369914  )
         8           Nb1 tau(   8) = (   0.0000000   1.7939238  12.5369914  )
         9           Hg1 tau(   9) = (   0.0000027   3.5905064  15.3291798  )
        10           Hg1 tau(  10) = (   1.5558949   0.8956389  15.3291947  )
        11           Hg1 tau(  11) = (   4.6584420   0.8956293  15.3291889  )
        12           Nb1 tau(  12) = (   3.1071632   3.5878378  14.8122857  )

     number of k points=    20  Fermi-Dirac smearing, width (Ry)=  0.0110
                       cart. coord. in units 2pi/alat
        k(    1) = (   0.0000000   0.0000000   0.0000000), wk =   0.0555556
        k(    2) = (   0.0000000   0.0309687   0.0000000), wk =   0.1111111
        k(    3) = (   0.0000000   0.0619375   0.0000000), wk =   0.1111111
        k(    4) = (   0.0000000  -0.0929062   0.0000000), wk =   0.0555556
        k(    5) = (   0.0268197   0.0154844   0.0000000), wk =   0.1111111
        k(    6) = (   0.0268197   0.0464531   0.0000000), wk =   0.1111111
        k(    7) = (   0.0268197   0.0774218   0.0000000), wk =   0.1111111
        k(    8) = (   0.0268197  -0.0774218   0.0000000), wk =   0.1111111
        k(    9) = (   0.0268197  -0.0464531   0.0000000), wk =   0.1111111
        k(   10) = (   0.0268197  -0.0154844   0.0000000), wk =   0.1111111
        k(   11) = (   0.0536394   0.0309687   0.0000000), wk =   0.1111111
        k(   12) = (   0.0536394   0.0619375   0.0000000), wk =   0.1111111
        k(   13) = (   0.0536394   0.0929062   0.0000000), wk =   0.1111111
        k(   14) = (   0.0536394  -0.0619375   0.0000000), wk =   0.1111111
        k(   15) = (   0.0536394  -0.0309687   0.0000000), wk =   0.1111111
        k(   16) = (   0.0536394   0.0000000   0.0000000), wk =   0.1111111
        k(   17) = (  -0.0804591  -0.0464531   0.0000000), wk =   0.0555556
        k(   18) = (  -0.0804591  -0.0154844   0.0000000), wk =   0.1111111
        k(   19) = (  -0.0804591   0.0154844   0.0000000), wk =   0.1111111
        k(   20) = (  -0.0804591  -0.1393593   0.0000000), wk =   0.0555556

     Largest allocated arrays     est. size (Mb)     dimensions
     Largest temporary arrays     est. size (Mb)     dimensions

     Initial potential from superposition of free atoms
     Check: negative starting charge=   -0.002938

     starting charge  146.99128, renormalised to  147.00000

[...]

     *
     * You are using vdW-DF for exchange-correlation in this calculation.
     * Please cite the following three references that made this development
     * possible:
     *
     *   M. Dion, H. Rydberg, E. Schroder, D. C. Langreth, and
     *   B. I. Lundqvist, Phys. Rev. Lett. 92, 246401 (2004).
     *
     *   T. Thonhauser, V. R. Cooper, S. Li, A. Puzder, P. Hyldgaard, and
     *   D. C. Langreth, Phys. Rev. B 76, 125112 (2007).
     *
     *   G. Roman-Perez and J. M. Soler, Phys. Rev. Lett. 103, 096102 (2009).
     *
     *
     * If you are using vdW-DF2, please also cite:
     *
     *   K. Lee, E. D. Murray, L. Kong, B. I. Lundqvist, and
     *   D. C. Langreth, Phys. Rev. B 82, 081101(R) (2010).
     *
     *
     * If you are calculating the stress with vdW-DF, please also cite:
     *
     *   R. Sabatini, E. Kucukbenli, B. Kolb, T. Thonhauser, and
     *   S. de Gironcoli, J. Phys.: Condens. Matter 24, 424209 (2012).
     *

     Carrying out vdW-DF run using the following parameters:

     Nqs =      20    Nr_points =    1024   r_max =   100.000
     q_mesh =
               0.00001000     0.04494208     0.09755937     0.15916263
               0.23128650     0.31572767     0.41458969     0.53033537
               0.66584808     0.82450364     1.01025438     1.22772762
               1.48234092     1.78043706     2.12944203     2.53805004
               3.01644009     3.57652955     4.23227104     5.00000000

     Gradients computed in reciprocal space

[...]

     Starting wfc are  120 randomized atomic wfcs

     Self-consistent Calculation

[...]

     Threshold (ethr) on eigenvalues was too large:
     Diagonalizing with lowered threshold

     Davidson diagonalization with overlap
     ethr =  2.86E-04,  avg # of iterations =  4.6

[...]

     total energy              =   -1337.12157533 Ry
     Harris-Foulkes estimate   =   -1337.12157492 Ry
     estimated scf accuracy    <       0.00000195 Ry

     iteration # 15     ecut=    36.75 Ry     beta=0.10
     Davidson diagonalization with overlap
     ethr =  1.33E-09,  avg # of iterations =  2.0

[...]

     negative rho (up, down):  2.518E-03 0.000E+00

     Adding external electric field

     Computed dipole along edir(3) :
        Dipole               -0.0771 Ry au,         -0.1961 Debye
        Dipole field         -0.0002 Ry au

        Potential amp.        0.0158 Ry
        Total length         46.1984 bohr

     End of self-consistent calculation

[...]

          k = 0.0536 0.0000 0.0000 ( 21297 PWs)   bands (ev):

[...]

          k =-0.0805-0.1394 0.0000 ( 21288 PWs)   bands (ev):

   -54.7236 -54.4726 -54.4672 -30.7895 -30.6905 -30.6892 -30.5706 -30.5700
   -30.4360 -30.4347 -30.4230 -30.4222  -7.0232  -6.8527  -6.7708  -6.6464
    -6.6108  -6.5829  -6.5309  -6.5076  -6.4859  -6.4820  -6.4050  -6.3839
    -6.3542  -6.2368  -6.2106  -6.1520  -6.1021  -6.0981  -6.0455  -6.0088
    -5.9652  -5.9527  -5.8703  -5.8540  -5.8297  -5.8198  -5.8157  -5.7994
    -5.7680  -5.7499  -5.7227  -5.7075  -5.6843  -5.6646  -5.6492  -5.6242
    -5.6045  -5.5345  -5.5174  -5.4323  -5.4039  -5.3598  -5.2934  -5.2275
    -5.1995  -5.0665  -4.9397  -4.1636  -3.8305  -2.9486  -2.1343  -2.0877
    -1.1724  -1.0422  -0.3662  -0.0516   0.2368   0.5017   0.6968   0.8158
     0.8170   0.9843   1.1324   1.2741   1.7382   1.7873   2.0279   2.1502
     2.8527   2.8965   3.0278   3.3153   3.5808   3.7065   4.5545   4.9518
     5.0546   5.0804   5.6071   5.7480   5.7975   5.9435   5.9681   6.0141
     6.2833   6.2837   6.3295   6.6622   7.2087   7.2663   7.2919

     the Fermi energy is     1.0919 ev

!    total energy              =   -1337.12157505 Ry
     Harris-Foulkes estimate   =   -1337.12157571 Ry
     estimated scf accuracy    <       0.00000057 Ry

     The total energy is the sum of the following terms:

     one-electron contribution =   -8946.60215010 Ry
     hartree contribution      =    4540.07037125 Ry
     xc contribution           =    -420.87797954 Ry
     ewald contribution        =    3490.36741802 Ry
     electric field correction =       0.00001322 Ry
     smearing contrib. (-TS)   =      -0.07924790 Ry

     convergence has been achieved in  15 iterations

 BEEF-vdW xc energy contributions
           1 :   -367.961153098542
           2 :    338.239862637821
           3 :   -286.616563738940
           4 :    225.467619221728
           5 :   -167.190388791469
           6 :    120.407089787076
           7 :   -88.2118123756631
           8 :    68.6809664874371
           9 :   -57.0303201418718
          10 :    48.2612844869225
          11 :   -39.1551638630374
          12 :    28.9348251874516
          13 :   -18.6520121386089
          14 :    9.91632503323575
          15 :   -3.75636886857092
          16 :   0.128770908879687
          17 :    1.85435308949883
          18 :   -3.29367724629213
          19 :    4.89605363276786
          20 :   -6.71646496369368
          21 :    8.31625888045482
          22 :   -9.17436998255965
          23 :    9.07136036291990
          24 :   -8.23370681235207
          25 :    7.19029034245801
          26 :   -6.46572136444718
          27 :    6.30223437991077
          28 :   -6.56258242777693
          29 :    6.84641516295642
          30 :   -6.73969260427424
          31 :   -35.2854210776232
          32 :   -26.1103667766108

     Forces acting on atoms (Ry/au):

     negative rho (up, down):  2.518E-03 0.000E+00
     atom    1 type  1   force =    -0.00000052    0.00105510   -0.01988522
     atom    2 type  1   force =     0.00091422   -0.00052765   -0.01988530
     atom    3 type  1   force =    -0.00091421   -0.00052732   -0.01988519
     atom    4 type  2   force =    -0.00000002    0.00000000    0.04353531
     atom    5 type  1   force =    -0.00000025   -0.01553612    0.00254670
     atom    6 type  1   force =    -0.01345415    0.00776734    0.00254788
     atom    7 type  1   force =     0.01345340    0.00776800    0.00254856
     atom    8 type  2   force =    -0.00000031   -0.00000000    0.00667800
     atom    9 type  1   force =     0.00000044   -0.00059719    0.00033380
     atom   10 type  1   force =    -0.00051864    0.00029748    0.00033336
     atom   11 type  1   force =     0.00051973    0.00029835    0.00033259
     atom   12 type  2   force =     0.00000031    0.00000200    0.00079950

     Total force =     0.062250     Total SCF correction =     0.001951

     entering subroutine stress ...

     negative rho (up, down):  2.518E-03 0.000E+00
          total   stress  (Ry/bohr**3)                   (kbar)     P=   -4.01
  -0.00004803  -0.00000000   0.00000000         -7.07     -0.00      0.00
  -0.00000000  -0.00004803   0.00000000         -0.00     -7.07      0.00
   0.00000000   0.00000000   0.00001436          0.00      0.00      2.11

 !ASE

     Writing output data file calc.save

     General routines

     Parallel routines

   This run was terminated on:  11:11:17  26Dec2018

   JOB DONE.
Job  /afs/slac/g/suncat/bin/suncat-tsmpirun -x LD_LIBRARY_PATH -wdir /scratch/qe109814_0zSrW pw.x -in pw.inp

TID   HOST_NAME   COMMAND_LINE            STATUS            TERMINATION_TIME
00000 suncat0089 pw.x -in pw.inp   Done                     12/26/2018 11:11:17
00001 suncat0089 pw.x -in pw.inp   Done                     12/26/2018 11:11:17
00002 suncat0089 pw.x -in pw.inp   Done                     12/26/2018 11:11:17
00003 suncat0089 pw.x -in pw.inp   Done                     12/26/2018 11:11:17
00004 suncat0089 pw.x -in pw.inp   Done                     12/26/2018 11:11:17
00005 suncat0089 pw.x -in pw.inp   Done                     12/26/2018 11:11:17
00006 suncat0089 pw.x -in pw.inp   Done                     12/26/2018 11:11:17
00007 suncat0089 pw.x -in pw.inp   Done                     12/26/2018 11:11:17
00008 suncat0088 pw.x -in pw.inp   Done                     12/26/2018 11:11:17
00009 suncat0088 pw.x -in pw.inp   Done                     12/26/2018 11:11:17
00010 suncat0088 pw.x -in pw.inp   Done                     12/26/2018 11:11:17
00011 suncat0088 pw.x -in pw.inp   Done                     12/26/2018 11:11:17
00012 suncat0088 pw.x -in pw.inp   Done                     12/26/2018 11:11:17
00013 suncat0088 pw.x -in pw.inp   Done                     12/26/2018 11:11:17
00014 suncat0088 pw.x -in pw.inp   Done                     12/26/2018 11:11:17
00015 suncat0088 pw.x -in pw.inp   Done                     12/26/2018 11:11:17
00016 suncat0087 pw.x -in pw.inp   Done                     12/26/2018 11:11:17
00017 suncat0087 pw.x -in pw.inp   Done                     12/26/2018 11:11:17
00018 suncat0087 pw.x -in pw.inp   Done                     12/26/2018 11:11:17
00019 suncat0087 pw.x -in pw.inp   Done                     12/26/2018 11:11:17
00020 suncat0087 pw.x -in pw.inp   Done                     12/26/2018 11:11:17
00021 suncat0087 pw.x -in pw.inp   Done                     12/26/2018 11:11:17
00022 suncat0087 pw.x -in pw.inp   Done                     12/26/2018 11:11:17
00023 suncat0087 pw.x -in pw.inp   Done                     12/26/2018 11:11:17
00024 suncat0086 pw.x -in pw.inp   Done                     12/26/2018 11:11:17
00025 suncat0086 pw.x -in pw.inp   Done                     12/26/2018 11:11:17
00026 suncat0086 pw.x -in pw.inp   Done                     12/26/2018 11:11:17
00027 suncat0086 pw.x -in pw.inp   Done                     12/26/2018 11:11:17
00028 suncat0086 pw.x -in pw.inp   Done                     12/26/2018 11:11:17
00029 suncat0086 pw.x -in pw.inp   Done                     12/26/2018 11:11:17
00030 suncat0086 pw.x -in pw.inp   Done                     12/26/2018 11:11:17
00031 suncat0086 pw.x -in pw.inp   Done                     12/26/2018 11:11:17
00032 suncat0085 pw.x -in pw.inp   Done                     12/26/2018 11:11:17
00033 suncat0085 pw.x -in pw.inp   Done                     12/26/2018 11:11:17
00034 suncat0085 pw.x -in pw.inp   Done                     12/26/2018 11:11:17
00035 suncat0085 pw.x -in pw.inp   Done                     12/26/2018 11:11:17
00036 suncat0085 pw.x -in pw.inp   Done                     12/26/2018 11:11:17
00037 suncat0085 pw.x -in pw.inp   Done                     12/26/2018 11:11:17
00038 suncat0085 pw.x -in pw.inp   Done                     12/26/2018 11:11:17
00039 suncat0085 pw.x -in pw.inp   Done                     12/26/2018 11:11:17
00040 suncat0084 pw.x -in pw.inp   Done                     12/26/2018 11:11:17
00041 suncat0084 pw.x -in pw.inp   Done                     12/26/2018 11:11:17
00042 suncat0084 pw.x -in pw.inp   Done                     12/26/2018 11:11:17
00043 suncat0084 pw.x -in pw.inp   Done                     12/26/2018 11:11:17
00044 suncat0084 pw.x -in pw.inp   Done                     12/26/2018 11:11:17
00045 suncat0084 pw.x -in pw.inp   Done                     12/26/2018 11:11:17
00046 suncat0084 pw.x -in pw.inp   Done                     12/26/2018 11:11:17
00047 suncat0084 pw.x -in pw.inp   Done                     12/26/2018 11:11:17
00048 suncat0073 pw.x -in pw.inp   Done                     12/26/2018 11:11:17
00049 suncat0073 pw.x -in pw.inp   Done                     12/26/2018 11:11:17
00050 suncat0073 pw.x -in pw.inp   Done                     12/26/2018 11:11:17
00051 suncat0073 pw.x -in pw.inp   Done                     12/26/2018 11:11:17
00052 suncat0073 pw.x -in pw.inp   Done                     12/26/2018 11:11:17
00053 suncat0073 pw.x -in pw.inp   Done                     12/26/2018 11:11:17
00054 suncat0073 pw.x -in pw.inp   Done                     12/26/2018 11:11:17
00055 suncat0073 pw.x -in pw.inp   Done                     12/26/2018 11:11:17
00056 suncat0068 pw.x -in pw.inp   Done                     12/26/2018 11:11:17
00057 suncat0068 pw.x -in pw.inp   Done                     12/26/2018 11:11:17
00058 suncat0068 pw.x -in pw.inp   Done                     12/26/2018 11:11:17
00059 suncat0068 pw.x -in pw.inp   Done                     12/26/2018 11:11:17
00060 suncat0068 pw.x -in pw.inp   Done                     12/26/2018 11:11:17
00061 suncat0068 pw.x -in pw.inp   Done                     12/26/2018 11:11:17
00062 suncat0068 pw.x -in pw.inp   Done                     12/26/2018 11:11:17
00063 suncat0068 pw.x -in pw.inp   Done                     12/26/2018 11:11:17