     Program PWSCF v.5.1rc2 (svn rev. 11289) starts on 30Dec2018 at  5: 5:15

     Current dimensions of program PWSCF are:
     Max number of different atomic species (ntypx) = 10
     Max number of k-points (npk) =  40000
     Max angular momentum in pseudopotentials (lmaxx) =  3
     Presently stress not available with electric field

     IMPORTANT: XC functional enforced from input :
     Exchange-correlation      = BEEF-VDW ( 1  4 27 13 2)
     Any further DFT definition will be discarded
     Please, verify this is what you really want

     Subspace diagonalization in iterative solution of the eigenvalue problem:
     a serial algorithm will be used

     bravais-lattice index     =            0
     lattice parameter (alat)  =       1.8897  a.u.
     unit-cell volume          =    5116.7219 (a.u.)^3
     number of atoms/cell      =           12
     number of atomic types    =            2
     number of electrons       =       180.00
     number of Kohn-Sham states=          120
     kinetic-energy cutoff     =      36.7493  Ry
     charge density cutoff     =     367.4932  Ry
     convergence threshold     =      1.0E-06
     mixing beta               =       0.1000
     number of iterations used =           10  plain     mixing
     Exchange-correlation      = BEEF-VDW ( 1  4 27 13 2)
     nstep                     =           50

     celldm(1)=   1.889726  celldm(2)=   0.000000  celldm(3)=   0.000000
     celldm(4)=   0.000000  celldm(5)=   0.000000  celldm(6)=   0.000000

     crystal axes: (cart. coord. in units of alat)
               a(1) = (   5.936048   0.000000   0.000000 )
               a(2) = (  -2.968024   5.140768   0.000000 )
               a(3) = (   0.000000   0.000000  24.846763 )

     reciprocal axes: (cart. coord. in units 2 pi/alat)
               b(1) = (  0.168462  0.097262  0.000000 )
               b(2) = (  0.000000  0.194523  0.000000 )
               b(3) = (  0.000000  0.000000  0.040247 )

     PseudoPot. # 1 for Ga read from file:
     /afs/slac.stanford.edu/u/if/mamunm/psp/gbrv1.5pbe/Ga.UPF
     MD5 check sum: ccd671392a58a050fbb373893b4fcd66
     Pseudo is Ultrasoft + core correction, Zval = 19.0
     Generated by new atomic code, or converted to UPF format
     Using radial grid of  871 points,  6 beta functions with:
                l(1) =   0
                l(2) =   0
                l(3) =   1
                l(4) =   1
                l(5) =   2
                l(6) =   2
     Q(r) pseudized with  8 coefficients,  rinner =    1.250   1.250   1.250
                                                       1.250   1.250

     PseudoPot. # 2 for Al read from file:
     /afs/slac.stanford.edu/u/if/mamunm/psp/gbrv1.5pbe/Al.UPF
     MD5 check sum: 0a6289f5291fc8f409219462bc851e1f
     Pseudo is Ultrasoft + core correction, Zval =  3.0
     Generated by new atomic code, or converted to UPF format
     Using radial grid of  893 points,  3 beta functions with:
                l(1) =   0
                l(2) =   1
                l(3) =   2
     Q(r) pseudized with  8 coefficients,  rinner =    0.900   0.900   0.900
                                                       0.900   0.900

     vdW kernel table read from file vdW_kernel_table
     MD5 check sum: 095c7af220d748ca6e76c0b4c6cfb241

     atomic species   valence    mass     pseudopotential
        Ga1           19.00    69.72300     Ga( 1.00)
        Al1            3.00    26.98154     Al( 1.00)

     No symmetry found

   Cartesian axes

     site n.     atom                  positions (alat units)
         1           Ga1 tau(   1) = (   0.0000000   0.0000000  10.0000000  )
         2           Ga1 tau(   2) = (  -1.4840119   2.5703841  10.0000000  )
         3           Ga1 tau(   3) = (   1.4840119   2.5703841  10.0000000  )
         4           Al1 tau(   4) = (   2.9680239   0.0000000  10.0000000  )
         5           Ga1 tau(   5) = (   2.9680239   1.7135894  12.4233813  )
         6           Ga1 tau(   6) = (   1.4840119   4.2839734  12.4233813  )
         7           Ga1 tau(   7) = (  -1.4840119   4.2839734  12.4233813  )
         8           Al1 tau(   8) = (   0.0000000   1.7135894  12.4233813  )
         9           Ga1 tau(   9) = (  -0.0000000   3.4271787  14.8467627  )
        10           Ga1 tau(  10) = (   1.4840119   0.8567947  14.8467627  )
        11           Ga1 tau(  11) = (   4.4520358   0.8567947  14.8467627  )
        12           Al1 tau(  12) = (   2.9680239   3.4271787  14.8467627  )

     number of k points=    20  Fermi-Dirac smearing, width (Ry)=  0.0110
                       cart. coord. in units 2pi/alat
        k(    1) = (   0.0000000   0.0000000   0.0000000), wk =   0.0555556
        k(    2) = (   0.0000000   0.0324206   0.0000000), wk =   0.1111111
        k(    3) = (   0.0000000   0.0648412   0.0000000), wk =   0.1111111
        k(    4) = (   0.0000000  -0.0972617   0.0000000), wk =   0.0555556
        k(    5) = (   0.0280770   0.0162103   0.0000000), wk =   0.1111111
        k(    6) = (   0.0280770   0.0486309   0.0000000), wk =   0.1111111
        k(    7) = (   0.0280770   0.0810514   0.0000000), wk =   0.1111111
        k(    8) = (   0.0280770  -0.0810514   0.0000000), wk =   0.1111111
        k(    9) = (   0.0280770  -0.0486309   0.0000000), wk =   0.1111111
        k(   10) = (   0.0280770  -0.0162103   0.0000000), wk =   0.1111111
        k(   11) = (   0.0561541   0.0324206   0.0000000), wk =   0.1111111
        k(   12) = (   0.0561541   0.0648412   0.0000000), wk =   0.1111111
        k(   13) = (   0.0561541   0.0972617   0.0000000), wk =   0.1111111
        k(   14) = (   0.0561541  -0.0648412   0.0000000), wk =   0.1111111
        k(   15) = (   0.0561541  -0.0324206   0.0000000), wk =   0.1111111
        k(   16) = (   0.0561541   0.0000000   0.0000000), wk =   0.1111111
        k(   17) = (  -0.0842311  -0.0486309   0.0000000), wk =   0.0555556
        k(   18) = (  -0.0842311  -0.0162103   0.0000000), wk =   0.1111111
        k(   19) = (  -0.0842311   0.0162103   0.0000000), wk =   0.1111111
        k(   20) = (  -0.0842311  -0.1458926   0.0000000), wk =   0.0555556

     Largest allocated arrays     est. size (Mb)     dimensions
     Largest temporary arrays     est. size (Mb)     dimensions

     Initial potential from superposition of free atoms
     Check: negative starting charge=   -0.000957

     starting charge  170.99260, renormalised to  180.00000

     negative rho (up, down):  1.007E-03 0.000E+00

     *
     * You are using vdW-DF for exchange-correlation in this calculation.
     * Please cite the following three references that made this development
     * possible:
     *
     *   M. Dion, H. Rydberg, E. Schroder, D. C. Langreth, and
     *   B. I. Lundqvist, Phys. Rev. Lett. 92, 246401 (2004).
     *
     *   T. Thonhauser, V. R. Cooper, S. Li, A. Puzder, P. Hyldgaard, and
     *   D. C. Langreth, Phys. Rev. B 76, 125112 (2007).
     *
     *   G. Roman-Perez and J. M. Soler, Phys. Rev. Lett. 103, 096102 (2009).
     *
     *
     * If you are using vdW-DF2, please also cite:
     *
     *   K. Lee, E. D. Murray, L. Kong, B. I. Lundqvist, and
     *   D. C. Langreth, Phys. Rev. B 82, 081101(R) (2010).
     *
     *
     * If you are calculating the stress with vdW-DF, please also cite:
     *
     *   R. Sabatini, E. Kucukbenli, B. Kolb, T. Thonhauser, and
     *   S. de Gironcoli, J. Phys.: Condens. Matter 24, 424209 (2012).
     *

     Carrying out vdW-DF run using the following parameters:

     Nqs =      20    Nr_points =    1024   r_max =   100.000
     q_mesh =
               0.00001000     0.04494208     0.09755937     0.15916263
               0.23128650     0.31572767     0.41458969     0.53033537
               0.66584808     0.82450364     1.01025438     1.22772762
               1.48234092     1.78043706     2.12944203     2.53805004
               3.01644009     3.57652955     4.23227104     5.00000000

     Gradients computed in reciprocal space

     Adding external electric field

     Computed dipole along edir(3) :
        Dipole               -0.0000 Ry au,         -0.0000 Debye
        Dipole field         -0.0000 Ry au

        Potential amp.        0.0000 Ry
        Total length         45.7797 bohr

     Starting wfc are  120 randomized atomic wfcs

     Self-consistent Calculation

     iteration #  1     ecut=    36.75 Ry     beta=0.10
     Davidson diagonalization with overlap
     ethr =  1.00E-02,  avg # of iterations =  6.8

[...]

     total energy              =   -3763.96048078 Ry
     Harris-Foulkes estimate   =   -3787.40501784 Ry
     estimated scf accuracy    <     130.11359058 Ry

[...]

     End of self-consistent calculation

          k = 0.0000 0.0000 0.0000 ( 19267 PWs)   bands (ev):

   -94.7170 -94.7155 -94.7155 -94.7050 -94.7050 -94.7047 -94.7041 -94.7040
   -94.7040 -94.6991 -94.6990 -94.6988 -94.6988 -94.6987 -94.6987 -94.6827
   -94.6827 -94.6810 -94.6810 -94.6810 -94.6810 -94.6729 -94.6729 -94.6729
   -94.6729 -94.6722 -94.6721 -15.2187 -15.1984 -15.1957 -15.1957 -15.1676
   -15.1577 -15.1534 -15.1246 -15.1246 -15.1237 -15.1237 -15.1141 -15.1141
   -15.0953 -15.0915 -15.0915 -15.0763 -15.0679 -15.0447 -15.0447 -15.0265
   -15.0215 -15.0113 -15.0113 -14.9925 -14.9925 -14.9838 -14.9838 -14.9786
   -14.9745 -14.9745 -14.9670 -14.9670 -14.9568 -14.9568 -14.9290 -14.9290
   -14.9159 -14.9159 -14.9108 -14.8896 -14.8857 -14.8857 -14.8539 -14.8519
   -10.4539  -8.8737  -6.5046  -5.1171  -5.1171  -4.7459  -4.7459  -4.1920
    -4.1486  -3.3500  -3.3500  -3.0562  -3.0562  -2.8347  -2.6314  -2.3573
    -1.0308  -1.0308  -0.8567  -0.8567  -0.4848  -0.1203   0.7111   2.8062
     2.8965   2.8965   2.9027   2.9027   3.1446   3.1971   3.5789   4.2180
     4.5612   5.5649   5.5976   5.5976   5.9128   5.9128   6.0344   6.0833
     6.1797   6.8815   6.8815   7.0658   7.0658   7.0772   7.1857   8.1814

[...]

          k =-0.0842-0.0486 0.0000 ( 19276 PWs)   bands (ev):

[...]

     the Fermi energy is    -0.0175 ev

!    total energy              =   -3769.82751044 Ry
     Harris-Foulkes estimate   =   -3769.82750404 Ry
     estimated scf accuracy    <       0.00000025 Ry

     The total energy is the sum of the following terms:

     one-electron contribution =  -18500.44534910 Ry
     hartree contribution      =    9254.50573740 Ry
     xc contribution           =    -460.62067202 Ry
     ewald contribution        =    5936.76123332 Ry
     electric field correction =       0.00000000 Ry
     smearing contrib. (-TS)   =      -0.02846004 Ry

     convergence has been achieved in  15 iterations

 BEEF-vdW xc energy contributions
           1 :   -410.341189961491
           2 :    372.150177264903
           3 :   -308.234238256561
           4 :    237.314110488281
           5 :   -175.826654182500
           6 :    131.727059642040
           7 :   -103.482171194585
           8 :    83.9269843764001
           9 :   -66.0185771828498
          10 :    46.8964163769595
          11 :   -28.2802978864403
          12 :    13.7991466481093
          13 :   -5.63660551364762
          14 :    2.85312836110103
          15 :   -2.21738751487430
[...]
     /afs/slac.stanford.edu/u/if/mamunm/psp/gbrv1.5pbe/Ga.UPF
     MD5 check sum: ccd671392a58a050fbb373893b4fcd66
     Pseudo is Ultrasoft + core correction, Zval = 19.0
     Generated by new atomic code, or converted to UPF format
     Using radial grid of  871 points,  6 beta functions with:
                l(1) =   0
                l(2) =   0
                l(3) =   1
                l(4) =   1
                l(5) =   2
                l(6) =   2
     Q(r) pseudized with  8 coefficients,  rinner =    1.250   1.250   1.250
                                                       1.250   1.250

     PseudoPot. # 2 for Al read from file:
     /afs/slac.stanford.edu/u/if/mamunm/psp/gbrv1.5pbe/Al.UPF
     MD5 check sum: 0a6289f5291fc8f409219462bc851e1f
     Pseudo is Ultrasoft + core correction, Zval =  3.0
     Generated by new atomic code, or converted to UPF format
     Using radial grid of  893 points,  3 beta functions with:
                l(1) =   0
                l(2) =   1
                l(3) =   2
     Q(r) pseudized with  8 coefficients,  rinner =    0.900   0.900   0.900
                                                       0.900   0.900

     vdW kernel table read from file vdW_kernel_table
     MD5 check sum: 095c7af220d748ca6e76c0b4c6cfb241

     atomic species   valence    mass     pseudopotential
        Ga1           19.00    69.72300     Ga( 1.00)
        Al1            3.00    26.98154     Al( 1.00)

     No symmetry found

   Cartesian axes

     site n.     atom                  positions (alat units)
         1           Ga1 tau(   1) = (   0.0000000   0.0000000  10.0000000  )
         2           Ga1 tau(   2) = (  -1.4840119   2.5703841  10.0000000  )
         3           Ga1 tau(   3) = (   1.4840119   2.5703841  10.0000000  )
         4           Al1 tau(   4) = (   2.9680239   0.0000000  10.0000000  )
         5           Ga1 tau(   5) = (   2.9680239   1.7135894  12.4233813  )
         6           Ga1 tau(   6) = (   1.4840119   4.2839734  12.4233813  )
         7           Ga1 tau(   7) = (  -1.4840119   4.2839734  12.4233813  )
         8           Al1 tau(   8) = (   0.0000000   1.7135894  12.4233813  )
         9           Ga1 tau(   9) = (  -0.0000007   3.4081263  14.8623728  )
        10           Ga1 tau(  10) = (   1.4675319   0.8663066  14.8623928  )
        11           Ga1 tau(  11) = (   4.4685361   0.8663046  14.8623835  )
        12           Al1 tau(  12) = (   2.9680302   3.4271725  14.6931295  )

     number of k points=    20  Fermi-Dirac smearing, width (Ry)=  0.0110
                       cart. coord. in units 2pi/alat
        k(    1) = (   0.0000000   0.0000000   0.0000000), wk =   0.0555556
        k(    2) = (   0.0000000   0.0324206   0.0000000), wk =   0.1111111
        k(    3) = (   0.0000000   0.0648412   0.0000000), wk =   0.1111111
        k(    4) = (   0.0000000  -0.0972617   0.0000000), wk =   0.0555556
        k(    5) = (   0.0280770   0.0162103   0.0000000), wk =   0.1111111
        k(    6) = (   0.0280770   0.0486309   0.0000000), wk =   0.1111111
        k(    7) = (   0.0280770   0.0810514   0.0000000), wk =   0.1111111
        k(    8) = (   0.0280770  -0.0810514   0.0000000), wk =   0.1111111
        k(    9) = (   0.0280770  -0.0486309   0.0000000), wk =   0.1111111
        k(   10) = (   0.0280770  -0.0162103   0.0000000), wk =   0.1111111
        k(   11) = (   0.0561541   0.0324206   0.0000000), wk =   0.1111111
        k(   12) = (   0.0561541   0.0648412   0.0000000), wk =   0.1111111
        k(   13) = (   0.0561541   0.0972617   0.0000000), wk =   0.1111111
        k(   14) = (   0.0561541  -0.0648412   0.0000000), wk =   0.1111111
        k(   15) = (   0.0561541  -0.0324206   0.0000000), wk =   0.1111111
        k(   16) = (   0.0561541   0.0000000   0.0000000), wk =   0.1111111
        k(   17) = (  -0.0842311  -0.0486309   0.0000000), wk =   0.0555556
        k(   18) = (  -0.0842311  -0.0162103   0.0000000), wk =   0.1111111
        k(   19) = (  -0.0842311   0.0162103   0.0000000), wk =   0.1111111
        k(   20) = (  -0.0842311  -0.1458926   0.0000000), wk =   0.0555556

     Largest allocated arrays     est. size (Mb)     dimensions
     Largest temporary arrays     est. size (Mb)     dimensions

     Initial potential from superposition of free atoms
     Check: negative starting charge=   -0.000964

     starting charge  170.99260, renormalised to  180.00000

[...]

     *
     * You are using vdW-DF for exchange-correlation in this calculation.
     * Please cite the following three references that made this development
     * possible:
     *
     *   M. Dion, H. Rydberg, E. Schroder, D. C. Langreth, and
     *   B. I. Lundqvist, Phys. Rev. Lett. 92, 246401 (2004).
     *
     *   T. Thonhauser, V. R. Cooper, S. Li, A. Puzder, P. Hyldgaard, and
     *   D. C. Langreth, Phys. Rev. B 76, 125112 (2007).
     *
     *   G. Roman-Perez and J. M. Soler, Phys. Rev. Lett. 103, 096102 (2009).
     *
     *
     * If you are using vdW-DF2, please also cite:
     *
     *   K. Lee, E. D. Murray, L. Kong, B. I. Lundqvist, and
     *   D. C. Langreth, Phys. Rev. B 82, 081101(R) (2010).
     *
     *
     * If you are calculating the stress with vdW-DF, please also cite:
     *
     *   R. Sabatini, E. Kucukbenli, B. Kolb, T. Thonhauser, and
     *   S. de Gironcoli, J. Phys.: Condens. Matter 24, 424209 (2012).
     *

     Carrying out vdW-DF run using the following parameters:

     Nqs =      20    Nr_points =    1024   r_max =   100.000
     q_mesh =
               0.00001000     0.04494208     0.09755937     0.15916263
               0.23128650     0.31572767     0.41458969     0.53033537
               0.66584808     0.82450364     1.01025438     1.22772762
               1.48234092     1.78043706     2.12944203     2.53805004
               3.01644009     3.57652955     4.23227104     5.00000000

     Gradients computed in reciprocal space

[...]

     Starting wfc are  120 randomized atomic wfcs

     Self-consistent Calculation

[...]

     total energy              =   -3769.85149892 Ry
     Harris-Foulkes estimate   =   -3769.85149930 Ry
     estimated scf accuracy    <       0.00000531 Ry

     iteration # 15     ecut=    36.75 Ry     beta=0.10
     Davidson diagonalization with overlap
     ethr =  2.95E-09,  avg # of iterations =  2.0

[...]

     negative rho (up, down):  9.272E-04 0.000E+00

     Adding external electric field

     Computed dipole along edir(3) :
        Dipole               -0.0056 Ry au,         -0.0142 Debye
        Dipole field         -0.0000 Ry au

        Potential amp.        0.0013 Ry
        Total length         45.7797 bohr

     End of self-consistent calculation

[...]

          k = 0.0562 0.0000 0.0000 ( 19249 PWs)   bands (ev):

[...]

          k =-0.0842-0.1459 0.0000 ( 19276 PWs)   bands (ev):

   -94.7336 -94.7331 -94.7327 -94.7220 -94.7217 -94.7215 -94.7200 -94.7198
   -94.7195 -94.7095 -94.7094 -94.7093 -94.7090 -94.7090 -94.7089 -94.6925
   -94.6919 -94.6914 -94.6914 -94.6908 -94.6902 -94.6839 -94.6836 -94.6834
   -94.6819 -94.6817 -94.6814 -15.2051 -15.1716 -15.1612 -15.1477 -15.1411
   -15.1360 -15.1302 -15.1283 -15.1151 -15.1126 -15.1094 -15.0992 -15.0859
   -15.0759 -15.0748 -15.0613 -15.0560 -15.0556 -15.0383 -15.0334 -15.0303
   -15.0296 -15.0271 -15.0271 -15.0262 -15.0220 -15.0178 -15.0153 -15.0083
   -15.0082 -15.0070 -15.0050 -15.0015 -14.9919 -14.9893 -14.9851 -14.9784
   -14.9747 -14.9707 -14.9679 -14.9580 -14.9504 -14.9293 -14.9037 -14.8897
    -9.1314  -8.9815  -7.5573  -7.3568  -6.3158  -6.0831  -5.1584  -4.8477
    -4.7926  -4.1736  -2.5936  -1.9663  -1.2218  -1.2106  -0.6055  -0.4057
    -0.3452   0.0040   0.8118   1.1093   1.1276   1.4249   1.8189   2.0095
     2.0966   2.2177   2.4637   2.5311   3.3430   3.3728   3.7397   3.8116
     3.9616   4.1008   4.2362   4.2642   4.5919   4.6878   4.9857   5.0029
     5.6286   5.6376   5.9124   5.9446   6.1940   6.2916   6.6611   6.7814

     the Fermi energy is    -0.0341 ev

!    total energy              =   -3769.85150572 Ry
     Harris-Foulkes estimate   =   -3769.85150001 Ry
     estimated scf accuracy    <       0.00000008 Ry

     The total energy is the sum of the following terms:

     one-electron contribution =  -18483.75801227 Ry
     hartree contribution      =    9246.11071469 Ry
     xc contribution           =    -460.66795476 Ry
     ewald contribution        =    5928.49208386 Ry
     electric field correction =       0.00000008 Ry
     smearing contrib. (-TS)   =      -0.02833732 Ry

     convergence has been achieved in  15 iterations

 BEEF-vdW xc energy contributions
           1 :   -411.029850906566
           2 :    372.845386410087
           3 :   -308.938989108051
           4 :    238.026684723309
           5 :   -176.542884188088
           6 :    132.443904336879
           7 :   -104.199058003495
           8 :    84.6438625910279
           9 :   -66.7332324382203
          10 :    47.6042242001947
          11 :   -28.9770016942359
          12 :    14.4842256478179
          13 :   -6.31390675960324
          14 :    3.52797396045844
          15 :   -2.89259223879992
          16 :    1.22890290561804
          17 :    2.57397615904893
          18 :   -7.23668002857573
          19 :    10.4601480800001
          20 :   -10.8287094690426
          21 :    8.84801844894122
          22 :   -6.47342278735891
          23 :    5.60682660302837
          24 :   -6.73665007859375
          25 :    8.70291608539640
          26 :   -9.69182469889495
          27 :    8.65821971159124
          28 :   -6.10209994895149
          29 :    3.65188433500373
          30 :   -2.82103799370930
          31 :   -31.0669237572298
          32 :   -21.2192087331319

     Forces acting on atoms (Ry/au):

     negative rho (up, down):  9.272E-04 0.000E+00
     atom    1 type  1   force =    -0.00000073    0.00206784   -0.00124631
     atom    2 type  1   force =     0.00179003   -0.00103427   -0.00124558
     atom    3 type  1   force =    -0.00179000   -0.00103196   -0.00124458
     atom    4 type  2   force =    -0.00000008    0.00000001    0.01065456
     atom    5 type  1   force =    -0.00000034   -0.00410205   -0.00274001
     atom    6 type  1   force =    -0.00355161    0.00205037   -0.00273954
     atom    7 type  1   force =     0.00355248    0.00205143   -0.00273806
     atom    8 type  2   force =     0.00000013   -0.00000029   -0.00074087
     atom    9 type  1   force =     0.00000130    0.00062309    0.00037925
     atom   10 type  1   force =     0.00053950   -0.00031122    0.00037809
     atom   11 type  1   force =    -0.00054020   -0.00031284    0.00037850
     atom   12 type  2   force =    -0.00000051   -0.00000010    0.00090456

     Total force =     0.014385     Total SCF correction =     0.001587
     SCF correction compared to forces is large: reduce conv_thr to get better values

     entering subroutine stress ...

     negative rho (up, down):  9.272E-04 0.000E+00
          total   stress  (Ry/bohr**3)                   (kbar)     P=   -4.99
  -0.00004783   0.00000000   0.00000000         -7.04      0.00      0.00
   0.00000000  -0.00004783   0.00000000          0.00     -7.04      0.00
   0.00000000   0.00000000  -0.00000613          0.00      0.00     -0.90

 !ASE

     Writing output data file calc.save

     General routines

     Parallel routines

   This run was terminated on:   7:14:39  30Dec2018

   JOB DONE.
Job  /afs/slac/g/suncat/bin/suncat-tsmpirun -x LD_LIBRARY_PATH -wdir /scratch/qe648441_kE2Fj pw.x -in pw.inp

TID   HOST_NAME   COMMAND_LINE            STATUS            TERMINATION_TIME
00000 suncat0251 pw.x -in pw.inp   Done                     12/30/2018 07:14:39
00001 suncat0251 pw.x -in pw.inp   Done                     12/30/2018 07:14:39
00002 suncat0251 pw.x -in pw.inp   Done                     12/30/2018 07:14:39
00003 suncat0251 pw.x -in pw.inp   Done                     12/30/2018 07:14:39
00004 suncat0251 pw.x -in pw.inp   Done                     12/30/2018 07:14:39
00005 suncat0251 pw.x -in pw.inp   Done                     12/30/2018 07:14:39
00006 suncat0251 pw.x -in pw.inp   Done                     12/30/2018 07:14:39
00007 suncat0251 pw.x -in pw.inp   Done                     12/30/2018 07:14:39
00008 suncat0244 pw.x -in pw.inp   Done                     12/30/2018 07:14:39
00009 suncat0244 pw.x -in pw.inp   Done                     12/30/2018 07:14:39
00010 suncat0244 pw.x -in pw.inp   Done                     12/30/2018 07:14:39
00011 suncat0244 pw.x -in pw.inp   Done                     12/30/2018 07:14:39
00012 suncat0244 pw.x -in pw.inp   Done                     12/30/2018 07:14:39
00013 suncat0244 pw.x -in pw.inp   Done                     12/30/2018 07:14:39
00014 suncat0244 pw.x -in pw.inp   Done                     12/30/2018 07:14:39
00015 suncat0244 pw.x -in pw.inp   Done                     12/30/2018 07:14:39
00016 suncat0243 pw.x -in pw.inp   Done                     12/30/2018 07:14:39
00017 suncat0243 pw.x -in pw.inp   Done                     12/30/2018 07:14:39
00018 suncat0243 pw.x -in pw.inp   Done                     12/30/2018 07:14:39
00019 suncat0243 pw.x -in pw.inp   Done                     12/30/2018 07:14:39
00020 suncat0243 pw.x -in pw.inp   Done                     12/30/2018 07:14:39
00021 suncat0243 pw.x -in pw.inp   Done                     12/30/2018 07:14:39
00022 suncat0243 pw.x -in pw.inp   Done                     12/30/2018 07:14:39
00023 suncat0243 pw.x -in pw.inp   Done                     12/30/2018 07:14:39
00024 suncat0242 pw.x -in pw.inp   Done                     12/30/2018 07:14:39
00025 suncat0242 pw.x -in pw.inp   Done                     12/30/2018 07:14:39
00026 suncat0242 pw.x -in pw.inp   Done                     12/30/2018 07:14:39
00027 suncat0242 pw.x -in pw.inp   Done                     12/30/2018 07:14:39
00028 suncat0242 pw.x -in pw.inp   Done                     12/30/2018 07:14:39
00029 suncat0242 pw.x -in pw.inp   Done                     12/30/2018 07:14:39
00030 suncat0242 pw.x -in pw.inp   Done                     12/30/2018 07:14:39
00031 suncat0242 pw.x -in pw.inp   Done                     12/30/2018 07:14:39
00032 suncat0209 pw.x -in pw.inp   Done                     12/30/2018 07:14:39
00033 suncat0209 pw.x -in pw.inp   Done                     12/30/2018 07:14:39
00034 suncat0209 pw.x -in pw.inp   Done                     12/30/2018 07:14:39
00035 suncat0209 pw.x -in pw.inp   Done                     12/30/2018 07:14:39
00036 suncat0209 pw.x -in pw.inp   Done                     12/30/2018 07:14:39
00037 suncat0209 pw.x -in pw.inp   Done                     12/30/2018 07:14:39
00038 suncat0209 pw.x -in pw.inp   Done                     12/30/2018 07:14:39
00039 suncat0209 pw.x -in pw.inp   Done                     12/30/2018 07:14:39
00040 suncat0205 pw.x -in pw.inp   Done                     12/30/2018 07:14:39
00041 suncat0205 pw.x -in pw.inp   Done                     12/30/2018 07:14:39
00042 suncat0205 pw.x -in pw.inp   Done                     12/30/2018 07:14:39
00043 suncat0205 pw.x -in pw.inp   Done                     12/30/2018 07:14:39
00044 suncat0205 pw.x -in pw.inp   Done                     12/30/2018 07:14:39
00045 suncat0205 pw.x -in pw.inp   Done                     12/30/2018 07:14:39
00046 suncat0205 pw.x -in pw.inp   Done                     12/30/2018 07:14:39
00047 suncat0205 pw.x -in pw.inp   Done                     12/30/2018 07:14:39
00048 suncat0204 pw.x -in pw.inp   Done                     12/30/2018 07:14:39
00049 suncat0204 pw.x -in pw.inp   Done                     12/30/2018 07:14:39
00050 suncat0204 pw.x -in pw.inp   Done                     12/30/2018 07:14:39
00051 suncat0204 pw.x -in pw.inp   Done                     12/30/2018 07:14:39
00052 suncat0204 pw.x -in pw.inp   Done                     12/30/2018 07:14:39
00053 suncat0204 pw.x -in pw.inp   Done                     12/30/2018 07:14:39
00054 suncat0204 pw.x -in pw.inp   Done                     12/30/2018 07:14:39
00055 suncat0204 pw.x -in pw.inp   Done                     12/30/2018 07:14:39
00056 suncat0203 pw.x -in pw.inp   Done                     12/30/2018 07:14:39
00057 suncat0203 pw.x -in pw.inp   Done                     12/30/2018 07:14:39
00058 suncat0203 pw.x -in pw.inp   Done                     12/30/2018 07:14:39
00059 suncat0203 pw.x -in pw.inp   Done                     12/30/2018 07:14:39
00060 suncat0203 pw.x -in pw.inp   Done                     12/30/2018 07:14:39
00061 suncat0203 pw.x -in pw.inp   Done                     12/30/2018 07:14:39
00062 suncat0203 pw.x -in pw.inp   Done                     12/30/2018 07:14:39
00063 suncat0203 pw.x -in pw.inp   Done                     12/30/2018 07:14:39