     Program PWSCF v.5.1rc2 (svn rev. 11289) starts on  2Jan2019 at 14:58:35

     Current dimensions of program PWSCF are:
     Max number of different atomic species (ntypx) = 10
     Max number of k-points (npk) =  40000
     Max angular momentum in pseudopotentials (lmaxx) =  3
     Presently stress not available with electric field

     IMPORTANT: XC functional enforced from input :
     Exchange-correlation      = BEEF-VDW ( 1  4 27 13 2)
     Any further DFT definition will be discarded
     Please, verify this is what you really want

     Subspace diagonalization in iterative solution of the eigenvalue problem:
     a serial algorithm will be used

     bravais-lattice index     =            0
     lattice parameter (alat)  =       1.8897  a.u.
     unit-cell volume          =    4580.1235 (a.u.)^3
     number of atoms/cell      =           12
     number of atomic types    =            2
     number of electrons       =       189.00
     number of Kohn-Sham states=          124
     kinetic-energy cutoff     =      36.7493  Ry
     charge density cutoff     =     367.4932  Ry
     convergence threshold     =      1.0E-06
     mixing beta               =       0.1000
     number of iterations used =           10  plain     mixing
     Exchange-correlation      = BEEF-VDW ( 1  4 27 13 2)
     nstep                     =           50

     celldm(1)=   1.889726  celldm(2)=   0.000000  celldm(3)=   0.000000
     celldm(4)=   0.000000  celldm(5)=   0.000000  celldm(6)=   0.000000

     crystal axes: (cart. coord. in units of alat)
               a(1) = (   5.643372   0.000000   0.000000 )
               a(2) = (  -2.821686   4.887303   0.000000 )
               a(3) = (   0.000000   0.000000  24.607794 )

     reciprocal axes: (cart. coord. in units 2 pi/alat)
               b(1) = (  0.177199  0.102306  0.000000 )
               b(2) = (  0.000000  0.204612  0.000000 )
               b(3) = (  0.000000  0.000000  0.040638 )

     PseudoPot. # 1 for Zn read from file:
     /afs/slac.stanford.edu/u/if/mamunm/psp/gbrv1.5pbe/Zn.UPF
     MD5 check sum: df62231357ef9e81f77b2b3087fa5675
     Pseudo is Ultrasoft, Zval = 20.0
     Generated by new atomic code, or converted to UPF format
     Using radial grid of  943 points,  6 beta functions with:
                l(1) =   0
                l(2) =   0
                l(3) =   1
                l(4) =   1
                l(5) =   2
                l(6) =   2
     Q(r) pseudized with  8 coefficients,  rinner =    1.100   1.100   1.100
                                                       1.100   1.100

     PseudoPot. # 2 for Al read from file:
     /afs/slac.stanford.edu/u/if/mamunm/psp/gbrv1.5pbe/Al.UPF
     MD5 check sum: 0a6289f5291fc8f409219462bc851e1f
     Pseudo is Ultrasoft + core correction, Zval =  3.0
     Generated by new atomic code, or converted to UPF format
     Using radial grid of  893 points,  3 beta functions with:
                l(1) =   0
                l(2) =   1
                l(3) =   2
     Q(r) pseudized with  8 coefficients,  rinner =    0.900   0.900   0.900
                                                       0.900   0.900

     vdW kernel table read from file vdW_kernel_table
     MD5 check sum: 095c7af220d748ca6e76c0b4c6cfb241

     atomic species   valence    mass     pseudopotential
        Zn1           20.00    65.38000     Zn( 1.00)
        Al1            3.00    26.98154     Al( 1.00)

     No symmetry found

   Cartesian axes

     site n.     atom                  positions (alat units)
         1           Zn1 tau(   1) = (   0.0000000   0.0000000  10.0000000  )
         2           Zn1 tau(   2) = (  -1.4108429   2.4436515  10.0000000  )
         3           Zn1 tau(   3) = (   1.4108429   2.4436515  10.0000000  )
         4           Al1 tau(   4) = (   2.8216858   0.0000000  10.0000000  )
         5           Zn1 tau(   5) = (   2.8216858   1.6291010  12.3038968  )
         6           Zn1 tau(   6) = (   1.4108429   4.0727526  12.3038968  )
         7           Zn1 tau(   7) = (  -1.4108429   4.0727526  12.3038968  )
         8           Al1 tau(   8) = (   0.0000000   1.6291010  12.3038968  )
         9           Zn1 tau(   9) = (  -0.0000000   3.2582021  14.6077936  )
        10           Zn1 tau(  10) = (   1.4108429   0.8145505  14.6077936  )
        11           Zn1 tau(  11) = (   4.2325286   0.8145505  14.6077936  )
        12           Al1 tau(  12) = (   2.8216858   3.2582021  14.6077936  )

     number of k points=    20  Fermi-Dirac smearing, width (Ry)=  0.0110
                       cart. coord. in units 2pi/alat
        k(    1) = (   0.0000000   0.0000000   0.0000000), wk =   0.0555556
        k(    2) = (   0.0000000   0.0341020   0.0000000), wk =   0.1111111
        k(    3) = (   0.0000000   0.0682039   0.0000000), wk =   0.1111111
        k(    4) = (   0.0000000  -0.1023059   0.0000000), wk =   0.0555556
        k(    5) = (   0.0295332   0.0170510   0.0000000), wk =   0.1111111
        k(    6) = (   0.0295332   0.0511530   0.0000000), wk =   0.1111111
        k(    7) = (   0.0295332   0.0852549   0.0000000), wk =   0.1111111
        k(    8) = (   0.0295332  -0.0852549   0.0000000), wk =   0.1111111
        k(    9) = (   0.0295332  -0.0511530   0.0000000), wk =   0.1111111
        k(   10) = (   0.0295332  -0.0170510   0.0000000), wk =   0.1111111
        k(   11) = (   0.0590663   0.0341020   0.0000000), wk =   0.1111111
        k(   12) = (   0.0590663   0.0682039   0.0000000), wk =   0.1111111
        k(   13) = (   0.0590663   0.1023059   0.0000000), wk =   0.1111111
        k(   14) = (   0.0590663  -0.0682039   0.0000000), wk =   0.1111111
        k(   15) = (   0.0590663  -0.0341020   0.0000000), wk =   0.1111111
        k(   16) = (   0.0590663   0.0000000   0.0000000), wk =   0.1111111
        k(   17) = (  -0.0885995  -0.0511530   0.0000000), wk =   0.0555556
        k(   18) = (  -0.0885995  -0.0170510   0.0000000), wk =   0.1111111
        k(   19) = (  -0.0885995   0.0170510   0.0000000), wk =   0.1111111
        k(   20) = (  -0.0885995  -0.1534589   0.0000000), wk =   0.0555556

     Largest allocated arrays     est. size (Mb)     dimensions
     Largest temporary arrays     est. size (Mb)     dimensions

     Initial potential from superposition of free atoms
     Check: negative starting charge=   -0.000774

     starting charge  188.99134, renormalised to  189.00000

     negative rho (up, down):  7.743E-04 0.000E+00

     *
     * You are using vdW-DF for exchange-correlation in this calculation.
     * Please cite the following three references that made this development
     * possible:
     *
     *   M. Dion, H. Rydberg, E. Schroder, D. C. Langreth, and
     *   B. I. Lundqvist, Phys. Rev. Lett. 92, 246401 (2004).
     *
     *   T. Thonhauser, V. R. Cooper, S. Li, A. Puzder, P. Hyldgaard, and
     *   D. C. Langreth, Phys. Rev. B 76, 125112 (2007).
     *
     *   G. Roman-Perez and J. M. Soler, Phys. Rev. Lett. 103, 096102 (2009).
     *
     *
     * If you are using vdW-DF2, please also cite:
     *
     *   K. Lee, E. D. Murray, L. Kong, B. I. Lundqvist, and
     *   D. C. Langreth, Phys. Rev. B 82, 081101(R) (2010).
     *
     *
     * If you are calculating the stress with vdW-DF, please also cite:
     *
     *   R. Sabatini, E. Kucukbenli, B. Kolb, T. Thonhauser, and
     *   S. de Gironcoli, J. Phys.: Condens. Matter 24, 424209 (2012).
     *

     Carrying out vdW-DF run using the following parameters:

     Nqs =      20    Nr_points =    1024   r_max =   100.000
     q_mesh =
               0.00001000     0.04494208     0.09755937     0.15916263
               0.23128650     0.31572767     0.41458969     0.53033537
               0.66584808     0.82450364     1.01025438     1.22772762
               1.48234092     1.78043706     2.12944203     2.53805004
               3.01644009     3.57652955     4.23227104     5.00000000

     Gradients computed in reciprocal space

     Adding external electric field

     Computed dipole along edir(3) :
        Dipole               -0.0000 Ry au,         -0.0000 Debye
        Dipole field         -0.0000 Ry au

        Potential amp.        0.0000 Ry
        Total length         45.3394 bohr

     Starting wfc are  129 randomized atomic wfcs

     Self-consistent Calculation

     iteration #  1     ecut=    36.75 Ry     beta=0.10
     Davidson diagonalization with overlap
     ethr =  1.00E-02,  avg # of iterations =  7.8

     Threshold (ethr) on eigenvalues was too large:
     Diagonalizing with lowered threshold

     Davidson diagonalization with overlap
     ethr =  1.63E-04,  avg # of iterations =  6.2

[...]

     total energy              =   -4185.53659772 Ry
     Harris-Foulkes estimate   =   -4185.57156257 Ry
     estimated scf accuracy    <       0.31418898 Ry

[...]

     End of self-consistent calculation

          k = 0.0000 0.0000 0.0000 ( 17303 PWs)   bands (ev):

  -126.6231-126.6224-126.6206-126.4836-126.4835-126.4828-126.4827-126.4827
  -126.4826 -80.8053 -80.8044 -80.8027 -80.7998 -80.7991 -80.7983 -80.7933
   -80.7889 -80.7878 -80.6684 -80.6683 -80.6672 -80.6672 -80.6671 -80.6670
   -80.6628 -80.6626 -80.6582 -80.6582 -80.6581 -80.6580 -80.6523 -80.6522
   -80.6513 -80.6513 -80.6511 -80.6510  -9.6765  -8.2625  -8.2472  -8.1180
    -8.0211  -7.9344  -7.9336  -7.9078  -7.8785  -7.8382  -7.8379  -7.8190
    -7.8184  -7.7100  -7.7099  -7.6548  -7.5971  -7.5970  -7.5377  -7.4968
    -7.4967  -7.4461  -7.4185  -7.4046  -7.4037  -7.3530  -7.3520  -7.2964
    -7.2963  -7.2475  -7.2474  -7.2306  -7.1800  -7.1799  -7.1751  -7.1750
    -7.1674  -7.1673  -7.1503  -7.1080  -7.1077  -7.0829  -7.0382  -7.0071
    -7.0071  -6.9133  -6.9084  -4.6106  -3.1465  -3.1463  -2.8875  -2.7534
    -2.7532  -2.6943  -1.8623  -1.7470  -1.7470  -1.3875  -0.7790  -0.7789
    -0.5544   1.2478   1.2478   1.2623   1.5948   1.6315   1.6316   2.0384
     3.3261   3.9850   4.5548   4.6635   4.8474   4.8475   4.8878   4.8879
     4.9171   4.9887   6.4969   6.8087   7.6055   7.6055   7.8439   8.2767
     8.2768   8.2862   8.2862   8.7255

[...]

          k =-0.0886-0.0512 0.0000 ( 17264 PWs)   bands (ev):

[...]

     the Fermi energy is     0.0513 ev

!    total energy              =   -4185.50923338 Ry
     Harris-Foulkes estimate   =   -4185.50922786 Ry
     estimated scf accuracy    <       0.00000095 Ry

     The total energy is the sum of the following terms:

     one-electron contribution =  -22603.36092856 Ry
     hartree contribution      =   11285.23475832 Ry
     xc contribution           =    -403.75757252 Ry
     ewald contribution        =    7536.39642487 Ry
     electric field correction =       0.00000000 Ry
     smearing contrib. (-TS)   =      -0.02191548 Ry

     convergence has been achieved in  12 iterations

 BEEF-vdW xc energy contributions
           1 :   -357.489880195915
           2 :    323.475949888370
           3 :   -266.634825982632
           4 :    203.711926579243
           5 :   -149.298924720436
           6 :    110.327223361644
           7 :   -85.3241619081074
           8 :    68.0001882688715
           9 :   -52.3607107399832
[...]
     Using radial grid of  943 points,  6 beta functions with:
                l(1) =   0
                l(2) =   0
                l(3) =   1
                l(4) =   1
                l(5) =   2
                l(6) =   2
     Q(r) pseudized with  8 coefficients,  rinner =    1.100   1.100   1.100
                                                       1.100   1.100

     PseudoPot. # 2 for Al read from file:
     /afs/slac.stanford.edu/u/if/mamunm/psp/gbrv1.5pbe/Al.UPF
     MD5 check sum: 0a6289f5291fc8f409219462bc851e1f
     Pseudo is Ultrasoft + core correction, Zval =  3.0
     Generated by new atomic code, or converted to UPF format
     Using radial grid of  893 points,  3 beta functions with:
                l(1) =   0
                l(2) =   1
                l(3) =   2
     Q(r) pseudized with  8 coefficients,  rinner =    0.900   0.900   0.900
                                                       0.900   0.900

     vdW kernel table read from file vdW_kernel_table
     MD5 check sum: 095c7af220d748ca6e76c0b4c6cfb241

     atomic species   valence    mass     pseudopotential
        Zn1           20.00    65.38000     Zn( 1.00)
        Al1            3.00    26.98154     Al( 1.00)

     No symmetry found

   Cartesian axes

     site n.     atom                  positions (alat units)
         1           Zn1 tau(   1) = (   0.0000000   0.0000000  10.0000000  )
         2           Zn1 tau(   2) = (  -1.4108429   2.4436515  10.0000000  )
         3           Zn1 tau(   3) = (   1.4108429   2.4436515  10.0000000  )
         4           Al1 tau(   4) = (   2.8216858   0.0000000  10.0000000  )
         5           Zn1 tau(   5) = (   2.8216858   1.6291010  12.3038968  )
         6           Zn1 tau(   6) = (   1.4108429   4.0727526  12.3038968  )
         7           Zn1 tau(   7) = (  -1.4108429   4.0727526  12.3038968  )
         8           Al1 tau(   8) = (   0.0000000   1.6291010  12.3038968  )
         9           Zn1 tau(   9) = (   0.0008939   3.2479479  14.7196224  )
        10           Zn1 tau(  10) = (   1.4017810   0.8199085  14.7206200  )
        11           Zn1 tau(  11) = (   4.2417657   0.8189772  14.7194986  )
        12           Al1 tau(  12) = (   2.8230009   3.2576323  14.6310659  )

     number of k points=    20  Fermi-Dirac smearing, width (Ry)=  0.0110
                       cart. coord. in units 2pi/alat
        k(    1) = (   0.0000000   0.0000000   0.0000000), wk =   0.0555556
        k(    2) = (   0.0000000   0.0341020   0.0000000), wk =   0.1111111
        k(    3) = (   0.0000000   0.0682039   0.0000000), wk =   0.1111111
        k(    4) = (   0.0000000  -0.1023059   0.0000000), wk =   0.0555556
        k(    5) = (   0.0295332   0.0170510   0.0000000), wk =   0.1111111
        k(    6) = (   0.0295332   0.0511530   0.0000000), wk =   0.1111111
        k(    7) = (   0.0295332   0.0852549   0.0000000), wk =   0.1111111
        k(    8) = (   0.0295332  -0.0852549   0.0000000), wk =   0.1111111
        k(    9) = (   0.0295332  -0.0511530   0.0000000), wk =   0.1111111
        k(   10) = (   0.0295332  -0.0170510   0.0000000), wk =   0.1111111
        k(   11) = (   0.0590663   0.0341020   0.0000000), wk =   0.1111111
        k(   12) = (   0.0590663   0.0682039   0.0000000), wk =   0.1111111
        k(   13) = (   0.0590663   0.1023059   0.0000000), wk =   0.1111111
        k(   14) = (   0.0590663  -0.0682039   0.0000000), wk =   0.1111111
        k(   15) = (   0.0590663  -0.0341020   0.0000000), wk =   0.1111111
        k(   16) = (   0.0590663   0.0000000   0.0000000), wk =   0.1111111
        k(   17) = (  -0.0885995  -0.0511530   0.0000000), wk =   0.0555556
        k(   18) = (  -0.0885995  -0.0170510   0.0000000), wk =   0.1111111
        k(   19) = (  -0.0885995   0.0170510   0.0000000), wk =   0.1111111
        k(   20) = (  -0.0885995  -0.1534589   0.0000000), wk =   0.0555556

     Largest allocated arrays     est. size (Mb)     dimensions
     Largest temporary arrays     est. size (Mb)     dimensions

     Initial potential from superposition of free atoms
     Check: negative starting charge=   -0.000754

     starting charge  188.99134, renormalised to  189.00000

[...]

     *
     * You are using vdW-DF for exchange-correlation in this calculation.
     * Please cite the following three references that made this development
     * possible:
     *
     *   M. Dion, H. Rydberg, E. Schroder, D. C. Langreth, and
     *   B. I. Lundqvist, Phys. Rev. Lett. 92, 246401 (2004).
     *
     *   T. Thonhauser, V. R. Cooper, S. Li, A. Puzder, P. Hyldgaard, and
     *   D. C. Langreth, Phys. Rev. B 76, 125112 (2007).
     *
     *   G. Roman-Perez and J. M. Soler, Phys. Rev. Lett. 103, 096102 (2009).
     *
     *
     * If you are using vdW-DF2, please also cite:
     *
     *   K. Lee, E. D. Murray, L. Kong, B. I. Lundqvist, and
     *   D. C. Langreth, Phys. Rev. B 82, 081101(R) (2010).
     *
     *
     * If you are calculating the stress with vdW-DF, please also cite:
     *
     *   R. Sabatini, E. Kucukbenli, B. Kolb, T. Thonhauser, and
     *   S. de Gironcoli, J. Phys.: Condens. Matter 24, 424209 (2012).
     *

     Carrying out vdW-DF run using the following parameters:

     Nqs =      20    Nr_points =    1024   r_max =   100.000
     q_mesh =
               0.00001000     0.04494208     0.09755937     0.15916263
               0.23128650     0.31572767     0.41458969     0.53033537
               0.66584808     0.82450364     1.01025438     1.22772762
               1.48234092     1.78043706     2.12944203     2.53805004
               3.01644009     3.57652955     4.23227104     5.00000000

     Gradients computed in reciprocal space

[...]

     Starting wfc are  129 randomized atomic wfcs

     Self-consistent Calculation

[...]

     Threshold (ethr) on eigenvalues was too large:
     Diagonalizing with lowered threshold

     Davidson diagonalization with overlap
     ethr =  1.59E-04,  avg # of iterations =  6.0

[...]

     total energy              =   -4185.52576928 Ry
     Harris-Foulkes estimate   =   -4185.52576869 Ry
     estimated scf accuracy    <       0.00000153 Ry

     iteration # 13     ecut=    36.75 Ry     beta=0.10
     Davidson diagonalization with overlap
     ethr =  8.08E-10,  avg # of iterations =  2.0

[...]

     negative rho (up, down):  9.637E-04 0.000E+00

     Adding external electric field

     Computed dipole along edir(3) :
        Dipole                0.0062 Ry au,          0.0157 Debye
        Dipole field          0.0000 Ry au

        Potential amp.       -0.0015 Ry
        Total length         45.3394 bohr

     End of self-consistent calculation

[...]

          k = 0.0591 0.0000 0.0000 ( 17226 PWs)   bands (ev):

[...]

          k =-0.0886-0.1535 0.0000 ( 17264 PWs)   bands (ev):

  -126.5781-126.5780-126.5776-126.4665-126.4662-126.4659-126.4192-126.4186
  -126.4185 -80.7597 -80.7593 -80.7588 -80.7543 -80.7517 -80.7508 -80.7506
   -80.7485 -80.7444 -80.6513 -80.6510 -80.6505 -80.6431 -80.6390 -80.6386
   -80.6380 -80.6380 -80.6342 -80.6042 -80.6034 -80.6034 -80.5963 -80.5922
   -80.5915 -80.5914 -80.5910 -80.5874  -8.2460  -8.2230  -7.9065  -7.8526
    -7.8105  -7.7745  -7.7700  -7.7354  -7.6938  -7.6856  -7.6569  -7.6482
    -7.6069  -7.6053  -7.5796  -7.5544  -7.5524  -7.5475  -7.4669  -7.4143
    -7.4097  -7.3858  -7.3851  -7.3542  -7.3529  -7.3464  -7.3313  -7.3191
    -7.3166  -7.3003  -7.2976  -7.2954  -7.2744  -7.2723  -7.2666  -7.2457
    -7.2346  -7.2012  -7.1724  -7.1485  -7.1365  -7.1270  -7.1108  -7.0810
    -7.0798  -7.0033  -6.9595  -5.9612  -5.7946  -4.3944  -4.2227  -3.3092
    -3.2948  -2.7234  -2.6841  -0.4047  -0.3010  -0.0142   0.0954   1.9266
     1.9307   1.9590   2.0083   2.8850   3.1044   3.2297   3.2852   3.5680
     3.7325   3.7329   3.9978   4.7705   4.8755   5.1425   5.2617   5.5412
     5.5713   5.7399   5.8844   6.0435   6.1647   6.1960   6.2493   6.2989
     6.3977   6.5367   6.5570   6.8188

     the Fermi energy is     0.0666 ev

!    total energy              =   -4185.52577369 Ry
     Harris-Foulkes estimate   =   -4185.52576967 Ry
     estimated scf accuracy    <       0.00000026 Ry

     The total energy is the sum of the following terms:

     one-electron contribution =  -22311.71455590 Ry
     hartree contribution      =   11139.73688094 Ry
     xc contribution           =    -403.72813339 Ry
     ewald contribution        =    7390.20193401 Ry
     electric field correction =       0.00000011 Ry
     smearing contrib. (-TS)   =      -0.02189944 Ry

     convergence has been achieved in  13 iterations

 BEEF-vdW xc energy contributions
           1 :   -357.881819749340
           2 :    323.828993875010
           3 :   -266.944284314653
           4 :    204.011432520893
           5 :   -149.631756348925
           6 :    110.709714235184
           7 :   -85.7314512286819
           8 :    68.3861075541703
           9 :   -52.6952081779700
          10 :    36.4147030760586
          11 :   -21.1181114306835
          12 :    9.71946538240445
          13 :   -3.66430130036809
          14 :    1.77091373932961
          15 :   -1.20927583751063
          16 :  -0.452233362105687
          17 :    3.75610649022065
          18 :   -7.39655236561998
          19 :    9.54410917777392
          20 :   -9.34588350664239
          21 :    7.51644119335896
          22 :   -5.70897858581645
          23 :    5.25310297650981
          24 :   -6.24248600045217
          25 :    7.60856107713659
          26 :   -8.04262337936984
          27 :    7.01501852288379
          28 :   -5.12616565208833
          29 :    3.57475901129408
          30 :   -3.20798856850217
          31 :   -28.4083525227223
          32 :   -19.4424327837179

     Forces acting on atoms (Ry/au):

     negative rho (up, down):  9.637E-04 0.000E+00
     atom    1 type  1   force =     0.00000165    0.00073205   -0.00668277
     atom    2 type  1   force =     0.00063439   -0.00036541   -0.00667773
     atom    3 type  1   force =    -0.00063350   -0.00036732   -0.00668326
     atom    4 type  2   force =    -0.00000382    0.00000157   -0.00063297
     atom    5 type  1   force =    -0.00001035   -0.00121755    0.00511882
     atom    6 type  1   force =    -0.00102990    0.00059326    0.00512665
     atom    7 type  1   force =     0.00105304    0.00061820    0.00511713
     atom    8 type  2   force =     0.00001429   -0.00000645    0.00609985
     atom    9 type  1   force =    -0.00001336    0.00073879   -0.00010171
     atom   10 type  1   force =     0.00068659   -0.00039814   -0.00015353
     atom   11 type  1   force =    -0.00063852   -0.00035468   -0.00009606
     atom   12 type  2   force =    -0.00006051    0.00002569   -0.00043440

     Total force =     0.016067     Total SCF correction =     0.002591
     SCF correction compared to forces is large: reduce conv_thr to get better values

     entering subroutine stress ...

     negative rho (up, down):  9.637E-04 0.000E+00
          total   stress  (Ry/bohr**3)                   (kbar)     P=  -17.54
  -0.00016913  -0.00000004  -0.00000002        -24.88     -0.01     -0.00
  -0.00000004  -0.00016916   0.00000001         -0.01    -24.88      0.00
  -0.00000002   0.00000001  -0.00001950         -0.00      0.00     -2.87

 !ASE

     Writing output data file calc.save

     General routines

     Parallel routines

   This run was terminated on:  16:14:31   2Jan2019

   JOB DONE.
Job  /afs/slac/g/suncat/bin/suncat-tsmpirun -x LD_LIBRARY_PATH -wdir /scratch/qe649462_ByEOt pw.x -in pw.inp

TID   HOST_NAME   COMMAND_LINE            STATUS            TERMINATION_TIME
00000 suncat0058 pw.x -in pw.inp   Done                     01/02/2019 16:14:31
00001 suncat0058 pw.x -in pw.inp   Done                     01/02/2019 16:14:31
00002 suncat0058 pw.x -in pw.inp   Done                     01/02/2019 16:14:31
00003 suncat0058 pw.x -in pw.inp   Done                     01/02/2019 16:14:31
00004 suncat0058 pw.x -in pw.inp   Done                     01/02/2019 16:14:31
00005 suncat0058 pw.x -in pw.inp   Done                     01/02/2019 16:14:31
00006 suncat0058 pw.x -in pw.inp   Done                     01/02/2019 16:14:31
00007 suncat0058 pw.x -in pw.inp   Done                     01/02/2019 16:14:31
00008 suncat0056 pw.x -in pw.inp   Done                     01/02/2019 16:14:31
00009 suncat0056 pw.x -in pw.inp   Done                     01/02/2019 16:14:31
00010 suncat0056 pw.x -in pw.inp   Done                     01/02/2019 16:14:31
00011 suncat0056 pw.x -in pw.inp   Done                     01/02/2019 16:14:31
00012 suncat0056 pw.x -in pw.inp   Done                     01/02/2019 16:14:31
00013 suncat0056 pw.x -in pw.inp   Done                     01/02/2019 16:14:31
00014 suncat0056 pw.x -in pw.inp   Done                     01/02/2019 16:14:31
00015 suncat0056 pw.x -in pw.inp   Done                     01/02/2019 16:14:31
00016 suncat0054 pw.x -in pw.inp   Done                     01/02/2019 16:14:31
00017 suncat0054 pw.x -in pw.inp   Done                     01/02/2019 16:14:31
00018 suncat0054 pw.x -in pw.inp   Done                     01/02/2019 16:14:31
00019 suncat0054 pw.x -in pw.inp   Done                     01/02/2019 16:14:31
00020 suncat0054 pw.x -in pw.inp   Done                     01/02/2019 16:14:31
00021 suncat0054 pw.x -in pw.inp   Done                     01/02/2019 16:14:31
00022 suncat0054 pw.x -in pw.inp   Done                     01/02/2019 16:14:31
00023 suncat0054 pw.x -in pw.inp   Done                     01/02/2019 16:14:31
00024 suncat0052 pw.x -in pw.inp   Done                     01/02/2019 16:14:31
00025 suncat0052 pw.x -in pw.inp   Done                     01/02/2019 16:14:31
00026 suncat0052 pw.x -in pw.inp   Done                     01/02/2019 16:14:31
00027 suncat0052 pw.x -in pw.inp   Done                     01/02/2019 16:14:31
00028 suncat0052 pw.x -in pw.inp   Done                     01/02/2019 16:14:31
00029 suncat0052 pw.x -in pw.inp   Done                     01/02/2019 16:14:31
00030 suncat0052 pw.x -in pw.inp   Done                     01/02/2019 16:14:31
00031 suncat0052 pw.x -in pw.inp   Done                     01/02/2019 16:14:31
00032 suncat0048 pw.x -in pw.inp   Done                     01/02/2019 16:14:31
00033 suncat0048 pw.x -in pw.inp   Done                     01/02/2019 16:14:31
00034 suncat0048 pw.x -in pw.inp   Done                     01/02/2019 16:14:31
00035 suncat0048 pw.x -in pw.inp   Done                     01/02/2019 16:14:31
00036 suncat0048 pw.x -in pw.inp   Done                     01/02/2019 16:14:31
00037 suncat0048 pw.x -in pw.inp   Done                     01/02/2019 16:14:31
00038 suncat0048 pw.x -in pw.inp   Done                     01/02/2019 16:14:31
00039 suncat0048 pw.x -in pw.inp   Done                     01/02/2019 16:14:31
00040 suncat0047 pw.x -in pw.inp   Done                     01/02/2019 16:14:31
00041 suncat0047 pw.x -in pw.inp   Done                     01/02/2019 16:14:31
00042 suncat0047 pw.x -in pw.inp   Done                     01/02/2019 16:14:31
00043 suncat0047 pw.x -in pw.inp   Done                     01/02/2019 16:14:31
00044 suncat0047 pw.x -in pw.inp   Done                     01/02/2019 16:14:31
00045 suncat0047 pw.x -in pw.inp   Done                     01/02/2019 16:14:31
00046 suncat0047 pw.x -in pw.inp   Done                     01/02/2019 16:14:31
00047 suncat0047 pw.x -in pw.inp   Done                     01/02/2019 16:14:31
00048 suncat0121 pw.x -in pw.inp   Done                     01/02/2019 16:14:31
00049 suncat0121 pw.x -in pw.inp   Done                     01/02/2019 16:14:31
00050 suncat0121 pw.x -in pw.inp   Done                     01/02/2019 16:14:31
00051 suncat0121 pw.x -in pw.inp   Done                     01/02/2019 16:14:31
00052 suncat0121 pw.x -in pw.inp   Done                     01/02/2019 16:14:31
00053 suncat0121 pw.x -in pw.inp   Done                     01/02/2019 16:14:31
00054 suncat0121 pw.x -in pw.inp   Done                     01/02/2019 16:14:31
00055 suncat0121 pw.x -in pw.inp   Done                     01/02/2019 16:14:31
00056 suncat0115 pw.x -in pw.inp   Done                     01/02/2019 16:14:31
00057 suncat0115 pw.x -in pw.inp   Done                     01/02/2019 16:14:31
00058 suncat0115 pw.x -in pw.inp   Done                     01/02/2019 16:14:31
00059 suncat0115 pw.x -in pw.inp   Done                     01/02/2019 16:14:31
00060 suncat0115 pw.x -in pw.inp   Done                     01/02/2019 16:14:31
00061 suncat0115 pw.x -in pw.inp   Done                     01/02/2019 16:14:31
00062 suncat0115 pw.x -in pw.inp   Done                     01/02/2019 16:14:31
00063 suncat0115 pw.x -in pw.inp   Done                     01/02/2019 16:14:31