     Program PWSCF v.5.1rc2 (svn rev. 11289) starts on 26Dec2018 at  1:38:45

     Current dimensions of program PWSCF are:
     Max number of different atomic species (ntypx) = 10
     Max number of k-points (npk) =  40000
     Max angular momentum in pseudopotentials (lmaxx) =  3
     Presently stress not available with electric field

     IMPORTANT: XC functional enforced from input :
     Exchange-correlation      = BEEF-VDW ( 1  4 27 13 2)
     Any further DFT definition will be discarded
     Please, verify this is what you really want

     Subspace diagonalization in iterative solution of the eigenvalue problem:
     a serial algorithm will be used

     bravais-lattice index     =            0
     lattice parameter (alat)  =       1.8897  a.u.
     unit-cell volume          =    4559.9036 (a.u.)^3
     number of atoms/cell      =           12
     number of atomic types    =            2
     number of electrons       =       213.00
     number of Kohn-Sham states=          136
     kinetic-energy cutoff     =      36.7493  Ry
     charge density cutoff     =     367.4932  Ry
     convergence threshold     =      1.0E-06
     mixing beta               =       0.1000
     number of iterations used =           10  plain     mixing
     Exchange-correlation      = BEEF-VDW ( 1  4 27 13 2)
     nstep                     =           50

     celldm(1)=   1.889726  celldm(2)=   0.000000  celldm(3)=   0.000000
     celldm(4)=   0.000000  celldm(5)=   0.000000  celldm(6)=   0.000000

     crystal axes: (cart. coord. in units of alat)
               a(1) = (   5.631967   0.000000   0.000000 )
               a(2) = (  -2.815983   4.877426   0.000000 )
               a(3) = (   0.000000   0.000000  24.598481 )

     reciprocal axes: (cart. coord. in units 2 pi/alat)
               b(1) = (  0.177558  0.102513  0.000000 )
               b(2) = (  0.000000  0.205026  0.000000 )
               b(3) = (  0.000000  0.000000  0.040653 )

     PseudoPot. # 1 for Ga read from file:
     /afs/slac.stanford.edu/u/if/mamunm/psp/gbrv1.5pbe/Ga.UPF
     MD5 check sum: ccd671392a58a050fbb373893b4fcd66
     Pseudo is Ultrasoft + core correction, Zval = 19.0
     Generated by new atomic code, or converted to UPF format
     Using radial grid of  871 points,  6 beta functions with:
                l(1) =   0
                l(2) =   0
                l(3) =   1
                l(4) =   1
                l(5) =   2
                l(6) =   2
     Q(r) pseudized with  8 coefficients,  rinner =    1.250   1.250   1.250
                                                       1.250   1.250

     PseudoPot. # 2 for Mo read from file:
     /afs/slac.stanford.edu/u/if/mamunm/psp/gbrv1.5pbe/Mo.UPF
     MD5 check sum: 30c4dcd161f5d35cd49bb5239c51a633
     Pseudo is Ultrasoft + core correction, Zval = 14.0
     Generated by new atomic code, or converted to UPF format
     Using radial grid of  889 points,  6 beta functions with:
                l(1) =   0
                l(2) =   0
                l(3) =   1
                l(4) =   1
                l(5) =   2
                l(6) =   2
     Q(r) pseudized with  6 coefficients,  rinner =    1.000   1.000   1.000
                                                       1.000   1.000

     vdW kernel table read from file vdW_kernel_table
     MD5 check sum: 095c7af220d748ca6e76c0b4c6cfb241

     atomic species   valence    mass     pseudopotential
        Ga1           19.00    69.72300     Ga( 1.00)
        Mo1           14.00    95.95000     Mo( 1.00)

     No symmetry found

   Cartesian axes

     site n.     atom                  positions (alat units)
         1           Ga1 tau(   1) = (   0.0000000   0.0000000  10.0000000  )
         2           Ga1 tau(   2) = (  -1.4079916   2.4387131  10.0000000  )
         3           Ga1 tau(   3) = (   1.4079916   2.4387131  10.0000000  )
         4           Mo1 tau(   4) = (   2.8159833   0.0000000  10.0000000  )
         5           Ga1 tau(   5) = (   2.8159833   1.6258087  12.2992407  )
         6           Ga1 tau(   6) = (   1.4079916   4.0645218  12.2992407  )
         7           Ga1 tau(   7) = (  -1.4079916   4.0645218  12.2992407  )
         8           Mo1 tau(   8) = (   0.0000000   1.6258087  12.2992407  )
         9           Ga1 tau(   9) = (  -0.0000000   3.2516174  14.5984814  )
        10           Ga1 tau(  10) = (   1.4079916   0.8129044  14.5984814  )
        11           Ga1 tau(  11) = (   4.2239749   0.8129044  14.5984814  )
        12           Mo1 tau(  12) = (   2.8159833   3.2516174  14.5984814  )

     number of k points=    20  Fermi-Dirac smearing, width (Ry)=  0.0110
                       cart. coord. in units 2pi/alat
        k(    1) = (   0.0000000   0.0000000   0.0000000), wk =   0.0555556
        k(    2) = (   0.0000000   0.0341710   0.0000000), wk =   0.1111111
        k(    3) = (   0.0000000   0.0683421   0.0000000), wk =   0.1111111
        k(    4) = (   0.0000000  -0.1025131   0.0000000), wk =   0.0555556
        k(    5) = (   0.0295930   0.0170855   0.0000000), wk =   0.1111111
        k(    6) = (   0.0295930   0.0512565   0.0000000), wk =   0.1111111
        k(    7) = (   0.0295930   0.0854276   0.0000000), wk =   0.1111111
        k(    8) = (   0.0295930  -0.0854276   0.0000000), wk =   0.1111111
        k(    9) = (   0.0295930  -0.0512565   0.0000000), wk =   0.1111111
        k(   10) = (   0.0295930  -0.0170855   0.0000000), wk =   0.1111111
        k(   11) = (   0.0591860   0.0341710   0.0000000), wk =   0.1111111
        k(   12) = (   0.0591860   0.0683421   0.0000000), wk =   0.1111111
        k(   13) = (   0.0591860   0.1025131   0.0000000), wk =   0.1111111
        k(   14) = (   0.0591860  -0.0683421   0.0000000), wk =   0.1111111
        k(   15) = (   0.0591860  -0.0341710   0.0000000), wk =   0.1111111
        k(   16) = (   0.0591860   0.0000000   0.0000000), wk =   0.1111111
        k(   17) = (  -0.0887789  -0.0512565   0.0000000), wk =   0.0555556
        k(   18) = (  -0.0887789  -0.0170855   0.0000000), wk =   0.1111111
        k(   19) = (  -0.0887789   0.0170855   0.0000000), wk =   0.1111111
        k(   20) = (  -0.0887789  -0.1537696   0.0000000), wk =   0.0555556

     Largest allocated arrays     est. size (Mb)     dimensions
     Largest temporary arrays     est. size (Mb)     dimensions

     Initial potential from superposition of free atoms
     Check: negative starting charge=   -0.002866

     starting charge  203.99680, renormalised to  213.00000

     negative rho (up, down):  2.993E-03 0.000E+00

     *
     * You are using vdW-DF for exchange-correlation in this calculation.
     * Please cite the following three references that made this development
     * possible:
     *
     *   M. Dion, H. Rydberg, E. Schroder, D. C. Langreth, and
     *   B. I. Lundqvist, Phys. Rev. Lett. 92, 246401 (2004).
     *
     *   T. Thonhauser, V. R. Cooper, S. Li, A. Puzder, P. Hyldgaard, and
     *   D. C. Langreth, Phys. Rev. B 76, 125112 (2007).
     *
     *   G. Roman-Perez and J. M. Soler, Phys. Rev. Lett. 103, 096102 (2009).
     *
     *
     * If you are using vdW-DF2, please also cite:
     *
     *   K. Lee, E. D. Murray, L. Kong, B. I. Lundqvist, and
     *   D. C. Langreth, Phys. Rev. B 82, 081101(R) (2010).
     *
     *
     * If you are calculating the stress with vdW-DF, please also cite:
     *
     *   R. Sabatini, E. Kucukbenli, B. Kolb, T. Thonhauser, and
     *   S. de Gironcoli, J. Phys.: Condens. Matter 24, 424209 (2012).
     *

     Carrying out vdW-DF run using the following parameters:

     Nqs =      20    Nr_points =    1024   r_max =   100.000
     q_mesh =
               0.00001000     0.04494208     0.09755937     0.15916263
               0.23128650     0.31572767     0.41458969     0.53033537
               0.66584808     0.82450364     1.01025438     1.22772762
               1.48234092     1.78043706     2.12944203     2.53805004
               3.01644009     3.57652955     4.23227104     5.00000000

     Gradients computed in reciprocal space

     Adding external electric field

     Computed dipole along edir(3) :
        Dipole               -0.0000 Ry au,         -0.0000 Debye
        Dipole field         -0.0000 Ry au

        Potential amp.        0.0000 Ry
        Total length         45.3223 bohr

     Starting wfc are  147 randomized atomic wfcs

     Self-consistent Calculation

     iteration #  1     ecut=    36.75 Ry     beta=0.10
     Davidson diagonalization with overlap
     ethr =  1.00E-02,  avg # of iterations =  7.6

[...]

     total energy              =   -4170.27004743 Ry
     Harris-Foulkes estimate   =   -4180.47333423 Ry
     estimated scf accuracy    <      56.84696586 Ry

[...]

     End of self-consistent calculation

          k = 0.0000 0.0000 0.0000 ( 17147 PWs)   bands (ev):

   -94.0859 -94.0826 -94.0826 -94.0298 -94.0298 -94.0279 -94.0232 -94.0212
   -94.0212 -93.8154 -93.8152 -93.8127 -93.8127 -93.8126 -93.8125 -93.7837
   -93.7836 -93.7813 -93.7813 -93.7811 -93.7811 -93.7400 -93.7400 -93.7399
   -93.7399 -93.7382 -93.7381 -60.2911 -60.2911 -60.1609 -34.3369 -34.3360
   -34.3350 -34.3350 -34.3347 -34.3347 -34.2691 -34.2691 -34.2004 -14.6669
   -14.6135 -14.6135 -14.5991 -14.4927 -14.4866 -14.4866 -14.4225 -14.4225
   -14.3816 -14.3809 -14.3789 -14.3424 -14.3424 -14.3289 -14.3288 -14.2923
   -14.2923 -14.2615 -14.2602 -14.2602 -14.2226 -14.1804 -14.1665 -14.1629
   -14.1617 -14.1617 -14.1002 -14.1002 -14.0684 -14.0684 -14.0545 -14.0544
   -14.0515 -14.0515 -14.0464 -14.0391 -14.0391 -14.0197 -14.0197 -13.9983
   -13.9812 -13.9812 -13.8789 -13.8786 -10.1187  -8.2805  -6.1168  -5.0064
    -5.0064  -4.0799  -4.0799  -3.3890  -3.2001  -3.2001  -2.4867  -1.9575
    -1.8036  -1.8036  -1.1539  -0.2495  -0.2495   0.0238   0.1334   0.1334
     0.4758   0.4758   0.6175   0.6175   0.9410   1.3047   1.4533   1.4533
     2.6615   2.6615   2.6916   2.6916   3.0394   3.3662   3.3662   3.7611
     4.1756   4.4053   5.0429   5.2421   5.7682   5.7682   5.9208   6.1809
     6.1809   6.2431   6.7295   6.7479   6.8763   8.0583   8.1645   8.2967

[...]

          k =-0.0888-0.0513 0.0000 ( 17168 PWs)   bands (ev):

[...]

     the Fermi energy is     0.9583 ev

!    total energy              =   -4169.09627944 Ry
     Harris-Foulkes estimate   =   -4169.09627610 Ry
     estimated scf accuracy    <       0.00000023 Ry

     The total energy is the sum of the following terms:

     one-electron contribution =  -27022.42789595 Ry
     hartree contribution      =   13514.73296537 Ry
     xc contribution           =    -508.09230566 Ry
     ewald contribution        =    9846.74419241 Ry
     electric field correction =       0.00000000 Ry
     smearing contrib. (-TS)   =      -0.05323562 Ry

     convergence has been achieved in  18 iterations

 BEEF-vdW xc energy contributions
           1 :   -451.775614653665
           2 :    410.966829312210
           3 :   -342.218567355916
           4 :    265.135207648594
           5 :   -197.446904046431
           6 :    148.426446765291
           7 :   -117.358306308323
           8 :    97.0321991224632
           9 :   -79.5665117418366
[...]
     Generated by new atomic code, or converted to UPF format
     Using radial grid of  871 points,  6 beta functions with:
                l(1) =   0
                l(2) =   0
                l(3) =   1
                l(4) =   1
                l(5) =   2
                l(6) =   2
     Q(r) pseudized with  8 coefficients,  rinner =    1.250   1.250   1.250
                                                       1.250   1.250

     PseudoPot. # 2 for Mo read from file:
     /afs/slac.stanford.edu/u/if/mamunm/psp/gbrv1.5pbe/Mo.UPF
     MD5 check sum: 30c4dcd161f5d35cd49bb5239c51a633
     Pseudo is Ultrasoft + core correction, Zval = 14.0
     Generated by new atomic code, or converted to UPF format
     Using radial grid of  889 points,  6 beta functions with:
                l(1) =   0
                l(2) =   0
                l(3) =   1
                l(4) =   1
                l(5) =   2
                l(6) =   2
     Q(r) pseudized with  6 coefficients,  rinner =    1.000   1.000   1.000
                                                       1.000   1.000

     vdW kernel table read from file vdW_kernel_table
     MD5 check sum: 095c7af220d748ca6e76c0b4c6cfb241

     atomic species   valence    mass     pseudopotential
        Ga1           19.00    69.72300     Ga( 1.00)
        Mo1           14.00    95.95000     Mo( 1.00)

     No symmetry found

   Cartesian axes

     site n.     atom                  positions (alat units)
         1           Ga1 tau(   1) = (   0.0000000   0.0000000  10.0000000  )
         2           Ga1 tau(   2) = (  -1.4079916   2.4387131  10.0000000  )
         3           Ga1 tau(   3) = (   1.4079916   2.4387131  10.0000000  )
         4           Mo1 tau(   4) = (   2.8159833   0.0000000  10.0000000  )
         5           Ga1 tau(   5) = (   2.8159833   1.6258087  12.2992407  )
         6           Ga1 tau(   6) = (   1.4079916   4.0645218  12.2992407  )
         7           Ga1 tau(   7) = (  -1.4079916   4.0645218  12.2992407  )
         8           Mo1 tau(   8) = (   0.0000000   1.6258087  12.2992407  )
         9           Ga1 tau(   9) = (   0.0000315   3.2278982  14.8433788  )
        10           Ga1 tau(  10) = (   1.3874782   0.8247578  14.8434008  )
        11           Ga1 tau(  11) = (   4.2445215   0.8247470  14.8434228  )
        12           Mo1 tau(  12) = (   2.8159967   3.2516099  14.3599716  )

     number of k points=    20  Fermi-Dirac smearing, width (Ry)=  0.0110
                       cart. coord. in units 2pi/alat
        k(    1) = (   0.0000000   0.0000000   0.0000000), wk =   0.0555556
        k(    2) = (   0.0000000   0.0341710   0.0000000), wk =   0.1111111
        k(    3) = (   0.0000000   0.0683421   0.0000000), wk =   0.1111111
        k(    4) = (   0.0000000  -0.1025131   0.0000000), wk =   0.0555556
        k(    5) = (   0.0295930   0.0170855   0.0000000), wk =   0.1111111
        k(    6) = (   0.0295930   0.0512565   0.0000000), wk =   0.1111111
        k(    7) = (   0.0295930   0.0854276   0.0000000), wk =   0.1111111
        k(    8) = (   0.0295930  -0.0854276   0.0000000), wk =   0.1111111
        k(    9) = (   0.0295930  -0.0512565   0.0000000), wk =   0.1111111
        k(   10) = (   0.0295930  -0.0170855   0.0000000), wk =   0.1111111
        k(   11) = (   0.0591860   0.0341710   0.0000000), wk =   0.1111111
        k(   12) = (   0.0591860   0.0683421   0.0000000), wk =   0.1111111
        k(   13) = (   0.0591860   0.1025131   0.0000000), wk =   0.1111111
        k(   14) = (   0.0591860  -0.0683421   0.0000000), wk =   0.1111111
        k(   15) = (   0.0591860  -0.0341710   0.0000000), wk =   0.1111111
        k(   16) = (   0.0591860   0.0000000   0.0000000), wk =   0.1111111
        k(   17) = (  -0.0887789  -0.0512565   0.0000000), wk =   0.0555556
        k(   18) = (  -0.0887789  -0.0170855   0.0000000), wk =   0.1111111
        k(   19) = (  -0.0887789   0.0170855   0.0000000), wk =   0.1111111
        k(   20) = (  -0.0887789  -0.1537696   0.0000000), wk =   0.0555556

     Largest allocated arrays     est. size (Mb)     dimensions
     Largest temporary arrays     est. size (Mb)     dimensions

     Initial potential from superposition of free atoms
     Check: negative starting charge=   -0.002969

     starting charge  203.99680, renormalised to  213.00000

[...]

     *
     * You are using vdW-DF for exchange-correlation in this calculation.
     * Please cite the following three references that made this development
     * possible:
     *
     *   M. Dion, H. Rydberg, E. Schroder, D. C. Langreth, and
     *   B. I. Lundqvist, Phys. Rev. Lett. 92, 246401 (2004).
     *
     *   T. Thonhauser, V. R. Cooper, S. Li, A. Puzder, P. Hyldgaard, and
     *   D. C. Langreth, Phys. Rev. B 76, 125112 (2007).
     *
     *   G. Roman-Perez and J. M. Soler, Phys. Rev. Lett. 103, 096102 (2009).
     *
     *
     * If you are using vdW-DF2, please also cite:
     *
     *   K. Lee, E. D. Murray, L. Kong, B. I. Lundqvist, and
     *   D. C. Langreth, Phys. Rev. B 82, 081101(R) (2010).
     *
     *
     * If you are calculating the stress with vdW-DF, please also cite:
     *
     *   R. Sabatini, E. Kucukbenli, B. Kolb, T. Thonhauser, and
     *   S. de Gironcoli, J. Phys.: Condens. Matter 24, 424209 (2012).
     *

     Carrying out vdW-DF run using the following parameters:

     Nqs =      20    Nr_points =    1024   r_max =   100.000
     q_mesh =
               0.00001000     0.04494208     0.09755937     0.15916263
               0.23128650     0.31572767     0.41458969     0.53033537
               0.66584808     0.82450364     1.01025438     1.22772762
               1.48234092     1.78043706     2.12944203     2.53805004
               3.01644009     3.57652955     4.23227104     5.00000000

     Gradients computed in reciprocal space

[...]

     Starting wfc are  147 randomized atomic wfcs

     Self-consistent Calculation

[...]

     total energy              =   -4169.16549244 Ry
     Harris-Foulkes estimate   =   -4169.16549065 Ry
     estimated scf accuracy    <       0.00000261 Ry

     iteration # 17     ecut=    36.75 Ry     beta=0.10
     Davidson diagonalization with overlap
     ethr =  1.23E-09,  avg # of iterations =  2.0

[...]

     negative rho (up, down):  2.507E-03 0.000E+00

     Adding external electric field

     Computed dipole along edir(3) :
        Dipole                0.1018 Ry au,          0.2588 Debye
        Dipole field          0.0003 Ry au

        Potential amp.       -0.0254 Ry
        Total length         45.3223 bohr

     End of self-consistent calculation

[...]

          k = 0.0592 0.0000 0.0000 ( 17138 PWs)   bands (ev):

[...]

          k =-0.0888-0.1538 0.0000 ( 17168 PWs)   bands (ev):

   -93.9155 -93.9144 -93.9133 -93.8557 -93.8551 -93.8544 -93.8479 -93.8474
   -93.8470 -93.8437 -93.8430 -93.8424 -93.8261 -93.8243 -93.8231 -93.7742
   -93.7737 -93.7728 -93.6533 -93.6522 -93.6513 -93.6215 -93.6207 -93.6199
   -93.5798 -93.5792 -93.5785 -60.2284 -60.1844 -60.0776 -34.3190 -34.3183
   -34.2465 -34.2308 -34.2183 -34.2175 -34.1723 -34.1718 -34.1065 -14.4355
   -14.3652 -14.3477 -14.3365 -14.3157 -14.2972 -14.2836 -14.2717 -14.2629
   -14.2595 -14.2530 -14.2363 -14.2213 -14.2184 -14.2123 -14.1819 -14.1769
   -14.1658 -14.1609 -14.1521 -14.1462 -14.1357 -14.1314 -14.1260 -14.1239
   -14.1237 -14.1176 -14.0814 -14.0712 -14.0566 -14.0361 -14.0243 -13.9918
   -13.9890 -13.9761 -13.9521 -13.9494 -13.9456 -13.9373 -13.9343 -13.9298
   -13.9020 -13.8756 -13.8707 -13.7987  -8.4162  -8.0035  -6.5538  -6.5144
    -5.4820  -5.1111  -4.5937  -3.7035  -3.1865  -2.4665  -2.0081  -1.7719
    -1.5058  -1.0594  -0.9331  -0.8820  -0.7936  -0.2330   0.0048   0.4854
     0.8564   1.1977   1.3854   1.4178   1.6378   1.8579   1.9927   2.1280
     2.5542   2.6873   3.5989   3.6647   3.9525   4.0303   4.1417   4.5139
     4.7019   4.8847   4.9393   5.2394   5.5754   5.9182   6.0165   6.0641
     6.3199   6.5505   6.5655   6.7092   7.0932   7.2146   7.3342   7.4715

     the Fermi energy is     1.1065 ev

!    total energy              =   -4169.16549721 Ry
     Harris-Foulkes estimate   =   -4169.16549234 Ry
     estimated scf accuracy    <       0.00000073 Ry

     The total energy is the sum of the following terms:

     one-electron contribution =  -26490.06184918 Ry
     hartree contribution      =   13249.25551685 Ry
     xc contribution           =    -508.02181994 Ry
     ewald contribution        =    9579.71197305 Ry
     electric field correction =       0.00002857 Ry
     smearing contrib. (-TS)   =      -0.04934657 Ry

     convergence has been achieved in  17 iterations

 BEEF-vdW xc energy contributions
           1 :   -452.280381938880
           2 :    411.416381318463
           3 :   -342.594419325955
           4 :    265.465867186072
           5 :   -197.784540492237
           6 :    148.808368902834
           7 :   -117.781262645829
           8 :    97.4575833848183
           9 :   -79.9526752715639
          10 :    61.3009713657839
          11 :   -42.4495410726453
          12 :    26.9026859082823
          13 :   -17.2511817876330
          14 :    13.0972109826286
          15 :   -11.5228050251339
          16 :    9.32530567500214
          17 :   -5.15673547092166
          18 :   4.661188435858321E-002
          19 :    3.84373109538166
          20 :   -5.10663041831418
          21 :    4.15616265330101
          22 :   -2.79092900650420
          23 :    2.74057664662632
          24 :   -4.39166501407368
          25 :    6.63658331526784
          26 :   -7.86909836057833
          27 :    7.28226982467299
          28 :   -5.46437866968165
          29 :    3.88832764380385
          30 :   -3.75609889847402
          31 :   -35.3584646304906
          32 :   -24.6589514233402

     Forces acting on atoms (Ry/au):

     negative rho (up, down):  2.507E-03 0.000E+00
     atom    1 type  1   force =    -0.00000668    0.00311628   -0.03656177
     atom    2 type  1   force =     0.00269104   -0.00155783   -0.03655639
     atom    3 type  1   force =    -0.00268961   -0.00154800   -0.03655203
     atom    4 type  2   force =     0.00000020   -0.00000059    0.10752383
     atom    5 type  1   force =     0.00000076   -0.01759162   -0.00738950
     atom    6 type  1   force =    -0.01523367    0.00879882   -0.00738299
     atom    7 type  1   force =     0.01523173    0.00878736   -0.00738673
     atom    8 type  2   force =     0.00000025   -0.00000097    0.02292133
     atom    9 type  1   force =     0.00000206    0.00045188    0.00025560
     atom   10 type  1   force =     0.00039329   -0.00022621    0.00025944
     atom   11 type  1   force =    -0.00039179   -0.00022943    0.00025948
     atom   12 type  2   force =     0.00000241    0.00000033    0.00060974

     Total force =     0.131217     Total SCF correction =     0.002477

     entering subroutine stress ...

     negative rho (up, down):  2.507E-03 0.000E+00
          total   stress  (Ry/bohr**3)                   (kbar)     P=  -22.06
  -0.00022276   0.00000000  -0.00000000        -32.77      0.00     -0.00
   0.00000000  -0.00022276   0.00000000          0.00    -32.77      0.00
  -0.00000000   0.00000000  -0.00000428         -0.00      0.00     -0.63

 !ASE

     Writing output data file calc.save

     General routines

     Parallel routines

   This run was terminated on:   4: 3:51  26Dec2018

   JOB DONE.
Job  /afs/slac/g/suncat/bin/suncat-tsmpirun -x LD_LIBRARY_PATH -wdir /scratch/qe109685_flWQZ pw.x -in pw.inp

TID   HOST_NAME   COMMAND_LINE            STATUS            TERMINATION_TIME
00000 suncat0088 pw.x -in pw.inp   Done                     12/26/2018 04:03:51
00001 suncat0088 pw.x -in pw.inp   Done                     12/26/2018 04:03:51
00002 suncat0088 pw.x -in pw.inp   Done                     12/26/2018 04:03:51
00003 suncat0088 pw.x -in pw.inp   Done                     12/26/2018 04:03:51
00004 suncat0088 pw.x -in pw.inp   Done                     12/26/2018 04:03:51
00005 suncat0088 pw.x -in pw.inp   Done                     12/26/2018 04:03:51
00006 suncat0088 pw.x -in pw.inp   Done                     12/26/2018 04:03:51
00007 suncat0088 pw.x -in pw.inp   Done                     12/26/2018 04:03:51
00008 suncat0087 pw.x -in pw.inp   Done                     12/26/2018 04:03:51
00009 suncat0087 pw.x -in pw.inp   Done                     12/26/2018 04:03:51
00010 suncat0087 pw.x -in pw.inp   Done                     12/26/2018 04:03:51
00011 suncat0087 pw.x -in pw.inp   Done                     12/26/2018 04:03:51
00012 suncat0087 pw.x -in pw.inp   Done                     12/26/2018 04:03:51
00013 suncat0087 pw.x -in pw.inp   Done                     12/26/2018 04:03:51
00014 suncat0087 pw.x -in pw.inp   Done                     12/26/2018 04:03:51
00015 suncat0087 pw.x -in pw.inp   Done                     12/26/2018 04:03:51
00016 suncat0076 pw.x -in pw.inp   Done                     12/26/2018 04:03:51
00017 suncat0076 pw.x -in pw.inp   Done                     12/26/2018 04:03:51
00018 suncat0076 pw.x -in pw.inp   Done                     12/26/2018 04:03:51
00019 suncat0076 pw.x -in pw.inp   Done                     12/26/2018 04:03:51
00020 suncat0076 pw.x -in pw.inp   Done                     12/26/2018 04:03:51
00021 suncat0076 pw.x -in pw.inp   Done                     12/26/2018 04:03:51
00022 suncat0076 pw.x -in pw.inp   Done                     12/26/2018 04:03:51
00023 suncat0076 pw.x -in pw.inp   Done                     12/26/2018 04:03:51
00024 suncat0041 pw.x -in pw.inp   Done                     12/26/2018 04:03:51
00025 suncat0041 pw.x -in pw.inp   Done                     12/26/2018 04:03:51
00026 suncat0041 pw.x -in pw.inp   Done                     12/26/2018 04:03:51
00027 suncat0041 pw.x -in pw.inp   Done                     12/26/2018 04:03:51
00028 suncat0041 pw.x -in pw.inp   Done                     12/26/2018 04:03:51
00029 suncat0041 pw.x -in pw.inp   Done                     12/26/2018 04:03:51
00030 suncat0041 pw.x -in pw.inp   Done                     12/26/2018 04:03:51
00031 suncat0041 pw.x -in pw.inp   Done                     12/26/2018 04:03:51
00032 suncat0039 pw.x -in pw.inp   Done                     12/26/2018 04:03:51
00033 suncat0039 pw.x -in pw.inp   Done                     12/26/2018 04:03:51
00034 suncat0039 pw.x -in pw.inp   Done                     12/26/2018 04:03:51
00035 suncat0039 pw.x -in pw.inp   Done                     12/26/2018 04:03:51
00036 suncat0039 pw.x -in pw.inp   Done                     12/26/2018 04:03:51
00037 suncat0039 pw.x -in pw.inp   Done                     12/26/2018 04:03:51
00038 suncat0039 pw.x -in pw.inp   Done                     12/26/2018 04:03:51
00039 suncat0039 pw.x -in pw.inp   Done                     12/26/2018 04:03:51
00040 suncat0034 pw.x -in pw.inp   Done                     12/26/2018 04:03:51
00041 suncat0034 pw.x -in pw.inp   Done                     12/26/2018 04:03:51
00042 suncat0034 pw.x -in pw.inp   Done                     12/26/2018 04:03:51
00043 suncat0034 pw.x -in pw.inp   Done                     12/26/2018 04:03:51
00044 suncat0034 pw.x -in pw.inp   Done                     12/26/2018 04:03:51
00045 suncat0034 pw.x -in pw.inp   Done                     12/26/2018 04:03:51
00046 suncat0034 pw.x -in pw.inp   Done                     12/26/2018 04:03:51
00047 suncat0034 pw.x -in pw.inp   Done                     12/26/2018 04:03:51
00048 suncat0029 pw.x -in pw.inp   Done                     12/26/2018 04:03:51
00049 suncat0029 pw.x -in pw.inp   Done                     12/26/2018 04:03:51
00050 suncat0029 pw.x -in pw.inp   Done                     12/26/2018 04:03:51
00051 suncat0029 pw.x -in pw.inp   Done                     12/26/2018 04:03:51
00052 suncat0029 pw.x -in pw.inp   Done                     12/26/2018 04:03:51
00053 suncat0029 pw.x -in pw.inp   Done                     12/26/2018 04:03:51
00054 suncat0029 pw.x -in pw.inp   Done                     12/26/2018 04:03:51
00055 suncat0029 pw.x -in pw.inp   Done                     12/26/2018 04:03:51
00056 suncat0199 pw.x -in pw.inp   Done                     12/26/2018 04:03:51
00057 suncat0199 pw.x -in pw.inp   Done                     12/26/2018 04:03:51
00058 suncat0199 pw.x -in pw.inp   Done                     12/26/2018 04:03:51
00059 suncat0199 pw.x -in pw.inp   Done                     12/26/2018 04:03:51
00060 suncat0199 pw.x -in pw.inp   Done                     12/26/2018 04:03:51
00061 suncat0199 pw.x -in pw.inp   Done                     12/26/2018 04:03:51
00062 suncat0199 pw.x -in pw.inp   Done                     12/26/2018 04:03:51
00063 suncat0199 pw.x -in pw.inp   Done                     12/26/2018 04:03:51