     Program PWSCF v.5.1rc2 (svn rev. 11289) starts on 30Dec2018 at 15:13:35

     Current dimensions of program PWSCF are:
     Max number of different atomic species (ntypx) = 10
     Max number of k-points (npk) =  40000
     Max angular momentum in pseudopotentials (lmaxx) =  3
     Presently stress not available with electric field

     IMPORTANT: XC functional enforced from input :
     Exchange-correlation      = BEEF-VDW ( 1  4 27 13 2)
     Any further DFT definition will be discarded
     Please, verify this is what you really want

     Subspace diagonalization in iterative solution of the eigenvalue problem:
     a serial algorithm will be used

     Generating pointlists ...
     new r_m :   0.4125 (alat units)  0.7795 (a.u.) for type    1
     new r_m :   0.4125 (alat units)  0.7795 (a.u.) for type    2

     bravais-lattice index     =            0
     lattice parameter (alat)  =       1.8897  a.u.
     unit-cell volume          =    4464.8501 (a.u.)^3
     number of atoms/cell      =           12
     number of atomic types    =            2
     number of electrons       =       174.00
     number of Kohn-Sham states=          117
     kinetic-energy cutoff     =      36.7493  Ry
     charge density cutoff     =     367.4932  Ry
     convergence threshold     =      1.0E-06
     mixing beta               =       0.1000
     number of iterations used =           10  plain     mixing
     Exchange-correlation      = BEEF-VDW ( 1  4 27 13 2)
     nstep                     =           50

     celldm(1)=   1.889726  celldm(2)=   0.000000  celldm(3)=   0.000000
     celldm(4)=   0.000000  celldm(5)=   0.000000  celldm(6)=   0.000000

     crystal axes: (cart. coord. in units of alat)
               a(1) = (   5.577959   0.000000   0.000000 )
               a(2) = (  -2.788979   4.830654   0.000000 )
               a(3) = (   0.000000   0.000000  24.554384 )

     reciprocal axes: (cart. coord. in units 2 pi/alat)
               b(1) = (  0.179277  0.103506  0.000000 )
               b(2) = (  0.000000  0.207011  0.000000 )
               b(3) = (  0.000000  0.000000  0.040726 )

     PseudoPot. # 1 for Mn read from file:
     /afs/slac.stanford.edu/u/if/mamunm/psp/gbrv1.5pbe/Mn.UPF
     MD5 check sum: 82ef2b46521d7a7d9e736dc3972e4928
     Pseudo is Ultrasoft + core correction, Zval = 15.0
     Generated by new atomic code, or converted to UPF format
     Using radial grid of  859 points,  6 beta functions with:
                l(1) =   0
                l(2) =   0
                l(3) =   1
                l(4) =   1
                l(5) =   2
                l(6) =   2
     Q(r) pseudized with  8 coefficients,  rinner =    0.950   0.950   0.950
                                                       0.950   0.950

     PseudoPot. # 2 for In read from file:
     /afs/slac.stanford.edu/u/if/mamunm/psp/gbrv1.5pbe/In.UPF
     MD5 check sum: 90777abd96fbb83f2e67db2a40c566b9
     Pseudo is Ultrasoft + core correction, Zval = 13.0
     Generated by new atomic code, or converted to UPF format
     Using radial grid of  889 points,  6 beta functions with:
                l(1) =   0
                l(2) =   0
                l(3) =   1
                l(4) =   1
                l(5) =   2
                l(6) =   2
     Q(r) pseudized with  6 coefficients,  rinner =    1.400   1.400   1.400
                                                       1.400   1.400

     vdW kernel table read from file vdW_kernel_table
     MD5 check sum: 095c7af220d748ca6e76c0b4c6cfb241

     atomic species   valence    mass     pseudopotential
        Mn1           15.00    54.93804     Mn( 1.00)
        In1           13.00   114.81800     In( 1.00)

     Starting magnetic structure
     atomic species   magnetization
        Mn1          0.133
        In1          0.154

     No symmetry found

   Cartesian axes

     site n.     atom                  positions (alat units)
         1           Mn1 tau(   1) = (   0.0000000   0.0000000  10.0000000  )
         2           Mn1 tau(   2) = (  -1.3944897   2.4153270  10.0000000  )
         3           Mn1 tau(   3) = (   1.3944897   2.4153270  10.0000000  )
         4           In1 tau(   4) = (   2.7889794   0.0000000  10.0000000  )
         5           Mn1 tau(   5) = (   2.7889794   1.6102180  12.2771921  )
         6           Mn1 tau(   6) = (   1.3944897   4.0255450  12.2771921  )
         7           Mn1 tau(   7) = (  -1.3944897   4.0255450  12.2771921  )
         8           In1 tau(   8) = (   0.0000000   1.6102180  12.2771921  )
         9           Mn1 tau(   9) = (  -0.0000000   3.2204360  14.5543843  )
        10           Mn1 tau(  10) = (   1.3944897   0.8051090  14.5543843  )
        11           Mn1 tau(  11) = (   4.1834691   0.8051090  14.5543843  )
        12           In1 tau(  12) = (   2.7889794   3.2204360  14.5543843  )

     number of k points=    40  Fermi-Dirac smearing, width (Ry)=  0.0110
                       cart. coord. in units 2pi/alat
        k(    1) = (   0.0000000   0.0000000   0.0000000), wk =   0.0277778
        k(    2) = (   0.0000000   0.0345019   0.0000000), wk =   0.0555556
        k(    3) = (   0.0000000   0.0690038   0.0000000), wk =   0.0555556
        k(    4) = (   0.0000000  -0.1035057   0.0000000), wk =   0.0277778
        k(    5) = (   0.0298795   0.0172509   0.0000000), wk =   0.0555556
        k(    6) = (   0.0298795   0.0517528   0.0000000), wk =   0.0555556
        k(    7) = (   0.0298795   0.0862547   0.0000000), wk =   0.0555556
        k(    8) = (   0.0298795  -0.0862547   0.0000000), wk =   0.0555556
        k(    9) = (   0.0298795  -0.0517528   0.0000000), wk =   0.0555556
        k(   10) = (   0.0298795  -0.0172509   0.0000000), wk =   0.0555556
        k(   11) = (   0.0597590   0.0345019   0.0000000), wk =   0.0555556
        k(   12) = (   0.0597590   0.0690038   0.0000000), wk =   0.0555556
        k(   13) = (   0.0597590   0.1035057   0.0000000), wk =   0.0555556
        k(   14) = (   0.0597590  -0.0690038   0.0000000), wk =   0.0555556
        k(   15) = (   0.0597590  -0.0345019   0.0000000), wk =   0.0555556
        k(   16) = (   0.0597590   0.0000000   0.0000000), wk =   0.0555556
        k(   17) = (  -0.0896385  -0.0517528   0.0000000), wk =   0.0277778
        k(   18) = (  -0.0896385  -0.0172509   0.0000000), wk =   0.0555556
        k(   19) = (  -0.0896385   0.0172509   0.0000000), wk =   0.0555556
        k(   20) = (  -0.0896385  -0.1552585   0.0000000), wk =   0.0277778
        k(   21) = (   0.0000000   0.0000000   0.0000000), wk =   0.0277778
        k(   22) = (   0.0000000   0.0345019   0.0000000), wk =   0.0555556
        k(   23) = (   0.0000000   0.0690038   0.0000000), wk =   0.0555556
        k(   24) = (   0.0000000  -0.1035057   0.0000000), wk =   0.0277778
        k(   25) = (   0.0298795   0.0172509   0.0000000), wk =   0.0555556
        k(   26) = (   0.0298795   0.0517528   0.0000000), wk =   0.0555556
        k(   27) = (   0.0298795   0.0862547   0.0000000), wk =   0.0555556
        k(   28) = (   0.0298795  -0.0862547   0.0000000), wk =   0.0555556
        k(   29) = (   0.0298795  -0.0517528   0.0000000), wk =   0.0555556
        k(   30) = (   0.0298795  -0.0172509   0.0000000), wk =   0.0555556
        k(   31) = (   0.0597590   0.0345019   0.0000000), wk =   0.0555556
        k(   32) = (   0.0597590   0.0690038   0.0000000), wk =   0.0555556
        k(   33) = (   0.0597590   0.1035057   0.0000000), wk =   0.0555556
        k(   34) = (   0.0597590  -0.0690038   0.0000000), wk =   0.0555556
        k(   35) = (   0.0597590  -0.0345019   0.0000000), wk =   0.0555556
        k(   36) = (   0.0597590   0.0000000   0.0000000), wk =   0.0555556
        k(   37) = (  -0.0896385  -0.0517528   0.0000000), wk =   0.0277778
        k(   38) = (  -0.0896385  -0.0172509   0.0000000), wk =   0.0555556
        k(   39) = (  -0.0896385   0.0172509   0.0000000), wk =   0.0555556
        k(   40) = (  -0.0896385  -0.1552585   0.0000000), wk =   0.0277778

     Largest allocated arrays     est. size (Mb)     dimensions
     Largest temporary arrays     est. size (Mb)     dimensions

     Check: negative/imaginary core charge=   -0.000007    0.000000

     Initial potential from superposition of free atoms
     Check: negative starting charge=(component1):   -0.001589
     Check: negative starting charge=(component2):   -0.001215

     starting charge  164.99923, renormalised to  174.00000

     negative rho (up, down):  1.676E-03 1.281E-03

     *
     * You are using vdW-DF for exchange-correlation in this calculation.
     * Please cite the following three references that made this development
     * possible:
     *
     *   M. Dion, H. Rydberg, E. Schroder, D. C. Langreth, and
     *   B. I. Lundqvist, Phys. Rev. Lett. 92, 246401 (2004).
     *
     *   T. Thonhauser, V. R. Cooper, S. Li, A. Puzder, P. Hyldgaard, and
     *   D. C. Langreth, Phys. Rev. B 76, 125112 (2007).
     *
     *   G. Roman-Perez and J. M. Soler, Phys. Rev. Lett. 103, 096102 (2009).
     *
     *
     * If you are using vdW-DF2, please also cite:
     *
     *   K. Lee, E. D. Murray, L. Kong, B. I. Lundqvist, and
     *   D. C. Langreth, Phys. Rev. B 82, 081101(R) (2010).
     *
     *
     * If you are calculating the stress with vdW-DF, please also cite:
     *
     *   R. Sabatini, E. Kucukbenli, B. Kolb, T. Thonhauser, and
     *   S. de Gironcoli, J. Phys.: Condens. Matter 24, 424209 (2012).
     *

     Carrying out vdW-DF run using the following parameters:

     Nqs =      20    Nr_points =    1024   r_max =   100.000
     q_mesh =
               0.00001000     0.04494208     0.09755937     0.15916263
               0.23128650     0.31572767     0.41458969     0.53033537
               0.66584808     0.82450364     1.01025438     1.22772762
               1.48234092     1.78043706     2.12944203     2.53805004
               3.01644009     3.57652955     4.23227104     5.00000000

     Gradients computed in reciprocal space

     Adding external electric field

     Computed dipole along edir(3) :
        Dipole                0.0000 Ry au,          0.0000 Debye
        Dipole field          0.0000 Ry au

        Potential amp.       -0.0000 Ry
        Total length         45.2410 bohr

[...]

     Starting wfc are  144 randomized atomic wfcs

     Self-consistent Calculation

     iteration #  1     ecut=    36.75 Ry     beta=0.10
     Davidson diagonalization with overlap
     ethr =  1.00E-02,  avg # of iterations =  8.0

[...]

     Magnetic moment per site:
     atom:    1    charge:    6.1378    magn:    0.7811    constr:    0.0000
     atom:    2    charge:    6.1378    magn:    0.7811    constr:    0.0000
     atom:    3    charge:    6.1378    magn:    0.7811    constr:    0.0000
     atom:    4    charge:    3.1848    magn:    0.4476    constr:    0.0000
     atom:    5    charge:    6.1386    magn:    0.7805    constr:    0.0000
     atom:    6    charge:    6.1386    magn:    0.7805    constr:    0.0000
     atom:    7    charge:    6.1386    magn:    0.7805    constr:    0.0000
     atom:    8    charge:    3.1825    magn:    0.4474    constr:    0.0000
[...]
        k(    2) = (   0.0000000   0.0345019   0.0000000), wk =   0.0555556
        k(    3) = (   0.0000000   0.0690038   0.0000000), wk =   0.0555556
        k(    4) = (   0.0000000  -0.1035057   0.0000000), wk =   0.0277778
        k(    5) = (   0.0298795   0.0172509   0.0000000), wk =   0.0555556
        k(    6) = (   0.0298795   0.0517528   0.0000000), wk =   0.0555556
        k(    7) = (   0.0298795   0.0862547   0.0000000), wk =   0.0555556
        k(    8) = (   0.0298795  -0.0862547   0.0000000), wk =   0.0555556
        k(    9) = (   0.0298795  -0.0517528   0.0000000), wk =   0.0555556
        k(   10) = (   0.0298795  -0.0172509   0.0000000), wk =   0.0555556
        k(   11) = (   0.0597590   0.0345019   0.0000000), wk =   0.0555556
        k(   12) = (   0.0597590   0.0690038   0.0000000), wk =   0.0555556
        k(   13) = (   0.0597590   0.1035057   0.0000000), wk =   0.0555556
        k(   14) = (   0.0597590  -0.0690038   0.0000000), wk =   0.0555556
        k(   15) = (   0.0597590  -0.0345019   0.0000000), wk =   0.0555556
        k(   16) = (   0.0597590   0.0000000   0.0000000), wk =   0.0555556
        k(   17) = (  -0.0896385  -0.0517528   0.0000000), wk =   0.0277778
        k(   18) = (  -0.0896385  -0.0172509   0.0000000), wk =   0.0555556
        k(   19) = (  -0.0896385   0.0172509   0.0000000), wk =   0.0555556
        k(   20) = (  -0.0896385  -0.1552585   0.0000000), wk =   0.0277778
        k(   21) = (   0.0000000   0.0000000   0.0000000), wk =   0.0277778
        k(   22) = (   0.0000000   0.0345019   0.0000000), wk =   0.0555556
        k(   23) = (   0.0000000   0.0690038   0.0000000), wk =   0.0555556
        k(   24) = (   0.0000000  -0.1035057   0.0000000), wk =   0.0277778
        k(   25) = (   0.0298795   0.0172509   0.0000000), wk =   0.0555556
        k(   26) = (   0.0298795   0.0517528   0.0000000), wk =   0.0555556
        k(   27) = (   0.0298795   0.0862547   0.0000000), wk =   0.0555556
        k(   28) = (   0.0298795  -0.0862547   0.0000000), wk =   0.0555556
        k(   29) = (   0.0298795  -0.0517528   0.0000000), wk =   0.0555556
        k(   30) = (   0.0298795  -0.0172509   0.0000000), wk =   0.0555556
        k(   31) = (   0.0597590   0.0345019   0.0000000), wk =   0.0555556
        k(   32) = (   0.0597590   0.0690038   0.0000000), wk =   0.0555556
        k(   33) = (   0.0597590   0.1035057   0.0000000), wk =   0.0555556
        k(   34) = (   0.0597590  -0.0690038   0.0000000), wk =   0.0555556
        k(   35) = (   0.0597590  -0.0345019   0.0000000), wk =   0.0555556
        k(   36) = (   0.0597590   0.0000000   0.0000000), wk =   0.0555556
        k(   37) = (  -0.0896385  -0.0517528   0.0000000), wk =   0.0277778
        k(   38) = (  -0.0896385  -0.0172509   0.0000000), wk =   0.0555556
        k(   39) = (  -0.0896385   0.0172509   0.0000000), wk =   0.0555556
        k(   40) = (  -0.0896385  -0.1552585   0.0000000), wk =   0.0277778

     Largest allocated arrays     est. size (Mb)     dimensions
     Largest temporary arrays     est. size (Mb)     dimensions

     Check: negative/imaginary core charge=   -0.000007    0.000000

     Initial potential from superposition of free atoms
     Check: negative starting charge=(component1):   -0.001606
     Check: negative starting charge=(component2):   -0.001228

     starting charge  164.99923, renormalised to  174.00000

[...]

     *
     * You are using vdW-DF for exchange-correlation in this calculation.
     * Please cite the following three references that made this development
     * possible:
     *
     *   M. Dion, H. Rydberg, E. Schroder, D. C. Langreth, and
     *   B. I. Lundqvist, Phys. Rev. Lett. 92, 246401 (2004).
     *
     *   T. Thonhauser, V. R. Cooper, S. Li, A. Puzder, P. Hyldgaard, and
     *   D. C. Langreth, Phys. Rev. B 76, 125112 (2007).
     *
     *   G. Roman-Perez and J. M. Soler, Phys. Rev. Lett. 103, 096102 (2009).
     *
     *
     * If you are using vdW-DF2, please also cite:
     *
     *   K. Lee, E. D. Murray, L. Kong, B. I. Lundqvist, and
     *   D. C. Langreth, Phys. Rev. B 82, 081101(R) (2010).
     *
     *
     * If you are calculating the stress with vdW-DF, please also cite:
     *
     *   R. Sabatini, E. Kucukbenli, B. Kolb, T. Thonhauser, and
     *   S. de Gironcoli, J. Phys.: Condens. Matter 24, 424209 (2012).
     *

     Carrying out vdW-DF run using the following parameters:

     Nqs =      20    Nr_points =    1024   r_max =   100.000
     q_mesh =
               0.00001000     0.04494208     0.09755937     0.15916263
               0.23128650     0.31572767     0.41458969     0.53033537
               0.66584808     0.82450364     1.01025438     1.22772762
               1.48234092     1.78043706     2.12944203     2.53805004
               3.01644009     3.57652955     4.23227104     5.00000000

     Gradients computed in reciprocal space

[...]

     Starting wfc are  144 randomized atomic wfcs

     Self-consistent Calculation

[...]

     total energy              =   -2313.20072441 Ry
     Harris-Foulkes estimate   =   -2313.20072224 Ry
     estimated scf accuracy    <       0.00000139 Ry

[...]

     iteration # 34     ecut=    36.75 Ry     beta=0.10
     Davidson diagonalization with overlap
     ethr =  8.00E-10,  avg # of iterations =  2.0

[...]

     negative rho (up, down):  1.873E-03 1.557E-03

[...]

     Adding external electric field

     Computed dipole along edir(3) :
        Dipole               -0.0089 Ry au,         -0.0225 Debye
        Dipole field         -0.0000 Ry au

        Potential amp.        0.0023 Ry
        Total length         45.2410 bohr

     Magnetic moment per site:
     atom:    1    charge:    6.0168    magn:    1.4440    constr:    0.0000
     atom:    2    charge:    6.0168    magn:    1.4440    constr:    0.0000
     atom:    3    charge:    6.0168    magn:    1.4440    constr:    0.0000
     atom:    4    charge:    3.0722    magn:   -0.0004    constr:    0.0000
     atom:    5    charge:    6.0024    magn:    1.3060    constr:    0.0000
     atom:    6    charge:    6.0025    magn:    1.3059    constr:    0.0000
     atom:    7    charge:    6.0025    magn:    1.3059    constr:    0.0000
     atom:    8    charge:    3.0721    magn:   -0.0024    constr:    0.0000
     atom:    9    charge:    6.0129    magn:    1.4447    constr:    0.0000
     atom:   10    charge:    6.0129    magn:    1.4447    constr:    0.0000
     atom:   11    charge:    6.0129    magn:    1.4446    constr:    0.0000
     atom:   12    charge:    3.0671    magn:   -0.0015    constr:    0.0000

     End of self-consistent calculation

 ------ SPIN UP ------------

[...]

 ------ SPIN DOWN ----------

[...]

          k = 0.0598 0.0000 0.0000 ( 16772 PWs)   bands (ev):

[...]

          k =-0.0896-0.1553 0.0000 ( 16808 PWs)   bands (ev):

   -75.9895 -75.9852 -75.9830 -75.9768 -75.9766 -75.9710 -75.9241 -75.9184
   -75.9122 -44.8748 -44.8685 -44.8418 -44.8315 -44.8241 -44.8230 -44.8175
   -44.8132 -44.8118 -44.8025 -44.7880 -44.7878 -44.7779 -44.7771 -44.7698
   -44.7613 -44.7442 -44.7412 -44.7382 -44.7305 -44.7148 -44.7109 -44.6829
   -44.6816 -44.6385 -44.6300 -44.6010 -13.5687 -13.5552 -13.5510 -13.5379
   -13.5278 -13.4825 -13.4661 -13.4652 -13.4430 -13.4362 -13.4312 -13.4211
   -13.4173 -13.3940 -13.3873  -6.1102  -5.5714  -4.7550  -3.4683  -2.2660
    -2.2627  -2.1276  -0.8610  -0.8138  -0.7070  -0.1842  -0.0854   0.0069
     0.0452   0.5348   0.6113   0.7394   0.8216   1.0169   1.0280   1.0958
     1.1547   1.1846   1.3433   1.3755   1.4937   1.5276   1.7744   1.7824
     1.8829   1.9187   2.0525   2.1030   2.3384   2.4965   2.6434   2.6613
     2.6660   2.7301   2.7773   2.7979   2.8473   2.9351   2.9359   2.9939
     3.0843   3.1947   3.2211   3.2962   3.5088   3.5154   3.7567   3.8202
     4.0937   4.3917   4.4661   4.6300   4.7973   5.0870   5.8303   5.8942
     6.3787   6.4292   6.6058   6.8729   6.9339

     the Fermi energy is     0.9994 ev

!    total energy              =   -2313.20073637 Ry
     Harris-Foulkes estimate   =   -2313.20072462 Ry
     estimated scf accuracy    <       0.00000090 Ry

     The total energy is the sum of the following terms:

     one-electron contribution =  -17260.31370905 Ry
     hartree contribution      =    8648.45471320 Ry
     xc contribution           =    -366.70060304 Ry
     ewald contribution        =    6665.42382140 Ry
     electric field correction =       0.00000022 Ry
     smearing contrib. (-TS)   =      -0.06495910 Ry

     total magnetization       =    32.10 Bohr mag/cell
     absolute magnetization    =    33.73 Bohr mag/cell

     convergence has been achieved in  34 iterations

 BEEF-vdW xc energy contributions
           1 :   -320.591492043212
           2 :    290.640865455796
           3 :   -240.829621126723
           4 :    185.958026649982
           5 :   -138.622007689123
           6 :    104.830376391839
           7 :   -83.7753204235468
           8 :    70.6426572304017
           9 :   -60.1952241664370
          10 :    49.2493589530942
          11 :   -37.2993525449470
          12 :    25.6458093193492
          13 :   -15.9982183680513
          14 :    9.39910591179290
          15 :   -5.79528819328027
          16 :    4.17301650394796
          17 :   -3.08989257040116
          18 :    1.39293748643627
          19 :    1.20552717402944
          20 :   -4.04881818387395
          21 :    6.03791968594152
          22 :   -6.41281799636261
          23 :    5.29870101415639
          24 :   -3.65120545670067
          25 :    2.63435509638208
          26 :   -2.86894179263612
          27 :    4.07673602021879
          28 :   -5.34876642300804
          29 :    5.80187993255055
          30 :   -5.14563127334247
          31 :   -28.8797006734687
          32 :   -20.6116132975686

     Forces acting on atoms (Ry/au):

     negative rho (up, down):  1.873E-03 1.557E-03
     atom    1 type  1   force =     0.00000222   -0.00775996   -0.00198203
     atom    2 type  1   force =    -0.00672630    0.00387637   -0.00196822
     atom    3 type  1   force =     0.00672785    0.00387430   -0.00197814
     atom    4 type  2   force =    -0.00000579    0.00001344   -0.03325973
     atom    5 type  1   force =    -0.00000259    0.00580969    0.00998283
     atom    6 type  1   force =     0.00503172   -0.00290962    0.00999544
     atom    7 type  1   force =    -0.00502934   -0.00290517    0.01000732
     atom    8 type  2   force =     0.00000253    0.00000167    0.00940512
     atom    9 type  1   force =    -0.00005513   -0.00085832    0.00004804
     atom   10 type  1   force =    -0.00076891    0.00038816    0.00004354
     atom   11 type  1   force =     0.00075728    0.00044606    0.00006011
     atom   12 type  2   force =     0.00006645    0.00002339   -0.00035429

     Total force =     0.042315     Total SCF correction =     0.002933

     entering subroutine stress ...

     negative rho (up, down):  1.873E-03 1.557E-03
          total   stress  (Ry/bohr**3)                   (kbar)     P=    4.09
   0.00002802   0.00000000   0.00000001          4.12      0.00      0.00
   0.00000000   0.00002801   0.00000001          0.00      4.12      0.00
   0.00000001   0.00000001   0.00002738          0.00      0.00      4.03

 !ASE

     Writing output data file calc.save

     General routines

     Parallel routines

   This run was terminated on:  21:27:13  30Dec2018

   JOB DONE.
Job  /afs/slac/g/suncat/bin/suncat-tsmpirun -x LD_LIBRARY_PATH -wdir /scratch/qe648579_piHjk pw.x -in pw.inp

TID   HOST_NAME   COMMAND_LINE            STATUS            TERMINATION_TIME
00000 suncat0040 pw.x -in pw.inp   Done                     12/30/2018 21:27:13
00001 suncat0040 pw.x -in pw.inp   Done                     12/30/2018 21:27:13
00002 suncat0040 pw.x -in pw.inp   Done                     12/30/2018 21:27:13
00003 suncat0040 pw.x -in pw.inp   Done                     12/30/2018 21:27:13
00004 suncat0040 pw.x -in pw.inp   Done                     12/30/2018 21:27:13
00005 suncat0040 pw.x -in pw.inp   Done                     12/30/2018 21:27:13
00006 suncat0040 pw.x -in pw.inp   Done                     12/30/2018 21:27:13
00007 suncat0040 pw.x -in pw.inp   Done                     12/30/2018 21:27:13
00008 suncat0017 pw.x -in pw.inp   Done                     12/30/2018 21:27:13
00009 suncat0017 pw.x -in pw.inp   Done                     12/30/2018 21:27:13
00010 suncat0017 pw.x -in pw.inp   Done                     12/30/2018 21:27:13
00011 suncat0017 pw.x -in pw.inp   Done                     12/30/2018 21:27:13
00012 suncat0017 pw.x -in pw.inp   Done                     12/30/2018 21:27:13
00013 suncat0017 pw.x -in pw.inp   Done                     12/30/2018 21:27:13
00014 suncat0017 pw.x -in pw.inp   Done                     12/30/2018 21:27:13
00015 suncat0017 pw.x -in pw.inp   Done                     12/30/2018 21:27:13
00016 suncat0195 pw.x -in pw.inp   Done                     12/30/2018 21:27:13
00017 suncat0195 pw.x -in pw.inp   Done                     12/30/2018 21:27:13
00018 suncat0195 pw.x -in pw.inp   Done                     12/30/2018 21:27:13
00019 suncat0195 pw.x -in pw.inp   Done                     12/30/2018 21:27:13
00020 suncat0195 pw.x -in pw.inp   Done                     12/30/2018 21:27:13
00021 suncat0195 pw.x -in pw.inp   Done                     12/30/2018 21:27:13
00022 suncat0195 pw.x -in pw.inp   Done                     12/30/2018 21:27:13
00023 suncat0195 pw.x -in pw.inp   Done                     12/30/2018 21:27:13
00024 suncat0003 pw.x -in pw.inp   Done                     12/30/2018 21:27:13
00025 suncat0003 pw.x -in pw.inp   Done                     12/30/2018 21:27:13
00026 suncat0003 pw.x -in pw.inp   Done                     12/30/2018 21:27:13
00027 suncat0003 pw.x -in pw.inp   Done                     12/30/2018 21:27:13
00028 suncat0003 pw.x -in pw.inp   Done                     12/30/2018 21:27:13
00029 suncat0003 pw.x -in pw.inp   Done                     12/30/2018 21:27:13
00030 suncat0003 pw.x -in pw.inp   Done                     12/30/2018 21:27:13
00031 suncat0003 pw.x -in pw.inp   Done                     12/30/2018 21:27:13
00032 suncat0002 pw.x -in pw.inp   Done                     12/30/2018 21:27:13
00033 suncat0002 pw.x -in pw.inp   Done                     12/30/2018 21:27:13
00034 suncat0002 pw.x -in pw.inp   Done                     12/30/2018 21:27:13
00035 suncat0002 pw.x -in pw.inp   Done                     12/30/2018 21:27:13
00036 suncat0002 pw.x -in pw.inp   Done                     12/30/2018 21:27:13
00037 suncat0002 pw.x -in pw.inp   Done                     12/30/2018 21:27:13
00038 suncat0002 pw.x -in pw.inp   Done                     12/30/2018 21:27:13
00039 suncat0002 pw.x -in pw.inp   Done                     12/30/2018 21:27:13
00040 suncat0179 pw.x -in pw.inp   Done                     12/30/2018 21:27:13
00041 suncat0179 pw.x -in pw.inp   Done                     12/30/2018 21:27:13
00042 suncat0179 pw.x -in pw.inp   Done                     12/30/2018 21:27:13
00043 suncat0179 pw.x -in pw.inp   Done                     12/30/2018 21:27:13
00044 suncat0179 pw.x -in pw.inp   Done                     12/30/2018 21:27:13
00045 suncat0179 pw.x -in pw.inp   Done                     12/30/2018 21:27:13
00046 suncat0179 pw.x -in pw.inp   Done                     12/30/2018 21:27:13
00047 suncat0179 pw.x -in pw.inp   Done                     12/30/2018 21:27:13
00048 suncat0283 pw.x -in pw.inp   Done                     12/30/2018 21:27:13
00049 suncat0283 pw.x -in pw.inp   Done                     12/30/2018 21:27:13
00050 suncat0283 pw.x -in pw.inp   Done                     12/30/2018 21:27:13
00051 suncat0283 pw.x -in pw.inp   Done                     12/30/2018 21:27:13
00052 suncat0283 pw.x -in pw.inp   Done                     12/30/2018 21:27:13
00053 suncat0283 pw.x -in pw.inp   Done                     12/30/2018 21:27:13
00054 suncat0283 pw.x -in pw.inp   Done                     12/30/2018 21:27:13
00055 suncat0283 pw.x -in pw.inp   Done                     12/30/2018 21:27:13
00056 suncat0282 pw.x -in pw.inp   Done                     12/30/2018 21:27:13
00057 suncat0282 pw.x -in pw.inp   Done                     12/30/2018 21:27:13
00058 suncat0282 pw.x -in pw.inp   Done                     12/30/2018 21:27:13
00059 suncat0282 pw.x -in pw.inp   Done                     12/30/2018 21:27:13
00060 suncat0282 pw.x -in pw.inp   Done                     12/30/2018 21:27:13
00061 suncat0282 pw.x -in pw.inp   Done                     12/30/2018 21:27:13
00062 suncat0282 pw.x -in pw.inp   Done                     12/30/2018 21:27:13
00063 suncat0282 pw.x -in pw.inp   Done                     12/30/2018 21:27:13