     Program PWSCF v.5.1rc2 (svn rev. 11289) starts on 25Dec2018 at 21:33:47

     Current dimensions of program PWSCF are:
     Max number of different atomic species (ntypx) = 10
     Max number of k-points (npk) =  40000
     Max angular momentum in pseudopotentials (lmaxx) =  3
     Presently stress not available with electric field

     IMPORTANT: XC functional enforced from input :
     Exchange-correlation      = BEEF-VDW ( 1  4 27 13 2)
     Any further DFT definition will be discarded
     Please, verify this is what you really want

     Subspace diagonalization in iterative solution of the eigenvalue problem:
     a serial algorithm will be used

     Generating pointlists ...
     new r_m :   0.4125 (alat units)  0.7795 (a.u.) for type    1
     new r_m :   0.4125 (alat units)  0.7795 (a.u.) for type    2

     bravais-lattice index     =            0
     lattice parameter (alat)  =       1.8897  a.u.
     unit-cell volume          =    4182.1478 (a.u.)^3
     number of atoms/cell      =           12
     number of atomic types    =            2
     number of electrons       =       177.00
     number of Kohn-Sham states=          118
     kinetic-energy cutoff     =      36.7493  Ry
     charge density cutoff     =     367.4932  Ry
     convergence threshold     =      1.0E-06
     mixing beta               =       0.1000
     number of iterations used =           10  plain     mixing
     Exchange-correlation      = BEEF-VDW ( 1  4 27 13 2)
     nstep                     =           50

     celldm(1)=   1.889726  celldm(2)=   0.000000  celldm(3)=   0.000000
     celldm(4)=   0.000000  celldm(5)=   0.000000  celldm(6)=   0.000000

     crystal axes: (cart. coord. in units of alat)
               a(1) = (   5.413319   0.000000   0.000000 )
               a(2) = (  -2.706660   4.688072   0.000000 )
               a(3) = (   0.000000   0.000000  24.419957 )

     reciprocal axes: (cart. coord. in units 2 pi/alat)
               b(1) = (  0.184730  0.106654  0.000000 )
               b(2) = (  0.000000  0.213307  0.000000 )
               b(3) = (  0.000000  0.000000  0.040950 )

     PseudoPot. # 1 for Fe read from file:
     /afs/slac.stanford.edu/u/if/mamunm/psp/gbrv1.5pbe/Fe.UPF
     MD5 check sum: a130daea23fe5165f5d574ae7f82ed95
     Pseudo is Ultrasoft + core correction, Zval = 16.0
     Generated by new atomic code, or converted to UPF format
     Using radial grid of  861 points,  6 beta functions with:
                l(1) =   0
                l(2) =   0
                l(3) =   1
                l(4) =   1
                l(5) =   2
                l(6) =   2
     Q(r) pseudized with  8 coefficients,  rinner =    1.000   1.000   1.000
                                                       1.000   1.000

     PseudoPot. # 2 for Sc read from file:
     /afs/slac.stanford.edu/u/if/mamunm/psp/gbrv1.5pbe/Sc.UPF
     MD5 check sum: db30a2753ba66ef00f23801d899b7e7f
     Pseudo is Ultrasoft + core correction, Zval = 11.0
     Generated by new atomic code, or converted to UPF format
     Using radial grid of  849 points,  6 beta functions with:
                l(1) =   0
                l(2) =   0
                l(3) =   1
                l(4) =   1
                l(5) =   2
                l(6) =   2
     Q(r) pseudized with  6 coefficients,  rinner =    1.200   1.200   1.200
                                                       1.200   1.200

     vdW kernel table read from file vdW_kernel_table
     MD5 check sum: 095c7af220d748ca6e76c0b4c6cfb241

     atomic species   valence    mass     pseudopotential
        Fe1           16.00    55.84500     Fe( 1.00)
        Sc1           11.00    44.95591     Sc( 1.00)

     Starting magnetic structure
     atomic species   magnetization
        Fe1          0.125
        Sc1          0.182

     No symmetry found

   Cartesian axes

     site n.     atom                  positions (alat units)
         1           Fe1 tau(   1) = (   0.0000000   0.0000000  10.0000000  )
         2           Fe1 tau(   2) = (  -1.3533298   2.3440359  10.0000000  )
         3           Fe1 tau(   3) = (   1.3533298   2.3440359  10.0000000  )
         4           Sc1 tau(   4) = (   2.7066596   0.0000000  10.0000000  )
         5           Fe1 tau(   5) = (   2.7066596   1.5626906  12.2099783  )
         6           Fe1 tau(   6) = (   1.3533298   3.9067266  12.2099783  )
         7           Fe1 tau(   7) = (  -1.3533298   3.9067266  12.2099783  )
         8           Sc1 tau(   8) = (   0.0000000   1.5626906  12.2099783  )
         9           Fe1 tau(   9) = (  -0.0000000   3.1253813  14.4199566  )
        10           Fe1 tau(  10) = (   1.3533298   0.7813453  14.4199566  )
        11           Fe1 tau(  11) = (   4.0599893   0.7813453  14.4199566  )
        12           Sc1 tau(  12) = (   2.7066596   3.1253813  14.4199566  )

     number of k points=    40  Fermi-Dirac smearing, width (Ry)=  0.0110
                       cart. coord. in units 2pi/alat
        k(    1) = (   0.0000000   0.0000000   0.0000000), wk =   0.0277778
        k(    2) = (   0.0000000   0.0355512   0.0000000), wk =   0.0555556
        k(    3) = (   0.0000000   0.0711024   0.0000000), wk =   0.0555556
        k(    4) = (   0.0000000  -0.1066537   0.0000000), wk =   0.0277778
        k(    5) = (   0.0307883   0.0177756   0.0000000), wk =   0.0555556
        k(    6) = (   0.0307883   0.0533268   0.0000000), wk =   0.0555556
        k(    7) = (   0.0307883   0.0888780   0.0000000), wk =   0.0555556
        k(    8) = (   0.0307883  -0.0888780   0.0000000), wk =   0.0555556
        k(    9) = (   0.0307883  -0.0533268   0.0000000), wk =   0.0555556
        k(   10) = (   0.0307883  -0.0177756   0.0000000), wk =   0.0555556
        k(   11) = (   0.0615765   0.0355512   0.0000000), wk =   0.0555556
        k(   12) = (   0.0615765   0.0711024   0.0000000), wk =   0.0555556
        k(   13) = (   0.0615765   0.1066537   0.0000000), wk =   0.0555556
        k(   14) = (   0.0615765  -0.0711024   0.0000000), wk =   0.0555556
        k(   15) = (   0.0615765  -0.0355512   0.0000000), wk =   0.0555556
        k(   16) = (   0.0615765   0.0000000   0.0000000), wk =   0.0555556
        k(   17) = (  -0.0923648  -0.0533268   0.0000000), wk =   0.0277778
        k(   18) = (  -0.0923648  -0.0177756   0.0000000), wk =   0.0555556
        k(   19) = (  -0.0923648   0.0177756   0.0000000), wk =   0.0555556
        k(   20) = (  -0.0923648  -0.1599805   0.0000000), wk =   0.0277778
        k(   21) = (   0.0000000   0.0000000   0.0000000), wk =   0.0277778
        k(   22) = (   0.0000000   0.0355512   0.0000000), wk =   0.0555556
        k(   23) = (   0.0000000   0.0711024   0.0000000), wk =   0.0555556
        k(   24) = (   0.0000000  -0.1066537   0.0000000), wk =   0.0277778
        k(   25) = (   0.0307883   0.0177756   0.0000000), wk =   0.0555556
        k(   26) = (   0.0307883   0.0533268   0.0000000), wk =   0.0555556
        k(   27) = (   0.0307883   0.0888780   0.0000000), wk =   0.0555556
        k(   28) = (   0.0307883  -0.0888780   0.0000000), wk =   0.0555556
        k(   29) = (   0.0307883  -0.0533268   0.0000000), wk =   0.0555556
        k(   30) = (   0.0307883  -0.0177756   0.0000000), wk =   0.0555556
        k(   31) = (   0.0615765   0.0355512   0.0000000), wk =   0.0555556
        k(   32) = (   0.0615765   0.0711024   0.0000000), wk =   0.0555556
        k(   33) = (   0.0615765   0.1066537   0.0000000), wk =   0.0555556
        k(   34) = (   0.0615765  -0.0711024   0.0000000), wk =   0.0555556
        k(   35) = (   0.0615765  -0.0355512   0.0000000), wk =   0.0555556
        k(   36) = (   0.0615765   0.0000000   0.0000000), wk =   0.0555556
        k(   37) = (  -0.0923648  -0.0533268   0.0000000), wk =   0.0277778
        k(   38) = (  -0.0923648  -0.0177756   0.0000000), wk =   0.0555556
        k(   39) = (  -0.0923648   0.0177756   0.0000000), wk =   0.0555556
        k(   40) = (  -0.0923648  -0.1599805   0.0000000), wk =   0.0277778

     Largest allocated arrays     est. size (Mb)     dimensions
     Largest temporary arrays     est. size (Mb)     dimensions

     Check: negative/imaginary core charge=   -0.000006    0.000000

     Initial potential from superposition of free atoms
     Check: negative starting charge=(component1):   -0.000131

     starting charge  167.99274, renormalised to  177.00000

     negative rho (up, down):  1.384E-04 1.030E-04

     *
     * You are using vdW-DF for exchange-correlation in this calculation.
     * Please cite the following three references that made this development
     * possible:
     *
     *   M. Dion, H. Rydberg, E. Schroder, D. C. Langreth, and
     *   B. I. Lundqvist, Phys. Rev. Lett. 92, 246401 (2004).
     *
     *   T. Thonhauser, V. R. Cooper, S. Li, A. Puzder, P. Hyldgaard, and
     *   D. C. Langreth, Phys. Rev. B 76, 125112 (2007).
     *
     *   G. Roman-Perez and J. M. Soler, Phys. Rev. Lett. 103, 096102 (2009).
     *
     *
     * If you are using vdW-DF2, please also cite:
     *
     *   K. Lee, E. D. Murray, L. Kong, B. I. Lundqvist, and
     *   D. C. Langreth, Phys. Rev. B 82, 081101(R) (2010).
     *
     *
     * If you are calculating the stress with vdW-DF, please also cite:
     *
     *   R. Sabatini, E. Kucukbenli, B. Kolb, T. Thonhauser, and
     *   S. de Gironcoli, J. Phys.: Condens. Matter 24, 424209 (2012).
     *

     Carrying out vdW-DF run using the following parameters:

     Nqs =      20    Nr_points =    1024   r_max =   100.000
     q_mesh =
               0.00001000     0.04494208     0.09755937     0.15916263
               0.23128650     0.31572767     0.41458969     0.53033537
               0.66584808     0.82450364     1.01025438     1.22772762
               1.48234092     1.78043706     2.12944203     2.53805004
               3.01644009     3.57652955     4.23227104     5.00000000

     Gradients computed in reciprocal space

     Adding external electric field

     Computed dipole along edir(3) :
        Dipole               -0.0000 Ry au,         -0.0000 Debye
        Dipole field         -0.0000 Ry au

        Potential amp.        0.0000 Ry
        Total length         44.9934 bohr

[...]

     Starting wfc are  156 randomized atomic wfcs

     Self-consistent Calculation

     iteration #  1     ecut=    36.75 Ry     beta=0.10
     Davidson diagonalization with overlap
     ethr =  1.00E-02,  avg # of iterations =  3.6

[...]

     Magnetic moment per site:
     atom:    1    charge:    7.2468    magn:    0.9073    constr:    0.0000
     atom:    2    charge:    7.2468    magn:    0.9073    constr:    0.0000
     atom:    3    charge:    7.2468    magn:    0.9074    constr:    0.0000
     atom:    4    charge:    2.5012    magn:    0.4178    constr:    0.0000
     atom:    5    charge:    7.2416    magn:    0.8993    constr:    0.0000
     atom:    6    charge:    7.2416    magn:    0.8993    constr:    0.0000
     atom:    7    charge:    7.2416    magn:    0.8993    constr:    0.0000
     atom:    8    charge:    2.4984    magn:    0.4160    constr:    0.0000
[...]
        k(    2) = (   0.0000000   0.0355512   0.0000000), wk =   0.0555556
        k(    3) = (   0.0000000   0.0711024   0.0000000), wk =   0.0555556
        k(    4) = (   0.0000000  -0.1066537   0.0000000), wk =   0.0277778
        k(    5) = (   0.0307883   0.0177756   0.0000000), wk =   0.0555556
        k(    6) = (   0.0307883   0.0533268   0.0000000), wk =   0.0555556
        k(    7) = (   0.0307883   0.0888780   0.0000000), wk =   0.0555556
        k(    8) = (   0.0307883  -0.0888780   0.0000000), wk =   0.0555556
        k(    9) = (   0.0307883  -0.0533268   0.0000000), wk =   0.0555556
        k(   10) = (   0.0307883  -0.0177756   0.0000000), wk =   0.0555556
        k(   11) = (   0.0615765   0.0355512   0.0000000), wk =   0.0555556
        k(   12) = (   0.0615765   0.0711024   0.0000000), wk =   0.0555556
        k(   13) = (   0.0615765   0.1066537   0.0000000), wk =   0.0555556
        k(   14) = (   0.0615765  -0.0711024   0.0000000), wk =   0.0555556
        k(   15) = (   0.0615765  -0.0355512   0.0000000), wk =   0.0555556
        k(   16) = (   0.0615765   0.0000000   0.0000000), wk =   0.0555556
        k(   17) = (  -0.0923648  -0.0533268   0.0000000), wk =   0.0277778
        k(   18) = (  -0.0923648  -0.0177756   0.0000000), wk =   0.0555556
        k(   19) = (  -0.0923648   0.0177756   0.0000000), wk =   0.0555556
        k(   20) = (  -0.0923648  -0.1599805   0.0000000), wk =   0.0277778
        k(   21) = (   0.0000000   0.0000000   0.0000000), wk =   0.0277778
        k(   22) = (   0.0000000   0.0355512   0.0000000), wk =   0.0555556
        k(   23) = (   0.0000000   0.0711024   0.0000000), wk =   0.0555556
        k(   24) = (   0.0000000  -0.1066537   0.0000000), wk =   0.0277778
        k(   25) = (   0.0307883   0.0177756   0.0000000), wk =   0.0555556
        k(   26) = (   0.0307883   0.0533268   0.0000000), wk =   0.0555556
        k(   27) = (   0.0307883   0.0888780   0.0000000), wk =   0.0555556
        k(   28) = (   0.0307883  -0.0888780   0.0000000), wk =   0.0555556
        k(   29) = (   0.0307883  -0.0533268   0.0000000), wk =   0.0555556
        k(   30) = (   0.0307883  -0.0177756   0.0000000), wk =   0.0555556
        k(   31) = (   0.0615765   0.0355512   0.0000000), wk =   0.0555556
        k(   32) = (   0.0615765   0.0711024   0.0000000), wk =   0.0555556
        k(   33) = (   0.0615765   0.1066537   0.0000000), wk =   0.0555556
        k(   34) = (   0.0615765  -0.0711024   0.0000000), wk =   0.0555556
        k(   35) = (   0.0615765  -0.0355512   0.0000000), wk =   0.0555556
        k(   36) = (   0.0615765   0.0000000   0.0000000), wk =   0.0555556
        k(   37) = (  -0.0923648  -0.0533268   0.0000000), wk =   0.0277778
        k(   38) = (  -0.0923648  -0.0177756   0.0000000), wk =   0.0555556
        k(   39) = (  -0.0923648   0.0177756   0.0000000), wk =   0.0555556
        k(   40) = (  -0.0923648  -0.1599805   0.0000000), wk =   0.0277778

     Largest allocated arrays     est. size (Mb)     dimensions
     Largest temporary arrays     est. size (Mb)     dimensions

     Check: negative/imaginary core charge=   -0.000006    0.000000

     Initial potential from superposition of free atoms
     Check: negative starting charge=(component1):   -0.000128

     starting charge  167.99274, renormalised to  177.00000

[...]

     *
     * You are using vdW-DF for exchange-correlation in this calculation.
     * Please cite the following three references that made this development
     * possible:
     *
     *   M. Dion, H. Rydberg, E. Schroder, D. C. Langreth, and
     *   B. I. Lundqvist, Phys. Rev. Lett. 92, 246401 (2004).
     *
     *   T. Thonhauser, V. R. Cooper, S. Li, A. Puzder, P. Hyldgaard, and
     *   D. C. Langreth, Phys. Rev. B 76, 125112 (2007).
     *
     *   G. Roman-Perez and J. M. Soler, Phys. Rev. Lett. 103, 096102 (2009).
     *
     *
     * If you are using vdW-DF2, please also cite:
     *
     *   K. Lee, E. D. Murray, L. Kong, B. I. Lundqvist, and
     *   D. C. Langreth, Phys. Rev. B 82, 081101(R) (2010).
     *
     *
     * If you are calculating the stress with vdW-DF, please also cite:
     *
     *   R. Sabatini, E. Kucukbenli, B. Kolb, T. Thonhauser, and
     *   S. de Gironcoli, J. Phys.: Condens. Matter 24, 424209 (2012).
     *

     Carrying out vdW-DF run using the following parameters:

     Nqs =      20    Nr_points =    1024   r_max =   100.000
     q_mesh =
               0.00001000     0.04494208     0.09755937     0.15916263
               0.23128650     0.31572767     0.41458969     0.53033537
               0.66584808     0.82450364     1.01025438     1.22772762
               1.48234092     1.78043706     2.12944203     2.53805004
               3.01644009     3.57652955     4.23227104     5.00000000

     Gradients computed in reciprocal space

[...]

     Starting wfc are  156 randomized atomic wfcs

     Self-consistent Calculation

[...]

     total energy              =   -2546.40799187 Ry
     Harris-Foulkes estimate   =   -2546.40798740 Ry
     estimated scf accuracy    <       0.00000153 Ry

[...]

     iteration # 30     ecut=    36.75 Ry     beta=0.10
     Davidson diagonalization with overlap
     ethr =  8.66E-10,  avg # of iterations =  3.0

[...]

     negative rho (up, down):  2.429E-04 6.019E-04

[...]

     Adding external electric field

     Computed dipole along edir(3) :
        Dipole                0.1151 Ry au,          0.2925 Debye
        Dipole field          0.0003 Ry au

        Potential amp.       -0.0311 Ry
        Total length         44.9934 bohr

     Magnetic moment per site:
     atom:    1    charge:    7.0915    magn:    1.2343    constr:    0.0000
     atom:    2    charge:    7.0917    magn:    1.2342    constr:    0.0000
     atom:    3    charge:    7.0916    magn:    1.2342    constr:    0.0000
     atom:    4    charge:    2.4097    magn:   -0.0662    constr:    0.0000
     atom:    5    charge:    7.0714    magn:    1.2122    constr:    0.0000
     atom:    6    charge:    7.0714    magn:    1.2122    constr:    0.0000
     atom:    7    charge:    7.0714    magn:    1.2122    constr:    0.0000
     atom:    8    charge:    2.4031    magn:   -0.0557    constr:    0.0000
     atom:    9    charge:    7.0855    magn:    1.1967    constr:    0.0000
     atom:   10    charge:    7.0854    magn:    1.1968    constr:    0.0000
     atom:   11    charge:    7.0854    magn:    1.1968    constr:    0.0000
     atom:   12    charge:    2.4046    magn:   -0.0651    constr:    0.0000

     End of self-consistent calculation

 ------ SPIN UP ------------

[...]

 ------ SPIN DOWN ----------

[...]

          k = 0.0616 0.0000 0.0000 ( 15728 PWs)   bands (ev):

[...]

          k =-0.0924-0.1600 0.0000 ( 15764 PWs)   bands (ev):

   -84.4024 -84.3966 -84.3909 -84.3101 -84.2947 -84.2917 -84.2896 -84.2892
   -84.2843 -50.5757 -50.5409 -50.5387 -50.5346 -50.5284 -50.5222 -50.5140
   -50.4932 -50.4793 -50.4697 -50.4578 -50.4482 -50.4413 -50.4359 -50.4072
   -50.4001 -50.3970 -50.3818 -50.3694 -50.3668 -50.3499 -50.3476 -50.3423
   -50.3260 -50.3194 -50.3049 -50.2953 -48.9121 -48.4743 -47.9859 -27.6110
   -27.4853 -27.4805 -27.1708 -27.1059 -27.0990 -26.6770 -26.6698 -26.6637
    -4.0789  -3.8603  -2.5225  -2.3353  -1.6683  -1.5596  -1.1628  -1.1551
    -0.9356  -0.8660  -0.5285  -0.4181  -0.3057  -0.2734  -0.2002  -0.0728
     0.0768   0.1025   0.1236   0.1351   0.2078   0.2923   0.4498   0.4987
     0.5874   0.5898   0.6333   0.6438   0.7826   0.8102   0.8623   1.0714
     1.0901   1.1117   1.3207   1.4012   1.5440   1.5475   1.5747   1.6712
     1.7751   1.8244   1.9624   1.9814   2.0572   2.1289   2.1939   2.2014
     2.3303   2.4963   2.5316   2.5479   2.7492   2.8193   3.1214   3.1592
     3.3065   3.4676   3.4832   3.6789   3.7696   3.8365   3.8991   3.9661
     4.0526   4.2455   4.6033   5.0989   5.3898   5.5748

     the Fermi energy is     1.0452 ev

!    total energy              =   -2546.40799956 Ry
     Harris-Foulkes estimate   =   -2546.40799320 Ry
     estimated scf accuracy    <       0.00000072 Ry

     The total energy is the sum of the following terms:

     one-electron contribution =  -19773.75599612 Ry
     hartree contribution      =    9883.47612122 Ry
     xc contribution           =    -314.39231445 Ry
     ewald contribution        =    7658.35400275 Ry
     electric field correction =       0.00003980 Ry
     smearing contrib. (-TS)   =      -0.08985276 Ry

     total magnetization       =    21.08 Bohr mag/cell
     absolute magnetization    =    25.54 Bohr mag/cell

     convergence has been achieved in  30 iterations

 BEEF-vdW xc energy contributions
           1 :   -274.062665297750
           2 :    246.963556985710
           3 :   -202.057389499151
           4 :    153.167603174436
           5 :   -112.263148664275
           6 :    84.9890408640625
           7 :   -70.0876657908282
           8 :    62.1494598084920
           9 :   -55.5538372489228
          10 :    47.3035859683204
          11 :   -37.6061842299213
          12 :    28.5066803144527
          13 :   -21.9026194006386
          14 :    18.2576873176860
          15 :   -16.5930857677266
          16 :    15.3954414139849
          17 :   -13.6386477463165
          18 :    11.2392133616431
          19 :   -8.81111008331209
          20 :    7.04727462045298
          21 :   -6.22304241990213
          22 :    6.08986256963021
          23 :   -6.12135351475700
          24 :    5.86014695053672
          25 :   -5.14772133948907
          26 :    4.13862991443671
          27 :   -3.15555817203807
          28 :    2.49073831652390
          29 :   -2.26268755855227
          30 :    2.37094617841234
          31 :   -25.1774831508944
          32 :   -17.7826452546944

     Forces acting on atoms (Ry/au):

     negative rho (up, down):  2.429E-04 6.019E-04
     atom    1 type  1   force =    -0.00000708   -0.01594921    0.01426721
     atom    2 type  1   force =    -0.01380807    0.00797218    0.01427343
     atom    3 type  1   force =     0.01381064    0.00798108    0.01427546
     atom    4 type  2   force =     0.00000721   -0.00000489   -0.03122074
     atom    5 type  1   force =     0.00000271    0.01787370    0.00049722
     atom    6 type  1   force =     0.01551620   -0.00891588    0.00044402
     atom    7 type  1   force =    -0.01551329   -0.00891784    0.00045785
     atom    8 type  2   force =     0.00000082   -0.00003024   -0.01094847
     atom    9 type  1   force =    -0.00001921   -0.00015937   -0.00056190
     atom   10 type  1   force =    -0.00014421    0.00007789   -0.00056402
     atom   11 type  1   force =     0.00012619    0.00008911   -0.00059054
     atom   12 type  2   force =     0.00002807   -0.00001654   -0.00032952

     Total force =     0.058570     Total SCF correction =     0.002521

     entering subroutine stress ...

     negative rho (up, down):  2.429E-04 6.019E-04
          total   stress  (Ry/bohr**3)                   (kbar)     P=   -9.26
  -0.00008190  -0.00000000   0.00000000        -12.05     -0.00      0.00
  -0.00000000  -0.00008189   0.00000000         -0.00    -12.05      0.00
   0.00000000   0.00000000  -0.00002497          0.00      0.00     -3.67

 !ASE

     Writing output data file calc.save

     General routines

     Parallel routines

   This run was terminated on:   2:49:23  26Dec2018

   JOB DONE.
Job  /afs/slac/g/suncat/bin/suncat-tsmpirun -x LD_LIBRARY_PATH -wdir /scratch/qe109643_6BHH9 pw.x -in pw.inp

TID   HOST_NAME   COMMAND_LINE            STATUS            TERMINATION_TIME
00000 suncat0025 pw.x -in pw.inp   Done                     12/26/2018 02:49:23
00001 suncat0025 pw.x -in pw.inp   Done                     12/26/2018 02:49:23
00002 suncat0025 pw.x -in pw.inp   Done                     12/26/2018 02:49:23
00003 suncat0025 pw.x -in pw.inp   Done                     12/26/2018 02:49:23
00004 suncat0025 pw.x -in pw.inp   Done                     12/26/2018 02:49:23
00005 suncat0025 pw.x -in pw.inp   Done                     12/26/2018 02:49:23
00006 suncat0025 pw.x -in pw.inp   Done                     12/26/2018 02:49:23
00007 suncat0025 pw.x -in pw.inp   Done                     12/26/2018 02:49:23
00008 suncat0013 pw.x -in pw.inp   Done                     12/26/2018 02:49:23
00009 suncat0013 pw.x -in pw.inp   Done                     12/26/2018 02:49:23
00010 suncat0013 pw.x -in pw.inp   Done                     12/26/2018 02:49:23
00011 suncat0013 pw.x -in pw.inp   Done                     12/26/2018 02:49:23
00012 suncat0013 pw.x -in pw.inp   Done                     12/26/2018 02:49:23
00013 suncat0013 pw.x -in pw.inp   Done                     12/26/2018 02:49:23
00014 suncat0013 pw.x -in pw.inp   Done                     12/26/2018 02:49:23
00015 suncat0013 pw.x -in pw.inp   Done                     12/26/2018 02:49:23
00016 suncat0008 pw.x -in pw.inp   Done                     12/26/2018 02:49:23
00017 suncat0008 pw.x -in pw.inp   Done                     12/26/2018 02:49:23
00018 suncat0008 pw.x -in pw.inp   Done                     12/26/2018 02:49:23
00019 suncat0008 pw.x -in pw.inp   Done                     12/26/2018 02:49:23
00020 suncat0008 pw.x -in pw.inp   Done                     12/26/2018 02:49:23
00021 suncat0008 pw.x -in pw.inp   Done                     12/26/2018 02:49:23
00022 suncat0008 pw.x -in pw.inp   Done                     12/26/2018 02:49:23
00023 suncat0008 pw.x -in pw.inp   Done                     12/26/2018 02:49:23
00024 suncat0001 pw.x -in pw.inp   Done                     12/26/2018 02:49:23
00025 suncat0001 pw.x -in pw.inp   Done                     12/26/2018 02:49:23
00026 suncat0001 pw.x -in pw.inp   Done                     12/26/2018 02:49:23
00027 suncat0001 pw.x -in pw.inp   Done                     12/26/2018 02:49:23
00028 suncat0001 pw.x -in pw.inp   Done                     12/26/2018 02:49:23
00029 suncat0001 pw.x -in pw.inp   Done                     12/26/2018 02:49:23
00030 suncat0001 pw.x -in pw.inp   Done                     12/26/2018 02:49:23
00031 suncat0001 pw.x -in pw.inp   Done                     12/26/2018 02:49:23
00032 suncat0184 pw.x -in pw.inp   Done                     12/26/2018 02:49:23
00033 suncat0184 pw.x -in pw.inp   Done                     12/26/2018 02:49:23
00034 suncat0184 pw.x -in pw.inp   Done                     12/26/2018 02:49:23
00035 suncat0184 pw.x -in pw.inp   Done                     12/26/2018 02:49:23
00036 suncat0184 pw.x -in pw.inp   Done                     12/26/2018 02:49:23
00037 suncat0184 pw.x -in pw.inp   Done                     12/26/2018 02:49:23
00038 suncat0184 pw.x -in pw.inp   Done                     12/26/2018 02:49:23
00039 suncat0184 pw.x -in pw.inp   Done                     12/26/2018 02:49:23
00040 suncat0142 pw.x -in pw.inp   Done                     12/26/2018 02:49:23
00041 suncat0142 pw.x -in pw.inp   Done                     12/26/2018 02:49:23
00042 suncat0142 pw.x -in pw.inp   Done                     12/26/2018 02:49:23
00043 suncat0142 pw.x -in pw.inp   Done                     12/26/2018 02:49:23
00044 suncat0142 pw.x -in pw.inp   Done                     12/26/2018 02:49:23
00045 suncat0142 pw.x -in pw.inp   Done                     12/26/2018 02:49:23
00046 suncat0142 pw.x -in pw.inp   Done                     12/26/2018 02:49:23
00047 suncat0142 pw.x -in pw.inp   Done                     12/26/2018 02:49:23
00048 suncat0117 pw.x -in pw.inp   Done                     12/26/2018 02:49:23
00049 suncat0117 pw.x -in pw.inp   Done                     12/26/2018 02:49:23
00050 suncat0117 pw.x -in pw.inp   Done                     12/26/2018 02:49:23
00051 suncat0117 pw.x -in pw.inp   Done                     12/26/2018 02:49:23
00052 suncat0117 pw.x -in pw.inp   Done                     12/26/2018 02:49:23
00053 suncat0117 pw.x -in pw.inp   Done                     12/26/2018 02:49:23
00054 suncat0117 pw.x -in pw.inp   Done                     12/26/2018 02:49:23
00055 suncat0117 pw.x -in pw.inp   Done                     12/26/2018 02:49:23
00056 suncat0116 pw.x -in pw.inp   Done                     12/26/2018 02:49:23
00057 suncat0116 pw.x -in pw.inp   Done                     12/26/2018 02:49:23
00058 suncat0116 pw.x -in pw.inp   Done                     12/26/2018 02:49:23
00059 suncat0116 pw.x -in pw.inp   Done                     12/26/2018 02:49:23
00060 suncat0116 pw.x -in pw.inp   Done                     12/26/2018 02:49:23
00061 suncat0116 pw.x -in pw.inp   Done                     12/26/2018 02:49:23
00062 suncat0116 pw.x -in pw.inp   Done                     12/26/2018 02:49:23
00063 suncat0116 pw.x -in pw.inp   Done                     12/26/2018 02:49:23