     Program PWSCF v.5.1rc2 (svn rev. 11289) starts on 19Dec2018 at 15: 8: 5

     Current dimensions of program PWSCF are:
     Max number of different atomic species (ntypx) = 10
     Max number of k-points (npk) =  40000
     Max angular momentum in pseudopotentials (lmaxx) =  3
     Presently stress not available with electric field

     IMPORTANT: XC functional enforced from input :
     Exchange-correlation      = BEEF-VDW ( 1  4 27 13 2)
     Any further DFT definition will be discarded
     Please, verify this is what you really want

     Subspace diagonalization in iterative solution of the eigenvalue problem:
     a serial algorithm will be used

     bravais-lattice index     =            0
     lattice parameter (alat)  =       1.8897  a.u.
     unit-cell volume          =    4840.2398 (a.u.)^3
     number of atoms/cell      =           12
     number of atomic types    =            2
     number of electrons       =       219.00
     number of Kohn-Sham states=          139
     kinetic-energy cutoff     =      36.7493  Ry
     charge density cutoff     =     367.4932  Ry
     convergence threshold     =      1.0E-06
     mixing beta               =       0.1000
     number of iterations used =           10  plain     mixing
     Exchange-correlation      = BEEF-VDW ( 1  4 27 13 2)
     nstep                     =           50

     celldm(1)=   1.889726  celldm(2)=   0.000000  celldm(3)=   0.000000
     celldm(4)=   0.000000  celldm(5)=   0.000000  celldm(6)=   0.000000

     crystal axes: (cart. coord. in units of alat)
               a(1) = (   5.787579   0.000000   0.000000 )
               a(2) = (  -2.893790   5.012191   0.000000 )
               a(3) = (   0.000000   0.000000  24.725539 )

     reciprocal axes: (cart. coord. in units 2 pi/alat)
               b(1) = (  0.172784  0.099757  0.000000 )
               b(2) = (  0.000000  0.199514  0.000000 )
               b(3) = (  0.000000  0.000000  0.040444 )

     PseudoPot. # 1 for Ag read from file:
     /afs/slac.stanford.edu/u/if/mamunm/psp/gbrv1.5pbe/Ag.UPF
     MD5 check sum: d66d668201baa78d5eb5b04ef7011058
     Pseudo is Ultrasoft + core correction, Zval = 19.0
     Generated by new atomic code, or converted to UPF format
     Using radial grid of  887 points,  6 beta functions with:
                l(1) =   0
                l(2) =   0
                l(3) =   1
                l(4) =   1
                l(5) =   2
                l(6) =   2
     Q(r) pseudized with  6 coefficients,  rinner =    1.300   1.300   1.300
                                                       1.300   1.300

     PseudoPot. # 2 for Os read from file:
     /afs/slac.stanford.edu/u/if/mamunm/psp/gbrv1.5pbe/Os.UPF
     MD5 check sum: a3fb40a04f0c37c25c34bbc47164c9a8
     Pseudo is Ultrasoft + core correction, Zval = 16.0
     Generated by new atomic code, or converted to UPF format
     Using radial grid of  983 points,  8 beta functions with:
                l(1) =   0
                l(2) =   0
                l(3) =   1
                l(4) =   1
                l(5) =   2
                l(6) =   2
                l(7) =   3
                l(8) =   3
     Q(r) pseudized with  8 coefficients,  rinner =    1.150   1.150   1.150
                                                       1.150   1.150   1.150
                                                       1.150

     vdW kernel table read from file vdW_kernel_table
     MD5 check sum: 095c7af220d748ca6e76c0b4c6cfb241

     atomic species   valence    mass     pseudopotential
        Ag1           19.00   107.86820     Ag( 1.00)
        Os1           16.00   190.23000     Os( 1.00)

     No symmetry found

   Cartesian axes

     site n.     atom                  positions (alat units)
         1           Ag1 tau(   1) = (   0.0000000   0.0000000  10.0000000  )
         2           Ag1 tau(   2) = (  -1.4468948   2.5060953  10.0000000  )
         3           Ag1 tau(   3) = (   1.4468948   2.5060953  10.0000000  )
         4           Os1 tau(   4) = (   2.8937896   0.0000000  10.0000000  )
         5           Ag1 tau(   5) = (   2.8937896   1.6707302  12.3627693  )
         6           Ag1 tau(   6) = (   1.4468948   4.1768255  12.3627693  )
         7           Ag1 tau(   7) = (  -1.4468948   4.1768255  12.3627693  )
         8           Os1 tau(   8) = (   0.0000000   1.6707302  12.3627693  )
         9           Ag1 tau(   9) = (  -0.0000000   3.3414604  14.7255386  )
        10           Ag1 tau(  10) = (   1.4468948   0.8353651  14.7255386  )
        11           Ag1 tau(  11) = (   4.3406844   0.8353651  14.7255386  )
        12           Os1 tau(  12) = (   2.8937896   3.3414604  14.7255386  )

     number of k points=    20  Fermi-Dirac smearing, width (Ry)=  0.0110
                       cart. coord. in units 2pi/alat
        k(    1) = (   0.0000000   0.0000000   0.0000000), wk =   0.0555556
        k(    2) = (   0.0000000   0.0332523   0.0000000), wk =   0.1111111
        k(    3) = (   0.0000000   0.0665045   0.0000000), wk =   0.1111111
        k(    4) = (   0.0000000  -0.0997568   0.0000000), wk =   0.0555556
        k(    5) = (   0.0287973   0.0166261   0.0000000), wk =   0.1111111
        k(    6) = (   0.0287973   0.0498784   0.0000000), wk =   0.1111111
        k(    7) = (   0.0287973   0.0831307   0.0000000), wk =   0.1111111
        k(    8) = (   0.0287973  -0.0831307   0.0000000), wk =   0.1111111
        k(    9) = (   0.0287973  -0.0498784   0.0000000), wk =   0.1111111
        k(   10) = (   0.0287973  -0.0166261   0.0000000), wk =   0.1111111
        k(   11) = (   0.0575946   0.0332523   0.0000000), wk =   0.1111111
        k(   12) = (   0.0575946   0.0665045   0.0000000), wk =   0.1111111
        k(   13) = (   0.0575946   0.0997568   0.0000000), wk =   0.1111111
        k(   14) = (   0.0575946  -0.0665045   0.0000000), wk =   0.1111111
        k(   15) = (   0.0575946  -0.0332523   0.0000000), wk =   0.1111111
        k(   16) = (   0.0575946   0.0000000   0.0000000), wk =   0.1111111
        k(   17) = (  -0.0863919  -0.0498784   0.0000000), wk =   0.0555556
        k(   18) = (  -0.0863919  -0.0166261   0.0000000), wk =   0.1111111
        k(   19) = (  -0.0863919   0.0166261   0.0000000), wk =   0.1111111
        k(   20) = (  -0.0863919  -0.1496352   0.0000000), wk =   0.0555556

     Largest allocated arrays     est. size (Mb)     dimensions
     Largest temporary arrays     est. size (Mb)     dimensions

     Initial potential from superposition of free atoms
     Check: negative starting charge=   -0.375511

     starting charge  212.99946, renormalised to  219.00000

     negative rho (up, down):  3.861E-01 0.000E+00

     *
     * You are using vdW-DF for exchange-correlation in this calculation.
     * Please cite the following three references that made this development
     * possible:
     *
     *   M. Dion, H. Rydberg, E. Schroder, D. C. Langreth, and
     *   B. I. Lundqvist, Phys. Rev. Lett. 92, 246401 (2004).
     *
     *   T. Thonhauser, V. R. Cooper, S. Li, A. Puzder, P. Hyldgaard, and
     *   D. C. Langreth, Phys. Rev. B 76, 125112 (2007).
     *
     *   G. Roman-Perez and J. M. Soler, Phys. Rev. Lett. 103, 096102 (2009).
     *
     *
     * If you are using vdW-DF2, please also cite:
     *
     *   K. Lee, E. D. Murray, L. Kong, B. I. Lundqvist, and
     *   D. C. Langreth, Phys. Rev. B 82, 081101(R) (2010).
     *
     *
     * If you are calculating the stress with vdW-DF, please also cite:
     *
     *   R. Sabatini, E. Kucukbenli, B. Kolb, T. Thonhauser, and
     *   S. de Gironcoli, J. Phys.: Condens. Matter 24, 424209 (2012).
     *

     Carrying out vdW-DF run using the following parameters:

     Nqs =      20    Nr_points =    1024   r_max =   100.000
     q_mesh =
               0.00001000     0.04494208     0.09755937     0.15916263
               0.23128650     0.31572767     0.41458969     0.53033537
               0.66584808     0.82450364     1.01025438     1.22772762
               1.48234092     1.78043706     2.12944203     2.53805004
               3.01644009     3.57652955     4.23227104     5.00000000

     Gradients computed in reciprocal space

     Adding external electric field

     Computed dipole along edir(3) :
        Dipole                0.0000 Ry au,          0.0000 Debye
        Dipole field          0.0000 Ry au

        Potential amp.       -0.0000 Ry
        Total length         45.5564 bohr

     Starting wfc are  156 randomized atomic wfcs

     Self-consistent Calculation

     iteration #  1     ecut=    36.75 Ry     beta=0.10
     Davidson diagonalization with overlap
     ethr =  1.00E-02,  avg # of iterations =  6.8

[...]

     total energy              =   -3267.36114231 Ry
     Harris-Foulkes estimate   =   -3273.08893879 Ry
     estimated scf accuracy    <      32.60075184 Ry

[...]

     End of self-consistent calculation

          k = 0.0000 0.0000 0.0000 ( 18211 PWs)   bands (ev):

   -90.3583 -90.3500 -90.3500 -90.2560 -90.2558 -90.2478 -90.2478 -90.2477
   -90.2477 -84.0957 -83.8619 -83.8618 -53.8876 -53.8864 -53.8863 -53.8588
   -53.8521 -53.8521 -53.8377 -53.8078 -53.8065 -53.7943 -53.7943 -53.7929
   -53.7929 -53.7716 -53.7716 -53.7458 -53.7439 -53.7162 -53.7162 -53.7141
   -53.7141 -53.7073 -53.6953 -53.6848 -53.6848 -53.6809 -53.6809 -43.4766
   -43.3672 -43.3672 -43.1820 -43.1820 -43.1817 -43.1817 -43.1627 -43.1616
    -5.4088  -4.4549  -4.3528  -4.2910  -4.1469  -4.1197  -4.1197  -4.0118
    -3.9927  -3.9601  -3.9601  -3.9000  -3.9000  -3.7177  -3.7177  -3.2880
    -3.0382  -3.0382  -3.0212  -3.0212  -2.8073  -2.7603  -2.7504  -2.5823
    -2.5822  -2.5216  -2.5216  -2.4225  -2.4225  -2.2966  -2.2966  -2.2965
    -2.1401  -2.1401  -2.0610  -1.8982  -1.8982  -1.8193  -1.8193  -1.6009
    -1.6009  -1.4616  -1.3275  -1.3275  -1.2197  -1.1324  -1.0907  -0.1645
     0.2963   0.8061   0.9649   0.9649   1.0613   1.0613   1.0952   1.0952
     1.2636   1.2636   1.6031   1.6031   1.7012   1.8947   1.8947   2.2224
     2.6916   2.7292   2.7292   3.9068   3.9068   3.9415   4.0709   4.0709
     4.1511   5.4956   5.8773   6.0102   6.3262   6.6450   7.0336   7.0336
     7.1932   7.2075   7.2075   7.5333   7.9269   8.2259   8.2259   9.5154
     9.8365  10.0334  10.2803

[...]

          k =-0.0864-0.0499 0.0000 ( 18200 PWs)   bands (ev):

[...]

     the Fermi energy is     1.4916 ev

!    total energy              =   -3268.50129193 Ry
     Harris-Foulkes estimate   =   -3268.50239057 Ry
     estimated scf accuracy    <       0.00000050 Ry

     The total energy is the sum of the following terms:

     one-electron contribution =  -25085.81858291 Ry
     hartree contribution      =   12533.69877504 Ry
     xc contribution           =    -386.56009724 Ry
     ewald contribution        =    9670.26252104 Ry
     electric field correction =       0.00000000 Ry
     smearing contrib. (-TS)   =      -0.08390786 Ry

     convergence has been achieved in  16 iterations

 BEEF-vdW xc energy contributions
           1 :   -336.117339775202
           2 :    306.555623178552
           3 :   -256.343904092685
           4 :    199.373553308770
[...]
                l(1) =   0
                l(2) =   0
                l(3) =   1
                l(4) =   1
                l(5) =   2
                l(6) =   2
     Q(r) pseudized with  6 coefficients,  rinner =    1.300   1.300   1.300
                                                       1.300   1.300

     PseudoPot. # 2 for Os read from file:
     /afs/slac.stanford.edu/u/if/mamunm/psp/gbrv1.5pbe/Os.UPF
     MD5 check sum: a3fb40a04f0c37c25c34bbc47164c9a8
     Pseudo is Ultrasoft + core correction, Zval = 16.0
     Generated by new atomic code, or converted to UPF format
     Using radial grid of  983 points,  8 beta functions with:
                l(1) =   0
                l(2) =   0
                l(3) =   1
                l(4) =   1
                l(5) =   2
                l(6) =   2
                l(7) =   3
                l(8) =   3
     Q(r) pseudized with  8 coefficients,  rinner =    1.150   1.150   1.150
                                                       1.150   1.150   1.150
                                                       1.150

     vdW kernel table read from file vdW_kernel_table
     MD5 check sum: 095c7af220d748ca6e76c0b4c6cfb241

     atomic species   valence    mass     pseudopotential
        Ag1           19.00   107.86820     Ag( 1.00)
        Os1           16.00   190.23000     Os( 1.00)

     No symmetry found

   Cartesian axes

     site n.     atom                  positions (alat units)
         1           Ag1 tau(   1) = (   0.0000000   0.0000000  10.0000000  )
         2           Ag1 tau(   2) = (  -1.4468948   2.5060953  10.0000000  )
         3           Ag1 tau(   3) = (   1.4468948   2.5060953  10.0000000  )
         4           Os1 tau(   4) = (   2.8937896   0.0000000  10.0000000  )
         5           Ag1 tau(   5) = (   2.8937896   1.6707302  12.3627693  )
         6           Ag1 tau(   6) = (   1.4468948   4.1768255  12.3627693  )
         7           Ag1 tau(   7) = (  -1.4468948   4.1768255  12.3627693  )
         8           Os1 tau(   8) = (   0.0000000   1.6707302  12.3627693  )
         9           Ag1 tau(   9) = (  -0.0000009   3.3347237  14.7974176  )
        10           Ag1 tau(  10) = (   1.4410600   0.8387329  14.7974162  )
        11           Ag1 tau(  11) = (   4.3465209   0.8387331  14.7974164  )
        12           Os1 tau(  12) = (   2.8937893   3.3414573  14.5638357  )

     number of k points=    20  Fermi-Dirac smearing, width (Ry)=  0.0110
                       cart. coord. in units 2pi/alat
        k(    1) = (   0.0000000   0.0000000   0.0000000), wk =   0.0555556
        k(    2) = (   0.0000000   0.0332523   0.0000000), wk =   0.1111111
        k(    3) = (   0.0000000   0.0665045   0.0000000), wk =   0.1111111
        k(    4) = (   0.0000000  -0.0997568   0.0000000), wk =   0.0555556
        k(    5) = (   0.0287973   0.0166261   0.0000000), wk =   0.1111111
        k(    6) = (   0.0287973   0.0498784   0.0000000), wk =   0.1111111
        k(    7) = (   0.0287973   0.0831307   0.0000000), wk =   0.1111111
        k(    8) = (   0.0287973  -0.0831307   0.0000000), wk =   0.1111111
        k(    9) = (   0.0287973  -0.0498784   0.0000000), wk =   0.1111111
        k(   10) = (   0.0287973  -0.0166261   0.0000000), wk =   0.1111111
        k(   11) = (   0.0575946   0.0332523   0.0000000), wk =   0.1111111
        k(   12) = (   0.0575946   0.0665045   0.0000000), wk =   0.1111111
        k(   13) = (   0.0575946   0.0997568   0.0000000), wk =   0.1111111
        k(   14) = (   0.0575946  -0.0665045   0.0000000), wk =   0.1111111
        k(   15) = (   0.0575946  -0.0332523   0.0000000), wk =   0.1111111
        k(   16) = (   0.0575946   0.0000000   0.0000000), wk =   0.1111111
        k(   17) = (  -0.0863919  -0.0498784   0.0000000), wk =   0.0555556
        k(   18) = (  -0.0863919  -0.0166261   0.0000000), wk =   0.1111111
        k(   19) = (  -0.0863919   0.0166261   0.0000000), wk =   0.1111111
        k(   20) = (  -0.0863919  -0.1496352   0.0000000), wk =   0.0555556

     Largest allocated arrays     est. size (Mb)     dimensions
     Largest temporary arrays     est. size (Mb)     dimensions

     Initial potential from superposition of free atoms
     Check: negative starting charge=   -0.375368

     starting charge  212.99946, renormalised to  219.00000

[...]

     *
     * You are using vdW-DF for exchange-correlation in this calculation.
     * Please cite the following three references that made this development
     * possible:
     *
     *   M. Dion, H. Rydberg, E. Schroder, D. C. Langreth, and
     *   B. I. Lundqvist, Phys. Rev. Lett. 92, 246401 (2004).
     *
     *   T. Thonhauser, V. R. Cooper, S. Li, A. Puzder, P. Hyldgaard, and
     *   D. C. Langreth, Phys. Rev. B 76, 125112 (2007).
     *
     *   G. Roman-Perez and J. M. Soler, Phys. Rev. Lett. 103, 096102 (2009).
     *
     *
     * If you are using vdW-DF2, please also cite:
     *
     *   K. Lee, E. D. Murray, L. Kong, B. I. Lundqvist, and
     *   D. C. Langreth, Phys. Rev. B 82, 081101(R) (2010).
     *
     *
     * If you are calculating the stress with vdW-DF, please also cite:
     *
     *   R. Sabatini, E. Kucukbenli, B. Kolb, T. Thonhauser, and
     *   S. de Gironcoli, J. Phys.: Condens. Matter 24, 424209 (2012).
     *

     Carrying out vdW-DF run using the following parameters:

     Nqs =      20    Nr_points =    1024   r_max =   100.000
     q_mesh =
               0.00001000     0.04494208     0.09755937     0.15916263
               0.23128650     0.31572767     0.41458969     0.53033537
               0.66584808     0.82450364     1.01025438     1.22772762
               1.48234092     1.78043706     2.12944203     2.53805004
               3.01644009     3.57652955     4.23227104     5.00000000

     Gradients computed in reciprocal space

[...]

     Starting wfc are  156 randomized atomic wfcs

     Self-consistent Calculation

[...]

     total energy              =   -3268.51151875 Ry
     Harris-Foulkes estimate   =   -3268.51151902 Ry
     estimated scf accuracy    <       0.00000582 Ry

     iteration # 18     ecut=    36.75 Ry     beta=0.10
     Davidson diagonalization with overlap
     ethr =  2.33E-09,  avg # of iterations =  1.2

[...]

     negative rho (up, down):  3.486E-01 0.000E+00

     Adding external electric field

     Computed dipole along edir(3) :
        Dipole                0.0120 Ry au,          0.0306 Debye
        Dipole field          0.0000 Ry au

        Potential amp.       -0.0028 Ry
        Total length         45.5564 bohr

     End of self-consistent calculation

[...]

          k = 0.0576 0.0000 0.0000 ( 18221 PWs)   bands (ev):

[...]

          k =-0.0864-0.1496 0.0000 ( 18200 PWs)   bands (ev):

   -90.3757 -90.3729 -90.3701 -90.2449 -90.2422 -90.2395 -90.1980 -90.1952
   -90.1924 -84.1018 -83.8896 -83.8519 -53.9096 -53.8895 -53.8864 -53.8821
   -53.8772 -53.8649 -53.8432 -53.8259 -53.7957 -53.7861 -53.7615 -53.7565
   -53.7548 -53.7437 -53.7407 -53.7187 -53.7126 -53.7111 -53.7098 -53.6948
   -53.6882 -53.6836 -53.6749 -53.6621 -53.6400 -53.6355 -53.6292 -43.4772
   -43.3731 -43.3720 -43.2110 -43.2101 -43.1990 -43.1747 -43.1736 -43.1492
    -4.1908  -4.1294  -3.8837  -3.7962  -3.7510  -3.6247  -3.5628  -3.5297
    -3.5142  -3.5017  -3.4794  -3.4340  -3.2565  -3.2299  -3.2003  -3.1296
    -3.0993  -3.0430  -2.9826  -2.8707  -2.7429  -2.7269  -2.6805  -2.6477
    -2.5938  -2.5774  -2.5594  -2.5227  -2.4108  -2.4091  -2.3831  -2.3823
    -2.3573  -2.3228  -2.2148  -2.1974  -2.1945  -2.1497  -2.1019  -2.0751
    -2.0220  -1.9760  -1.9564  -1.7522  -1.7336  -1.6124  -1.4184  -1.2235
    -0.8042  -0.6865   0.0174   0.1181   0.7061   0.7476   0.7583   0.8673
     0.8995   0.9342   0.9714   1.1043   1.1065   1.2325   1.3575   1.8407
     2.0688   2.5404   2.7814   3.5504   3.7157   4.1528   5.0346   5.2470
     5.7368   5.8761   6.8805   6.9021   7.4775   7.4966   7.6278   7.6376
     8.0850   8.4224   8.6479   8.6754   8.6891   8.7830   8.8260   9.1576
     9.1778   9.2389   9.6068

     the Fermi energy is     1.4935 ev

!    total energy              =   -3268.51151847 Ry
     Harris-Foulkes estimate   =   -3268.51151895 Ry
     estimated scf accuracy    <       0.00000040 Ry

     The total energy is the sum of the following terms:

     one-electron contribution =  -25010.61368439 Ry
     hartree contribution      =   12496.17436872 Ry
     xc contribution           =    -386.56274823 Ry
     ewald contribution        =    9632.57262837 Ry
     electric field correction =       0.00000038 Ry
     smearing contrib. (-TS)   =      -0.08208331 Ry

     convergence has been achieved in  18 iterations

 BEEF-vdW xc energy contributions
           1 :   -336.170943021300
           2 :    306.604555404481
           3 :   -256.390932598229
           4 :    199.426365592555
           5 :   -149.039783085990
           6 :    113.456420068531
           7 :   -94.0251914831229
           8 :    86.4702729648269
           9 :   -84.1025605389079
          10 :    81.2178752932800
          11 :   -75.1518477731040
          12 :    66.3757643434004
          13 :   -57.0996959605068
          14 :    49.4674987579356
          15 :   -44.3759068141873
          16 :    41.3461113112182
          17 :   -39.2037263020628
          18 :    36.9406131840187
          19 :   -34.2120683636668
          20 :    31.2845139668046
          21 :   -28.6307529767380
          22 :    26.5239605589287
          23 :   -24.8896857603845
          24 :    23.4418786765664
          25 :   -21.9421004170787
          26 :    20.3714930362141
          27 :   -18.9083366835724
          28 :    17.7562544552634
          29 :   -16.9719605850735
          30 :    16.4204148105310
          31 :   -32.9703502222611
          32 :   -24.3108308384926

     Forces acting on atoms (Ry/au):

     negative rho (up, down):  3.486E-01 0.000E+00
     atom    1 type  1   force =     0.00000016    0.00434645   -0.01067048
     atom    2 type  1   force =     0.00376347   -0.00217333   -0.01067018
     atom    3 type  1   force =    -0.00376372   -0.00217348   -0.01067032
     atom    4 type  2   force =     0.00000056    0.00000082    0.03497396
     atom    5 type  1   force =    -0.00000000   -0.01032664   -0.00578335
     atom    6 type  1   force =    -0.00894321    0.00516340   -0.00578279
     atom    7 type  1   force =     0.00894301    0.00516311   -0.00578298
     atom    8 type  2   force =     0.00000018    0.00000001    0.00927996
     atom    9 type  1   force =    -0.00000003   -0.00085385    0.00151042
     atom   10 type  1   force =    -0.00073940    0.00042692    0.00151034
     atom   11 type  1   force =     0.00073918    0.00042678    0.00151041
     atom   12 type  2   force =    -0.00000020   -0.00000019    0.00057502

     Total force =     0.046229     Total SCF correction =     0.003550

     entering subroutine stress ...

     negative rho (up, down):  3.486E-01 0.000E+00
          total   stress  (Ry/bohr**3)                   (kbar)     P=   -7.59
  -0.00006951   0.00000000   0.00000000        -10.22      0.00      0.00
   0.00000000  -0.00006951  -0.00000000          0.00    -10.22     -0.00
   0.00000000  -0.00000000  -0.00001587          0.00     -0.00     -2.34

 !ASE

     Writing output data file calc.save

     General routines

     Parallel routines

   This run was terminated on:  16:56:48  19Dec2018

   JOB DONE.
Job  /afs/slac/g/suncat/bin/suncat-tsmpirun -x LD_LIBRARY_PATH -wdir /scratch/qe773181_lBEE2 pw.x -in pw.inp

TID   HOST_NAME   COMMAND_LINE            STATUS            TERMINATION_TIME
00000 suncat0046 pw.x -in pw.inp   Done                     12/19/2018 16:56:48
00001 suncat0046 pw.x -in pw.inp   Done                     12/19/2018 16:56:48
00002 suncat0046 pw.x -in pw.inp   Done                     12/19/2018 16:56:48
00003 suncat0046 pw.x -in pw.inp   Done                     12/19/2018 16:56:48
00004 suncat0046 pw.x -in pw.inp   Done                     12/19/2018 16:56:48
00005 suncat0046 pw.x -in pw.inp   Done                     12/19/2018 16:56:48
00006 suncat0046 pw.x -in pw.inp   Done                     12/19/2018 16:56:48
00007 suncat0046 pw.x -in pw.inp   Done                     12/19/2018 16:56:48
00008 suncat0044 pw.x -in pw.inp   Done                     12/19/2018 16:56:48
00009 suncat0044 pw.x -in pw.inp   Done                     12/19/2018 16:56:48
00010 suncat0044 pw.x -in pw.inp   Done                     12/19/2018 16:56:48
00011 suncat0044 pw.x -in pw.inp   Done                     12/19/2018 16:56:48
00012 suncat0044 pw.x -in pw.inp   Done                     12/19/2018 16:56:48
00013 suncat0044 pw.x -in pw.inp   Done                     12/19/2018 16:56:48
00014 suncat0044 pw.x -in pw.inp   Done                     12/19/2018 16:56:48
00015 suncat0044 pw.x -in pw.inp   Done                     12/19/2018 16:56:48
00016 suncat0043 pw.x -in pw.inp   Done                     12/19/2018 16:56:48
00017 suncat0043 pw.x -in pw.inp   Done                     12/19/2018 16:56:48
00018 suncat0043 pw.x -in pw.inp   Done                     12/19/2018 16:56:48
00019 suncat0043 pw.x -in pw.inp   Done                     12/19/2018 16:56:48
00020 suncat0043 pw.x -in pw.inp   Done                     12/19/2018 16:56:48
00021 suncat0043 pw.x -in pw.inp   Done                     12/19/2018 16:56:48
00022 suncat0043 pw.x -in pw.inp   Done                     12/19/2018 16:56:48
00023 suncat0043 pw.x -in pw.inp   Done                     12/19/2018 16:56:48
00024 suncat0042 pw.x -in pw.inp   Done                     12/19/2018 16:56:48
00025 suncat0042 pw.x -in pw.inp   Done                     12/19/2018 16:56:48
00026 suncat0042 pw.x -in pw.inp   Done                     12/19/2018 16:56:48
00027 suncat0042 pw.x -in pw.inp   Done                     12/19/2018 16:56:48
00028 suncat0042 pw.x -in pw.inp   Done                     12/19/2018 16:56:48
00029 suncat0042 pw.x -in pw.inp   Done                     12/19/2018 16:56:48
00030 suncat0042 pw.x -in pw.inp   Done                     12/19/2018 16:56:48
00031 suncat0042 pw.x -in pw.inp   Done                     12/19/2018 16:56:48
00032 suncat0041 pw.x -in pw.inp   Done                     12/19/2018 16:56:48
00033 suncat0041 pw.x -in pw.inp   Done                     12/19/2018 16:56:48
00034 suncat0041 pw.x -in pw.inp   Done                     12/19/2018 16:56:48
00035 suncat0041 pw.x -in pw.inp   Done                     12/19/2018 16:56:48
00036 suncat0041 pw.x -in pw.inp   Done                     12/19/2018 16:56:48
00037 suncat0041 pw.x -in pw.inp   Done                     12/19/2018 16:56:48
00038 suncat0041 pw.x -in pw.inp   Done                     12/19/2018 16:56:48
00039 suncat0041 pw.x -in pw.inp   Done                     12/19/2018 16:56:48
00040 suncat0036 pw.x -in pw.inp   Done                     12/19/2018 16:56:48
00041 suncat0036 pw.x -in pw.inp   Done                     12/19/2018 16:56:48
00042 suncat0036 pw.x -in pw.inp   Done                     12/19/2018 16:56:48
00043 suncat0036 pw.x -in pw.inp   Done                     12/19/2018 16:56:48
00044 suncat0036 pw.x -in pw.inp   Done                     12/19/2018 16:56:48
00045 suncat0036 pw.x -in pw.inp   Done                     12/19/2018 16:56:48
00046 suncat0036 pw.x -in pw.inp   Done                     12/19/2018 16:56:48
00047 suncat0036 pw.x -in pw.inp   Done                     12/19/2018 16:56:48
00048 suncat0035 pw.x -in pw.inp   Done                     12/19/2018 16:56:48
00049 suncat0035 pw.x -in pw.inp   Done                     12/19/2018 16:56:48
00050 suncat0035 pw.x -in pw.inp   Done                     12/19/2018 16:56:48
00051 suncat0035 pw.x -in pw.inp   Done                     12/19/2018 16:56:48
00052 suncat0035 pw.x -in pw.inp   Done                     12/19/2018 16:56:48
00053 suncat0035 pw.x -in pw.inp   Done                     12/19/2018 16:56:48
00054 suncat0035 pw.x -in pw.inp   Done                     12/19/2018 16:56:48
00055 suncat0035 pw.x -in pw.inp   Done                     12/19/2018 16:56:48
00056 suncat0034 pw.x -in pw.inp   Done                     12/19/2018 16:56:48
00057 suncat0034 pw.x -in pw.inp   Done                     12/19/2018 16:56:48
00058 suncat0034 pw.x -in pw.inp   Done                     12/19/2018 16:56:48
00059 suncat0034 pw.x -in pw.inp   Done                     12/19/2018 16:56:48
00060 suncat0034 pw.x -in pw.inp   Done                     12/19/2018 16:56:48
00061 suncat0034 pw.x -in pw.inp   Done                     12/19/2018 16:56:48
00062 suncat0034 pw.x -in pw.inp   Done                     12/19/2018 16:56:48
00063 suncat0034 pw.x -in pw.inp   Done                     12/19/2018 16:56:48