     Program PWSCF v.5.1rc2 (svn rev. 11289) starts on 31Dec2018 at 16:34:44

     Current dimensions of program PWSCF are:
     Max number of different atomic species (ntypx) = 10
     Max number of k-points (npk) =  40000
     Max angular momentum in pseudopotentials (lmaxx) =  3
     Presently stress not available with electric field

     IMPORTANT: XC functional enforced from input :
     Exchange-correlation      = BEEF-VDW ( 1  4 27 13 2)
     Any further DFT definition will be discarded
     Please, verify this is what you really want

     Subspace diagonalization in iterative solution of the eigenvalue problem:
     a serial algorithm will be used

     Generating pointlists ...
     new r_m :   0.4125 (alat units)  0.7795 (a.u.) for type    1
     new r_m :   0.4125 (alat units)  0.7795 (a.u.) for type    2

     bravais-lattice index     =            0
     lattice parameter (alat)  =       1.8897  a.u.
     unit-cell volume          =    4337.8054 (a.u.)^3
     number of atoms/cell      =           12
     number of atomic types    =            2
     number of electrons       =       198.00
     number of Kohn-Sham states=          129
     kinetic-energy cutoff     =      36.7493  Ry
     charge density cutoff     =     367.4932  Ry
     convergence threshold     =      1.0E-06
     mixing beta               =       0.1000
     number of iterations used =           10  plain     mixing
     Exchange-correlation      = BEEF-VDW ( 1  4 27 13 2)
     nstep                     =           50

     celldm(1)=   1.889726  celldm(2)=   0.000000  celldm(3)=   0.000000
     celldm(4)=   0.000000  celldm(5)=   0.000000  celldm(6)=   0.000000

     crystal axes: (cart. coord. in units of alat)
               a(1) = (   5.504733   0.000000   0.000000 )
               a(2) = (  -2.752367   4.767239   0.000000 )
               a(3) = (   0.000000   0.000000  24.494596 )

     reciprocal axes: (cart. coord. in units 2 pi/alat)
               b(1) = (  0.181662  0.104883  0.000000 )
               b(2) = (  0.000000  0.209765  0.000000 )
               b(3) = (  0.000000  0.000000  0.040825 )

     PseudoPot. # 1 for Pt read from file:
     /afs/slac.stanford.edu/u/if/mamunm/psp/gbrv1.5pbe/Pt.UPF
     MD5 check sum: f09d6de1a584b5a045c4fc126da2d0c4
     Pseudo is Ultrasoft + core correction, Zval = 16.0
     Generated by new atomic code, or converted to UPF format
     Using radial grid of  985 points,  6 beta functions with:
                l(1) =   0
                l(2) =   0
                l(3) =   1
                l(4) =   1
                l(5) =   2
                l(6) =   2
     Q(r) pseudized with  8 coefficients,  rinner =    1.300   1.300   1.300
                                                       1.300   1.300

     PseudoPot. # 2 for Ni read from file:
     /afs/slac.stanford.edu/u/if/mamunm/psp/gbrv1.5pbe/Ni.UPF
     MD5 check sum: 1ee80287db30b12d2bc1f57a5b5d6409
     Pseudo is Ultrasoft + core correction, Zval = 18.0
     Generated by new atomic code, or converted to UPF format
     Using radial grid of  865 points,  6 beta functions with:
                l(1) =   0
                l(2) =   0
                l(3) =   1
                l(4) =   1
                l(5) =   2
                l(6) =   2
     Q(r) pseudized with 10 coefficients,  rinner =    0.980   0.980   0.980
                                                       0.980   0.980

     vdW kernel table read from file vdW_kernel_table
     MD5 check sum: 095c7af220d748ca6e76c0b4c6cfb241

     atomic species   valence    mass     pseudopotential
        Pt1           16.00   195.08400     Pt( 1.00)
        Ni1           18.00    58.69340     Ni( 1.00)

     Starting magnetic structure
     atomic species   magnetization
        Pt1          0.125
        Ni1          0.111

     No symmetry found

   Cartesian axes

     site n.     atom                  positions (alat units)
         1           Pt1 tau(   1) = (   0.0000000   0.0000000  10.0000000  )
         2           Pt1 tau(   2) = (  -1.3761833   2.3836194  10.0000000  )
         3           Pt1 tau(   3) = (   1.3761833   2.3836194  10.0000000  )
         4           Ni1 tau(   4) = (   2.7523666   0.0000000  10.0000000  )
         5           Pt1 tau(   5) = (   2.7523666   1.5890796  12.2472979  )
         6           Pt1 tau(   6) = (   1.3761833   3.9726990  12.2472979  )
         7           Pt1 tau(   7) = (  -1.3761833   3.9726990  12.2472979  )
         8           Ni1 tau(   8) = (   0.0000000   1.5890796  12.2472979  )
         9           Pt1 tau(   9) = (  -0.0000000   3.1781592  14.4945959  )
        10           Pt1 tau(  10) = (   1.3761833   0.7945398  14.4945959  )
        11           Pt1 tau(  11) = (   4.1285499   0.7945398  14.4945959  )
        12           Ni1 tau(  12) = (   2.7523666   3.1781592  14.4945959  )

     number of k points=    40  Fermi-Dirac smearing, width (Ry)=  0.0110
                       cart. coord. in units 2pi/alat
        k(    1) = (   0.0000000   0.0000000   0.0000000), wk =   0.0277778
        k(    2) = (   0.0000000   0.0349608   0.0000000), wk =   0.0555556
        k(    3) = (   0.0000000   0.0699217   0.0000000), wk =   0.0555556
        k(    4) = (   0.0000000  -0.1048825   0.0000000), wk =   0.0277778
        k(    5) = (   0.0302770   0.0174804   0.0000000), wk =   0.0555556
        k(    6) = (   0.0302770   0.0524413   0.0000000), wk =   0.0555556
        k(    7) = (   0.0302770   0.0874021   0.0000000), wk =   0.0555556
        k(    8) = (   0.0302770  -0.0874021   0.0000000), wk =   0.0555556
        k(    9) = (   0.0302770  -0.0524413   0.0000000), wk =   0.0555556
        k(   10) = (   0.0302770  -0.0174804   0.0000000), wk =   0.0555556
        k(   11) = (   0.0605539   0.0349608   0.0000000), wk =   0.0555556
        k(   12) = (   0.0605539   0.0699217   0.0000000), wk =   0.0555556
        k(   13) = (   0.0605539   0.1048825   0.0000000), wk =   0.0555556
        k(   14) = (   0.0605539  -0.0699217   0.0000000), wk =   0.0555556
        k(   15) = (   0.0605539  -0.0349608   0.0000000), wk =   0.0555556
        k(   16) = (   0.0605539  -0.0000000   0.0000000), wk =   0.0555556
        k(   17) = (  -0.0908309  -0.0524413   0.0000000), wk =   0.0277778
        k(   18) = (  -0.0908309  -0.0174804   0.0000000), wk =   0.0555556
        k(   19) = (  -0.0908309   0.0174804   0.0000000), wk =   0.0555556
        k(   20) = (  -0.0908309  -0.1573238   0.0000000), wk =   0.0277778
        k(   21) = (   0.0000000   0.0000000   0.0000000), wk =   0.0277778
        k(   22) = (   0.0000000   0.0349608   0.0000000), wk =   0.0555556
        k(   23) = (   0.0000000   0.0699217   0.0000000), wk =   0.0555556
        k(   24) = (   0.0000000  -0.1048825   0.0000000), wk =   0.0277778
        k(   25) = (   0.0302770   0.0174804   0.0000000), wk =   0.0555556
        k(   26) = (   0.0302770   0.0524413   0.0000000), wk =   0.0555556
        k(   27) = (   0.0302770   0.0874021   0.0000000), wk =   0.0555556
        k(   28) = (   0.0302770  -0.0874021   0.0000000), wk =   0.0555556
        k(   29) = (   0.0302770  -0.0524413   0.0000000), wk =   0.0555556
        k(   30) = (   0.0302770  -0.0174804   0.0000000), wk =   0.0555556
        k(   31) = (   0.0605539   0.0349608   0.0000000), wk =   0.0555556
        k(   32) = (   0.0605539   0.0699217   0.0000000), wk =   0.0555556
        k(   33) = (   0.0605539   0.1048825   0.0000000), wk =   0.0555556
        k(   34) = (   0.0605539  -0.0699217   0.0000000), wk =   0.0555556
        k(   35) = (   0.0605539  -0.0349608   0.0000000), wk =   0.0555556
        k(   36) = (   0.0605539  -0.0000000   0.0000000), wk =   0.0555556
        k(   37) = (  -0.0908309  -0.0524413   0.0000000), wk =   0.0277778
        k(   38) = (  -0.0908309  -0.0174804   0.0000000), wk =   0.0555556
        k(   39) = (  -0.0908309   0.0174804   0.0000000), wk =   0.0555556
        k(   40) = (  -0.0908309  -0.1573238   0.0000000), wk =   0.0277778

     Largest allocated arrays     est. size (Mb)     dimensions
     Largest temporary arrays     est. size (Mb)     dimensions

     Check: negative/imaginary core charge=   -0.000001    0.000000

     Initial potential from superposition of free atoms
     Check: negative starting charge=(component1):   -0.929465
     Check: negative starting charge=(component2):   -0.722921

     starting charge  187.49990, renormalised to  198.00000

     negative rho (up, down):  9.815E-01 7.634E-01

     *
     * You are using vdW-DF for exchange-correlation in this calculation.
     * Please cite the following three references that made this development
     * possible:
     *
     *   M. Dion, H. Rydberg, E. Schroder, D. C. Langreth, and
     *   B. I. Lundqvist, Phys. Rev. Lett. 92, 246401 (2004).
     *
     *   T. Thonhauser, V. R. Cooper, S. Li, A. Puzder, P. Hyldgaard, and
     *   D. C. Langreth, Phys. Rev. B 76, 125112 (2007).
     *
     *   G. Roman-Perez and J. M. Soler, Phys. Rev. Lett. 103, 096102 (2009).
     *
     *
     * If you are using vdW-DF2, please also cite:
     *
     *   K. Lee, E. D. Murray, L. Kong, B. I. Lundqvist, and
     *   D. C. Langreth, Phys. Rev. B 82, 081101(R) (2010).
     *
     *
     * If you are calculating the stress with vdW-DF, please also cite:
     *
     *   R. Sabatini, E. Kucukbenli, B. Kolb, T. Thonhauser, and
     *   S. de Gironcoli, J. Phys.: Condens. Matter 24, 424209 (2012).
     *

     Carrying out vdW-DF run using the following parameters:

     Nqs =      20    Nr_points =    1024   r_max =   100.000
     q_mesh =
               0.00001000     0.04494208     0.09755937     0.15916263
               0.23128650     0.31572767     0.41458969     0.53033537
               0.66584808     0.82450364     1.01025438     1.22772762
               1.48234092     1.78043706     2.12944203     2.53805004
               3.01644009     3.57652955     4.23227104     5.00000000

     Gradients computed in reciprocal space

     Adding external electric field

     Computed dipole along edir(3) :
        Dipole                0.0000 Ry au,          0.0000 Debye
        Dipole field          0.0000 Ry au

        Potential amp.       -0.0000 Ry
        Total length         45.1309 bohr

[...]

     Starting wfc are  147 randomized atomic wfcs

     Self-consistent Calculation

     iteration #  1     ecut=    36.75 Ry     beta=0.10
     Davidson diagonalization with overlap
     ethr =  1.00E-02,  avg # of iterations =  6.9

[...]

     Magnetic moment per site:
     atom:    1    charge:    2.1352    magn:    0.2488    constr:    0.0000
     atom:    2    charge:    2.1352    magn:    0.2488    constr:    0.0000
     atom:    3    charge:    2.1352    magn:    0.2488    constr:    0.0000
     atom:    4    charge:    9.5612    magn:    1.0610    constr:    0.0000
     atom:    5    charge:    2.1344    magn:    0.2479    constr:    0.0000
     atom:    6    charge:    2.1344    magn:    0.2479    constr:    0.0000
     atom:    7    charge:    2.1344    magn:    0.2479    constr:    0.0000
     atom:    8    charge:    9.5142    magn:    1.0414    constr:    0.0000
[...]
        k(    4) = (   0.0000000  -0.1048825   0.0000000), wk =   0.0277778
        k(    5) = (   0.0302770   0.0174804   0.0000000), wk =   0.0555556
        k(    6) = (   0.0302770   0.0524413   0.0000000), wk =   0.0555556
        k(    7) = (   0.0302770   0.0874021   0.0000000), wk =   0.0555556
        k(    8) = (   0.0302770  -0.0874021   0.0000000), wk =   0.0555556
        k(    9) = (   0.0302770  -0.0524413   0.0000000), wk =   0.0555556
        k(   10) = (   0.0302770  -0.0174804   0.0000000), wk =   0.0555556
        k(   11) = (   0.0605539   0.0349608   0.0000000), wk =   0.0555556
        k(   12) = (   0.0605539   0.0699217   0.0000000), wk =   0.0555556
        k(   13) = (   0.0605539   0.1048825   0.0000000), wk =   0.0555556
        k(   14) = (   0.0605539  -0.0699217   0.0000000), wk =   0.0555556
        k(   15) = (   0.0605539  -0.0349608   0.0000000), wk =   0.0555556
        k(   16) = (   0.0605539  -0.0000000   0.0000000), wk =   0.0555556
        k(   17) = (  -0.0908309  -0.0524413   0.0000000), wk =   0.0277778
        k(   18) = (  -0.0908309  -0.0174804   0.0000000), wk =   0.0555556
        k(   19) = (  -0.0908309   0.0174804   0.0000000), wk =   0.0555556
        k(   20) = (  -0.0908309  -0.1573238   0.0000000), wk =   0.0277778
        k(   21) = (   0.0000000   0.0000000   0.0000000), wk =   0.0277778
        k(   22) = (   0.0000000   0.0349608   0.0000000), wk =   0.0555556
        k(   23) = (   0.0000000   0.0699217   0.0000000), wk =   0.0555556
        k(   24) = (   0.0000000  -0.1048825   0.0000000), wk =   0.0277778
        k(   25) = (   0.0302770   0.0174804   0.0000000), wk =   0.0555556
        k(   26) = (   0.0302770   0.0524413   0.0000000), wk =   0.0555556
        k(   27) = (   0.0302770   0.0874021   0.0000000), wk =   0.0555556
        k(   28) = (   0.0302770  -0.0874021   0.0000000), wk =   0.0555556
        k(   29) = (   0.0302770  -0.0524413   0.0000000), wk =   0.0555556
        k(   30) = (   0.0302770  -0.0174804   0.0000000), wk =   0.0555556
        k(   31) = (   0.0605539   0.0349608   0.0000000), wk =   0.0555556
        k(   32) = (   0.0605539   0.0699217   0.0000000), wk =   0.0555556
        k(   33) = (   0.0605539   0.1048825   0.0000000), wk =   0.0555556
        k(   34) = (   0.0605539  -0.0699217   0.0000000), wk =   0.0555556
        k(   35) = (   0.0605539  -0.0349608   0.0000000), wk =   0.0555556
        k(   36) = (   0.0605539  -0.0000000   0.0000000), wk =   0.0555556
        k(   37) = (  -0.0908309  -0.0524413   0.0000000), wk =   0.0277778
        k(   38) = (  -0.0908309  -0.0174804   0.0000000), wk =   0.0555556
        k(   39) = (  -0.0908309   0.0174804   0.0000000), wk =   0.0555556
        k(   40) = (  -0.0908309  -0.1573238   0.0000000), wk =   0.0277778

     Largest allocated arrays     est. size (Mb)     dimensions
     Largest temporary arrays     est. size (Mb)     dimensions

     Check: negative/imaginary core charge=   -0.000001    0.000000

     Initial potential from superposition of free atoms
     Check: negative starting charge=(component1):   -0.932154
     Check: negative starting charge=(component2):   -0.725013

     starting charge  187.49990, renormalised to  198.00000

[...]

     *
     * You are using vdW-DF for exchange-correlation in this calculation.
     * Please cite the following three references that made this development
     * possible:
     *
     *   M. Dion, H. Rydberg, E. Schroder, D. C. Langreth, and
     *   B. I. Lundqvist, Phys. Rev. Lett. 92, 246401 (2004).
     *
     *   T. Thonhauser, V. R. Cooper, S. Li, A. Puzder, P. Hyldgaard, and
     *   D. C. Langreth, Phys. Rev. B 76, 125112 (2007).
     *
     *   G. Roman-Perez and J. M. Soler, Phys. Rev. Lett. 103, 096102 (2009).
     *
     *
     * If you are using vdW-DF2, please also cite:
     *
     *   K. Lee, E. D. Murray, L. Kong, B. I. Lundqvist, and
     *   D. C. Langreth, Phys. Rev. B 82, 081101(R) (2010).
     *
     *
     * If you are calculating the stress with vdW-DF, please also cite:
     *
     *   R. Sabatini, E. Kucukbenli, B. Kolb, T. Thonhauser, and
     *   S. de Gironcoli, J. Phys.: Condens. Matter 24, 424209 (2012).
     *

     Carrying out vdW-DF run using the following parameters:

     Nqs =      20    Nr_points =    1024   r_max =   100.000
     q_mesh =
               0.00001000     0.04494208     0.09755937     0.15916263
               0.23128650     0.31572767     0.41458969     0.53033537
               0.66584808     0.82450364     1.01025438     1.22772762
               1.48234092     1.78043706     2.12944203     2.53805004
               3.01644009     3.57652955     4.23227104     5.00000000

     Gradients computed in reciprocal space

[...]

     Starting wfc are  147 randomized atomic wfcs

     Self-consistent Calculation

[...]

     total energy              =   -2944.40919800 Ry
     Harris-Foulkes estimate   =   -2944.40919537 Ry
     estimated scf accuracy    <       0.00000132 Ry

[...]

     iteration # 30     ecut=    36.75 Ry     beta=0.10
     Davidson diagonalization with overlap
     ethr =  6.67E-10,  avg # of iterations =  2.0

[...]

     negative rho (up, down):  8.024E-01 7.885E-01

[...]

     Adding external electric field

     Computed dipole along edir(3) :
        Dipole               -0.0070 Ry au,         -0.0177 Debye
        Dipole field         -0.0000 Ry au

        Potential amp.        0.0018 Ry
        Total length         45.1309 bohr

     Magnetic moment per site:
     atom:    1    charge:    2.0920    magn:    0.0156    constr:    0.0000
     atom:    2    charge:    2.0920    magn:    0.0156    constr:    0.0000
     atom:    3    charge:    2.0920    magn:    0.0156    constr:    0.0000
     atom:    4    charge:    9.3503    magn:    0.4623    constr:    0.0000
     atom:    5    charge:    2.0943    magn:    0.0210    constr:    0.0000
     atom:    6    charge:    2.0943    magn:    0.0210    constr:    0.0000
     atom:    7    charge:    2.0943    magn:    0.0210    constr:    0.0000
     atom:    8    charge:    9.3453    magn:    0.5003    constr:    0.0000
     atom:    9    charge:    2.0975    magn:    0.0155    constr:    0.0000
     atom:   10    charge:    2.0975    magn:    0.0155    constr:    0.0000
     atom:   11    charge:    2.0975    magn:    0.0155    constr:    0.0000
     atom:   12    charge:    9.3450    magn:    0.4640    constr:    0.0000

     End of self-consistent calculation

 ------ SPIN UP ------------

[...]

 ------ SPIN DOWN ----------

[...]

          k = 0.0606-0.0000 0.0000 ( 16344 PWs)   bands (ev):

[...]

          k =-0.0908-0.1573 0.0000 ( 16300 PWs)   bands (ev):

  -101.2161-101.0900-101.0727 -61.6281 -61.6278 -61.6096 -61.5451 -61.5449
   -61.5310 -61.5308 -61.3898 -61.3665 -51.5422 -51.4425 -51.3892 -51.3850
   -51.3561 -51.3470 -51.3265 -51.3213 -51.2369 -51.1880 -51.1694 -51.0738
   -51.0609 -51.0296 -51.0213 -51.0114 -51.0071 -51.0066 -50.9778 -50.9221
   -50.9038 -50.8190 -50.8103 -50.7949 -50.7948 -50.7788 -50.7687  -5.5376
    -5.1851  -4.1421  -3.9134  -3.8266  -3.6220  -3.5387  -3.4553  -3.3007
    -3.1559  -3.0638  -3.0146  -2.7859  -2.5980  -2.5174  -2.5104  -2.4395
    -2.4295  -2.1230  -2.0100  -1.6765  -1.5804  -1.5583  -1.5375  -1.4804
    -1.4458  -1.3925  -1.3596  -1.2532  -1.2325  -1.1828  -1.0460  -0.9685
    -0.9659  -0.6970  -0.6431  -0.5980  -0.3875  -0.3662  -0.2359  -0.2101
    -0.0543   0.0792   0.0811   0.1945   0.2495   0.4010   0.4999   0.5363
     0.6190   0.6676   0.7082   0.7557   0.8647   0.9425   0.9560   0.9879
     1.0386   1.3430   1.3629   1.4728   1.4996   1.5769   1.8611   2.7546
     3.1841   3.2619   3.8738   4.0812   4.6040   5.7090   5.8432   6.3249
     6.4226   7.6102   7.6161   8.2202   8.2330   8.3312   8.3372   9.0560
     9.1292   9.3170   9.3850   9.4344   9.4485   9.5786   9.7780   9.8662
     9.9103

     the Fermi energy is     1.3727 ev

!    total energy              =   -2944.40920517 Ry
     Harris-Foulkes estimate   =   -2944.40919821 Ry
     estimated scf accuracy    <       0.00000033 Ry

     The total energy is the sum of the following terms:

     one-electron contribution =  -22794.07862097 Ry
     hartree contribution      =   11427.01641072 Ry
     xc contribution           =    -637.76741729 Ry
     ewald contribution        =    9060.53294615 Ry
     electric field correction =       0.00000014 Ry
     smearing contrib. (-TS)   =      -0.11252391 Ry

     total magnetization       =     4.08 Bohr mag/cell
     absolute magnetization    =     4.49 Bohr mag/cell

     convergence has been achieved in  30 iterations

 BEEF-vdW xc energy contributions
           1 :   -566.897046104042
           2 :    525.217180273574
           3 :   -451.545672953566
           4 :    361.497274523683
           5 :   -271.272304141440
           6 :    193.017304691292
           7 :   -132.511420923760
           8 :    89.5115026647923
           9 :   -60.0202134952807
          10 :    39.0799189942867
          11 :   -22.8675469224224
          12 :    9.48335771304926
          13 :    1.37010065428569
          14 :   -9.23367398285586
          15 :    13.6646610492032
          16 :   -14.6770687114087
          17 :    12.8431091071373
          18 :   -9.20280496298130
          19 :    5.06043897538666
          20 :   -1.70427459353698
          21 :   5.744220271731137E-002
          22 :  -0.375259905304802
          23 :    2.14311377095385
          24 :   -4.30429126352624
          25 :    5.75069509836101
          26 :   -5.85212117390699
          27 :    4.72758200379769
          28 :   -3.11366093415597
          29 :    1.90267175415158
          30 :   -1.63746304915185
          31 :   -46.4855595984723
          32 :   -34.0286224781788

     Forces acting on atoms (Ry/au):

     negative rho (up, down):  8.024E-01 7.885E-01
     atom    1 type  1   force =     0.00000001    0.01592850   -0.00496105
     atom    2 type  1   force =     0.01379450   -0.00796428   -0.00496107
     atom    3 type  1   force =    -0.01379449   -0.00796428   -0.00496104
     atom    4 type  2   force =     0.00000005    0.00000009    0.00663962
     atom    5 type  1   force =    -0.00000002   -0.00364478    0.00355992
     atom    6 type  1   force =    -0.00315648    0.00182239    0.00355998
     atom    7 type  1   force =     0.00315645    0.00182238    0.00356001
     atom    8 type  2   force =     0.00000008    0.00000003    0.00044289
     atom    9 type  1   force =    -0.00000006   -0.00048108   -0.00080515
     atom   10 type  1   force =    -0.00041680    0.00024052   -0.00080502
     atom   11 type  1   force =     0.00041671    0.00024053   -0.00080499
     atom   12 type  2   force =     0.00000003   -0.00000002   -0.00046411

     Total force =     0.030984     Total SCF correction =     0.002140

     entering subroutine stress ...

     negative rho (up, down):  8.024E-01 7.885E-01
          total   stress  (Ry/bohr**3)                   (kbar)     P=  -31.01
  -0.00026610  -0.00000000   0.00000000        -39.14     -0.00      0.00
  -0.00000000  -0.00026610  -0.00000000         -0.00    -39.14     -0.00
   0.00000000  -0.00000000  -0.00010026          0.00     -0.00    -14.75

 !ASE

     Writing output data file calc.save

     General routines

     Parallel routines

   This run was terminated on:  23:13:47  31Dec2018

   JOB DONE.
Job  /afs/slac/g/suncat/bin/suncat-tsmpirun -x LD_LIBRARY_PATH -wdir /scratch/qe648815_4W358 pw.x -in pw.inp

TID   HOST_NAME   COMMAND_LINE            STATUS            TERMINATION_TIME
00000 suncat0251 pw.x -in pw.inp   Done                     12/31/2018 23:13:47
00001 suncat0251 pw.x -in pw.inp   Done                     12/31/2018 23:13:47
00002 suncat0251 pw.x -in pw.inp   Done                     12/31/2018 23:13:47
00003 suncat0251 pw.x -in pw.inp   Done                     12/31/2018 23:13:47
00004 suncat0251 pw.x -in pw.inp   Done                     12/31/2018 23:13:47
00005 suncat0251 pw.x -in pw.inp   Done                     12/31/2018 23:13:47
00006 suncat0251 pw.x -in pw.inp   Done                     12/31/2018 23:13:47
00007 suncat0251 pw.x -in pw.inp   Done                     12/31/2018 23:13:47
00008 suncat0244 pw.x -in pw.inp   Done                     12/31/2018 23:13:47
00009 suncat0244 pw.x -in pw.inp   Done                     12/31/2018 23:13:47
00010 suncat0244 pw.x -in pw.inp   Done                     12/31/2018 23:13:47
00011 suncat0244 pw.x -in pw.inp   Done                     12/31/2018 23:13:47
00012 suncat0244 pw.x -in pw.inp   Done                     12/31/2018 23:13:47
00013 suncat0244 pw.x -in pw.inp   Done                     12/31/2018 23:13:47
00014 suncat0244 pw.x -in pw.inp   Done                     12/31/2018 23:13:47
00015 suncat0244 pw.x -in pw.inp   Done                     12/31/2018 23:13:47
00016 suncat0243 pw.x -in pw.inp   Done                     12/31/2018 23:13:47
00017 suncat0243 pw.x -in pw.inp   Done                     12/31/2018 23:13:47
00018 suncat0243 pw.x -in pw.inp   Done                     12/31/2018 23:13:47
00019 suncat0243 pw.x -in pw.inp   Done                     12/31/2018 23:13:47
00020 suncat0243 pw.x -in pw.inp   Done                     12/31/2018 23:13:47
00021 suncat0243 pw.x -in pw.inp   Done                     12/31/2018 23:13:47
00022 suncat0243 pw.x -in pw.inp   Done                     12/31/2018 23:13:47
00023 suncat0243 pw.x -in pw.inp   Done                     12/31/2018 23:13:47
00024 suncat0242 pw.x -in pw.inp   Done                     12/31/2018 23:13:47
00025 suncat0242 pw.x -in pw.inp   Done                     12/31/2018 23:13:47
00026 suncat0242 pw.x -in pw.inp   Done                     12/31/2018 23:13:47
00027 suncat0242 pw.x -in pw.inp   Done                     12/31/2018 23:13:47
00028 suncat0242 pw.x -in pw.inp   Done                     12/31/2018 23:13:47
00029 suncat0242 pw.x -in pw.inp   Done                     12/31/2018 23:13:47
00030 suncat0242 pw.x -in pw.inp   Done                     12/31/2018 23:13:47
00031 suncat0242 pw.x -in pw.inp   Done                     12/31/2018 23:13:47
00032 suncat0209 pw.x -in pw.inp   Done                     12/31/2018 23:13:47
00033 suncat0209 pw.x -in pw.inp   Done                     12/31/2018 23:13:47
00034 suncat0209 pw.x -in pw.inp   Done                     12/31/2018 23:13:47
00035 suncat0209 pw.x -in pw.inp   Done                     12/31/2018 23:13:47
00036 suncat0209 pw.x -in pw.inp   Done                     12/31/2018 23:13:47
00037 suncat0209 pw.x -in pw.inp   Done                     12/31/2018 23:13:47
00038 suncat0209 pw.x -in pw.inp   Done                     12/31/2018 23:13:47
00039 suncat0209 pw.x -in pw.inp   Done                     12/31/2018 23:13:47
00040 suncat0205 pw.x -in pw.inp   Done                     12/31/2018 23:13:47
00041 suncat0205 pw.x -in pw.inp   Done                     12/31/2018 23:13:47
00042 suncat0205 pw.x -in pw.inp   Done                     12/31/2018 23:13:47
00043 suncat0205 pw.x -in pw.inp   Done                     12/31/2018 23:13:47
00044 suncat0205 pw.x -in pw.inp   Done                     12/31/2018 23:13:47
00045 suncat0205 pw.x -in pw.inp   Done                     12/31/2018 23:13:47
00046 suncat0205 pw.x -in pw.inp   Done                     12/31/2018 23:13:47
00047 suncat0205 pw.x -in pw.inp   Done                     12/31/2018 23:13:47
00048 suncat0204 pw.x -in pw.inp   Done                     12/31/2018 23:13:47
00049 suncat0204 pw.x -in pw.inp   Done                     12/31/2018 23:13:47
00050 suncat0204 pw.x -in pw.inp   Done                     12/31/2018 23:13:47
00051 suncat0204 pw.x -in pw.inp   Done                     12/31/2018 23:13:47
00052 suncat0204 pw.x -in pw.inp   Done                     12/31/2018 23:13:47
00053 suncat0204 pw.x -in pw.inp   Done                     12/31/2018 23:13:47
00054 suncat0204 pw.x -in pw.inp   Done                     12/31/2018 23:13:47
00055 suncat0204 pw.x -in pw.inp   Done                     12/31/2018 23:13:47
00056 suncat0203 pw.x -in pw.inp   Done                     12/31/2018 23:13:47
00057 suncat0203 pw.x -in pw.inp   Done                     12/31/2018 23:13:47
00058 suncat0203 pw.x -in pw.inp   Done                     12/31/2018 23:13:47
00059 suncat0203 pw.x -in pw.inp   Done                     12/31/2018 23:13:47
00060 suncat0203 pw.x -in pw.inp   Done                     12/31/2018 23:13:47
00061 suncat0203 pw.x -in pw.inp   Done                     12/31/2018 23:13:47
00062 suncat0203 pw.x -in pw.inp   Done                     12/31/2018 23:13:47
00063 suncat0203 pw.x -in pw.inp   Done                     12/31/2018 23:13:47