     Program PWSCF v.5.1rc2 (svn rev. 11289) starts on  2Jan2019 at  1:47:15

     Current dimensions of program PWSCF are:
     Max number of different atomic species (ntypx) = 10
     Max number of k-points (npk) =  40000
     Max angular momentum in pseudopotentials (lmaxx) =  3
     Presently stress not available with electric field

     IMPORTANT: XC functional enforced from input :
     Exchange-correlation      = BEEF-VDW ( 1  4 27 13 2)
     Any further DFT definition will be discarded
     Please, verify this is what you really want

     Subspace diagonalization in iterative solution of the eigenvalue problem:
     a serial algorithm will be used

     Generating pointlists ...
     new r_m :   0.4125 (alat units)  0.7795 (a.u.) for type    1
     new r_m :   0.4125 (alat units)  0.7795 (a.u.) for type    2

     bravais-lattice index     =            0
     lattice parameter (alat)  =       1.8897  a.u.
     unit-cell volume          =    6501.9545 (a.u.)^3
     number of atoms/cell      =           12
     number of atomic types    =            2
     number of electrons       =       171.00
     number of Kohn-Sham states=          115
     kinetic-energy cutoff     =      36.7493  Ry
     charge density cutoff     =     367.4932  Ry
     convergence threshold     =      1.0E-06
     mixing beta               =       0.1000
     number of iterations used =           10  plain     mixing
     Exchange-correlation      = BEEF-VDW ( 1  4 27 13 2)
     nstep                     =           50

     celldm(1)=   1.889726  celldm(2)=   0.000000  celldm(3)=   0.000000
     celldm(4)=   0.000000  celldm(5)=   0.000000  celldm(6)=   0.000000

     crystal axes: (cart. coord. in units of alat)
               a(1) = (   6.617782   0.000000   0.000000 )
               a(2) = (  -3.308891   5.731167   0.000000 )
               a(3) = (   0.000000   0.000000  25.403396 )

     reciprocal axes: (cart. coord. in units 2 pi/alat)
               b(1) = (  0.151108  0.087242  0.000000 )
               b(2) = (  0.000000  0.174485  0.000000 )
               b(3) = (  0.000000  0.000000  0.039365 )

     PseudoPot. # 1 for Tl read from file:
     /afs/slac.stanford.edu/u/if/mamunm/psp/gbrv1.5pbe/Tl.UPF
     MD5 check sum: b76cf1f7e72655a2b2c53cf6385d7059
     Pseudo is Ultrasoft + core correction, Zval = 13.0
     Generated by new atomic code, or converted to UPF format
     Using radial grid of  899 points,  6 beta functions with:
                l(1) =   0
                l(2) =   0
                l(3) =   1
                l(4) =   1
                l(5) =   2
                l(6) =   2
     Q(r) pseudized with  6 coefficients,  rinner =    1.100   1.100   1.100
                                                       1.100   1.100

     PseudoPot. # 2 for Ni read from file:
     /afs/slac.stanford.edu/u/if/mamunm/psp/gbrv1.5pbe/Ni.UPF
     MD5 check sum: 1ee80287db30b12d2bc1f57a5b5d6409
     Pseudo is Ultrasoft + core correction, Zval = 18.0
     Generated by new atomic code, or converted to UPF format
     Using radial grid of  865 points,  6 beta functions with:
                l(1) =   0
                l(2) =   0
                l(3) =   1
                l(4) =   1
                l(5) =   2
                l(6) =   2
     Q(r) pseudized with 10 coefficients,  rinner =    0.980   0.980   0.980
                                                       0.980   0.980

     vdW kernel table read from file vdW_kernel_table
     MD5 check sum: 095c7af220d748ca6e76c0b4c6cfb241

     atomic species   valence    mass     pseudopotential
        Tl1           13.00   204.38000     Tl( 1.00)
        Ni1           18.00    58.69340     Ni( 1.00)

     Starting magnetic structure
     atomic species   magnetization
        Tl1          0.154
        Ni1          0.111

     No symmetry found

   Cartesian axes

     site n.     atom                  positions (alat units)
         1           Tl1 tau(   1) = (   0.0000000   0.0000000  10.0000000  )
         2           Tl1 tau(   2) = (  -1.6544455   2.8655837  10.0000000  )
         3           Tl1 tau(   3) = (   1.6544455   2.8655837  10.0000000  )
         4           Ni1 tau(   4) = (   3.3088910   0.0000000  10.0000000  )
         5           Tl1 tau(   5) = (   3.3088910   1.9103891  12.7016982  )
         6           Tl1 tau(   6) = (   1.6544455   4.7759728  12.7016982  )
         7           Tl1 tau(   7) = (  -1.6544455   4.7759728  12.7016982  )
         8           Ni1 tau(   8) = (   0.0000000   1.9103891  12.7016982  )
         9           Tl1 tau(   9) = (  -0.0000000   3.8207782  15.4033964  )
        10           Tl1 tau(  10) = (   1.6544455   0.9551946  15.4033964  )
        11           Tl1 tau(  11) = (   4.9633365   0.9551946  15.4033964  )
        12           Ni1 tau(  12) = (   3.3088910   3.8207782  15.4033964  )

     number of k points=    40  Fermi-Dirac smearing, width (Ry)=  0.0110
                       cart. coord. in units 2pi/alat
        k(    1) = (   0.0000000   0.0000000   0.0000000), wk =   0.0277778
        k(    2) = (   0.0000000   0.0290808   0.0000000), wk =   0.0555556
        k(    3) = (   0.0000000   0.0581615   0.0000000), wk =   0.0555556
        k(    4) = (   0.0000000  -0.0872423   0.0000000), wk =   0.0277778
        k(    5) = (   0.0251847   0.0145404   0.0000000), wk =   0.0555556
        k(    6) = (   0.0251847   0.0436211   0.0000000), wk =   0.0555556
        k(    7) = (   0.0251847   0.0727019   0.0000000), wk =   0.0555556
        k(    8) = (   0.0251847  -0.0727019   0.0000000), wk =   0.0555556
        k(    9) = (   0.0251847  -0.0436211   0.0000000), wk =   0.0555556
        k(   10) = (   0.0251847  -0.0145404   0.0000000), wk =   0.0555556
        k(   11) = (   0.0503693   0.0290808   0.0000000), wk =   0.0555556
        k(   12) = (   0.0503693   0.0581615   0.0000000), wk =   0.0555556
        k(   13) = (   0.0503693   0.0872423   0.0000000), wk =   0.0555556
        k(   14) = (   0.0503693  -0.0581615   0.0000000), wk =   0.0555556
        k(   15) = (   0.0503693  -0.0290808   0.0000000), wk =   0.0555556
        k(   16) = (   0.0503693   0.0000000   0.0000000), wk =   0.0555556
        k(   17) = (  -0.0755540  -0.0436211   0.0000000), wk =   0.0277778
        k(   18) = (  -0.0755540  -0.0145404   0.0000000), wk =   0.0555556
        k(   19) = (  -0.0755540   0.0145404   0.0000000), wk =   0.0555556
        k(   20) = (  -0.0755540  -0.1308634   0.0000000), wk =   0.0277778
        k(   21) = (   0.0000000   0.0000000   0.0000000), wk =   0.0277778
        k(   22) = (   0.0000000   0.0290808   0.0000000), wk =   0.0555556
        k(   23) = (   0.0000000   0.0581615   0.0000000), wk =   0.0555556
        k(   24) = (   0.0000000  -0.0872423   0.0000000), wk =   0.0277778
        k(   25) = (   0.0251847   0.0145404   0.0000000), wk =   0.0555556
        k(   26) = (   0.0251847   0.0436211   0.0000000), wk =   0.0555556
        k(   27) = (   0.0251847   0.0727019   0.0000000), wk =   0.0555556
        k(   28) = (   0.0251847  -0.0727019   0.0000000), wk =   0.0555556
        k(   29) = (   0.0251847  -0.0436211   0.0000000), wk =   0.0555556
        k(   30) = (   0.0251847  -0.0145404   0.0000000), wk =   0.0555556
        k(   31) = (   0.0503693   0.0290808   0.0000000), wk =   0.0555556
        k(   32) = (   0.0503693   0.0581615   0.0000000), wk =   0.0555556
        k(   33) = (   0.0503693   0.0872423   0.0000000), wk =   0.0555556
        k(   34) = (   0.0503693  -0.0581615   0.0000000), wk =   0.0555556
        k(   35) = (   0.0503693  -0.0290808   0.0000000), wk =   0.0555556
        k(   36) = (   0.0503693   0.0000000   0.0000000), wk =   0.0555556
        k(   37) = (  -0.0755540  -0.0436211   0.0000000), wk =   0.0277778
        k(   38) = (  -0.0755540  -0.0145404   0.0000000), wk =   0.0555556
        k(   39) = (  -0.0755540   0.0145404   0.0000000), wk =   0.0555556
        k(   40) = (  -0.0755540  -0.1308634   0.0000000), wk =   0.0277778

     Largest allocated arrays     est. size (Mb)     dimensions
     Largest temporary arrays     est. size (Mb)     dimensions

     Check: negative/imaginary core charge=   -0.000002    0.000000

     Initial potential from superposition of free atoms
     Check: negative starting charge=(component1):   -0.262527
     Check: negative starting charge=(component2):   -0.192521

     starting charge  164.95621, renormalised to  171.00000

     negative rho (up, down):  2.721E-01 1.996E-01

     *
     * You are using vdW-DF for exchange-correlation in this calculation.
     * Please cite the following three references that made this development
     * possible:
     *
     *   M. Dion, H. Rydberg, E. Schroder, D. C. Langreth, and
     *   B. I. Lundqvist, Phys. Rev. Lett. 92, 246401 (2004).
     *
     *   T. Thonhauser, V. R. Cooper, S. Li, A. Puzder, P. Hyldgaard, and
     *   D. C. Langreth, Phys. Rev. B 76, 125112 (2007).
     *
     *   G. Roman-Perez and J. M. Soler, Phys. Rev. Lett. 103, 096102 (2009).
     *
     *
     * If you are using vdW-DF2, please also cite:
     *
     *   K. Lee, E. D. Murray, L. Kong, B. I. Lundqvist, and
     *   D. C. Langreth, Phys. Rev. B 82, 081101(R) (2010).
     *
     *
     * If you are calculating the stress with vdW-DF, please also cite:
     *
     *   R. Sabatini, E. Kucukbenli, B. Kolb, T. Thonhauser, and
     *   S. de Gironcoli, J. Phys.: Condens. Matter 24, 424209 (2012).
     *

     Carrying out vdW-DF run using the following parameters:

     Nqs =      20    Nr_points =    1024   r_max =   100.000
     q_mesh =
               0.00001000     0.04494208     0.09755937     0.15916263
               0.23128650     0.31572767     0.41458969     0.53033537
               0.66584808     0.82450364     1.01025438     1.22772762
               1.48234092     1.78043706     2.12944203     2.53805004
               3.01644009     3.57652955     4.23227104     5.00000000

     Gradients computed in reciprocal space

     Adding external electric field

     Computed dipole along edir(3) :
        Dipole                0.0000 Ry au,          0.0000 Debye
        Dipole field          0.0000 Ry au

        Potential amp.       -0.0000 Ry
        Total length         46.8053 bohr

[...]

     Starting wfc are  120 randomized atomic wfcs

     Self-consistent Calculation

     iteration #  1     ecut=    36.75 Ry     beta=0.10
     Davidson diagonalization with overlap
     ethr =  1.00E-02,  avg # of iterations =  7.9

[...]

     Magnetic moment per site:
     atom:    1    charge:    1.4548    magn:    0.2043    constr:    0.0000
     atom:    2    charge:    1.4548    magn:    0.2042    constr:    0.0000
     atom:    3    charge:    1.4548    magn:    0.2043    constr:    0.0000
     atom:    4    charge:    9.6058    magn:    1.0097    constr:    0.0000
     atom:    5    charge:    1.4573    magn:    0.2047    constr:    0.0000
     atom:    6    charge:    1.4573    magn:    0.2047    constr:    0.0000
     atom:    7    charge:    1.4573    magn:    0.2047    constr:    0.0000
     atom:    8    charge:    9.5792    magn:    1.0321    constr:    0.0000
[...]
        k(    5) = (   0.0251847   0.0145404   0.0000000), wk =   0.0555556
        k(    6) = (   0.0251847   0.0436211   0.0000000), wk =   0.0555556
        k(    7) = (   0.0251847   0.0727019   0.0000000), wk =   0.0555556
        k(    8) = (   0.0251847  -0.0727019   0.0000000), wk =   0.0555556
        k(    9) = (   0.0251847  -0.0436211   0.0000000), wk =   0.0555556
        k(   10) = (   0.0251847  -0.0145404   0.0000000), wk =   0.0555556
        k(   11) = (   0.0503693   0.0290808   0.0000000), wk =   0.0555556
        k(   12) = (   0.0503693   0.0581615   0.0000000), wk =   0.0555556
        k(   13) = (   0.0503693   0.0872423   0.0000000), wk =   0.0555556
        k(   14) = (   0.0503693  -0.0581615   0.0000000), wk =   0.0555556
        k(   15) = (   0.0503693  -0.0290808   0.0000000), wk =   0.0555556
        k(   16) = (   0.0503693   0.0000000   0.0000000), wk =   0.0555556
        k(   17) = (  -0.0755540  -0.0436211   0.0000000), wk =   0.0277778
        k(   18) = (  -0.0755540  -0.0145404   0.0000000), wk =   0.0555556
        k(   19) = (  -0.0755540   0.0145404   0.0000000), wk =   0.0555556
        k(   20) = (  -0.0755540  -0.1308634   0.0000000), wk =   0.0277778
        k(   21) = (   0.0000000   0.0000000   0.0000000), wk =   0.0277778
        k(   22) = (   0.0000000   0.0290808   0.0000000), wk =   0.0555556
        k(   23) = (   0.0000000   0.0581615   0.0000000), wk =   0.0555556
        k(   24) = (   0.0000000  -0.0872423   0.0000000), wk =   0.0277778
        k(   25) = (   0.0251847   0.0145404   0.0000000), wk =   0.0555556
        k(   26) = (   0.0251847   0.0436211   0.0000000), wk =   0.0555556
        k(   27) = (   0.0251847   0.0727019   0.0000000), wk =   0.0555556
        k(   28) = (   0.0251847  -0.0727019   0.0000000), wk =   0.0555556
        k(   29) = (   0.0251847  -0.0436211   0.0000000), wk =   0.0555556
        k(   30) = (   0.0251847  -0.0145404   0.0000000), wk =   0.0555556
        k(   31) = (   0.0503693   0.0290808   0.0000000), wk =   0.0555556
        k(   32) = (   0.0503693   0.0581615   0.0000000), wk =   0.0555556
        k(   33) = (   0.0503693   0.0872423   0.0000000), wk =   0.0555556
        k(   34) = (   0.0503693  -0.0581615   0.0000000), wk =   0.0555556
        k(   35) = (   0.0503693  -0.0290808   0.0000000), wk =   0.0555556
        k(   36) = (   0.0503693   0.0000000   0.0000000), wk =   0.0555556
        k(   37) = (  -0.0755540  -0.0436211   0.0000000), wk =   0.0277778
        k(   38) = (  -0.0755540  -0.0145404   0.0000000), wk =   0.0555556
        k(   39) = (  -0.0755540   0.0145404   0.0000000), wk =   0.0555556
        k(   40) = (  -0.0755540  -0.1308634   0.0000000), wk =   0.0277778

     Largest allocated arrays     est. size (Mb)     dimensions
     Largest temporary arrays     est. size (Mb)     dimensions

     Check: negative/imaginary core charge=   -0.000002    0.000000

     Initial potential from superposition of free atoms
     Check: negative starting charge=(component1):   -0.264326
     Check: negative starting charge=(component2):   -0.193840

     starting charge  164.95621, renormalised to  171.00000

[...]

     *
     * You are using vdW-DF for exchange-correlation in this calculation.
     * Please cite the following three references that made this development
     * possible:
     *
     *   M. Dion, H. Rydberg, E. Schroder, D. C. Langreth, and
     *   B. I. Lundqvist, Phys. Rev. Lett. 92, 246401 (2004).
     *
     *   T. Thonhauser, V. R. Cooper, S. Li, A. Puzder, P. Hyldgaard, and
     *   D. C. Langreth, Phys. Rev. B 76, 125112 (2007).
     *
     *   G. Roman-Perez and J. M. Soler, Phys. Rev. Lett. 103, 096102 (2009).
     *
     *
     * If you are using vdW-DF2, please also cite:
     *
     *   K. Lee, E. D. Murray, L. Kong, B. I. Lundqvist, and
     *   D. C. Langreth, Phys. Rev. B 82, 081101(R) (2010).
     *
     *
     * If you are calculating the stress with vdW-DF, please also cite:
     *
     *   R. Sabatini, E. Kucukbenli, B. Kolb, T. Thonhauser, and
     *   S. de Gironcoli, J. Phys.: Condens. Matter 24, 424209 (2012).
     *

     Carrying out vdW-DF run using the following parameters:

     Nqs =      20    Nr_points =    1024   r_max =   100.000
     q_mesh =
               0.00001000     0.04494208     0.09755937     0.15916263
               0.23128650     0.31572767     0.41458969     0.53033537
               0.66584808     0.82450364     1.01025438     1.22772762
               1.48234092     1.78043706     2.12944203     2.53805004
               3.01644009     3.57652955     4.23227104     5.00000000

     Gradients computed in reciprocal space

[...]

     Starting wfc are  120 randomized atomic wfcs

     Self-consistent Calculation

[...]

     iteration # 21     ecut=    36.75 Ry     beta=0.10
     Davidson diagonalization with overlap
     c_bands:  1 eigenvalues not converged
     ethr =  1.53E-05,  avg # of iterations =  4.9

[...]

     total energy              =   -2354.18535889 Ry
     Harris-Foulkes estimate   =   -2354.18535827 Ry
     estimated scf accuracy    <       0.00000143 Ry

[...]

     iteration # 45     ecut=    36.75 Ry     beta=0.10
     Davidson diagonalization with overlap
     ethr =  8.34E-10,  avg # of iterations =  2.0

[...]

     negative rho (up, down):  2.396E-01 2.397E-01

[...]

     Adding external electric field

     Computed dipole along edir(3) :
        Dipole                0.0882 Ry au,          0.2243 Debye
        Dipole field          0.0002 Ry au

        Potential amp.       -0.0160 Ry
        Total length         46.8053 bohr

     Magnetic moment per site:
     atom:    1    charge:    1.4275    magn:   -0.0001    constr:    0.0000
     atom:    2    charge:    1.4275    magn:   -0.0001    constr:    0.0000
     atom:    3    charge:    1.4275    magn:   -0.0001    constr:    0.0000
     atom:    4    charge:    9.3717    magn:    0.2530    constr:    0.0000
     atom:    5    charge:    1.4299    magn:   -0.0000    constr:    0.0000
     atom:    6    charge:    1.4299    magn:   -0.0000    constr:    0.0000
     atom:    7    charge:    1.4299    magn:   -0.0000    constr:    0.0000
     atom:    8    charge:    9.3706    magn:    0.0060    constr:    0.0000
     atom:    9    charge:    1.4272    magn:   -0.0001    constr:    0.0000
     atom:   10    charge:    1.4272    magn:   -0.0001    constr:    0.0000
     atom:   11    charge:    1.4272    magn:   -0.0001    constr:    0.0000
     atom:   12    charge:    9.3755    magn:    0.0056    constr:    0.0000

     End of self-consistent calculation

 ------ SPIN UP ------------

[...]

 ------ SPIN DOWN ----------

[...]

          k = 0.0504 0.0000 0.0000 ( 24482 PWs)   bands (ev):

[...]

          k =-0.0756-0.1309 0.0000 ( 24456 PWs)   bands (ev):

  -101.6284-101.5614-101.2775 -62.0519 -62.0517 -62.0434 -61.9858 -61.9857
   -61.9593 -61.7225 -61.7224 -61.6738 -11.5262 -11.4846 -11.4261 -11.3977
   -11.3749 -11.3335 -11.3116 -11.2986 -11.2800 -11.2635 -11.2623 -11.2300
   -11.1896 -11.1877 -11.1813 -11.1788 -11.1615 -11.1540 -11.1376 -11.1328
   -11.1117 -11.1103 -11.1060 -11.0930 -11.0661 -11.0634 -11.0380 -11.0246
   -11.0149 -11.0137 -10.9864 -10.9830 -10.9800 -10.9572 -10.9466 -10.9417
   -10.9239 -10.9070 -10.9058 -10.8991 -10.8900 -10.8767 -10.7751 -10.7546
   -10.6683  -7.6143  -7.2686  -6.3477  -5.9996  -5.1897  -5.1274  -4.7063
    -4.1442  -3.0277  -2.1020  -1.4940  -0.7412  -0.4243  -0.3767  -0.3145
    -0.2425  -0.2059  -0.1489  -0.1190  -0.0972  -0.0237   0.0262   0.0950
     0.2071   0.2355   0.2818   0.4312   0.7958   1.0051   1.4953   1.6418
     1.8217   1.8711   2.4703   2.5613   2.7945   2.8818   3.1808   3.4404
     3.8849   3.9184   4.2670   4.3896   4.4249   4.7266   4.7568   5.0774
     5.1747   5.2233   5.2326   5.3294   5.5418   5.6664   5.8288   5.8925
     6.1050   6.2111   6.4189

     the Fermi energy is     0.6291 ev

!    total energy              =   -2354.18536297 Ry
     Harris-Foulkes estimate   =   -2354.18536067 Ry
     estimated scf accuracy    <       0.00000087 Ry

     The total energy is the sum of the following terms:

     one-electron contribution =  -11676.39215847 Ry
     hartree contribution      =    5902.93236416 Ry
     xc contribution           =    -686.36911722 Ry
     ewald contribution        =    4105.70218940 Ry
     electric field correction =       0.00001505 Ry
     smearing contrib. (-TS)   =      -0.05865589 Ry

     total magnetization       =     0.44 Bohr mag/cell
     absolute magnetization    =     0.60 Bohr mag/cell

     convergence has been achieved in  45 iterations

 BEEF-vdW xc energy contributions
           1 :   -610.433398689543
           2 :    564.191444308486
           3 :   -483.860682098065
           4 :    388.514735423347
           5 :   -296.811847372310
           6 :    220.996979879836
           7 :   -164.639515638539
           8 :    124.311475180319
           9 :   -93.6614446874456
          10 :    67.4521520002569
          11 :   -43.6923898031165
          12 :    23.3077344341592
          13 :   -8.24856503341744
          14 :  -0.490124001762069
          15 :    3.75357029558018
          16 :   -3.79714542849774
          17 :    3.09847370845375
          18 :   -3.27780280658283
          19 :    4.66726865405144
          20 :   -6.60603962157745
          21 :    8.12010335460002
          22 :   -8.57368487971621
          23 :    7.97245010623431
          24 :   -6.86643102291407
          25 :    5.97250698044718
          26 :   -5.76247888749742
          27 :    6.21267119780248
          28 :   -6.83902372812054
          29 :    6.98069990568263
          30 :   -6.19603411513992
          31 :   -49.1800034085231
          32 :   -35.5947746908329

     Forces acting on atoms (Ry/au):

     negative rho (up, down):  2.396E-01 2.397E-01
     atom    1 type  1   force =     0.00000191    0.01387136   -0.01085871
     atom    2 type  1   force =     0.01201307   -0.00693544   -0.01085713
     atom    3 type  1   force =    -0.01201402   -0.00693774   -0.01085639
     atom    4 type  2   force =     0.00000006   -0.00000085    0.02526548
     atom    5 type  1   force =    -0.00000014   -0.01043990    0.00159973
     atom    6 type  1   force =    -0.00904453    0.00522130    0.00159932
     atom    7 type  1   force =     0.00904337    0.00521942    0.00159784
     atom    8 type  2   force =     0.00000024    0.00000100   -0.00028203
     atom    9 type  1   force =     0.00000165    0.00169349    0.00048635
     atom   10 type  1   force =     0.00146806   -0.00084646    0.00048798
     atom   11 type  1   force =    -0.00146953   -0.00084449    0.00048601
     atom   12 type  2   force =    -0.00000015   -0.00000168    0.00133155

     Total force =     0.043763     Total SCF correction =     0.002297

     entering subroutine stress ...

     negative rho (up, down):  2.396E-01 2.397E-01
          total   stress  (Ry/bohr**3)                   (kbar)     P=  -14.79
  -0.00010739   0.00000000  -0.00000000        -15.80      0.00     -0.00
   0.00000000  -0.00010739  -0.00000000          0.00    -15.80     -0.00
  -0.00000000  -0.00000000  -0.00008682         -0.00     -0.00    -12.77

 !ASE

     Writing output data file calc.save

     General routines

     Parallel routines

   This run was terminated on:  15:38: 6   2Jan2019

   JOB DONE.
Job  /afs/slac/g/suncat/bin/suncat-tsmpirun -x LD_LIBRARY_PATH -wdir /scratch/qe649264_Cae5M pw.x -in pw.inp

TID   HOST_NAME   COMMAND_LINE            STATUS            TERMINATION_TIME
00000 suncat0154 pw.x -in pw.inp   Done                     01/02/2019 15:38:06
00001 suncat0154 pw.x -in pw.inp   Done                     01/02/2019 15:38:06
00002 suncat0154 pw.x -in pw.inp   Done                     01/02/2019 15:38:06
00003 suncat0154 pw.x -in pw.inp   Done                     01/02/2019 15:38:06
00004 suncat0154 pw.x -in pw.inp   Done                     01/02/2019 15:38:06
00005 suncat0154 pw.x -in pw.inp   Done                     01/02/2019 15:38:06
00006 suncat0154 pw.x -in pw.inp   Done                     01/02/2019 15:38:06
00007 suncat0154 pw.x -in pw.inp   Done                     01/02/2019 15:38:06
00008 suncat0143 pw.x -in pw.inp   Done                     01/02/2019 15:38:06
00009 suncat0143 pw.x -in pw.inp   Done                     01/02/2019 15:38:06
00010 suncat0143 pw.x -in pw.inp   Done                     01/02/2019 15:38:06
00011 suncat0143 pw.x -in pw.inp   Done                     01/02/2019 15:38:06
00012 suncat0143 pw.x -in pw.inp   Done                     01/02/2019 15:38:06
00013 suncat0143 pw.x -in pw.inp   Done                     01/02/2019 15:38:06
00014 suncat0143 pw.x -in pw.inp   Done                     01/02/2019 15:38:06
00015 suncat0143 pw.x -in pw.inp   Done                     01/02/2019 15:38:06
00016 suncat0108 pw.x -in pw.inp   Done                     01/02/2019 15:38:06
00017 suncat0108 pw.x -in pw.inp   Done                     01/02/2019 15:38:06
00018 suncat0108 pw.x -in pw.inp   Done                     01/02/2019 15:38:06
00019 suncat0108 pw.x -in pw.inp   Done                     01/02/2019 15:38:06
00020 suncat0108 pw.x -in pw.inp   Done                     01/02/2019 15:38:06
00021 suncat0108 pw.x -in pw.inp   Done                     01/02/2019 15:38:06
00022 suncat0108 pw.x -in pw.inp   Done                     01/02/2019 15:38:06
00023 suncat0108 pw.x -in pw.inp   Done                     01/02/2019 15:38:06
00024 suncat0252 pw.x -in pw.inp   Done                     01/02/2019 15:38:06
00025 suncat0252 pw.x -in pw.inp   Done                     01/02/2019 15:38:06
00026 suncat0252 pw.x -in pw.inp   Done                     01/02/2019 15:38:06
00027 suncat0252 pw.x -in pw.inp   Done                     01/02/2019 15:38:06
00028 suncat0252 pw.x -in pw.inp   Done                     01/02/2019 15:38:06
00029 suncat0252 pw.x -in pw.inp   Done                     01/02/2019 15:38:06
00030 suncat0252 pw.x -in pw.inp   Done                     01/02/2019 15:38:06
00031 suncat0252 pw.x -in pw.inp   Done                     01/02/2019 15:38:06
00032 suncat0226 pw.x -in pw.inp   Done                     01/02/2019 15:38:06
00033 suncat0226 pw.x -in pw.inp   Done                     01/02/2019 15:38:06
00034 suncat0226 pw.x -in pw.inp   Done                     01/02/2019 15:38:06
00035 suncat0226 pw.x -in pw.inp   Done                     01/02/2019 15:38:06
00036 suncat0226 pw.x -in pw.inp   Done                     01/02/2019 15:38:06
00037 suncat0226 pw.x -in pw.inp   Done                     01/02/2019 15:38:06
00038 suncat0226 pw.x -in pw.inp   Done                     01/02/2019 15:38:06
00039 suncat0226 pw.x -in pw.inp   Done                     01/02/2019 15:38:06
00040 suncat0225 pw.x -in pw.inp   Done                     01/02/2019 15:38:06
00041 suncat0225 pw.x -in pw.inp   Done                     01/02/2019 15:38:06
00042 suncat0225 pw.x -in pw.inp   Done                     01/02/2019 15:38:06
00043 suncat0225 pw.x -in pw.inp   Done                     01/02/2019 15:38:06
00044 suncat0225 pw.x -in pw.inp   Done                     01/02/2019 15:38:06
00045 suncat0225 pw.x -in pw.inp   Done                     01/02/2019 15:38:06
00046 suncat0225 pw.x -in pw.inp   Done                     01/02/2019 15:38:06
00047 suncat0225 pw.x -in pw.inp   Done                     01/02/2019 15:38:06
00048 suncat0224 pw.x -in pw.inp   Done                     01/02/2019 15:38:06
00049 suncat0224 pw.x -in pw.inp   Done                     01/02/2019 15:38:06
00050 suncat0224 pw.x -in pw.inp   Done                     01/02/2019 15:38:06
00051 suncat0224 pw.x -in pw.inp   Done                     01/02/2019 15:38:06
00052 suncat0224 pw.x -in pw.inp   Done                     01/02/2019 15:38:06
00053 suncat0224 pw.x -in pw.inp   Done                     01/02/2019 15:38:06
00054 suncat0224 pw.x -in pw.inp   Done                     01/02/2019 15:38:06
00055 suncat0224 pw.x -in pw.inp   Done                     01/02/2019 15:38:06
00056 suncat0223 pw.x -in pw.inp   Done                     01/02/2019 15:38:06
00057 suncat0223 pw.x -in pw.inp   Done                     01/02/2019 15:38:06
00058 suncat0223 pw.x -in pw.inp   Done                     01/02/2019 15:38:06
00059 suncat0223 pw.x -in pw.inp   Done                     01/02/2019 15:38:06
00060 suncat0223 pw.x -in pw.inp   Done                     01/02/2019 15:38:06
00061 suncat0223 pw.x -in pw.inp   Done                     01/02/2019 15:38:06
00062 suncat0223 pw.x -in pw.inp   Done                     01/02/2019 15:38:06
00063 suncat0223 pw.x -in pw.inp   Done                     01/02/2019 15:38:06