     Program PWSCF v.5.1rc2 (svn rev. 11289) starts on 19Dec2018 at  3:32:28

     Current dimensions of program PWSCF are:
     Max number of different atomic species (ntypx) = 10
     Max number of k-points (npk) =  40000
     Max angular momentum in pseudopotentials (lmaxx) =  3
     Presently stress not available with electric field

     IMPORTANT: XC functional enforced from input :
     Exchange-correlation      = BEEF-VDW ( 1  4 27 13 2)
     Any further DFT definition will be discarded
     Please, verify this is what you really want

     Subspace diagonalization in iterative solution of the eigenvalue problem:
     a serial algorithm will be used

     Found symmetry operation: I + (  0.5000 -0.5000  0.0000)
     This is a supercell, fractional translations are disabled

     bravais-lattice index     =            0
     lattice parameter (alat)  =       1.8897  a.u.
     unit-cell volume          =    5718.3723 (a.u.)^3
     number of atoms/cell      =           12
     number of atomic types    =            2
     number of electrons       =       156.00
     number of Kohn-Sham states=          108
     kinetic-energy cutoff     =      36.7493  Ry
     charge density cutoff     =     367.4932  Ry
     convergence threshold     =      1.0E-06
     mixing beta               =       0.1000
     number of iterations used =           10  plain     mixing
     Exchange-correlation      = BEEF-VDW ( 1  4 27 13 2)
     nstep                     =           50

     celldm(1)=   1.889726  celldm(2)=   0.000000  celldm(3)=   0.000000
     celldm(4)=   0.000000  celldm(5)=   0.000000  celldm(6)=   0.000000

     crystal axes: (cart. coord. in units of alat)
               a(1) = (   5.999168   0.000000   0.000000 )
               a(2) = (   1.937477   5.677693   0.000000 )
               a(3) = (   0.000000   0.000000  24.877853 )

     reciprocal axes: (cart. coord. in units 2 pi/alat)
               b(1) = (  0.166690 -0.056882  0.000000 )
               b(2) = (  0.000000  0.176128  0.000000 )
               b(3) = (  0.000000  0.000000  0.040196 )

     PseudoPot. # 1 for Rh read from file:
     /afs/slac.stanford.edu/u/if/mamunm/psp/gbrv1.5pbe/Rh.UPF
     MD5 check sum: 761627e959a2e3a1f56b0b5fe687810e
     Pseudo is Ultrasoft + core correction, Zval = 15.0
     Generated by new atomic code, or converted to UPF format
     Using radial grid of  969 points,  7 beta functions with:
                l(1) =   0
                l(2) =   0
                l(3) =   1
                l(4) =   1
                l(5) =   2
                l(6) =   2
                l(7) =   2
     Q(r) pseudized with  8 coefficients,  rinner =    1.200   1.200   1.200
                                                       1.200   1.200

     PseudoPot. # 2 for Y  read from file:
     /afs/slac.stanford.edu/u/if/mamunm/psp/gbrv1.5pbe/Y.UPF
     MD5 check sum: d034151ed7554c50b6e82763ed42c788
     Pseudo is Ultrasoft + core correction, Zval = 11.0
     Generated by new atomic code, or converted to UPF format
     Using radial grid of  885 points,  6 beta functions with:
                l(1) =   0
                l(2) =   0
                l(3) =   1
                l(4) =   1
                l(5) =   2
                l(6) =   2
     Q(r) pseudized with  8 coefficients,  rinner =    1.200   1.200   1.200
                                                       1.200   1.200

     vdW kernel table read from file vdW_kernel_table
     MD5 check sum: 095c7af220d748ca6e76c0b4c6cfb241

     atomic species   valence    mass     pseudopotential
        Rh1           15.00   102.90550     Rh( 1.00)
        Y1            11.00    88.90584     Y ( 1.00)

     No symmetry found

   Cartesian axes

     site n.     atom                  positions (alat units)
         1           Rh1 tau(   1) = (   0.0000000   0.0000000  10.0000000  )
         2           Rh1 tau(   2) = (   3.9683226   2.8388465  10.0000000  )
         3           Y1  tau(   3) = (   2.9995839   0.0000000  10.0000000  )
         4           Y1  tau(   4) = (   0.9687387   2.8388465  10.0000000  )
         5           Rh1 tau(   5) = (   5.9991679   4.2916663  12.4389267  )
         6           Rh1 tau(   6) = (   2.0308453   1.4528199  12.4389267  )
         7           Y1  tau(   7) = (   2.9995839   4.2916663  12.4389267  )
         8           Y1  tau(   8) = (   5.0304292   1.4528199  12.4389267  )
         9           Rh1 tau(   9) = (   4.0616906   2.9056398  14.8778535  )
        10           Rh1 tau(  10) = (   0.0933680   0.0667933  14.8778535  )
        11           Y1  tau(  11) = (   1.0621066   2.9056398  14.8778535  )
        12           Y1  tau(  12) = (   3.0929519   0.0667933  14.8778535  )

     number of k points=    20  Fermi-Dirac smearing, width (Ry)=  0.0110
                       cart. coord. in units 2pi/alat
        k(    1) = (   0.0000000   0.0000000   0.0000000), wk =   0.0555556
        k(    2) = (   0.0000000   0.0293546   0.0000000), wk =   0.1111111
        k(    3) = (   0.0000000   0.0587093   0.0000000), wk =   0.1111111
        k(    4) = (   0.0000000  -0.0880639   0.0000000), wk =   0.0555556
        k(    5) = (   0.0277816  -0.0094803   0.0000000), wk =   0.1111111
        k(    6) = (   0.0277816   0.0198743   0.0000000), wk =   0.1111111
        k(    7) = (   0.0277816   0.0492290   0.0000000), wk =   0.1111111
        k(    8) = (   0.0277816  -0.0975442   0.0000000), wk =   0.1111111
        k(    9) = (   0.0277816  -0.0681896   0.0000000), wk =   0.1111111
        k(   10) = (   0.0277816  -0.0388350   0.0000000), wk =   0.1111111
        k(   11) = (   0.0555633  -0.0189606   0.0000000), wk =   0.1111111
        k(   12) = (   0.0555633   0.0103940   0.0000000), wk =   0.1111111
        k(   13) = (   0.0555633   0.0397487   0.0000000), wk =   0.1111111
        k(   14) = (   0.0555633  -0.1070246   0.0000000), wk =   0.1111111
        k(   15) = (   0.0555633  -0.0776699   0.0000000), wk =   0.1111111
        k(   16) = (   0.0555633  -0.0483153   0.0000000), wk =   0.1111111
        k(   17) = (  -0.0833449   0.0284409   0.0000000), wk =   0.0555556
        k(   18) = (  -0.0833449   0.0577956   0.0000000), wk =   0.1111111
        k(   19) = (  -0.0833449   0.0871502   0.0000000), wk =   0.1111111
        k(   20) = (  -0.0833449  -0.0596230   0.0000000), wk =   0.0555556

     Largest allocated arrays     est. size (Mb)     dimensions
     Largest temporary arrays     est. size (Mb)     dimensions

     Initial potential from superposition of free atoms
     Check: negative starting charge=   -0.324579

     starting charge  152.97259, renormalised to  156.00000

     negative rho (up, down):  3.310E-01 0.000E+00

     *
     * You are using vdW-DF for exchange-correlation in this calculation.
     * Please cite the following three references that made this development
     * possible:
     *
     *   M. Dion, H. Rydberg, E. Schroder, D. C. Langreth, and
     *   B. I. Lundqvist, Phys. Rev. Lett. 92, 246401 (2004).
     *
     *   T. Thonhauser, V. R. Cooper, S. Li, A. Puzder, P. Hyldgaard, and
     *   D. C. Langreth, Phys. Rev. B 76, 125112 (2007).
     *
     *   G. Roman-Perez and J. M. Soler, Phys. Rev. Lett. 103, 096102 (2009).
     *
     *
     * If you are using vdW-DF2, please also cite:
     *
     *   K. Lee, E. D. Murray, L. Kong, B. I. Lundqvist, and
     *   D. C. Langreth, Phys. Rev. B 82, 081101(R) (2010).
     *
     *
     * If you are calculating the stress with vdW-DF, please also cite:
     *
     *   R. Sabatini, E. Kucukbenli, B. Kolb, T. Thonhauser, and
     *   S. de Gironcoli, J. Phys.: Condens. Matter 24, 424209 (2012).
     *

     Carrying out vdW-DF run using the following parameters:

     Nqs =      20    Nr_points =    1024   r_max =   100.000
     q_mesh =
               0.00001000     0.04494208     0.09755937     0.15916263
               0.23128650     0.31572767     0.41458969     0.53033537
               0.66584808     0.82450364     1.01025438     1.22772762
               1.48234092     1.78043706     2.12944203     2.53805004
               3.01644009     3.57652955     4.23227104     5.00000000

     Gradients computed in reciprocal space

     Adding external electric field

     Computed dipole along edir(3) :
        Dipole                0.0000 Ry au,          0.0000 Debye
        Dipole field          0.0000 Ry au

        Potential amp.       -0.0000 Ry
        Total length         45.8370 bohr

     Starting wfc are  150 randomized atomic wfcs

     Self-consistent Calculation

     iteration #  1     ecut=    36.75 Ry     beta=0.10
     Davidson diagonalization with overlap
     ethr =  1.00E-02,  avg # of iterations =  2.0

[...]

     total energy              =   -1596.14339022 Ry
     Harris-Foulkes estimate   =   -1596.49591153 Ry
     estimated scf accuracy    <       2.15196143 Ry

[...]

     End of self-consistent calculation

          k = 0.0000 0.0000 0.0000 ( 21419 PWs)   bands (ev):

   -44.5398 -44.5173 -44.5124 -44.5089 -44.4524 -44.4506 -44.1460 -44.1457
   -44.1442 -44.1440 -44.0740 -44.0732 -44.0521 -44.0520 -43.9423 -43.9405
   -43.9390 -43.9389 -41.7043 -41.7009 -41.6742 -41.6730 -40.8946 -40.8664
   -21.8040 -21.7974 -21.7513 -21.7459 -21.7259 -21.7010 -21.5851 -21.5629
   -21.5621 -21.5317 -21.4387 -21.4372 -21.0537 -20.8900 -20.8589 -20.8538
   -20.8024 -20.6758  -3.4721  -2.2365  -2.0281  -1.7358  -1.7116  -1.6458
    -1.6210  -1.5809  -1.5489  -1.5460  -1.1919  -1.0246  -0.9977  -0.8089
    -0.7451  -0.7381  -0.5346  -0.4944  -0.4642  -0.3944  -0.3902  -0.2776
    -0.2645  -0.0428   0.0925   0.2392   0.3343   0.4402   0.5514   0.6287
     0.6450   0.9428   0.9804   1.5844   1.7002   1.8402   1.8957   2.4805
     2.4863   2.4910   3.0052   3.1376   3.3574   3.3677   3.3897   3.4242
     3.5216   3.5899   3.6465   3.9669   4.0995   4.3151   4.3515   4.5131
     4.6862   4.7004   4.7776   4.7934   4.9156   4.9927   5.0626   5.3498
     5.7139   5.7236   5.7312   6.0759

[...]

          k =-0.0833 0.0284 0.0000 ( 21516 PWs)   bands (ev):

[...]

     the Fermi energy is     1.4384 ev

!    total energy              =   -1596.06568759 Ry
     Harris-Foulkes estimate   =   -1596.06568696 Ry
     estimated scf accuracy    <       0.00000096 Ry

     The total energy is the sum of the following terms:

     one-electron contribution =  -10512.19582637 Ry
     hartree contribution      =    5275.75631346 Ry
     xc contribution           =    -356.22376706 Ry
     ewald contribution        =    3996.64412905 Ry
     electric field correction =       0.00000000 Ry
     smearing contrib. (-TS)   =      -0.04653667 Ry

     convergence has been achieved in  14 iterations

 BEEF-vdW xc energy contributions
           1 :   -310.537065369184
           2 :    281.973692269365
           3 :   -232.589563345480
           4 :    174.517814992282
           5 :   -119.646058057129
           6 :    75.9994338876088
           7 :   -46.4079273693873
           8 :    29.3656478371614
           9 :   -21.1147651697082
          10 :    17.7820155461603
          11 :   -16.7054293620675
          12 :    16.6510346366218
[...]
00029 suncat2042 pw.x -in pw.inp   Done                     12/19/2018 03:37:20
00030 suncat2042 pw.x -in pw.inp   Done                     12/19/2018 03:37:20
00031 suncat2042 pw.x -in pw.inp   Done                     12/19/2018 03:37:20

[...]

     iteration #  5     ecut=    36.75 Ry     beta=0.10
     Davidson diagonalization with overlap
     c_bands:  2 eigenvalues not converged
     ethr =  2.49E-04,  avg # of iterations =  7.9

[...]

   This run was terminated on:   3:58:20  19Dec2018

[...]

     Program PWSCF v.5.1rc2 (svn rev. 11289) starts on 19Dec2018 at  3:58:26

     Current dimensions of program PWSCF are:
     Max number of different atomic species (ntypx) = 10
     Max number of k-points (npk) =  40000
     Max angular momentum in pseudopotentials (lmaxx) =  3
     Presently stress not available with electric field

     IMPORTANT: XC functional enforced from input :
     Exchange-correlation      = BEEF-VDW ( 1  4 27 13 2)
     Any further DFT definition will be discarded
     Please, verify this is what you really want

     Subspace diagonalization in iterative solution of the eigenvalue problem:
     a serial algorithm will be used

     Found symmetry operation: I + (  0.5000 -0.5000  0.0000)
     This is a supercell, fractional translations are disabled

     bravais-lattice index     =            0
     lattice parameter (alat)  =       1.8897  a.u.
     unit-cell volume          =    5718.3723 (a.u.)^3
     number of atoms/cell      =           12
     number of atomic types    =            2
     number of electrons       =       156.00
     number of Kohn-Sham states=          108
     kinetic-energy cutoff     =      36.7493  Ry
     charge density cutoff     =     367.4932  Ry
     convergence threshold     =      1.0E-06
     mixing beta               =       0.1000
     number of iterations used =           10  plain     mixing
     Exchange-correlation      = BEEF-VDW ( 1  4 27 13 2)
     nstep                     =           50

     celldm(1)=   1.889726  celldm(2)=   0.000000  celldm(3)=   0.000000
     celldm(4)=   0.000000  celldm(5)=   0.000000  celldm(6)=   0.000000

     crystal axes: (cart. coord. in units of alat)
               a(1) = (   5.999168   0.000000   0.000000 )
               a(2) = (   1.937477   5.677693   0.000000 )
               a(3) = (   0.000000   0.000000  24.877853 )

     reciprocal axes: (cart. coord. in units 2 pi/alat)
               b(1) = (  0.166690 -0.056882  0.000000 )
               b(2) = (  0.000000  0.176128  0.000000 )
               b(3) = (  0.000000  0.000000  0.040196 )

     PseudoPot. # 1 for Rh read from file:
     /afs/slac.stanford.edu/u/if/mamunm/psp/gbrv1.5pbe/Rh.UPF
     MD5 check sum: 761627e959a2e3a1f56b0b5fe687810e
     Pseudo is Ultrasoft + core correction, Zval = 15.0
     Generated by new atomic code, or converted to UPF format
     Using radial grid of  969 points,  7 beta functions with:
                l(1) =   0
                l(2) =   0
                l(3) =   1
                l(4) =   1
                l(5) =   2
                l(6) =   2
                l(7) =   2
     Q(r) pseudized with  8 coefficients,  rinner =    1.200   1.200   1.200
                                                       1.200   1.200

     PseudoPot. # 2 for Y  read from file:
     /afs/slac.stanford.edu/u/if/mamunm/psp/gbrv1.5pbe/Y.UPF
     MD5 check sum: d034151ed7554c50b6e82763ed42c788
     Pseudo is Ultrasoft + core correction, Zval = 11.0
     Generated by new atomic code, or converted to UPF format
     Using radial grid of  885 points,  6 beta functions with:
                l(1) =   0
                l(2) =   0
                l(3) =   1
                l(4) =   1
                l(5) =   2
                l(6) =   2
     Q(r) pseudized with  8 coefficients,  rinner =    1.200   1.200   1.200
                                                       1.200   1.200

     vdW kernel table read from file vdW_kernel_table
     MD5 check sum: 095c7af220d748ca6e76c0b4c6cfb241

     atomic species   valence    mass     pseudopotential
        Rh1           15.00   102.90550     Rh( 1.00)
        Y1            11.00    88.90584     Y ( 1.00)

     No symmetry found

   Cartesian axes

     site n.     atom                  positions (alat units)
         1           Rh1 tau(   1) = (   0.0000000   0.0000000  10.0000000  )
         2           Rh1 tau(   2) = (   3.9683226   2.8388465  10.0000000  )
         3           Y1  tau(   3) = (   2.9995839   0.0000000  10.0000000  )
         4           Y1  tau(   4) = (   0.9687387   2.8388465  10.0000000  )
         5           Rh1 tau(   5) = (   5.9991679   4.2916663  12.4389267  )
         6           Rh1 tau(   6) = (   2.0308453   1.4528199  12.4389267  )
         7           Y1  tau(   7) = (   2.9995839   4.2916663  12.4389267  )
         8           Y1  tau(   8) = (   5.0304292   1.4528199  12.4389267  )
         9           Rh1 tau(   9) = (   4.0420635   2.8916143  14.6815754  )
        10           Rh1 tau(  10) = (   0.0737526   0.0527522  14.6815795  )
        11           Y1  tau(  11) = (   1.0270553   2.8805581  14.9043385  )
        12           Y1  tau(  12) = (   3.0579217   0.0417354  14.9043431  )

     number of k points=    20  Fermi-Dirac smearing, width (Ry)=  0.0110
                       cart. coord. in units 2pi/alat
        k(    1) = (   0.0000000   0.0000000   0.0000000), wk =   0.0555556
        k(    2) = (   0.0000000   0.0293546   0.0000000), wk =   0.1111111
        k(    3) = (   0.0000000   0.0587093   0.0000000), wk =   0.1111111
        k(    4) = (   0.0000000  -0.0880639   0.0000000), wk =   0.0555556
        k(    5) = (   0.0277816  -0.0094803   0.0000000), wk =   0.1111111
        k(    6) = (   0.0277816   0.0198743   0.0000000), wk =   0.1111111
        k(    7) = (   0.0277816   0.0492290   0.0000000), wk =   0.1111111
        k(    8) = (   0.0277816  -0.0975442   0.0000000), wk =   0.1111111
        k(    9) = (   0.0277816  -0.0681896   0.0000000), wk =   0.1111111
        k(   10) = (   0.0277816  -0.0388350   0.0000000), wk =   0.1111111
        k(   11) = (   0.0555633  -0.0189606   0.0000000), wk =   0.1111111
        k(   12) = (   0.0555633   0.0103940   0.0000000), wk =   0.1111111
        k(   13) = (   0.0555633   0.0397487   0.0000000), wk =   0.1111111
        k(   14) = (   0.0555633  -0.1070246   0.0000000), wk =   0.1111111
        k(   15) = (   0.0555633  -0.0776699   0.0000000), wk =   0.1111111
        k(   16) = (   0.0555633  -0.0483153   0.0000000), wk =   0.1111111
        k(   17) = (  -0.0833449   0.0284409   0.0000000), wk =   0.0555556
        k(   18) = (  -0.0833449   0.0577956   0.0000000), wk =   0.1111111
        k(   19) = (  -0.0833449   0.0871502   0.0000000), wk =   0.1111111
        k(   20) = (  -0.0833449  -0.0596230   0.0000000), wk =   0.0555556

     Largest allocated arrays     est. size (Mb)     dimensions
     Largest temporary arrays     est. size (Mb)     dimensions

     Initial potential from superposition of free atoms
     Check: negative starting charge=   -0.325595

     starting charge  152.97259, renormalised to  156.00000

[...]

     *
     * You are using vdW-DF for exchange-correlation in this calculation.
     * Please cite the following three references that made this development
     * possible:
     *
     *   M. Dion, H. Rydberg, E. Schroder, D. C. Langreth, and
     *   B. I. Lundqvist, Phys. Rev. Lett. 92, 246401 (2004).
     *
     *   T. Thonhauser, V. R. Cooper, S. Li, A. Puzder, P. Hyldgaard, and
     *   D. C. Langreth, Phys. Rev. B 76, 125112 (2007).
     *
     *   G. Roman-Perez and J. M. Soler, Phys. Rev. Lett. 103, 096102 (2009).
     *
     *
     * If you are using vdW-DF2, please also cite:
     *
     *   K. Lee, E. D. Murray, L. Kong, B. I. Lundqvist, and
     *   D. C. Langreth, Phys. Rev. B 82, 081101(R) (2010).
     *
     *
     * If you are calculating the stress with vdW-DF, please also cite:
     *
     *   R. Sabatini, E. Kucukbenli, B. Kolb, T. Thonhauser, and
     *   S. de Gironcoli, J. Phys.: Condens. Matter 24, 424209 (2012).
     *

     Carrying out vdW-DF run using the following parameters:

     Nqs =      20    Nr_points =    1024   r_max =   100.000
     q_mesh =
               0.00001000     0.04494208     0.09755937     0.15916263
               0.23128650     0.31572767     0.41458969     0.53033537
               0.66584808     0.82450364     1.01025438     1.22772762
               1.48234092     1.78043706     2.12944203     2.53805004
               3.01644009     3.57652955     4.23227104     5.00000000

     Gradients computed in reciprocal space

[...]

     Starting wfc are  150 randomized atomic wfcs

     Self-consistent Calculation

[...]

     total energy              =   -1596.07765361 Ry
     Harris-Foulkes estimate   =   -1596.07765350 Ry
     estimated scf accuracy    <       0.00000496 Ry

     iteration # 15     ecut=    36.75 Ry     beta=0.10
     Davidson diagonalization with overlap
     ethr =  3.18E-09,  avg # of iterations =  1.9

[...]

     negative rho (up, down):  3.310E-01 0.000E+00

     Adding external electric field

     Computed dipole along edir(3) :
        Dipole                0.0947 Ry au,          0.2407 Debye
        Dipole field          0.0002 Ry au

        Potential amp.       -0.0191 Ry
        Total length         45.8370 bohr

     End of self-consistent calculation

[...]

          k = 0.0556-0.0483 0.0000 ( 21513 PWs)   bands (ev):

[...]

          k =-0.0833-0.0596 0.0000 ( 21530 PWs)   bands (ev):

   -44.4435 -44.4197 -44.4186 -44.4146 -44.3640 -44.3594 -44.1103 -44.1045
   -44.0793 -44.0644 -44.0583 -44.0542 -43.9841 -43.9603 -43.9494 -43.9457
   -43.8495 -43.8471 -41.6630 -41.6376 -41.6130 -41.5878 -40.6410 -40.6145
   -21.7641 -21.7305 -21.7298 -21.6811 -21.6631 -21.6223 -21.5705 -21.5181
   -21.5122 -21.4646 -21.3931 -21.3584 -20.8376 -20.6850 -20.6389 -20.6297
   -20.6036 -20.4473  -1.8695  -1.5969  -1.2475  -1.2194  -1.0640  -0.9888
    -0.8975  -0.8244  -0.7501  -0.6885  -0.6653  -0.6224  -0.5408  -0.5092
    -0.3251  -0.3199  -0.2780  -0.2075  -0.1015  -0.0773   0.0192   0.0205
     0.0576   0.0841   0.1776   0.2849   0.3097   0.3142   0.3324   0.3828
     0.4448   0.6334   0.7088   0.9588   1.1643   1.2804   1.3749   1.4399
     1.4444   1.5276   1.5710   2.2688   2.3329   2.5697   2.6861   2.6981
     2.8674   3.1063   3.3616   3.3959   3.6186   3.7512   3.9480   4.1797
     4.1898   4.2021   4.2934   4.4549   4.5633   4.6616   4.8442   5.4520
     5.6834   5.8543   5.9861   6.0985

     the Fermi energy is     1.5142 ev

!    total energy              =   -1596.07765446 Ry
     Harris-Foulkes estimate   =   -1596.07765425 Ry
     estimated scf accuracy    <       0.00000064 Ry

     The total energy is the sum of the following terms:

     one-electron contribution =  -10660.49707255 Ry
     hartree contribution      =    5350.37674896 Ry
     xc contribution           =    -356.30384923 Ry
     ewald contribution        =    4070.39318711 Ry
     electric field correction =       0.00001971 Ry
     smearing contrib. (-TS)   =      -0.04668846 Ry

     convergence has been achieved in  15 iterations

 BEEF-vdW xc energy contributions
           1 :   -310.624351040635
           2 :    282.112654040323
           3 :   -232.785907322036
           4 :    174.719146975181
           5 :   -119.771902707503
           6 :    75.9956056594589
           7 :   -46.2888195112346
           8 :    29.2100322481004
           9 :   -21.0146518660853
          10 :    17.7834951250587
          11 :   -16.7857826686495
          12 :    16.7444979021347
          13 :   -17.2682475202514
          14 :    18.0787324370128
          15 :   -18.5939066343179
          16 :    18.0224830251859
          17 :   -15.7506019749643
          18 :    11.6888439196626
          19 :   -6.37436277321802
          20 :   0.804209483372631
          21 :    3.89751515356136
          22 :   -6.83365031444214
          23 :    7.58605866802128
          24 :   -6.30881425005128
          25 :    3.66162458180361
          26 :  -0.608292850146881
          27 :   -1.87832333438564
          28 :    3.12171735128777
          29 :   -2.94292625351022
          30 :    1.66768751456868
          31 :   -30.1550810451503
          32 :   -21.5786369721372

     Forces acting on atoms (Ry/au):

     negative rho (up, down):  3.310E-01 0.000E+00
     atom    1 type  1   force =     0.00029159    0.00020760    0.02471280
     atom    2 type  1   force =     0.00028941    0.00020712    0.02471329
     atom    3 type  2   force =     0.00367459    0.00263033   -0.01012277
     atom    4 type  2   force =     0.00367383    0.00262749   -0.01011944
     atom    5 type  1   force =    -0.00020704   -0.00014885   -0.00005586
     atom    6 type  1   force =    -0.00020682   -0.00014915   -0.00006018
     atom    7 type  2   force =    -0.00247159   -0.00176788   -0.01493648
     atom    8 type  2   force =    -0.00247061   -0.00176703   -0.01493773
     atom    9 type  1   force =    -0.00096229   -0.00068917   -0.00015780
     atom   10 type  1   force =    -0.00096394   -0.00068903   -0.00015697
     atom   11 type  2   force =    -0.00032490   -0.00022896    0.00056067
     atom   12 type  2   force =    -0.00032223   -0.00023247    0.00056045

     Total force =     0.044001     Total SCF correction =     0.001996

     entering subroutine stress ...

     negative rho (up, down):  3.310E-01 0.000E+00
          total   stress  (Ry/bohr**3)                   (kbar)     P=  -23.36
  -0.00020487  -0.00002688  -0.00000850        -30.14     -3.95     -1.25
  -0.00002688  -0.00018653  -0.00000608         -3.95    -27.44     -0.89
  -0.00000850  -0.00000608  -0.00008506         -1.25     -0.89    -12.51

 !ASE

     Writing output data file calc.save

     General routines

     Parallel routines

   This run was terminated on:   4: 3:22  19Dec2018

   JOB DONE.
Job  /afs/slac/g/suncat/bin/suncat-tsmpirun -x LD_LIBRARY_PATH -wdir /scratch/qe530498_bISjQ pw.x -in pw.inp

TID   HOST_NAME   COMMAND_LINE            STATUS            TERMINATION_TIME
00000 suncat2063 pw.x -in pw.inp   Done                     12/19/2018 04:03:22
00001 suncat2063 pw.x -in pw.inp   Done                     12/19/2018 04:03:22
00002 suncat2063 pw.x -in pw.inp   Done                     12/19/2018 04:03:22
00003 suncat2063 pw.x -in pw.inp   Done                     12/19/2018 04:03:22
00004 suncat2063 pw.x -in pw.inp   Done                     12/19/2018 04:03:22
00005 suncat2063 pw.x -in pw.inp   Done                     12/19/2018 04:03:22
00006 suncat2063 pw.x -in pw.inp   Done                     12/19/2018 04:03:22
00007 suncat2063 pw.x -in pw.inp   Done                     12/19/2018 04:03:22
00008 suncat2063 pw.x -in pw.inp   Done                     12/19/2018 04:03:22
00009 suncat2063 pw.x -in pw.inp   Done                     12/19/2018 04:03:22
00010 suncat2063 pw.x -in pw.inp   Done                     12/19/2018 04:03:22
00011 suncat2063 pw.x -in pw.inp   Done                     12/19/2018 04:03:22
00012 suncat2063 pw.x -in pw.inp   Done                     12/19/2018 04:03:22
00013 suncat2063 pw.x -in pw.inp   Done                     12/19/2018 04:03:22
00014 suncat2063 pw.x -in pw.inp   Done                     12/19/2018 04:03:22
00015 suncat2063 pw.x -in pw.inp   Done                     12/19/2018 04:03:22
00016 suncat2042 pw.x -in pw.inp   Done                     12/19/2018 04:03:22
00017 suncat2042 pw.x -in pw.inp   Done                     12/19/2018 04:03:22
00018 suncat2042 pw.x -in pw.inp   Done                     12/19/2018 04:03:22
00019 suncat2042 pw.x -in pw.inp   Done                     12/19/2018 04:03:22
00020 suncat2042 pw.x -in pw.inp   Done                     12/19/2018 04:03:22
00021 suncat2042 pw.x -in pw.inp   Done                     12/19/2018 04:03:22
00022 suncat2042 pw.x -in pw.inp   Done                     12/19/2018 04:03:22
00023 suncat2042 pw.x -in pw.inp   Done                     12/19/2018 04:03:22
00024 suncat2042 pw.x -in pw.inp   Done                     12/19/2018 04:03:22
00025 suncat2042 pw.x -in pw.inp   Done                     12/19/2018 04:03:22
00026 suncat2042 pw.x -in pw.inp   Done                     12/19/2018 04:03:22
00027 suncat2042 pw.x -in pw.inp   Done                     12/19/2018 04:03:22
00028 suncat2042 pw.x -in pw.inp   Done                     12/19/2018 04:03:22
00029 suncat2042 pw.x -in pw.inp   Done                     12/19/2018 04:03:22
00030 suncat2042 pw.x -in pw.inp   Done                     12/19/2018 04:03:22
00031 suncat2042 pw.x -in pw.inp   Done                     12/19/2018 04:03:22