     Program PWSCF v.5.1rc2 (svn rev. 11289) starts on 19Dec2018 at 17:46:17

     Current dimensions of program PWSCF are:
     Max number of different atomic species (ntypx) = 10
     Max number of k-points (npk) =  40000
     Max angular momentum in pseudopotentials (lmaxx) =  3
     Presently stress not available with electric field

     IMPORTANT: XC functional enforced from input :
     Exchange-correlation      = BEEF-VDW ( 1  4 27 13 2)
     Any further DFT definition will be discarded
     Please, verify this is what you really want

     Subspace diagonalization in iterative solution of the eigenvalue problem:
     a serial algorithm will be used

     bravais-lattice index     =            0
     lattice parameter (alat)  =       1.8897  a.u.
     unit-cell volume          =    4415.5677 (a.u.)^3
     number of atoms/cell      =           12
     number of atomic types    =            2
     number of electrons       =        69.00
     number of Kohn-Sham states=           64
     kinetic-energy cutoff     =      36.7493  Ry
     charge density cutoff     =     367.4932  Ry
     convergence threshold     =      1.0E-06
     mixing beta               =       0.1000
     number of iterations used =           10  plain     mixing
     Exchange-correlation      = BEEF-VDW ( 1  4 27 13 2)
     nstep                     =           50

     celldm(1)=   1.889726  celldm(2)=   0.000000  celldm(3)=   0.000000
     celldm(4)=   0.000000  celldm(5)=   0.000000  celldm(6)=   0.000000

     crystal axes: (cart. coord. in units of alat)
               a(1) = (   5.549697   0.000000   0.000000 )
               a(2) = (  -2.774849   4.806179   0.000000 )
               a(3) = (   0.000000   0.000000  24.531309 )

     reciprocal axes: (cart. coord. in units 2 pi/alat)
               b(1) = (  0.180190  0.104033  0.000000 )
               b(2) = (  0.000000  0.208065  0.000000 )
               b(3) = (  0.000000  0.000000  0.040764 )

     PseudoPot. # 1 for Al read from file:
     /afs/slac.stanford.edu/u/if/mamunm/psp/gbrv1.5pbe/Al.UPF
     MD5 check sum: 0a6289f5291fc8f409219462bc851e1f
     Pseudo is Ultrasoft + core correction, Zval =  3.0
     Generated by new atomic code, or converted to UPF format
     Using radial grid of  893 points,  3 beta functions with:
                l(1) =   0
                l(2) =   1
                l(3) =   2
     Q(r) pseudized with  8 coefficients,  rinner =    0.900   0.900   0.900
                                                       0.900   0.900

     PseudoPot. # 2 for Mo read from file:
     /afs/slac.stanford.edu/u/if/mamunm/psp/gbrv1.5pbe/Mo.UPF
     MD5 check sum: 30c4dcd161f5d35cd49bb5239c51a633
     Pseudo is Ultrasoft + core correction, Zval = 14.0
     Generated by new atomic code, or converted to UPF format
     Using radial grid of  889 points,  6 beta functions with:
                l(1) =   0
                l(2) =   0
                l(3) =   1
                l(4) =   1
                l(5) =   2
                l(6) =   2
     Q(r) pseudized with  6 coefficients,  rinner =    1.000   1.000   1.000
                                                       1.000   1.000

     vdW kernel table read from file vdW_kernel_table
     MD5 check sum: 095c7af220d748ca6e76c0b4c6cfb241

     atomic species   valence    mass     pseudopotential
        Al1            3.00    26.98154     Al( 1.00)
        Mo1           14.00    95.95000     Mo( 1.00)

     No symmetry found

   Cartesian axes

     site n.     atom                  positions (alat units)
         1           Al1 tau(   1) = (   0.0000000   0.0000000  10.0000000  )
         2           Al1 tau(   2) = (  -1.3874243   2.4030894  10.0000000  )
         3           Al1 tau(   3) = (   1.3874243   2.4030894  10.0000000  )
         4           Mo1 tau(   4) = (   2.7748486   0.0000000  10.0000000  )
         5           Al1 tau(   5) = (   2.7748486   1.6020596  12.2656544  )
         6           Al1 tau(   6) = (   1.3874243   4.0051490  12.2656544  )
         7           Al1 tau(   7) = (  -1.3874243   4.0051490  12.2656544  )
         8           Mo1 tau(   8) = (   0.0000000   1.6020596  12.2656544  )
         9           Al1 tau(   9) = (  -0.0000000   3.2041192  14.5313089  )
        10           Al1 tau(  10) = (   1.3874243   0.8010298  14.5313089  )
        11           Al1 tau(  11) = (   4.1622730   0.8010298  14.5313089  )
        12           Mo1 tau(  12) = (   2.7748486   3.2041192  14.5313089  )

     number of k points=    20  Fermi-Dirac smearing, width (Ry)=  0.0110
                       cart. coord. in units 2pi/alat
        k(    1) = (   0.0000000   0.0000000   0.0000000), wk =   0.0555556
        k(    2) = (   0.0000000   0.0346776   0.0000000), wk =   0.1111111
        k(    3) = (   0.0000000   0.0693552   0.0000000), wk =   0.1111111
        k(    4) = (   0.0000000  -0.1040327   0.0000000), wk =   0.0555556
        k(    5) = (   0.0300317   0.0173388   0.0000000), wk =   0.1111111
        k(    6) = (   0.0300317   0.0520164   0.0000000), wk =   0.1111111
        k(    7) = (   0.0300317   0.0866940   0.0000000), wk =   0.1111111
        k(    8) = (   0.0300317  -0.0866940   0.0000000), wk =   0.1111111
        k(    9) = (   0.0300317  -0.0520164   0.0000000), wk =   0.1111111
        k(   10) = (   0.0300317  -0.0173388   0.0000000), wk =   0.1111111
        k(   11) = (   0.0600633   0.0346776   0.0000000), wk =   0.1111111
        k(   12) = (   0.0600633   0.0693552   0.0000000), wk =   0.1111111
        k(   13) = (   0.0600633   0.1040327   0.0000000), wk =   0.1111111
        k(   14) = (   0.0600633  -0.0693552   0.0000000), wk =   0.1111111
        k(   15) = (   0.0600633  -0.0346776   0.0000000), wk =   0.1111111
        k(   16) = (   0.0600633   0.0000000   0.0000000), wk =   0.1111111
        k(   17) = (  -0.0900950  -0.0520164   0.0000000), wk =   0.0555556
        k(   18) = (  -0.0900950  -0.0173388   0.0000000), wk =   0.1111111
        k(   19) = (  -0.0900950   0.0173388   0.0000000), wk =   0.1111111
        k(   20) = (  -0.0900950  -0.1560491   0.0000000), wk =   0.0555556

     Largest allocated arrays     est. size (Mb)     dimensions
     Largest temporary arrays     est. size (Mb)     dimensions

     Initial potential from superposition of free atoms
     Check: negative starting charge=   -0.002258

     starting charge   68.97462, renormalised to   69.00000

     negative rho (up, down):  2.259E-03 0.000E+00

     *
     * You are using vdW-DF for exchange-correlation in this calculation.
     * Please cite the following three references that made this development
     * possible:
     *
     *   M. Dion, H. Rydberg, E. Schroder, D. C. Langreth, and
     *   B. I. Lundqvist, Phys. Rev. Lett. 92, 246401 (2004).
     *
     *   T. Thonhauser, V. R. Cooper, S. Li, A. Puzder, P. Hyldgaard, and
     *   D. C. Langreth, Phys. Rev. B 76, 125112 (2007).
     *
     *   G. Roman-Perez and J. M. Soler, Phys. Rev. Lett. 103, 096102 (2009).
     *
     *
     * If you are using vdW-DF2, please also cite:
     *
     *   K. Lee, E. D. Murray, L. Kong, B. I. Lundqvist, and
     *   D. C. Langreth, Phys. Rev. B 82, 081101(R) (2010).
     *
     *
     * If you are calculating the stress with vdW-DF, please also cite:
     *
     *   R. Sabatini, E. Kucukbenli, B. Kolb, T. Thonhauser, and
     *   S. de Gironcoli, J. Phys.: Condens. Matter 24, 424209 (2012).
     *

     Carrying out vdW-DF run using the following parameters:

     Nqs =      20    Nr_points =    1024   r_max =   100.000
     q_mesh =
               0.00001000     0.04494208     0.09755937     0.15916263
               0.23128650     0.31572767     0.41458969     0.53033537
               0.66584808     0.82450364     1.01025438     1.22772762
               1.48234092     1.78043706     2.12944203     2.53805004
               3.01644009     3.57652955     4.23227104     5.00000000

     Gradients computed in reciprocal space

     Adding external electric field

     Computed dipole along edir(3) :
        Dipole               -0.0000 Ry au,         -0.0000 Debye
        Dipole field         -0.0000 Ry au

        Potential amp.        0.0000 Ry
        Total length         45.1985 bohr

     Starting wfc are   75 randomized atomic wfcs

     Self-consistent Calculation

     iteration #  1     ecut=    36.75 Ry     beta=0.10
     Davidson diagonalization with overlap
     ethr =  1.00E-02,  avg # of iterations =  5.8

[...]

     total energy              =    -481.70529423 Ry
     Harris-Foulkes estimate   =    -482.17492475 Ry
     estimated scf accuracy    <       2.72633943 Ry

[...]

     End of self-consistent calculation

          k = 0.0000 0.0000 0.0000 ( 16559 PWs)   bands (ev):

   -61.1454 -61.1176 -61.1175 -35.2457 -35.2396 -35.2396 -35.1954 -35.1937
   -35.1567 -35.1567 -35.1559 -35.1559 -10.3773  -8.5674  -6.4415  -5.3840
    -5.3840  -4.5218  -4.4985  -4.4985  -3.9710  -3.9710  -3.7492  -2.9743
    -2.8451  -2.8451  -2.2561  -1.4831  -1.4831  -1.3131  -0.8362  -0.8362
    -0.6571  -0.6571  -0.5237  -0.4042  -0.4042   0.1078   0.3787   0.3787
     1.2934   2.1812   2.2139   2.6388   2.6388   2.6970   2.6970   3.0820
     3.2053   3.2053   3.7906   3.9866   4.3194   4.8392   5.0323   5.0323
     5.1078   5.3823   5.6474   5.6474   6.0983   6.5722   6.7500   6.9981

[...]

          k =-0.0901-0.0520 0.0000 ( 16604 PWs)   bands (ev):

[...]

     the Fermi energy is    -0.1849 ev

!    total energy              =    -481.82503102 Ry
     Harris-Foulkes estimate   =    -481.82503172 Ry
     estimated scf accuracy    <       0.00000060 Ry

     The total energy is the sum of the following terms:

     one-electron contribution =   -2759.67025072 Ry
     hartree contribution      =    1380.23930692 Ry
     xc contribution           =    -100.25415430 Ry
     ewald contribution        =     997.90568311 Ry
     electric field correction =       0.00000000 Ry
     smearing contrib. (-TS)   =      -0.04561603 Ry

     convergence has been achieved in  14 iterations

 BEEF-vdW xc energy contributions
           1 :   -84.6047748063534
           2 :    75.5021265186561
           3 :   -60.7403917824458
           4 :    45.2108979748316
           5 :   -32.8261202507502
           6 :    25.1021139165197
           7 :   -21.3285048195120
           8 :    19.7861657009926
           9 :   -18.9905540692152
          10 :    18.2129187523151
          11 :   -17.2805436952234
          12 :    16.1596539035909
          13 :   -14.7917177027131
          14 :    13.2135570268798
          15 :   -11.6755200028716
          16 :    10.5152304372189
          17 :   -9.86674952243870
          18 :    9.49160116223268
          19 :   -8.92612158705731
          20 :    7.83561813680356
          21 :   -6.27929982128725
          22 :    4.66498368253787
          23 :   -3.44362782297839
          24 :    2.79481191202683
          25 :   -2.54024294232710
          26 :    2.31680354225423
          27 :   -1.84449585482871
          28 :    1.08113747717616
          29 :  -0.182323132055117
          30 :  -0.656218761981634
[...]
     celldm(4)=   0.000000  celldm(5)=   0.000000  celldm(6)=   0.000000

     crystal axes: (cart. coord. in units of alat)
               a(1) = (   5.549697   0.000000   0.000000 )
               a(2) = (  -2.774849   4.806179   0.000000 )
               a(3) = (   0.000000   0.000000  24.531309 )

     reciprocal axes: (cart. coord. in units 2 pi/alat)
               b(1) = (  0.180190  0.104033  0.000000 )
               b(2) = (  0.000000  0.208065  0.000000 )
               b(3) = (  0.000000  0.000000  0.040764 )

     PseudoPot. # 1 for Al read from file:
     /afs/slac.stanford.edu/u/if/mamunm/psp/gbrv1.5pbe/Al.UPF
     MD5 check sum: 0a6289f5291fc8f409219462bc851e1f
     Pseudo is Ultrasoft + core correction, Zval =  3.0
     Generated by new atomic code, or converted to UPF format
     Using radial grid of  893 points,  3 beta functions with:
                l(1) =   0
                l(2) =   1
                l(3) =   2
     Q(r) pseudized with  8 coefficients,  rinner =    0.900   0.900   0.900
                                                       0.900   0.900

     PseudoPot. # 2 for Mo read from file:
     /afs/slac.stanford.edu/u/if/mamunm/psp/gbrv1.5pbe/Mo.UPF
     MD5 check sum: 30c4dcd161f5d35cd49bb5239c51a633
     Pseudo is Ultrasoft + core correction, Zval = 14.0
     Generated by new atomic code, or converted to UPF format
     Using radial grid of  889 points,  6 beta functions with:
                l(1) =   0
                l(2) =   0
                l(3) =   1
                l(4) =   1
                l(5) =   2
                l(6) =   2
     Q(r) pseudized with  6 coefficients,  rinner =    1.000   1.000   1.000
                                                       1.000   1.000

     vdW kernel table read from file vdW_kernel_table
     MD5 check sum: 095c7af220d748ca6e76c0b4c6cfb241

     atomic species   valence    mass     pseudopotential
        Al1            3.00    26.98154     Al( 1.00)
        Mo1           14.00    95.95000     Mo( 1.00)

     No symmetry found

   Cartesian axes

     site n.     atom                  positions (alat units)
         1           Al1 tau(   1) = (   0.0000000   0.0000000  10.0000000  )
         2           Al1 tau(   2) = (  -1.3874243   2.4030894  10.0000000  )
         3           Al1 tau(   3) = (   1.3874243   2.4030894  10.0000000  )
         4           Mo1 tau(   4) = (   2.7748486   0.0000000  10.0000000  )
         5           Al1 tau(   5) = (   2.7748486   1.6020596  12.2656544  )
         6           Al1 tau(   6) = (   1.3874243   4.0051490  12.2656544  )
         7           Al1 tau(   7) = (  -1.3874243   4.0051490  12.2656544  )
         8           Mo1 tau(   8) = (   0.0000000   1.6020596  12.2656544  )
         9           Al1 tau(   9) = (  -0.0000002   3.1988252  14.7075946  )
        10           Al1 tau(  10) = (   1.3828397   0.8036768  14.7075948  )
        11           Al1 tau(  11) = (   4.1668583   0.8036773  14.7075943  )
        12           Mo1 tau(  12) = (   2.7748486   3.2041197  14.3151542  )

     number of k points=    20  Fermi-Dirac smearing, width (Ry)=  0.0110
                       cart. coord. in units 2pi/alat
        k(    1) = (   0.0000000   0.0000000   0.0000000), wk =   0.0555556
        k(    2) = (   0.0000000   0.0346776   0.0000000), wk =   0.1111111
        k(    3) = (   0.0000000   0.0693552   0.0000000), wk =   0.1111111
        k(    4) = (   0.0000000  -0.1040327   0.0000000), wk =   0.0555556
        k(    5) = (   0.0300317   0.0173388   0.0000000), wk =   0.1111111
        k(    6) = (   0.0300317   0.0520164   0.0000000), wk =   0.1111111
        k(    7) = (   0.0300317   0.0866940   0.0000000), wk =   0.1111111
        k(    8) = (   0.0300317  -0.0866940   0.0000000), wk =   0.1111111
        k(    9) = (   0.0300317  -0.0520164   0.0000000), wk =   0.1111111
        k(   10) = (   0.0300317  -0.0173388   0.0000000), wk =   0.1111111
        k(   11) = (   0.0600633   0.0346776   0.0000000), wk =   0.1111111
        k(   12) = (   0.0600633   0.0693552   0.0000000), wk =   0.1111111
        k(   13) = (   0.0600633   0.1040327   0.0000000), wk =   0.1111111
        k(   14) = (   0.0600633  -0.0693552   0.0000000), wk =   0.1111111
        k(   15) = (   0.0600633  -0.0346776   0.0000000), wk =   0.1111111
        k(   16) = (   0.0600633   0.0000000   0.0000000), wk =   0.1111111
        k(   17) = (  -0.0900950  -0.0520164   0.0000000), wk =   0.0555556
        k(   18) = (  -0.0900950  -0.0173388   0.0000000), wk =   0.1111111
        k(   19) = (  -0.0900950   0.0173388   0.0000000), wk =   0.1111111
        k(   20) = (  -0.0900950  -0.1560491   0.0000000), wk =   0.0555556

     Largest allocated arrays     est. size (Mb)     dimensions
     Largest temporary arrays     est. size (Mb)     dimensions

     Initial potential from superposition of free atoms
     Check: negative starting charge=   -0.002209

     starting charge   68.97462, renormalised to   69.00000

[...]

     *
     * You are using vdW-DF for exchange-correlation in this calculation.
     * Please cite the following three references that made this development
     * possible:
     *
     *   M. Dion, H. Rydberg, E. Schroder, D. C. Langreth, and
     *   B. I. Lundqvist, Phys. Rev. Lett. 92, 246401 (2004).
     *
     *   T. Thonhauser, V. R. Cooper, S. Li, A. Puzder, P. Hyldgaard, and
     *   D. C. Langreth, Phys. Rev. B 76, 125112 (2007).
     *
     *   G. Roman-Perez and J. M. Soler, Phys. Rev. Lett. 103, 096102 (2009).
     *
     *
     * If you are using vdW-DF2, please also cite:
     *
     *   K. Lee, E. D. Murray, L. Kong, B. I. Lundqvist, and
     *   D. C. Langreth, Phys. Rev. B 82, 081101(R) (2010).
     *
     *
     * If you are calculating the stress with vdW-DF, please also cite:
     *
     *   R. Sabatini, E. Kucukbenli, B. Kolb, T. Thonhauser, and
     *   S. de Gironcoli, J. Phys.: Condens. Matter 24, 424209 (2012).
     *

     Carrying out vdW-DF run using the following parameters:

     Nqs =      20    Nr_points =    1024   r_max =   100.000
     q_mesh =
               0.00001000     0.04494208     0.09755937     0.15916263
               0.23128650     0.31572767     0.41458969     0.53033537
               0.66584808     0.82450364     1.01025438     1.22772762
               1.48234092     1.78043706     2.12944203     2.53805004
               3.01644009     3.57652955     4.23227104     5.00000000

     Gradients computed in reciprocal space

[...]

     Starting wfc are   75 randomized atomic wfcs

     Self-consistent Calculation

[...]

     total energy              =    -481.86545896 Ry
     Harris-Foulkes estimate   =    -481.86545901 Ry
     estimated scf accuracy    <       0.00000113 Ry

     iteration # 15     ecut=    36.75 Ry     beta=0.10
     Davidson diagonalization with overlap
     ethr =  1.63E-09,  avg # of iterations =  2.0

[...]

     negative rho (up, down):  2.317E-03 0.000E+00

     Adding external electric field

     Computed dipole along edir(3) :
        Dipole                0.0865 Ry au,          0.2198 Debye
        Dipole field          0.0002 Ry au

        Potential amp.       -0.0223 Ry
        Total length         45.1985 bohr

     End of self-consistent calculation

[...]

          k = 0.0601 0.0000 0.0000 ( 16568 PWs)   bands (ev):

[...]

          k =-0.0901-0.1560 0.0000 ( 16604 PWs)   bands (ev):

   -61.0790 -61.0353 -61.0120 -35.1656 -35.1645 -35.1634 -35.1269 -35.0987
   -35.0982 -35.0626 -35.0623 -35.0521  -8.7062  -8.4289  -7.0490  -6.7725
    -5.8597  -5.4239  -4.8544  -4.2729  -4.2194  -3.6227  -2.9496  -2.8808
    -2.2751  -2.2432  -2.1154  -2.0566  -1.9159  -1.2410  -1.1908  -0.7433
    -0.3980   0.0259   0.1631   0.4849   0.4941   0.6769   0.9403   1.2001
     1.5534   2.0829   2.4809   2.5916   2.7226   2.8774   3.4022   3.4844
     3.8015   3.9644   4.3645   4.8244   4.9134   5.0040   5.0228   5.1208
     5.4169   5.5282   5.6262   5.6605   5.9638   6.1826   6.3285   6.5059

     the Fermi energy is    -0.0354 ev

!    total energy              =    -481.86545876 Ry
     Harris-Foulkes estimate   =    -481.86545998 Ry
     estimated scf accuracy    <       0.00000042 Ry

     The total energy is the sum of the following terms:

     one-electron contribution =   -2779.32061066 Ry
     hartree contribution      =    1390.22434128 Ry
     xc contribution           =    -100.19146943 Ry
     ewald contribution        =    1007.46273143 Ry
     electric field correction =       0.00002129 Ry
     smearing contrib. (-TS)   =      -0.04047267 Ry

     convergence has been achieved in  15 iterations

 BEEF-vdW xc energy contributions
           1 :   -84.5470935117821
           2 :    75.4310571875361
           3 :   -60.6486066622396
           4 :    45.0953913747204
           5 :   -32.6793848031673
           6 :    24.9079794373295
           7 :   -21.0702423402417
           8 :    19.4593963122119
           9 :   -18.6058847738112
          10 :    17.7842272612545
          11 :   -16.8120497942652
          12 :    15.6475868478475
          13 :   -14.2387781011033
          14 :    12.6377788788743
          15 :   -11.0993450766452
          16 :    9.94349450200311
          17 :   -9.27858184813797
          18 :    8.85988280766736
          19 :   -8.25016929653046
          20 :    7.15605294568547
          21 :   -5.65713149807041
          22 :    4.13992803350126
          23 :   -3.00676507660947
          24 :    2.39820301747433
          25 :   -2.13470733006383
          26 :    1.88594048011878
          27 :   -1.40973234001666
          28 :   0.679778239570453
          29 :   0.159366496366474
          30 :  -0.934252316045047
          31 :   -10.7907630432863
          32 :   -8.09985382822211

     Forces acting on atoms (Ry/au):

     negative rho (up, down):  2.317E-03 0.000E+00
     atom    1 type  1   force =    -0.00000002   -0.00138480   -0.03656582
     atom    2 type  1   force =    -0.00119938    0.00069244   -0.03656580
     atom    3 type  1   force =     0.00119928    0.00069245   -0.03656585
     atom    4 type  2   force =     0.00000003   -0.00000004    0.11407910
     atom    5 type  1   force =     0.00000002   -0.01287201   -0.01051739
     atom    6 type  1   force =    -0.01114761    0.00643606   -0.01051741
     atom    7 type  1   force =     0.01114749    0.00643600   -0.01051743
     atom    8 type  2   force =     0.00000037   -0.00000019    0.02669126
     atom    9 type  1   force =     0.00000000    0.00034717    0.00027691
     atom   10 type  1   force =     0.00030055   -0.00017338    0.00027686
     atom   11 type  1   force =    -0.00030075   -0.00017356    0.00027691
     atom   12 type  2   force =     0.00000001   -0.00000013   -0.00035133

     Total force =     0.136283     Total SCF correction =     0.002220

     entering subroutine stress ...

     negative rho (up, down):  2.317E-03 0.000E+00
          total   stress  (Ry/bohr**3)                   (kbar)     P=  -18.25
  -0.00018394   0.00000000   0.00000000        -27.06      0.00      0.00
   0.00000000  -0.00018394  -0.00000000          0.00    -27.06     -0.00
   0.00000000  -0.00000000  -0.00000429          0.00     -0.00     -0.63

 !ASE

     Writing output data file calc.save

     General routines

     Parallel routines

   This run was terminated on:  18:20:36  19Dec2018

   JOB DONE.
Job  /afs/slac/g/suncat/bin/suncat-tsmpirun -x LD_LIBRARY_PATH -wdir /scratch/qe773275_AqWVY pw.x -in pw.inp

TID   HOST_NAME   COMMAND_LINE            STATUS            TERMINATION_TIME
00000 suncat0178 pw.x -in pw.inp   Done                     12/19/2018 18:20:36
00001 suncat0178 pw.x -in pw.inp   Done                     12/19/2018 18:20:36
00002 suncat0178 pw.x -in pw.inp   Done                     12/19/2018 18:20:36
00003 suncat0178 pw.x -in pw.inp   Done                     12/19/2018 18:20:36
00004 suncat0178 pw.x -in pw.inp   Done                     12/19/2018 18:20:36
00005 suncat0178 pw.x -in pw.inp   Done                     12/19/2018 18:20:36
00006 suncat0178 pw.x -in pw.inp   Done                     12/19/2018 18:20:36
00007 suncat0178 pw.x -in pw.inp   Done                     12/19/2018 18:20:36
00008 suncat0177 pw.x -in pw.inp   Done                     12/19/2018 18:20:36
00009 suncat0177 pw.x -in pw.inp   Done                     12/19/2018 18:20:36
00010 suncat0177 pw.x -in pw.inp   Done                     12/19/2018 18:20:36
00011 suncat0177 pw.x -in pw.inp   Done                     12/19/2018 18:20:36
00012 suncat0177 pw.x -in pw.inp   Done                     12/19/2018 18:20:36
00013 suncat0177 pw.x -in pw.inp   Done                     12/19/2018 18:20:36
00014 suncat0177 pw.x -in pw.inp   Done                     12/19/2018 18:20:36
00015 suncat0177 pw.x -in pw.inp   Done                     12/19/2018 18:20:36
00016 suncat0172 pw.x -in pw.inp   Done                     12/19/2018 18:20:36
00017 suncat0172 pw.x -in pw.inp   Done                     12/19/2018 18:20:36
00018 suncat0172 pw.x -in pw.inp   Done                     12/19/2018 18:20:36
00019 suncat0172 pw.x -in pw.inp   Done                     12/19/2018 18:20:36
00020 suncat0172 pw.x -in pw.inp   Done                     12/19/2018 18:20:36
00021 suncat0172 pw.x -in pw.inp   Done                     12/19/2018 18:20:36
00022 suncat0172 pw.x -in pw.inp   Done                     12/19/2018 18:20:36
00023 suncat0172 pw.x -in pw.inp   Done                     12/19/2018 18:20:36
00024 suncat0171 pw.x -in pw.inp   Done                     12/19/2018 18:20:36
00025 suncat0171 pw.x -in pw.inp   Done                     12/19/2018 18:20:36
00026 suncat0171 pw.x -in pw.inp   Done                     12/19/2018 18:20:36
00027 suncat0171 pw.x -in pw.inp   Done                     12/19/2018 18:20:36
00028 suncat0171 pw.x -in pw.inp   Done                     12/19/2018 18:20:36
00029 suncat0171 pw.x -in pw.inp   Done                     12/19/2018 18:20:36
00030 suncat0171 pw.x -in pw.inp   Done                     12/19/2018 18:20:36
00031 suncat0171 pw.x -in pw.inp   Done                     12/19/2018 18:20:36
00032 suncat0169 pw.x -in pw.inp   Done                     12/19/2018 18:20:36
00033 suncat0169 pw.x -in pw.inp   Done                     12/19/2018 18:20:36
00034 suncat0169 pw.x -in pw.inp   Done                     12/19/2018 18:20:36
00035 suncat0169 pw.x -in pw.inp   Done                     12/19/2018 18:20:36
00036 suncat0169 pw.x -in pw.inp   Done                     12/19/2018 18:20:36
00037 suncat0169 pw.x -in pw.inp   Done                     12/19/2018 18:20:36
00038 suncat0169 pw.x -in pw.inp   Done                     12/19/2018 18:20:36
00039 suncat0169 pw.x -in pw.inp   Done                     12/19/2018 18:20:36
00040 suncat0168 pw.x -in pw.inp   Done                     12/19/2018 18:20:36
00041 suncat0168 pw.x -in pw.inp   Done                     12/19/2018 18:20:36
00042 suncat0168 pw.x -in pw.inp   Done                     12/19/2018 18:20:36
00043 suncat0168 pw.x -in pw.inp   Done                     12/19/2018 18:20:36
00044 suncat0168 pw.x -in pw.inp   Done                     12/19/2018 18:20:36
00045 suncat0168 pw.x -in pw.inp   Done                     12/19/2018 18:20:36
00046 suncat0168 pw.x -in pw.inp   Done                     12/19/2018 18:20:36
00047 suncat0168 pw.x -in pw.inp   Done                     12/19/2018 18:20:36
00048 suncat0110 pw.x -in pw.inp   Done                     12/19/2018 18:20:36
00049 suncat0110 pw.x -in pw.inp   Done                     12/19/2018 18:20:36
00050 suncat0110 pw.x -in pw.inp   Done                     12/19/2018 18:20:36
00051 suncat0110 pw.x -in pw.inp   Done                     12/19/2018 18:20:36
00052 suncat0110 pw.x -in pw.inp   Done                     12/19/2018 18:20:36
00053 suncat0110 pw.x -in pw.inp   Done                     12/19/2018 18:20:36
00054 suncat0110 pw.x -in pw.inp   Done                     12/19/2018 18:20:36
00055 suncat0110 pw.x -in pw.inp   Done                     12/19/2018 18:20:36
00056 suncat0105 pw.x -in pw.inp   Done                     12/19/2018 18:20:36
00057 suncat0105 pw.x -in pw.inp   Done                     12/19/2018 18:20:36
00058 suncat0105 pw.x -in pw.inp   Done                     12/19/2018 18:20:36
00059 suncat0105 pw.x -in pw.inp   Done                     12/19/2018 18:20:36
00060 suncat0105 pw.x -in pw.inp   Done                     12/19/2018 18:20:36
00061 suncat0105 pw.x -in pw.inp   Done                     12/19/2018 18:20:36
00062 suncat0105 pw.x -in pw.inp   Done                     12/19/2018 18:20:36
00063 suncat0105 pw.x -in pw.inp   Done                     12/19/2018 18:20:36