     Program PWSCF v.5.1rc2 (svn rev. 11289) starts on 30Dec2018 at 12:44:10

     Current dimensions of program PWSCF are:
     Max number of different atomic species (ntypx) = 10
     Max number of k-points (npk) =  40000
     Max angular momentum in pseudopotentials (lmaxx) =  3
     Presently stress not available with electric field

     IMPORTANT: XC functional enforced from input :
     Exchange-correlation      = BEEF-VDW ( 1  4 27 13 2)
     Any further DFT definition will be discarded
     Please, verify this is what you really want

     Subspace diagonalization in iterative solution of the eigenvalue problem:
     a serial algorithm will be used

     bravais-lattice index     =            0
     lattice parameter (alat)  =       1.8897  a.u.
     unit-cell volume          =    7915.5604 (a.u.)^3
     number of atoms/cell      =           12
     number of atomic types    =            2
     number of electrons       =       138.00
     number of Kohn-Sham states=           99
     kinetic-energy cutoff     =      36.7493  Ry
     charge density cutoff     =     367.4932  Ry
     convergence threshold     =      1.0E-06
     mixing beta               =       0.1000
     number of iterations used =           10  plain     mixing
     Exchange-correlation      = BEEF-VDW ( 1  4 27 13 2)
     nstep                     =           50

     celldm(1)=   1.889726  celldm(2)=   0.000000  celldm(3)=   0.000000
     celldm(4)=   0.000000  celldm(5)=   0.000000  celldm(6)=   0.000000

     crystal axes: (cart. coord. in units of alat)
               a(1) = (   7.230921   0.000000   0.000000 )
               a(2) = (  -3.615460   6.262161   0.000000 )
               a(3) = (   0.000000   0.000000  25.904022 )

     reciprocal axes: (cart. coord. in units 2 pi/alat)
               b(1) = (  0.138295  0.079845  0.000000 )
               b(2) = (  0.000000  0.159689  0.000000 )
               b(3) = (  0.000000  0.000000  0.038604 )

     PseudoPot. # 1 for La read from file:
     /afs/slac.stanford.edu/u/if/mamunm/psp/gbrv1.5pbe/La.UPF
     MD5 check sum: 5937b0c7494ba0601a847275249473aa
     Pseudo is Ultrasoft + core correction, Zval = 11.0
     Generated by new atomic code, or converted to UPF format
     Using radial grid of  995 points,  8 beta functions with:
                l(1) =   0
                l(2) =   0
                l(3) =   1
                l(4) =   1
                l(5) =   2
                l(6) =   2
                l(7) =   3
                l(8) =   3
     Q(r) pseudized with  8 coefficients,  rinner =    1.700   1.700   1.700
                                                       1.700   1.700   1.700
                                                       1.700

     PseudoPot. # 2 for In read from file:
     /afs/slac.stanford.edu/u/if/mamunm/psp/gbrv1.5pbe/In.UPF
     MD5 check sum: 90777abd96fbb83f2e67db2a40c566b9
     Pseudo is Ultrasoft + core correction, Zval = 13.0
     Generated by new atomic code, or converted to UPF format
     Using radial grid of  889 points,  6 beta functions with:
                l(1) =   0
                l(2) =   0
                l(3) =   1
                l(4) =   1
                l(5) =   2
                l(6) =   2
     Q(r) pseudized with  6 coefficients,  rinner =    1.400   1.400   1.400
                                                       1.400   1.400

     vdW kernel table read from file vdW_kernel_table
     MD5 check sum: 095c7af220d748ca6e76c0b4c6cfb241

     atomic species   valence    mass     pseudopotential
        La1           11.00   138.90547     La( 1.00)
        In1           13.00   114.81800     In( 1.00)

     No symmetry found

   Cartesian axes

     site n.     atom                  positions (alat units)
         1           La1 tau(   1) = (   0.0000000   0.0000000  10.0000000  )
         2           La1 tau(   2) = (  -1.8077302   3.1310806  10.0000000  )
         3           La1 tau(   3) = (   1.8077302   3.1310806  10.0000000  )
         4           In1 tau(   4) = (   3.6154605   0.0000000  10.0000000  )
         5           La1 tau(   5) = (   3.6154605   2.0873871  12.9520111  )
         6           La1 tau(   6) = (   1.8077302   5.2184677  12.9520111  )
         7           La1 tau(   7) = (  -1.8077302   5.2184677  12.9520111  )
         8           In1 tau(   8) = (   0.0000000   2.0873871  12.9520111  )
         9           La1 tau(   9) = (  -0.0000000   4.1747742  15.9040222  )
        10           La1 tau(  10) = (   1.8077302   1.0436935  15.9040222  )
        11           La1 tau(  11) = (   5.4231907   1.0436935  15.9040222  )
        12           In1 tau(  12) = (   3.6154605   4.1747742  15.9040222  )

     number of k points=    20  Fermi-Dirac smearing, width (Ry)=  0.0110
                       cart. coord. in units 2pi/alat
        k(    1) = (   0.0000000   0.0000000   0.0000000), wk =   0.0555556
        k(    2) = (   0.0000000   0.0266149   0.0000000), wk =   0.1111111
        k(    3) = (   0.0000000   0.0532298   0.0000000), wk =   0.1111111
        k(    4) = (   0.0000000  -0.0798446   0.0000000), wk =   0.0555556
        k(    5) = (   0.0230492   0.0133074   0.0000000), wk =   0.1111111
        k(    6) = (   0.0230492   0.0399223   0.0000000), wk =   0.1111111
        k(    7) = (   0.0230492   0.0665372   0.0000000), wk =   0.1111111
        k(    8) = (   0.0230492  -0.0665372   0.0000000), wk =   0.1111111
        k(    9) = (   0.0230492  -0.0399223   0.0000000), wk =   0.1111111
        k(   10) = (   0.0230492  -0.0133074   0.0000000), wk =   0.1111111
        k(   11) = (   0.0460983   0.0266149   0.0000000), wk =   0.1111111
        k(   12) = (   0.0460983   0.0532298   0.0000000), wk =   0.1111111
        k(   13) = (   0.0460983   0.0798446   0.0000000), wk =   0.1111111
        k(   14) = (   0.0460983  -0.0532298   0.0000000), wk =   0.1111111
        k(   15) = (   0.0460983  -0.0266149   0.0000000), wk =   0.1111111
        k(   16) = (   0.0460983  -0.0000000   0.0000000), wk =   0.1111111
        k(   17) = (  -0.0691475  -0.0399223   0.0000000), wk =   0.0555556
        k(   18) = (  -0.0691475  -0.0133074   0.0000000), wk =   0.1111111
        k(   19) = (  -0.0691475   0.0133074   0.0000000), wk =   0.1111111
        k(   20) = (  -0.0691475  -0.1197670   0.0000000), wk =   0.0555556

     Largest allocated arrays     est. size (Mb)     dimensions
     Largest temporary arrays     est. size (Mb)     dimensions

     Initial potential from superposition of free atoms
     Check: negative starting charge=   -0.630870

     starting charge  133.21138, renormalised to  138.00000

     negative rho (up, down):  6.535E-01 0.000E+00

     *
     * You are using vdW-DF for exchange-correlation in this calculation.
     * Please cite the following three references that made this development
     * possible:
     *
     *   M. Dion, H. Rydberg, E. Schroder, D. C. Langreth, and
     *   B. I. Lundqvist, Phys. Rev. Lett. 92, 246401 (2004).
     *
     *   T. Thonhauser, V. R. Cooper, S. Li, A. Puzder, P. Hyldgaard, and
     *   D. C. Langreth, Phys. Rev. B 76, 125112 (2007).
     *
     *   G. Roman-Perez and J. M. Soler, Phys. Rev. Lett. 103, 096102 (2009).
     *
     *
     * If you are using vdW-DF2, please also cite:
     *
     *   K. Lee, E. D. Murray, L. Kong, B. I. Lundqvist, and
     *   D. C. Langreth, Phys. Rev. B 82, 081101(R) (2010).
     *
     *
     * If you are calculating the stress with vdW-DF, please also cite:
     *
     *   R. Sabatini, E. Kucukbenli, B. Kolb, T. Thonhauser, and
     *   S. de Gironcoli, J. Phys.: Condens. Matter 24, 424209 (2012).
     *

     Carrying out vdW-DF run using the following parameters:

     Nqs =      20    Nr_points =    1024   r_max =   100.000
     q_mesh =
               0.00001000     0.04494208     0.09755937     0.15916263
               0.23128650     0.31572767     0.41458969     0.53033537
               0.66584808     0.82450364     1.01025438     1.22772762
               1.48234092     1.78043706     2.12944203     2.53805004
               3.01644009     3.57652955     4.23227104     5.00000000

     Gradients computed in reciprocal space

     Adding external electric field

     Computed dipole along edir(3) :
        Dipole               -0.0000 Ry au,         -0.0000 Debye
        Dipole field         -0.0000 Ry au

        Potential amp.        0.0000 Ry
        Total length         47.7277 bohr

     Starting wfc are  207 randomized atomic wfcs

     Self-consistent Calculation

     iteration #  1     ecut=    36.75 Ry     beta=0.10
     Davidson diagonalization with overlap
     ethr =  1.00E-02,  avg # of iterations =  2.0

[...]

     total energy              =   -1340.76379400 Ry
     Harris-Foulkes estimate   =   -1341.61622835 Ry
     estimated scf accuracy    <       5.09985776 Ry

[...]

     iteration #  8     ecut=    36.75 Ry     beta=0.10
     Davidson diagonalization with overlap
     c_bands:  1 eigenvalues not converged
     c_bands:  2 eigenvalues not converged
     c_bands:  1 eigenvalues not converged
     c_bands:  3 eigenvalues not converged
     ethr =  2.72E-05,  avg # of iterations = 16.9

[...]

     End of self-consistent calculation

          k = 0.0000 0.0000 0.0000 ( 29729 PWs)   bands (ev):

   -31.6985 -31.6893 -31.5541 -31.5541 -31.5520 -31.5520 -31.2588 -31.1258
   -31.1258 -15.9723 -15.8947 -15.6717 -15.5789 -15.5789 -15.4774 -15.4774
   -15.4528 -15.4528 -15.4500 -15.3809 -15.2077 -15.2077 -14.9301 -14.9300
   -14.8922 -14.8497 -14.6678 -14.6678 -14.6601 -14.6553 -14.6553 -14.5971
   -14.5971 -14.4193 -14.2969 -14.2969 -12.5331 -12.5261 -12.5182 -12.5182
   -12.5079 -12.5079 -12.5072 -12.5072 -12.5055 -12.5055 -12.3231 -12.3202
   -12.3202 -12.3078 -12.3078  -3.7533  -3.3060  -3.2541  -0.4632  -0.1631
     0.2330   0.6994   0.7266   0.9092   0.9092   1.0285   1.0285   1.1953
     1.1953   1.2631   1.2631   1.6573   1.7297   1.7304   1.7304   2.1892
     2.1892   2.2423   2.2423   2.2783   2.3784   2.6302   2.6302   2.6627
     2.7074   2.7074   2.7983   2.8916   2.9397   3.0043   3.0222   3.0319
     3.0319   3.0726   3.1254   3.1258   3.1543   3.1549   3.1699   3.2082
     3.2084   3.2744   3.2746

[...]

          k =-0.0691-0.0399 0.0000 ( 29788 PWs)   bands (ev):

[...]

     the Fermi energy is     1.7325 ev

!    total energy              =   -1340.63370809 Ry
     Harris-Foulkes estimate   =   -1340.63372444 Ry
     estimated scf accuracy    <       0.00000043 Ry

     The total energy is the sum of the following terms:

     one-electron contribution =   -5617.36641008 Ry
     hartree contribution      =    2838.77541942 Ry
     xc contribution           =    -573.89732589 Ry
     ewald contribution        =    2011.95909673 Ry
     electric field correction =       0.00000000 Ry
     smearing contrib. (-TS)   =      -0.10448826 Ry

     convergence has been achieved in  19 iterations

 BEEF-vdW xc energy contributions
           1 :   -507.073093359228
           2 :    466.067087520161
           3 :   -394.111571389287
           4 :    307.419708932984
           5 :   -222.719762869880
           6 :    152.414218145083
[...]
     Q(r) pseudized with  8 coefficients,  rinner =    1.700   1.700   1.700
                                                       1.700   1.700   1.700
                                                       1.700

     PseudoPot. # 2 for In read from file:
     /afs/slac.stanford.edu/u/if/mamunm/psp/gbrv1.5pbe/In.UPF
     MD5 check sum: 90777abd96fbb83f2e67db2a40c566b9
     Pseudo is Ultrasoft + core correction, Zval = 13.0
     Generated by new atomic code, or converted to UPF format
     Using radial grid of  889 points,  6 beta functions with:
                l(1) =   0
                l(2) =   0
                l(3) =   1
                l(4) =   1
                l(5) =   2
                l(6) =   2
     Q(r) pseudized with  6 coefficients,  rinner =    1.400   1.400   1.400
                                                       1.400   1.400

     vdW kernel table read from file vdW_kernel_table
     MD5 check sum: 095c7af220d748ca6e76c0b4c6cfb241

     atomic species   valence    mass     pseudopotential
        La1           11.00   138.90547     La( 1.00)
        In1           13.00   114.81800     In( 1.00)

     No symmetry found

   Cartesian axes

     site n.     atom                  positions (alat units)
         1           La1 tau(   1) = (   0.0000000   0.0000000  10.0000000  )
         2           La1 tau(   2) = (  -1.8077302   3.1310806  10.0000000  )
         3           La1 tau(   3) = (   1.8077302   3.1310806  10.0000000  )
         4           In1 tau(   4) = (   3.6154605   0.0000000  10.0000000  )
         5           La1 tau(   5) = (   3.6154605   2.0873871  12.9520111  )
         6           La1 tau(   6) = (   1.8077302   5.2184677  12.9520111  )
         7           La1 tau(   7) = (  -1.8077302   5.2184677  12.9520111  )
         8           In1 tau(   8) = (   0.0000000   2.0873871  12.9520111  )
         9           La1 tau(   9) = (   0.0000222   4.0838049  15.8972214  )
        10           La1 tau(  10) = (   1.7289215   1.0892078  15.8972659  )
        11           La1 tau(  11) = (   5.5020114   1.0891704  15.8972431  )
        12           In1 tau(  12) = (   3.6154943   4.1747594  15.7486541  )

     number of k points=    20  Fermi-Dirac smearing, width (Ry)=  0.0110
                       cart. coord. in units 2pi/alat
        k(    1) = (   0.0000000   0.0000000   0.0000000), wk =   0.0555556
        k(    2) = (   0.0000000   0.0266149   0.0000000), wk =   0.1111111
        k(    3) = (   0.0000000   0.0532298   0.0000000), wk =   0.1111111
        k(    4) = (   0.0000000  -0.0798446   0.0000000), wk =   0.0555556
        k(    5) = (   0.0230492   0.0133074   0.0000000), wk =   0.1111111
        k(    6) = (   0.0230492   0.0399223   0.0000000), wk =   0.1111111
        k(    7) = (   0.0230492   0.0665372   0.0000000), wk =   0.1111111
        k(    8) = (   0.0230492  -0.0665372   0.0000000), wk =   0.1111111
        k(    9) = (   0.0230492  -0.0399223   0.0000000), wk =   0.1111111
        k(   10) = (   0.0230492  -0.0133074   0.0000000), wk =   0.1111111
        k(   11) = (   0.0460983   0.0266149   0.0000000), wk =   0.1111111
        k(   12) = (   0.0460983   0.0532298   0.0000000), wk =   0.1111111
        k(   13) = (   0.0460983   0.0798446   0.0000000), wk =   0.1111111
        k(   14) = (   0.0460983  -0.0532298   0.0000000), wk =   0.1111111
        k(   15) = (   0.0460983  -0.0266149   0.0000000), wk =   0.1111111
        k(   16) = (   0.0460983  -0.0000000   0.0000000), wk =   0.1111111
        k(   17) = (  -0.0691475  -0.0399223   0.0000000), wk =   0.0555556
        k(   18) = (  -0.0691475  -0.0133074   0.0000000), wk =   0.1111111
        k(   19) = (  -0.0691475   0.0133074   0.0000000), wk =   0.1111111
        k(   20) = (  -0.0691475  -0.1197670   0.0000000), wk =   0.0555556

     Largest allocated arrays     est. size (Mb)     dimensions
     Largest temporary arrays     est. size (Mb)     dimensions

     Initial potential from superposition of free atoms
     Check: negative starting charge=   -0.630851

     starting charge  133.21138, renormalised to  138.00000

[...]

     *
     * You are using vdW-DF for exchange-correlation in this calculation.
     * Please cite the following three references that made this development
     * possible:
     *
     *   M. Dion, H. Rydberg, E. Schroder, D. C. Langreth, and
     *   B. I. Lundqvist, Phys. Rev. Lett. 92, 246401 (2004).
     *
     *   T. Thonhauser, V. R. Cooper, S. Li, A. Puzder, P. Hyldgaard, and
     *   D. C. Langreth, Phys. Rev. B 76, 125112 (2007).
     *
     *   G. Roman-Perez and J. M. Soler, Phys. Rev. Lett. 103, 096102 (2009).
     *
     *
     * If you are using vdW-DF2, please also cite:
     *
     *   K. Lee, E. D. Murray, L. Kong, B. I. Lundqvist, and
     *   D. C. Langreth, Phys. Rev. B 82, 081101(R) (2010).
     *
     *
     * If you are calculating the stress with vdW-DF, please also cite:
     *
     *   R. Sabatini, E. Kucukbenli, B. Kolb, T. Thonhauser, and
     *   S. de Gironcoli, J. Phys.: Condens. Matter 24, 424209 (2012).
     *

     Carrying out vdW-DF run using the following parameters:

     Nqs =      20    Nr_points =    1024   r_max =   100.000
     q_mesh =
               0.00001000     0.04494208     0.09755937     0.15916263
               0.23128650     0.31572767     0.41458969     0.53033537
               0.66584808     0.82450364     1.01025438     1.22772762
               1.48234092     1.78043706     2.12944203     2.53805004
               3.01644009     3.57652955     4.23227104     5.00000000

     Gradients computed in reciprocal space

[...]

     Starting wfc are  207 randomized atomic wfcs

     Self-consistent Calculation

[...]

     iteration # 11     ecut=    36.75 Ry     beta=0.10
     Davidson diagonalization with overlap
     c_bands:  1 eigenvalues not converged
     c_bands:  1 eigenvalues not converged
     c_bands:  1 eigenvalues not converged
     c_bands:  2 eigenvalues not converged
     c_bands:  1 eigenvalues not converged
     c_bands:  1 eigenvalues not converged
     c_bands:  1 eigenvalues not converged
     c_bands:  1 eigenvalues not converged
     c_bands:  1 eigenvalues not converged
     c_bands:  2 eigenvalues not converged
     ethr =  3.32E-06,  avg # of iterations = 18.1

[...]

     total energy              =   -1340.65284263 Ry
     Harris-Foulkes estimate   =   -1340.65284642 Ry
     estimated scf accuracy    <       0.00000115 Ry

     iteration # 20     ecut=    36.75 Ry     beta=0.10
     Davidson diagonalization with overlap
     ethr =  8.35E-10,  avg # of iterations =  3.5

[...]

     negative rho (up, down):  4.241E-01 0.000E+00

     Adding external electric field

     Computed dipole along edir(3) :
        Dipole                0.0230 Ry au,          0.0585 Debye
        Dipole field          0.0000 Ry au

        Potential amp.       -0.0035 Ry
        Total length         47.7277 bohr

     End of self-consistent calculation

[...]

          k = 0.0461-0.0000 0.0000 ( 29779 PWs)   bands (ev):

[...]

          k =-0.0691-0.1198 0.0000 ( 29788 PWs)   bands (ev):

   -31.6404 -31.6346 -31.5888 -31.5599 -31.5408 -31.5210 -31.1932 -31.1501
   -31.1043 -15.7314 -15.6668 -15.5690 -15.4619 -15.4285 -15.3579 -15.3549
   -15.2925 -15.2659 -15.2652 -15.2370 -15.2028 -15.1994 -15.1565 -15.1344
   -15.0622 -15.0583 -14.8326 -14.7516 -14.7478 -14.6915 -14.6825 -14.6124
   -14.6026 -14.5754 -14.5380 -14.3142 -12.5173 -12.5134 -12.5097 -12.5016
   -12.4954 -12.4927 -12.4849 -12.4826 -12.4723 -12.4713 -12.2874 -12.2770
   -12.2765 -12.2689 -12.2624  -3.0807  -3.0527  -2.8681  -0.3371  -0.0515
     0.1493   0.5870   0.5913   0.7788   0.8662   0.9690   1.1059   1.1655
     1.2323   1.3100   1.4326   1.5545   1.8847   2.0215   2.0688   2.0736
     2.1834   2.2131   2.2141   2.3555   2.4139   2.4800   2.6725   2.7203
     2.7353   2.7570   2.8316   2.9516   2.9644   2.9941   3.0004   3.0323
     3.0628   3.0803   3.0843   3.1029   3.1178   3.1455   3.1608   3.2006
     3.2214   3.2522   3.2609

     the Fermi energy is     1.7468 ev

!    total energy              =   -1340.65283018 Ry
     Harris-Foulkes estimate   =   -1340.65284273 Ry
     estimated scf accuracy    <       0.00000017 Ry

     The total energy is the sum of the following terms:

     one-electron contribution =   -5657.81038930 Ry
     hartree contribution      =    2859.10124352 Ry
     xc contribution           =    -573.94898693 Ry
     ewald contribution        =    2032.10818447 Ry
     electric field correction =       0.00000084 Ry
     smearing contrib. (-TS)   =      -0.10288279 Ry

     convergence has been achieved in  20 iterations

 BEEF-vdW xc energy contributions
           1 :   -507.537239723341
           2 :    466.550069858894
           3 :   -394.615599131115
           4 :    307.925716556207
           5 :   -223.198350558411
           6 :    152.845260821132
           7 :   -102.600544444506
           8 :    71.8460805947163
           9 :   -55.8089949127947
          10 :    48.3452506864412
          11 :   -44.1570724332329
          12 :    39.8166798309617
          13 :   -33.6896229815936
          14 :    25.3513444607293
          15 :   -15.1149401832804
          16 :    3.88330375582325
          17 :    6.87777082427658
          18 :   -15.3712092567050
          19 :    20.0185195712630
          20 :   -20.1376905860629
          21 :    16.3764492310444
          22 :   -10.5982533388401
          23 :    5.19155483190912
          24 :   -2.10851633480922
          25 :    2.10918918172911
          26 :   -4.58182750108608
          27 :    7.98660658824883
          28 :   -10.6510971883438
          29 :    11.5043048731834
          30 :   -10.4272968965945
          31 :   -43.6232333805760
          32 :   -31.4232837021025

     Forces acting on atoms (Ry/au):

     negative rho (up, down):  4.241E-01 0.000E+00
     atom    1 type  1   force =     0.00000065    0.01427125   -0.00126962
     atom    2 type  1   force =     0.01236143   -0.00713343   -0.00127053
     atom    3 type  1   force =    -0.01236234   -0.00713810   -0.00126988
     atom    4 type  2   force =     0.00000060    0.00000443    0.00887739
     atom    5 type  1   force =     0.00000318   -0.00127006   -0.00065429
     atom    6 type  1   force =    -0.00109480    0.00063720   -0.00065409
     atom    7 type  1   force =     0.00109325    0.00063460   -0.00065577
     atom    8 type  2   force =     0.00000413    0.00000504   -0.00128627
     atom    9 type  1   force =    -0.00000330    0.00052797   -0.00110114
     atom   10 type  1   force =     0.00046122   -0.00027049   -0.00110480
     atom   11 type  1   force =    -0.00046134   -0.00026564   -0.00110528
     atom   12 type  2   force =    -0.00000268   -0.00000278    0.00149428

     Total force =     0.026632     Total SCF correction =     0.000855

     entering subroutine stress ...

     negative rho (up, down):  4.241E-01 0.000E+00
          total   stress  (Ry/bohr**3)                   (kbar)     P=   -3.36
  -0.00003089   0.00000000  -0.00000000         -4.54      0.00     -0.00
   0.00000000  -0.00003089  -0.00000000          0.00     -4.54     -0.00
  -0.00000000  -0.00000000  -0.00000668         -0.00     -0.00     -0.98

 !ASE

     Writing output data file calc.save

     General routines

     Parallel routines

   This run was terminated on:  15:21:25  30Dec2018

   JOB DONE.
Job  /afs/slac/g/suncat/bin/suncat-tsmpirun -x LD_LIBRARY_PATH -wdir /scratch/qe648559_hvp6j pw.x -in pw.inp

TID   HOST_NAME   COMMAND_LINE            STATUS            TERMINATION_TIME
00000 suncat0121 pw.x -in pw.inp   Done                     12/30/2018 15:21:25
00001 suncat0121 pw.x -in pw.inp   Done                     12/30/2018 15:21:25
00002 suncat0121 pw.x -in pw.inp   Done                     12/30/2018 15:21:25
00003 suncat0121 pw.x -in pw.inp   Done                     12/30/2018 15:21:25
00004 suncat0121 pw.x -in pw.inp   Done                     12/30/2018 15:21:25
00005 suncat0121 pw.x -in pw.inp   Done                     12/30/2018 15:21:25
00006 suncat0121 pw.x -in pw.inp   Done                     12/30/2018 15:21:25
00007 suncat0121 pw.x -in pw.inp   Done                     12/30/2018 15:21:25
00008 suncat0115 pw.x -in pw.inp   Done                     12/30/2018 15:21:25
00009 suncat0115 pw.x -in pw.inp   Done                     12/30/2018 15:21:25
00010 suncat0115 pw.x -in pw.inp   Done                     12/30/2018 15:21:25
00011 suncat0115 pw.x -in pw.inp   Done                     12/30/2018 15:21:25
00012 suncat0115 pw.x -in pw.inp   Done                     12/30/2018 15:21:25
00013 suncat0115 pw.x -in pw.inp   Done                     12/30/2018 15:21:25
00014 suncat0115 pw.x -in pw.inp   Done                     12/30/2018 15:21:25
00015 suncat0115 pw.x -in pw.inp   Done                     12/30/2018 15:21:25
00016 suncat0228 pw.x -in pw.inp   Done                     12/30/2018 15:21:25
00017 suncat0228 pw.x -in pw.inp   Done                     12/30/2018 15:21:25
00018 suncat0228 pw.x -in pw.inp   Done                     12/30/2018 15:21:25
00019 suncat0228 pw.x -in pw.inp   Done                     12/30/2018 15:21:25
00020 suncat0228 pw.x -in pw.inp   Done                     12/30/2018 15:21:25
00021 suncat0228 pw.x -in pw.inp   Done                     12/30/2018 15:21:25
00022 suncat0228 pw.x -in pw.inp   Done                     12/30/2018 15:21:25
00023 suncat0228 pw.x -in pw.inp   Done                     12/30/2018 15:21:25
00024 suncat0227 pw.x -in pw.inp   Done                     12/30/2018 15:21:25
00025 suncat0227 pw.x -in pw.inp   Done                     12/30/2018 15:21:25
00026 suncat0227 pw.x -in pw.inp   Done                     12/30/2018 15:21:25
00027 suncat0227 pw.x -in pw.inp   Done                     12/30/2018 15:21:25
00028 suncat0227 pw.x -in pw.inp   Done                     12/30/2018 15:21:25
00029 suncat0227 pw.x -in pw.inp   Done                     12/30/2018 15:21:25
00030 suncat0227 pw.x -in pw.inp   Done                     12/30/2018 15:21:25
00031 suncat0227 pw.x -in pw.inp   Done                     12/30/2018 15:21:25
00032 suncat0217 pw.x -in pw.inp   Done                     12/30/2018 15:21:25
00033 suncat0217 pw.x -in pw.inp   Done                     12/30/2018 15:21:25
00034 suncat0217 pw.x -in pw.inp   Done                     12/30/2018 15:21:25
00035 suncat0217 pw.x -in pw.inp   Done                     12/30/2018 15:21:25
00036 suncat0217 pw.x -in pw.inp   Done                     12/30/2018 15:21:25
00037 suncat0217 pw.x -in pw.inp   Done                     12/30/2018 15:21:25
00038 suncat0217 pw.x -in pw.inp   Done                     12/30/2018 15:21:25
00039 suncat0217 pw.x -in pw.inp   Done                     12/30/2018 15:21:25
00040 suncat0216 pw.x -in pw.inp   Done                     12/30/2018 15:21:25
00041 suncat0216 pw.x -in pw.inp   Done                     12/30/2018 15:21:25
00042 suncat0216 pw.x -in pw.inp   Done                     12/30/2018 15:21:25
00043 suncat0216 pw.x -in pw.inp   Done                     12/30/2018 15:21:25
00044 suncat0216 pw.x -in pw.inp   Done                     12/30/2018 15:21:25
00045 suncat0216 pw.x -in pw.inp   Done                     12/30/2018 15:21:25
00046 suncat0216 pw.x -in pw.inp   Done                     12/30/2018 15:21:25
00047 suncat0216 pw.x -in pw.inp   Done                     12/30/2018 15:21:25
00048 suncat0215 pw.x -in pw.inp   Done                     12/30/2018 15:21:25
00049 suncat0215 pw.x -in pw.inp   Done                     12/30/2018 15:21:25
00050 suncat0215 pw.x -in pw.inp   Done                     12/30/2018 15:21:25
00051 suncat0215 pw.x -in pw.inp   Done                     12/30/2018 15:21:25
00052 suncat0215 pw.x -in pw.inp   Done                     12/30/2018 15:21:25
00053 suncat0215 pw.x -in pw.inp   Done                     12/30/2018 15:21:25
00054 suncat0215 pw.x -in pw.inp   Done                     12/30/2018 15:21:25
00055 suncat0215 pw.x -in pw.inp   Done                     12/30/2018 15:21:25
00056 suncat0210 pw.x -in pw.inp   Done                     12/30/2018 15:21:25
00057 suncat0210 pw.x -in pw.inp   Done                     12/30/2018 15:21:25
00058 suncat0210 pw.x -in pw.inp   Done                     12/30/2018 15:21:25
00059 suncat0210 pw.x -in pw.inp   Done                     12/30/2018 15:21:25
00060 suncat0210 pw.x -in pw.inp   Done                     12/30/2018 15:21:25
00061 suncat0210 pw.x -in pw.inp   Done                     12/30/2018 15:21:25
00062 suncat0210 pw.x -in pw.inp   Done                     12/30/2018 15:21:25
00063 suncat0210 pw.x -in pw.inp   Done                     12/30/2018 15:21:25