     Program PWSCF v.5.1rc2 (svn rev. 11289) starts on 31Dec2018 at 15:56:50

     Current dimensions of program PWSCF are:
     Max number of different atomic species (ntypx) = 10
     Max number of k-points (npk) =  40000
     Max angular momentum in pseudopotentials (lmaxx) =  3
     Presently stress not available with electric field

     IMPORTANT: XC functional enforced from input :
     Exchange-correlation      = BEEF-VDW ( 1  4 27 13 2)
     Any further DFT definition will be discarded
     Please, verify this is what you really want

     Subspace diagonalization in iterative solution of the eigenvalue problem:
     a serial algorithm will be used

     bravais-lattice index     =            0
     lattice parameter (alat)  =       1.8897  a.u.
     unit-cell volume          =    4498.1225 (a.u.)^3
     number of atoms/cell      =           12
     number of atomic types    =            2
     number of electrons       =       189.00
     number of Kohn-Sham states=          124
     kinetic-energy cutoff     =      36.7493  Ry
     charge density cutoff     =     367.4932  Ry
     convergence threshold     =      1.0E-06
     mixing beta               =       0.1000
     number of iterations used =           10  plain     mixing
     Exchange-correlation      = BEEF-VDW ( 1  4 27 13 2)
     nstep                     =           50

     celldm(1)=   1.889726  celldm(2)=   0.000000  celldm(3)=   0.000000
     celldm(4)=   0.000000  celldm(5)=   0.000000  celldm(6)=   0.000000

     crystal axes: (cart. coord. in units of alat)
               a(1) = (   5.596938   0.000000   0.000000 )
               a(2) = (  -2.798469   4.847091   0.000000 )
               a(3) = (   0.000000   0.000000  24.569881 )

     reciprocal axes: (cart. coord. in units 2 pi/alat)
               b(1) = (  0.178669  0.103155  0.000000 )
               b(2) = (  0.000000  0.206309  0.000000 )
               b(3) = (  0.000000  0.000000  0.040700 )

     PseudoPot. # 1 for Pt read from file:
     /afs/slac.stanford.edu/u/if/mamunm/psp/gbrv1.5pbe/Pt.UPF
     MD5 check sum: f09d6de1a584b5a045c4fc126da2d0c4
     Pseudo is Ultrasoft + core correction, Zval = 16.0
     Generated by new atomic code, or converted to UPF format
     Using radial grid of  985 points,  6 beta functions with:
                l(1) =   0
                l(2) =   0
                l(3) =   1
                l(4) =   1
                l(5) =   2
                l(6) =   2
     Q(r) pseudized with  8 coefficients,  rinner =    1.300   1.300   1.300
                                                       1.300   1.300

     PseudoPot. # 2 for Ir read from file:
     /afs/slac.stanford.edu/u/if/mamunm/psp/gbrv1.5pbe/Ir.UPF
     MD5 check sum: 8836f839c3459d2b385c504ce6d91f2c
     Pseudo is Ultrasoft + core correction, Zval = 15.0
     Generated by new atomic code, or converted to UPF format
     Using radial grid of  983 points,  7 beta functions with:
                l(1) =   0
                l(2) =   0
                l(3) =   1
                l(4) =   1
                l(5) =   1
                l(6) =   2
                l(7) =   2
     Q(r) pseudized with  8 coefficients,  rinner =    1.400   1.400   1.400
                                                       1.400   1.400

     vdW kernel table read from file vdW_kernel_table
     MD5 check sum: 095c7af220d748ca6e76c0b4c6cfb241

     atomic species   valence    mass     pseudopotential
        Pt1           16.00   195.08400     Pt( 1.00)
        Ir1           15.00   192.21700     Ir( 1.00)

     No symmetry found

   Cartesian axes

     site n.     atom                  positions (alat units)
         1           Pt1 tau(   1) = (   0.0000000   0.0000000  10.0000000  )
         2           Pt1 tau(   2) = (  -1.3992345   2.4235453  10.0000000  )
         3           Pt1 tau(   3) = (   1.3992345   2.4235453  10.0000000  )
         4           Ir1 tau(   4) = (   2.7984690   0.0000000  10.0000000  )
         5           Pt1 tau(   5) = (   2.7984690   1.6156968  12.2849404  )
         6           Pt1 tau(   6) = (   1.3992345   4.0392421  12.2849404  )
         7           Pt1 tau(   7) = (  -1.3992345   4.0392421  12.2849404  )
         8           Ir1 tau(   8) = (   0.0000000   1.6156968  12.2849404  )
         9           Pt1 tau(   9) = (   0.0000000   3.2313937  14.5698808  )
        10           Pt1 tau(  10) = (   1.3992345   0.8078484  14.5698808  )
        11           Pt1 tau(  11) = (   4.1977035   0.8078484  14.5698808  )
        12           Ir1 tau(  12) = (   2.7984690   3.2313937  14.5698808  )

     number of k points=    20  Fermi-Dirac smearing, width (Ry)=  0.0110
                       cart. coord. in units 2pi/alat
        k(    1) = (   0.0000000   0.0000000   0.0000000), wk =   0.0555556
        k(    2) = (   0.0000000   0.0343849   0.0000000), wk =   0.1111111
        k(    3) = (   0.0000000   0.0687698   0.0000000), wk =   0.1111111
        k(    4) = (   0.0000000  -0.1031547   0.0000000), wk =   0.0555556
        k(    5) = (   0.0297782   0.0171924   0.0000000), wk =   0.1111111
        k(    6) = (   0.0297782   0.0515773   0.0000000), wk =   0.1111111
        k(    7) = (   0.0297782   0.0859622   0.0000000), wk =   0.1111111
        k(    8) = (   0.0297782  -0.0859622   0.0000000), wk =   0.1111111
        k(    9) = (   0.0297782  -0.0515773   0.0000000), wk =   0.1111111
        k(   10) = (   0.0297782  -0.0171924   0.0000000), wk =   0.1111111
        k(   11) = (   0.0595564   0.0343849   0.0000000), wk =   0.1111111
        k(   12) = (   0.0595564   0.0687698   0.0000000), wk =   0.1111111
        k(   13) = (   0.0595564   0.1031547   0.0000000), wk =   0.1111111
        k(   14) = (   0.0595564  -0.0687698   0.0000000), wk =   0.1111111
        k(   15) = (   0.0595564  -0.0343849   0.0000000), wk =   0.1111111
        k(   16) = (   0.0595564   0.0000000   0.0000000), wk =   0.1111111
        k(   17) = (  -0.0893346  -0.0515773   0.0000000), wk =   0.0555556
        k(   18) = (  -0.0893346  -0.0171924   0.0000000), wk =   0.1111111
        k(   19) = (  -0.0893346   0.0171924   0.0000000), wk =   0.1111111
        k(   20) = (  -0.0893346  -0.1547320   0.0000000), wk =   0.0555556

     Largest allocated arrays     est. size (Mb)     dimensions
     Largest temporary arrays     est. size (Mb)     dimensions

     Initial potential from superposition of free atoms
     Check: negative starting charge=   -2.745666

     starting charge  182.99980, renormalised to  189.00000

     negative rho (up, down):  2.836E+00 0.000E+00

     *
     * You are using vdW-DF for exchange-correlation in this calculation.
     * Please cite the following three references that made this development
     * possible:
     *
     *   M. Dion, H. Rydberg, E. Schroder, D. C. Langreth, and
     *   B. I. Lundqvist, Phys. Rev. Lett. 92, 246401 (2004).
     *
     *   T. Thonhauser, V. R. Cooper, S. Li, A. Puzder, P. Hyldgaard, and
     *   D. C. Langreth, Phys. Rev. B 76, 125112 (2007).
     *
     *   G. Roman-Perez and J. M. Soler, Phys. Rev. Lett. 103, 096102 (2009).
     *
     *
     * If you are using vdW-DF2, please also cite:
     *
     *   K. Lee, E. D. Murray, L. Kong, B. I. Lundqvist, and
     *   D. C. Langreth, Phys. Rev. B 82, 081101(R) (2010).
     *
     *
     * If you are calculating the stress with vdW-DF, please also cite:
     *
     *   R. Sabatini, E. Kucukbenli, B. Kolb, T. Thonhauser, and
     *   S. de Gironcoli, J. Phys.: Condens. Matter 24, 424209 (2012).
     *

     Carrying out vdW-DF run using the following parameters:

     Nqs =      20    Nr_points =    1024   r_max =   100.000
     q_mesh =
               0.00001000     0.04494208     0.09755937     0.15916263
               0.23128650     0.31572767     0.41458969     0.53033537
               0.66584808     0.82450364     1.01025438     1.22772762
               1.48234092     1.78043706     2.12944203     2.53805004
               3.01644009     3.57652955     4.23227104     5.00000000

     Gradients computed in reciprocal space

     Adding external electric field

     Computed dipole along edir(3) :
        Dipole                0.0000 Ry au,          0.0000 Debye
        Dipole field          0.0000 Ry au

        Potential amp.       -0.0000 Ry
        Total length         45.2696 bohr

     Starting wfc are  144 randomized atomic wfcs

     Self-consistent Calculation

     iteration #  1     ecut=    36.75 Ry     beta=0.10
     Davidson diagonalization with overlap
     ethr =  1.00E-02,  avg # of iterations =  8.0

[...]

     total energy              =   -2461.09409108 Ry
     Harris-Foulkes estimate   =   -2464.28054625 Ry
     estimated scf accuracy    <      19.65160605 Ry

[...]

     End of self-consistent calculation

          k = 0.0000 0.0000 0.0000 ( 16847 PWs)   bands (ev):

   -51.3888 -51.2947 -51.2947 -51.2473 -51.2228 -51.2228 -51.1456 -51.0903
   -51.0903 -51.0030 -50.9989 -50.9354 -50.9354 -50.9181 -50.9181 -50.7966
   -50.7932 -50.7245 -50.7245 -50.7244 -50.7244 -50.6205 -50.6029 -50.5892
   -50.5892 -50.5792 -50.5792 -47.5033 -47.4548 -47.4548 -47.0722 -47.0722
   -47.0710 -47.0710 -46.9169 -46.9121  -7.0322  -5.2713  -4.8543  -4.5404
    -4.4924  -4.4924  -4.2986  -4.2445  -4.2445  -3.8298  -3.8056  -3.8056
    -3.6716  -3.6003  -3.6003  -2.3220  -2.2052  -2.2052  -1.8978  -1.8978
    -1.8347  -1.6774  -1.5577  -1.5577  -1.3150  -1.2806  -1.2421  -1.2421
    -1.0393  -1.0393  -1.0002  -1.0002  -0.6262  -0.6262  -0.2454   0.2392
     0.4133   0.4133   0.4564   0.4564   0.5320   0.5320   0.6976   1.0769
     1.2379   1.2379   1.4066   1.5175   1.5175   1.7920   1.8027   1.8027
     1.9617   1.9617   1.9806   2.1380   2.1979   2.2439   2.2439   2.5917
     2.5917   2.6191   2.6839   2.6839   3.0966   3.0980   3.0980   4.7656
     4.7656   4.7743   4.7743   4.8731   4.9201   6.6098   6.8994   7.2181
     7.7730   7.7730   7.9026   7.9026   7.9651   8.0841   8.1685   8.9097
     8.9119   8.9119   9.0713  10.4847

[...]

          k =-0.0893-0.0516 0.0000 ( 16928 PWs)   bands (ev):

[...]

     the Fermi energy is     1.7802 ev

!    total energy              =   -2460.96513722 Ry
     Harris-Foulkes estimate   =   -2460.96513582 Ry
     estimated scf accuracy    <       0.00000017 Ry

     The total energy is the sum of the following terms:

     one-electron contribution =  -19419.08606798 Ry
     hartree contribution      =    9743.52678430 Ry
     xc contribution           =    -683.18216751 Ry
     ewald contribution        =    7897.89436844 Ry
     electric field correction =       0.00000000 Ry
     smearing contrib. (-TS)   =      -0.11805448 Ry

     convergence has been achieved in  19 iterations

 BEEF-vdW xc energy contributions
           1 :   -607.208379450372
           2 :    565.090815912944
           3 :   -489.568767206847
           4 :    395.099732032872
           5 :   -297.573026063519
           6 :    210.203454713654
           7 :   -140.834596247300
           8 :    91.2223871421548
           9 :   -58.2437675509004
          10 :    36.3175115596523
          11 :   -20.0077233105794
[...]
     Generated by new atomic code, or converted to UPF format
     Using radial grid of  985 points,  6 beta functions with:
                l(1) =   0
                l(2) =   0
                l(3) =   1
                l(4) =   1
                l(5) =   2
                l(6) =   2
     Q(r) pseudized with  8 coefficients,  rinner =    1.300   1.300   1.300
                                                       1.300   1.300

     PseudoPot. # 2 for Ir read from file:
     /afs/slac.stanford.edu/u/if/mamunm/psp/gbrv1.5pbe/Ir.UPF
     MD5 check sum: 8836f839c3459d2b385c504ce6d91f2c
     Pseudo is Ultrasoft + core correction, Zval = 15.0
     Generated by new atomic code, or converted to UPF format
     Using radial grid of  983 points,  7 beta functions with:
                l(1) =   0
                l(2) =   0
                l(3) =   1
                l(4) =   1
                l(5) =   1
                l(6) =   2
                l(7) =   2
     Q(r) pseudized with  8 coefficients,  rinner =    1.400   1.400   1.400
                                                       1.400   1.400

     vdW kernel table read from file vdW_kernel_table
     MD5 check sum: 095c7af220d748ca6e76c0b4c6cfb241

     atomic species   valence    mass     pseudopotential
        Pt1           16.00   195.08400     Pt( 1.00)
        Ir1           15.00   192.21700     Ir( 1.00)

     No symmetry found

   Cartesian axes

     site n.     atom                  positions (alat units)
         1           Pt1 tau(   1) = (   0.0000000   0.0000000  10.0000000  )
         2           Pt1 tau(   2) = (  -1.3992345   2.4235453  10.0000000  )
         3           Pt1 tau(   3) = (   1.3992345   2.4235453  10.0000000  )
         4           Ir1 tau(   4) = (   2.7984690   0.0000000  10.0000000  )
         5           Pt1 tau(   5) = (   2.7984690   1.6156968  12.2849404  )
         6           Pt1 tau(   6) = (   1.3992345   4.0392421  12.2849404  )
         7           Pt1 tau(   7) = (  -1.3992345   4.0392421  12.2849404  )
         8           Ir1 tau(   8) = (   0.0000000   1.6156968  12.2849404  )
         9           Pt1 tau(   9) = (  -0.0000003   3.2201526  14.6010459  )
        10           Pt1 tau(  10) = (   1.3894984   0.8134681  14.6010459  )
        11           Pt1 tau(  11) = (   4.2074387   0.8134681  14.6010458  )
        12           Ir1 tau(  12) = (   2.7984665   3.2313919  14.4871446  )

     number of k points=    20  Fermi-Dirac smearing, width (Ry)=  0.0110
                       cart. coord. in units 2pi/alat
        k(    1) = (   0.0000000   0.0000000   0.0000000), wk =   0.0555556
        k(    2) = (   0.0000000   0.0343849   0.0000000), wk =   0.1111111
        k(    3) = (   0.0000000   0.0687698   0.0000000), wk =   0.1111111
        k(    4) = (   0.0000000  -0.1031547   0.0000000), wk =   0.0555556
        k(    5) = (   0.0297782   0.0171924   0.0000000), wk =   0.1111111
        k(    6) = (   0.0297782   0.0515773   0.0000000), wk =   0.1111111
        k(    7) = (   0.0297782   0.0859622   0.0000000), wk =   0.1111111
        k(    8) = (   0.0297782  -0.0859622   0.0000000), wk =   0.1111111
        k(    9) = (   0.0297782  -0.0515773   0.0000000), wk =   0.1111111
        k(   10) = (   0.0297782  -0.0171924   0.0000000), wk =   0.1111111
        k(   11) = (   0.0595564   0.0343849   0.0000000), wk =   0.1111111
        k(   12) = (   0.0595564   0.0687698   0.0000000), wk =   0.1111111
        k(   13) = (   0.0595564   0.1031547   0.0000000), wk =   0.1111111
        k(   14) = (   0.0595564  -0.0687698   0.0000000), wk =   0.1111111
        k(   15) = (   0.0595564  -0.0343849   0.0000000), wk =   0.1111111
        k(   16) = (   0.0595564   0.0000000   0.0000000), wk =   0.1111111
        k(   17) = (  -0.0893346  -0.0515773   0.0000000), wk =   0.0555556
        k(   18) = (  -0.0893346  -0.0171924   0.0000000), wk =   0.1111111
        k(   19) = (  -0.0893346   0.0171924   0.0000000), wk =   0.1111111
        k(   20) = (  -0.0893346  -0.1547320   0.0000000), wk =   0.0555556

     Largest allocated arrays     est. size (Mb)     dimensions
     Largest temporary arrays     est. size (Mb)     dimensions

     Initial potential from superposition of free atoms
     Check: negative starting charge=   -2.743409

     starting charge  182.99980, renormalised to  189.00000

[...]

     *
     * You are using vdW-DF for exchange-correlation in this calculation.
     * Please cite the following three references that made this development
     * possible:
     *
     *   M. Dion, H. Rydberg, E. Schroder, D. C. Langreth, and
     *   B. I. Lundqvist, Phys. Rev. Lett. 92, 246401 (2004).
     *
     *   T. Thonhauser, V. R. Cooper, S. Li, A. Puzder, P. Hyldgaard, and
     *   D. C. Langreth, Phys. Rev. B 76, 125112 (2007).
     *
     *   G. Roman-Perez and J. M. Soler, Phys. Rev. Lett. 103, 096102 (2009).
     *
     *
     * If you are using vdW-DF2, please also cite:
     *
     *   K. Lee, E. D. Murray, L. Kong, B. I. Lundqvist, and
     *   D. C. Langreth, Phys. Rev. B 82, 081101(R) (2010).
     *
     *
     * If you are calculating the stress with vdW-DF, please also cite:
     *
     *   R. Sabatini, E. Kucukbenli, B. Kolb, T. Thonhauser, and
     *   S. de Gironcoli, J. Phys.: Condens. Matter 24, 424209 (2012).
     *

     Carrying out vdW-DF run using the following parameters:

     Nqs =      20    Nr_points =    1024   r_max =   100.000
     q_mesh =
               0.00001000     0.04494208     0.09755937     0.15916263
               0.23128650     0.31572767     0.41458969     0.53033537
               0.66584808     0.82450364     1.01025438     1.22772762
               1.48234092     1.78043706     2.12944203     2.53805004
               3.01644009     3.57652955     4.23227104     5.00000000

     Gradients computed in reciprocal space

[...]

     Starting wfc are  144 randomized atomic wfcs

     Self-consistent Calculation

[...]

     total energy              =   -2460.98392555 Ry
     Harris-Foulkes estimate   =   -2460.98392268 Ry
     estimated scf accuracy    <       0.00000224 Ry

     iteration # 18     ecut=    36.75 Ry     beta=0.10
     Davidson diagonalization with overlap
     ethr =  1.18E-09,  avg # of iterations =  1.2

[...]

     negative rho (up, down):  2.572E+00 0.000E+00

     Adding external electric field

     Computed dipole along edir(3) :
        Dipole               -0.0034 Ry au,         -0.0086 Debye
        Dipole field         -0.0000 Ry au

        Potential amp.        0.0009 Ry
        Total length         45.2696 bohr

     End of self-consistent calculation

[...]

          k = 0.0596 0.0000 0.0000 ( 16918 PWs)   bands (ev):

[...]

          k =-0.0893-0.1547 0.0000 ( 16928 PWs)   bands (ev):

   -51.3526 -51.2787 -51.2497 -51.2494 -51.2206 -51.2085 -51.1956 -51.1859
   -51.1017 -50.9475 -50.9163 -50.8633 -50.8626 -50.8455 -50.8362 -50.8361
   -50.8350 -50.8136 -50.7980 -50.7337 -50.6997 -50.6002 -50.5916 -50.5812
   -50.5576 -50.5459 -50.5378 -47.4809 -47.4424 -47.4371 -47.1509 -47.1456
   -47.0771 -47.0718 -47.0285 -46.9131  -5.2966  -5.2309  -3.9418  -3.8846
    -3.6033  -3.5562  -3.5397  -3.5368  -3.4434  -3.4394  -3.0823  -2.9051
    -2.8010  -2.6625  -2.5931  -2.5704  -2.3298  -2.3239  -2.2841  -2.1128
    -2.0739  -1.9061  -1.6165  -1.5785  -1.3329  -1.3126  -1.2842  -1.2370
    -1.1790  -1.1504  -0.9978  -0.9681  -0.9534  -0.9055  -0.8728  -0.8314
    -0.6984  -0.6701  -0.6575  -0.5322  -0.3474  -0.1594  -0.1008   0.1153
     0.1696   0.1978   0.2855   0.3876   0.4800   0.6112   0.7676   0.7930
     0.8594   0.9685   1.1238   1.1470   1.2643   1.3536   1.5498   1.8066
     1.8286   1.9323   2.0831   2.4151   3.4810   3.6342   3.8685   4.3463
     4.7940   5.0874   6.3106   6.4142   6.8173   6.8665   8.0362   8.0437
     8.6389   8.6555   8.7107   8.7172   9.2920   9.4987   9.7653   9.7917
     9.8462   9.8720   9.9061  10.0132

     the Fermi energy is     1.7783 ev

!    total energy              =   -2460.98393278 Ry
     Harris-Foulkes estimate   =   -2460.98392562 Ry
     estimated scf accuracy    <       0.00000047 Ry

     The total energy is the sum of the following terms:

     one-electron contribution =  -19407.06432290 Ry
     hartree contribution      =    9737.55399330 Ry
     xc contribution           =    -683.20090194 Ry
     ewald contribution        =    7891.84365909 Ry
     electric field correction =       0.00000003 Ry
     smearing contrib. (-TS)   =      -0.11636036 Ry

     convergence has been achieved in  18 iterations

 BEEF-vdW xc energy contributions
           1 :   -607.678392706610
           2 :    565.557559279629
           3 :   -490.031574490891
           4 :    395.560359518401
           5 :   -298.033912485873
           6 :    210.665286396995
           7 :   -141.295514646730
           8 :    91.6791718881624
           9 :   -58.6940012164397
          10 :    36.7616991963669
          11 :   -20.4497510287572
          12 :    6.29519336309249
          13 :    6.63095662687056
          14 :   -17.3429141787479
          15 :    24.2158404747900
          16 :   -26.2519920332238
          17 :    23.7943827411846
          18 :   -18.4838210922787
          19 :    12.6025832971179
          20 :   -8.18959155492621
          21 :    6.33641186927468
          22 :   -6.94164226079511
          23 :    8.96308433373770
          24 :   -11.0028892350215
          25 :    11.9401700117885
          26 :   -11.3474560002755
          27 :    9.54921635658775
          28 :   -7.35484339180289
          29 :    5.62621962336937
          30 :   -4.88958708112523
          31 :   -50.2485865066053
          32 :   -37.2699388431946

     Forces acting on atoms (Ry/au):

     negative rho (up, down):  2.572E+00 0.000E+00
     atom    1 type  1   force =     0.00000033    0.00668027   -0.00863245
     atom    2 type  1   force =     0.00578597   -0.00334001   -0.00863302
     atom    3 type  1   force =    -0.00578593   -0.00334021   -0.00863225
     atom    4 type  2   force =     0.00000006   -0.00000061    0.02514740
     atom    5 type  1   force =    -0.00000045   -0.00678501   -0.00116678
     atom    6 type  1   force =    -0.00587568    0.00339228   -0.00116675
     atom    7 type  1   force =     0.00587572    0.00339273   -0.00116655
     atom    8 type  2   force =     0.00000040    0.00000012    0.00303483
     atom    9 type  1   force =    -0.00000028    0.00004564    0.00030874
     atom   10 type  1   force =     0.00003953   -0.00002296    0.00030898
     atom   11 type  1   force =    -0.00003970   -0.00002262    0.00030908
     atom   12 type  2   force =     0.00000002    0.00000037    0.00028878

     Total force =     0.033788     Total SCF correction =     0.004898
     SCF correction compared to forces is large: reduce conv_thr to get better values

     entering subroutine stress ...

     negative rho (up, down):  2.572E+00 0.000E+00
          total   stress  (Ry/bohr**3)                   (kbar)     P=  -24.05
  -0.00023536  -0.00000000   0.00000000        -34.62     -0.00      0.00
  -0.00000000  -0.00023536   0.00000000         -0.00    -34.62      0.00
   0.00000000   0.00000000  -0.00001968          0.00      0.00     -2.89

 !ASE

     Writing output data file calc.save

     General routines

     Parallel routines

   This run was terminated on:  17:10: 4  31Dec2018

   JOB DONE.
Job  /afs/slac/g/suncat/bin/suncat-tsmpirun -x LD_LIBRARY_PATH -wdir /scratch/qe648807_ezN6k pw.x -in pw.inp

TID   HOST_NAME   COMMAND_LINE            STATUS            TERMINATION_TIME
00000 suncat0271 pw.x -in pw.inp   Done                     12/31/2018 17:10:04
00001 suncat0271 pw.x -in pw.inp   Done                     12/31/2018 17:10:04
00002 suncat0271 pw.x -in pw.inp   Done                     12/31/2018 17:10:04
00003 suncat0271 pw.x -in pw.inp   Done                     12/31/2018 17:10:04
00004 suncat0271 pw.x -in pw.inp   Done                     12/31/2018 17:10:04
00005 suncat0271 pw.x -in pw.inp   Done                     12/31/2018 17:10:04
00006 suncat0271 pw.x -in pw.inp   Done                     12/31/2018 17:10:04
00007 suncat0271 pw.x -in pw.inp   Done                     12/31/2018 17:10:04
00008 suncat0266 pw.x -in pw.inp   Done                     12/31/2018 17:10:04
00009 suncat0266 pw.x -in pw.inp   Done                     12/31/2018 17:10:04
00010 suncat0266 pw.x -in pw.inp   Done                     12/31/2018 17:10:04
00011 suncat0266 pw.x -in pw.inp   Done                     12/31/2018 17:10:04
00012 suncat0266 pw.x -in pw.inp   Done                     12/31/2018 17:10:04
00013 suncat0266 pw.x -in pw.inp   Done                     12/31/2018 17:10:04
00014 suncat0266 pw.x -in pw.inp   Done                     12/31/2018 17:10:04
00015 suncat0266 pw.x -in pw.inp   Done                     12/31/2018 17:10:04
00016 suncat0264 pw.x -in pw.inp   Done                     12/31/2018 17:10:04
00017 suncat0264 pw.x -in pw.inp   Done                     12/31/2018 17:10:04
00018 suncat0264 pw.x -in pw.inp   Done                     12/31/2018 17:10:04
00019 suncat0264 pw.x -in pw.inp   Done                     12/31/2018 17:10:04
00020 suncat0264 pw.x -in pw.inp   Done                     12/31/2018 17:10:04
00021 suncat0264 pw.x -in pw.inp   Done                     12/31/2018 17:10:04
00022 suncat0264 pw.x -in pw.inp   Done                     12/31/2018 17:10:04
00023 suncat0264 pw.x -in pw.inp   Done                     12/31/2018 17:10:04
00024 suncat0260 pw.x -in pw.inp   Done                     12/31/2018 17:10:04
00025 suncat0260 pw.x -in pw.inp   Done                     12/31/2018 17:10:04
00026 suncat0260 pw.x -in pw.inp   Done                     12/31/2018 17:10:04
00027 suncat0260 pw.x -in pw.inp   Done                     12/31/2018 17:10:04
00028 suncat0260 pw.x -in pw.inp   Done                     12/31/2018 17:10:04
00029 suncat0260 pw.x -in pw.inp   Done                     12/31/2018 17:10:04
00030 suncat0260 pw.x -in pw.inp   Done                     12/31/2018 17:10:04
00031 suncat0260 pw.x -in pw.inp   Done                     12/31/2018 17:10:04
00032 suncat0241 pw.x -in pw.inp   Done                     12/31/2018 17:10:04
00033 suncat0241 pw.x -in pw.inp   Done                     12/31/2018 17:10:04
00034 suncat0241 pw.x -in pw.inp   Done                     12/31/2018 17:10:04
00035 suncat0241 pw.x -in pw.inp   Done                     12/31/2018 17:10:04
00036 suncat0241 pw.x -in pw.inp   Done                     12/31/2018 17:10:04
00037 suncat0241 pw.x -in pw.inp   Done                     12/31/2018 17:10:04
00038 suncat0241 pw.x -in pw.inp   Done                     12/31/2018 17:10:04
00039 suncat0241 pw.x -in pw.inp   Done                     12/31/2018 17:10:04
00040 suncat0240 pw.x -in pw.inp   Done                     12/31/2018 17:10:04
00041 suncat0240 pw.x -in pw.inp   Done                     12/31/2018 17:10:04
00042 suncat0240 pw.x -in pw.inp   Done                     12/31/2018 17:10:04
00043 suncat0240 pw.x -in pw.inp   Done                     12/31/2018 17:10:04
00044 suncat0240 pw.x -in pw.inp   Done                     12/31/2018 17:10:04
00045 suncat0240 pw.x -in pw.inp   Done                     12/31/2018 17:10:04
00046 suncat0240 pw.x -in pw.inp   Done                     12/31/2018 17:10:04
00047 suncat0240 pw.x -in pw.inp   Done                     12/31/2018 17:10:04
00048 suncat0239 pw.x -in pw.inp   Done                     12/31/2018 17:10:04
00049 suncat0239 pw.x -in pw.inp   Done                     12/31/2018 17:10:04
00050 suncat0239 pw.x -in pw.inp   Done                     12/31/2018 17:10:04
00051 suncat0239 pw.x -in pw.inp   Done                     12/31/2018 17:10:04
00052 suncat0239 pw.x -in pw.inp   Done                     12/31/2018 17:10:04
00053 suncat0239 pw.x -in pw.inp   Done                     12/31/2018 17:10:04
00054 suncat0239 pw.x -in pw.inp   Done                     12/31/2018 17:10:04
00055 suncat0239 pw.x -in pw.inp   Done                     12/31/2018 17:10:04
00056 suncat0098 pw.x -in pw.inp   Done                     12/31/2018 17:10:04
00057 suncat0098 pw.x -in pw.inp   Done                     12/31/2018 17:10:04
00058 suncat0098 pw.x -in pw.inp   Done                     12/31/2018 17:10:04
00059 suncat0098 pw.x -in pw.inp   Done                     12/31/2018 17:10:04
00060 suncat0098 pw.x -in pw.inp   Done                     12/31/2018 17:10:04
00061 suncat0098 pw.x -in pw.inp   Done                     12/31/2018 17:10:04
00062 suncat0098 pw.x -in pw.inp   Done                     12/31/2018 17:10:04
00063 suncat0098 pw.x -in pw.inp   Done                     12/31/2018 17:10:04