     Program PWSCF v.5.1rc2 (svn rev. 11289) starts on 31Dec2018 at 18:26:55

     Current dimensions of program PWSCF are:
     Max number of different atomic species (ntypx) = 10
     Max number of k-points (npk) =  40000
     Max angular momentum in pseudopotentials (lmaxx) =  3
     Presently stress not available with electric field

     IMPORTANT: XC functional enforced from input :
     Exchange-correlation      = BEEF-VDW ( 1  4 27 13 2)
     Any further DFT definition will be discarded
     Please, verify this is what you really want

     Subspace diagonalization in iterative solution of the eigenvalue problem:
     a serial algorithm will be used

     bravais-lattice index     =            0
     lattice parameter (alat)  =       1.8897  a.u.
     unit-cell volume          =    4686.5353 (a.u.)^3
     number of atoms/cell      =           12
     number of atomic types    =            2
     number of electrons       =       171.00
     number of Kohn-Sham states=          115
     kinetic-energy cutoff     =      36.7493  Ry
     charge density cutoff     =     367.4932  Ry
     convergence threshold     =      1.0E-06
     mixing beta               =       0.1000
     number of iterations used =           10  plain     mixing
     Exchange-correlation      = BEEF-VDW ( 1  4 27 13 2)
     nstep                     =           50

     celldm(1)=   1.889726  celldm(2)=   0.000000  celldm(3)=   0.000000
     celldm(4)=   0.000000  celldm(5)=   0.000000  celldm(6)=   0.000000

     crystal axes: (cart. coord. in units of alat)
               a(1) = (   5.702921   0.000000   0.000000 )
               a(2) = (  -2.851461   4.938874   0.000000 )
               a(3) = (   0.000000   0.000000  24.656416 )

     reciprocal axes: (cart. coord. in units 2 pi/alat)
               b(1) = (  0.175349  0.101238  0.000000 )
               b(2) = (  0.000000  0.202475  0.000000 )
               b(3) = (  0.000000  0.000000  0.040557 )

     PseudoPot. # 1 for Re read from file:
     /afs/slac.stanford.edu/u/if/mamunm/psp/gbrv1.5pbe/Re.UPF
     MD5 check sum: 85f993410f3e006da9d71c142b4ad953
     Pseudo is Ultrasoft + core correction, Zval = 15.0
     Generated by new atomic code, or converted to UPF format
     Using radial grid of  981 points,  8 beta functions with:
                l(1) =   0
                l(2) =   0
                l(3) =   1
                l(4) =   1
                l(5) =   2
                l(6) =   2
                l(7) =   3
                l(8) =   3
     Q(r) pseudized with  8 coefficients,  rinner =    1.150   1.150   1.150
                                                       1.150   1.150   1.150
                                                       1.150

     PseudoPot. # 2 for Hf read from file:
     /afs/slac.stanford.edu/u/if/mamunm/psp/gbrv1.5pbe/Hf.UPF
     MD5 check sum: 8ee9378dfe14276e333edf04c5e4aa26
     Pseudo is Ultrasoft + core correction, Zval = 12.0
     Generated by new atomic code, or converted to UPF format
     Using radial grid of  921 points,  8 beta functions with:
                l(1) =   0
                l(2) =   0
                l(3) =   0
                l(4) =   1
                l(5) =   1
                l(6) =   2
                l(7) =   2
                l(8) =   3
     Q(r) pseudized with  6 coefficients,  rinner =    1.200   1.200   1.200
                                                       1.200   1.200   1.200
                                                       1.200

     vdW kernel table read from file vdW_kernel_table
     MD5 check sum: 095c7af220d748ca6e76c0b4c6cfb241

     atomic species   valence    mass     pseudopotential
        Re1           15.00   186.20700     Re( 1.00)
        Hf1           12.00   178.49000     Hf( 1.00)

     No symmetry found

   Cartesian axes

     site n.     atom                  positions (alat units)
         1           Re1 tau(   1) = (   0.0000000   0.0000000  10.0000000  )
         2           Re1 tau(   2) = (  -1.4257303   2.4694372  10.0000000  )
         3           Re1 tau(   3) = (   1.4257303   2.4694372  10.0000000  )
         4           Hf1 tau(   4) = (   2.8514605   0.0000000  10.0000000  )
         5           Re1 tau(   5) = (   2.8514605   1.6462915  12.3282078  )
         6           Re1 tau(   6) = (   1.4257303   4.1157287  12.3282078  )
         7           Re1 tau(   7) = (  -1.4257303   4.1157287  12.3282078  )
         8           Hf1 tau(   8) = (   0.0000000   1.6462915  12.3282078  )
         9           Re1 tau(   9) = (  -0.0000000   3.2925830  14.6564155  )
        10           Re1 tau(  10) = (   1.4257303   0.8231457  14.6564155  )
        11           Re1 tau(  11) = (   4.2771908   0.8231457  14.6564155  )
        12           Hf1 tau(  12) = (   2.8514605   3.2925830  14.6564155  )

     number of k points=    20  Fermi-Dirac smearing, width (Ry)=  0.0110
                       cart. coord. in units 2pi/alat
        k(    1) = (   0.0000000   0.0000000   0.0000000), wk =   0.0555556
        k(    2) = (   0.0000000   0.0337459   0.0000000), wk =   0.1111111
        k(    3) = (   0.0000000   0.0674918   0.0000000), wk =   0.1111111
        k(    4) = (   0.0000000  -0.1012376   0.0000000), wk =   0.0555556
        k(    5) = (   0.0292248   0.0168729   0.0000000), wk =   0.1111111
        k(    6) = (   0.0292248   0.0506188   0.0000000), wk =   0.1111111
        k(    7) = (   0.0292248   0.0843647   0.0000000), wk =   0.1111111
        k(    8) = (   0.0292248  -0.0843647   0.0000000), wk =   0.1111111
        k(    9) = (   0.0292248  -0.0506188   0.0000000), wk =   0.1111111
        k(   10) = (   0.0292248  -0.0168729   0.0000000), wk =   0.1111111
        k(   11) = (   0.0584496   0.0337459   0.0000000), wk =   0.1111111
        k(   12) = (   0.0584496   0.0674918   0.0000000), wk =   0.1111111
        k(   13) = (   0.0584496   0.1012376   0.0000000), wk =   0.1111111
        k(   14) = (   0.0584496  -0.0674918   0.0000000), wk =   0.1111111
        k(   15) = (   0.0584496  -0.0337459   0.0000000), wk =   0.1111111
        k(   16) = (   0.0584496   0.0000000   0.0000000), wk =   0.1111111
        k(   17) = (  -0.0876744  -0.0506188   0.0000000), wk =   0.0555556
        k(   18) = (  -0.0876744  -0.0168729   0.0000000), wk =   0.1111111
        k(   19) = (  -0.0876744   0.0168729   0.0000000), wk =   0.1111111
        k(   20) = (  -0.0876744  -0.1518565   0.0000000), wk =   0.0555556

     Largest allocated arrays     est. size (Mb)     dimensions
     Largest temporary arrays     est. size (Mb)     dimensions

     Check: negative/imaginary core charge=   -0.000002    0.000000

     Initial potential from superposition of free atoms
     Check: negative starting charge=   -1.473940

     starting charge  160.49959, renormalised to  171.00000

     negative rho (up, down):  1.570E+00 0.000E+00

     *
     * You are using vdW-DF for exchange-correlation in this calculation.
     * Please cite the following three references that made this development
     * possible:
     *
     *   M. Dion, H. Rydberg, E. Schroder, D. C. Langreth, and
     *   B. I. Lundqvist, Phys. Rev. Lett. 92, 246401 (2004).
     *
     *   T. Thonhauser, V. R. Cooper, S. Li, A. Puzder, P. Hyldgaard, and
     *   D. C. Langreth, Phys. Rev. B 76, 125112 (2007).
     *
     *   G. Roman-Perez and J. M. Soler, Phys. Rev. Lett. 103, 096102 (2009).
     *
     *
     * If you are using vdW-DF2, please also cite:
     *
     *   K. Lee, E. D. Murray, L. Kong, B. I. Lundqvist, and
     *   D. C. Langreth, Phys. Rev. B 82, 081101(R) (2010).
     *
     *
     * If you are calculating the stress with vdW-DF, please also cite:
     *
     *   R. Sabatini, E. Kucukbenli, B. Kolb, T. Thonhauser, and
     *   S. de Gironcoli, J. Phys.: Condens. Matter 24, 424209 (2012).
     *

     Carrying out vdW-DF run using the following parameters:

     Nqs =      20    Nr_points =    1024   r_max =   100.000
     q_mesh =
               0.00001000     0.04494208     0.09755937     0.15916263
               0.23128650     0.31572767     0.41458969     0.53033537
               0.66584808     0.82450364     1.01025438     1.22772762
               1.48234092     1.78043706     2.12944203     2.53805004
               3.01644009     3.57652955     4.23227104     5.00000000

     Gradients computed in reciprocal space

     Adding external electric field

     Computed dipole along edir(3) :
        Dipole                0.0000 Ry au,          0.0000 Debye
        Dipole field          0.0000 Ry au

        Potential amp.       -0.0000 Ry
        Total length         45.4290 bohr

     Starting wfc are  156 randomized atomic wfcs

     Self-consistent Calculation

     iteration #  1     ecut=    36.75 Ry     beta=0.10
     Davidson diagonalization with overlap
     ethr =  1.00E-02,  avg # of iterations =  7.4

[...]

     total energy              =   -2212.28035531 Ry
     Harris-Foulkes estimate   =   -2213.75737464 Ry
     estimated scf accuracy    <       9.69735130 Ry

[...]

     End of self-consistent calculation

          k = 0.0000 0.0000 0.0000 ( 17705 PWs)   bands (ev):

   -77.8599 -77.8239 -77.8238 -77.7108 -77.7090 -77.6765 -77.6765 -77.6760
   -77.6760 -59.4500 -59.4497 -58.8935 -39.9133 -39.7474 -39.7474 -39.7244
   -39.6881 -39.6532 -39.6188 -39.6188 -39.4938 -39.4533 -39.4532 -39.4296
   -39.4296 -39.4103 -39.4037 -39.4037 -39.3184 -39.3075 -39.3074 -39.2758
   -39.2757 -39.1500 -39.1323 -39.1117 -39.1117 -39.1074 -39.1074 -28.1593
   -28.1357 -27.9667 -27.9667 -27.9607 -27.9607 -27.5605 -27.5446 -27.5446
    -5.6699  -3.9266  -3.1731  -2.6194  -2.6194  -2.5770  -2.3871  -2.3871
    -2.2605  -1.6796  -1.6355  -1.6355  -1.6141  -1.6035  -1.6035  -0.3769
    -0.0961  -0.0961   0.6578   0.6579   0.7610   0.8752   1.2267   1.4553
     1.5555   1.5555   1.7044   1.7044   1.9265   1.9345   1.9345   2.2285
     2.2285   2.3596   2.3596   2.6137   3.0528   3.1472   3.1472   3.1707
     3.5084   3.6580   3.6581   4.0653   4.0653   4.3290   4.4564   4.4564
     4.5577   4.5577   5.0901   5.9754   5.9956   5.9956   6.0793   6.2777
     6.3816   6.6055   6.6055   6.6190   6.6618   6.7507   6.7507   7.2264
     7.2492   7.4196   7.4196

[...]

          k =-0.0877-0.0506 0.0000 ( 17588 PWs)   bands (ev):

[...]

     the Fermi energy is     2.4530 ev

!    total energy              =   -2210.89681419 Ry
     Harris-Foulkes estimate   =   -2210.89680787 Ry
     estimated scf accuracy    <       0.00000065 Ry

     The total energy is the sum of the following terms:

     one-electron contribution =  -15229.48608563 Ry
     hartree contribution      =    7600.33060423 Ry
     xc contribution           =    -718.87750429 Ry
     ewald contribution        =    6137.22899996 Ry
     electric field correction =       0.00000002 Ry
     smearing contrib. (-TS)   =      -0.09282847 Ry

     convergence has been achieved in  17 iterations

 BEEF-vdW xc energy contributions
           1 :   -642.165380149612
           2 :    596.905017823169
           3 :   -515.867804238760
           4 :    414.769401955690
           5 :   -310.747467814255
[...]
                l(1) =   0
                l(2) =   0
                l(3) =   1
                l(4) =   1
                l(5) =   2
                l(6) =   2
                l(7) =   3
                l(8) =   3
     Q(r) pseudized with  8 coefficients,  rinner =    1.150   1.150   1.150
                                                       1.150   1.150   1.150
                                                       1.150

     PseudoPot. # 2 for Hf read from file:
     /afs/slac.stanford.edu/u/if/mamunm/psp/gbrv1.5pbe/Hf.UPF
     MD5 check sum: 8ee9378dfe14276e333edf04c5e4aa26
     Pseudo is Ultrasoft + core correction, Zval = 12.0
     Generated by new atomic code, or converted to UPF format
     Using radial grid of  921 points,  8 beta functions with:
                l(1) =   0
                l(2) =   0
                l(3) =   0
                l(4) =   1
                l(5) =   1
                l(6) =   2
                l(7) =   2
                l(8) =   3
     Q(r) pseudized with  6 coefficients,  rinner =    1.200   1.200   1.200
                                                       1.200   1.200   1.200
                                                       1.200

     vdW kernel table read from file vdW_kernel_table
     MD5 check sum: 095c7af220d748ca6e76c0b4c6cfb241

     atomic species   valence    mass     pseudopotential
        Re1           15.00   186.20700     Re( 1.00)
        Hf1           12.00   178.49000     Hf( 1.00)

     No symmetry found

   Cartesian axes

     site n.     atom                  positions (alat units)
         1           Re1 tau(   1) = (   0.0000000   0.0000000  10.0000000  )
         2           Re1 tau(   2) = (  -1.4257303   2.4694372  10.0000000  )
         3           Re1 tau(   3) = (   1.4257303   2.4694372  10.0000000  )
         4           Hf1 tau(   4) = (   2.8514605   0.0000000  10.0000000  )
         5           Re1 tau(   5) = (   2.8514605   1.6462915  12.3282078  )
         6           Re1 tau(   6) = (   1.4257303   4.1157287  12.3282078  )
         7           Re1 tau(   7) = (  -1.4257303   4.1157287  12.3282078  )
         8           Hf1 tau(   8) = (   0.0000000   1.6462915  12.3282078  )
         9           Re1 tau(   9) = (   0.0000132   3.3804431  14.4879816  )
        10           Re1 tau(  10) = (   1.5018388   0.7792145  14.4879814  )
        11           Re1 tau(  11) = (   4.2010942   0.7792083  14.4879826  )
        12           Hf1 tau(  12) = (   2.8514718   3.2925769  14.9020510  )

     number of k points=    20  Fermi-Dirac smearing, width (Ry)=  0.0110
                       cart. coord. in units 2pi/alat
        k(    1) = (   0.0000000   0.0000000   0.0000000), wk =   0.0555556
        k(    2) = (   0.0000000   0.0337459   0.0000000), wk =   0.1111111
        k(    3) = (   0.0000000   0.0674918   0.0000000), wk =   0.1111111
        k(    4) = (   0.0000000  -0.1012376   0.0000000), wk =   0.0555556
        k(    5) = (   0.0292248   0.0168729   0.0000000), wk =   0.1111111
        k(    6) = (   0.0292248   0.0506188   0.0000000), wk =   0.1111111
        k(    7) = (   0.0292248   0.0843647   0.0000000), wk =   0.1111111
        k(    8) = (   0.0292248  -0.0843647   0.0000000), wk =   0.1111111
        k(    9) = (   0.0292248  -0.0506188   0.0000000), wk =   0.1111111
        k(   10) = (   0.0292248  -0.0168729   0.0000000), wk =   0.1111111
        k(   11) = (   0.0584496   0.0337459   0.0000000), wk =   0.1111111
        k(   12) = (   0.0584496   0.0674918   0.0000000), wk =   0.1111111
        k(   13) = (   0.0584496   0.1012376   0.0000000), wk =   0.1111111
        k(   14) = (   0.0584496  -0.0674918   0.0000000), wk =   0.1111111
        k(   15) = (   0.0584496  -0.0337459   0.0000000), wk =   0.1111111
        k(   16) = (   0.0584496   0.0000000   0.0000000), wk =   0.1111111
        k(   17) = (  -0.0876744  -0.0506188   0.0000000), wk =   0.0555556
        k(   18) = (  -0.0876744  -0.0168729   0.0000000), wk =   0.1111111
        k(   19) = (  -0.0876744   0.0168729   0.0000000), wk =   0.1111111
        k(   20) = (  -0.0876744  -0.1518565   0.0000000), wk =   0.0555556

     Largest allocated arrays     est. size (Mb)     dimensions
     Largest temporary arrays     est. size (Mb)     dimensions

     Check: negative/imaginary core charge=   -0.000002    0.000000

     Initial potential from superposition of free atoms
     Check: negative starting charge=   -1.479242

     starting charge  160.49959, renormalised to  171.00000

[...]

     *
     * You are using vdW-DF for exchange-correlation in this calculation.
     * Please cite the following three references that made this development
     * possible:
     *
     *   M. Dion, H. Rydberg, E. Schroder, D. C. Langreth, and
     *   B. I. Lundqvist, Phys. Rev. Lett. 92, 246401 (2004).
     *
     *   T. Thonhauser, V. R. Cooper, S. Li, A. Puzder, P. Hyldgaard, and
     *   D. C. Langreth, Phys. Rev. B 76, 125112 (2007).
     *
     *   G. Roman-Perez and J. M. Soler, Phys. Rev. Lett. 103, 096102 (2009).
     *
     *
     * If you are using vdW-DF2, please also cite:
     *
     *   K. Lee, E. D. Murray, L. Kong, B. I. Lundqvist, and
     *   D. C. Langreth, Phys. Rev. B 82, 081101(R) (2010).
     *
     *
     * If you are calculating the stress with vdW-DF, please also cite:
     *
     *   R. Sabatini, E. Kucukbenli, B. Kolb, T. Thonhauser, and
     *   S. de Gironcoli, J. Phys.: Condens. Matter 24, 424209 (2012).
     *

     Carrying out vdW-DF run using the following parameters:

     Nqs =      20    Nr_points =    1024   r_max =   100.000
     q_mesh =
               0.00001000     0.04494208     0.09755937     0.15916263
               0.23128650     0.31572767     0.41458969     0.53033537
               0.66584808     0.82450364     1.01025438     1.22772762
               1.48234092     1.78043706     2.12944203     2.53805004
               3.01644009     3.57652955     4.23227104     5.00000000

     Gradients computed in reciprocal space

[...]

     Starting wfc are  156 randomized atomic wfcs

     Self-consistent Calculation

[...]

     total energy              =   -2210.94824175 Ry
     Harris-Foulkes estimate   =   -2210.94824066 Ry
     estimated scf accuracy    <       0.00000101 Ry

     iteration # 19     ecut=    36.75 Ry     beta=0.10
     Davidson diagonalization with overlap
     ethr =  5.93E-10,  avg # of iterations =  3.9

[...]

     negative rho (up, down):  1.535E+00 0.000E+00

     Adding external electric field

     Computed dipole along edir(3) :
        Dipole                0.1400 Ry au,          0.3558 Debye
        Dipole field          0.0004 Ry au

        Potential amp.       -0.0341 Ry
        Total length         45.4290 bohr

     End of self-consistent calculation

[...]

          k = 0.0584 0.0000 0.0000 ( 17645 PWs)   bands (ev):

[...]

          k =-0.0877-0.1519 0.0000 ( 17588 PWs)   bands (ev):

   -77.7248 -77.7124 -77.6999 -77.5148 -77.5035 -77.4922 -77.4881 -77.4606
   -77.4533 -59.7822 -59.2380 -58.5825 -39.7447 -39.6492 -39.5783 -39.5663
   -39.4902 -39.4895 -39.4253 -39.4131 -39.4016 -39.3580 -39.2803 -39.2629
   -39.2310 -39.2033 -39.1750 -39.1611 -39.1501 -39.1458 -39.1240 -39.0922
   -39.0823 -39.0393 -39.0339 -39.0194 -39.0177 -38.9312 -38.8981 -28.5080
   -28.2366 -28.2191 -27.9414 -27.7870 -27.7636 -27.3025 -27.2778 -27.2704
    -3.8147  -3.5690  -2.2097  -2.1006  -1.7076  -1.6520  -1.4372  -1.4082
    -1.2739  -1.2362  -0.8900  -0.5935  -0.5574  -0.4479  -0.1579  -0.0950
    -0.0829   0.1161   0.1934   0.3309   0.4451   0.6549   0.8284   0.9740
     1.1111   1.1633   1.1640   1.2874   1.3413   1.4072   1.4302   1.6131
     1.7292   1.8680   2.1491   2.2907   2.4198   2.5253   2.6229   2.6613
     2.9102   3.0933   3.2317   3.4134   3.5170   3.6324   3.6698   3.7296
     4.1626   4.1870   4.5448   4.6352   4.6944   5.2717   5.4762   5.7260
     5.8408   6.0905   6.1739   6.3304   6.5462   6.6282   6.7562   7.0609
     7.5940   7.6200   7.7616

     the Fermi energy is     2.6612 ev

!    total energy              =   -2210.94824609 Ry
     Harris-Foulkes estimate   =   -2210.94824480 Ry
     estimated scf accuracy    <       0.00000072 Ry

     The total energy is the sum of the following terms:

     one-electron contribution =  -15403.72301059 Ry
     hartree contribution      =    7688.28647017 Ry
     xc contribution           =    -719.08834371 Ry
     ewald contribution        =    6223.65935056 Ry
     electric field correction =       0.00005254 Ry
     smearing contrib. (-TS)   =      -0.08276505 Ry

     convergence has been achieved in  19 iterations

 BEEF-vdW xc energy contributions
           1 :   -643.038616771602
           2 :    597.851418365298
           3 :   -516.923482567743
           4 :    415.905723113033
           5 :   -311.868884957728
           6 :    218.804092609208
           7 :   -144.903417155619
           8 :    92.1117789843390
           9 :   -57.5910182774285
          10 :    36.1336812886589
          11 :   -22.4966942730722
          12 :    12.8850246307113
          13 :   -5.34927333183623
          14 :  -0.670634780766250
          15 :    5.13461712537446
          16 :   -8.05300059149613
          17 :    9.74843767114169
          18 :   -10.7639298353595
          19 :    11.5999186956244
          20 :   -12.4902084303071
          21 :    13.3319363057585
          22 :   -13.7884892268843
          23 :    13.4952370595200
          24 :   -12.2740535066965
          25 :    10.2661327760948
          26 :   -7.93635506945498
          27 :    5.94015809400946
          28 :   -4.89458324905672
          29 :    5.12840624978503
          30 :   -6.51469466585024
          31 :   -50.9830211576015
          32 :   -37.4507306982485

     Forces acting on atoms (Ry/au):

     negative rho (up, down):  1.535E+00 0.000E+00
     atom    1 type  1   force =     0.00000023   -0.02188102    0.01848857
     atom    2 type  1   force =    -0.01895077    0.01094022    0.01848693
     atom    3 type  1   force =     0.01895080    0.01094081    0.01848699
     atom    4 type  2   force =     0.00000038    0.00000003   -0.04461096
     atom    5 type  1   force =    -0.00000325    0.02589726    0.01112588
     atom    6 type  1   force =     0.02242483   -0.01294939    0.01112637
     atom    7 type  1   force =    -0.02242541   -0.01294704    0.01112956
     atom    8 type  2   force =     0.00000267    0.00000016   -0.04518796
     atom    9 type  1   force =     0.00000116    0.00033084    0.00028230
     atom   10 type  1   force =     0.00028672   -0.00016668    0.00028235
     atom   11 type  1   force =    -0.00028744   -0.00016862    0.00027946
     atom   12 type  2   force =     0.00000009    0.00000343    0.00011051

     Total force =     0.094221     Total SCF correction =     0.005545

     entering subroutine stress ...

     negative rho (up, down):  1.535E+00 0.000E+00
          total   stress  (Ry/bohr**3)                   (kbar)     P=  -29.35
  -0.00027747   0.00000000   0.00000000        -40.82      0.00      0.00
   0.00000000  -0.00027747   0.00000000          0.00    -40.82      0.00
   0.00000000   0.00000000  -0.00004371          0.00      0.00     -6.43

 !ASE

     Writing output data file calc.save

     General routines

     Parallel routines

   This run was terminated on:  20:34:51  31Dec2018

   JOB DONE.
Job  /afs/slac/g/suncat/bin/suncat-tsmpirun -x LD_LIBRARY_PATH -wdir /scratch/qe648838_aTf4Z pw.x -in pw.inp

TID   HOST_NAME   COMMAND_LINE            STATUS            TERMINATION_TIME
00000 suncat0146 pw.x -in pw.inp   Done                     12/31/2018 20:34:51
00001 suncat0146 pw.x -in pw.inp   Done                     12/31/2018 20:34:51
00002 suncat0146 pw.x -in pw.inp   Done                     12/31/2018 20:34:51
00003 suncat0146 pw.x -in pw.inp   Done                     12/31/2018 20:34:51
00004 suncat0146 pw.x -in pw.inp   Done                     12/31/2018 20:34:51
00005 suncat0146 pw.x -in pw.inp   Done                     12/31/2018 20:34:51
00006 suncat0146 pw.x -in pw.inp   Done                     12/31/2018 20:34:51
00007 suncat0146 pw.x -in pw.inp   Done                     12/31/2018 20:34:51
00008 suncat0136 pw.x -in pw.inp   Done                     12/31/2018 20:34:51
00009 suncat0136 pw.x -in pw.inp   Done                     12/31/2018 20:34:51
00010 suncat0136 pw.x -in pw.inp   Done                     12/31/2018 20:34:51
00011 suncat0136 pw.x -in pw.inp   Done                     12/31/2018 20:34:51
00012 suncat0136 pw.x -in pw.inp   Done                     12/31/2018 20:34:51
00013 suncat0136 pw.x -in pw.inp   Done                     12/31/2018 20:34:51
00014 suncat0136 pw.x -in pw.inp   Done                     12/31/2018 20:34:51
00015 suncat0136 pw.x -in pw.inp   Done                     12/31/2018 20:34:51
00016 suncat0248 pw.x -in pw.inp   Done                     12/31/2018 20:34:51
00017 suncat0248 pw.x -in pw.inp   Done                     12/31/2018 20:34:51
00018 suncat0248 pw.x -in pw.inp   Done                     12/31/2018 20:34:51
00019 suncat0248 pw.x -in pw.inp   Done                     12/31/2018 20:34:51
00020 suncat0248 pw.x -in pw.inp   Done                     12/31/2018 20:34:51
00021 suncat0248 pw.x -in pw.inp   Done                     12/31/2018 20:34:51
00022 suncat0248 pw.x -in pw.inp   Done                     12/31/2018 20:34:51
00023 suncat0248 pw.x -in pw.inp   Done                     12/31/2018 20:34:51
00024 suncat0247 pw.x -in pw.inp   Done                     12/31/2018 20:34:51
00025 suncat0247 pw.x -in pw.inp   Done                     12/31/2018 20:34:51
00026 suncat0247 pw.x -in pw.inp   Done                     12/31/2018 20:34:51
00027 suncat0247 pw.x -in pw.inp   Done                     12/31/2018 20:34:51
00028 suncat0247 pw.x -in pw.inp   Done                     12/31/2018 20:34:51
00029 suncat0247 pw.x -in pw.inp   Done                     12/31/2018 20:34:51
00030 suncat0247 pw.x -in pw.inp   Done                     12/31/2018 20:34:51
00031 suncat0247 pw.x -in pw.inp   Done                     12/31/2018 20:34:51
00032 suncat0246 pw.x -in pw.inp   Done                     12/31/2018 20:34:51
00033 suncat0246 pw.x -in pw.inp   Done                     12/31/2018 20:34:51
00034 suncat0246 pw.x -in pw.inp   Done                     12/31/2018 20:34:51
00035 suncat0246 pw.x -in pw.inp   Done                     12/31/2018 20:34:51
00036 suncat0246 pw.x -in pw.inp   Done                     12/31/2018 20:34:51
00037 suncat0246 pw.x -in pw.inp   Done                     12/31/2018 20:34:51
00038 suncat0246 pw.x -in pw.inp   Done                     12/31/2018 20:34:51
00039 suncat0246 pw.x -in pw.inp   Done                     12/31/2018 20:34:51
00040 suncat0245 pw.x -in pw.inp   Done                     12/31/2018 20:34:51
00041 suncat0245 pw.x -in pw.inp   Done                     12/31/2018 20:34:51
00042 suncat0245 pw.x -in pw.inp   Done                     12/31/2018 20:34:51
00043 suncat0245 pw.x -in pw.inp   Done                     12/31/2018 20:34:51
00044 suncat0245 pw.x -in pw.inp   Done                     12/31/2018 20:34:51
00045 suncat0245 pw.x -in pw.inp   Done                     12/31/2018 20:34:51
00046 suncat0245 pw.x -in pw.inp   Done                     12/31/2018 20:34:51
00047 suncat0245 pw.x -in pw.inp   Done                     12/31/2018 20:34:51
00048 suncat0214 pw.x -in pw.inp   Done                     12/31/2018 20:34:51
00049 suncat0214 pw.x -in pw.inp   Done                     12/31/2018 20:34:51
00050 suncat0214 pw.x -in pw.inp   Done                     12/31/2018 20:34:51
00051 suncat0214 pw.x -in pw.inp   Done                     12/31/2018 20:34:51
00052 suncat0214 pw.x -in pw.inp   Done                     12/31/2018 20:34:51
00053 suncat0214 pw.x -in pw.inp   Done                     12/31/2018 20:34:51
00054 suncat0214 pw.x -in pw.inp   Done                     12/31/2018 20:34:51
00055 suncat0214 pw.x -in pw.inp   Done                     12/31/2018 20:34:51
00056 suncat0213 pw.x -in pw.inp   Done                     12/31/2018 20:34:51
00057 suncat0213 pw.x -in pw.inp   Done                     12/31/2018 20:34:51
00058 suncat0213 pw.x -in pw.inp   Done                     12/31/2018 20:34:51
00059 suncat0213 pw.x -in pw.inp   Done                     12/31/2018 20:34:51
00060 suncat0213 pw.x -in pw.inp   Done                     12/31/2018 20:34:51
00061 suncat0213 pw.x -in pw.inp   Done                     12/31/2018 20:34:51
00062 suncat0213 pw.x -in pw.inp   Done                     12/31/2018 20:34:51
00063 suncat0213 pw.x -in pw.inp   Done                     12/31/2018 20:34:51