     Program PWSCF v.5.1rc2 (svn rev. 11289) starts on 30Dec2018 at  0:57:43

     Current dimensions of program PWSCF are:
     Max number of different atomic species (ntypx) = 10
     Max number of k-points (npk) =  40000
     Max angular momentum in pseudopotentials (lmaxx) =  3
     Presently stress not available with electric field

     IMPORTANT: XC functional enforced from input :
     Exchange-correlation      = BEEF-VDW ( 1  4 27 13 2)
     Any further DFT definition will be discarded
     Please, verify this is what you really want

     Subspace diagonalization in iterative solution of the eigenvalue problem:
     a serial algorithm will be used

     Generating pointlists ...
     new r_m :   0.4125 (alat units)  0.7795 (a.u.) for type    1
     new r_m :   0.4125 (alat units)  0.7795 (a.u.) for type    2

     bravais-lattice index     =            0
     lattice parameter (alat)  =       1.8897  a.u.
     unit-cell volume          =    3922.0081 (a.u.)^3
     number of atoms/cell      =           12
     number of atomic types    =            2
     number of electrons       =       189.00
     number of Kohn-Sham states=          124
     kinetic-energy cutoff     =      36.7493  Ry
     charge density cutoff     =     367.4932  Ry
     convergence threshold     =      1.0E-06
     mixing beta               =       0.1000
     number of iterations used =           10  plain     mixing
     Exchange-correlation      = BEEF-VDW ( 1  4 27 13 2)
     nstep                     =           50

     celldm(1)=   1.889726  celldm(2)=   0.000000  celldm(3)=   0.000000
     celldm(4)=   0.000000  celldm(5)=   0.000000  celldm(6)=   0.000000

     crystal axes: (cart. coord. in units of alat)
               a(1) = (   5.256090   0.000000   0.000000 )
               a(2) = (  -2.628045   4.551907   0.000000 )
               a(3) = (   0.000000   0.000000  24.291579 )

     reciprocal axes: (cart. coord. in units 2 pi/alat)
               b(1) = (  0.190256  0.109844  0.000000 )
               b(2) = (  0.000000  0.219688  0.000000 )
               b(3) = (  0.000000  0.000000  0.041167 )

     PseudoPot. # 1 for Co read from file:
     /afs/slac.stanford.edu/u/if/mamunm/psp/gbrv1.5pbe/Co.UPF
     MD5 check sum: 5f91765df6ddd3222702df6e7b74a16d
     Pseudo is Ultrasoft + core correction, Zval = 17.0
     Generated by new atomic code, or converted to UPF format
     Using radial grid of  863 points,  6 beta functions with:
                l(1) =   0
                l(2) =   0
                l(3) =   1
                l(4) =   1
                l(5) =   2
                l(6) =   2
     Q(r) pseudized with  8 coefficients,  rinner =    1.200   1.200   1.200
                                                       1.200   1.200

     PseudoPot. # 2 for Cd read from file:
     /afs/slac.stanford.edu/u/if/mamunm/psp/gbrv1.5pbe/Cd.UPF
     MD5 check sum: 17164a7926edb8e0dc231208abae86a6
     Pseudo is Ultrasoft + core correction, Zval = 12.0
     Generated by new atomic code, or converted to UPF format
     Using radial grid of  889 points,  6 beta functions with:
                l(1) =   0
                l(2) =   0
                l(3) =   1
                l(4) =   1
                l(5) =   2
                l(6) =   2
     Q(r) pseudized with  6 coefficients,  rinner =    1.000   1.000   1.000
                                                       1.000   1.000

     vdW kernel table read from file vdW_kernel_table
     MD5 check sum: 095c7af220d748ca6e76c0b4c6cfb241

     atomic species   valence    mass     pseudopotential
        Co1           17.00    58.93319     Co( 1.00)
        Cd1           12.00   112.41400     Cd( 1.00)

     Starting magnetic structure
     atomic species   magnetization
        Co1          0.118
        Cd1          0.167

     No symmetry found

   Cartesian axes

     site n.     atom                  positions (alat units)
         1           Co1 tau(   1) = (   0.0000000   0.0000000  10.0000000  )
         2           Co1 tau(   2) = (  -1.3140224   2.2759535  10.0000000  )
         3           Co1 tau(   3) = (   1.3140224   2.2759535  10.0000000  )
         4           Cd1 tau(   4) = (   2.6280448   0.0000000  10.0000000  )
         5           Co1 tau(   5) = (   2.6280448   1.5173023  12.1457896  )
         6           Co1 tau(   6) = (   1.3140224   3.7932559  12.1457896  )
         7           Co1 tau(   7) = (  -1.3140224   3.7932559  12.1457896  )
         8           Cd1 tau(   8) = (   0.0000000   1.5173023  12.1457896  )
         9           Co1 tau(   9) = (  -0.0000000   3.0346047  14.2915791  )
        10           Co1 tau(  10) = (   1.3140224   0.7586512  14.2915791  )
        11           Co1 tau(  11) = (   3.9420671   0.7586512  14.2915791  )
        12           Cd1 tau(  12) = (   2.6280448   3.0346047  14.2915791  )

     number of k points=    40  Fermi-Dirac smearing, width (Ry)=  0.0110
                       cart. coord. in units 2pi/alat
        k(    1) = (   0.0000000   0.0000000   0.0000000), wk =   0.0277778
        k(    2) = (   0.0000000   0.0366147   0.0000000), wk =   0.0555556
        k(    3) = (   0.0000000   0.0732294   0.0000000), wk =   0.0555556
        k(    4) = (   0.0000000  -0.1098441   0.0000000), wk =   0.0277778
        k(    5) = (   0.0317093   0.0183073   0.0000000), wk =   0.0555556
        k(    6) = (   0.0317093   0.0549220   0.0000000), wk =   0.0555556
        k(    7) = (   0.0317093   0.0915367   0.0000000), wk =   0.0555556
        k(    8) = (   0.0317093  -0.0915367   0.0000000), wk =   0.0555556
        k(    9) = (   0.0317093  -0.0549220   0.0000000), wk =   0.0555556
        k(   10) = (   0.0317093  -0.0183073   0.0000000), wk =   0.0555556
        k(   11) = (   0.0634185   0.0366147   0.0000000), wk =   0.0555556
        k(   12) = (   0.0634185   0.0732294   0.0000000), wk =   0.0555556
        k(   13) = (   0.0634185   0.1098441   0.0000000), wk =   0.0555556
        k(   14) = (   0.0634185  -0.0732294   0.0000000), wk =   0.0555556
        k(   15) = (   0.0634185  -0.0366147   0.0000000), wk =   0.0555556
        k(   16) = (   0.0634185  -0.0000000   0.0000000), wk =   0.0555556
        k(   17) = (  -0.0951278  -0.0549220   0.0000000), wk =   0.0277778
        k(   18) = (  -0.0951278  -0.0183073   0.0000000), wk =   0.0555556
        k(   19) = (  -0.0951278   0.0183073   0.0000000), wk =   0.0555556
        k(   20) = (  -0.0951278  -0.1647661   0.0000000), wk =   0.0277778
        k(   21) = (   0.0000000   0.0000000   0.0000000), wk =   0.0277778
        k(   22) = (   0.0000000   0.0366147   0.0000000), wk =   0.0555556
        k(   23) = (   0.0000000   0.0732294   0.0000000), wk =   0.0555556
        k(   24) = (   0.0000000  -0.1098441   0.0000000), wk =   0.0277778
        k(   25) = (   0.0317093   0.0183073   0.0000000), wk =   0.0555556
        k(   26) = (   0.0317093   0.0549220   0.0000000), wk =   0.0555556
        k(   27) = (   0.0317093   0.0915367   0.0000000), wk =   0.0555556
        k(   28) = (   0.0317093  -0.0915367   0.0000000), wk =   0.0555556
        k(   29) = (   0.0317093  -0.0549220   0.0000000), wk =   0.0555556
        k(   30) = (   0.0317093  -0.0183073   0.0000000), wk =   0.0555556
        k(   31) = (   0.0634185   0.0366147   0.0000000), wk =   0.0555556
        k(   32) = (   0.0634185   0.0732294   0.0000000), wk =   0.0555556
        k(   33) = (   0.0634185   0.1098441   0.0000000), wk =   0.0555556
        k(   34) = (   0.0634185  -0.0732294   0.0000000), wk =   0.0555556
        k(   35) = (   0.0634185  -0.0366147   0.0000000), wk =   0.0555556
        k(   36) = (   0.0634185  -0.0000000   0.0000000), wk =   0.0555556
        k(   37) = (  -0.0951278  -0.0549220   0.0000000), wk =   0.0277778
        k(   38) = (  -0.0951278  -0.0183073   0.0000000), wk =   0.0555556
        k(   39) = (  -0.0951278   0.0183073   0.0000000), wk =   0.0555556
        k(   40) = (  -0.0951278  -0.1647661   0.0000000), wk =   0.0277778

     Largest allocated arrays     est. size (Mb)     dimensions
     Largest temporary arrays     est. size (Mb)     dimensions

     Check: negative/imaginary core charge=   -0.000005    0.000000

     Initial potential from superposition of free atoms
     Check: negative starting charge=(component1):   -0.037313
     Check: negative starting charge=(component2):   -0.026649

     starting charge  178.49981, renormalised to  189.00000

     negative rho (up, down):  3.951E-02 2.822E-02

     *
     * You are using vdW-DF for exchange-correlation in this calculation.
     * Please cite the following three references that made this development
     * possible:
     *
     *   M. Dion, H. Rydberg, E. Schroder, D. C. Langreth, and
     *   B. I. Lundqvist, Phys. Rev. Lett. 92, 246401 (2004).
     *
     *   T. Thonhauser, V. R. Cooper, S. Li, A. Puzder, P. Hyldgaard, and
     *   D. C. Langreth, Phys. Rev. B 76, 125112 (2007).
     *
     *   G. Roman-Perez and J. M. Soler, Phys. Rev. Lett. 103, 096102 (2009).
     *
     *
     * If you are using vdW-DF2, please also cite:
     *
     *   K. Lee, E. D. Murray, L. Kong, B. I. Lundqvist, and
     *   D. C. Langreth, Phys. Rev. B 82, 081101(R) (2010).
     *
     *
     * If you are calculating the stress with vdW-DF, please also cite:
     *
     *   R. Sabatini, E. Kucukbenli, B. Kolb, T. Thonhauser, and
     *   S. de Gironcoli, J. Phys.: Condens. Matter 24, 424209 (2012).
     *

     Carrying out vdW-DF run using the following parameters:

     Nqs =      20    Nr_points =    1024   r_max =   100.000
     q_mesh =
               0.00001000     0.04494208     0.09755937     0.15916263
               0.23128650     0.31572767     0.41458969     0.53033537
               0.66584808     0.82450364     1.01025438     1.22772762
               1.48234092     1.78043706     2.12944203     2.53805004
               3.01644009     3.57652955     4.23227104     5.00000000

     Gradients computed in reciprocal space

     Adding external electric field

     Computed dipole along edir(3) :
        Dipole                0.0000 Ry au,          0.0000 Debye
        Dipole field          0.0000 Ry au

        Potential amp.       -0.0000 Ry
        Total length         44.7568 bohr

[...]

     Starting wfc are  144 randomized atomic wfcs

     Self-consistent Calculation

     iteration #  1     ecut=    36.75 Ry     beta=0.10
     Davidson diagonalization with overlap
     ethr =  1.00E-02,  avg # of iterations =  7.4

[...]

     Magnetic moment per site:
     atom:    1    charge:    8.4562    magn:    0.9564    constr:    0.0000
     atom:    2    charge:    8.4562    magn:    0.9564    constr:    0.0000
     atom:    3    charge:    8.4562    magn:    0.9564    constr:    0.0000
     atom:    4    charge:    2.3829    magn:    0.3612    constr:    0.0000
     atom:    5    charge:    8.4568    magn:    0.9538    constr:    0.0000
     atom:    6    charge:    8.4568    magn:    0.9538    constr:    0.0000
     atom:    7    charge:    8.4568    magn:    0.9538    constr:    0.0000
     atom:    8    charge:    2.3842    magn:    0.3611    constr:    0.0000
[...]
        k(    3) = (   0.0000000   0.0732294   0.0000000), wk =   0.0555556
        k(    4) = (   0.0000000  -0.1098441   0.0000000), wk =   0.0277778
        k(    5) = (   0.0317093   0.0183073   0.0000000), wk =   0.0555556
        k(    6) = (   0.0317093   0.0549220   0.0000000), wk =   0.0555556
        k(    7) = (   0.0317093   0.0915367   0.0000000), wk =   0.0555556
        k(    8) = (   0.0317093  -0.0915367   0.0000000), wk =   0.0555556
        k(    9) = (   0.0317093  -0.0549220   0.0000000), wk =   0.0555556
        k(   10) = (   0.0317093  -0.0183073   0.0000000), wk =   0.0555556
        k(   11) = (   0.0634185   0.0366147   0.0000000), wk =   0.0555556
        k(   12) = (   0.0634185   0.0732294   0.0000000), wk =   0.0555556
        k(   13) = (   0.0634185   0.1098441   0.0000000), wk =   0.0555556
        k(   14) = (   0.0634185  -0.0732294   0.0000000), wk =   0.0555556
        k(   15) = (   0.0634185  -0.0366147   0.0000000), wk =   0.0555556
        k(   16) = (   0.0634185  -0.0000000   0.0000000), wk =   0.0555556
        k(   17) = (  -0.0951278  -0.0549220   0.0000000), wk =   0.0277778
        k(   18) = (  -0.0951278  -0.0183073   0.0000000), wk =   0.0555556
        k(   19) = (  -0.0951278   0.0183073   0.0000000), wk =   0.0555556
        k(   20) = (  -0.0951278  -0.1647661   0.0000000), wk =   0.0277778
        k(   21) = (   0.0000000   0.0000000   0.0000000), wk =   0.0277778
        k(   22) = (   0.0000000   0.0366147   0.0000000), wk =   0.0555556
        k(   23) = (   0.0000000   0.0732294   0.0000000), wk =   0.0555556
        k(   24) = (   0.0000000  -0.1098441   0.0000000), wk =   0.0277778
        k(   25) = (   0.0317093   0.0183073   0.0000000), wk =   0.0555556
        k(   26) = (   0.0317093   0.0549220   0.0000000), wk =   0.0555556
        k(   27) = (   0.0317093   0.0915367   0.0000000), wk =   0.0555556
        k(   28) = (   0.0317093  -0.0915367   0.0000000), wk =   0.0555556
        k(   29) = (   0.0317093  -0.0549220   0.0000000), wk =   0.0555556
        k(   30) = (   0.0317093  -0.0183073   0.0000000), wk =   0.0555556
        k(   31) = (   0.0634185   0.0366147   0.0000000), wk =   0.0555556
        k(   32) = (   0.0634185   0.0732294   0.0000000), wk =   0.0555556
        k(   33) = (   0.0634185   0.1098441   0.0000000), wk =   0.0555556
        k(   34) = (   0.0634185  -0.0732294   0.0000000), wk =   0.0555556
        k(   35) = (   0.0634185  -0.0366147   0.0000000), wk =   0.0555556
        k(   36) = (   0.0634185  -0.0000000   0.0000000), wk =   0.0555556
        k(   37) = (  -0.0951278  -0.0549220   0.0000000), wk =   0.0277778
        k(   38) = (  -0.0951278  -0.0183073   0.0000000), wk =   0.0555556
        k(   39) = (  -0.0951278   0.0183073   0.0000000), wk =   0.0555556
        k(   40) = (  -0.0951278  -0.1647661   0.0000000), wk =   0.0277778

     Largest allocated arrays     est. size (Mb)     dimensions
     Largest temporary arrays     est. size (Mb)     dimensions

     Check: negative/imaginary core charge=   -0.000005    0.000000

     Initial potential from superposition of free atoms
     Check: negative starting charge=(component1):   -0.037334
     Check: negative starting charge=(component2):   -0.026665

     starting charge  178.49981, renormalised to  189.00000

[...]

     *
     * You are using vdW-DF for exchange-correlation in this calculation.
     * Please cite the following three references that made this development
     * possible:
     *
     *   M. Dion, H. Rydberg, E. Schroder, D. C. Langreth, and
     *   B. I. Lundqvist, Phys. Rev. Lett. 92, 246401 (2004).
     *
     *   T. Thonhauser, V. R. Cooper, S. Li, A. Puzder, P. Hyldgaard, and
     *   D. C. Langreth, Phys. Rev. B 76, 125112 (2007).
     *
     *   G. Roman-Perez and J. M. Soler, Phys. Rev. Lett. 103, 096102 (2009).
     *
     *
     * If you are using vdW-DF2, please also cite:
     *
     *   K. Lee, E. D. Murray, L. Kong, B. I. Lundqvist, and
     *   D. C. Langreth, Phys. Rev. B 82, 081101(R) (2010).
     *
     *
     * If you are calculating the stress with vdW-DF, please also cite:
     *
     *   R. Sabatini, E. Kucukbenli, B. Kolb, T. Thonhauser, and
     *   S. de Gironcoli, J. Phys.: Condens. Matter 24, 424209 (2012).
     *

     Carrying out vdW-DF run using the following parameters:

     Nqs =      20    Nr_points =    1024   r_max =   100.000
     q_mesh =
               0.00001000     0.04494208     0.09755937     0.15916263
               0.23128650     0.31572767     0.41458969     0.53033537
               0.66584808     0.82450364     1.01025438     1.22772762
               1.48234092     1.78043706     2.12944203     2.53805004
               3.01644009     3.57652955     4.23227104     5.00000000

     Gradients computed in reciprocal space

[...]

     Starting wfc are  144 randomized atomic wfcs

     Self-consistent Calculation

[...]

     total energy              =   -3043.72301482 Ry
     Harris-Foulkes estimate   =   -3043.72301481 Ry
     estimated scf accuracy    <       0.00000213 Ry

[...]

     iteration # 37     ecut=    36.75 Ry     beta=0.10
     Davidson diagonalization with overlap
     ethr =  9.61E-10,  avg # of iterations =  1.0

[...]

     negative rho (up, down):  3.376E-02 3.375E-02

[...]

     Adding external electric field

     Computed dipole along edir(3) :
        Dipole                0.0425 Ry au,          0.1081 Debye
        Dipole field          0.0001 Ry au

        Potential amp.       -0.0122 Ry
        Total length         44.7568 bohr

     Magnetic moment per site:
     atom:    1    charge:    8.3006    magn:    0.9522    constr:    0.0000
     atom:    2    charge:    8.3008    magn:    0.9521    constr:    0.0000
     atom:    3    charge:    8.3007    magn:    0.9521    constr:    0.0000
     atom:    4    charge:    2.2984    magn:    0.0031    constr:    0.0000
     atom:    5    charge:    8.2966    magn:    0.9536    constr:    0.0000
     atom:    6    charge:    8.2964    magn:    0.9537    constr:    0.0000
     atom:    7    charge:    8.2966    magn:    0.9536    constr:    0.0000
     atom:    8    charge:    2.3009    magn:    0.0032    constr:    0.0000
     atom:    9    charge:    8.2941    magn:    0.9678    constr:    0.0000
     atom:   10    charge:    8.2940    magn:    0.9676    constr:    0.0000
     atom:   11    charge:    8.2941    magn:    0.9677    constr:    0.0000
     atom:   12    charge:    2.2961    magn:    0.0003    constr:    0.0000

     End of self-consistent calculation

 ------ SPIN UP ------------

[...]

 ------ SPIN DOWN ----------

[...]

          k = 0.0634-0.0000 0.0000 ( 14765 PWs)   bands (ev):

[...]

          k =-0.0951-0.1648 0.0000 ( 14754 PWs)   bands (ev):

   -93.1309 -93.1257 -93.1213 -93.0193 -92.9997 -92.9976 -92.9221 -92.9176
   -92.9129 -56.5453 -56.5205 -56.5125 -56.5117 -56.5055 -56.4948 -56.4827
   -56.4590 -56.4569 -56.4170 -56.4063 -56.3969 -56.3436 -56.3394 -56.3382
   -56.3342 -56.3317 -56.3087 -56.2995 -56.2969 -56.2914 -56.2895 -56.2814
   -56.2547 -56.2539 -56.2466 -56.2232  -8.3842  -8.2923  -8.2599  -8.2385
    -8.2204  -8.0367  -7.9396  -7.9105  -7.8853  -7.8101  -7.6808  -7.6215
    -7.6002  -7.5718  -7.5375  -5.7018  -5.3979  -3.7343  -3.6212  -2.6740
    -2.5675  -2.2807  -1.7539  -1.4177  -1.2028  -1.0790  -1.0361  -1.0340
    -0.9890  -0.8036  -0.7296  -0.5712  -0.5568  -0.5311  -0.4545  -0.3939
    -0.3346  -0.2451  -0.1709  -0.1371  -0.0902   0.0019   0.1534   0.1696
     0.3055   0.3240   0.3954   0.4190   0.7289   0.7380   0.7610   0.9103
     0.9226   0.9315   0.9593   1.0677   1.1103   1.1423   1.1824   1.2250
     1.3474   1.4544   1.5890   1.7562   1.8069   2.0122   2.1545   2.7793
     2.8457   3.1930   3.6294   4.0688   4.7521   4.9447   6.0277   6.2710
     6.7975   6.8649   7.0136   7.1423   7.4327   7.6083   8.1323   8.1939
     8.2375   8.3855   8.4085   8.5927

     the Fermi energy is     0.8607 ev

!    total energy              =   -3043.72301530 Ry
     Harris-Foulkes estimate   =   -3043.72301513 Ry
     estimated scf accuracy    <       0.00000044 Ry

     The total energy is the sum of the following terms:

     one-electron contribution =  -23862.12038493 Ry
     hartree contribution      =   11960.29855349 Ry
     xc contribution           =    -426.57586951 Ry
     ewald contribution        =    9284.76743482 Ry
     electric field correction =       0.00000580 Ry
     smearing contrib. (-TS)   =      -0.09275497 Ry

     total magnetization       =    15.07 Bohr mag/cell
     absolute magnetization    =    17.25 Bohr mag/cell

     convergence has been achieved in  37 iterations

 BEEF-vdW xc energy contributions
           1 :   -375.254530853981
           2 :    341.143535619713
           3 :   -283.202839203166
           4 :    217.222212923968
           5 :   -157.802128120879
           6 :    113.134772281632
           7 :   -83.5743447346163
           8 :    64.0262043721045
           9 :   -48.2718061903763
          10 :    32.6221596067874
          11 :   -17.1539433706944
          12 :    4.41044523029223
          13 :    3.08649241337747
          14 :   -4.78572600318080
          15 :    2.43365835853598
          16 :    1.10022696306009
          17 :   -3.51185916879200
          18 :    4.12630122166854
          19 :   -3.80328402153498
          20 :    3.94064897967678
          21 :   -5.36036784293879
          22 :    7.78431911075779
          23 :   -10.1343080267645
          24 :    11.3204953676767
          25 :   -10.9434235932221
          26 :    9.46749956116173
          27 :   -7.84004126859361
          28 :    6.87027492514267
          29 :   -6.79400450175820
          30 :    7.25389640541334
          31 :   -32.2666415712156
          32 :   -22.7316878632064

     Forces acting on atoms (Ry/au):

     negative rho (up, down):  3.376E-02 3.375E-02
     atom    1 type  1   force =    -0.00004211   -0.02311972    0.00961817
     atom    2 type  1   force =    -0.02001940    0.01155860    0.00959263
     atom    3 type  1   force =     0.02001909    0.01160653    0.00964118
     atom    4 type  2   force =     0.00002691   -0.00000485   -0.06632473
     atom    5 type  1   force =    -0.00002130    0.02080129    0.01144742
     atom    6 type  1   force =     0.01800102   -0.01039305    0.01142753
     atom    7 type  1   force =    -0.01802245   -0.01038086    0.01138034
     atom    8 type  2   force =    -0.00000679    0.00001463    0.00177544
     atom    9 type  1   force =     0.00032393   -0.00039786    0.00048687
     atom   10 type  1   force =    -0.00014301    0.00042957    0.00051423
     atom   11 type  1   force =     0.00020424    0.00009066    0.00029824
     atom   12 type  2   force =    -0.00032013   -0.00020492    0.00014268

     Total force =     0.089296     Total SCF correction =     0.002527

     entering subroutine stress ...

     negative rho (up, down):  3.376E-02 3.375E-02
          total   stress  (Ry/bohr**3)                   (kbar)     P=   -5.04
  -0.00005075  -0.00000008  -0.00000006         -7.47     -0.01     -0.01
  -0.00000008  -0.00005065  -0.00000008         -0.01     -7.45     -0.01
  -0.00000006  -0.00000008  -0.00000143         -0.01     -0.01     -0.21

 !ASE

     Writing output data file calc.save

     General routines

     Parallel routines

   This run was terminated on:   8:17:21  30Dec2018

   JOB DONE.
Job  /afs/slac/g/suncat/bin/suncat-tsmpirun -x LD_LIBRARY_PATH -wdir /scratch/qe648398_AmPZv pw.x -in pw.inp

TID   HOST_NAME   COMMAND_LINE            STATUS            TERMINATION_TIME
00000 suncat0159 pw.x -in pw.inp   Done                     12/30/2018 08:17:21
00001 suncat0159 pw.x -in pw.inp   Done                     12/30/2018 08:17:21
00002 suncat0159 pw.x -in pw.inp   Done                     12/30/2018 08:17:21
00003 suncat0159 pw.x -in pw.inp   Done                     12/30/2018 08:17:21
00004 suncat0159 pw.x -in pw.inp   Done                     12/30/2018 08:17:21
00005 suncat0159 pw.x -in pw.inp   Done                     12/30/2018 08:17:21
00006 suncat0159 pw.x -in pw.inp   Done                     12/30/2018 08:17:21
00007 suncat0159 pw.x -in pw.inp   Done                     12/30/2018 08:17:21
00008 suncat0155 pw.x -in pw.inp   Done                     12/30/2018 08:17:21
00009 suncat0155 pw.x -in pw.inp   Done                     12/30/2018 08:17:21
00010 suncat0155 pw.x -in pw.inp   Done                     12/30/2018 08:17:21
00011 suncat0155 pw.x -in pw.inp   Done                     12/30/2018 08:17:21
00012 suncat0155 pw.x -in pw.inp   Done                     12/30/2018 08:17:21
00013 suncat0155 pw.x -in pw.inp   Done                     12/30/2018 08:17:21
00014 suncat0155 pw.x -in pw.inp   Done                     12/30/2018 08:17:21
00015 suncat0155 pw.x -in pw.inp   Done                     12/30/2018 08:17:21
00016 suncat0143 pw.x -in pw.inp   Done                     12/30/2018 08:17:21
00017 suncat0143 pw.x -in pw.inp   Done                     12/30/2018 08:17:21
00018 suncat0143 pw.x -in pw.inp   Done                     12/30/2018 08:17:21
00019 suncat0143 pw.x -in pw.inp   Done                     12/30/2018 08:17:21
00020 suncat0143 pw.x -in pw.inp   Done                     12/30/2018 08:17:21
00021 suncat0143 pw.x -in pw.inp   Done                     12/30/2018 08:17:21
00022 suncat0143 pw.x -in pw.inp   Done                     12/30/2018 08:17:21
00023 suncat0143 pw.x -in pw.inp   Done                     12/30/2018 08:17:21
00024 suncat0141 pw.x -in pw.inp   Done                     12/30/2018 08:17:21
00025 suncat0141 pw.x -in pw.inp   Done                     12/30/2018 08:17:21
00026 suncat0141 pw.x -in pw.inp   Done                     12/30/2018 08:17:21
00027 suncat0141 pw.x -in pw.inp   Done                     12/30/2018 08:17:21
00028 suncat0141 pw.x -in pw.inp   Done                     12/30/2018 08:17:21
00029 suncat0141 pw.x -in pw.inp   Done                     12/30/2018 08:17:21
00030 suncat0141 pw.x -in pw.inp   Done                     12/30/2018 08:17:21
00031 suncat0141 pw.x -in pw.inp   Done                     12/30/2018 08:17:21
00032 suncat0140 pw.x -in pw.inp   Done                     12/30/2018 08:17:21
00033 suncat0140 pw.x -in pw.inp   Done                     12/30/2018 08:17:21
00034 suncat0140 pw.x -in pw.inp   Done                     12/30/2018 08:17:21
00035 suncat0140 pw.x -in pw.inp   Done                     12/30/2018 08:17:21
00036 suncat0140 pw.x -in pw.inp   Done                     12/30/2018 08:17:21
00037 suncat0140 pw.x -in pw.inp   Done                     12/30/2018 08:17:21
00038 suncat0140 pw.x -in pw.inp   Done                     12/30/2018 08:17:21
00039 suncat0140 pw.x -in pw.inp   Done                     12/30/2018 08:17:21
00040 suncat0135 pw.x -in pw.inp   Done                     12/30/2018 08:17:21
00041 suncat0135 pw.x -in pw.inp   Done                     12/30/2018 08:17:21
00042 suncat0135 pw.x -in pw.inp   Done                     12/30/2018 08:17:21
00043 suncat0135 pw.x -in pw.inp   Done                     12/30/2018 08:17:21
00044 suncat0135 pw.x -in pw.inp   Done                     12/30/2018 08:17:21
00045 suncat0135 pw.x -in pw.inp   Done                     12/30/2018 08:17:21
00046 suncat0135 pw.x -in pw.inp   Done                     12/30/2018 08:17:21
00047 suncat0135 pw.x -in pw.inp   Done                     12/30/2018 08:17:21
00048 suncat0134 pw.x -in pw.inp   Done                     12/30/2018 08:17:21
00049 suncat0134 pw.x -in pw.inp   Done                     12/30/2018 08:17:21
00050 suncat0134 pw.x -in pw.inp   Done                     12/30/2018 08:17:21
00051 suncat0134 pw.x -in pw.inp   Done                     12/30/2018 08:17:21
00052 suncat0134 pw.x -in pw.inp   Done                     12/30/2018 08:17:21
00053 suncat0134 pw.x -in pw.inp   Done                     12/30/2018 08:17:21
00054 suncat0134 pw.x -in pw.inp   Done                     12/30/2018 08:17:21
00055 suncat0134 pw.x -in pw.inp   Done                     12/30/2018 08:17:21
00056 suncat0272 pw.x -in pw.inp   Done                     12/30/2018 08:17:21
00057 suncat0272 pw.x -in pw.inp   Done                     12/30/2018 08:17:21
00058 suncat0272 pw.x -in pw.inp   Done                     12/30/2018 08:17:21
00059 suncat0272 pw.x -in pw.inp   Done                     12/30/2018 08:17:21
00060 suncat0272 pw.x -in pw.inp   Done                     12/30/2018 08:17:21
00061 suncat0272 pw.x -in pw.inp   Done                     12/30/2018 08:17:21
00062 suncat0272 pw.x -in pw.inp   Done                     12/30/2018 08:17:21
00063 suncat0272 pw.x -in pw.inp   Done                     12/30/2018 08:17:21