     Program PWSCF v.5.1rc2 (svn rev. 11289) starts on  1Jan2019 at  0: 0:51

     Current dimensions of program PWSCF are:
     Max number of different atomic species (ntypx) = 10
     Max number of k-points (npk) =  40000
     Max angular momentum in pseudopotentials (lmaxx) =  3
     Presently stress not available with electric field

     IMPORTANT: XC functional enforced from input :
     Exchange-correlation      = BEEF-VDW ( 1  4 27 13 2)
     Any further DFT definition will be discarded
     Please, verify this is what you really want

     Subspace diagonalization in iterative solution of the eigenvalue problem:
     a serial algorithm will be used

     bravais-lattice index     =            0
     lattice parameter (alat)  =       1.8897  a.u.
     unit-cell volume          =    4485.4045 (a.u.)^3
     number of atoms/cell      =           12
     number of atomic types    =            2
     number of electrons       =       180.00
     number of Kohn-Sham states=          120
     kinetic-energy cutoff     =      36.7493  Ry
     charge density cutoff     =     367.4932  Ry
     convergence threshold     =      1.0E-06
     mixing beta               =       0.1000
     number of iterations used =           10  plain     mixing
     Exchange-correlation      = BEEF-VDW ( 1  4 27 13 2)
     nstep                     =           50

     celldm(1)=   1.889726  celldm(2)=   0.000000  celldm(3)=   0.000000
     celldm(4)=   0.000000  celldm(5)=   0.000000  celldm(6)=   0.000000

     crystal axes: (cart. coord. in units of alat)
               a(1) = (   5.589693   0.000000   0.000000 )
               a(2) = (  -2.794846   4.840816   0.000000 )
               a(3) = (   0.000000   0.000000  24.563965 )

     reciprocal axes: (cart. coord. in units 2 pi/alat)
               b(1) = (  0.178901  0.103288  0.000000 )
               b(2) = (  0.000000  0.206577  0.000000 )
               b(3) = (  0.000000  0.000000  0.040710 )

     PseudoPot. # 1 for Ru read from file:
     /afs/slac.stanford.edu/u/if/mamunm/psp/gbrv1.5pbe/Ru.UPF
     MD5 check sum: 7158a806dd851261a58e6920c40ebe78
     Pseudo is Ultrasoft + core correction, Zval = 16.0
     Generated by new atomic code, or converted to UPF format
     Using radial grid of  967 points,  6 beta functions with:
                l(1) =   0
                l(2) =   0
                l(3) =   1
                l(4) =   1
                l(5) =   2
                l(6) =   2
     Q(r) pseudized with  8 coefficients,  rinner =    1.300   1.300   1.300
                                                       1.300   1.300

     PseudoPot. # 2 for Cd read from file:
     /afs/slac.stanford.edu/u/if/mamunm/psp/gbrv1.5pbe/Cd.UPF
     MD5 check sum: 17164a7926edb8e0dc231208abae86a6
     Pseudo is Ultrasoft + core correction, Zval = 12.0
     Generated by new atomic code, or converted to UPF format
     Using radial grid of  889 points,  6 beta functions with:
                l(1) =   0
                l(2) =   0
                l(3) =   1
                l(4) =   1
                l(5) =   2
                l(6) =   2
     Q(r) pseudized with  6 coefficients,  rinner =    1.000   1.000   1.000
                                                       1.000   1.000

     vdW kernel table read from file vdW_kernel_table
     MD5 check sum: 095c7af220d748ca6e76c0b4c6cfb241

     atomic species   valence    mass     pseudopotential
        Ru1           16.00   101.07000     Ru( 1.00)
        Cd1           12.00   112.41400     Cd( 1.00)

     No symmetry found

   Cartesian axes

     site n.     atom                  positions (alat units)
         1           Ru1 tau(   1) = (   0.0000000   0.0000000  10.0000000  )
         2           Ru1 tau(   2) = (  -1.3974232   2.4204081  10.0000000  )
         3           Ru1 tau(   3) = (   1.3974232   2.4204081  10.0000000  )
         4           Cd1 tau(   4) = (   2.7948465   0.0000000  10.0000000  )
         5           Ru1 tau(   5) = (   2.7948465   1.6136054  12.2819826  )
         6           Ru1 tau(   6) = (   1.3974232   4.0340134  12.2819826  )
         7           Ru1 tau(   7) = (  -1.3974232   4.0340134  12.2819826  )
         8           Cd1 tau(   8) = (   0.0000000   1.6136054  12.2819826  )
         9           Ru1 tau(   9) = (  -0.0000000   3.2272107  14.5639652  )
        10           Ru1 tau(  10) = (   1.3974232   0.8068027  14.5639652  )
        11           Ru1 tau(  11) = (   4.1922697   0.8068027  14.5639652  )
        12           Cd1 tau(  12) = (   2.7948465   3.2272107  14.5639652  )

     number of k points=    20  Fermi-Dirac smearing, width (Ry)=  0.0110
                       cart. coord. in units 2pi/alat
        k(    1) = (   0.0000000   0.0000000   0.0000000), wk =   0.0555556
        k(    2) = (   0.0000000   0.0344295   0.0000000), wk =   0.1111111
        k(    3) = (   0.0000000   0.0688589   0.0000000), wk =   0.1111111
        k(    4) = (   0.0000000  -0.1032884   0.0000000), wk =   0.0555556
        k(    5) = (   0.0298168   0.0172147   0.0000000), wk =   0.1111111
        k(    6) = (   0.0298168   0.0516442   0.0000000), wk =   0.1111111
        k(    7) = (   0.0298168   0.0860736   0.0000000), wk =   0.1111111
        k(    8) = (   0.0298168  -0.0860736   0.0000000), wk =   0.1111111
        k(    9) = (   0.0298168  -0.0516442   0.0000000), wk =   0.1111111
        k(   10) = (   0.0298168  -0.0172147   0.0000000), wk =   0.1111111
        k(   11) = (   0.0596336   0.0344295   0.0000000), wk =   0.1111111
        k(   12) = (   0.0596336   0.0688589   0.0000000), wk =   0.1111111
        k(   13) = (   0.0596336   0.1032884   0.0000000), wk =   0.1111111
        k(   14) = (   0.0596336  -0.0688589   0.0000000), wk =   0.1111111
        k(   15) = (   0.0596336  -0.0344295   0.0000000), wk =   0.1111111
        k(   16) = (   0.0596336   0.0000000   0.0000000), wk =   0.1111111
        k(   17) = (  -0.0894504  -0.0516442   0.0000000), wk =   0.0555556
        k(   18) = (  -0.0894504  -0.0172147   0.0000000), wk =   0.1111111
        k(   19) = (  -0.0894504   0.0172147   0.0000000), wk =   0.1111111
        k(   20) = (  -0.0894504  -0.1549326   0.0000000), wk =   0.0555556

     Largest allocated arrays     est. size (Mb)     dimensions
     Largest temporary arrays     est. size (Mb)     dimensions

     Initial potential from superposition of free atoms
     Check: negative starting charge=   -0.734147

     starting charge  169.49974, renormalised to  180.00000

     negative rho (up, down):  7.796E-01 0.000E+00

     *
     * You are using vdW-DF for exchange-correlation in this calculation.
     * Please cite the following three references that made this development
     * possible:
     *
     *   M. Dion, H. Rydberg, E. Schroder, D. C. Langreth, and
     *   B. I. Lundqvist, Phys. Rev. Lett. 92, 246401 (2004).
     *
     *   T. Thonhauser, V. R. Cooper, S. Li, A. Puzder, P. Hyldgaard, and
     *   D. C. Langreth, Phys. Rev. B 76, 125112 (2007).
     *
     *   G. Roman-Perez and J. M. Soler, Phys. Rev. Lett. 103, 096102 (2009).
     *
     *
     * If you are using vdW-DF2, please also cite:
     *
     *   K. Lee, E. D. Murray, L. Kong, B. I. Lundqvist, and
     *   D. C. Langreth, Phys. Rev. B 82, 081101(R) (2010).
     *
     *
     * If you are calculating the stress with vdW-DF, please also cite:
     *
     *   R. Sabatini, E. Kucukbenli, B. Kolb, T. Thonhauser, and
     *   S. de Gironcoli, J. Phys.: Condens. Matter 24, 424209 (2012).
     *

     Carrying out vdW-DF run using the following parameters:

     Nqs =      20    Nr_points =    1024   r_max =   100.000
     q_mesh =
               0.00001000     0.04494208     0.09755937     0.15916263
               0.23128650     0.31572767     0.41458969     0.53033537
               0.66584808     0.82450364     1.01025438     1.22772762
               1.48234092     1.78043706     2.12944203     2.53805004
               3.01644009     3.57652955     4.23227104     5.00000000

     Gradients computed in reciprocal space

     Adding external electric field

     Computed dipole along edir(3) :
        Dipole                0.0000 Ry au,          0.0000 Debye
        Dipole field          0.0000 Ry au

        Potential amp.       -0.0000 Ry
        Total length         45.2587 bohr

     Starting wfc are  144 randomized atomic wfcs

     Self-consistent Calculation

     iteration #  1     ecut=    36.75 Ry     beta=0.10
     Davidson diagonalization with overlap
     ethr =  1.00E-02,  avg # of iterations =  7.8

[...]

     total energy              =   -2104.89449065 Ry
     Harris-Foulkes estimate   =   -2107.68207408 Ry
     estimated scf accuracy    <      17.17230494 Ry

[...]

     End of self-consistent calculation

          k = 0.0000 0.0000 0.0000 ( 16787 PWs)   bands (ev):

   -71.0646 -71.0114 -71.0113 -70.8005 -70.7982 -70.7489 -70.7489 -70.7483
   -70.7483 -41.3211 -41.1412 -41.1412 -41.1182 -41.0934 -41.0476 -41.0476
   -41.0237 -40.8712 -40.8500 -40.8500 -40.7972 -40.7972 -40.7752 -40.7752
   -40.7059 -40.6574 -40.6574 -40.6368 -40.6205 -40.6205 -40.5858 -40.5844
   -40.5844 -40.5757 -40.5757 -40.5747  -7.1044  -7.1044  -7.0415  -7.0345
    -7.0345  -6.9105  -6.9105  -6.9061  -6.9061  -6.8869  -6.8075  -6.6637
    -6.6637  -6.6232  -6.6232  -5.5449  -3.8296  -3.8083  -3.1529  -2.4926
    -2.2618  -1.7773  -1.6312  -1.6312  -1.4978  -1.4978  -1.3600  -1.1120
    -1.1120  -1.1028  -1.1027  -0.3960  -0.3960  -0.3545  -0.3545  -0.1320
     0.1090   0.1637   0.4891   0.4891   0.6791   0.9301   0.9301   1.4057
     1.4391   1.4391   1.4990   1.6843   1.6843   1.8409   1.8410   1.8660
     1.8660   2.1261   2.1262   2.1954   2.2627   2.2627   2.7497   2.7753
     2.7753   2.8643   2.8643   3.2340   3.4669   3.5205   3.5281   4.5981
     4.6574   4.9109   4.9109   4.9116   4.9116   5.9023   6.1142   6.7647
     7.3706   7.3717   7.7310   8.4497   8.7939   8.7939   8.7968   8.7968

[...]

          k =-0.0895-0.0516 0.0000 ( 16904 PWs)   bands (ev):

[...]

     the Fermi energy is     1.6777 ev

!    total energy              =   -2103.83207361 Ry
     Harris-Foulkes estimate   =   -2103.83307332 Ry
     estimated scf accuracy    <       0.00000065 Ry

     The total energy is the sum of the following terms:

     one-electron contribution =  -17884.98624046 Ry
     hartree contribution      =    8966.10186201 Ry
     xc contribution           =    -363.90953737 Ry
     ewald contribution        =    7179.07297249 Ry
     electric field correction =       0.00000002 Ry
     smearing contrib. (-TS)   =      -0.11113030 Ry

     convergence has been achieved in  19 iterations

 BEEF-vdW xc energy contributions
           1 :   -316.691482639533
           2 :    290.351956409532
           3 :   -245.084392713229
           4 :    192.635973137840
           5 :   -144.666828730817
           6 :    108.956835157564
           7 :   -87.6119635572879
           8 :    77.6828959012236
           9 :   -73.5648098426328
          10 :    69.8986256608118
          11 :   -63.6778203696104
          12 :    54.8258701812832
          13 :   -45.3224714052452
[...]
     /afs/slac.stanford.edu/u/if/mamunm/psp/gbrv1.5pbe/Ru.UPF
     MD5 check sum: 7158a806dd851261a58e6920c40ebe78
     Pseudo is Ultrasoft + core correction, Zval = 16.0
     Generated by new atomic code, or converted to UPF format
     Using radial grid of  967 points,  6 beta functions with:
                l(1) =   0
                l(2) =   0
                l(3) =   1
                l(4) =   1
                l(5) =   2
                l(6) =   2
     Q(r) pseudized with  8 coefficients,  rinner =    1.300   1.300   1.300
                                                       1.300   1.300

     PseudoPot. # 2 for Cd read from file:
     /afs/slac.stanford.edu/u/if/mamunm/psp/gbrv1.5pbe/Cd.UPF
     MD5 check sum: 17164a7926edb8e0dc231208abae86a6
     Pseudo is Ultrasoft + core correction, Zval = 12.0
     Generated by new atomic code, or converted to UPF format
     Using radial grid of  889 points,  6 beta functions with:
                l(1) =   0
                l(2) =   0
                l(3) =   1
                l(4) =   1
                l(5) =   2
                l(6) =   2
     Q(r) pseudized with  6 coefficients,  rinner =    1.000   1.000   1.000
                                                       1.000   1.000

     vdW kernel table read from file vdW_kernel_table
     MD5 check sum: 095c7af220d748ca6e76c0b4c6cfb241

     atomic species   valence    mass     pseudopotential
        Ru1           16.00   101.07000     Ru( 1.00)
        Cd1           12.00   112.41400     Cd( 1.00)

     No symmetry found

   Cartesian axes

     site n.     atom                  positions (alat units)
         1           Ru1 tau(   1) = (   0.0000000   0.0000000  10.0000000  )
         2           Ru1 tau(   2) = (  -1.3974232   2.4204081  10.0000000  )
         3           Ru1 tau(   3) = (   1.3974232   2.4204081  10.0000000  )
         4           Cd1 tau(   4) = (   2.7948465   0.0000000  10.0000000  )
         5           Ru1 tau(   5) = (   2.7948465   1.6136054  12.2819826  )
         6           Ru1 tau(   6) = (   1.3974232   4.0340134  12.2819826  )
         7           Ru1 tau(   7) = (  -1.3974232   4.0340134  12.2819826  )
         8           Cd1 tau(   8) = (   0.0000000   1.6136054  12.2819826  )
         9           Ru1 tau(   9) = (  -0.0000582   3.3437559  14.4340049  )
        10           Ru1 tau(  10) = (   1.4982776   0.7485509  14.4340382  )
        11           Ru1 tau(  11) = (   4.0914070   0.7486134  14.4340339  )
        12           Cd1 tau(  12) = (   2.7947890   3.2272118  14.9044439  )

     number of k points=    20  Fermi-Dirac smearing, width (Ry)=  0.0110
                       cart. coord. in units 2pi/alat
        k(    1) = (   0.0000000   0.0000000   0.0000000), wk =   0.0555556
        k(    2) = (   0.0000000   0.0344295   0.0000000), wk =   0.1111111
        k(    3) = (   0.0000000   0.0688589   0.0000000), wk =   0.1111111
        k(    4) = (   0.0000000  -0.1032884   0.0000000), wk =   0.0555556
        k(    5) = (   0.0298168   0.0172147   0.0000000), wk =   0.1111111
        k(    6) = (   0.0298168   0.0516442   0.0000000), wk =   0.1111111
        k(    7) = (   0.0298168   0.0860736   0.0000000), wk =   0.1111111
        k(    8) = (   0.0298168  -0.0860736   0.0000000), wk =   0.1111111
        k(    9) = (   0.0298168  -0.0516442   0.0000000), wk =   0.1111111
        k(   10) = (   0.0298168  -0.0172147   0.0000000), wk =   0.1111111
        k(   11) = (   0.0596336   0.0344295   0.0000000), wk =   0.1111111
        k(   12) = (   0.0596336   0.0688589   0.0000000), wk =   0.1111111
        k(   13) = (   0.0596336   0.1032884   0.0000000), wk =   0.1111111
        k(   14) = (   0.0596336  -0.0688589   0.0000000), wk =   0.1111111
        k(   15) = (   0.0596336  -0.0344295   0.0000000), wk =   0.1111111
        k(   16) = (   0.0596336   0.0000000   0.0000000), wk =   0.1111111
        k(   17) = (  -0.0894504  -0.0516442   0.0000000), wk =   0.0555556
        k(   18) = (  -0.0894504  -0.0172147   0.0000000), wk =   0.1111111
        k(   19) = (  -0.0894504   0.0172147   0.0000000), wk =   0.1111111
        k(   20) = (  -0.0894504  -0.1549326   0.0000000), wk =   0.0555556

     Largest allocated arrays     est. size (Mb)     dimensions
     Largest temporary arrays     est. size (Mb)     dimensions

     Initial potential from superposition of free atoms
     Check: negative starting charge=   -0.730724

     starting charge  169.49974, renormalised to  180.00000

[...]

     *
     * You are using vdW-DF for exchange-correlation in this calculation.
     * Please cite the following three references that made this development
     * possible:
     *
     *   M. Dion, H. Rydberg, E. Schroder, D. C. Langreth, and
     *   B. I. Lundqvist, Phys. Rev. Lett. 92, 246401 (2004).
     *
     *   T. Thonhauser, V. R. Cooper, S. Li, A. Puzder, P. Hyldgaard, and
     *   D. C. Langreth, Phys. Rev. B 76, 125112 (2007).
     *
     *   G. Roman-Perez and J. M. Soler, Phys. Rev. Lett. 103, 096102 (2009).
     *
     *
     * If you are using vdW-DF2, please also cite:
     *
     *   K. Lee, E. D. Murray, L. Kong, B. I. Lundqvist, and
     *   D. C. Langreth, Phys. Rev. B 82, 081101(R) (2010).
     *
     *
     * If you are calculating the stress with vdW-DF, please also cite:
     *
     *   R. Sabatini, E. Kucukbenli, B. Kolb, T. Thonhauser, and
     *   S. de Gironcoli, J. Phys.: Condens. Matter 24, 424209 (2012).
     *

     Carrying out vdW-DF run using the following parameters:

     Nqs =      20    Nr_points =    1024   r_max =   100.000
     q_mesh =
               0.00001000     0.04494208     0.09755937     0.15916263
               0.23128650     0.31572767     0.41458969     0.53033537
               0.66584808     0.82450364     1.01025438     1.22772762
               1.48234092     1.78043706     2.12944203     2.53805004
               3.01644009     3.57652955     4.23227104     5.00000000

     Gradients computed in reciprocal space

[...]

     Starting wfc are  144 randomized atomic wfcs

     Self-consistent Calculation

[...]

     total energy              =   -2103.86760317 Ry
     Harris-Foulkes estimate   =   -2103.86760460 Ry
     estimated scf accuracy    <       0.00000185 Ry

     iteration # 20     ecut=    36.75 Ry     beta=0.10
     Davidson diagonalization with overlap
     ethr =  1.03E-09,  avg # of iterations =  2.4

[...]

     negative rho (up, down):  7.537E-01 0.000E+00

     Adding external electric field

     Computed dipole along edir(3) :
        Dipole                0.0570 Ry au,          0.1450 Debye
        Dipole field          0.0002 Ry au

        Potential amp.       -0.0145 Ry
        Total length         45.2587 bohr

     End of self-consistent calculation

[...]

          k = 0.0596 0.0000 0.0000 ( 16860 PWs)   bands (ev):

[...]

          k =-0.0895-0.1549 0.0000 ( 16904 PWs)   bands (ev):

   -71.0380 -71.0184 -70.9994 -70.8754 -70.8237 -70.8145 -70.6802 -70.6635
   -70.6461 -41.3024 -41.2219 -41.1468 -41.1005 -41.0849 -41.0130 -40.9782
   -40.9620 -40.9232 -40.8908 -40.8466 -40.8293 -40.7656 -40.7366 -40.7146
   -40.7055 -40.6867 -40.6834 -40.6778 -40.6295 -40.6218 -40.6091 -40.5897
   -40.5497 -40.5301 -40.5246 -40.4828  -7.0073  -6.9467  -6.8996  -6.8675
    -6.8473  -6.7841  -6.6912  -6.6725  -6.6375  -6.6069  -6.6031  -6.5941
    -6.5601  -6.5489  -6.4977  -3.9224  -3.6129  -2.7143  -2.6433  -2.4170
    -2.3048  -2.1750  -1.6398  -1.5959  -1.5251  -1.3048  -1.2956  -1.2846
    -1.1022  -0.9559  -0.9380  -0.8584  -0.5605  -0.5199  -0.3497  -0.2200
    -0.1829  -0.0046   0.0483   0.1358   0.2529   0.2742   0.3277   0.4123
     0.5618   0.5844   0.6707   0.6829   1.0450   1.1790   1.3016   1.4103
     1.4670   1.4781   1.5926   1.6687   1.7371   1.7759   1.8890   1.9872
     2.2242   2.5250   2.8505   3.3089   3.3153   3.5383   3.7566   4.6836
     5.1024   5.3996   5.4212   6.0267   6.6907   6.8754   7.3401   7.3854
     7.9452   8.0170   8.2921   8.3088   8.7851   9.2025   9.3181   9.3797

     the Fermi energy is     1.7582 ev

!    total energy              =   -2103.86760017 Ry
     Harris-Foulkes estimate   =   -2103.86760348 Ry
     estimated scf accuracy    <       0.00000039 Ry

     The total energy is the sum of the following terms:

     one-electron contribution =  -17970.48363201 Ry
     hartree contribution      =    9008.93823450 Ry
     xc contribution           =    -363.99943487 Ry
     ewald contribution        =    7221.78756931 Ry
     electric field correction =       0.00000912 Ry
     smearing contrib. (-TS)   =      -0.11034621 Ry

     convergence has been achieved in  20 iterations

 BEEF-vdW xc energy contributions
           1 :   -316.858458207399
           2 :    290.548759030609
           3 :   -245.324411072054
           4 :    192.901881946516
           5 :   -144.906114684160
           6 :    109.095601588814
           7 :   -87.5877603559951
           8 :    77.4840150264097
           9 :   -73.2533751909357
          10 :    69.5973492358743
          11 :   -63.5183308909174
          12 :    54.8811065366650
          13 :   -45.5609422335684
          14 :    37.8888542223087
          15 :   -33.2736639414752
          16 :    31.6074952467487
          17 :   -31.5644147563907
          18 :    31.4578198370170
          19 :   -30.1246701876994
          20 :    27.3939874376690
          21 :   -23.9766834699850
          22 :    20.9262792558613
          23 :   -19.0141599742481
          24 :    18.3555905809507
          25 :   -18.4426281096099
          26 :    18.5046041046589
          27 :   -17.9557386905765
          28 :    16.6766754528795
          29 :   -15.0015321798769
          30 :    13.4600538713328
          31 :   -31.3525305039733
          32 :   -23.4853886105424

     Forces acting on atoms (Ry/au):

     negative rho (up, down):  7.537E-01 0.000E+00
     atom    1 type  1   force =     0.00001027   -0.02477471    0.01909952
     atom    2 type  1   force =    -0.02145674    0.01239559    0.01910173
     atom    3 type  1   force =     0.02145179    0.01238085    0.01909513
     atom    4 type  2   force =     0.00002803    0.00000446   -0.05087411
     atom    5 type  1   force =     0.00000703    0.02258258    0.00017557
     atom    6 type  1   force =     0.01955739   -0.01128537    0.00017970
     atom    7 type  1   force =    -0.01956156   -0.01129581    0.00016451
     atom    8 type  2   force =     0.00002106   -0.00000323   -0.01040779
     atom    9 type  1   force =    -0.00001820   -0.00076604    0.00068270
     atom   10 type  1   force =    -0.00067298    0.00037529    0.00067766
     atom   11 type  1   force =     0.00065720    0.00038671    0.00068627
     atom   12 type  2   force =    -0.00002329   -0.00000032    0.00141909

     Total force =     0.084661     Total SCF correction =     0.002575

     entering subroutine stress ...

     negative rho (up, down):  7.537E-01 0.000E+00
          total   stress  (Ry/bohr**3)                   (kbar)     P=  -16.41
  -0.00015931  -0.00000001  -0.00000001        -23.44     -0.00     -0.00
  -0.00000001  -0.00015930  -0.00000001         -0.00    -23.43     -0.00
  -0.00000001  -0.00000001  -0.00001606         -0.00     -0.00     -2.36

 !ASE

     Writing output data file calc.save

     General routines

     Parallel routines

   This run was terminated on:   1:45:54   1Jan2019

   JOB DONE.
Job  /afs/slac/g/suncat/bin/suncat-tsmpirun -x LD_LIBRARY_PATH -wdir /scratch/qe648904_OraQs pw.x -in pw.inp

TID   HOST_NAME   COMMAND_LINE            STATUS            TERMINATION_TIME
00000 suncat0086 pw.x -in pw.inp   Done                     01/01/2019 01:45:54
00001 suncat0086 pw.x -in pw.inp   Done                     01/01/2019 01:45:54
00002 suncat0086 pw.x -in pw.inp   Done                     01/01/2019 01:45:54
00003 suncat0086 pw.x -in pw.inp   Done                     01/01/2019 01:45:54
00004 suncat0086 pw.x -in pw.inp   Done                     01/01/2019 01:45:54
00005 suncat0086 pw.x -in pw.inp   Done                     01/01/2019 01:45:54
00006 suncat0086 pw.x -in pw.inp   Done                     01/01/2019 01:45:54
00007 suncat0086 pw.x -in pw.inp   Done                     01/01/2019 01:45:54
00008 suncat0085 pw.x -in pw.inp   Done                     01/01/2019 01:45:54
00009 suncat0085 pw.x -in pw.inp   Done                     01/01/2019 01:45:54
00010 suncat0085 pw.x -in pw.inp   Done                     01/01/2019 01:45:54
00011 suncat0085 pw.x -in pw.inp   Done                     01/01/2019 01:45:54
00012 suncat0085 pw.x -in pw.inp   Done                     01/01/2019 01:45:54
00013 suncat0085 pw.x -in pw.inp   Done                     01/01/2019 01:45:54
00014 suncat0085 pw.x -in pw.inp   Done                     01/01/2019 01:45:54
00015 suncat0085 pw.x -in pw.inp   Done                     01/01/2019 01:45:54
00016 suncat0084 pw.x -in pw.inp   Done                     01/01/2019 01:45:54
00017 suncat0084 pw.x -in pw.inp   Done                     01/01/2019 01:45:54
00018 suncat0084 pw.x -in pw.inp   Done                     01/01/2019 01:45:54
00019 suncat0084 pw.x -in pw.inp   Done                     01/01/2019 01:45:54
00020 suncat0084 pw.x -in pw.inp   Done                     01/01/2019 01:45:54
00021 suncat0084 pw.x -in pw.inp   Done                     01/01/2019 01:45:54
00022 suncat0084 pw.x -in pw.inp   Done                     01/01/2019 01:45:54
00023 suncat0084 pw.x -in pw.inp   Done                     01/01/2019 01:45:54
00024 suncat0083 pw.x -in pw.inp   Done                     01/01/2019 01:45:54
00025 suncat0083 pw.x -in pw.inp   Done                     01/01/2019 01:45:54
00026 suncat0083 pw.x -in pw.inp   Done                     01/01/2019 01:45:54
00027 suncat0083 pw.x -in pw.inp   Done                     01/01/2019 01:45:54
00028 suncat0083 pw.x -in pw.inp   Done                     01/01/2019 01:45:54
00029 suncat0083 pw.x -in pw.inp   Done                     01/01/2019 01:45:54
00030 suncat0083 pw.x -in pw.inp   Done                     01/01/2019 01:45:54
00031 suncat0083 pw.x -in pw.inp   Done                     01/01/2019 01:45:54
00032 suncat0234 pw.x -in pw.inp   Done                     01/01/2019 01:45:54
00033 suncat0234 pw.x -in pw.inp   Done                     01/01/2019 01:45:54
00034 suncat0234 pw.x -in pw.inp   Done                     01/01/2019 01:45:54
00035 suncat0234 pw.x -in pw.inp   Done                     01/01/2019 01:45:54
00036 suncat0234 pw.x -in pw.inp   Done                     01/01/2019 01:45:54
00037 suncat0234 pw.x -in pw.inp   Done                     01/01/2019 01:45:54
00038 suncat0234 pw.x -in pw.inp   Done                     01/01/2019 01:45:54
00039 suncat0234 pw.x -in pw.inp   Done                     01/01/2019 01:45:54
00040 suncat0233 pw.x -in pw.inp   Done                     01/01/2019 01:45:54
00041 suncat0233 pw.x -in pw.inp   Done                     01/01/2019 01:45:54
00042 suncat0233 pw.x -in pw.inp   Done                     01/01/2019 01:45:54
00043 suncat0233 pw.x -in pw.inp   Done                     01/01/2019 01:45:54
00044 suncat0233 pw.x -in pw.inp   Done                     01/01/2019 01:45:54
00045 suncat0233 pw.x -in pw.inp   Done                     01/01/2019 01:45:54
00046 suncat0233 pw.x -in pw.inp   Done                     01/01/2019 01:45:54
00047 suncat0233 pw.x -in pw.inp   Done                     01/01/2019 01:45:54
00048 suncat0222 pw.x -in pw.inp   Done                     01/01/2019 01:45:54
00049 suncat0222 pw.x -in pw.inp   Done                     01/01/2019 01:45:54
00050 suncat0222 pw.x -in pw.inp   Done                     01/01/2019 01:45:54
00051 suncat0222 pw.x -in pw.inp   Done                     01/01/2019 01:45:54
00052 suncat0222 pw.x -in pw.inp   Done                     01/01/2019 01:45:54
00053 suncat0222 pw.x -in pw.inp   Done                     01/01/2019 01:45:54
00054 suncat0222 pw.x -in pw.inp   Done                     01/01/2019 01:45:54
00055 suncat0222 pw.x -in pw.inp   Done                     01/01/2019 01:45:54
00056 suncat0221 pw.x -in pw.inp   Done                     01/01/2019 01:45:54
00057 suncat0221 pw.x -in pw.inp   Done                     01/01/2019 01:45:54
00058 suncat0221 pw.x -in pw.inp   Done                     01/01/2019 01:45:54
00059 suncat0221 pw.x -in pw.inp   Done                     01/01/2019 01:45:54
00060 suncat0221 pw.x -in pw.inp   Done                     01/01/2019 01:45:54
00061 suncat0221 pw.x -in pw.inp   Done                     01/01/2019 01:45:54
00062 suncat0221 pw.x -in pw.inp   Done                     01/01/2019 01:45:54
00063 suncat0221 pw.x -in pw.inp   Done                     01/01/2019 01:45:54