     Program PWSCF v.5.1rc2 (svn rev. 11289) starts on 25Dec2018 at  3:36:57

     Current dimensions of program PWSCF are:
     Max number of different atomic species (ntypx) = 10
     Max number of k-points (npk) =  40000
     Max angular momentum in pseudopotentials (lmaxx) =  3
     Presently stress not available with electric field

     IMPORTANT: XC functional enforced from input :
     Exchange-correlation      = BEEF-VDW ( 1  4 27 13 2)
     Any further DFT definition will be discarded
     Please, verify this is what you really want

     Subspace diagonalization in iterative solution of the eigenvalue problem:
     a serial algorithm will be used

     Found symmetry operation: I + ( -0.5000  0.5000  0.0000)
     This is a supercell, fractional translations are disabled

     bravais-lattice index     =            0
     lattice parameter (alat)  =       1.8897  a.u.
     unit-cell volume          =    6287.0329 (a.u.)^3
     number of atoms/cell      =           12
     number of atomic types    =            2
     number of electrons       =       132.00
     number of Kohn-Sham states=           96
     kinetic-energy cutoff     =      36.7493  Ry
     charge density cutoff     =     367.4932  Ry
     convergence threshold     =      1.0E-06
     mixing beta               =       0.1000
     number of iterations used =           10  plain     mixing
     Exchange-correlation      = BEEF-VDW ( 1  4 27 13 2)
     nstep                     =           50

     celldm(1)=   1.889726  celldm(2)=   0.000000  celldm(3)=   0.000000
     celldm(4)=   0.000000  celldm(5)=   0.000000  celldm(6)=   0.000000

     crystal axes: (cart. coord. in units of alat)
               a(1) = (   6.272567   0.000000   0.000000 )
               a(2) = (   2.096224   5.911933   0.000000 )
               a(3) = (   0.000000   0.000000  25.123164 )

     reciprocal axes: (cart. coord. in units 2 pi/alat)
               b(1) = (  0.159424 -0.056528  0.000000 )
               b(2) = (  0.000000  0.169149  0.000000 )
               b(3) = (  0.000000  0.000000  0.039804 )

     PseudoPot. # 1 for Y  read from file:
     /afs/slac.stanford.edu/u/if/mamunm/psp/gbrv1.5pbe/Y.UPF
     MD5 check sum: d034151ed7554c50b6e82763ed42c788
     Pseudo is Ultrasoft + core correction, Zval = 11.0
     Generated by new atomic code, or converted to UPF format
     Using radial grid of  885 points,  6 beta functions with:
                l(1) =   0
                l(2) =   0
                l(3) =   1
                l(4) =   1
                l(5) =   2
                l(6) =   2
     Q(r) pseudized with  8 coefficients,  rinner =    1.200   1.200   1.200
                                                       1.200   1.200

     PseudoPot. # 2 for Au read from file:
     /afs/slac.stanford.edu/u/if/mamunm/psp/gbrv1.5pbe/Au.UPF
     MD5 check sum: 9d7f43293ad2c663164586bc4b293ffc
     Pseudo is Ultrasoft + core correction, Zval = 11.0
     Generated by new atomic code, or converted to UPF format
     Using radial grid of  985 points,  7 beta functions with:
                l(1) =   0
                l(2) =   0
                l(3) =   1
                l(4) =   1
                l(5) =   2
                l(6) =   2
                l(7) =   3
     Q(r) pseudized with  6 coefficients,  rinner =    1.900   1.900   1.900
                                                       1.900   1.900   1.900
                                                       1.900

     vdW kernel table read from file vdW_kernel_table
     MD5 check sum: 095c7af220d748ca6e76c0b4c6cfb241

     atomic species   valence    mass     pseudopotential
        Y1            11.00    88.90584     Y ( 1.00)
        Au1           11.00   196.96657     Au( 1.00)

     No symmetry found

   Cartesian axes

     site n.     atom                  positions (alat units)
         1           Y1  tau(   1) = (   0.0000000   0.0000000  10.0000000  )
         2           Y1  tau(   2) = (   4.1843954   2.9559663  10.0000000  )
         3           Au1 tau(   3) = (   3.1362837   0.0000000  10.0000000  )
         4           Au1 tau(   4) = (   1.0481118   2.9559663  10.0000000  )
         5           Y1  tau(   5) = (   6.2725673   4.4311055  12.5615818  )
         6           Y1  tau(   6) = (   2.0881719   1.4751392  12.5615818  )
         7           Au1 tau(   7) = (   3.1362837   4.4311055  12.5615818  )
         8           Au1 tau(   8) = (   5.2244556   1.4751392  12.5615818  )
         9           Y1  tau(   9) = (   4.1763438   2.9502784  15.1231636  )
        10           Y1  tau(  10) = (   8.3607392   5.9062448  15.1231636  )
        11           Au1 tau(  11) = (   7.3126274   2.9502784  15.1231636  )
        12           Au1 tau(  12) = (   5.2244556   5.9062448  15.1231636  )

     number of k points=    20  Fermi-Dirac smearing, width (Ry)=  0.0110
                       cart. coord. in units 2pi/alat
        k(    1) = (   0.0000000   0.0000000   0.0000000), wk =   0.0555556
        k(    2) = (   0.0000000   0.0281916   0.0000000), wk =   0.1111111
        k(    3) = (   0.0000000   0.0563831   0.0000000), wk =   0.1111111
        k(    4) = (   0.0000000  -0.0845747   0.0000000), wk =   0.0555556
        k(    5) = (   0.0265707  -0.0094213   0.0000000), wk =   0.1111111
        k(    6) = (   0.0265707   0.0187703   0.0000000), wk =   0.1111111
        k(    7) = (   0.0265707   0.0469618   0.0000000), wk =   0.1111111
        k(    8) = (   0.0265707  -0.0939960   0.0000000), wk =   0.1111111
        k(    9) = (   0.0265707  -0.0658045   0.0000000), wk =   0.1111111
        k(   10) = (   0.0265707  -0.0376129   0.0000000), wk =   0.1111111
        k(   11) = (   0.0531415  -0.0188426   0.0000000), wk =   0.1111111
        k(   12) = (   0.0531415   0.0093489   0.0000000), wk =   0.1111111
        k(   13) = (   0.0531415   0.0375405   0.0000000), wk =   0.1111111
        k(   14) = (   0.0531415  -0.1034173   0.0000000), wk =   0.1111111
        k(   15) = (   0.0531415  -0.0752258   0.0000000), wk =   0.1111111
        k(   16) = (   0.0531415  -0.0470342   0.0000000), wk =   0.1111111
        k(   17) = (  -0.0797122   0.0282639   0.0000000), wk =   0.0555556
        k(   18) = (  -0.0797122   0.0564555   0.0000000), wk =   0.1111111
        k(   19) = (  -0.0797122   0.0846471   0.0000000), wk =   0.1111111
        k(   20) = (  -0.0797122  -0.0563108   0.0000000), wk =   0.0555556

     Largest allocated arrays     est. size (Mb)     dimensions
     Largest temporary arrays     est. size (Mb)     dimensions

     Check: negative/imaginary core charge=   -0.000002    0.000000

     Initial potential from superposition of free atoms
     Check: negative starting charge=   -0.000411

     starting charge  131.97245, renormalised to  132.00000

     negative rho (up, down):  4.115E-04 0.000E+00

     *
     * You are using vdW-DF for exchange-correlation in this calculation.
     * Please cite the following three references that made this development
     * possible:
     *
     *   M. Dion, H. Rydberg, E. Schroder, D. C. Langreth, and
     *   B. I. Lundqvist, Phys. Rev. Lett. 92, 246401 (2004).
     *
     *   T. Thonhauser, V. R. Cooper, S. Li, A. Puzder, P. Hyldgaard, and
     *   D. C. Langreth, Phys. Rev. B 76, 125112 (2007).
     *
     *   G. Roman-Perez and J. M. Soler, Phys. Rev. Lett. 103, 096102 (2009).
     *
     *
     * If you are using vdW-DF2, please also cite:
     *
     *   K. Lee, E. D. Murray, L. Kong, B. I. Lundqvist, and
     *   D. C. Langreth, Phys. Rev. B 82, 081101(R) (2010).
     *
     *
     * If you are calculating the stress with vdW-DF, please also cite:
     *
     *   R. Sabatini, E. Kucukbenli, B. Kolb, T. Thonhauser, and
     *   S. de Gironcoli, J. Phys.: Condens. Matter 24, 424209 (2012).
     *

     Carrying out vdW-DF run using the following parameters:

     Nqs =      20    Nr_points =    1024   r_max =   100.000
     q_mesh =
               0.00001000     0.04494208     0.09755937     0.15916263
               0.23128650     0.31572767     0.41458969     0.53033537
               0.66584808     0.82450364     1.01025438     1.22772762
               1.48234092     1.78043706     2.12944203     2.53805004
               3.01644009     3.57652955     4.23227104     5.00000000

     Gradients computed in reciprocal space

     Adding external electric field

     Computed dipole along edir(3) :
        Dipole               -0.0000 Ry au,         -0.0000 Debye
        Dipole field         -0.0000 Ry au

        Potential amp.        0.0000 Ry
        Total length         46.2890 bohr

     Starting wfc are  132 randomized atomic wfcs

     Self-consistent Calculation

     iteration #  1     ecut=    36.75 Ry     beta=0.10
     Davidson diagonalization with overlap
     ethr =  1.00E-02,  avg # of iterations =  2.0

[...]

     total energy              =   -1263.04931647 Ry
     Harris-Foulkes estimate   =   -1263.26798183 Ry
     estimated scf accuracy    <       1.34013628 Ry

[...]

     End of self-consistent calculation

          k = 0.0000 0.0000 0.0000 ( 23717 PWs)   bands (ev):

   -42.5784 -42.5776 -42.5598 -42.5597 -42.2911 -42.2730 -22.5877 -22.5761
   -22.5678 -22.5454 -22.5426 -22.5393 -22.4912 -22.4822 -22.4693 -22.4467
   -22.3573 -22.2881 -22.2879 -22.2324 -22.1848 -22.1756 -22.1501 -22.0929
    -5.3508  -4.2646  -4.1375  -3.9910  -3.9630  -3.9441  -3.9424  -3.9391
    -3.8764  -3.8608  -3.6984  -3.6219  -3.4871  -3.4646  -3.4482  -3.4400
    -3.3334  -3.2982  -3.2769  -3.2168  -3.1978  -3.1661  -3.1045  -3.0757
    -3.0064  -2.8151  -2.8061  -2.7811  -2.7798  -2.6064  -2.5457  -2.4437
    -1.7909  -1.5296  -1.4137  -1.2879   0.5084   0.9061   1.0387   1.4392
     1.4848   1.5447   1.7657   1.8958   1.9074   1.9768   2.1872   2.2003
     2.3005   2.4444   2.6232   2.7461   2.8510   2.9564   3.1525   3.3239
     3.3669   3.7213   3.7471   3.8377   4.1380   4.3115   4.3920   4.4391
     4.5446   4.6704   4.6829   4.8020   4.8278   4.8377   5.0056   5.0363

[...]

          k =-0.0797 0.0283 0.0000 ( 23650 PWs)   bands (ev):

[...]

     the Fermi energy is     1.3217 ev

!    total energy              =   -1263.06230609 Ry
     Harris-Foulkes estimate   =   -1263.06230570 Ry
     estimated scf accuracy    <       0.00000054 Ry

     The total energy is the sum of the following terms:

     one-electron contribution =   -6579.15451611 Ry
     hartree contribution      =    3333.33594024 Ry
     xc contribution           =    -553.29123911 Ry
     ewald contribution        =    2536.11176815 Ry
     electric field correction =       0.00000000 Ry
     smearing contrib. (-TS)   =      -0.06425925 Ry

     convergence has been achieved in  15 iterations

 BEEF-vdW xc energy contributions
           1 :   -491.047942102768
           2 :    451.801813131811
           3 :   -382.444453467452
           4 :    297.549712897971
           5 :   -212.066952685889
           6 :    137.297739668016
           7 :   -79.2468218329794
           8 :    39.1019626864890
           9 :   -14.8379040729845
          10 :    2.91659597466332
          11 :   0.481724950646026
[...]

     PseudoPot. # 1 for Y  read from file:
     /afs/slac.stanford.edu/u/if/mamunm/psp/gbrv1.5pbe/Y.UPF
     MD5 check sum: d034151ed7554c50b6e82763ed42c788
     Pseudo is Ultrasoft + core correction, Zval = 11.0
     Generated by new atomic code, or converted to UPF format
     Using radial grid of  885 points,  6 beta functions with:
                l(1) =   0
                l(2) =   0
                l(3) =   1
                l(4) =   1
                l(5) =   2
                l(6) =   2
     Q(r) pseudized with  8 coefficients,  rinner =    1.200   1.200   1.200
                                                       1.200   1.200

     PseudoPot. # 2 for Au read from file:
     /afs/slac.stanford.edu/u/if/mamunm/psp/gbrv1.5pbe/Au.UPF
     MD5 check sum: 9d7f43293ad2c663164586bc4b293ffc
     Pseudo is Ultrasoft + core correction, Zval = 11.0
     Generated by new atomic code, or converted to UPF format
     Using radial grid of  985 points,  7 beta functions with:
                l(1) =   0
                l(2) =   0
                l(3) =   1
                l(4) =   1
                l(5) =   2
                l(6) =   2
                l(7) =   3
     Q(r) pseudized with  6 coefficients,  rinner =    1.900   1.900   1.900
                                                       1.900   1.900   1.900
                                                       1.900

     vdW kernel table read from file vdW_kernel_table
     MD5 check sum: 095c7af220d748ca6e76c0b4c6cfb241

     atomic species   valence    mass     pseudopotential
        Y1            11.00    88.90584     Y ( 1.00)
        Au1           11.00   196.96657     Au( 1.00)

     No symmetry found

   Cartesian axes

     site n.     atom                  positions (alat units)
         1           Y1  tau(   1) = (   0.0000000   0.0000000  10.0000000  )
         2           Y1  tau(   2) = (   4.1843954   2.9559663  10.0000000  )
         3           Au1 tau(   3) = (   3.1362837   0.0000000  10.0000000  )
         4           Au1 tau(   4) = (   1.0481118   2.9559663  10.0000000  )
         5           Y1  tau(   5) = (   6.2725673   4.4311055  12.5615818  )
         6           Y1  tau(   6) = (   2.0881719   1.4751392  12.5615818  )
         7           Au1 tau(   7) = (   3.1362837   4.4311055  12.5615818  )
         8           Au1 tau(   8) = (   5.2244556   1.4751392  12.5615818  )
         9           Y1  tau(   9) = (   4.1780400   2.9515120  15.1220066  )
        10           Y1  tau(  10) = (   8.3624165   5.9074040  15.1220729  )
        11           Au1 tau(  11) = (   7.3138870   2.9509107  14.9432518  )
        12           Au1 tau(  12) = (   5.2255161   5.9072380  14.9432540  )

     number of k points=    20  Fermi-Dirac smearing, width (Ry)=  0.0110
                       cart. coord. in units 2pi/alat
        k(    1) = (   0.0000000   0.0000000   0.0000000), wk =   0.0555556
        k(    2) = (   0.0000000   0.0281916   0.0000000), wk =   0.1111111
        k(    3) = (   0.0000000   0.0563831   0.0000000), wk =   0.1111111
        k(    4) = (   0.0000000  -0.0845747   0.0000000), wk =   0.0555556
        k(    5) = (   0.0265707  -0.0094213   0.0000000), wk =   0.1111111
        k(    6) = (   0.0265707   0.0187703   0.0000000), wk =   0.1111111
        k(    7) = (   0.0265707   0.0469618   0.0000000), wk =   0.1111111
        k(    8) = (   0.0265707  -0.0939960   0.0000000), wk =   0.1111111
        k(    9) = (   0.0265707  -0.0658045   0.0000000), wk =   0.1111111
        k(   10) = (   0.0265707  -0.0376129   0.0000000), wk =   0.1111111
        k(   11) = (   0.0531415  -0.0188426   0.0000000), wk =   0.1111111
        k(   12) = (   0.0531415   0.0093489   0.0000000), wk =   0.1111111
        k(   13) = (   0.0531415   0.0375405   0.0000000), wk =   0.1111111
        k(   14) = (   0.0531415  -0.1034173   0.0000000), wk =   0.1111111
        k(   15) = (   0.0531415  -0.0752258   0.0000000), wk =   0.1111111
        k(   16) = (   0.0531415  -0.0470342   0.0000000), wk =   0.1111111
        k(   17) = (  -0.0797122   0.0282639   0.0000000), wk =   0.0555556
        k(   18) = (  -0.0797122   0.0564555   0.0000000), wk =   0.1111111
        k(   19) = (  -0.0797122   0.0846471   0.0000000), wk =   0.1111111
        k(   20) = (  -0.0797122  -0.0563108   0.0000000), wk =   0.0555556

     Largest allocated arrays     est. size (Mb)     dimensions
     Largest temporary arrays     est. size (Mb)     dimensions

     Check: negative/imaginary core charge=   -0.000002    0.000000

     Initial potential from superposition of free atoms
     Check: negative starting charge=   -0.000414

     starting charge  131.97245, renormalised to  132.00000

[...]

     *
     * You are using vdW-DF for exchange-correlation in this calculation.
     * Please cite the following three references that made this development
     * possible:
     *
     *   M. Dion, H. Rydberg, E. Schroder, D. C. Langreth, and
     *   B. I. Lundqvist, Phys. Rev. Lett. 92, 246401 (2004).
     *
     *   T. Thonhauser, V. R. Cooper, S. Li, A. Puzder, P. Hyldgaard, and
     *   D. C. Langreth, Phys. Rev. B 76, 125112 (2007).
     *
     *   G. Roman-Perez and J. M. Soler, Phys. Rev. Lett. 103, 096102 (2009).
     *
     *
     * If you are using vdW-DF2, please also cite:
     *
     *   K. Lee, E. D. Murray, L. Kong, B. I. Lundqvist, and
     *   D. C. Langreth, Phys. Rev. B 82, 081101(R) (2010).
     *
     *
     * If you are calculating the stress with vdW-DF, please also cite:
     *
     *   R. Sabatini, E. Kucukbenli, B. Kolb, T. Thonhauser, and
     *   S. de Gironcoli, J. Phys.: Condens. Matter 24, 424209 (2012).
     *

     Carrying out vdW-DF run using the following parameters:

     Nqs =      20    Nr_points =    1024   r_max =   100.000
     q_mesh =
               0.00001000     0.04494208     0.09755937     0.15916263
               0.23128650     0.31572767     0.41458969     0.53033537
               0.66584808     0.82450364     1.01025438     1.22772762
               1.48234092     1.78043706     2.12944203     2.53805004
               3.01644009     3.57652955     4.23227104     5.00000000

     Gradients computed in reciprocal space

[...]

     Starting wfc are  132 randomized atomic wfcs

     Self-consistent Calculation

[...]

     total energy              =   -1263.06816188 Ry
     Harris-Foulkes estimate   =   -1263.06816170 Ry
     estimated scf accuracy    <       0.00000197 Ry

     iteration # 15     ecut=    36.75 Ry     beta=0.10
     Davidson diagonalization with overlap
     ethr =  1.49E-09,  avg # of iterations =  2.1

[...]

     negative rho (up, down):  7.605E-05 0.000E+00

     Adding external electric field

     Computed dipole along edir(3) :
        Dipole                0.0526 Ry au,          0.1338 Debye
        Dipole field          0.0001 Ry au

        Potential amp.       -0.0097 Ry
        Total length         46.2890 bohr

     End of self-consistent calculation

[...]

          k = 0.0531-0.0470 0.0000 ( 23670 PWs)   bands (ev):

[...]

          k =-0.0797-0.0563 0.0000 ( 23640 PWs)   bands (ev):

   -42.5393 -42.5218 -42.5155 -42.4980 -42.1427 -42.1238 -22.5563 -22.5208
   -22.5150 -22.5149 -22.4882 -22.4856 -22.4656 -22.4310 -22.4165 -22.3944
   -22.2555 -22.2332 -22.2267 -22.0818 -22.0686 -22.0546 -22.0229 -21.9632
    -4.1212  -4.0140  -3.7650  -3.7336  -3.6568  -3.6263  -3.5998  -3.5791
    -3.5602  -3.4891  -3.4867  -3.4260  -3.3523  -3.3459  -3.2094  -3.1722
    -3.1654  -3.1618  -3.1195  -3.0998  -3.0935  -3.0424  -3.0000  -2.9854
    -2.9807  -2.9659  -2.8725  -2.8708  -2.7152  -2.5429  -2.4651  -2.4013
    -1.7937  -1.6225  -1.4289  -1.3536  -1.0415  -0.0449  -0.0387   0.2021
     0.2118   0.2503   0.6503   0.9021   1.2843   1.5273   1.6523   1.8046
     1.8900   2.3615   2.4862   2.5070   2.7351   2.7598   2.9976   3.0907
     3.1734   3.1980   3.4555   3.5326   3.6667   3.7441   3.8777   4.4610
     4.6503   5.0290   5.0348   5.0973   5.1328   5.3027   5.5306   5.5949

     the Fermi energy is     1.3786 ev

!    total energy              =   -1263.06816284 Ry
     Harris-Foulkes estimate   =   -1263.06816256 Ry
     estimated scf accuracy    <       0.00000049 Ry

     The total energy is the sum of the following terms:

     one-electron contribution =   -6665.25792377 Ry
     hartree contribution      =    3376.61408095 Ry
     xc contribution           =    -553.35280276 Ry
     ewald contribution        =    2578.99070321 Ry
     electric field correction =       0.00000553 Ry
     smearing contrib. (-TS)   =      -0.06222600 Ry

     convergence has been achieved in  15 iterations

 BEEF-vdW xc energy contributions
           1 :   -491.117656318834
           2 :    451.923179869652
           3 :   -382.620435894488
           4 :    297.727185474609
           5 :   -212.172200935060
           6 :    137.284536830032
           7 :   -79.1262892625457
           8 :    38.9370135515800
           9 :   -14.7066871259734
          10 :    2.86897623841026
          11 :   0.445714403185207
          12 :    1.24372942061621
          13 :   -5.00238322948167
          14 :    8.56010933100845
          15 :   -10.4097275197809
          16 :    9.86583365373826
          17 :   -6.97089299912830
          18 :    2.24631007031644
          19 :    3.55150747846903
          20 :   -9.54795955800319
          21 :    14.7711456985290
          22 :   -18.2292268517012
          23 :    19.1326116190107
          24 :   -17.2053665299624
          25 :    12.9076256035667
          26 :   -7.40140800883648
          27 :    2.20515904796480
          28 :    1.33730996033171
          29 :   -2.53191137825900
          30 :    1.52698035034052
          31 :   -41.2048432713519
          32 :   -29.3409933247215

     Forces acting on atoms (Ry/au):

     negative rho (up, down):  7.605E-05 0.000E+00
     atom    1 type  1   force =    -0.00016246   -0.00011850   -0.00171106
     atom    2 type  1   force =    -0.00016740   -0.00011287   -0.00170269
     atom    3 type  2   force =    -0.00003239   -0.00002243    0.01514616
     atom    4 type  2   force =    -0.00003524   -0.00002563    0.01514338
     atom    5 type  1   force =     0.00007857    0.00005136   -0.01251372
     atom    6 type  1   force =     0.00009669    0.00007016   -0.01253978
     atom    7 type  2   force =     0.00003472   -0.00001451   -0.00012213
     atom    8 type  2   force =    -0.00000445    0.00003559   -0.00012079
     atom    9 type  1   force =     0.00004420    0.00003271   -0.00126578
     atom   10 type  1   force =     0.00002914    0.00001961   -0.00127030
     atom   11 type  2   force =     0.00005920    0.00003756    0.00047806
     atom   12 type  2   force =     0.00005942    0.00004695    0.00047866

     Total force =     0.027968     Total SCF correction =     0.001346

     entering subroutine stress ...

     negative rho (up, down):  7.605E-05 0.000E+00
          total   stress  (Ry/bohr**3)                   (kbar)     P=   -7.31
  -0.00007250  -0.00002573   0.00000045        -10.67     -3.78      0.07
  -0.00002573  -0.00005426   0.00000032         -3.78     -7.98      0.05
   0.00000045   0.00000032  -0.00002234          0.07      0.05     -3.29

 !ASE

     Writing output data file calc.save

     General routines

     Parallel routines

   This run was terminated on:   5:24:24  25Dec2018

   JOB DONE.
Job  /afs/slac/g/suncat/bin/suncat-tsmpirun -x LD_LIBRARY_PATH -wdir /scratch/qe109174_3FVOu pw.x -in pw.inp

TID   HOST_NAME   COMMAND_LINE            STATUS            TERMINATION_TIME
00000 suncat0183 pw.x -in pw.inp   Done                     12/25/2018 05:24:24
00001 suncat0183 pw.x -in pw.inp   Done                     12/25/2018 05:24:24
00002 suncat0183 pw.x -in pw.inp   Done                     12/25/2018 05:24:24
00003 suncat0183 pw.x -in pw.inp   Done                     12/25/2018 05:24:24
00004 suncat0183 pw.x -in pw.inp   Done                     12/25/2018 05:24:24
00005 suncat0183 pw.x -in pw.inp   Done                     12/25/2018 05:24:24
00006 suncat0183 pw.x -in pw.inp   Done                     12/25/2018 05:24:24
00007 suncat0183 pw.x -in pw.inp   Done                     12/25/2018 05:24:24
00008 suncat0182 pw.x -in pw.inp   Done                     12/25/2018 05:24:24
00009 suncat0182 pw.x -in pw.inp   Done                     12/25/2018 05:24:24
00010 suncat0182 pw.x -in pw.inp   Done                     12/25/2018 05:24:24
00011 suncat0182 pw.x -in pw.inp   Done                     12/25/2018 05:24:24
00012 suncat0182 pw.x -in pw.inp   Done                     12/25/2018 05:24:24
00013 suncat0182 pw.x -in pw.inp   Done                     12/25/2018 05:24:24
00014 suncat0182 pw.x -in pw.inp   Done                     12/25/2018 05:24:24
00015 suncat0182 pw.x -in pw.inp   Done                     12/25/2018 05:24:24
00016 suncat0181 pw.x -in pw.inp   Done                     12/25/2018 05:24:24
00017 suncat0181 pw.x -in pw.inp   Done                     12/25/2018 05:24:24
00018 suncat0181 pw.x -in pw.inp   Done                     12/25/2018 05:24:24
00019 suncat0181 pw.x -in pw.inp   Done                     12/25/2018 05:24:24
00020 suncat0181 pw.x -in pw.inp   Done                     12/25/2018 05:24:24
00021 suncat0181 pw.x -in pw.inp   Done                     12/25/2018 05:24:24
00022 suncat0181 pw.x -in pw.inp   Done                     12/25/2018 05:24:24
00023 suncat0181 pw.x -in pw.inp   Done                     12/25/2018 05:24:24
00024 suncat0252 pw.x -in pw.inp   Done                     12/25/2018 05:24:24
00025 suncat0252 pw.x -in pw.inp   Done                     12/25/2018 05:24:24
00026 suncat0252 pw.x -in pw.inp   Done                     12/25/2018 05:24:24
00027 suncat0252 pw.x -in pw.inp   Done                     12/25/2018 05:24:24
00028 suncat0252 pw.x -in pw.inp   Done                     12/25/2018 05:24:24
00029 suncat0252 pw.x -in pw.inp   Done                     12/25/2018 05:24:24
00030 suncat0252 pw.x -in pw.inp   Done                     12/25/2018 05:24:24
00031 suncat0252 pw.x -in pw.inp   Done                     12/25/2018 05:24:24
00032 suncat0226 pw.x -in pw.inp   Done                     12/25/2018 05:24:24
00033 suncat0226 pw.x -in pw.inp   Done                     12/25/2018 05:24:24
00034 suncat0226 pw.x -in pw.inp   Done                     12/25/2018 05:24:24
00035 suncat0226 pw.x -in pw.inp   Done                     12/25/2018 05:24:24
00036 suncat0226 pw.x -in pw.inp   Done                     12/25/2018 05:24:24
00037 suncat0226 pw.x -in pw.inp   Done                     12/25/2018 05:24:24
00038 suncat0226 pw.x -in pw.inp   Done                     12/25/2018 05:24:24
00039 suncat0226 pw.x -in pw.inp   Done                     12/25/2018 05:24:24
00040 suncat0225 pw.x -in pw.inp   Done                     12/25/2018 05:24:24
00041 suncat0225 pw.x -in pw.inp   Done                     12/25/2018 05:24:24
00042 suncat0225 pw.x -in pw.inp   Done                     12/25/2018 05:24:24
00043 suncat0225 pw.x -in pw.inp   Done                     12/25/2018 05:24:24
00044 suncat0225 pw.x -in pw.inp   Done                     12/25/2018 05:24:24
00045 suncat0225 pw.x -in pw.inp   Done                     12/25/2018 05:24:24
00046 suncat0225 pw.x -in pw.inp   Done                     12/25/2018 05:24:24
00047 suncat0225 pw.x -in pw.inp   Done                     12/25/2018 05:24:24
00048 suncat0224 pw.x -in pw.inp   Done                     12/25/2018 05:24:24
00049 suncat0224 pw.x -in pw.inp   Done                     12/25/2018 05:24:24
00050 suncat0224 pw.x -in pw.inp   Done                     12/25/2018 05:24:24
00051 suncat0224 pw.x -in pw.inp   Done                     12/25/2018 05:24:24
00052 suncat0224 pw.x -in pw.inp   Done                     12/25/2018 05:24:24
00053 suncat0224 pw.x -in pw.inp   Done                     12/25/2018 05:24:24
00054 suncat0224 pw.x -in pw.inp   Done                     12/25/2018 05:24:24
00055 suncat0224 pw.x -in pw.inp   Done                     12/25/2018 05:24:24
00056 suncat0223 pw.x -in pw.inp   Done                     12/25/2018 05:24:24
00057 suncat0223 pw.x -in pw.inp   Done                     12/25/2018 05:24:24
00058 suncat0223 pw.x -in pw.inp   Done                     12/25/2018 05:24:24
00059 suncat0223 pw.x -in pw.inp   Done                     12/25/2018 05:24:24
00060 suncat0223 pw.x -in pw.inp   Done                     12/25/2018 05:24:24
00061 suncat0223 pw.x -in pw.inp   Done                     12/25/2018 05:24:24
00062 suncat0223 pw.x -in pw.inp   Done                     12/25/2018 05:24:24
00063 suncat0223 pw.x -in pw.inp   Done                     12/25/2018 05:24:24