     Program PWSCF v.5.1rc2 (svn rev. 11289) starts on 26Dec2018 at 10:30:46

     Current dimensions of program PWSCF are:
     Max number of different atomic species (ntypx) = 10
     Max number of k-points (npk) =  40000
     Max angular momentum in pseudopotentials (lmaxx) =  3
     Presently stress not available with electric field

     IMPORTANT: XC functional enforced from input :
     Exchange-correlation      = BEEF-VDW ( 1  4 27 13 2)
     Any further DFT definition will be discarded
     Please, verify this is what you really want

     Subspace diagonalization in iterative solution of the eigenvalue problem:
     a serial algorithm will be used

     bravais-lattice index     =            0
     lattice parameter (alat)  =       1.8897  a.u.
     unit-cell volume          =    5614.2767 (a.u.)^3
     number of atoms/cell      =           12
     number of atomic types    =            2
     number of electrons       =       147.00
     number of Kohn-Sham states=          103
     kinetic-energy cutoff     =      36.7493  Ry
     charge density cutoff     =     367.4932  Ry
     convergence threshold     =      1.0E-06
     mixing beta               =       0.1000
     number of iterations used =           10  plain     mixing
     Exchange-correlation      = BEEF-VDW ( 1  4 27 13 2)
     nstep                     =           50

     celldm(1)=   1.889726  celldm(2)=   0.000000  celldm(3)=   0.000000
     celldm(4)=   0.000000  celldm(5)=   0.000000  celldm(6)=   0.000000

     crystal axes: (cart. coord. in units of alat)
               a(1) = (   6.191983   0.000000   0.000000 )
               a(2) = (  -3.095991   5.362414   0.000000 )
               a(3) = (   0.000000   0.000000  25.055733 )

     reciprocal axes: (cart. coord. in units 2 pi/alat)
               b(1) = (  0.161499  0.093242  0.000000 )
               b(2) = (  0.000000  0.186483  0.000000 )
               b(3) = (  0.000000  0.000000  0.039911 )

     PseudoPot. # 1 for Hg read from file:
     /afs/slac.stanford.edu/u/if/mamunm/psp/gbrv1.5pbe/Hg.UPF
     MD5 check sum: 8f42caffe07f7fd9c0a564347f8c5498
     Pseudo is Ultrasoft + core correction, Zval = 12.0
     Generated by new atomic code, or converted to UPF format
     Using radial grid of  985 points,  6 beta functions with:
                l(1) =   0
                l(2) =   0
                l(3) =   1
                l(4) =   1
                l(5) =   2
                l(6) =   2
     Q(r) pseudized with  8 coefficients,  rinner =    2.000   2.000   2.000
                                                       2.000   2.000

     PseudoPot. # 2 for Ta read from file:
     /afs/slac.stanford.edu/u/if/mamunm/psp/gbrv1.5pbe/Ta.UPF
     MD5 check sum: f8bbe9446314a3b8ea5d9f3e3836c939
     Pseudo is Ultrasoft + core correction, Zval = 13.0
     Generated by new atomic code, or converted to UPF format
     Using radial grid of  921 points,  7 beta functions with:
                l(1) =   0
                l(2) =   0
                l(3) =   1
                l(4) =   1
                l(5) =   2
                l(6) =   2
                l(7) =   3
     Q(r) pseudized with  6 coefficients,  rinner =    1.300   1.300   1.300
                                                       1.300   1.300   1.300
                                                       1.300

     vdW kernel table read from file vdW_kernel_table
     MD5 check sum: 095c7af220d748ca6e76c0b4c6cfb241

     atomic species   valence    mass     pseudopotential
        Hg1           12.00   200.59200     Hg( 1.00)
        Ta1           13.00   180.94788     Ta( 1.00)

     No symmetry found

   Cartesian axes

     site n.     atom                  positions (alat units)
         1           Hg1 tau(   1) = (   0.0000000   0.0000000  10.0000000  )
         2           Hg1 tau(   2) = (  -1.5479957   2.6812072  10.0000000  )
         3           Hg1 tau(   3) = (   1.5479957   2.6812072  10.0000000  )
         4           Ta1 tau(   4) = (   3.0959914   0.0000000  10.0000000  )
         5           Hg1 tau(   5) = (   3.0959914   1.7874714  12.5278664  )
         6           Hg1 tau(   6) = (   1.5479957   4.4686786  12.5278664  )
         7           Hg1 tau(   7) = (  -1.5479957   4.4686786  12.5278664  )
         8           Ta1 tau(   8) = (   0.0000000   1.7874714  12.5278664  )
         9           Hg1 tau(   9) = (  -0.0000000   3.5749429  15.0557327  )
        10           Hg1 tau(  10) = (   1.5479957   0.8937357  15.0557327  )
        11           Hg1 tau(  11) = (   4.6439870   0.8937357  15.0557327  )
        12           Ta1 tau(  12) = (   3.0959914   3.5749429  15.0557327  )

     number of k points=    20  Fermi-Dirac smearing, width (Ry)=  0.0110
                       cart. coord. in units 2pi/alat
        k(    1) = (   0.0000000   0.0000000   0.0000000), wk =   0.0555556
        k(    2) = (   0.0000000   0.0310805   0.0000000), wk =   0.1111111
        k(    3) = (   0.0000000   0.0621611   0.0000000), wk =   0.1111111
        k(    4) = (   0.0000000  -0.0932416   0.0000000), wk =   0.0555556
        k(    5) = (   0.0269165   0.0155403   0.0000000), wk =   0.1111111
        k(    6) = (   0.0269165   0.0466208   0.0000000), wk =   0.1111111
        k(    7) = (   0.0269165   0.0777013   0.0000000), wk =   0.1111111
        k(    8) = (   0.0269165  -0.0777013   0.0000000), wk =   0.1111111
        k(    9) = (   0.0269165  -0.0466208   0.0000000), wk =   0.1111111
        k(   10) = (   0.0269165  -0.0155403   0.0000000), wk =   0.1111111
        k(   11) = (   0.0538331   0.0310805   0.0000000), wk =   0.1111111
        k(   12) = (   0.0538331   0.0621611   0.0000000), wk =   0.1111111
        k(   13) = (   0.0538331   0.0932416   0.0000000), wk =   0.1111111
        k(   14) = (   0.0538331  -0.0621611   0.0000000), wk =   0.1111111
        k(   15) = (   0.0538331  -0.0310805   0.0000000), wk =   0.1111111
        k(   16) = (   0.0538331   0.0000000   0.0000000), wk =   0.1111111
        k(   17) = (  -0.0807496  -0.0466208   0.0000000), wk =   0.0555556
        k(   18) = (  -0.0807496  -0.0155403   0.0000000), wk =   0.1111111
        k(   19) = (  -0.0807496   0.0155403   0.0000000), wk =   0.1111111
        k(   20) = (  -0.0807496  -0.1398624   0.0000000), wk =   0.0555556

     Largest allocated arrays     est. size (Mb)     dimensions
     Largest temporary arrays     est. size (Mb)     dimensions

     Initial potential from superposition of free atoms
     Check: negative starting charge=   -0.285783

     starting charge  146.99614, renormalised to  147.00000

     negative rho (up, down):  2.858E-01 0.000E+00

     *
     * You are using vdW-DF for exchange-correlation in this calculation.
     * Please cite the following three references that made this development
     * possible:
     *
     *   M. Dion, H. Rydberg, E. Schroder, D. C. Langreth, and
     *   B. I. Lundqvist, Phys. Rev. Lett. 92, 246401 (2004).
     *
     *   T. Thonhauser, V. R. Cooper, S. Li, A. Puzder, P. Hyldgaard, and
     *   D. C. Langreth, Phys. Rev. B 76, 125112 (2007).
     *
     *   G. Roman-Perez and J. M. Soler, Phys. Rev. Lett. 103, 096102 (2009).
     *
     *
     * If you are using vdW-DF2, please also cite:
     *
     *   K. Lee, E. D. Murray, L. Kong, B. I. Lundqvist, and
     *   D. C. Langreth, Phys. Rev. B 82, 081101(R) (2010).
     *
     *
     * If you are calculating the stress with vdW-DF, please also cite:
     *
     *   R. Sabatini, E. Kucukbenli, B. Kolb, T. Thonhauser, and
     *   S. de Gironcoli, J. Phys.: Condens. Matter 24, 424209 (2012).
     *

     Carrying out vdW-DF run using the following parameters:

     Nqs =      20    Nr_points =    1024   r_max =   100.000
     q_mesh =
               0.00001000     0.04494208     0.09755937     0.15916263
               0.23128650     0.31572767     0.41458969     0.53033537
               0.66584808     0.82450364     1.01025438     1.22772762
               1.48234092     1.78043706     2.12944203     2.53805004
               3.01644009     3.57652955     4.23227104     5.00000000

     Gradients computed in reciprocal space

     Adding external electric field

     Computed dipole along edir(3) :
        Dipole               -0.0000 Ry au,         -0.0000 Debye
        Dipole field         -0.0000 Ry au

        Potential amp.        0.0000 Ry
        Total length         46.1648 bohr

     Starting wfc are  120 randomized atomic wfcs

     Self-consistent Calculation

     iteration #  1     ecut=    36.75 Ry     beta=0.10
     Davidson diagonalization with overlap
     ethr =  1.00E-02,  avg # of iterations =  8.3

     Threshold (ethr) on eigenvalues was too large:
     Diagonalizing with lowered threshold

     Davidson diagonalization with overlap
     ethr =  2.26E-04,  avg # of iterations =  6.0

[...]

     total energy              =   -1410.95808601 Ry
     Harris-Foulkes estimate   =   -1411.00676655 Ry
     estimated scf accuracy    <       0.35658194 Ry

[...]

     End of self-consistent calculation

          k = 0.0000 0.0000 0.0000 ( 21139 PWs)   bands (ev):

   -68.2261 -68.1052 -68.1051 -34.5843 -34.5063 -34.5056 -34.4769 -34.4769
   -34.3155 -34.3155 -34.3153 -34.3153  -7.9858  -7.3318  -7.2526  -7.1773
    -7.1762  -7.1759  -7.1759  -7.0336  -6.9853  -6.9853  -6.8750  -6.8749
    -6.7565  -6.7389  -6.7389  -6.4367  -6.4065  -6.4065  -6.2406  -6.1642
    -6.1642  -6.0860  -6.0577  -6.0088  -6.0088  -5.8989  -5.8989  -5.7580
    -5.7580  -5.6983  -5.6982  -5.5671  -5.5371  -5.5370  -5.4636  -5.4522
    -5.4522  -5.4363  -5.4363  -5.2135  -5.2135  -5.1457  -5.0300  -4.9960
    -4.9960  -4.8061  -4.7892  -3.1352  -1.6730  -1.6729  -1.3412  -1.3412
    -0.9116  -0.4972  -0.4972  -0.3786   0.3617   0.3644   0.3644   0.7318
     1.4367   1.4375   1.4375   1.5548   1.5548   1.8792   1.8792   2.3404
     2.3404   2.6765   2.7243   2.8126   2.8126   3.9427   3.9427   3.9460
     3.9559   3.9559   4.3455   4.4981   4.5753   4.5753   4.8868   4.9107
     5.5208   6.4373   6.6542   7.2854   7.2854   7.6181   7.7192

[...]

          k =-0.0807-0.0466 0.0000 ( 21136 PWs)   bands (ev):

[...]

     the Fermi energy is     1.1514 ev

!    total energy              =   -1410.94073648 Ry
     Harris-Foulkes estimate   =   -1410.94073594 Ry
     estimated scf accuracy    <       0.00000021 Ry

     The total energy is the sum of the following terms:

     one-electron contribution =   -9178.15915993 Ry
     hartree contribution      =    4652.61864591 Ry
     xc contribution           =    -494.41707740 Ry
     ewald contribution        =    3609.09074107 Ry
     electric field correction =       0.00000000 Ry
     smearing contrib. (-TS)   =      -0.07388614 Ry

     convergence has been achieved in  16 iterations

 BEEF-vdW xc energy contributions
           1 :   -433.859325449062
           2 :    399.922233621731
           3 :   -340.624031611276
           4 :    269.683014075571
           5 :   -201.052266122190
           6 :    144.715751077550
           7 :   -104.629643523046
           8 :    79.1717306545768
           9 :   -63.4387441833040
[...]
     Generated by new atomic code, or converted to UPF format
     Using radial grid of  985 points,  6 beta functions with:
                l(1) =   0
                l(2) =   0
                l(3) =   1
                l(4) =   1
                l(5) =   2
                l(6) =   2
     Q(r) pseudized with  8 coefficients,  rinner =    2.000   2.000   2.000
                                                       2.000   2.000

     PseudoPot. # 2 for Ta read from file:
     /afs/slac.stanford.edu/u/if/mamunm/psp/gbrv1.5pbe/Ta.UPF
     MD5 check sum: f8bbe9446314a3b8ea5d9f3e3836c939
     Pseudo is Ultrasoft + core correction, Zval = 13.0
     Generated by new atomic code, or converted to UPF format
     Using radial grid of  921 points,  7 beta functions with:
                l(1) =   0
                l(2) =   0
                l(3) =   1
                l(4) =   1
                l(5) =   2
                l(6) =   2
                l(7) =   3
     Q(r) pseudized with  6 coefficients,  rinner =    1.300   1.300   1.300
                                                       1.300   1.300   1.300
                                                       1.300

     vdW kernel table read from file vdW_kernel_table
     MD5 check sum: 095c7af220d748ca6e76c0b4c6cfb241

     atomic species   valence    mass     pseudopotential
        Hg1           12.00   200.59200     Hg( 1.00)
        Ta1           13.00   180.94788     Ta( 1.00)

     No symmetry found

   Cartesian axes

     site n.     atom                  positions (alat units)
         1           Hg1 tau(   1) = (   0.0000000   0.0000000  10.0000000  )
         2           Hg1 tau(   2) = (  -1.5479957   2.6812072  10.0000000  )
         3           Hg1 tau(   3) = (   1.5479957   2.6812072  10.0000000  )
         4           Ta1 tau(   4) = (   3.0959914   0.0000000  10.0000000  )
         5           Hg1 tau(   5) = (   3.0959914   1.7874714  12.5278664  )
         6           Hg1 tau(   6) = (   1.5479957   4.4686786  12.5278664  )
         7           Hg1 tau(   7) = (  -1.5479957   4.4686786  12.5278664  )
         8           Ta1 tau(   8) = (   0.0000000   1.7874714  12.5278664  )
         9           Hg1 tau(   9) = (   0.0000152   3.5766973  15.3617165  )
        10           Hg1 tau(  10) = (   1.5495601   0.8928300  15.3617385  )
        11           Hg1 tau(  11) = (   4.6424676   0.8928463  15.3617220  )
        12           Ta1 tau(  12) = (   3.0960174   3.5749265  14.7849460  )

     number of k points=    20  Fermi-Dirac smearing, width (Ry)=  0.0110
                       cart. coord. in units 2pi/alat
        k(    1) = (   0.0000000   0.0000000   0.0000000), wk =   0.0555556
        k(    2) = (   0.0000000   0.0310805   0.0000000), wk =   0.1111111
        k(    3) = (   0.0000000   0.0621611   0.0000000), wk =   0.1111111
        k(    4) = (   0.0000000  -0.0932416   0.0000000), wk =   0.0555556
        k(    5) = (   0.0269165   0.0155403   0.0000000), wk =   0.1111111
        k(    6) = (   0.0269165   0.0466208   0.0000000), wk =   0.1111111
        k(    7) = (   0.0269165   0.0777013   0.0000000), wk =   0.1111111
        k(    8) = (   0.0269165  -0.0777013   0.0000000), wk =   0.1111111
        k(    9) = (   0.0269165  -0.0466208   0.0000000), wk =   0.1111111
        k(   10) = (   0.0269165  -0.0155403   0.0000000), wk =   0.1111111
        k(   11) = (   0.0538331   0.0310805   0.0000000), wk =   0.1111111
        k(   12) = (   0.0538331   0.0621611   0.0000000), wk =   0.1111111
        k(   13) = (   0.0538331   0.0932416   0.0000000), wk =   0.1111111
        k(   14) = (   0.0538331  -0.0621611   0.0000000), wk =   0.1111111
        k(   15) = (   0.0538331  -0.0310805   0.0000000), wk =   0.1111111
        k(   16) = (   0.0538331   0.0000000   0.0000000), wk =   0.1111111
        k(   17) = (  -0.0807496  -0.0466208   0.0000000), wk =   0.0555556
        k(   18) = (  -0.0807496  -0.0155403   0.0000000), wk =   0.1111111
        k(   19) = (  -0.0807496   0.0155403   0.0000000), wk =   0.1111111
        k(   20) = (  -0.0807496  -0.1398624   0.0000000), wk =   0.0555556

     Largest allocated arrays     est. size (Mb)     dimensions
     Largest temporary arrays     est. size (Mb)     dimensions

     Initial potential from superposition of free atoms
     Check: negative starting charge=   -0.285676

     starting charge  146.99614, renormalised to  147.00000

[...]

     *
     * You are using vdW-DF for exchange-correlation in this calculation.
     * Please cite the following three references that made this development
     * possible:
     *
     *   M. Dion, H. Rydberg, E. Schroder, D. C. Langreth, and
     *   B. I. Lundqvist, Phys. Rev. Lett. 92, 246401 (2004).
     *
     *   T. Thonhauser, V. R. Cooper, S. Li, A. Puzder, P. Hyldgaard, and
     *   D. C. Langreth, Phys. Rev. B 76, 125112 (2007).
     *
     *   G. Roman-Perez and J. M. Soler, Phys. Rev. Lett. 103, 096102 (2009).
     *
     *
     * If you are using vdW-DF2, please also cite:
     *
     *   K. Lee, E. D. Murray, L. Kong, B. I. Lundqvist, and
     *   D. C. Langreth, Phys. Rev. B 82, 081101(R) (2010).
     *
     *
     * If you are calculating the stress with vdW-DF, please also cite:
     *
     *   R. Sabatini, E. Kucukbenli, B. Kolb, T. Thonhauser, and
     *   S. de Gironcoli, J. Phys.: Condens. Matter 24, 424209 (2012).
     *

     Carrying out vdW-DF run using the following parameters:

     Nqs =      20    Nr_points =    1024   r_max =   100.000
     q_mesh =
               0.00001000     0.04494208     0.09755937     0.15916263
               0.23128650     0.31572767     0.41458969     0.53033537
               0.66584808     0.82450364     1.01025438     1.22772762
               1.48234092     1.78043706     2.12944203     2.53805004
               3.01644009     3.57652955     4.23227104     5.00000000

     Gradients computed in reciprocal space

[...]

     Starting wfc are  120 randomized atomic wfcs

     Self-consistent Calculation

[...]

     Threshold (ethr) on eigenvalues was too large:
     Diagonalizing with lowered threshold

     Davidson diagonalization with overlap
     ethr =  3.08E-04,  avg # of iterations =  6.1

[...]

     total energy              =   -1410.98810456 Ry
     Harris-Foulkes estimate   =   -1410.98810365 Ry
     estimated scf accuracy    <       0.00000209 Ry

     iteration # 15     ecut=    36.75 Ry     beta=0.10
     Davidson diagonalization with overlap
     ethr =  1.42E-09,  avg # of iterations =  2.0

[...]

     negative rho (up, down):  2.958E-01 0.000E+00

     Adding external electric field

     Computed dipole along edir(3) :
        Dipole               -0.0619 Ry au,         -0.1574 Debye
        Dipole field         -0.0001 Ry au

        Potential amp.        0.0128 Ry
        Total length         46.1648 bohr

     End of self-consistent calculation

[...]

          k = 0.0538 0.0000 0.0000 ( 21095 PWs)   bands (ev):

[...]

          k =-0.0807-0.1399 0.0000 ( 21136 PWs)   bands (ev):

   -68.3260 -68.0724 -68.0710 -34.6683 -34.5627 -34.5619 -34.4548 -34.4456
   -34.3010 -34.3003 -34.2991 -34.2986  -7.1399  -6.9303  -6.8692  -6.7520
    -6.7191  -6.6819  -6.6498  -6.5797  -6.5736  -6.5528  -6.5400  -6.4584
    -6.4528  -6.2987  -6.2857  -6.2408  -6.1893  -6.1678  -6.1309  -6.0593
    -6.0156  -6.0131  -5.9041  -5.9005  -5.8998  -5.8507  -5.8431  -5.8303
    -5.8034  -5.7761  -5.7735  -5.7140  -5.7137  -5.6840  -5.6649  -5.6405
    -5.6295  -5.5551  -5.5284  -5.5018  -5.4511  -5.3456  -5.3157  -5.2991
    -5.2395  -5.0807  -4.9601  -4.3274  -3.9548  -3.1326  -2.2367  -2.1799
    -1.5520  -1.2121  -0.7630  -0.1026   0.1674   0.5062   0.6808   0.8257
     0.8584   1.0485   1.2206   1.2752   1.6827   1.8012   2.1778   2.2645
     2.9003   3.1088   3.1920   3.4009   3.5872   3.8157   4.4634   5.0141
     5.0358   5.2019   5.3330   5.4502   5.7618   6.0137   6.0299   6.1229
     6.4012   6.5213   6.6781   6.7799   7.2831   7.3022   7.3459

     the Fermi energy is     1.1017 ev

!    total energy              =   -1410.98810573 Ry
     Harris-Foulkes estimate   =   -1410.98810452 Ry
     estimated scf accuracy    <       0.00000085 Ry

     The total energy is the sum of the following terms:

     one-electron contribution =   -8965.37755069 Ry
     hartree contribution      =    4546.39988674 Ry
     xc contribution           =    -494.33690766 Ry
     ewald contribution        =    3502.40063092 Ry
     electric field correction =       0.00000859 Ry
     smearing contrib. (-TS)   =      -0.07417363 Ry

     convergence has been achieved in  15 iterations

 BEEF-vdW xc energy contributions
           1 :   -433.980948257033
           2 :    399.937243015766
           3 :   -340.525472037386
           4 :    269.571822708777
           5 :   -201.060460754748
           6 :    144.913428209502
           7 :   -104.977109598902
           8 :    79.5411731983994
           9 :   -63.6893328513127
          10 :    52.1612055501511
          11 :   -41.4561272502698
          12 :    30.5067813885989
          13 :   -20.0495086447706
          14 :    11.3786951399231
          15 :   -5.27684172232762
          16 :    1.59476403840364
          17 :   0.507221544081460
          18 :   -1.98941340443957
          19 :    3.43891486333314
          20 :   -4.90768820939411
          21 :    6.09267902308750
          22 :   -6.67845314537931
          23 :    6.60747561045207
          24 :   -6.13449721813816
          25 :    5.67331665588381
          26 :   -5.56139159750785
          27 :    5.88698685541675
          28 :   -6.46409833804455
          29 :    6.94910100495110
          30 :   -7.02576278642749
          31 :   -39.9026737969991
          32 :   -29.4762104384910

     Forces acting on atoms (Ry/au):

     negative rho (up, down):  2.958E-01 0.000E+00
     atom    1 type  1   force =    -0.00000054    0.00173966   -0.02389054
     atom    2 type  1   force =     0.00150709   -0.00087073   -0.02389016
     atom    3 type  1   force =    -0.00150734   -0.00086862   -0.02389213
     atom    4 type  2   force =    -0.00000028   -0.00000020    0.04705774
     atom    5 type  1   force =     0.00000065   -0.01810795    0.00549590
     atom    6 type  1   force =    -0.01568020    0.00905350    0.00549725
     atom    7 type  1   force =     0.01568172    0.00905364    0.00549541
     atom    8 type  2   force =     0.00000003    0.00000056    0.00754245
     atom    9 type  1   force =     0.00000220   -0.00053251    0.00022592
     atom   10 type  1   force =    -0.00046368    0.00026725    0.00022695
     atom   11 type  1   force =     0.00046289    0.00026393    0.00022623
     atom   12 type  2   force =    -0.00000256    0.00000147   -0.00009502

     Total force =     0.071190     Total SCF correction =     0.003031

     entering subroutine stress ...

     negative rho (up, down):  2.958E-01 0.000E+00
          total   stress  (Ry/bohr**3)                   (kbar)     P=   -7.14
  -0.00007806   0.00000000  -0.00000000        -11.48      0.00     -0.00
   0.00000000  -0.00007806   0.00000000          0.00    -11.48      0.00
  -0.00000000   0.00000000   0.00001053         -0.00      0.00      1.55

 !ASE

     Writing output data file calc.save

     General routines

     Parallel routines

   This run was terminated on:  12:33:52  26Dec2018

   JOB DONE.
Job  /afs/slac/g/suncat/bin/suncat-tsmpirun -x LD_LIBRARY_PATH -wdir /scratch/qe109835_A94W8 pw.x -in pw.inp

TID   HOST_NAME   COMMAND_LINE            STATUS            TERMINATION_TIME
00000 suncat0075 pw.x -in pw.inp   Done                     12/26/2018 12:33:52
00001 suncat0075 pw.x -in pw.inp   Done                     12/26/2018 12:33:52
00002 suncat0075 pw.x -in pw.inp   Done                     12/26/2018 12:33:52
00003 suncat0075 pw.x -in pw.inp   Done                     12/26/2018 12:33:52
00004 suncat0075 pw.x -in pw.inp   Done                     12/26/2018 12:33:52
00005 suncat0075 pw.x -in pw.inp   Done                     12/26/2018 12:33:52
00006 suncat0075 pw.x -in pw.inp   Done                     12/26/2018 12:33:52
00007 suncat0075 pw.x -in pw.inp   Done                     12/26/2018 12:33:52
00008 suncat0074 pw.x -in pw.inp   Done                     12/26/2018 12:33:52
00009 suncat0074 pw.x -in pw.inp   Done                     12/26/2018 12:33:52
00010 suncat0074 pw.x -in pw.inp   Done                     12/26/2018 12:33:52
00011 suncat0074 pw.x -in pw.inp   Done                     12/26/2018 12:33:52
00012 suncat0074 pw.x -in pw.inp   Done                     12/26/2018 12:33:52
00013 suncat0074 pw.x -in pw.inp   Done                     12/26/2018 12:33:52
00014 suncat0074 pw.x -in pw.inp   Done                     12/26/2018 12:33:52
00015 suncat0074 pw.x -in pw.inp   Done                     12/26/2018 12:33:52
00016 suncat0172 pw.x -in pw.inp   Done                     12/26/2018 12:33:52
00017 suncat0172 pw.x -in pw.inp   Done                     12/26/2018 12:33:52
00018 suncat0172 pw.x -in pw.inp   Done                     12/26/2018 12:33:52
00019 suncat0172 pw.x -in pw.inp   Done                     12/26/2018 12:33:52
00020 suncat0172 pw.x -in pw.inp   Done                     12/26/2018 12:33:52
00021 suncat0172 pw.x -in pw.inp   Done                     12/26/2018 12:33:52
00022 suncat0172 pw.x -in pw.inp   Done                     12/26/2018 12:33:52
00023 suncat0172 pw.x -in pw.inp   Done                     12/26/2018 12:33:52
00024 suncat0171 pw.x -in pw.inp   Done                     12/26/2018 12:33:52
00025 suncat0171 pw.x -in pw.inp   Done                     12/26/2018 12:33:52
00026 suncat0171 pw.x -in pw.inp   Done                     12/26/2018 12:33:52
00027 suncat0171 pw.x -in pw.inp   Done                     12/26/2018 12:33:52
00028 suncat0171 pw.x -in pw.inp   Done                     12/26/2018 12:33:52
00029 suncat0171 pw.x -in pw.inp   Done                     12/26/2018 12:33:52
00030 suncat0171 pw.x -in pw.inp   Done                     12/26/2018 12:33:52
00031 suncat0171 pw.x -in pw.inp   Done                     12/26/2018 12:33:52
00032 suncat0270 pw.x -in pw.inp   Done                     12/26/2018 12:33:52
00033 suncat0270 pw.x -in pw.inp   Done                     12/26/2018 12:33:52
00034 suncat0270 pw.x -in pw.inp   Done                     12/26/2018 12:33:52
00035 suncat0270 pw.x -in pw.inp   Done                     12/26/2018 12:33:52
00036 suncat0270 pw.x -in pw.inp   Done                     12/26/2018 12:33:52
00037 suncat0270 pw.x -in pw.inp   Done                     12/26/2018 12:33:52
00038 suncat0270 pw.x -in pw.inp   Done                     12/26/2018 12:33:52
00039 suncat0270 pw.x -in pw.inp   Done                     12/26/2018 12:33:52
00040 suncat0268 pw.x -in pw.inp   Done                     12/26/2018 12:33:52
00041 suncat0268 pw.x -in pw.inp   Done                     12/26/2018 12:33:52
00042 suncat0268 pw.x -in pw.inp   Done                     12/26/2018 12:33:52
00043 suncat0268 pw.x -in pw.inp   Done                     12/26/2018 12:33:52
00044 suncat0268 pw.x -in pw.inp   Done                     12/26/2018 12:33:52
00045 suncat0268 pw.x -in pw.inp   Done                     12/26/2018 12:33:52
00046 suncat0268 pw.x -in pw.inp   Done                     12/26/2018 12:33:52
00047 suncat0268 pw.x -in pw.inp   Done                     12/26/2018 12:33:52
00048 suncat0207 pw.x -in pw.inp   Done                     12/26/2018 12:33:52
00049 suncat0207 pw.x -in pw.inp   Done                     12/26/2018 12:33:52
00050 suncat0207 pw.x -in pw.inp   Done                     12/26/2018 12:33:52
00051 suncat0207 pw.x -in pw.inp   Done                     12/26/2018 12:33:52
00052 suncat0207 pw.x -in pw.inp   Done                     12/26/2018 12:33:52
00053 suncat0207 pw.x -in pw.inp   Done                     12/26/2018 12:33:52
00054 suncat0207 pw.x -in pw.inp   Done                     12/26/2018 12:33:52
00055 suncat0207 pw.x -in pw.inp   Done                     12/26/2018 12:33:52
00056 suncat0206 pw.x -in pw.inp   Done                     12/26/2018 12:33:52
00057 suncat0206 pw.x -in pw.inp   Done                     12/26/2018 12:33:52
00058 suncat0206 pw.x -in pw.inp   Done                     12/26/2018 12:33:52
00059 suncat0206 pw.x -in pw.inp   Done                     12/26/2018 12:33:52
00060 suncat0206 pw.x -in pw.inp   Done                     12/26/2018 12:33:52
00061 suncat0206 pw.x -in pw.inp   Done                     12/26/2018 12:33:52
00062 suncat0206 pw.x -in pw.inp   Done                     12/26/2018 12:33:52
00063 suncat0206 pw.x -in pw.inp   Done                     12/26/2018 12:33:52