     Program PWSCF v.5.1rc2 (svn rev. 11289) starts on 31Dec2018 at  6:18:56

     Current dimensions of program PWSCF are:
     Max number of different atomic species (ntypx) = 10
     Max number of k-points (npk) =  40000
     Max angular momentum in pseudopotentials (lmaxx) =  3
     Presently stress not available with electric field

     IMPORTANT: XC functional enforced from input :
     Exchange-correlation      = BEEF-VDW ( 1  4 27 13 2)
     Any further DFT definition will be discarded
     Please, verify this is what you really want

     Subspace diagonalization in iterative solution of the eigenvalue problem:
     a serial algorithm will be used

     Generating pointlists ...
     new r_m :   0.4125 (alat units)  0.7795 (a.u.) for type    1
     new r_m :   0.4125 (alat units)  0.7795 (a.u.) for type    2

     bravais-lattice index     =            0
     lattice parameter (alat)  =       1.8897  a.u.
     unit-cell volume          =    4096.0771 (a.u.)^3
     number of atoms/cell      =           12
     number of atomic types    =            2
     number of electrons       =       192.00
     number of Kohn-Sham states=          126
     kinetic-energy cutoff     =      36.7493  Ry
     charge density cutoff     =     367.4932  Ry
     convergence threshold     =      1.0E-06
     mixing beta               =       0.1000
     number of iterations used =           10  plain     mixing
     Exchange-correlation      = BEEF-VDW ( 1  4 27 13 2)
     nstep                     =           50

     celldm(1)=   1.889726  celldm(2)=   0.000000  celldm(3)=   0.000000
     celldm(4)=   0.000000  celldm(5)=   0.000000  celldm(6)=   0.000000

     crystal axes: (cart. coord. in units of alat)
               a(1) = (   5.361933   0.000000   0.000000 )
               a(2) = (  -2.680967   4.643570   0.000000 )
               a(3) = (   0.000000   0.000000  24.378000 )

     reciprocal axes: (cart. coord. in units 2 pi/alat)
               b(1) = (  0.186500  0.107676  0.000000 )
               b(2) = (  0.000000  0.215352  0.000000 )
               b(3) = (  0.000000  0.000000  0.041021 )

     PseudoPot. # 1 for Os read from file:
     /afs/slac.stanford.edu/u/if/mamunm/psp/gbrv1.5pbe/Os.UPF
     MD5 check sum: a3fb40a04f0c37c25c34bbc47164c9a8
     Pseudo is Ultrasoft + core correction, Zval = 16.0
     Generated by new atomic code, or converted to UPF format
     Using radial grid of  983 points,  8 beta functions with:
                l(1) =   0
                l(2) =   0
                l(3) =   1
                l(4) =   1
                l(5) =   2
                l(6) =   2
                l(7) =   3
                l(8) =   3
     Q(r) pseudized with  8 coefficients,  rinner =    1.150   1.150   1.150
                                                       1.150   1.150   1.150
                                                       1.150

     PseudoPot. # 2 for Fe read from file:
     /afs/slac.stanford.edu/u/if/mamunm/psp/gbrv1.5pbe/Fe.UPF
     MD5 check sum: a130daea23fe5165f5d574ae7f82ed95
     Pseudo is Ultrasoft + core correction, Zval = 16.0
     Generated by new atomic code, or converted to UPF format
     Using radial grid of  861 points,  6 beta functions with:
                l(1) =   0
                l(2) =   0
                l(3) =   1
                l(4) =   1
                l(5) =   2
                l(6) =   2
     Q(r) pseudized with  8 coefficients,  rinner =    1.000   1.000   1.000
                                                       1.000   1.000

     vdW kernel table read from file vdW_kernel_table
     MD5 check sum: 095c7af220d748ca6e76c0b4c6cfb241

     atomic species   valence    mass     pseudopotential
        Os1           16.00   190.23000     Os( 1.00)
        Fe1           16.00    55.84500     Fe( 1.00)

     Starting magnetic structure
     atomic species   magnetization
        Os1          0.125
        Fe1          0.125

     No symmetry found

   Cartesian axes

     site n.     atom                  positions (alat units)
         1           Os1 tau(   1) = (   0.0000000   0.0000000  10.0000000  )
         2           Os1 tau(   2) = (  -1.3404833   2.3217852  10.0000000  )
         3           Os1 tau(   3) = (   1.3404833   2.3217852  10.0000000  )
         4           Fe1 tau(   4) = (   2.6809667   0.0000000  10.0000000  )
         5           Os1 tau(   5) = (   2.6809667   1.5478568  12.1890001  )
         6           Os1 tau(   6) = (   1.3404833   3.8696421  12.1890001  )
         7           Os1 tau(   7) = (  -1.3404833   3.8696421  12.1890001  )
         8           Fe1 tau(   8) = (   0.0000000   1.5478568  12.1890001  )
         9           Os1 tau(   9) = (  -0.0000000   3.0957136  14.3780002  )
        10           Os1 tau(  10) = (   1.3404833   0.7739284  14.3780002  )
        11           Os1 tau(  11) = (   4.0214500   0.7739284  14.3780002  )
        12           Fe1 tau(  12) = (   2.6809667   3.0957136  14.3780002  )

     number of k points=    40  Fermi-Dirac smearing, width (Ry)=  0.0110
                       cart. coord. in units 2pi/alat
        k(    1) = (   0.0000000   0.0000000   0.0000000), wk =   0.0277778
        k(    2) = (   0.0000000   0.0358919   0.0000000), wk =   0.0555556
        k(    3) = (   0.0000000   0.0717838   0.0000000), wk =   0.0555556
        k(    4) = (   0.0000000  -0.1076758   0.0000000), wk =   0.0277778
        k(    5) = (   0.0310833   0.0179460   0.0000000), wk =   0.0555556
        k(    6) = (   0.0310833   0.0538379   0.0000000), wk =   0.0555556
        k(    7) = (   0.0310833   0.0897298   0.0000000), wk =   0.0555556
        k(    8) = (   0.0310833  -0.0897298   0.0000000), wk =   0.0555556
        k(    9) = (   0.0310833  -0.0538379   0.0000000), wk =   0.0555556
        k(   10) = (   0.0310833  -0.0179460   0.0000000), wk =   0.0555556
        k(   11) = (   0.0621666   0.0358919   0.0000000), wk =   0.0555556
        k(   12) = (   0.0621666   0.0717838   0.0000000), wk =   0.0555556
        k(   13) = (   0.0621666   0.1076758   0.0000000), wk =   0.0555556
        k(   14) = (   0.0621666  -0.0717838   0.0000000), wk =   0.0555556
        k(   15) = (   0.0621666  -0.0358919   0.0000000), wk =   0.0555556
        k(   16) = (   0.0621666   0.0000000   0.0000000), wk =   0.0555556
        k(   17) = (  -0.0932499  -0.0538379   0.0000000), wk =   0.0277778
        k(   18) = (  -0.0932499  -0.0179460   0.0000000), wk =   0.0555556
        k(   19) = (  -0.0932499   0.0179460   0.0000000), wk =   0.0555556
        k(   20) = (  -0.0932499  -0.1615136   0.0000000), wk =   0.0277778
        k(   21) = (   0.0000000   0.0000000   0.0000000), wk =   0.0277778
        k(   22) = (   0.0000000   0.0358919   0.0000000), wk =   0.0555556
        k(   23) = (   0.0000000   0.0717838   0.0000000), wk =   0.0555556
        k(   24) = (   0.0000000  -0.1076758   0.0000000), wk =   0.0277778
        k(   25) = (   0.0310833   0.0179460   0.0000000), wk =   0.0555556
        k(   26) = (   0.0310833   0.0538379   0.0000000), wk =   0.0555556
        k(   27) = (   0.0310833   0.0897298   0.0000000), wk =   0.0555556
        k(   28) = (   0.0310833  -0.0897298   0.0000000), wk =   0.0555556
        k(   29) = (   0.0310833  -0.0538379   0.0000000), wk =   0.0555556
        k(   30) = (   0.0310833  -0.0179460   0.0000000), wk =   0.0555556
        k(   31) = (   0.0621666   0.0358919   0.0000000), wk =   0.0555556
        k(   32) = (   0.0621666   0.0717838   0.0000000), wk =   0.0555556
        k(   33) = (   0.0621666   0.1076758   0.0000000), wk =   0.0555556
        k(   34) = (   0.0621666  -0.0717838   0.0000000), wk =   0.0555556
        k(   35) = (   0.0621666  -0.0358919   0.0000000), wk =   0.0555556
        k(   36) = (   0.0621666   0.0000000   0.0000000), wk =   0.0555556
        k(   37) = (  -0.0932499  -0.0538379   0.0000000), wk =   0.0277778
        k(   38) = (  -0.0932499  -0.0179460   0.0000000), wk =   0.0555556
        k(   39) = (  -0.0932499   0.0179460   0.0000000), wk =   0.0555556
        k(   40) = (  -0.0932499  -0.1615136   0.0000000), wk =   0.0277778

     Largest allocated arrays     est. size (Mb)     dimensions
     Largest temporary arrays     est. size (Mb)     dimensions

     Check: negative/imaginary core charge=   -0.000002    0.000000

     Initial potential from superposition of free atoms
     Check: negative starting charge=(component1):   -0.630342
     Check: negative starting charge=(component2):   -0.490266

     starting charge  184.49965, renormalised to  192.00000

     negative rho (up, down):  6.560E-01 5.102E-01

     *
     * You are using vdW-DF for exchange-correlation in this calculation.
     * Please cite the following three references that made this development
     * possible:
     *
     *   M. Dion, H. Rydberg, E. Schroder, D. C. Langreth, and
     *   B. I. Lundqvist, Phys. Rev. Lett. 92, 246401 (2004).
     *
     *   T. Thonhauser, V. R. Cooper, S. Li, A. Puzder, P. Hyldgaard, and
     *   D. C. Langreth, Phys. Rev. B 76, 125112 (2007).
     *
     *   G. Roman-Perez and J. M. Soler, Phys. Rev. Lett. 103, 096102 (2009).
     *
     *
     * If you are using vdW-DF2, please also cite:
     *
     *   K. Lee, E. D. Murray, L. Kong, B. I. Lundqvist, and
     *   D. C. Langreth, Phys. Rev. B 82, 081101(R) (2010).
     *
     *
     * If you are calculating the stress with vdW-DF, please also cite:
     *
     *   R. Sabatini, E. Kucukbenli, B. Kolb, T. Thonhauser, and
     *   S. de Gironcoli, J. Phys.: Condens. Matter 24, 424209 (2012).
     *

     Carrying out vdW-DF run using the following parameters:

     Nqs =      20    Nr_points =    1024   r_max =   100.000
     q_mesh =
               0.00001000     0.04494208     0.09755937     0.15916263
               0.23128650     0.31572767     0.41458969     0.53033537
               0.66584808     0.82450364     1.01025438     1.22772762
               1.48234092     1.78043706     2.12944203     2.53805004
               3.01644009     3.57652955     4.23227104     5.00000000

     Gradients computed in reciprocal space

     Adding external electric field

     Computed dipole along edir(3) :
        Dipole                0.0000 Ry au,          0.0000 Debye
        Dipole field          0.0000 Ry au

        Potential amp.       -0.0000 Ry
        Total length         44.9161 bohr

[...]

     Starting wfc are  156 randomized atomic wfcs

     Self-consistent Calculation

     iteration #  1     ecut=    36.75 Ry     beta=0.10
     Davidson diagonalization with overlap
     ethr =  1.00E-02,  avg # of iterations =  7.6

[...]

     Magnetic moment per site:
     atom:    1    charge:    2.2505    magn:    0.2592    constr:    0.0000
     atom:    2    charge:    2.2505    magn:    0.2592    constr:    0.0000
     atom:    3    charge:    2.2505    magn:    0.2592    constr:    0.0000
     atom:    4    charge:    7.2927    magn:    0.8543    constr:    0.0000
     atom:    5    charge:    2.2471    magn:    0.2580    constr:    0.0000
     atom:    6    charge:    2.2471    magn:    0.2580    constr:    0.0000
[...]
        k(    4) = (   0.0000000  -0.1076758   0.0000000), wk =   0.0277778
        k(    5) = (   0.0310833   0.0179460   0.0000000), wk =   0.0555556
        k(    6) = (   0.0310833   0.0538379   0.0000000), wk =   0.0555556
        k(    7) = (   0.0310833   0.0897298   0.0000000), wk =   0.0555556
        k(    8) = (   0.0310833  -0.0897298   0.0000000), wk =   0.0555556
        k(    9) = (   0.0310833  -0.0538379   0.0000000), wk =   0.0555556
        k(   10) = (   0.0310833  -0.0179460   0.0000000), wk =   0.0555556
        k(   11) = (   0.0621666   0.0358919   0.0000000), wk =   0.0555556
        k(   12) = (   0.0621666   0.0717838   0.0000000), wk =   0.0555556
        k(   13) = (   0.0621666   0.1076758   0.0000000), wk =   0.0555556
        k(   14) = (   0.0621666  -0.0717838   0.0000000), wk =   0.0555556
        k(   15) = (   0.0621666  -0.0358919   0.0000000), wk =   0.0555556
        k(   16) = (   0.0621666   0.0000000   0.0000000), wk =   0.0555556
        k(   17) = (  -0.0932499  -0.0538379   0.0000000), wk =   0.0277778
        k(   18) = (  -0.0932499  -0.0179460   0.0000000), wk =   0.0555556
        k(   19) = (  -0.0932499   0.0179460   0.0000000), wk =   0.0555556
        k(   20) = (  -0.0932499  -0.1615136   0.0000000), wk =   0.0277778
        k(   21) = (   0.0000000   0.0000000   0.0000000), wk =   0.0277778
        k(   22) = (   0.0000000   0.0358919   0.0000000), wk =   0.0555556
        k(   23) = (   0.0000000   0.0717838   0.0000000), wk =   0.0555556
        k(   24) = (   0.0000000  -0.1076758   0.0000000), wk =   0.0277778
        k(   25) = (   0.0310833   0.0179460   0.0000000), wk =   0.0555556
        k(   26) = (   0.0310833   0.0538379   0.0000000), wk =   0.0555556
        k(   27) = (   0.0310833   0.0897298   0.0000000), wk =   0.0555556
        k(   28) = (   0.0310833  -0.0897298   0.0000000), wk =   0.0555556
        k(   29) = (   0.0310833  -0.0538379   0.0000000), wk =   0.0555556
        k(   30) = (   0.0310833  -0.0179460   0.0000000), wk =   0.0555556
        k(   31) = (   0.0621666   0.0358919   0.0000000), wk =   0.0555556
        k(   32) = (   0.0621666   0.0717838   0.0000000), wk =   0.0555556
        k(   33) = (   0.0621666   0.1076758   0.0000000), wk =   0.0555556
        k(   34) = (   0.0621666  -0.0717838   0.0000000), wk =   0.0555556
        k(   35) = (   0.0621666  -0.0358919   0.0000000), wk =   0.0555556
        k(   36) = (   0.0621666   0.0000000   0.0000000), wk =   0.0555556
        k(   37) = (  -0.0932499  -0.0538379   0.0000000), wk =   0.0277778
        k(   38) = (  -0.0932499  -0.0179460   0.0000000), wk =   0.0555556
        k(   39) = (  -0.0932499   0.0179460   0.0000000), wk =   0.0555556
        k(   40) = (  -0.0932499  -0.1615136   0.0000000), wk =   0.0277778

     Largest allocated arrays     est. size (Mb)     dimensions
     Largest temporary arrays     est. size (Mb)     dimensions

     Check: negative/imaginary core charge=   -0.000002    0.000000

     Initial potential from superposition of free atoms
     Check: negative starting charge=(component1):   -0.630046
     Check: negative starting charge=(component2):   -0.490036

     starting charge  184.49965, renormalised to  192.00000

[...]

     *
     * You are using vdW-DF for exchange-correlation in this calculation.
     * Please cite the following three references that made this development
     * possible:
     *
     *   M. Dion, H. Rydberg, E. Schroder, D. C. Langreth, and
     *   B. I. Lundqvist, Phys. Rev. Lett. 92, 246401 (2004).
     *
     *   T. Thonhauser, V. R. Cooper, S. Li, A. Puzder, P. Hyldgaard, and
     *   D. C. Langreth, Phys. Rev. B 76, 125112 (2007).
     *
     *   G. Roman-Perez and J. M. Soler, Phys. Rev. Lett. 103, 096102 (2009).
     *
     *
     * If you are using vdW-DF2, please also cite:
     *
     *   K. Lee, E. D. Murray, L. Kong, B. I. Lundqvist, and
     *   D. C. Langreth, Phys. Rev. B 82, 081101(R) (2010).
     *
     *
     * If you are calculating the stress with vdW-DF, please also cite:
     *
     *   R. Sabatini, E. Kucukbenli, B. Kolb, T. Thonhauser, and
     *   S. de Gironcoli, J. Phys.: Condens. Matter 24, 424209 (2012).
     *

     Carrying out vdW-DF run using the following parameters:

     Nqs =      20    Nr_points =    1024   r_max =   100.000
     q_mesh =
               0.00001000     0.04494208     0.09755937     0.15916263
               0.23128650     0.31572767     0.41458969     0.53033537
               0.66584808     0.82450364     1.01025438     1.22772762
               1.48234092     1.78043706     2.12944203     2.53805004
               3.01644009     3.57652955     4.23227104     5.00000000

     Gradients computed in reciprocal space

[...]

     Starting wfc are  156 randomized atomic wfcs

     Self-consistent Calculation

[...]

     total energy              =   -2551.91925076 Ry
     Harris-Foulkes estimate   =   -2551.91925053 Ry
     estimated scf accuracy    <       0.00000213 Ry

[...]

     iteration # 33     ecut=    36.75 Ry     beta=0.10
     Davidson diagonalization with overlap
     ethr =  6.87E-10,  avg # of iterations =  1.5

[...]

     negative rho (up, down):  5.771E-01 5.570E-01

[...]

     Adding external electric field

     Computed dipole along edir(3) :
        Dipole                0.0172 Ry au,          0.0438 Debye
        Dipole field          0.0001 Ry au

        Potential amp.       -0.0048 Ry
        Total length         44.9161 bohr

     Magnetic moment per site:
     atom:    1    charge:    2.1853    magn:   -0.0104    constr:    0.0000
     atom:    2    charge:    2.1853    magn:   -0.0104    constr:    0.0000
     atom:    3    charge:    2.1853    magn:   -0.0104    constr:    0.0000
     atom:    4    charge:    7.0817    magn:    1.1283    constr:    0.0000
     atom:    5    charge:    2.1840    magn:   -0.0097    constr:    0.0000
     atom:    6    charge:    2.1840    magn:   -0.0097    constr:    0.0000
     atom:    7    charge:    2.1840    magn:   -0.0097    constr:    0.0000
     atom:    8    charge:    7.0681    magn:    0.8155    constr:    0.0000
     atom:    9    charge:    2.1817    magn:   -0.0105    constr:    0.0000
     atom:   10    charge:    2.1817    magn:   -0.0105    constr:    0.0000
     atom:   11    charge:    2.1817    magn:   -0.0105    constr:    0.0000
     atom:   12    charge:    7.0814    magn:    0.9561    constr:    0.0000

     End of self-consistent calculation

 ------ SPIN UP ------------

[...]

 ------ SPIN DOWN ----------

[...]

          k = 0.0622 0.0000 0.0000 ( 15386 PWs)   bands (ev):

[...]

          k =-0.0932-0.1615 0.0000 ( 15386 PWs)   bands (ev):

   -84.5908 -84.5723 -84.5533 -84.1203 -84.1021 -84.0840 -84.0521 -84.0341
   -84.0158 -83.8457 -83.5386 -83.3804 -49.9368 -49.9345 -49.9089 -49.6390
   -49.6369 -49.5859 -49.4930 -49.4908 -49.4060 -44.2179 -44.0710 -44.0283
   -43.9775 -43.9200 -43.8967 -43.8443 -43.8389 -43.6933 -43.6261 -43.5573
   -43.4391 -43.3883 -43.3820 -43.3516 -43.3429 -43.3372 -43.3252 -43.3030
   -43.2870 -43.2628 -43.2494 -43.2402 -43.2092 -43.2089 -43.1042 -43.0409
    -5.2048  -4.7482  -3.5209  -3.3864  -3.3295  -2.9366  -2.9283  -2.7364
    -2.5436  -2.4132  -2.3369  -2.1719  -1.8609  -1.7210  -1.6558  -1.5816
    -1.4478  -1.2509  -1.0520  -0.9319  -0.5376  -0.3440  -0.2737  -0.2016
    -0.0993  -0.0443   0.0126   0.1084   0.1229   0.2296   0.2333   0.5516
     0.5633   0.6485   0.9688   1.0024   1.0593   1.2319   1.4662   1.5509
     1.5846   1.6709   1.8071   2.1857   2.2543   2.2911   2.3872   2.5531
     2.5990   2.6832   2.8483   2.9248   2.9370   3.0723   3.1748   3.2313
     3.3341   3.4318   3.8266   3.9029   4.1396   4.3219   4.4206   5.0425
     5.1065   5.3709   5.8308   6.5267   7.1754   7.3317   7.5015   7.7325
     8.5704   8.6869   8.7083   8.7552   9.2721   9.3491

     the Fermi energy is     2.4983 ev

!    total energy              =   -2551.91925168 Ry
     Harris-Foulkes estimate   =   -2551.91925071 Ry
     estimated scf accuracy    <       0.00000051 Ry

     The total energy is the sum of the following terms:

     one-electron contribution =  -22765.07160133 Ry
     hartree contribution      =   11368.22653306 Ry
     xc contribution           =    -439.02447953 Ry
     ewald contribution        =    9284.02872130 Ry
     electric field correction =       0.00000091 Ry
     smearing contrib. (-TS)   =      -0.07842610 Ry

     total magnetization       =     4.61 Bohr mag/cell
     absolute magnetization    =     8.00 Bohr mag/cell

     convergence has been achieved in  33 iterations

 BEEF-vdW xc energy contributions
           1 :   -384.634631151785
           2 :    354.830201104463
           3 :   -302.795698477985
           4 :    240.724147105525
           5 :   -181.188562013817
           6 :    133.388046826565
           7 :   -101.181677787136
           8 :    83.2550381838297
           9 :   -74.9543868689647
          10 :    70.7599112114478
          11 :   -66.3708317483781
          12 :    59.7321254329634
          13 :   -50.9402407804299
          14 :    41.4018580975137
          15 :   -32.8166275578462
          16 :    26.4017658312662
          17 :   -22.5467758572869
          18 :    20.8484390954128
          19 :   -20.3994717648173
          20 :    20.1676474840502
          21 :   -19.3474724918111
          22 :    17.5832216111310
          23 :   -15.0219158006889
          24 :    12.1831297383614
          25 :   -9.70478872871286
          26 :    8.05553952089713
          27 :   -7.34189684855119
          28 :    7.28810062762227
          29 :   -7.39776329829613
          30 :    7.20134731319376
          31 :   -35.9152255360962
          32 :   -27.0381487490380

     Forces acting on atoms (Ry/au):

     negative rho (up, down):  5.771E-01 5.570E-01
     atom    1 type  1   force =    -0.00000010   -0.00658906    0.01697289
     atom    2 type  1   force =    -0.00570612    0.00329422    0.01697308
     atom    3 type  1   force =     0.00570625    0.00329462    0.01697347
     atom    4 type  2   force =     0.00000020    0.00000005    0.01023295
     atom    5 type  1   force =     0.00000015    0.00589755   -0.01687142
     atom    6 type  1   force =     0.00510779   -0.00294899   -0.01687156
     atom    7 type  1   force =    -0.00510747   -0.00294874   -0.01687119
     atom    8 type  2   force =    -0.00000000    0.00000015   -0.01078502
     atom    9 type  1   force =     0.00000000    0.00002505   -0.00014037
     atom   10 type  1   force =     0.00002229   -0.00001278   -0.00014029
     atom   11 type  1   force =    -0.00002213   -0.00001223   -0.00014057
     atom   12 type  2   force =    -0.00000086    0.00000017    0.00066803

     Total force =     0.046630     Total SCF correction =     0.003105

     entering subroutine stress ...

     negative rho (up, down):  5.771E-01 5.570E-01
          total   stress  (Ry/bohr**3)                   (kbar)     P=  -24.68
  -0.00021539   0.00000000  -0.00000000        -31.68      0.00     -0.00
   0.00000000  -0.00021539   0.00000000          0.00    -31.68      0.00
  -0.00000000   0.00000000  -0.00007257         -0.00      0.00    -10.67

 !ASE

     Writing output data file calc.save

     General routines

     Parallel routines

   This run was terminated on:   9:35:20  31Dec2018

   JOB DONE.
Job  /afs/slac/g/suncat/bin/suncat-tsmpirun -x LD_LIBRARY_PATH -wdir /scratch/qe648689_falgk pw.x -in pw.inp

TID   HOST_NAME   COMMAND_LINE            STATUS            TERMINATION_TIME
00000 suncat0020 pw.x -in pw.inp   Done                     12/31/2018 09:35:20
00001 suncat0020 pw.x -in pw.inp   Done                     12/31/2018 09:35:20
00002 suncat0020 pw.x -in pw.inp   Done                     12/31/2018 09:35:20
00003 suncat0020 pw.x -in pw.inp   Done                     12/31/2018 09:35:20
00004 suncat0020 pw.x -in pw.inp   Done                     12/31/2018 09:35:20
00005 suncat0020 pw.x -in pw.inp   Done                     12/31/2018 09:35:20
00006 suncat0020 pw.x -in pw.inp   Done                     12/31/2018 09:35:20
00007 suncat0020 pw.x -in pw.inp   Done                     12/31/2018 09:35:20
00008 suncat0014 pw.x -in pw.inp   Done                     12/31/2018 09:35:20
00009 suncat0014 pw.x -in pw.inp   Done                     12/31/2018 09:35:20
00010 suncat0014 pw.x -in pw.inp   Done                     12/31/2018 09:35:20
00011 suncat0014 pw.x -in pw.inp   Done                     12/31/2018 09:35:20
00012 suncat0014 pw.x -in pw.inp   Done                     12/31/2018 09:35:20
00013 suncat0014 pw.x -in pw.inp   Done                     12/31/2018 09:35:20
00014 suncat0014 pw.x -in pw.inp   Done                     12/31/2018 09:35:20
00015 suncat0014 pw.x -in pw.inp   Done                     12/31/2018 09:35:20
00016 suncat0199 pw.x -in pw.inp   Done                     12/31/2018 09:35:20
00017 suncat0199 pw.x -in pw.inp   Done                     12/31/2018 09:35:20
00018 suncat0199 pw.x -in pw.inp   Done                     12/31/2018 09:35:20
00019 suncat0199 pw.x -in pw.inp   Done                     12/31/2018 09:35:20
00020 suncat0199 pw.x -in pw.inp   Done                     12/31/2018 09:35:20
00021 suncat0199 pw.x -in pw.inp   Done                     12/31/2018 09:35:20
00022 suncat0199 pw.x -in pw.inp   Done                     12/31/2018 09:35:20
00023 suncat0199 pw.x -in pw.inp   Done                     12/31/2018 09:35:20
00024 suncat0006 pw.x -in pw.inp   Done                     12/31/2018 09:35:20
00025 suncat0006 pw.x -in pw.inp   Done                     12/31/2018 09:35:20
00026 suncat0006 pw.x -in pw.inp   Done                     12/31/2018 09:35:20
00027 suncat0006 pw.x -in pw.inp   Done                     12/31/2018 09:35:20
00028 suncat0006 pw.x -in pw.inp   Done                     12/31/2018 09:35:20
00029 suncat0006 pw.x -in pw.inp   Done                     12/31/2018 09:35:20
00030 suncat0006 pw.x -in pw.inp   Done                     12/31/2018 09:35:20
00031 suncat0006 pw.x -in pw.inp   Done                     12/31/2018 09:35:20
00032 suncat0005 pw.x -in pw.inp   Done                     12/31/2018 09:35:20
00033 suncat0005 pw.x -in pw.inp   Done                     12/31/2018 09:35:20
00034 suncat0005 pw.x -in pw.inp   Done                     12/31/2018 09:35:20
00035 suncat0005 pw.x -in pw.inp   Done                     12/31/2018 09:35:20
00036 suncat0005 pw.x -in pw.inp   Done                     12/31/2018 09:35:20
00037 suncat0005 pw.x -in pw.inp   Done                     12/31/2018 09:35:20
00038 suncat0005 pw.x -in pw.inp   Done                     12/31/2018 09:35:20
00039 suncat0005 pw.x -in pw.inp   Done                     12/31/2018 09:35:20
00040 suncat0004 pw.x -in pw.inp   Done                     12/31/2018 09:35:20
00041 suncat0004 pw.x -in pw.inp   Done                     12/31/2018 09:35:20
00042 suncat0004 pw.x -in pw.inp   Done                     12/31/2018 09:35:20
00043 suncat0004 pw.x -in pw.inp   Done                     12/31/2018 09:35:20
00044 suncat0004 pw.x -in pw.inp   Done                     12/31/2018 09:35:20
00045 suncat0004 pw.x -in pw.inp   Done                     12/31/2018 09:35:20
00046 suncat0004 pw.x -in pw.inp   Done                     12/31/2018 09:35:20
00047 suncat0004 pw.x -in pw.inp   Done                     12/31/2018 09:35:20
00048 suncat0187 pw.x -in pw.inp   Done                     12/31/2018 09:35:20
00049 suncat0187 pw.x -in pw.inp   Done                     12/31/2018 09:35:20
00050 suncat0187 pw.x -in pw.inp   Done                     12/31/2018 09:35:20
00051 suncat0187 pw.x -in pw.inp   Done                     12/31/2018 09:35:20
00052 suncat0187 pw.x -in pw.inp   Done                     12/31/2018 09:35:20
00053 suncat0187 pw.x -in pw.inp   Done                     12/31/2018 09:35:20
00054 suncat0187 pw.x -in pw.inp   Done                     12/31/2018 09:35:20
00055 suncat0187 pw.x -in pw.inp   Done                     12/31/2018 09:35:20
00056 suncat0186 pw.x -in pw.inp   Done                     12/31/2018 09:35:20
00057 suncat0186 pw.x -in pw.inp   Done                     12/31/2018 09:35:20
00058 suncat0186 pw.x -in pw.inp   Done                     12/31/2018 09:35:20
00059 suncat0186 pw.x -in pw.inp   Done                     12/31/2018 09:35:20
00060 suncat0186 pw.x -in pw.inp   Done                     12/31/2018 09:35:20
00061 suncat0186 pw.x -in pw.inp   Done                     12/31/2018 09:35:20
00062 suncat0186 pw.x -in pw.inp   Done                     12/31/2018 09:35:20
00063 suncat0186 pw.x -in pw.inp   Done                     12/31/2018 09:35:20