     Program PWSCF v.5.1rc2 (svn rev. 11289) starts on 19Dec2018 at 18:17: 8

     Current dimensions of program PWSCF are:
     Max number of different atomic species (ntypx) = 10
     Max number of k-points (npk) =  40000
     Max angular momentum in pseudopotentials (lmaxx) =  3
     Presently stress not available with electric field

     IMPORTANT: XC functional enforced from input :
     Exchange-correlation      = BEEF-VDW ( 1  4 27 13 2)
     Any further DFT definition will be discarded
     Please, verify this is what you really want

     Subspace diagonalization in iterative solution of the eigenvalue problem:
     a serial algorithm will be used

     bravais-lattice index     =            0
     lattice parameter (alat)  =       1.8897  a.u.
     unit-cell volume          =    4827.2034 (a.u.)^3
     number of atoms/cell      =           12
     number of atomic types    =            2
     number of electrons       =        60.00
     number of Kohn-Sham states=           60
     kinetic-energy cutoff     =      36.7493  Ry
     charge density cutoff     =     367.4932  Ry
     convergence threshold     =      1.0E-06
     mixing beta               =       0.1000
     number of iterations used =           10  plain     mixing
     Exchange-correlation      = BEEF-VDW ( 1  4 27 13 2)
     nstep                     =           50

     celldm(1)=   1.889726  celldm(2)=   0.000000  celldm(3)=   0.000000
     celldm(4)=   0.000000  celldm(5)=   0.000000  celldm(6)=   0.000000

     crystal axes: (cart. coord. in units of alat)
               a(1) = (   5.780459   0.000000   0.000000 )
               a(2) = (  -2.890230   5.006025   0.000000 )
               a(3) = (   0.000000   0.000000  24.719725 )

     reciprocal axes: (cart. coord. in units 2 pi/alat)
               b(1) = (  0.172997  0.099880  0.000000 )
               b(2) = (  0.000000  0.199759  0.000000 )
               b(3) = (  0.000000  0.000000  0.040454 )

     PseudoPot. # 1 for Al read from file:
     /afs/slac.stanford.edu/u/if/mamunm/psp/gbrv1.5pbe/Al.UPF
     MD5 check sum: 0a6289f5291fc8f409219462bc851e1f
     Pseudo is Ultrasoft + core correction, Zval =  3.0
     Generated by new atomic code, or converted to UPF format
     Using radial grid of  893 points,  3 beta functions with:
                l(1) =   0
                l(2) =   1
                l(3) =   2
     Q(r) pseudized with  8 coefficients,  rinner =    0.900   0.900   0.900
                                                       0.900   0.900

     PseudoPot. # 2 for Sc read from file:
     /afs/slac.stanford.edu/u/if/mamunm/psp/gbrv1.5pbe/Sc.UPF
     MD5 check sum: db30a2753ba66ef00f23801d899b7e7f
     Pseudo is Ultrasoft + core correction, Zval = 11.0
     Generated by new atomic code, or converted to UPF format
     Using radial grid of  849 points,  6 beta functions with:
                l(1) =   0
                l(2) =   0
                l(3) =   1
                l(4) =   1
                l(5) =   2
                l(6) =   2
     Q(r) pseudized with  6 coefficients,  rinner =    1.200   1.200   1.200
                                                       1.200   1.200

     vdW kernel table read from file vdW_kernel_table
     MD5 check sum: 095c7af220d748ca6e76c0b4c6cfb241

     atomic species   valence    mass     pseudopotential
        Al1            3.00    26.98154     Al( 1.00)
        Sc1           11.00    44.95591     Sc( 1.00)

     No symmetry found

   Cartesian axes

     site n.     atom                  positions (alat units)
         1           Al1 tau(   1) = (   0.0000000   0.0000000  10.0000000  )
         2           Al1 tau(   2) = (  -1.4451149   2.5030124  10.0000000  )
         3           Al1 tau(   3) = (   1.4451149   2.5030124  10.0000000  )
         4           Sc1 tau(   4) = (   2.8902297   0.0000000  10.0000000  )
         5           Al1 tau(   5) = (   2.8902297   1.6686749  12.3598627  )
         6           Al1 tau(   6) = (   1.4451149   4.1716873  12.3598627  )
         7           Al1 tau(   7) = (  -1.4451149   4.1716873  12.3598627  )
         8           Sc1 tau(   8) = (   0.0000000   1.6686749  12.3598627  )
         9           Al1 tau(   9) = (  -0.0000000   3.3373498  14.7197254  )
        10           Al1 tau(  10) = (   1.4451149   0.8343375  14.7197254  )
        11           Al1 tau(  11) = (   4.3353446   0.8343375  14.7197254  )
        12           Sc1 tau(  12) = (   2.8902297   3.3373498  14.7197254  )

     number of k points=    20  Fermi-Dirac smearing, width (Ry)=  0.0110
                       cart. coord. in units 2pi/alat
        k(    1) = (   0.0000000   0.0000000   0.0000000), wk =   0.0555556
        k(    2) = (   0.0000000   0.0332932   0.0000000), wk =   0.1111111
        k(    3) = (   0.0000000   0.0665864   0.0000000), wk =   0.1111111
        k(    4) = (   0.0000000  -0.0998797   0.0000000), wk =   0.0555556
        k(    5) = (   0.0288328   0.0166466   0.0000000), wk =   0.1111111
        k(    6) = (   0.0288328   0.0499398   0.0000000), wk =   0.1111111
        k(    7) = (   0.0288328   0.0832330   0.0000000), wk =   0.1111111
        k(    8) = (   0.0288328  -0.0832330   0.0000000), wk =   0.1111111
        k(    9) = (   0.0288328  -0.0499398   0.0000000), wk =   0.1111111
        k(   10) = (   0.0288328  -0.0166466   0.0000000), wk =   0.1111111
        k(   11) = (   0.0576655   0.0332932   0.0000000), wk =   0.1111111
        k(   12) = (   0.0576655   0.0665864   0.0000000), wk =   0.1111111
        k(   13) = (   0.0576655   0.0998797   0.0000000), wk =   0.1111111
        k(   14) = (   0.0576655  -0.0665864   0.0000000), wk =   0.1111111
        k(   15) = (   0.0576655  -0.0332932   0.0000000), wk =   0.1111111
        k(   16) = (   0.0576655   0.0000000   0.0000000), wk =   0.1111111
        k(   17) = (  -0.0864983  -0.0499398   0.0000000), wk =   0.0555556
        k(   18) = (  -0.0864983  -0.0166466   0.0000000), wk =   0.1111111
        k(   19) = (  -0.0864983   0.0166466   0.0000000), wk =   0.1111111
        k(   20) = (  -0.0864983  -0.1498195   0.0000000), wk =   0.0555556

     Largest allocated arrays     est. size (Mb)     dimensions
     Largest temporary arrays     est. size (Mb)     dimensions

     Initial potential from superposition of free atoms
     Check: negative starting charge=   -0.000191

     starting charge   59.97060, renormalised to   60.00000

     negative rho (up, down):  1.912E-04 0.000E+00

     *
     * You are using vdW-DF for exchange-correlation in this calculation.
     * Please cite the following three references that made this development
     * possible:
     *
     *   M. Dion, H. Rydberg, E. Schroder, D. C. Langreth, and
     *   B. I. Lundqvist, Phys. Rev. Lett. 92, 246401 (2004).
     *
     *   T. Thonhauser, V. R. Cooper, S. Li, A. Puzder, P. Hyldgaard, and
     *   D. C. Langreth, Phys. Rev. B 76, 125112 (2007).
     *
     *   G. Roman-Perez and J. M. Soler, Phys. Rev. Lett. 103, 096102 (2009).
     *
     *
     * If you are using vdW-DF2, please also cite:
     *
     *   K. Lee, E. D. Murray, L. Kong, B. I. Lundqvist, and
     *   D. C. Langreth, Phys. Rev. B 82, 081101(R) (2010).
     *
     *
     * If you are calculating the stress with vdW-DF, please also cite:
     *
     *   R. Sabatini, E. Kucukbenli, B. Kolb, T. Thonhauser, and
     *   S. de Gironcoli, J. Phys.: Condens. Matter 24, 424209 (2012).
     *

     Carrying out vdW-DF run using the following parameters:

     Nqs =      20    Nr_points =    1024   r_max =   100.000
     q_mesh =
               0.00001000     0.04494208     0.09755937     0.15916263
               0.23128650     0.31572767     0.41458969     0.53033537
               0.66584808     0.82450364     1.01025438     1.22772762
               1.48234092     1.78043706     2.12944203     2.53805004
               3.01644009     3.57652955     4.23227104     5.00000000

     Gradients computed in reciprocal space

     Adding external electric field

     Computed dipole along edir(3) :
        Dipole                0.0000 Ry au,          0.0000 Debye
        Dipole field          0.0000 Ry au

        Potential amp.       -0.0000 Ry
        Total length         45.5457 bohr

     Starting wfc are   75 randomized atomic wfcs

     Self-consistent Calculation

     iteration #  1     ecut=    36.75 Ry     beta=0.10
     Davidson diagonalization with overlap
     ethr =  1.00E-02,  avg # of iterations =  4.5

[...]

     total energy              =    -346.46793745 Ry
     Harris-Foulkes estimate   =    -346.72255560 Ry
     estimated scf accuracy    <       1.53048928 Ry

[...]

     iteration #  6     ecut=    36.75 Ry     beta=0.10
     Davidson diagonalization with overlap
     c_bands:  1 eigenvalues not converged
     c_bands:  1 eigenvalues not converged
     c_bands:  1 eigenvalues not converged
     ethr =  1.58E-05,  avg # of iterations =  5.0

[...]

     End of self-consistent calculation

          k = 0.0000 0.0000 0.0000 ( 18151 PWs)   bands (ev):

   -50.0333 -50.0331 -49.8199 -28.7831 -28.7827 -28.5917 -28.5917 -28.5914
   -28.5914 -28.5205 -28.4509 -28.4509  -9.7733  -8.1883  -6.1157  -4.8360
    -4.8359  -4.1910  -4.1909  -4.1909  -3.3979  -3.2092  -3.2092  -2.8061
    -2.5498  -2.5498  -2.3534  -0.9509  -0.6550  -0.6550  -0.6125  -0.6125
     0.3619   0.3619   0.5196   0.5196   1.0433   1.0491   1.5488   1.7798
     1.7798   2.0443   2.1633   2.7759   2.7921   2.7921   2.8225   2.8225
     3.1415   3.4982   3.4982   3.6541   3.8306   4.2976   4.5023   4.5023
     4.5931   4.7547   4.9980   4.9980

[...]

          k =-0.0865-0.0499 0.0000 ( 18156 PWs)   bands (ev):

[...]

     the Fermi energy is    -0.5416 ev

!    total energy              =    -346.50020195 Ry
     Harris-Foulkes estimate   =    -346.50020290 Ry
     estimated scf accuracy    <       0.00000082 Ry

     The total energy is the sum of the following terms:

     one-electron contribution =   -1907.02575914 Ry
     hartree contribution      =     953.84980169 Ry
     xc contribution           =     -81.73920971 Ry
     ewald contribution        =     688.45787111 Ry
     electric field correction =       0.00000000 Ry
     smearing contrib. (-TS)   =      -0.04290590 Ry

     convergence has been achieved in  13 iterations

 BEEF-vdW xc energy contributions
           1 :   -68.2362051034683
           2 :    59.4477069673071
           3 :   -45.8053412903845
           4 :    32.5952435695441
           5 :   -23.4214245828450
           6 :    18.7877523852041
           7 :   -16.8558224518891
           8 :    15.3794593693992
           9 :   -13.2714132634797
          10 :    10.8606900551252
          11 :   -9.02998481871838
          12 :    8.18643759657353
          13 :   -7.92981333642467
          14 :    7.52669726641432
          15 :   -6.60223874365916
          16 :    5.39291526096201
          17 :   -4.41966452509848
          18 :    3.97282528697252
          19 :   -3.89297258578316
          20 :    3.78490201058690
          21 :   -3.40190446235444
          22 :    2.83350253655499
          23 :   -2.36723951696801
[...]

     celldm(1)=   1.889726  celldm(2)=   0.000000  celldm(3)=   0.000000
     celldm(4)=   0.000000  celldm(5)=   0.000000  celldm(6)=   0.000000

     crystal axes: (cart. coord. in units of alat)
               a(1) = (   5.780459   0.000000   0.000000 )
               a(2) = (  -2.890230   5.006025   0.000000 )
               a(3) = (   0.000000   0.000000  24.719725 )

     reciprocal axes: (cart. coord. in units 2 pi/alat)
               b(1) = (  0.172997  0.099880  0.000000 )
               b(2) = (  0.000000  0.199759  0.000000 )
               b(3) = (  0.000000  0.000000  0.040454 )

     PseudoPot. # 1 for Al read from file:
     /afs/slac.stanford.edu/u/if/mamunm/psp/gbrv1.5pbe/Al.UPF
     MD5 check sum: 0a6289f5291fc8f409219462bc851e1f
     Pseudo is Ultrasoft + core correction, Zval =  3.0
     Generated by new atomic code, or converted to UPF format
     Using radial grid of  893 points,  3 beta functions with:
                l(1) =   0
                l(2) =   1
                l(3) =   2
     Q(r) pseudized with  8 coefficients,  rinner =    0.900   0.900   0.900
                                                       0.900   0.900

     PseudoPot. # 2 for Sc read from file:
     /afs/slac.stanford.edu/u/if/mamunm/psp/gbrv1.5pbe/Sc.UPF
     MD5 check sum: db30a2753ba66ef00f23801d899b7e7f
     Pseudo is Ultrasoft + core correction, Zval = 11.0
     Generated by new atomic code, or converted to UPF format
     Using radial grid of  849 points,  6 beta functions with:
                l(1) =   0
                l(2) =   0
                l(3) =   1
                l(4) =   1
                l(5) =   2
                l(6) =   2
     Q(r) pseudized with  6 coefficients,  rinner =    1.200   1.200   1.200
                                                       1.200   1.200

     vdW kernel table read from file vdW_kernel_table
     MD5 check sum: 095c7af220d748ca6e76c0b4c6cfb241

     atomic species   valence    mass     pseudopotential
        Al1            3.00    26.98154     Al( 1.00)
        Sc1           11.00    44.95591     Sc( 1.00)

     No symmetry found

   Cartesian axes

     site n.     atom                  positions (alat units)
         1           Al1 tau(   1) = (   0.0000000   0.0000000  10.0000000  )
         2           Al1 tau(   2) = (  -1.4451149   2.5030124  10.0000000  )
         3           Al1 tau(   3) = (   1.4451149   2.5030124  10.0000000  )
         4           Sc1 tau(   4) = (   2.8902297   0.0000000  10.0000000  )
         5           Al1 tau(   5) = (   2.8902297   1.6686749  12.3598627  )
         6           Al1 tau(   6) = (   1.4451149   4.1716873  12.3598627  )
         7           Al1 tau(   7) = (  -1.4451149   4.1716873  12.3598627  )
         8           Sc1 tau(   8) = (   0.0000000   1.6686749  12.3598627  )
         9           Al1 tau(   9) = (  -0.0000049   3.3716434  14.8321765  )
        10           Al1 tau(  10) = (   1.4748089   0.8171933  14.8321761  )
        11           Al1 tau(  11) = (   4.3056428   0.8171945  14.8321763  )
        12           Sc1 tau(  12) = (   2.8902221   3.3373554  14.6793226  )

     number of k points=    20  Fermi-Dirac smearing, width (Ry)=  0.0110
                       cart. coord. in units 2pi/alat
        k(    1) = (   0.0000000   0.0000000   0.0000000), wk =   0.0555556
        k(    2) = (   0.0000000   0.0332932   0.0000000), wk =   0.1111111
        k(    3) = (   0.0000000   0.0665864   0.0000000), wk =   0.1111111
        k(    4) = (   0.0000000  -0.0998797   0.0000000), wk =   0.0555556
        k(    5) = (   0.0288328   0.0166466   0.0000000), wk =   0.1111111
        k(    6) = (   0.0288328   0.0499398   0.0000000), wk =   0.1111111
        k(    7) = (   0.0288328   0.0832330   0.0000000), wk =   0.1111111
        k(    8) = (   0.0288328  -0.0832330   0.0000000), wk =   0.1111111
        k(    9) = (   0.0288328  -0.0499398   0.0000000), wk =   0.1111111
        k(   10) = (   0.0288328  -0.0166466   0.0000000), wk =   0.1111111
        k(   11) = (   0.0576655   0.0332932   0.0000000), wk =   0.1111111
        k(   12) = (   0.0576655   0.0665864   0.0000000), wk =   0.1111111
        k(   13) = (   0.0576655   0.0998797   0.0000000), wk =   0.1111111
        k(   14) = (   0.0576655  -0.0665864   0.0000000), wk =   0.1111111
        k(   15) = (   0.0576655  -0.0332932   0.0000000), wk =   0.1111111
        k(   16) = (   0.0576655   0.0000000   0.0000000), wk =   0.1111111
        k(   17) = (  -0.0864983  -0.0499398   0.0000000), wk =   0.0555556
        k(   18) = (  -0.0864983  -0.0166466   0.0000000), wk =   0.1111111
        k(   19) = (  -0.0864983   0.0166466   0.0000000), wk =   0.1111111
        k(   20) = (  -0.0864983  -0.1498195   0.0000000), wk =   0.0555556

     Largest allocated arrays     est. size (Mb)     dimensions
     Largest temporary arrays     est. size (Mb)     dimensions

     Initial potential from superposition of free atoms
     Check: negative starting charge=   -0.000191

     starting charge   59.97060, renormalised to   60.00000

[...]

     *
     * You are using vdW-DF for exchange-correlation in this calculation.
     * Please cite the following three references that made this development
     * possible:
     *
     *   M. Dion, H. Rydberg, E. Schroder, D. C. Langreth, and
     *   B. I. Lundqvist, Phys. Rev. Lett. 92, 246401 (2004).
     *
     *   T. Thonhauser, V. R. Cooper, S. Li, A. Puzder, P. Hyldgaard, and
     *   D. C. Langreth, Phys. Rev. B 76, 125112 (2007).
     *
     *   G. Roman-Perez and J. M. Soler, Phys. Rev. Lett. 103, 096102 (2009).
     *
     *
     * If you are using vdW-DF2, please also cite:
     *
     *   K. Lee, E. D. Murray, L. Kong, B. I. Lundqvist, and
     *   D. C. Langreth, Phys. Rev. B 82, 081101(R) (2010).
     *
     *
     * If you are calculating the stress with vdW-DF, please also cite:
     *
     *   R. Sabatini, E. Kucukbenli, B. Kolb, T. Thonhauser, and
     *   S. de Gironcoli, J. Phys.: Condens. Matter 24, 424209 (2012).
     *

     Carrying out vdW-DF run using the following parameters:

     Nqs =      20    Nr_points =    1024   r_max =   100.000
     q_mesh =
               0.00001000     0.04494208     0.09755937     0.15916263
               0.23128650     0.31572767     0.41458969     0.53033537
               0.66584808     0.82450364     1.01025438     1.22772762
               1.48234092     1.78043706     2.12944203     2.53805004
               3.01644009     3.57652955     4.23227104     5.00000000

     Gradients computed in reciprocal space

[...]

     Starting wfc are   75 randomized atomic wfcs

     Self-consistent Calculation

[...]

     total energy              =    -346.50626474 Ry
     Harris-Foulkes estimate   =    -346.50626515 Ry
     estimated scf accuracy    <       0.00000131 Ry

     iteration # 15     ecut=    36.75 Ry     beta=0.10
     Davidson diagonalization with overlap
     ethr =  2.18E-09,  avg # of iterations =  1.0

[...]

     negative rho (up, down):  3.748E-04 0.000E+00

     Adding external electric field

     Computed dipole along edir(3) :
        Dipole               -0.0149 Ry au,         -0.0378 Debye
        Dipole field         -0.0000 Ry au

        Potential amp.        0.0035 Ry
        Total length         45.5457 bohr

     End of self-consistent calculation

[...]

          k = 0.0577 0.0000 0.0000 ( 18169 PWs)   bands (ev):

[...]

          k =-0.0865-0.1498 0.0000 ( 18156 PWs)   bands (ev):

   -50.0410 -49.9374 -49.9153 -28.7870 -28.6822 -28.6118 -28.6028 -28.5969
   -28.5368 -28.5363 -28.5025 -28.5012  -8.4272  -8.1227  -6.7846  -6.6064
    -5.5270  -5.4112  -4.7767  -4.0796  -3.7570  -3.2389  -2.3665  -1.7663
    -1.6388  -1.6306  -1.6110  -1.0899  -0.7944  -0.4816  -0.2069  -0.0942
     0.4633   1.0709   1.1140   1.3338   1.4905   1.6013   1.6763   1.7886
     1.8517   2.1008   2.2625   2.2830   2.5727   2.7256   2.9801   2.9882
     3.4327   3.5821   3.7534   4.1176   4.2255   4.2329   4.2957   4.3543
     4.6147   4.7295   4.8921   5.2975

     the Fermi energy is    -0.5613 ev

!    total energy              =    -346.50626450 Ry
     Harris-Foulkes estimate   =    -346.50626459 Ry
     estimated scf accuracy    <       0.00000027 Ry

     The total energy is the sum of the following terms:

     one-electron contribution =   -1899.00212236 Ry
     hartree contribution      =     949.81246180 Ry
     xc contribution           =     -81.67236936 Ry
     ewald contribution        =     684.39789930 Ry
     electric field correction =       0.00000057 Ry
     smearing contrib. (-TS)   =      -0.04213446 Ry

     convergence has been achieved in  15 iterations

 BEEF-vdW xc energy contributions
           1 :   -68.1925435394235
           2 :    59.3865403161040
           3 :   -45.7234749628166
           4 :    32.5056486271981
           5 :   -23.3396230362525
           6 :    18.7135425421157
           7 :   -16.7694018266907
           8 :    15.2588762438420
           9 :   -13.1143059520287
          10 :    10.6867734281300
          11 :   -8.86218777340730
          12 :    8.03096453474491
          13 :   -7.77434955737904
          14 :    7.35637848854549
          15 :   -6.41694503922190
          16 :    5.20954754522791
          17 :   -4.25807400672745
          18 :    3.84028921999479
          19 :   -3.78233422528908
          20 :    3.68625434918016
          21 :   -3.31442282068961
          22 :    2.76577548884602
          23 :   -2.32763869976242
          24 :    2.19010771148346
          25 :   -2.29637736531262
          26 :    2.43178458297420
          27 :   -2.42979400049353
          28 :    2.29733967987993
          29 :   -2.17062893297613
          30 :    2.17096894670958
          31 :   -9.06363708032589
          32 :   -6.57761123206625

     Forces acting on atoms (Ry/au):

     negative rho (up, down):  3.748E-04 0.000E+00
     atom    1 type  1   force =    -0.00000001   -0.01227301   -0.01286798
     atom    2 type  1   force =    -0.01062883    0.00613655   -0.01286800
     atom    3 type  1   force =     0.01062871    0.00613644   -0.01286800
     atom    4 type  2   force =     0.00000000   -0.00000032    0.00864012
     atom    5 type  1   force =    -0.00000017   -0.00298365    0.00242333
     atom    6 type  1   force =    -0.00258444    0.00149208    0.00242277
     atom    7 type  1   force =     0.00258384    0.00149196    0.00242323
     atom    8 type  2   force =     0.00000028    0.00000005    0.02046711
     atom    9 type  1   force =    -0.00000034    0.00021473    0.00024925
     atom   10 type  1   force =     0.00018587   -0.00010708    0.00024935
     atom   11 type  1   force =    -0.00018622   -0.00010689    0.00024928
     atom   12 type  2   force =     0.00000129   -0.00000086    0.00147955

     Total force =     0.038588     Total SCF correction =     0.001272

     entering subroutine stress ...

     negative rho (up, down):  3.748E-04 0.000E+00
          total   stress  (Ry/bohr**3)                   (kbar)     P=   -4.34
  -0.00005868  -0.00000000   0.00000000         -8.63     -0.00      0.00
  -0.00000000  -0.00005868  -0.00000000         -0.00     -8.63     -0.00
   0.00000000  -0.00000000   0.00002883          0.00     -0.00      4.24

 !ASE

     Writing output data file calc.save

     General routines

     Parallel routines

   This run was terminated on:  19: 4:51  19Dec2018

   JOB DONE.
Job  /afs/slac/g/suncat/bin/suncat-tsmpirun -x LD_LIBRARY_PATH -wdir /scratch/qe773300_NdIES pw.x -in pw.inp

TID   HOST_NAME   COMMAND_LINE            STATUS            TERMINATION_TIME
00000 suncat0156 pw.x -in pw.inp   Done                     12/19/2018 19:04:51
00001 suncat0156 pw.x -in pw.inp   Done                     12/19/2018 19:04:51
00002 suncat0156 pw.x -in pw.inp   Done                     12/19/2018 19:04:51
00003 suncat0156 pw.x -in pw.inp   Done                     12/19/2018 19:04:51
00004 suncat0156 pw.x -in pw.inp   Done                     12/19/2018 19:04:51
00005 suncat0156 pw.x -in pw.inp   Done                     12/19/2018 19:04:51
00006 suncat0156 pw.x -in pw.inp   Done                     12/19/2018 19:04:51
00007 suncat0156 pw.x -in pw.inp   Done                     12/19/2018 19:04:51
00008 suncat0153 pw.x -in pw.inp   Done                     12/19/2018 19:04:51
00009 suncat0153 pw.x -in pw.inp   Done                     12/19/2018 19:04:51
00010 suncat0153 pw.x -in pw.inp   Done                     12/19/2018 19:04:51
00011 suncat0153 pw.x -in pw.inp   Done                     12/19/2018 19:04:51
00012 suncat0153 pw.x -in pw.inp   Done                     12/19/2018 19:04:51
00013 suncat0153 pw.x -in pw.inp   Done                     12/19/2018 19:04:51
00014 suncat0153 pw.x -in pw.inp   Done                     12/19/2018 19:04:51
00015 suncat0153 pw.x -in pw.inp   Done                     12/19/2018 19:04:51
00016 suncat0152 pw.x -in pw.inp   Done                     12/19/2018 19:04:51
00017 suncat0152 pw.x -in pw.inp   Done                     12/19/2018 19:04:51
00018 suncat0152 pw.x -in pw.inp   Done                     12/19/2018 19:04:51
00019 suncat0152 pw.x -in pw.inp   Done                     12/19/2018 19:04:51
00020 suncat0152 pw.x -in pw.inp   Done                     12/19/2018 19:04:51
00021 suncat0152 pw.x -in pw.inp   Done                     12/19/2018 19:04:51
00022 suncat0152 pw.x -in pw.inp   Done                     12/19/2018 19:04:51
00023 suncat0152 pw.x -in pw.inp   Done                     12/19/2018 19:04:51
00024 suncat0150 pw.x -in pw.inp   Done                     12/19/2018 19:04:51
00025 suncat0150 pw.x -in pw.inp   Done                     12/19/2018 19:04:51
00026 suncat0150 pw.x -in pw.inp   Done                     12/19/2018 19:04:51
00027 suncat0150 pw.x -in pw.inp   Done                     12/19/2018 19:04:51
00028 suncat0150 pw.x -in pw.inp   Done                     12/19/2018 19:04:51
00029 suncat0150 pw.x -in pw.inp   Done                     12/19/2018 19:04:51
00030 suncat0150 pw.x -in pw.inp   Done                     12/19/2018 19:04:51
00031 suncat0150 pw.x -in pw.inp   Done                     12/19/2018 19:04:51
00032 suncat0149 pw.x -in pw.inp   Done                     12/19/2018 19:04:51
00033 suncat0149 pw.x -in pw.inp   Done                     12/19/2018 19:04:51
00034 suncat0149 pw.x -in pw.inp   Done                     12/19/2018 19:04:51
00035 suncat0149 pw.x -in pw.inp   Done                     12/19/2018 19:04:51
00036 suncat0149 pw.x -in pw.inp   Done                     12/19/2018 19:04:51
00037 suncat0149 pw.x -in pw.inp   Done                     12/19/2018 19:04:51
00038 suncat0149 pw.x -in pw.inp   Done                     12/19/2018 19:04:51
00039 suncat0149 pw.x -in pw.inp   Done                     12/19/2018 19:04:51
00040 suncat0148 pw.x -in pw.inp   Done                     12/19/2018 19:04:51
00041 suncat0148 pw.x -in pw.inp   Done                     12/19/2018 19:04:51
00042 suncat0148 pw.x -in pw.inp   Done                     12/19/2018 19:04:51
00043 suncat0148 pw.x -in pw.inp   Done                     12/19/2018 19:04:51
00044 suncat0148 pw.x -in pw.inp   Done                     12/19/2018 19:04:51
00045 suncat0148 pw.x -in pw.inp   Done                     12/19/2018 19:04:51
00046 suncat0148 pw.x -in pw.inp   Done                     12/19/2018 19:04:51
00047 suncat0148 pw.x -in pw.inp   Done                     12/19/2018 19:04:51
00048 suncat0147 pw.x -in pw.inp   Done                     12/19/2018 19:04:51
00049 suncat0147 pw.x -in pw.inp   Done                     12/19/2018 19:04:51
00050 suncat0147 pw.x -in pw.inp   Done                     12/19/2018 19:04:51
00051 suncat0147 pw.x -in pw.inp   Done                     12/19/2018 19:04:51
00052 suncat0147 pw.x -in pw.inp   Done                     12/19/2018 19:04:51
00053 suncat0147 pw.x -in pw.inp   Done                     12/19/2018 19:04:51
00054 suncat0147 pw.x -in pw.inp   Done                     12/19/2018 19:04:51
00055 suncat0147 pw.x -in pw.inp   Done                     12/19/2018 19:04:51
00056 suncat0146 pw.x -in pw.inp   Done                     12/19/2018 19:04:51
00057 suncat0146 pw.x -in pw.inp   Done                     12/19/2018 19:04:51
00058 suncat0146 pw.x -in pw.inp   Done                     12/19/2018 19:04:51
00059 suncat0146 pw.x -in pw.inp   Done                     12/19/2018 19:04:51
00060 suncat0146 pw.x -in pw.inp   Done                     12/19/2018 19:04:51
00061 suncat0146 pw.x -in pw.inp   Done                     12/19/2018 19:04:51
00062 suncat0146 pw.x -in pw.inp   Done                     12/19/2018 19:04:51
00063 suncat0146 pw.x -in pw.inp   Done                     12/19/2018 19:04:51