     Program PWSCF v.5.1rc2 (svn rev. 11289) starts on  2Jan2019 at 18:11:52

     Current dimensions of program PWSCF are:
     Max number of different atomic species (ntypx) = 10
     Max number of k-points (npk) =  40000
     Max angular momentum in pseudopotentials (lmaxx) =  3
     Presently stress not available with electric field

     IMPORTANT: XC functional enforced from input :
     Exchange-correlation      = BEEF-VDW ( 1  4 27 13 2)
     Any further DFT definition will be discarded
     Please, verify this is what you really want

     Subspace diagonalization in iterative solution of the eigenvalue problem:
     a serial algorithm will be used

     bravais-lattice index     =            0
     lattice parameter (alat)  =       1.8897  a.u.
     unit-cell volume          =    4454.9820 (a.u.)^3
     number of atoms/cell      =           12
     number of atomic types    =            2
     number of electrons       =       219.00
     number of Kohn-Sham states=          139
     kinetic-energy cutoff     =      36.7493  Ry
     charge density cutoff     =     367.4932  Ry
     convergence threshold     =      1.0E-06
     mixing beta               =       0.1000
     number of iterations used =           10  plain     mixing
     Exchange-correlation      = BEEF-VDW ( 1  4 27 13 2)
     nstep                     =           50

     celldm(1)=   1.889726  celldm(2)=   0.000000  celldm(3)=   0.000000
     celldm(4)=   0.000000  celldm(5)=   0.000000  celldm(6)=   0.000000

     crystal axes: (cart. coord. in units of alat)
               a(1) = (   5.572314   0.000000   0.000000 )
               a(2) = (  -2.786157   4.825766   0.000000 )
               a(3) = (   0.000000   0.000000  24.549776 )

     reciprocal axes: (cart. coord. in units 2 pi/alat)
               b(1) = (  0.179459  0.103611  0.000000 )
               b(2) = (  0.000000  0.207221  0.000000 )
               b(3) = (  0.000000  0.000000  0.040734 )

     PseudoPot. # 1 for Zn read from file:
     /afs/slac.stanford.edu/u/if/mamunm/psp/gbrv1.5pbe/Zn.UPF
     MD5 check sum: df62231357ef9e81f77b2b3087fa5675
     Pseudo is Ultrasoft, Zval = 20.0
     Generated by new atomic code, or converted to UPF format
     Using radial grid of  943 points,  6 beta functions with:
                l(1) =   0
                l(2) =   0
                l(3) =   1
                l(4) =   1
                l(5) =   2
                l(6) =   2
     Q(r) pseudized with  8 coefficients,  rinner =    1.100   1.100   1.100
                                                       1.100   1.100

     PseudoPot. # 2 for Ta read from file:
     /afs/slac.stanford.edu/u/if/mamunm/psp/gbrv1.5pbe/Ta.UPF
     MD5 check sum: f8bbe9446314a3b8ea5d9f3e3836c939
     Pseudo is Ultrasoft + core correction, Zval = 13.0
     Generated by new atomic code, or converted to UPF format
     Using radial grid of  921 points,  7 beta functions with:
                l(1) =   0
                l(2) =   0
                l(3) =   1
                l(4) =   1
                l(5) =   2
                l(6) =   2
                l(7) =   3
     Q(r) pseudized with  6 coefficients,  rinner =    1.300   1.300   1.300
                                                       1.300   1.300   1.300
                                                       1.300

     vdW kernel table read from file vdW_kernel_table
     MD5 check sum: 095c7af220d748ca6e76c0b4c6cfb241

     atomic species   valence    mass     pseudopotential
        Zn1           20.00    65.38000     Zn( 1.00)
        Ta1           13.00   180.94788     Ta( 1.00)

     No symmetry found

   Cartesian axes

     site n.     atom                  positions (alat units)
         1           Zn1 tau(   1) = (   0.0000000   0.0000000  10.0000000  )
         2           Zn1 tau(   2) = (  -1.3930786   2.4128828  10.0000000  )
         3           Zn1 tau(   3) = (   1.3930786   2.4128828  10.0000000  )
         4           Ta1 tau(   4) = (   2.7861571   0.0000000  10.0000000  )
         5           Zn1 tau(   5) = (   2.7861571   1.6085886  12.2748878  )
         6           Zn1 tau(   6) = (   1.3930786   4.0214714  12.2748878  )
         7           Zn1 tau(   7) = (  -1.3930786   4.0214714  12.2748878  )
         8           Ta1 tau(   8) = (   0.0000000   1.6085886  12.2748878  )
         9           Zn1 tau(   9) = (  -0.0000000   3.2171771  14.5497755  )
        10           Zn1 tau(  10) = (   1.3930786   0.8042943  14.5497755  )
        11           Zn1 tau(  11) = (   4.1792357   0.8042943  14.5497755  )
        12           Ta1 tau(  12) = (   2.7861571   3.2171771  14.5497755  )

     number of k points=    20  Fermi-Dirac smearing, width (Ry)=  0.0110
                       cart. coord. in units 2pi/alat
        k(    1) = (   0.0000000   0.0000000   0.0000000), wk =   0.0555556
        k(    2) = (   0.0000000   0.0345368   0.0000000), wk =   0.1111111
        k(    3) = (   0.0000000   0.0690737   0.0000000), wk =   0.1111111
        k(    4) = (   0.0000000  -0.1036105   0.0000000), wk =   0.0555556
        k(    5) = (   0.0299098   0.0172684   0.0000000), wk =   0.1111111
        k(    6) = (   0.0299098   0.0518053   0.0000000), wk =   0.1111111
        k(    7) = (   0.0299098   0.0863421   0.0000000), wk =   0.1111111
        k(    8) = (   0.0299098  -0.0863421   0.0000000), wk =   0.1111111
        k(    9) = (   0.0299098  -0.0518053   0.0000000), wk =   0.1111111
        k(   10) = (   0.0299098  -0.0172684   0.0000000), wk =   0.1111111
        k(   11) = (   0.0598196   0.0345368   0.0000000), wk =   0.1111111
        k(   12) = (   0.0598196   0.0690737   0.0000000), wk =   0.1111111
        k(   13) = (   0.0598196   0.1036105   0.0000000), wk =   0.1111111
        k(   14) = (   0.0598196  -0.0690737   0.0000000), wk =   0.1111111
        k(   15) = (   0.0598196  -0.0345368   0.0000000), wk =   0.1111111
        k(   16) = (   0.0598196   0.0000000   0.0000000), wk =   0.1111111
        k(   17) = (  -0.0897293  -0.0518053   0.0000000), wk =   0.0555556
        k(   18) = (  -0.0897293  -0.0172684   0.0000000), wk =   0.1111111
        k(   19) = (  -0.0897293   0.0172684   0.0000000), wk =   0.1111111
        k(   20) = (  -0.0897293  -0.1554158   0.0000000), wk =   0.0555556

     Largest allocated arrays     est. size (Mb)     dimensions
     Largest temporary arrays     est. size (Mb)     dimensions

     Initial potential from superposition of free atoms
     Check: negative starting charge=   -0.283682

     starting charge  218.99539, renormalised to  219.00000

     negative rho (up, down):  2.837E-01 0.000E+00

     *
     * You are using vdW-DF for exchange-correlation in this calculation.
     * Please cite the following three references that made this development
     * possible:
     *
     *   M. Dion, H. Rydberg, E. Schroder, D. C. Langreth, and
     *   B. I. Lundqvist, Phys. Rev. Lett. 92, 246401 (2004).
     *
     *   T. Thonhauser, V. R. Cooper, S. Li, A. Puzder, P. Hyldgaard, and
     *   D. C. Langreth, Phys. Rev. B 76, 125112 (2007).
     *
     *   G. Roman-Perez and J. M. Soler, Phys. Rev. Lett. 103, 096102 (2009).
     *
     *
     * If you are using vdW-DF2, please also cite:
     *
     *   K. Lee, E. D. Murray, L. Kong, B. I. Lundqvist, and
     *   D. C. Langreth, Phys. Rev. B 82, 081101(R) (2010).
     *
     *
     * If you are calculating the stress with vdW-DF, please also cite:
     *
     *   R. Sabatini, E. Kucukbenli, B. Kolb, T. Thonhauser, and
     *   S. de Gironcoli, J. Phys.: Condens. Matter 24, 424209 (2012).
     *

     Carrying out vdW-DF run using the following parameters:

     Nqs =      20    Nr_points =    1024   r_max =   100.000
     q_mesh =
               0.00001000     0.04494208     0.09755937     0.15916263
               0.23128650     0.31572767     0.41458969     0.53033537
               0.66584808     0.82450364     1.01025438     1.22772762
               1.48234092     1.78043706     2.12944203     2.53805004
               3.01644009     3.57652955     4.23227104     5.00000000

     Gradients computed in reciprocal space

     Adding external electric field

     Computed dipole along edir(3) :
        Dipole               -0.0000 Ry au,         -0.0000 Debye
        Dipole field         -0.0000 Ry au

        Potential amp.        0.0000 Ry
        Total length         45.2325 bohr

     Starting wfc are  156 randomized atomic wfcs

     Self-consistent Calculation

     iteration #  1     ecut=    36.75 Ry     beta=0.10
     Davidson diagonalization with overlap
     ethr =  1.00E-02,  avg # of iterations =  7.2

     Threshold (ethr) on eigenvalues was too large:
     Diagonalizing with lowered threshold

     Davidson diagonalization with overlap
     ethr =  3.90E-04,  avg # of iterations =  4.6

[...]

     total energy              =   -4594.40886661 Ry
     Harris-Foulkes estimate   =   -4594.54229277 Ry
     estimated scf accuracy    <       0.87583851 Ry

[...]

     End of self-consistent calculation

          k = 0.0000 0.0000 0.0000 ( 16727 PWs)   bands (ev):

  -125.2070-125.2060-125.2060-125.1146-125.1146-125.1136-125.1136-125.1136
  -125.1136 -79.3994 -79.3926 -79.3926 -79.3858 -79.3858 -79.3818 -79.3551
   -79.3495 -79.3495 -79.3023 -79.3020 -79.2966 -79.2966 -79.2963 -79.2963
   -79.2934 -79.2932 -79.2866 -79.2866 -79.2866 -79.2866 -79.2724 -79.2724
   -79.2722 -79.2722 -79.2681 -79.2680 -67.6480 -67.5452 -67.5451 -34.0467
   -34.0412 -34.0298 -33.9574 -33.9574 -33.7793 -33.7793 -33.7785 -33.7785
    -8.0416  -6.7841  -6.7767  -6.7592  -6.6978  -6.6978  -6.6768  -6.6081
    -6.6081  -6.6042  -6.5574  -6.5574  -6.5166  -6.4533  -6.4533  -6.2944
    -6.2315  -6.2315  -6.1695  -6.1695  -6.1414  -6.1123  -6.0854  -6.0574
    -6.0574  -6.0006  -6.0006  -5.9388  -5.9388  -5.9112  -5.9112  -5.8427
    -5.8384  -5.8384  -5.8014  -5.8014  -5.7897  -5.7897  -5.6821  -5.6821
    -5.6443  -5.5999  -5.5995  -5.5969  -5.5969  -5.5006  -5.4956  -3.3460
    -1.9157  -1.9157  -1.4085  -1.4085  -1.3268  -0.7952  -0.7899  -0.7899
     0.0271   0.2124   0.2124   0.5381   1.2250   1.5259   1.5259   1.6563
     1.6563   1.9376   1.9376   2.6397   2.6397   2.8880   2.9151   3.5161
     3.5161   4.2860   4.8027   4.9296   5.3656   5.4486   5.6597   5.6597
     5.7056   5.7056   5.7807   6.3063   6.7111   6.7111   6.9996   8.0575
     8.2398   8.3471   8.3471

[...]

          k =-0.0897-0.0518 0.0000 ( 16800 PWs)   bands (ev):

[...]

     the Fermi energy is     1.0875 ev

!    total energy              =   -4594.38477164 Ry
     Harris-Foulkes estimate   =   -4594.38476872 Ry
     estimated scf accuracy    <       0.00000065 Ry

     The total energy is the sum of the following terms:

     one-electron contribution =  -29516.60930055 Ry
     hartree contribution      =   14742.88994572 Ry
     xc contribution           =    -521.46497582 Ry
     ewald contribution        =   10700.85706331 Ry
     electric field correction =       0.00000000 Ry
     smearing contrib. (-TS)   =      -0.05750430 Ry

     convergence has been achieved in  14 iterations

 BEEF-vdW xc energy contributions
[...]
     Q(r) pseudized with  8 coefficients,  rinner =    1.100   1.100   1.100
                                                       1.100   1.100

     PseudoPot. # 2 for Ta read from file:
     /afs/slac.stanford.edu/u/if/mamunm/psp/gbrv1.5pbe/Ta.UPF
     MD5 check sum: f8bbe9446314a3b8ea5d9f3e3836c939
     Pseudo is Ultrasoft + core correction, Zval = 13.0
     Generated by new atomic code, or converted to UPF format
     Using radial grid of  921 points,  7 beta functions with:
                l(1) =   0
                l(2) =   0
                l(3) =   1
                l(4) =   1
                l(5) =   2
                l(6) =   2
                l(7) =   3
     Q(r) pseudized with  6 coefficients,  rinner =    1.300   1.300   1.300
                                                       1.300   1.300   1.300
                                                       1.300

     vdW kernel table read from file vdW_kernel_table
     MD5 check sum: 095c7af220d748ca6e76c0b4c6cfb241

     atomic species   valence    mass     pseudopotential
        Zn1           20.00    65.38000     Zn( 1.00)
        Ta1           13.00   180.94788     Ta( 1.00)

     No symmetry found

   Cartesian axes

     site n.     atom                  positions (alat units)
         1           Zn1 tau(   1) = (   0.0000000   0.0000000  10.0000000  )
         2           Zn1 tau(   2) = (  -1.3930786   2.4128828  10.0000000  )
         3           Zn1 tau(   3) = (   1.3930786   2.4128828  10.0000000  )
         4           Ta1 tau(   4) = (   2.7861571   0.0000000  10.0000000  )
         5           Zn1 tau(   5) = (   2.7861571   1.6085886  12.2748878  )
         6           Zn1 tau(   6) = (   1.3930786   4.0214714  12.2748878  )
         7           Zn1 tau(   7) = (  -1.3930786   4.0214714  12.2748878  )
         8           Ta1 tau(   8) = (   0.0000000   1.6085886  12.2748878  )
         9           Zn1 tau(   9) = (  -0.0000004   3.2468913  14.6986612  )
        10           Zn1 tau(  10) = (   1.4188135   0.7894319  14.6986696  )
        11           Zn1 tau(  11) = (   4.1534994   0.7894316  14.6986622  )
        12           Ta1 tau(  12) = (   2.7861558   3.2171659  14.4133854  )

     number of k points=    20  Fermi-Dirac smearing, width (Ry)=  0.0110
                       cart. coord. in units 2pi/alat
        k(    1) = (   0.0000000   0.0000000   0.0000000), wk =   0.0555556
        k(    2) = (   0.0000000   0.0345368   0.0000000), wk =   0.1111111
        k(    3) = (   0.0000000   0.0690737   0.0000000), wk =   0.1111111
        k(    4) = (   0.0000000  -0.1036105   0.0000000), wk =   0.0555556
        k(    5) = (   0.0299098   0.0172684   0.0000000), wk =   0.1111111
        k(    6) = (   0.0299098   0.0518053   0.0000000), wk =   0.1111111
        k(    7) = (   0.0299098   0.0863421   0.0000000), wk =   0.1111111
        k(    8) = (   0.0299098  -0.0863421   0.0000000), wk =   0.1111111
        k(    9) = (   0.0299098  -0.0518053   0.0000000), wk =   0.1111111
        k(   10) = (   0.0299098  -0.0172684   0.0000000), wk =   0.1111111
        k(   11) = (   0.0598196   0.0345368   0.0000000), wk =   0.1111111
        k(   12) = (   0.0598196   0.0690737   0.0000000), wk =   0.1111111
        k(   13) = (   0.0598196   0.1036105   0.0000000), wk =   0.1111111
        k(   14) = (   0.0598196  -0.0690737   0.0000000), wk =   0.1111111
        k(   15) = (   0.0598196  -0.0345368   0.0000000), wk =   0.1111111
        k(   16) = (   0.0598196   0.0000000   0.0000000), wk =   0.1111111
        k(   17) = (  -0.0897293  -0.0518053   0.0000000), wk =   0.0555556
        k(   18) = (  -0.0897293  -0.0172684   0.0000000), wk =   0.1111111
        k(   19) = (  -0.0897293   0.0172684   0.0000000), wk =   0.1111111
        k(   20) = (  -0.0897293  -0.1554158   0.0000000), wk =   0.0555556

     Largest allocated arrays     est. size (Mb)     dimensions
     Largest temporary arrays     est. size (Mb)     dimensions

     Initial potential from superposition of free atoms
     Check: negative starting charge=   -0.282050

     starting charge  218.99539, renormalised to  219.00000

[...]

     *
     * You are using vdW-DF for exchange-correlation in this calculation.
     * Please cite the following three references that made this development
     * possible:
     *
     *   M. Dion, H. Rydberg, E. Schroder, D. C. Langreth, and
     *   B. I. Lundqvist, Phys. Rev. Lett. 92, 246401 (2004).
     *
     *   T. Thonhauser, V. R. Cooper, S. Li, A. Puzder, P. Hyldgaard, and
     *   D. C. Langreth, Phys. Rev. B 76, 125112 (2007).
     *
     *   G. Roman-Perez and J. M. Soler, Phys. Rev. Lett. 103, 096102 (2009).
     *
     *
     * If you are using vdW-DF2, please also cite:
     *
     *   K. Lee, E. D. Murray, L. Kong, B. I. Lundqvist, and
     *   D. C. Langreth, Phys. Rev. B 82, 081101(R) (2010).
     *
     *
     * If you are calculating the stress with vdW-DF, please also cite:
     *
     *   R. Sabatini, E. Kucukbenli, B. Kolb, T. Thonhauser, and
     *   S. de Gironcoli, J. Phys.: Condens. Matter 24, 424209 (2012).
     *

     Carrying out vdW-DF run using the following parameters:

     Nqs =      20    Nr_points =    1024   r_max =   100.000
     q_mesh =
               0.00001000     0.04494208     0.09755937     0.15916263
               0.23128650     0.31572767     0.41458969     0.53033537
               0.66584808     0.82450364     1.01025438     1.22772762
               1.48234092     1.78043706     2.12944203     2.53805004
               3.01644009     3.57652955     4.23227104     5.00000000

     Gradients computed in reciprocal space

[...]

     Starting wfc are  156 randomized atomic wfcs

     Self-consistent Calculation

[...]

     Threshold (ethr) on eigenvalues was too large:
     Diagonalizing with lowered threshold

     Davidson diagonalization with overlap
     ethr =  4.51E-04,  avg # of iterations =  4.2

[...]

     total energy              =   -4594.41376193 Ry
     Harris-Foulkes estimate   =   -4594.41376399 Ry
     estimated scf accuracy    <       0.00007223 Ry

     iteration # 15     ecut=    36.75 Ry     beta=0.10
     Davidson diagonalization with overlap
     ethr =  1.82E-08,  avg # of iterations =  1.0

[...]

     negative rho (up, down):  2.955E-01 0.000E+00

     Adding external electric field

     Computed dipole along edir(3) :
        Dipole               -0.0440 Ry au,         -0.1119 Debye
        Dipole field         -0.0001 Ry au

        Potential amp.        0.0112 Ry
        Total length         45.2325 bohr

     End of self-consistent calculation

[...]

          k = 0.0598 0.0000 0.0000 ( 16738 PWs)   bands (ev):

[...]

          k =-0.0897-0.1554 0.0000 ( 16800 PWs)   bands (ev):

  -125.1907-125.1903-125.1900-125.1843-125.1840-125.1837-125.0168-125.0164
  -125.0161 -79.3769 -79.3742 -79.3718 -79.3701 -79.3681 -79.3681 -79.3669
   -79.3654 -79.3645 -79.3612 -79.3584 -79.3553 -79.3434 -79.3415 -79.3414
   -79.3398 -79.3395 -79.3375 -79.2090 -79.2058 -79.2038 -79.1917 -79.1893
   -79.1873 -79.1746 -79.1732 -79.1712 -67.7958 -67.5648 -67.4035 -34.1631
   -34.0877 -34.0847 -34.0465 -33.8780 -33.8107 -33.8091 -33.6628 -33.6614
    -6.7277  -6.6325  -6.5164  -6.5108  -6.4900  -6.4436  -6.4167  -6.3844
    -6.3828  -6.3757  -6.3394  -6.3103  -6.3081  -6.2513  -6.2158  -6.1905
    -6.1708  -6.1620  -6.1606  -6.1228  -6.0942  -6.0708  -6.0489  -6.0344
    -6.0130  -6.0047  -5.9950  -5.9768  -5.9700  -5.9570  -5.9431  -5.9220
    -5.9145  -5.9114  -5.8944  -5.8840  -5.8686  -5.8529  -5.8322  -5.8097
    -5.7263  -5.7182  -5.6806  -5.6464  -5.6238  -5.5760  -5.5469  -4.5320
    -3.9519  -3.2220  -2.2780  -1.9771  -1.8466  -1.2974  -1.1508  -0.1455
    -0.0093   0.4176   0.4631   0.4901   0.6723   0.8351   1.1821   1.3095
     1.8022   2.0160   2.7821   3.1848   3.5839   3.7336   3.9466   4.0884
     4.4272   4.4447   5.3677   5.6261   5.7669   5.8248   6.1018   6.3267
     6.4513   6.4548   6.7686   6.8887   6.9058   7.0267   7.2382   7.5770
     7.7168   7.7925   7.9168

     the Fermi energy is     1.0171 ev

!    total energy              =   -4594.41376556 Ry
     Harris-Foulkes estimate   =   -4594.41376294 Ry
     estimated scf accuracy    <       0.00000089 Ry

     The total energy is the sum of the following terms:

     one-electron contribution =  -29144.68140840 Ry
     hartree contribution      =   14557.06088186 Ry
     xc contribution           =    -521.44595655 Ry
     ewald contribution        =   10514.71267814 Ry
     electric field correction =       0.00000547 Ry
     smearing contrib. (-TS)   =      -0.05996608 Ry

     convergence has been achieved in  15 iterations

 BEEF-vdW xc energy contributions
           1 :   -462.411781182663
           2 :    421.312844493167
           3 :   -351.590110419001
           4 :    272.357500172562
           5 :   -201.138666717323
           6 :    147.550871775359
           7 :   -111.724924846330
           8 :    87.4408426482582
           9 :   -67.4832134290184
          10 :    47.9158121706359
          11 :   -29.1761254262515
          12 :    14.1177386955590
          13 :   -4.93780996466921
          14 :    1.23569305872553
          15 :  -0.299837153165811
          16 :  -0.961065719329213
          17 :    4.04552811779160
          18 :   -8.23453424114763
          19 :    11.5636040789234
          20 :   -12.5004694029474
          21 :    11.0665079636222
          22 :   -8.69914165072794
          23 :    7.11978007888899
          24 :   -7.13774790426481
          25 :    8.24607025574744
          26 :   -9.19738621122508
          27 :    9.02306202249963
          28 :   -7.70890240503468
          29 :    6.08322011389305
          30 :   -5.09953866756268
          31 :   -37.0692698243649
          32 :   -25.9387711403989

     Forces acting on atoms (Ry/au):

     negative rho (up, down):  2.955E-01 0.000E+00
     atom    1 type  1   force =     0.00000018   -0.00960450   -0.01357405
     atom    2 type  1   force =    -0.00831825    0.00480248   -0.01357394
     atom    3 type  1   force =     0.00831821    0.00480151   -0.01357422
     atom    4 type  2   force =    -0.00000003   -0.00000023    0.03263706
     atom    5 type  1   force =    -0.00000033   -0.00996600   -0.00613879
     atom    6 type  1   force =    -0.00862989    0.00498269   -0.00613812
     atom    7 type  1   force =     0.00862983    0.00498255   -0.00613761
     atom    8 type  2   force =     0.00000005    0.00000025    0.02719585
     atom    9 type  1   force =     0.00000004   -0.00089762   -0.00004302
     atom   10 type  1   force =    -0.00077788    0.00044798   -0.00004328
     atom   11 type  1   force =     0.00077775    0.00044806   -0.00004297
     atom   12 type  2   force =     0.00000033    0.00000282   -0.00056691

     Total force =     0.055209     Total SCF correction =     0.003085

     entering subroutine stress ...

     negative rho (up, down):  2.955E-01 0.000E+00
          total   stress  (Ry/bohr**3)                   (kbar)     P=  -12.55
  -0.00011121  -0.00000000   0.00000000        -16.36     -0.00      0.00
  -0.00000000  -0.00011121   0.00000000         -0.00    -16.36      0.00
   0.00000000   0.00000000  -0.00003353          0.00      0.00     -4.93

 !ASE

     Writing output data file calc.save

     General routines

     Parallel routines

   This run was terminated on:  20:17:58   2Jan2019

   JOB DONE.
Job  /afs/slac/g/suncat/bin/suncat-tsmpirun -x LD_LIBRARY_PATH -wdir /scratch/qe649513_vWWHM pw.x -in pw.inp

TID   HOST_NAME   COMMAND_LINE            STATUS            TERMINATION_TIME
00000 suncat0259 pw.x -in pw.inp   Done                     01/02/2019 20:17:58
00001 suncat0259 pw.x -in pw.inp   Done                     01/02/2019 20:17:58
00002 suncat0259 pw.x -in pw.inp   Done                     01/02/2019 20:17:58
00003 suncat0259 pw.x -in pw.inp   Done                     01/02/2019 20:17:58
00004 suncat0259 pw.x -in pw.inp   Done                     01/02/2019 20:17:58
00005 suncat0259 pw.x -in pw.inp   Done                     01/02/2019 20:17:58
00006 suncat0259 pw.x -in pw.inp   Done                     01/02/2019 20:17:58
00007 suncat0259 pw.x -in pw.inp   Done                     01/02/2019 20:17:58
00008 suncat0256 pw.x -in pw.inp   Done                     01/02/2019 20:17:58
00009 suncat0256 pw.x -in pw.inp   Done                     01/02/2019 20:17:58
00010 suncat0256 pw.x -in pw.inp   Done                     01/02/2019 20:17:58
00011 suncat0256 pw.x -in pw.inp   Done                     01/02/2019 20:17:58
00012 suncat0256 pw.x -in pw.inp   Done                     01/02/2019 20:17:58
00013 suncat0256 pw.x -in pw.inp   Done                     01/02/2019 20:17:58
00014 suncat0256 pw.x -in pw.inp   Done                     01/02/2019 20:17:58
00015 suncat0256 pw.x -in pw.inp   Done                     01/02/2019 20:17:58
00016 suncat0255 pw.x -in pw.inp   Done                     01/02/2019 20:17:58
00017 suncat0255 pw.x -in pw.inp   Done                     01/02/2019 20:17:58
00018 suncat0255 pw.x -in pw.inp   Done                     01/02/2019 20:17:58
00019 suncat0255 pw.x -in pw.inp   Done                     01/02/2019 20:17:58
00020 suncat0255 pw.x -in pw.inp   Done                     01/02/2019 20:17:58
00021 suncat0255 pw.x -in pw.inp   Done                     01/02/2019 20:17:58
00022 suncat0255 pw.x -in pw.inp   Done                     01/02/2019 20:17:58
00023 suncat0255 pw.x -in pw.inp   Done                     01/02/2019 20:17:58
00024 suncat0232 pw.x -in pw.inp   Done                     01/02/2019 20:17:58
00025 suncat0232 pw.x -in pw.inp   Done                     01/02/2019 20:17:58
00026 suncat0232 pw.x -in pw.inp   Done                     01/02/2019 20:17:58
00027 suncat0232 pw.x -in pw.inp   Done                     01/02/2019 20:17:58
00028 suncat0232 pw.x -in pw.inp   Done                     01/02/2019 20:17:58
00029 suncat0232 pw.x -in pw.inp   Done                     01/02/2019 20:17:58
00030 suncat0232 pw.x -in pw.inp   Done                     01/02/2019 20:17:58
00031 suncat0232 pw.x -in pw.inp   Done                     01/02/2019 20:17:58
00032 suncat0220 pw.x -in pw.inp   Done                     01/02/2019 20:17:58
00033 suncat0220 pw.x -in pw.inp   Done                     01/02/2019 20:17:58
00034 suncat0220 pw.x -in pw.inp   Done                     01/02/2019 20:17:58
00035 suncat0220 pw.x -in pw.inp   Done                     01/02/2019 20:17:58
00036 suncat0220 pw.x -in pw.inp   Done                     01/02/2019 20:17:58
00037 suncat0220 pw.x -in pw.inp   Done                     01/02/2019 20:17:58
00038 suncat0220 pw.x -in pw.inp   Done                     01/02/2019 20:17:58
00039 suncat0220 pw.x -in pw.inp   Done                     01/02/2019 20:17:58
00040 suncat0219 pw.x -in pw.inp   Done                     01/02/2019 20:17:58
00041 suncat0219 pw.x -in pw.inp   Done                     01/02/2019 20:17:58
00042 suncat0219 pw.x -in pw.inp   Done                     01/02/2019 20:17:58
00043 suncat0219 pw.x -in pw.inp   Done                     01/02/2019 20:17:58
00044 suncat0219 pw.x -in pw.inp   Done                     01/02/2019 20:17:58
00045 suncat0219 pw.x -in pw.inp   Done                     01/02/2019 20:17:58
00046 suncat0219 pw.x -in pw.inp   Done                     01/02/2019 20:17:58
00047 suncat0219 pw.x -in pw.inp   Done                     01/02/2019 20:17:58
00048 suncat0201 pw.x -in pw.inp   Done                     01/02/2019 20:17:58
00049 suncat0201 pw.x -in pw.inp   Done                     01/02/2019 20:17:58
00050 suncat0201 pw.x -in pw.inp   Done                     01/02/2019 20:17:58
00051 suncat0201 pw.x -in pw.inp   Done                     01/02/2019 20:17:58
00052 suncat0201 pw.x -in pw.inp   Done                     01/02/2019 20:17:58
00053 suncat0201 pw.x -in pw.inp   Done                     01/02/2019 20:17:58
00054 suncat0201 pw.x -in pw.inp   Done                     01/02/2019 20:17:58
00055 suncat0201 pw.x -in pw.inp   Done                     01/02/2019 20:17:58
00056 suncat0200 pw.x -in pw.inp   Done                     01/02/2019 20:17:58
00057 suncat0200 pw.x -in pw.inp   Done                     01/02/2019 20:17:58
00058 suncat0200 pw.x -in pw.inp   Done                     01/02/2019 20:17:58
00059 suncat0200 pw.x -in pw.inp   Done                     01/02/2019 20:17:58
00060 suncat0200 pw.x -in pw.inp   Done                     01/02/2019 20:17:58
00061 suncat0200 pw.x -in pw.inp   Done                     01/02/2019 20:17:58
00062 suncat0200 pw.x -in pw.inp   Done                     01/02/2019 20:17:58
00063 suncat0200 pw.x -in pw.inp   Done                     01/02/2019 20:17:58