     Program PWSCF v.5.1rc2 (svn rev. 11289) starts on 29Dec2018 at 23:35:40

     Current dimensions of program PWSCF are:
     Max number of different atomic species (ntypx) = 10
     Max number of k-points (npk) =  40000
     Max angular momentum in pseudopotentials (lmaxx) =  3
     Presently stress not available with electric field

     IMPORTANT: XC functional enforced from input :
     Exchange-correlation      = BEEF-VDW ( 1  4 27 13 2)
     Any further DFT definition will be discarded
     Please, verify this is what you really want

     Subspace diagonalization in iterative solution of the eigenvalue problem:
     a serial algorithm will be used

     bravais-lattice index     =            0
     lattice parameter (alat)  =       1.8897  a.u.
     unit-cell volume          =    4952.3049 (a.u.)^3
     number of atoms/cell      =           12
     number of atomic types    =            2
     number of electrons       =       108.00
     number of Kohn-Sham states=           84
     kinetic-energy cutoff     =      36.7493  Ry
     charge density cutoff     =     367.4932  Ry
     convergence threshold     =      1.0E-06
     mixing beta               =       0.1000
     number of iterations used =           10  plain     mixing
     Exchange-correlation      = BEEF-VDW ( 1  4 27 13 2)
     nstep                     =           50

     celldm(1)=   1.889726  celldm(2)=   0.000000  celldm(3)=   0.000000
     celldm(4)=   0.000000  celldm(5)=   0.000000  celldm(6)=   0.000000

     crystal axes: (cart. coord. in units of alat)
               a(1) = (   5.848332   0.000000   0.000000 )
               a(2) = (  -2.924166   5.064804   0.000000 )
               a(3) = (   0.000000   0.000000  24.775143 )

     reciprocal axes: (cart. coord. in units 2 pi/alat)
               b(1) = (  0.170989  0.098721  0.000000 )
               b(2) = (  0.000000  0.197441  0.000000 )
               b(3) = (  0.000000  0.000000  0.040363 )

     PseudoPot. # 1 for Au read from file:
     /afs/slac.stanford.edu/u/if/mamunm/psp/gbrv1.5pbe/Au.UPF
     MD5 check sum: 9d7f43293ad2c663164586bc4b293ffc
     Pseudo is Ultrasoft + core correction, Zval = 11.0
     Generated by new atomic code, or converted to UPF format
     Using radial grid of  985 points,  7 beta functions with:
                l(1) =   0
                l(2) =   0
                l(3) =   1
                l(4) =   1
                l(5) =   2
                l(6) =   2
                l(7) =   3
     Q(r) pseudized with  6 coefficients,  rinner =    1.900   1.900   1.900
                                                       1.900   1.900   1.900
                                                       1.900

     PseudoPot. # 2 for Al read from file:
     /afs/slac.stanford.edu/u/if/mamunm/psp/gbrv1.5pbe/Al.UPF
     MD5 check sum: 0a6289f5291fc8f409219462bc851e1f
     Pseudo is Ultrasoft + core correction, Zval =  3.0
     Generated by new atomic code, or converted to UPF format
     Using radial grid of  893 points,  3 beta functions with:
                l(1) =   0
                l(2) =   1
                l(3) =   2
     Q(r) pseudized with  8 coefficients,  rinner =    0.900   0.900   0.900
                                                       0.900   0.900

     vdW kernel table read from file vdW_kernel_table
     MD5 check sum: 095c7af220d748ca6e76c0b4c6cfb241

     atomic species   valence    mass     pseudopotential
        Au1           11.00   196.96657     Au( 1.00)
        Al1            3.00    26.98154     Al( 1.00)

     No symmetry found

   Cartesian axes

     site n.     atom                  positions (alat units)
         1           Au1 tau(   1) = (   0.0000000   0.0000000  10.0000000  )
         2           Au1 tau(   2) = (  -1.4620829   2.5324019  10.0000000  )
         3           Au1 tau(   3) = (   1.4620829   2.5324019  10.0000000  )
         4           Al1 tau(   4) = (   2.9241658   0.0000000  10.0000000  )
         5           Au1 tau(   5) = (   2.9241658   1.6882679  12.3875714  )
         6           Au1 tau(   6) = (   1.4620829   4.2206698  12.3875714  )
         7           Au1 tau(   7) = (  -1.4620829   4.2206698  12.3875714  )
         8           Al1 tau(   8) = (   0.0000000   1.6882679  12.3875714  )
         9           Au1 tau(   9) = (  -0.0000000   3.3765358  14.7751427  )
        10           Au1 tau(  10) = (   1.4620829   0.8441340  14.7751427  )
        11           Au1 tau(  11) = (   4.3862487   0.8441340  14.7751427  )
        12           Al1 tau(  12) = (   2.9241658   3.3765358  14.7751427  )

     number of k points=    20  Fermi-Dirac smearing, width (Ry)=  0.0110
                       cart. coord. in units 2pi/alat
        k(    1) = (   0.0000000   0.0000000   0.0000000), wk =   0.0555556
        k(    2) = (   0.0000000   0.0329068   0.0000000), wk =   0.1111111
        k(    3) = (   0.0000000   0.0658137   0.0000000), wk =   0.1111111
        k(    4) = (   0.0000000  -0.0987205   0.0000000), wk =   0.0555556
        k(    5) = (   0.0284982   0.0164534   0.0000000), wk =   0.1111111
        k(    6) = (   0.0284982   0.0493603   0.0000000), wk =   0.1111111
        k(    7) = (   0.0284982   0.0822671   0.0000000), wk =   0.1111111
        k(    8) = (   0.0284982  -0.0822671   0.0000000), wk =   0.1111111
        k(    9) = (   0.0284982  -0.0493603   0.0000000), wk =   0.1111111
        k(   10) = (   0.0284982  -0.0164534   0.0000000), wk =   0.1111111
        k(   11) = (   0.0569963   0.0329068   0.0000000), wk =   0.1111111
        k(   12) = (   0.0569963   0.0658137   0.0000000), wk =   0.1111111
        k(   13) = (   0.0569963   0.0987205   0.0000000), wk =   0.1111111
        k(   14) = (   0.0569963  -0.0658137   0.0000000), wk =   0.1111111
        k(   15) = (   0.0569963  -0.0329068   0.0000000), wk =   0.1111111
        k(   16) = (   0.0569963   0.0000000   0.0000000), wk =   0.1111111
        k(   17) = (  -0.0854945  -0.0493603   0.0000000), wk =   0.0555556
        k(   18) = (  -0.0854945  -0.0164534   0.0000000), wk =   0.1111111
        k(   19) = (  -0.0854945   0.0164534   0.0000000), wk =   0.1111111
        k(   20) = (  -0.0854945  -0.1480808   0.0000000), wk =   0.0555556

     Largest allocated arrays     est. size (Mb)     dimensions
     Largest temporary arrays     est. size (Mb)     dimensions

     Check: negative/imaginary core charge=   -0.000002    0.000000

     Initial potential from superposition of free atoms
     Check: negative starting charge=   -0.000106

     starting charge  107.99150, renormalised to  108.00000

     negative rho (up, down):  1.061E-04 0.000E+00

     *
     * You are using vdW-DF for exchange-correlation in this calculation.
     * Please cite the following three references that made this development
     * possible:
     *
     *   M. Dion, H. Rydberg, E. Schroder, D. C. Langreth, and
     *   B. I. Lundqvist, Phys. Rev. Lett. 92, 246401 (2004).
     *
     *   T. Thonhauser, V. R. Cooper, S. Li, A. Puzder, P. Hyldgaard, and
     *   D. C. Langreth, Phys. Rev. B 76, 125112 (2007).
     *
     *   G. Roman-Perez and J. M. Soler, Phys. Rev. Lett. 103, 096102 (2009).
     *
     *
     * If you are using vdW-DF2, please also cite:
     *
     *   K. Lee, E. D. Murray, L. Kong, B. I. Lundqvist, and
     *   D. C. Langreth, Phys. Rev. B 82, 081101(R) (2010).
     *
     *
     * If you are calculating the stress with vdW-DF, please also cite:
     *
     *   R. Sabatini, E. Kucukbenli, B. Kolb, T. Thonhauser, and
     *   S. de Gironcoli, J. Phys.: Condens. Matter 24, 424209 (2012).
     *

     Carrying out vdW-DF run using the following parameters:

     Nqs =      20    Nr_points =    1024   r_max =   100.000
     q_mesh =
               0.00001000     0.04494208     0.09755937     0.15916263
               0.23128650     0.31572767     0.41458969     0.53033537
               0.66584808     0.82450364     1.01025438     1.22772762
               1.48234092     1.78043706     2.12944203     2.53805004
               3.01644009     3.57652955     4.23227104     5.00000000

     Gradients computed in reciprocal space

     Adding external electric field

     Computed dipole along edir(3) :
        Dipole                0.0000 Ry au,          0.0000 Debye
        Dipole field          0.0000 Ry au

        Potential amp.       -0.0000 Ry
        Total length         45.6478 bohr

     Starting wfc are   93 randomized atomic wfcs

     Self-consistent Calculation

     iteration #  1     ecut=    36.75 Ry     beta=0.10
     Davidson diagonalization with overlap
     ethr =  1.00E-02,  avg # of iterations =  7.9

     Threshold (ethr) on eigenvalues was too large:
     Diagonalizing with lowered threshold

     Davidson diagonalization with overlap
     ethr =  3.65E-04,  avg # of iterations =  3.1

[...]

     total energy              =   -1071.09849790 Ry
     Harris-Foulkes estimate   =   -1071.15679456 Ry
     estimated scf accuracy    <       0.42575293 Ry

[...]

     End of self-consistent calculation

          k = 0.0000 0.0000 0.0000 ( 18739 PWs)   bands (ev):

    -9.1602  -7.4913  -7.2103  -6.6134  -6.4054  -6.0640  -6.0640  -6.0352
    -5.7268  -5.7248  -5.7248  -5.6146  -5.6146  -5.3035  -5.3035  -4.9867
    -4.6703  -4.6703  -4.4833  -4.4833  -4.3606  -4.3038  -4.1694  -3.9705
    -3.9226  -3.9226  -3.7987  -3.7987  -3.7434  -3.7434  -3.3316  -3.3316
    -3.2940  -3.2940  -3.2016  -2.9145  -2.9145  -2.8924  -2.8923  -2.7128
    -2.7128  -2.5034  -2.2771  -2.2418  -2.2418  -2.1469  -1.8831  -1.8503
    -1.1538  -1.1183  -1.1183  -0.4045  -0.2635  -0.1464  -0.1464   0.1008
     0.1008   0.5371   1.5482   2.1202   2.1202   2.4494   3.0858   3.0858
     3.0875   3.7238   3.7238   3.8422   4.3468   4.6349   5.5858   5.5888
     6.0923   6.4189   6.9916   6.9916   7.1525   7.1525   7.5269   7.8067
     8.0097   8.0097   8.9044   8.9045

[...]

          k =-0.0855-0.0494 0.0000 ( 18600 PWs)   bands (ev):

[...]

     the Fermi energy is     0.1301 ev

!    total energy              =   -1071.05992641 Ry
     Harris-Foulkes estimate   =   -1071.05992586 Ry
     estimated scf accuracy    <       0.00000039 Ry

     The total energy is the sum of the following terms:

     one-electron contribution =   -5600.46254455 Ry
     hartree contribution      =    2872.13520213 Ry
     xc contribution           =    -589.15664726 Ry
     ewald contribution        =    2246.45371379 Ry
     electric field correction =       0.00000000 Ry
     smearing contrib. (-TS)   =      -0.02965052 Ry

     convergence has been achieved in  14 iterations

 BEEF-vdW xc energy contributions
           1 :   -525.335978373261
           2 :    487.794623194901
           3 :   -420.871656905458
           4 :    337.790027118464
           5 :   -252.567602912144
           6 :    176.381554511109
           7 :   -115.669430412136
           8 :    72.0460871931649
           9 :   -43.5121266387282
          10 :    26.1876070241193
          11 :   -15.9565689579789
          12 :    9.61315934719494
          13 :   -5.33088129893804
          14 :    2.45022487018412
          15 :  -0.825516556378375
[...]

     PseudoPot. # 1 for Au read from file:
     /afs/slac.stanford.edu/u/if/mamunm/psp/gbrv1.5pbe/Au.UPF
     MD5 check sum: 9d7f43293ad2c663164586bc4b293ffc
     Pseudo is Ultrasoft + core correction, Zval = 11.0
     Generated by new atomic code, or converted to UPF format
     Using radial grid of  985 points,  7 beta functions with:
                l(1) =   0
                l(2) =   0
                l(3) =   1
                l(4) =   1
                l(5) =   2
                l(6) =   2
                l(7) =   3
     Q(r) pseudized with  6 coefficients,  rinner =    1.900   1.900   1.900
                                                       1.900   1.900   1.900
                                                       1.900

     PseudoPot. # 2 for Al read from file:
     /afs/slac.stanford.edu/u/if/mamunm/psp/gbrv1.5pbe/Al.UPF
     MD5 check sum: 0a6289f5291fc8f409219462bc851e1f
     Pseudo is Ultrasoft + core correction, Zval =  3.0
     Generated by new atomic code, or converted to UPF format
     Using radial grid of  893 points,  3 beta functions with:
                l(1) =   0
                l(2) =   1
                l(3) =   2
     Q(r) pseudized with  8 coefficients,  rinner =    0.900   0.900   0.900
                                                       0.900   0.900

     vdW kernel table read from file vdW_kernel_table
     MD5 check sum: 095c7af220d748ca6e76c0b4c6cfb241

     atomic species   valence    mass     pseudopotential
        Au1           11.00   196.96657     Au( 1.00)
        Al1            3.00    26.98154     Al( 1.00)

     No symmetry found

   Cartesian axes

     site n.     atom                  positions (alat units)
         1           Au1 tau(   1) = (   0.0000000   0.0000000  10.0000000  )
         2           Au1 tau(   2) = (  -1.4620829   2.5324019  10.0000000  )
         3           Au1 tau(   3) = (   1.4620829   2.5324019  10.0000000  )
         4           Al1 tau(   4) = (   2.9241658   0.0000000  10.0000000  )
         5           Au1 tau(   5) = (   2.9241658   1.6882679  12.3875714  )
         6           Au1 tau(   6) = (   1.4620829   4.2206698  12.3875714  )
         7           Au1 tau(   7) = (  -1.4620829   4.2206698  12.3875714  )
         8           Al1 tau(   8) = (   0.0000000   1.6882679  12.3875714  )
         9           Au1 tau(   9) = (  -0.0000003   3.3572851  14.9009571  )
        10           Au1 tau(  10) = (   1.4453947   0.8537799  14.9009790  )
        11           Au1 tau(  11) = (   4.4029390   0.8537667  14.9009762  )
        12           Al1 tau(  12) = (   2.9241642   3.3765400  14.6993229  )

     number of k points=    20  Fermi-Dirac smearing, width (Ry)=  0.0110
                       cart. coord. in units 2pi/alat
        k(    1) = (   0.0000000   0.0000000   0.0000000), wk =   0.0555556
        k(    2) = (   0.0000000   0.0329068   0.0000000), wk =   0.1111111
        k(    3) = (   0.0000000   0.0658137   0.0000000), wk =   0.1111111
        k(    4) = (   0.0000000  -0.0987205   0.0000000), wk =   0.0555556
        k(    5) = (   0.0284982   0.0164534   0.0000000), wk =   0.1111111
        k(    6) = (   0.0284982   0.0493603   0.0000000), wk =   0.1111111
        k(    7) = (   0.0284982   0.0822671   0.0000000), wk =   0.1111111
        k(    8) = (   0.0284982  -0.0822671   0.0000000), wk =   0.1111111
        k(    9) = (   0.0284982  -0.0493603   0.0000000), wk =   0.1111111
        k(   10) = (   0.0284982  -0.0164534   0.0000000), wk =   0.1111111
        k(   11) = (   0.0569963   0.0329068   0.0000000), wk =   0.1111111
        k(   12) = (   0.0569963   0.0658137   0.0000000), wk =   0.1111111
        k(   13) = (   0.0569963   0.0987205   0.0000000), wk =   0.1111111
        k(   14) = (   0.0569963  -0.0658137   0.0000000), wk =   0.1111111
        k(   15) = (   0.0569963  -0.0329068   0.0000000), wk =   0.1111111
        k(   16) = (   0.0569963   0.0000000   0.0000000), wk =   0.1111111
        k(   17) = (  -0.0854945  -0.0493603   0.0000000), wk =   0.0555556
        k(   18) = (  -0.0854945  -0.0164534   0.0000000), wk =   0.1111111
        k(   19) = (  -0.0854945   0.0164534   0.0000000), wk =   0.1111111
        k(   20) = (  -0.0854945  -0.1480808   0.0000000), wk =   0.0555556

     Largest allocated arrays     est. size (Mb)     dimensions
     Largest temporary arrays     est. size (Mb)     dimensions

     Check: negative/imaginary core charge=   -0.000002    0.000000

     Initial potential from superposition of free atoms
     Check: negative starting charge=   -0.000105

     starting charge  107.99150, renormalised to  108.00000

[...]

     *
     * You are using vdW-DF for exchange-correlation in this calculation.
     * Please cite the following three references that made this development
     * possible:
     *
     *   M. Dion, H. Rydberg, E. Schroder, D. C. Langreth, and
     *   B. I. Lundqvist, Phys. Rev. Lett. 92, 246401 (2004).
     *
     *   T. Thonhauser, V. R. Cooper, S. Li, A. Puzder, P. Hyldgaard, and
     *   D. C. Langreth, Phys. Rev. B 76, 125112 (2007).
     *
     *   G. Roman-Perez and J. M. Soler, Phys. Rev. Lett. 103, 096102 (2009).
     *
     *
     * If you are using vdW-DF2, please also cite:
     *
     *   K. Lee, E. D. Murray, L. Kong, B. I. Lundqvist, and
     *   D. C. Langreth, Phys. Rev. B 82, 081101(R) (2010).
     *
     *
     * If you are calculating the stress with vdW-DF, please also cite:
     *
     *   R. Sabatini, E. Kucukbenli, B. Kolb, T. Thonhauser, and
     *   S. de Gironcoli, J. Phys.: Condens. Matter 24, 424209 (2012).
     *

     Carrying out vdW-DF run using the following parameters:

     Nqs =      20    Nr_points =    1024   r_max =   100.000
     q_mesh =
               0.00001000     0.04494208     0.09755937     0.15916263
               0.23128650     0.31572767     0.41458969     0.53033537
               0.66584808     0.82450364     1.01025438     1.22772762
               1.48234092     1.78043706     2.12944203     2.53805004
               3.01644009     3.57652955     4.23227104     5.00000000

     Gradients computed in reciprocal space

[...]

     Starting wfc are   93 randomized atomic wfcs

     Self-consistent Calculation

[...]

     Threshold (ethr) on eigenvalues was too large:
     Diagonalizing with lowered threshold

     Davidson diagonalization with overlap
     ethr =  3.65E-04,  avg # of iterations =  3.2

[...]

     total energy              =   -1071.08261079 Ry
     Harris-Foulkes estimate   =   -1071.08260919 Ry
     estimated scf accuracy    <       0.00000172 Ry

     iteration # 13     ecut=    36.75 Ry     beta=0.10
     Davidson diagonalization with overlap
     ethr =  1.60E-09,  avg # of iterations =  2.0

[...]

     negative rho (up, down):  2.346E-04 0.000E+00

     Adding external electric field

     Computed dipole along edir(3) :
        Dipole               -0.0340 Ry au,         -0.0864 Debye
        Dipole field         -0.0001 Ry au

        Potential amp.        0.0079 Ry
        Total length         45.6478 bohr

     End of self-consistent calculation

[...]

          k = 0.0570 0.0000 0.0000 ( 18641 PWs)   bands (ev):

[...]

          k =-0.0855-0.1481 0.0000 ( 18600 PWs)   bands (ev):

    -7.6356  -7.5967  -6.4031  -6.3258  -6.0658  -5.9888  -5.7070  -5.6812
    -5.6395  -5.2596  -5.1825  -5.1320  -5.1154  -5.0930  -5.0422  -4.8859
    -4.8837  -4.7958  -4.6281  -4.4623  -4.3007  -4.2138  -4.1962  -4.1667
    -4.1652  -4.0890  -3.9881  -3.9784  -3.8805  -3.8431  -3.8116  -3.7223
    -3.6826  -3.6650  -3.6457  -3.6312  -3.5941  -3.4367  -3.4104  -3.3805
    -3.3013  -3.1847  -3.0626  -3.0145  -2.8134  -2.7085  -2.6807  -2.4032
    -2.1972  -2.1279  -1.1924  -1.0681  -0.6621  -0.5177   0.1233   1.0272
     1.8062   1.8208   1.9878   3.6242   3.8856   4.0682   4.1802   4.4713
     4.5593   4.8232   5.1282   5.4784   5.5856   5.7366   5.7554   6.0324
     6.0705   6.0969   6.3672   6.8059   6.9997   7.0071   7.0653   7.0840
     7.2174   7.3890   7.4196   7.4735

     the Fermi energy is     0.0862 ev

!    total energy              =   -1071.08261145 Ry
     Harris-Foulkes estimate   =   -1071.08261090 Ry
     estimated scf accuracy    <       0.00000064 Ry

     The total energy is the sum of the following terms:

     one-electron contribution =   -5511.53403527 Ry
     hartree contribution      =    2827.68038067 Ry
     xc contribution           =    -589.10424826 Ry
     ewald contribution        =    2201.90586741 Ry
     electric field correction =       0.00000293 Ry
     smearing contrib. (-TS)   =      -0.03057894 Ry

     convergence has been achieved in  13 iterations

 BEEF-vdW xc energy contributions
           1 :   -525.782522662306
           2 :    488.178634313390
           3 :   -421.180800087484
           4 :    338.072677133197
           5 :   -252.902525364363
           6 :    176.830416106594
           7 :   -116.240151454287
           8 :    72.6857584183799
           9 :   -44.1324630019715
          10 :    26.7098263007571
          11 :   -16.3531472235785
          12 :    9.92347420341343
          13 :   -5.64141378239822
          14 :    2.84993111419794
          15 :   -1.35941084630917
          16 :   0.786330676516741
          17 :  -0.297273126607706
          18 :   -1.11320605316723
          19 :    4.04041177879969
          20 :   -8.23198911564316
          21 :    12.6226867191227
          22 :   -15.8368963277773
          23 :    16.8447851111372
          24 :   -15.4102275236180
          25 :    12.1396553791539
          26 :   -8.18062595514357
          27 :    4.75030949781228
          28 :   -2.69521557082101
          29 :    2.23064959187388
          30 :   -2.94828575016277
          31 :   -42.2441770497926
          32 :   -30.8078236777827

     Forces acting on atoms (Ry/au):

     negative rho (up, down):  2.346E-04 0.000E+00
     atom    1 type  1   force =     0.00000013    0.01273281   -0.01425957
     atom    2 type  1   force =     0.01102752   -0.00636727   -0.01426155
     atom    3 type  1   force =    -0.01102725   -0.00636703   -0.01426074
     atom    4 type  2   force =    -0.00000037    0.00000035    0.00658635
     atom    5 type  1   force =    -0.00000074   -0.00551419    0.01057404
     atom    6 type  1   force =    -0.00477606    0.00275699    0.01057385
     atom    7 type  1   force =     0.00477642    0.00275677    0.01057408
     atom    8 type  2   force =    -0.00000035    0.00000029    0.00317002
     atom    9 type  1   force =    -0.00000107   -0.00100594    0.00010917
     atom   10 type  1   force =    -0.00086820    0.00050384    0.00011149
     atom   11 type  1   force =     0.00087016    0.00050314    0.00010638
     atom   12 type  2   force =    -0.00000019    0.00000024    0.00097648

     Total force =     0.039757     Total SCF correction =     0.002588

     entering subroutine stress ...

     negative rho (up, down):  2.346E-04 0.000E+00
          total   stress  (Ry/bohr**3)                   (kbar)     P=  -14.25
  -0.00015956   0.00000000  -0.00000000        -23.47      0.00     -0.00
   0.00000000  -0.00015956  -0.00000000          0.00    -23.47     -0.00
  -0.00000000  -0.00000000   0.00002854         -0.00     -0.00      4.20

 !ASE

     Writing output data file calc.save

     General routines

     Parallel routines

   This run was terminated on:   0:16:27  30Dec2018

   JOB DONE.
Job  /afs/slac/g/suncat/bin/suncat-tsmpirun -x LD_LIBRARY_PATH -wdir /scratch/qe648381_9XQVE pw.x -in pw.inp

TID   HOST_NAME   COMMAND_LINE            STATUS            TERMINATION_TIME
00000 suncat0083 pw.x -in pw.inp   Done                     12/30/2018 00:16:27
00001 suncat0083 pw.x -in pw.inp   Done                     12/30/2018 00:16:27
00002 suncat0083 pw.x -in pw.inp   Done                     12/30/2018 00:16:27
00003 suncat0083 pw.x -in pw.inp   Done                     12/30/2018 00:16:27
00004 suncat0083 pw.x -in pw.inp   Done                     12/30/2018 00:16:27
00005 suncat0083 pw.x -in pw.inp   Done                     12/30/2018 00:16:27
00006 suncat0083 pw.x -in pw.inp   Done                     12/30/2018 00:16:27
00007 suncat0083 pw.x -in pw.inp   Done                     12/30/2018 00:16:27
00008 suncat0066 pw.x -in pw.inp   Done                     12/30/2018 00:16:27
00009 suncat0066 pw.x -in pw.inp   Done                     12/30/2018 00:16:27
00010 suncat0066 pw.x -in pw.inp   Done                     12/30/2018 00:16:27
00011 suncat0066 pw.x -in pw.inp   Done                     12/30/2018 00:16:27
00012 suncat0066 pw.x -in pw.inp   Done                     12/30/2018 00:16:27
00013 suncat0066 pw.x -in pw.inp   Done                     12/30/2018 00:16:27
00014 suncat0066 pw.x -in pw.inp   Done                     12/30/2018 00:16:27
00015 suncat0066 pw.x -in pw.inp   Done                     12/30/2018 00:16:27
00016 suncat0061 pw.x -in pw.inp   Done                     12/30/2018 00:16:27
00017 suncat0061 pw.x -in pw.inp   Done                     12/30/2018 00:16:27
00018 suncat0061 pw.x -in pw.inp   Done                     12/30/2018 00:16:27
00019 suncat0061 pw.x -in pw.inp   Done                     12/30/2018 00:16:27
00020 suncat0061 pw.x -in pw.inp   Done                     12/30/2018 00:16:27
00021 suncat0061 pw.x -in pw.inp   Done                     12/30/2018 00:16:27
00022 suncat0061 pw.x -in pw.inp   Done                     12/30/2018 00:16:27
00023 suncat0061 pw.x -in pw.inp   Done                     12/30/2018 00:16:27
00024 suncat0057 pw.x -in pw.inp   Done                     12/30/2018 00:16:27
00025 suncat0057 pw.x -in pw.inp   Done                     12/30/2018 00:16:27
00026 suncat0057 pw.x -in pw.inp   Done                     12/30/2018 00:16:27
00027 suncat0057 pw.x -in pw.inp   Done                     12/30/2018 00:16:27
00028 suncat0057 pw.x -in pw.inp   Done                     12/30/2018 00:16:27
00029 suncat0057 pw.x -in pw.inp   Done                     12/30/2018 00:16:27
00030 suncat0057 pw.x -in pw.inp   Done                     12/30/2018 00:16:27
00031 suncat0057 pw.x -in pw.inp   Done                     12/30/2018 00:16:27
00032 suncat0106 pw.x -in pw.inp   Done                     12/30/2018 00:16:27
00033 suncat0106 pw.x -in pw.inp   Done                     12/30/2018 00:16:27
00034 suncat0106 pw.x -in pw.inp   Done                     12/30/2018 00:16:27
00035 suncat0106 pw.x -in pw.inp   Done                     12/30/2018 00:16:27
00036 suncat0106 pw.x -in pw.inp   Done                     12/30/2018 00:16:27
00037 suncat0106 pw.x -in pw.inp   Done                     12/30/2018 00:16:27
00038 suncat0106 pw.x -in pw.inp   Done                     12/30/2018 00:16:27
00039 suncat0106 pw.x -in pw.inp   Done                     12/30/2018 00:16:27
00040 suncat0105 pw.x -in pw.inp   Done                     12/30/2018 00:16:27
00041 suncat0105 pw.x -in pw.inp   Done                     12/30/2018 00:16:27
00042 suncat0105 pw.x -in pw.inp   Done                     12/30/2018 00:16:27
00043 suncat0105 pw.x -in pw.inp   Done                     12/30/2018 00:16:27
00044 suncat0105 pw.x -in pw.inp   Done                     12/30/2018 00:16:27
00045 suncat0105 pw.x -in pw.inp   Done                     12/30/2018 00:16:27
00046 suncat0105 pw.x -in pw.inp   Done                     12/30/2018 00:16:27
00047 suncat0105 pw.x -in pw.inp   Done                     12/30/2018 00:16:27
00048 suncat0277 pw.x -in pw.inp   Done                     12/30/2018 00:16:27
00049 suncat0277 pw.x -in pw.inp   Done                     12/30/2018 00:16:27
00050 suncat0277 pw.x -in pw.inp   Done                     12/30/2018 00:16:27
00051 suncat0277 pw.x -in pw.inp   Done                     12/30/2018 00:16:27
00052 suncat0277 pw.x -in pw.inp   Done                     12/30/2018 00:16:27
00053 suncat0277 pw.x -in pw.inp   Done                     12/30/2018 00:16:27
00054 suncat0277 pw.x -in pw.inp   Done                     12/30/2018 00:16:27
00055 suncat0277 pw.x -in pw.inp   Done                     12/30/2018 00:16:27
00056 suncat0276 pw.x -in pw.inp   Done                     12/30/2018 00:16:27
00057 suncat0276 pw.x -in pw.inp   Done                     12/30/2018 00:16:27
00058 suncat0276 pw.x -in pw.inp   Done                     12/30/2018 00:16:27
00059 suncat0276 pw.x -in pw.inp   Done                     12/30/2018 00:16:27
00060 suncat0276 pw.x -in pw.inp   Done                     12/30/2018 00:16:27
00061 suncat0276 pw.x -in pw.inp   Done                     12/30/2018 00:16:27
00062 suncat0276 pw.x -in pw.inp   Done                     12/30/2018 00:16:27
00063 suncat0276 pw.x -in pw.inp   Done                     12/30/2018 00:16:27