     Program PWSCF v.5.1rc2 (svn rev. 11289) starts on  1Jan2019 at 13:58:57

     Current dimensions of program PWSCF are:
     Max number of different atomic species (ntypx) = 10
     Max number of k-points (npk) =  40000
     Max angular momentum in pseudopotentials (lmaxx) =  3
     Presently stress not available with electric field

     IMPORTANT: XC functional enforced from input :
     Exchange-correlation      = BEEF-VDW ( 1  4 27 13 2)
     Any further DFT definition will be discarded
     Please, verify this is what you really want

     Subspace diagonalization in iterative solution of the eigenvalue problem:
     a serial algorithm will be used

     bravais-lattice index     =            0
     lattice parameter (alat)  =       1.8897  a.u.
     unit-cell volume          =    5828.1440 (a.u.)^3
     number of atoms/cell      =           12
     number of atomic types    =            2
     number of electrons       =       171.00
     number of Kohn-Sham states=          115
     kinetic-energy cutoff     =      36.7493  Ry
     charge density cutoff     =     367.4932  Ry
     convergence threshold     =      1.0E-06
     mixing beta               =       0.1000
     number of iterations used =           10  plain     mixing
     Exchange-correlation      = BEEF-VDW ( 1  4 27 13 2)
     nstep                     =           50

     celldm(1)=   1.889726  celldm(2)=   0.000000  celldm(3)=   0.000000
     celldm(4)=   0.000000  celldm(5)=   0.000000  celldm(6)=   0.000000

     crystal axes: (cart. coord. in units of alat)
               a(1) = (   6.297953   0.000000   0.000000 )
               a(2) = (  -3.148976   5.454187   0.000000 )
               a(3) = (   0.000000   0.000000  25.142257 )

     reciprocal axes: (cart. coord. in units 2 pi/alat)
               b(1) = (  0.158782  0.091673  0.000000 )
               b(2) = (  0.000000  0.183345  0.000000 )
               b(3) = (  0.000000  0.000000  0.039774 )

     PseudoPot. # 1 for Sn read from file:
     /afs/slac.stanford.edu/u/if/mamunm/psp/gbrv1.5pbe/Sn.UPF
     MD5 check sum: 469debedee59599fedebd795477fea03
     Pseudo is Ultrasoft + core correction, Zval = 14.0
     Generated by new atomic code, or converted to UPF format
     Using radial grid of  891 points,  6 beta functions with:
                l(1) =   0
                l(2) =   0
                l(3) =   1
                l(4) =   1
                l(5) =   2
                l(6) =   2
     Q(r) pseudized with  8 coefficients,  rinner =    1.350   1.350   1.350
                                                       1.350   1.350

     PseudoPot. # 2 for Re read from file:
     /afs/slac.stanford.edu/u/if/mamunm/psp/gbrv1.5pbe/Re.UPF
     MD5 check sum: 85f993410f3e006da9d71c142b4ad953
     Pseudo is Ultrasoft + core correction, Zval = 15.0
     Generated by new atomic code, or converted to UPF format
     Using radial grid of  981 points,  8 beta functions with:
                l(1) =   0
                l(2) =   0
                l(3) =   1
                l(4) =   1
                l(5) =   2
                l(6) =   2
                l(7) =   3
                l(8) =   3
     Q(r) pseudized with  8 coefficients,  rinner =    1.150   1.150   1.150
                                                       1.150   1.150   1.150
                                                       1.150

     vdW kernel table read from file vdW_kernel_table
     MD5 check sum: 095c7af220d748ca6e76c0b4c6cfb241

     atomic species   valence    mass     pseudopotential
        Sn1           14.00   118.71000     Sn( 1.00)
        Re1           15.00   186.20700     Re( 1.00)

     No symmetry found

   Cartesian axes

     site n.     atom                  positions (alat units)
         1           Sn1 tau(   1) = (   0.0000000   0.0000000  10.0000000  )
         2           Sn1 tau(   2) = (  -1.5744882   2.7270935  10.0000000  )
         3           Sn1 tau(   3) = (   1.5744882   2.7270935  10.0000000  )
         4           Re1 tau(   4) = (   3.1489763   0.0000000  10.0000000  )
         5           Sn1 tau(   5) = (   3.1489763   1.8180623  12.5711284  )
         6           Sn1 tau(   6) = (   1.5744882   4.5451558  12.5711284  )
         7           Sn1 tau(   7) = (  -1.5744882   4.5451558  12.5711284  )
         8           Re1 tau(   8) = (   0.0000000   1.8180623  12.5711284  )
         9           Sn1 tau(   9) = (  -0.0000000   3.6361247  15.1422568  )
        10           Sn1 tau(  10) = (   1.5744882   0.9090312  15.1422568  )
        11           Sn1 tau(  11) = (   4.7234645   0.9090312  15.1422568  )
        12           Re1 tau(  12) = (   3.1489763   3.6361247  15.1422568  )

     number of k points=    20  Fermi-Dirac smearing, width (Ry)=  0.0110
                       cart. coord. in units 2pi/alat
        k(    1) = (   0.0000000   0.0000000   0.0000000), wk =   0.0555556
        k(    2) = (   0.0000000   0.0305576   0.0000000), wk =   0.1111111
        k(    3) = (   0.0000000   0.0611151   0.0000000), wk =   0.1111111
        k(    4) = (   0.0000000  -0.0916727   0.0000000), wk =   0.0555556
        k(    5) = (   0.0264636   0.0152788   0.0000000), wk =   0.1111111
        k(    6) = (   0.0264636   0.0458363   0.0000000), wk =   0.1111111
        k(    7) = (   0.0264636   0.0763939   0.0000000), wk =   0.1111111
        k(    8) = (   0.0264636  -0.0763939   0.0000000), wk =   0.1111111
        k(    9) = (   0.0264636  -0.0458363   0.0000000), wk =   0.1111111
        k(   10) = (   0.0264636  -0.0152788   0.0000000), wk =   0.1111111
        k(   11) = (   0.0529273   0.0305576   0.0000000), wk =   0.1111111
        k(   12) = (   0.0529273   0.0611151   0.0000000), wk =   0.1111111
        k(   13) = (   0.0529273   0.0916727   0.0000000), wk =   0.1111111
        k(   14) = (   0.0529273  -0.0611151   0.0000000), wk =   0.1111111
        k(   15) = (   0.0529273  -0.0305576   0.0000000), wk =   0.1111111
        k(   16) = (   0.0529273   0.0000000   0.0000000), wk =   0.1111111
        k(   17) = (  -0.0793909  -0.0458363   0.0000000), wk =   0.0555556
        k(   18) = (  -0.0793909  -0.0152788   0.0000000), wk =   0.1111111
        k(   19) = (  -0.0793909   0.0152788   0.0000000), wk =   0.1111111
        k(   20) = (  -0.0793909  -0.1375090   0.0000000), wk =   0.0555556

     Largest allocated arrays     est. size (Mb)     dimensions
     Largest temporary arrays     est. size (Mb)     dimensions

     Initial potential from superposition of free atoms
     Check: negative starting charge=   -0.391068

     starting charge  160.49946, renormalised to  171.00000

     negative rho (up, down):  4.167E-01 0.000E+00

     *
     * You are using vdW-DF for exchange-correlation in this calculation.
     * Please cite the following three references that made this development
     * possible:
     *
     *   M. Dion, H. Rydberg, E. Schroder, D. C. Langreth, and
     *   B. I. Lundqvist, Phys. Rev. Lett. 92, 246401 (2004).
     *
     *   T. Thonhauser, V. R. Cooper, S. Li, A. Puzder, P. Hyldgaard, and
     *   D. C. Langreth, Phys. Rev. B 76, 125112 (2007).
     *
     *   G. Roman-Perez and J. M. Soler, Phys. Rev. Lett. 103, 096102 (2009).
     *
     *
     * If you are using vdW-DF2, please also cite:
     *
     *   K. Lee, E. D. Murray, L. Kong, B. I. Lundqvist, and
     *   D. C. Langreth, Phys. Rev. B 82, 081101(R) (2010).
     *
     *
     * If you are calculating the stress with vdW-DF, please also cite:
     *
     *   R. Sabatini, E. Kucukbenli, B. Kolb, T. Thonhauser, and
     *   S. de Gironcoli, J. Phys.: Condens. Matter 24, 424209 (2012).
     *

     Carrying out vdW-DF run using the following parameters:

     Nqs =      20    Nr_points =    1024   r_max =   100.000
     q_mesh =
               0.00001000     0.04494208     0.09755937     0.15916263
               0.23128650     0.31572767     0.41458969     0.53033537
               0.66584808     0.82450364     1.01025438     1.22772762
               1.48234092     1.78043706     2.12944203     2.53805004
               3.01644009     3.57652955     4.23227104     5.00000000

     Gradients computed in reciprocal space

     Adding external electric field

     Computed dipole along edir(3) :
        Dipole                0.0000 Ry au,          0.0000 Debye
        Dipole field          0.0000 Ry au

        Potential amp.       -0.0000 Ry
        Total length         46.3242 bohr

     Starting wfc are  120 randomized atomic wfcs

     Self-consistent Calculation

     iteration #  1     ecut=    36.75 Ry     beta=0.10
     Davidson diagonalization with overlap
     ethr =  1.00E-02,  avg # of iterations =  8.9

[...]

     total energy              =   -2023.86287085 Ry
     Harris-Foulkes estimate   =   -2025.77578670 Ry
     estimated scf accuracy    <      11.38702906 Ry

[...]

     End of self-consistent calculation

          k = 0.0000 0.0000 0.0000 ( 21955 PWs)   bands (ev):

   -78.7157 -78.7157 -78.6890 -40.4653 -40.4652 -40.4652 -40.4652 -40.4470
   -40.4470 -40.3387 -40.3386 -40.2885 -20.8873 -20.8509 -20.8509 -20.8334
   -20.7547 -20.7493 -20.7424 -20.7424 -20.7103 -20.7103 -20.6931 -20.6931
   -20.6793 -20.6778 -20.6617 -20.6460 -20.6460 -20.6353 -20.6353 -20.6154
   -20.5841 -20.5841 -20.5818 -20.5818 -20.5581 -20.5427 -20.5427 -20.5424
   -20.5211 -20.5211 -20.5048 -20.5008 -20.4902 -20.4902 -20.4827 -20.4827
   -20.4772 -20.4772 -20.4758 -20.4758 -20.4496 -20.4496 -20.4446 -20.3815
   -20.3812  -9.9416  -8.5049  -6.6688  -5.6782  -5.6782  -4.9012  -4.9012
    -3.8997  -3.8997  -3.7614  -3.1062  -2.5244  -2.2320  -2.2320  -1.8531
    -0.7719  -0.7719  -0.7045  -0.7045  -0.6428   0.3997   0.3997   0.4439
     0.4439   0.7921   1.0726   1.1022   1.1022   1.1346   1.4901   1.4901
     1.4902   1.5288   1.5288   1.8425   2.0298   2.0298   3.2348   3.9384
     3.9384   4.1860   4.1860   4.4998   4.6781   4.7134   4.8373   5.3498
     5.9771   5.9771   6.0037   6.0890   6.2463   6.8790   6.8790   7.0659
     7.5266   7.8036   7.8036

[...]

          k =-0.0794-0.0458 0.0000 ( 21884 PWs)   bands (ev):

[...]

     the Fermi energy is     1.3384 ev

!    total energy              =   -2022.07829747 Ry
     Harris-Foulkes estimate   =   -2022.07972941 Ry
     estimated scf accuracy    <       0.00000034 Ry

     The total energy is the sum of the following terms:

     one-electron contribution =  -12314.91956322 Ry
     hartree contribution      =    6202.07805594 Ry
     xc contribution           =    -562.82011345 Ry
     ewald contribution        =    4653.66402477 Ry
     electric field correction =       0.00000000 Ry
     smearing contrib. (-TS)   =      -0.08070152 Ry

     convergence has been achieved in  17 iterations

 BEEF-vdW xc energy contributions
           1 :   -496.309613248867
           2 :    456.483044222249
           3 :   -387.879725684392
           4 :    307.952744468487
           5 :   -233.854734128927
           6 :    176.725463088119
           7 :   -139.221820262524
           8 :    116.873650399139
           9 :   -102.097946017994
          10 :    88.5860522222711
          11 :   -73.9220803994314
[...]
     MD5 check sum: 469debedee59599fedebd795477fea03
     Pseudo is Ultrasoft + core correction, Zval = 14.0
     Generated by new atomic code, or converted to UPF format
     Using radial grid of  891 points,  6 beta functions with:
                l(1) =   0
                l(2) =   0
                l(3) =   1
                l(4) =   1
                l(5) =   2
                l(6) =   2
     Q(r) pseudized with  8 coefficients,  rinner =    1.350   1.350   1.350
                                                       1.350   1.350

     PseudoPot. # 2 for Re read from file:
     /afs/slac.stanford.edu/u/if/mamunm/psp/gbrv1.5pbe/Re.UPF
     MD5 check sum: 85f993410f3e006da9d71c142b4ad953
     Pseudo is Ultrasoft + core correction, Zval = 15.0
     Generated by new atomic code, or converted to UPF format
     Using radial grid of  981 points,  8 beta functions with:
                l(1) =   0
                l(2) =   0
                l(3) =   1
                l(4) =   1
                l(5) =   2
                l(6) =   2
                l(7) =   3
                l(8) =   3
     Q(r) pseudized with  8 coefficients,  rinner =    1.150   1.150   1.150
                                                       1.150   1.150   1.150
                                                       1.150

     vdW kernel table read from file vdW_kernel_table
     MD5 check sum: 095c7af220d748ca6e76c0b4c6cfb241

     atomic species   valence    mass     pseudopotential
        Sn1           14.00   118.71000     Sn( 1.00)
        Re1           15.00   186.20700     Re( 1.00)

     No symmetry found

   Cartesian axes

     site n.     atom                  positions (alat units)
         1           Sn1 tau(   1) = (   0.0000000   0.0000000  10.0000000  )
         2           Sn1 tau(   2) = (  -1.5744882   2.7270935  10.0000000  )
         3           Sn1 tau(   3) = (   1.5744882   2.7270935  10.0000000  )
         4           Re1 tau(   4) = (   3.1489763   0.0000000  10.0000000  )
         5           Sn1 tau(   5) = (   3.1489763   1.8180623  12.5711284  )
         6           Sn1 tau(   6) = (   1.5744882   4.5451558  12.5711284  )
         7           Sn1 tau(   7) = (  -1.5744882   4.5451558  12.5711284  )
         8           Re1 tau(   8) = (   0.0000000   1.8180623  12.5711284  )
         9           Sn1 tau(   9) = (   0.0000261   3.5748133  15.2652430  )
        10           Sn1 tau(  10) = (   1.5213688   0.9396667  15.2652188  )
        11           Sn1 tau(  11) = (   4.7765397   0.9396906  15.2652076  )
        12           Re1 tau(  12) = (   3.1489557   3.6361415  14.5857943  )

     number of k points=    20  Fermi-Dirac smearing, width (Ry)=  0.0110
                       cart. coord. in units 2pi/alat
        k(    1) = (   0.0000000   0.0000000   0.0000000), wk =   0.0555556
        k(    2) = (   0.0000000   0.0305576   0.0000000), wk =   0.1111111
        k(    3) = (   0.0000000   0.0611151   0.0000000), wk =   0.1111111
        k(    4) = (   0.0000000  -0.0916727   0.0000000), wk =   0.0555556
        k(    5) = (   0.0264636   0.0152788   0.0000000), wk =   0.1111111
        k(    6) = (   0.0264636   0.0458363   0.0000000), wk =   0.1111111
        k(    7) = (   0.0264636   0.0763939   0.0000000), wk =   0.1111111
        k(    8) = (   0.0264636  -0.0763939   0.0000000), wk =   0.1111111
        k(    9) = (   0.0264636  -0.0458363   0.0000000), wk =   0.1111111
        k(   10) = (   0.0264636  -0.0152788   0.0000000), wk =   0.1111111
        k(   11) = (   0.0529273   0.0305576   0.0000000), wk =   0.1111111
        k(   12) = (   0.0529273   0.0611151   0.0000000), wk =   0.1111111
        k(   13) = (   0.0529273   0.0916727   0.0000000), wk =   0.1111111
        k(   14) = (   0.0529273  -0.0611151   0.0000000), wk =   0.1111111
        k(   15) = (   0.0529273  -0.0305576   0.0000000), wk =   0.1111111
        k(   16) = (   0.0529273   0.0000000   0.0000000), wk =   0.1111111
        k(   17) = (  -0.0793909  -0.0458363   0.0000000), wk =   0.0555556
        k(   18) = (  -0.0793909  -0.0152788   0.0000000), wk =   0.1111111
        k(   19) = (  -0.0793909   0.0152788   0.0000000), wk =   0.1111111
        k(   20) = (  -0.0793909  -0.1375090   0.0000000), wk =   0.0555556

     Largest allocated arrays     est. size (Mb)     dimensions
     Largest temporary arrays     est. size (Mb)     dimensions

     Initial potential from superposition of free atoms
     Check: negative starting charge=   -0.391619

     starting charge  160.49946, renormalised to  171.00000

[...]

     *
     * You are using vdW-DF for exchange-correlation in this calculation.
     * Please cite the following three references that made this development
     * possible:
     *
     *   M. Dion, H. Rydberg, E. Schroder, D. C. Langreth, and
     *   B. I. Lundqvist, Phys. Rev. Lett. 92, 246401 (2004).
     *
     *   T. Thonhauser, V. R. Cooper, S. Li, A. Puzder, P. Hyldgaard, and
     *   D. C. Langreth, Phys. Rev. B 76, 125112 (2007).
     *
     *   G. Roman-Perez and J. M. Soler, Phys. Rev. Lett. 103, 096102 (2009).
     *
     *
     * If you are using vdW-DF2, please also cite:
     *
     *   K. Lee, E. D. Murray, L. Kong, B. I. Lundqvist, and
     *   D. C. Langreth, Phys. Rev. B 82, 081101(R) (2010).
     *
     *
     * If you are calculating the stress with vdW-DF, please also cite:
     *
     *   R. Sabatini, E. Kucukbenli, B. Kolb, T. Thonhauser, and
     *   S. de Gironcoli, J. Phys.: Condens. Matter 24, 424209 (2012).
     *

     Carrying out vdW-DF run using the following parameters:

     Nqs =      20    Nr_points =    1024   r_max =   100.000
     q_mesh =
               0.00001000     0.04494208     0.09755937     0.15916263
               0.23128650     0.31572767     0.41458969     0.53033537
               0.66584808     0.82450364     1.01025438     1.22772762
               1.48234092     1.78043706     2.12944203     2.53805004
               3.01644009     3.57652955     4.23227104     5.00000000

     Gradients computed in reciprocal space

[...]

     Starting wfc are  120 randomized atomic wfcs

     Self-consistent Calculation

[...]

     total energy              =   -2022.13436093 Ry
     Harris-Foulkes estimate   =   -2022.13436078 Ry
     estimated scf accuracy    <       0.00000192 Ry

     iteration # 19     ecut=    36.75 Ry     beta=0.10
     Davidson diagonalization with overlap
     ethr =  1.12E-09,  avg # of iterations =  2.0

[...]

     negative rho (up, down):  3.766E-01 0.000E+00

     Adding external electric field

     Computed dipole along edir(3) :
        Dipole                0.0707 Ry au,          0.1798 Debye
        Dipole field          0.0002 Ry au

        Potential amp.       -0.0141 Ry
        Total length         46.3242 bohr

     End of self-consistent calculation

[...]

          k = 0.0529 0.0000 0.0000 ( 21963 PWs)   bands (ev):

[...]

          k =-0.0794-0.1375 0.0000 ( 21884 PWs)   bands (ev):

   -78.7858 -78.7075 -78.6361 -40.5175 -40.5174 -40.4439 -40.4439 -40.4312
   -40.3964 -40.3964 -40.3712 -40.3412 -20.8576 -20.7946 -20.7724 -20.7619
   -20.7554 -20.7311 -20.7283 -20.7239 -20.6852 -20.6615 -20.6561 -20.6479
   -20.6304 -20.6295 -20.6225 -20.5948 -20.5762 -20.5744 -20.5687 -20.5638
   -20.5516 -20.5461 -20.5345 -20.5336 -20.5177 -20.5088 -20.5055 -20.5049
   -20.4931 -20.4826 -20.4804 -20.4746 -20.4719 -20.4680 -20.4680 -20.4588
   -20.4542 -20.4451 -20.4435 -20.4367 -20.4319 -20.4300 -20.4198 -20.3938
   -20.3661  -8.8118  -8.3932  -7.2510  -6.9661  -6.2140  -6.1026  -5.4011
    -4.7858  -3.6900  -3.4250  -3.0346  -2.1226  -1.4566  -1.2910  -1.0353
    -1.0128  -0.9647  -0.3875  -0.3054  -0.0610   0.0323   0.5046   0.7828
     0.8696   0.9395   0.9765   1.1673   1.1945   1.2968   1.6320   1.7130
     1.8904   1.9365   2.2089   2.6039   2.6578   3.0819   3.1200   3.2931
     3.6688   3.8374   4.2522   4.3412   4.4280   5.0806   5.1256   5.5491
     5.7847   5.9765   6.1197   6.1954   6.2393   6.3112   6.5947   6.8127
     6.9113   6.9340   7.0207

     the Fermi energy is     1.3478 ev

!    total energy              =   -2022.13436161 Ry
     Harris-Foulkes estimate   =   -2022.13436076 Ry
     estimated scf accuracy    <       0.00000063 Ry

     The total energy is the sum of the following terms:

     one-electron contribution =  -12393.42314243 Ry
     hartree contribution      =    6241.42389909 Ry
     xc contribution           =    -562.93362932 Ry
     ewald contribution        =    4692.87066496 Ry
     electric field correction =       0.00001079 Ry
     smearing contrib. (-TS)   =      -0.07216469 Ry

     convergence has been achieved in  19 iterations

 BEEF-vdW xc energy contributions
           1 :   -496.468307796576
           2 :    456.679071258242
           3 :   -388.121814217512
           4 :    308.206221970811
           5 :   -234.053029713739
           6 :    176.805084603694
           7 :   -139.158305222514
           8 :    116.697748800713
           9 :   -101.883233206434
          10 :    88.4144132784068
          11 :   -73.8449456128930
          12 :    59.5127397893164
          13 :   -48.4086476915911
          14 :    42.5854663779093
          15 :   -41.6801307625484
          16 :    43.2065188477216
          17 :   -44.1476420756784
          18 :    42.6838471632092
          19 :   -38.9926436397305
          20 :    34.7563899474833
          21 :   -31.8482166402795
          22 :    31.1050290061063
          23 :   -31.9328852364947
          24 :    32.8760821095045
          25 :   -32.6657779107427
          26 :    31.0189391818833
          27 :   -28.7063157682996
          28 :    26.9260025367348
          29 :   -26.4639875893390
          30 :    27.2080249913025
          31 :   -42.7204309755012
          32 :   -31.2887394971368

     Forces acting on atoms (Ry/au):

     negative rho (up, down):  3.766E-01 0.000E+00
     atom    1 type  1   force =     0.00000407    0.02376202   -0.01084555
     atom    2 type  1   force =     0.02058013   -0.01188036   -0.01083441
     atom    3 type  1   force =    -0.02057854   -0.01188434   -0.01083162
     atom    4 type  2   force =    -0.00000223    0.00000018    0.07209948
     atom    5 type  1   force =     0.00000384   -0.03086499   -0.01671239
     atom    6 type  1   force =    -0.02672889    0.01543185   -0.01671978
     atom    7 type  1   force =     0.02672779    0.01543548   -0.01670687
     atom    8 type  2   force =     0.00000592    0.00000221    0.00660148
     atom    9 type  1   force =    -0.00001230   -0.00027063    0.00129415
     atom   10 type  1   force =    -0.00023491    0.00013031    0.00129269
     atom   11 type  1   force =     0.00023010    0.00014214    0.00131243
     atom   12 type  2   force =     0.00000501   -0.00000386    0.00005038

     Total force =     0.104830     Total SCF correction =     0.002492

     entering subroutine stress ...

     negative rho (up, down):  3.766E-01 0.000E+00
          total   stress  (Ry/bohr**3)                   (kbar)     P=  -10.82
  -0.00008678   0.00000000   0.00000000        -12.77      0.00      0.00
   0.00000000  -0.00008677  -0.00000000          0.00    -12.76     -0.00
   0.00000000  -0.00000000  -0.00004720          0.00     -0.00     -6.94

 !ASE

     Writing output data file calc.save

     General routines

     Parallel routines

   This run was terminated on:  17:40:22   1Jan2019

   JOB DONE.
Job  /afs/slac/g/suncat/bin/suncat-tsmpirun -x LD_LIBRARY_PATH -wdir /scratch/qe649050_mGEk7 pw.x -in pw.inp

TID   HOST_NAME   COMMAND_LINE            STATUS            TERMINATION_TIME
00000 suncat0146 pw.x -in pw.inp   Done                     01/01/2019 17:40:22
00001 suncat0146 pw.x -in pw.inp   Done                     01/01/2019 17:40:22
00002 suncat0146 pw.x -in pw.inp   Done                     01/01/2019 17:40:22
00003 suncat0146 pw.x -in pw.inp   Done                     01/01/2019 17:40:22
00004 suncat0146 pw.x -in pw.inp   Done                     01/01/2019 17:40:22
00005 suncat0146 pw.x -in pw.inp   Done                     01/01/2019 17:40:22
00006 suncat0146 pw.x -in pw.inp   Done                     01/01/2019 17:40:22
00007 suncat0146 pw.x -in pw.inp   Done                     01/01/2019 17:40:22
00008 suncat0136 pw.x -in pw.inp   Done                     01/01/2019 17:40:22
00009 suncat0136 pw.x -in pw.inp   Done                     01/01/2019 17:40:22
00010 suncat0136 pw.x -in pw.inp   Done                     01/01/2019 17:40:22
00011 suncat0136 pw.x -in pw.inp   Done                     01/01/2019 17:40:22
00012 suncat0136 pw.x -in pw.inp   Done                     01/01/2019 17:40:22
00013 suncat0136 pw.x -in pw.inp   Done                     01/01/2019 17:40:22
00014 suncat0136 pw.x -in pw.inp   Done                     01/01/2019 17:40:22
00015 suncat0136 pw.x -in pw.inp   Done                     01/01/2019 17:40:22
00016 suncat0248 pw.x -in pw.inp   Done                     01/01/2019 17:40:22
00017 suncat0248 pw.x -in pw.inp   Done                     01/01/2019 17:40:22
00018 suncat0248 pw.x -in pw.inp   Done                     01/01/2019 17:40:22
00019 suncat0248 pw.x -in pw.inp   Done                     01/01/2019 17:40:22
00020 suncat0248 pw.x -in pw.inp   Done                     01/01/2019 17:40:22
00021 suncat0248 pw.x -in pw.inp   Done                     01/01/2019 17:40:22
00022 suncat0248 pw.x -in pw.inp   Done                     01/01/2019 17:40:22
00023 suncat0248 pw.x -in pw.inp   Done                     01/01/2019 17:40:22
00024 suncat0247 pw.x -in pw.inp   Done                     01/01/2019 17:40:22
00025 suncat0247 pw.x -in pw.inp   Done                     01/01/2019 17:40:22
00026 suncat0247 pw.x -in pw.inp   Done                     01/01/2019 17:40:22
00027 suncat0247 pw.x -in pw.inp   Done                     01/01/2019 17:40:22
00028 suncat0247 pw.x -in pw.inp   Done                     01/01/2019 17:40:22
00029 suncat0247 pw.x -in pw.inp   Done                     01/01/2019 17:40:22
00030 suncat0247 pw.x -in pw.inp   Done                     01/01/2019 17:40:22
00031 suncat0247 pw.x -in pw.inp   Done                     01/01/2019 17:40:22
00032 suncat0246 pw.x -in pw.inp   Done                     01/01/2019 17:40:22
00033 suncat0246 pw.x -in pw.inp   Done                     01/01/2019 17:40:22
00034 suncat0246 pw.x -in pw.inp   Done                     01/01/2019 17:40:22
00035 suncat0246 pw.x -in pw.inp   Done                     01/01/2019 17:40:22
00036 suncat0246 pw.x -in pw.inp   Done                     01/01/2019 17:40:22
00037 suncat0246 pw.x -in pw.inp   Done                     01/01/2019 17:40:22
00038 suncat0246 pw.x -in pw.inp   Done                     01/01/2019 17:40:22
00039 suncat0246 pw.x -in pw.inp   Done                     01/01/2019 17:40:22
00040 suncat0245 pw.x -in pw.inp   Done                     01/01/2019 17:40:22
00041 suncat0245 pw.x -in pw.inp   Done                     01/01/2019 17:40:22
00042 suncat0245 pw.x -in pw.inp   Done                     01/01/2019 17:40:22
00043 suncat0245 pw.x -in pw.inp   Done                     01/01/2019 17:40:22
00044 suncat0245 pw.x -in pw.inp   Done                     01/01/2019 17:40:22
00045 suncat0245 pw.x -in pw.inp   Done                     01/01/2019 17:40:22
00046 suncat0245 pw.x -in pw.inp   Done                     01/01/2019 17:40:22
00047 suncat0245 pw.x -in pw.inp   Done                     01/01/2019 17:40:22
00048 suncat0214 pw.x -in pw.inp   Done                     01/01/2019 17:40:22
00049 suncat0214 pw.x -in pw.inp   Done                     01/01/2019 17:40:22
00050 suncat0214 pw.x -in pw.inp   Done                     01/01/2019 17:40:22
00051 suncat0214 pw.x -in pw.inp   Done                     01/01/2019 17:40:22
00052 suncat0214 pw.x -in pw.inp   Done                     01/01/2019 17:40:22
00053 suncat0214 pw.x -in pw.inp   Done                     01/01/2019 17:40:22
00054 suncat0214 pw.x -in pw.inp   Done                     01/01/2019 17:40:22
00055 suncat0214 pw.x -in pw.inp   Done                     01/01/2019 17:40:22
00056 suncat0213 pw.x -in pw.inp   Done                     01/01/2019 17:40:22
00057 suncat0213 pw.x -in pw.inp   Done                     01/01/2019 17:40:22
00058 suncat0213 pw.x -in pw.inp   Done                     01/01/2019 17:40:22
00059 suncat0213 pw.x -in pw.inp   Done                     01/01/2019 17:40:22
00060 suncat0213 pw.x -in pw.inp   Done                     01/01/2019 17:40:22
00061 suncat0213 pw.x -in pw.inp   Done                     01/01/2019 17:40:22
00062 suncat0213 pw.x -in pw.inp   Done                     01/01/2019 17:40:22
00063 suncat0213 pw.x -in pw.inp   Done                     01/01/2019 17:40:22