     Program PWSCF v.5.1rc2 (svn rev. 11289) starts on 19Dec2018 at 15: 7:57

     Current dimensions of program PWSCF are:
     Max number of different atomic species (ntypx) = 10
     Max number of k-points (npk) =  40000
     Max angular momentum in pseudopotentials (lmaxx) =  3
     Presently stress not available with electric field

     IMPORTANT: XC functional enforced from input :
     Exchange-correlation      = BEEF-VDW ( 1  4 27 13 2)
     Any further DFT definition will be discarded
     Please, verify this is what you really want

     Subspace diagonalization in iterative solution of the eigenvalue problem:
     a serial algorithm will be used

     bravais-lattice index     =            0
     lattice parameter (alat)  =       1.8897  a.u.
     unit-cell volume          =    5085.6704 (a.u.)^3
     number of atoms/cell      =           12
     number of atomic types    =            2
     number of electrons       =       204.00
     number of Kohn-Sham states=          132
     kinetic-energy cutoff     =      36.7493  Ry
     charge density cutoff     =     367.4932  Ry
     convergence threshold     =      1.0E-06
     mixing beta               =       0.1000
     number of iterations used =           10  plain     mixing
     Exchange-correlation      = BEEF-VDW ( 1  4 27 13 2)
     nstep                     =           50

     celldm(1)=   1.889726  celldm(2)=   0.000000  celldm(3)=   0.000000
     celldm(4)=   0.000000  celldm(5)=   0.000000  celldm(6)=   0.000000

     crystal axes: (cart. coord. in units of alat)
               a(1) = (   5.919608   0.000000   0.000000 )
               a(2) = (  -2.959804   5.126531   0.000000 )
               a(3) = (   0.000000   0.000000  24.833339 )

     reciprocal axes: (cart. coord. in units 2 pi/alat)
               b(1) = (  0.168930  0.097532  0.000000 )
               b(2) = (  0.000000  0.195064  0.000000 )
               b(3) = (  0.000000  0.000000  0.040268 )

     PseudoPot. # 1 for Ag read from file:
     /afs/slac.stanford.edu/u/if/mamunm/psp/gbrv1.5pbe/Ag.UPF
     MD5 check sum: d66d668201baa78d5eb5b04ef7011058
     Pseudo is Ultrasoft + core correction, Zval = 19.0
     Generated by new atomic code, or converted to UPF format
     Using radial grid of  887 points,  6 beta functions with:
                l(1) =   0
                l(2) =   0
                l(3) =   1
                l(4) =   1
                l(5) =   2
                l(6) =   2
     Q(r) pseudized with  6 coefficients,  rinner =    1.300   1.300   1.300
                                                       1.300   1.300

     PseudoPot. # 2 for Au read from file:
     /afs/slac.stanford.edu/u/if/mamunm/psp/gbrv1.5pbe/Au.UPF
     MD5 check sum: 9d7f43293ad2c663164586bc4b293ffc
     Pseudo is Ultrasoft + core correction, Zval = 11.0
     Generated by new atomic code, or converted to UPF format
     Using radial grid of  985 points,  7 beta functions with:
                l(1) =   0
                l(2) =   0
                l(3) =   1
                l(4) =   1
                l(5) =   2
                l(6) =   2
                l(7) =   3
     Q(r) pseudized with  6 coefficients,  rinner =    1.900   1.900   1.900
                                                       1.900   1.900   1.900
                                                       1.900

     vdW kernel table read from file vdW_kernel_table
     MD5 check sum: 095c7af220d748ca6e76c0b4c6cfb241

     atomic species   valence    mass     pseudopotential
        Ag1           19.00   107.86820     Ag( 1.00)
        Au1           11.00   196.96657     Au( 1.00)

     No symmetry found

   Cartesian axes

     site n.     atom                  positions (alat units)
         1           Ag1 tau(   1) = (   0.0000000   0.0000000  10.0000000  )
         2           Ag1 tau(   2) = (  -1.4799019   2.5632653  10.0000000  )
         3           Ag1 tau(   3) = (   1.4799019   2.5632653  10.0000000  )
         4           Au1 tau(   4) = (   2.9598039   0.0000000  10.0000000  )
         5           Ag1 tau(   5) = (   2.9598039   1.7088436  12.4166697  )
         6           Ag1 tau(   6) = (   1.4799019   4.2721089  12.4166697  )
         7           Ag1 tau(   7) = (  -1.4799019   4.2721089  12.4166697  )
         8           Au1 tau(   8) = (   0.0000000   1.7088436  12.4166697  )
         9           Ag1 tau(   9) = (  -0.0000000   3.4176871  14.8333394  )
        10           Ag1 tau(  10) = (   1.4799019   0.8544218  14.8333394  )
        11           Ag1 tau(  11) = (   4.4397058   0.8544218  14.8333394  )
        12           Au1 tau(  12) = (   2.9598039   3.4176871  14.8333394  )

     number of k points=    20  Fermi-Dirac smearing, width (Ry)=  0.0110
                       cart. coord. in units 2pi/alat
        k(    1) = (   0.0000000   0.0000000   0.0000000), wk =   0.0555556
        k(    2) = (   0.0000000   0.0325106   0.0000000), wk =   0.1111111
        k(    3) = (   0.0000000   0.0650212   0.0000000), wk =   0.1111111
        k(    4) = (   0.0000000  -0.0975318   0.0000000), wk =   0.0555556
        k(    5) = (   0.0281550   0.0162553   0.0000000), wk =   0.1111111
        k(    6) = (   0.0281550   0.0487659   0.0000000), wk =   0.1111111
        k(    7) = (   0.0281550   0.0812765   0.0000000), wk =   0.1111111
        k(    8) = (   0.0281550  -0.0812765   0.0000000), wk =   0.1111111
        k(    9) = (   0.0281550  -0.0487659   0.0000000), wk =   0.1111111
        k(   10) = (   0.0281550  -0.0162553   0.0000000), wk =   0.1111111
        k(   11) = (   0.0563100   0.0325106   0.0000000), wk =   0.1111111
        k(   12) = (   0.0563100   0.0650212   0.0000000), wk =   0.1111111
        k(   13) = (   0.0563100   0.0975318   0.0000000), wk =   0.1111111
        k(   14) = (   0.0563100  -0.0650212   0.0000000), wk =   0.1111111
        k(   15) = (   0.0563100  -0.0325106   0.0000000), wk =   0.1111111
        k(   16) = (   0.0563100   0.0000000   0.0000000), wk =   0.1111111
        k(   17) = (  -0.0844651  -0.0487659   0.0000000), wk =   0.0555556
        k(   18) = (  -0.0844651  -0.0162553   0.0000000), wk =   0.1111111
        k(   19) = (  -0.0844651   0.0162553   0.0000000), wk =   0.1111111
        k(   20) = (  -0.0844651  -0.1462978   0.0000000), wk =   0.0555556

     Largest allocated arrays     est. size (Mb)     dimensions
     Largest temporary arrays     est. size (Mb)     dimensions

     Check: negative/imaginary core charge=   -0.000002    0.000000

     Initial potential from superposition of free atoms
     Check: negative starting charge=   -0.002054

     starting charge  199.49921, renormalised to  204.00000

     negative rho (up, down):  2.100E-03 0.000E+00

     *
     * You are using vdW-DF for exchange-correlation in this calculation.
     * Please cite the following three references that made this development
     * possible:
     *
     *   M. Dion, H. Rydberg, E. Schroder, D. C. Langreth, and
     *   B. I. Lundqvist, Phys. Rev. Lett. 92, 246401 (2004).
     *
     *   T. Thonhauser, V. R. Cooper, S. Li, A. Puzder, P. Hyldgaard, and
     *   D. C. Langreth, Phys. Rev. B 76, 125112 (2007).
     *
     *   G. Roman-Perez and J. M. Soler, Phys. Rev. Lett. 103, 096102 (2009).
     *
     *
     * If you are using vdW-DF2, please also cite:
     *
     *   K. Lee, E. D. Murray, L. Kong, B. I. Lundqvist, and
     *   D. C. Langreth, Phys. Rev. B 82, 081101(R) (2010).
     *
     *
     * If you are calculating the stress with vdW-DF, please also cite:
     *
     *   R. Sabatini, E. Kucukbenli, B. Kolb, T. Thonhauser, and
     *   S. de Gironcoli, J. Phys.: Condens. Matter 24, 424209 (2012).
     *

     Carrying out vdW-DF run using the following parameters:

     Nqs =      20    Nr_points =    1024   r_max =   100.000
     q_mesh =
               0.00001000     0.04494208     0.09755937     0.15916263
               0.23128650     0.31572767     0.41458969     0.53033537
               0.66584808     0.82450364     1.01025438     1.22772762
               1.48234092     1.78043706     2.12944203     2.53805004
               3.01644009     3.57652955     4.23227104     5.00000000

     Gradients computed in reciprocal space

     Adding external electric field

     Computed dipole along edir(3) :
        Dipole                0.0000 Ry au,          0.0000 Debye
        Dipole field          0.0000 Ry au

        Potential amp.       -0.0000 Ry
        Total length         45.7550 bohr

     Starting wfc are  144 randomized atomic wfcs

     Self-consistent Calculation

     iteration #  1     ecut=    36.75 Ry     beta=0.10
     Davidson diagonalization with overlap
     ethr =  1.00E-02,  avg # of iterations =  7.5

[...]

     total energy              =   -3020.54339947 Ry
     Harris-Foulkes estimate   =   -3021.92574396 Ry
     estimated scf accuracy    <       8.35034150 Ry

[...]

     End of self-consistent calculation

          k = 0.0000 0.0000 0.0000 ( 19171 PWs)   bands (ev):

   -90.9919 -90.9859 -90.9859 -90.7583 -90.7583 -90.7524 -90.7524 -90.7523
   -90.7523 -54.5529 -54.5114 -54.5114 -54.4845 -54.4818 -54.4818 -54.4645
   -54.4573 -54.4573 -54.3193 -54.3181 -54.2757 -54.2757 -54.2741 -54.2741
   -54.2401 -54.2380 -54.2380 -54.2368 -54.2367 -54.2367 -54.2301 -54.2298
   -54.2259 -54.2259 -54.2249 -54.2249  -6.0274  -5.0414  -4.8951  -4.8712
    -4.8533  -4.8533  -4.7282  -4.6788  -4.6788  -4.5977  -4.5434  -4.5434
    -4.4084  -4.3438  -4.3438  -3.7660  -3.6748  -3.6748  -3.6220  -3.6220
    -3.6152  -3.5297  -3.5208  -3.5208  -3.3522  -3.3174  -3.3174  -3.2283
    -3.2283  -3.1791  -3.1791  -2.9076  -2.7810  -2.7810  -2.6431  -2.6038
    -2.6038  -2.5518  -2.5518  -2.3826  -2.3636  -2.3636  -2.1728  -2.1274
    -2.0713  -2.0713  -2.0426  -1.9960  -1.9960  -1.8565  -1.8565  -1.8190
    -1.8026  -1.6971  -1.6971  -1.5994  -1.5994  -1.5251  -1.3930  -1.3930
    -1.3206  -1.3206  -0.3721   1.5155   1.5555   1.5555   1.6133   2.0829
     2.4363   2.4363   2.5878   2.7986   2.7986   3.8690   4.8507   4.9912
     5.1590   5.1590   5.2519   5.4839   5.7284   5.8459   5.8459   6.5015
     6.6330   6.6330   7.0018   8.7294   8.7467   8.7812   8.9336   8.9938
     8.9938   9.4296   9.4296  10.0458

[...]

          k =-0.0845-0.0488 0.0000 ( 19124 PWs)   bands (ev):

[...]

     the Fermi energy is     0.9917 ev

!    total energy              =   -3020.00854601 Ry
     Harris-Foulkes estimate   =   -3020.00854726 Ry
     estimated scf accuracy    <       0.00000025 Ry

     The total energy is the sum of the following terms:

     one-electron contribution =  -20844.77853282 Ry
     hartree contribution      =   10439.33668829 Ry
     xc contribution           =    -462.86218610 Ry
     ewald contribution        =    7848.31977964 Ry
     electric field correction =       0.00000000 Ry
     smearing contrib. (-TS)   =      -0.02429502 Ry

     convergence has been achieved in  14 iterations

 BEEF-vdW xc energy contributions
           1 :   -406.247002802992
           2 :    372.059374442484
           3 :   -313.529969111155
           4 :    245.966703884135
           5 :   -184.044122744075
[...]
                l(3) =   1
                l(4) =   1
                l(5) =   2
                l(6) =   2
     Q(r) pseudized with  6 coefficients,  rinner =    1.300   1.300   1.300
                                                       1.300   1.300

     PseudoPot. # 2 for Au read from file:
     /afs/slac.stanford.edu/u/if/mamunm/psp/gbrv1.5pbe/Au.UPF
     MD5 check sum: 9d7f43293ad2c663164586bc4b293ffc
     Pseudo is Ultrasoft + core correction, Zval = 11.0
     Generated by new atomic code, or converted to UPF format
     Using radial grid of  985 points,  7 beta functions with:
                l(1) =   0
                l(2) =   0
                l(3) =   1
                l(4) =   1
                l(5) =   2
                l(6) =   2
                l(7) =   3
     Q(r) pseudized with  6 coefficients,  rinner =    1.900   1.900   1.900
                                                       1.900   1.900   1.900
                                                       1.900

     vdW kernel table read from file vdW_kernel_table
     MD5 check sum: 095c7af220d748ca6e76c0b4c6cfb241

     atomic species   valence    mass     pseudopotential
        Ag1           19.00   107.86820     Ag( 1.00)
        Au1           11.00   196.96657     Au( 1.00)

     No symmetry found

   Cartesian axes

     site n.     atom                  positions (alat units)
         1           Ag1 tau(   1) = (   0.0000000   0.0000000  10.0000000  )
         2           Ag1 tau(   2) = (  -1.4799019   2.5632653  10.0000000  )
         3           Ag1 tau(   3) = (   1.4799019   2.5632653  10.0000000  )
         4           Au1 tau(   4) = (   2.9598039   0.0000000  10.0000000  )
         5           Ag1 tau(   5) = (   2.9598039   1.7088436  12.4166697  )
         6           Ag1 tau(   6) = (   1.4799019   4.2721089  12.4166697  )
         7           Ag1 tau(   7) = (  -1.4799019   4.2721089  12.4166697  )
         8           Au1 tau(   8) = (   0.0000000   1.7088436  12.4166697  )
         9           Ag1 tau(   9) = (  -0.0000059   3.4240692  14.8761949  )
        10           Ag1 tau(  10) = (   1.4854335   0.8512324  14.8761938  )
        11           Ag1 tau(  11) = (   4.4341676   0.8512346  14.8761894  )
        12           Au1 tau(  12) = (   2.9598036   3.4176913  14.8531349  )

     number of k points=    20  Fermi-Dirac smearing, width (Ry)=  0.0110
                       cart. coord. in units 2pi/alat
        k(    1) = (   0.0000000   0.0000000   0.0000000), wk =   0.0555556
        k(    2) = (   0.0000000   0.0325106   0.0000000), wk =   0.1111111
        k(    3) = (   0.0000000   0.0650212   0.0000000), wk =   0.1111111
        k(    4) = (   0.0000000  -0.0975318   0.0000000), wk =   0.0555556
        k(    5) = (   0.0281550   0.0162553   0.0000000), wk =   0.1111111
        k(    6) = (   0.0281550   0.0487659   0.0000000), wk =   0.1111111
        k(    7) = (   0.0281550   0.0812765   0.0000000), wk =   0.1111111
        k(    8) = (   0.0281550  -0.0812765   0.0000000), wk =   0.1111111
        k(    9) = (   0.0281550  -0.0487659   0.0000000), wk =   0.1111111
        k(   10) = (   0.0281550  -0.0162553   0.0000000), wk =   0.1111111
        k(   11) = (   0.0563100   0.0325106   0.0000000), wk =   0.1111111
        k(   12) = (   0.0563100   0.0650212   0.0000000), wk =   0.1111111
        k(   13) = (   0.0563100   0.0975318   0.0000000), wk =   0.1111111
        k(   14) = (   0.0563100  -0.0650212   0.0000000), wk =   0.1111111
        k(   15) = (   0.0563100  -0.0325106   0.0000000), wk =   0.1111111
        k(   16) = (   0.0563100   0.0000000   0.0000000), wk =   0.1111111
        k(   17) = (  -0.0844651  -0.0487659   0.0000000), wk =   0.0555556
        k(   18) = (  -0.0844651  -0.0162553   0.0000000), wk =   0.1111111
        k(   19) = (  -0.0844651   0.0162553   0.0000000), wk =   0.1111111
        k(   20) = (  -0.0844651  -0.1462978   0.0000000), wk =   0.0555556

     Largest allocated arrays     est. size (Mb)     dimensions
     Largest temporary arrays     est. size (Mb)     dimensions

     Check: negative/imaginary core charge=   -0.000002    0.000000

     Initial potential from superposition of free atoms
     Check: negative starting charge=   -0.002048

     starting charge  199.49921, renormalised to  204.00000

[...]

     *
     * You are using vdW-DF for exchange-correlation in this calculation.
     * Please cite the following three references that made this development
     * possible:
     *
     *   M. Dion, H. Rydberg, E. Schroder, D. C. Langreth, and
     *   B. I. Lundqvist, Phys. Rev. Lett. 92, 246401 (2004).
     *
     *   T. Thonhauser, V. R. Cooper, S. Li, A. Puzder, P. Hyldgaard, and
     *   D. C. Langreth, Phys. Rev. B 76, 125112 (2007).
     *
     *   G. Roman-Perez and J. M. Soler, Phys. Rev. Lett. 103, 096102 (2009).
     *
     *
     * If you are using vdW-DF2, please also cite:
     *
     *   K. Lee, E. D. Murray, L. Kong, B. I. Lundqvist, and
     *   D. C. Langreth, Phys. Rev. B 82, 081101(R) (2010).
     *
     *
     * If you are calculating the stress with vdW-DF, please also cite:
     *
     *   R. Sabatini, E. Kucukbenli, B. Kolb, T. Thonhauser, and
     *   S. de Gironcoli, J. Phys.: Condens. Matter 24, 424209 (2012).
     *

     Carrying out vdW-DF run using the following parameters:

     Nqs =      20    Nr_points =    1024   r_max =   100.000
     q_mesh =
               0.00001000     0.04494208     0.09755937     0.15916263
               0.23128650     0.31572767     0.41458969     0.53033537
               0.66584808     0.82450364     1.01025438     1.22772762
               1.48234092     1.78043706     2.12944203     2.53805004
               3.01644009     3.57652955     4.23227104     5.00000000

     Gradients computed in reciprocal space

[...]

     Starting wfc are  144 randomized atomic wfcs

     Self-consistent Calculation

[...]

     total energy              =   -3020.01582302 Ry
     Harris-Foulkes estimate   =   -3020.01582283 Ry
     estimated scf accuracy    <       0.00000121 Ry

     iteration # 15     ecut=    36.75 Ry     beta=0.10
     Davidson diagonalization with overlap
     ethr =  5.93E-10,  avg # of iterations =  2.0

[...]

     negative rho (up, down):  1.999E-03 0.000E+00

     Adding external electric field

     Computed dipole along edir(3) :
        Dipole               -0.0025 Ry au,         -0.0064 Debye
        Dipole field         -0.0000 Ry au

        Potential amp.        0.0006 Ry
        Total length         45.7550 bohr

     End of self-consistent calculation

[...]

          k = 0.0563 0.0000 0.0000 ( 19119 PWs)   bands (ev):

[...]

          k =-0.0845-0.1463 0.0000 ( 19124 PWs)   bands (ev):

   -90.9862 -90.9842 -90.9823 -90.7633 -90.7613 -90.7593 -90.7362 -90.7342
   -90.7322 -54.5301 -54.5045 -54.4910 -54.4876 -54.4807 -54.4732 -54.4706
   -54.4688 -54.4551 -54.3062 -54.2802 -54.2795 -54.2648 -54.2626 -54.2565
   -54.2533 -54.2419 -54.2419 -54.2392 -54.2385 -54.2362 -54.2329 -54.2301
   -54.2145 -54.2128 -54.2101 -54.2049  -4.9489  -4.7196  -4.4501  -4.3482
    -4.3270  -4.2973  -4.2872  -4.1701  -4.1563  -4.1259  -4.0749  -4.0747
    -3.9675  -3.9465  -3.8310  -3.8210  -3.6505  -3.6254  -3.6115  -3.6036
    -3.5429  -3.5012  -3.4644  -3.4426  -3.2543  -3.2179  -3.2123  -3.1609
    -3.1259  -3.0913  -3.0855  -3.0468  -2.9564  -2.9564  -2.9410  -2.9168
    -2.9129  -2.8181  -2.7894  -2.7833  -2.7159  -2.6768  -2.6479  -2.6390
    -2.6150  -2.5755  -2.4678  -2.4381  -2.4084  -2.3342  -2.2552  -2.2164
    -2.2015  -2.1422  -2.1146  -2.0500  -1.9757  -1.9522  -1.7958  -1.6963
    -1.6792  -1.4484  -1.2625  -1.2577   0.6576   0.8546   1.1391   1.4512
     2.1305   2.2361   3.9451   3.9631   4.1606   4.3907   6.0209   6.0252
     6.6539   6.7005   6.7695   6.8139   6.8580   6.9118   7.1422   7.1605
     7.1906   7.5166   7.9521   7.9574   8.2178   8.2781   8.4856   8.5702
     8.7793   8.8619   8.9800   9.3080

     the Fermi energy is     0.9864 ev

!    total energy              =   -3020.01582237 Ry
     Harris-Foulkes estimate   =   -3020.01582318 Ry
     estimated scf accuracy    <       0.00000005 Ry

     The total energy is the sum of the following terms:

     one-electron contribution =  -20733.96198598 Ry
     hartree contribution      =   10383.98148013 Ry
     xc contribution           =    -462.84703676 Ry
     ewald contribution        =    7792.83596811 Ry
     electric field correction =       0.00000002 Ry
     smearing contrib. (-TS)   =      -0.02424789 Ry

     convergence has been achieved in  15 iterations

 BEEF-vdW xc energy contributions
           1 :   -406.420296156161
           2 :    372.205274484936
           3 :   -313.644155978293
           4 :    246.073879672963
           5 :   -184.182381989347
           6 :    137.131093326744
           7 :   -106.829793085309
           8 :    89.4676973449489
           9 :   -78.9530628811145
          10 :    70.2751575716018
          11 :   -61.2650457165568
          12 :    52.3379277995695
          13 :   -44.9522022342535
          14 :    40.0157209105658
          15 :   -37.1881999344666
          16 :    35.2403211933327
          17 :   -32.9538378823736
          18 :    29.8303656984186
          19 :   -26.1903300133565
          20 :    22.7408020656407
          21 :   -20.0287265711341
          22 :    18.1592875639961
          23 :   -16.8919732351755
          24 :    15.9404106042601
          25 :   -15.2061656283651
          26 :    14.7787840684956
          27 :   -14.7468197550814
          28 :    15.0068946410727
          29 :   -15.2476914665806
          30 :    15.1281825249269
          31 :   -36.8997353328377
          32 :   -26.8597670341002

     Forces acting on atoms (Ry/au):

     negative rho (up, down):  1.999E-03 0.000E+00
     atom    1 type  1   force =     0.00000177   -0.00111493   -0.00409606
     atom    2 type  1   force =    -0.00096510    0.00055892   -0.00409624
     atom    3 type  1   force =     0.00096497    0.00055661   -0.00409619
     atom    4 type  2   force =    -0.00000016    0.00000018   -0.00201610
     atom    5 type  1   force =    -0.00000056   -0.00019908    0.00304928
     atom    6 type  1   force =    -0.00017249    0.00009931    0.00304972
     atom    7 type  1   force =     0.00017204    0.00009971    0.00304871
     atom    8 type  2   force =     0.00000013   -0.00000158    0.00449585
     atom    9 type  1   force =     0.00000045   -0.00077299    0.00015639
     atom   10 type  1   force =    -0.00067062    0.00038682    0.00015632
     atom   11 type  1   force =     0.00067038    0.00038617    0.00015656
     atom   12 type  2   force =    -0.00000079    0.00000087    0.00019175

     Total force =     0.010405     Total SCF correction =     0.001797
     SCF correction compared to forces is large: reduce conv_thr to get better values

     entering subroutine stress ...

     negative rho (up, down):  1.999E-03 0.000E+00
          total   stress  (Ry/bohr**3)                   (kbar)     P=   -4.86
  -0.00004838  -0.00000000   0.00000000         -7.12     -0.00      0.00
  -0.00000000  -0.00004838  -0.00000000         -0.00     -7.12     -0.00
   0.00000000  -0.00000000  -0.00000235          0.00     -0.00     -0.35

 !ASE

     Writing output data file calc.save

     General routines

     Parallel routines

   This run was terminated on:  16:15:11  19Dec2018

   JOB DONE.
Job  /afs/slac/g/suncat/bin/suncat-tsmpirun -x LD_LIBRARY_PATH -wdir /scratch/qe773146_jZ6m9 pw.x -in pw.inp

TID   HOST_NAME   COMMAND_LINE            STATUS            TERMINATION_TIME
00000 suncat0226 pw.x -in pw.inp   Done                     12/19/2018 16:15:11
00001 suncat0226 pw.x -in pw.inp   Done                     12/19/2018 16:15:11
00002 suncat0226 pw.x -in pw.inp   Done                     12/19/2018 16:15:11
00003 suncat0226 pw.x -in pw.inp   Done                     12/19/2018 16:15:11
00004 suncat0226 pw.x -in pw.inp   Done                     12/19/2018 16:15:11
00005 suncat0226 pw.x -in pw.inp   Done                     12/19/2018 16:15:11
00006 suncat0226 pw.x -in pw.inp   Done                     12/19/2018 16:15:11
00007 suncat0226 pw.x -in pw.inp   Done                     12/19/2018 16:15:11
00008 suncat0225 pw.x -in pw.inp   Done                     12/19/2018 16:15:11
00009 suncat0225 pw.x -in pw.inp   Done                     12/19/2018 16:15:11
00010 suncat0225 pw.x -in pw.inp   Done                     12/19/2018 16:15:11
00011 suncat0225 pw.x -in pw.inp   Done                     12/19/2018 16:15:11
00012 suncat0225 pw.x -in pw.inp   Done                     12/19/2018 16:15:11
00013 suncat0225 pw.x -in pw.inp   Done                     12/19/2018 16:15:11
00014 suncat0225 pw.x -in pw.inp   Done                     12/19/2018 16:15:11
00015 suncat0225 pw.x -in pw.inp   Done                     12/19/2018 16:15:11
00016 suncat0224 pw.x -in pw.inp   Done                     12/19/2018 16:15:11
00017 suncat0224 pw.x -in pw.inp   Done                     12/19/2018 16:15:11
00018 suncat0224 pw.x -in pw.inp   Done                     12/19/2018 16:15:11
00019 suncat0224 pw.x -in pw.inp   Done                     12/19/2018 16:15:11
00020 suncat0224 pw.x -in pw.inp   Done                     12/19/2018 16:15:11
00021 suncat0224 pw.x -in pw.inp   Done                     12/19/2018 16:15:11
00022 suncat0224 pw.x -in pw.inp   Done                     12/19/2018 16:15:11
00023 suncat0224 pw.x -in pw.inp   Done                     12/19/2018 16:15:11
00024 suncat0223 pw.x -in pw.inp   Done                     12/19/2018 16:15:11
00025 suncat0223 pw.x -in pw.inp   Done                     12/19/2018 16:15:11
00026 suncat0223 pw.x -in pw.inp   Done                     12/19/2018 16:15:11
00027 suncat0223 pw.x -in pw.inp   Done                     12/19/2018 16:15:11
00028 suncat0223 pw.x -in pw.inp   Done                     12/19/2018 16:15:11
00029 suncat0223 pw.x -in pw.inp   Done                     12/19/2018 16:15:11
00030 suncat0223 pw.x -in pw.inp   Done                     12/19/2018 16:15:11
00031 suncat0223 pw.x -in pw.inp   Done                     12/19/2018 16:15:11
00032 suncat0222 pw.x -in pw.inp   Done                     12/19/2018 16:15:11
00033 suncat0222 pw.x -in pw.inp   Done                     12/19/2018 16:15:11
00034 suncat0222 pw.x -in pw.inp   Done                     12/19/2018 16:15:11
00035 suncat0222 pw.x -in pw.inp   Done                     12/19/2018 16:15:11
00036 suncat0222 pw.x -in pw.inp   Done                     12/19/2018 16:15:11
00037 suncat0222 pw.x -in pw.inp   Done                     12/19/2018 16:15:11
00038 suncat0222 pw.x -in pw.inp   Done                     12/19/2018 16:15:11
00039 suncat0222 pw.x -in pw.inp   Done                     12/19/2018 16:15:11
00040 suncat0221 pw.x -in pw.inp   Done                     12/19/2018 16:15:11
00041 suncat0221 pw.x -in pw.inp   Done                     12/19/2018 16:15:11
00042 suncat0221 pw.x -in pw.inp   Done                     12/19/2018 16:15:11
00043 suncat0221 pw.x -in pw.inp   Done                     12/19/2018 16:15:11
00044 suncat0221 pw.x -in pw.inp   Done                     12/19/2018 16:15:11
00045 suncat0221 pw.x -in pw.inp   Done                     12/19/2018 16:15:11
00046 suncat0221 pw.x -in pw.inp   Done                     12/19/2018 16:15:11
00047 suncat0221 pw.x -in pw.inp   Done                     12/19/2018 16:15:11
00048 suncat0220 pw.x -in pw.inp   Done                     12/19/2018 16:15:11
00049 suncat0220 pw.x -in pw.inp   Done                     12/19/2018 16:15:11
00050 suncat0220 pw.x -in pw.inp   Done                     12/19/2018 16:15:11
00051 suncat0220 pw.x -in pw.inp   Done                     12/19/2018 16:15:11
00052 suncat0220 pw.x -in pw.inp   Done                     12/19/2018 16:15:11
00053 suncat0220 pw.x -in pw.inp   Done                     12/19/2018 16:15:11
00054 suncat0220 pw.x -in pw.inp   Done                     12/19/2018 16:15:11
00055 suncat0220 pw.x -in pw.inp   Done                     12/19/2018 16:15:11
00056 suncat0219 pw.x -in pw.inp   Done                     12/19/2018 16:15:11
00057 suncat0219 pw.x -in pw.inp   Done                     12/19/2018 16:15:11
00058 suncat0219 pw.x -in pw.inp   Done                     12/19/2018 16:15:11
00059 suncat0219 pw.x -in pw.inp   Done                     12/19/2018 16:15:11
00060 suncat0219 pw.x -in pw.inp   Done                     12/19/2018 16:15:11
00061 suncat0219 pw.x -in pw.inp   Done                     12/19/2018 16:15:11
00062 suncat0219 pw.x -in pw.inp   Done                     12/19/2018 16:15:11
00063 suncat0219 pw.x -in pw.inp   Done                     12/19/2018 16:15:11