     Program PWSCF v.5.1rc2 (svn rev. 11289) starts on 26Dec2018 at 17:29:25

     Current dimensions of program PWSCF are:
     Max number of different atomic species (ntypx) = 10
     Max number of k-points (npk) =  40000
     Max angular momentum in pseudopotentials (lmaxx) =  3
     Presently stress not available with electric field

     IMPORTANT: XC functional enforced from input :
     Exchange-correlation      = BEEF-VDW ( 1  4 27 13 2)
     Any further DFT definition will be discarded
     Please, verify this is what you really want

     Subspace diagonalization in iterative solution of the eigenvalue problem:
     a serial algorithm will be used

     bravais-lattice index     =            0
     lattice parameter (alat)  =       1.8897  a.u.
     unit-cell volume          =    6940.8438 (a.u.)^3
     number of atoms/cell      =           12
     number of atomic types    =            2
     number of electrons       =       144.00
     number of Kohn-Sham states=          102
     kinetic-energy cutoff     =      36.7493  Ry
     charge density cutoff     =     367.4932  Ry
     convergence threshold     =      1.0E-06
     mixing beta               =       0.1000
     number of iterations used =           10  plain     mixing
     Exchange-correlation      = BEEF-VDW ( 1  4 27 13 2)
     nstep                     =           50

     celldm(1)=   1.889726  celldm(2)=   0.000000  celldm(3)=   0.000000
     celldm(4)=   0.000000  celldm(5)=   0.000000  celldm(6)=   0.000000

     crystal axes: (cart. coord. in units of alat)
               a(1) = (   6.815830   0.000000   0.000000 )
               a(2) = (  -3.407915   5.902682   0.000000 )
               a(3) = (   0.000000   0.000000  25.565102 )

     reciprocal axes: (cart. coord. in units 2 pi/alat)
               b(1) = (  0.146717  0.084707  0.000000 )
               b(2) = (  0.000000  0.169415  0.000000 )
               b(3) = (  0.000000  0.000000  0.039116 )

     PseudoPot. # 1 for La read from file:
     /afs/slac.stanford.edu/u/if/mamunm/psp/gbrv1.5pbe/La.UPF
     MD5 check sum: 5937b0c7494ba0601a847275249473aa
     Pseudo is Ultrasoft + core correction, Zval = 11.0
     Generated by new atomic code, or converted to UPF format
     Using radial grid of  995 points,  8 beta functions with:
                l(1) =   0
                l(2) =   0
                l(3) =   1
                l(4) =   1
                l(5) =   2
                l(6) =   2
                l(7) =   3
                l(8) =   3
     Q(r) pseudized with  8 coefficients,  rinner =    1.700   1.700   1.700
                                                       1.700   1.700   1.700
                                                       1.700

     PseudoPot. # 2 for Re read from file:
     /afs/slac.stanford.edu/u/if/mamunm/psp/gbrv1.5pbe/Re.UPF
     MD5 check sum: 85f993410f3e006da9d71c142b4ad953
     Pseudo is Ultrasoft + core correction, Zval = 15.0
     Generated by new atomic code, or converted to UPF format
     Using radial grid of  981 points,  8 beta functions with:
                l(1) =   0
                l(2) =   0
                l(3) =   1
                l(4) =   1
                l(5) =   2
                l(6) =   2
                l(7) =   3
                l(8) =   3
     Q(r) pseudized with  8 coefficients,  rinner =    1.150   1.150   1.150
                                                       1.150   1.150   1.150
                                                       1.150

     vdW kernel table read from file vdW_kernel_table
     MD5 check sum: 095c7af220d748ca6e76c0b4c6cfb241

     atomic species   valence    mass     pseudopotential
        La1           11.00   138.90547     La( 1.00)
        Re1           15.00   186.20700     Re( 1.00)

     No symmetry found

   Cartesian axes

     site n.     atom                  positions (alat units)
         1           La1 tau(   1) = (   0.0000000   0.0000000  10.0000000  )
         2           La1 tau(   2) = (  -1.7039575   2.9513410  10.0000000  )
         3           La1 tau(   3) = (   1.7039575   2.9513410  10.0000000  )
         4           Re1 tau(   4) = (   3.4079150   0.0000000  10.0000000  )
         5           La1 tau(   5) = (   3.4079150   1.9675607  12.7825510  )
         6           La1 tau(   6) = (   1.7039575   4.9189017  12.7825510  )
         7           La1 tau(   7) = (  -1.7039575   4.9189017  12.7825510  )
         8           Re1 tau(   8) = (   0.0000000   1.9675607  12.7825510  )
         9           La1 tau(   9) = (  -0.0000000   3.9351213  15.5651020  )
        10           La1 tau(  10) = (   1.7039575   0.9837803  15.5651020  )
        11           La1 tau(  11) = (   5.1118726   0.9837803  15.5651020  )
        12           Re1 tau(  12) = (   3.4079150   3.9351213  15.5651020  )

     number of k points=    20  Fermi-Dirac smearing, width (Ry)=  0.0110
                       cart. coord. in units 2pi/alat
        k(    1) = (   0.0000000   0.0000000   0.0000000), wk =   0.0555556
        k(    2) = (   0.0000000   0.0282358   0.0000000), wk =   0.1111111
        k(    3) = (   0.0000000   0.0564715   0.0000000), wk =   0.1111111
        k(    4) = (   0.0000000  -0.0847073   0.0000000), wk =   0.0555556
        k(    5) = (   0.0244529   0.0141179   0.0000000), wk =   0.1111111
        k(    6) = (   0.0244529   0.0423536   0.0000000), wk =   0.1111111
        k(    7) = (   0.0244529   0.0705894   0.0000000), wk =   0.1111111
        k(    8) = (   0.0244529  -0.0705894   0.0000000), wk =   0.1111111
        k(    9) = (   0.0244529  -0.0423536   0.0000000), wk =   0.1111111
        k(   10) = (   0.0244529  -0.0141179   0.0000000), wk =   0.1111111
        k(   11) = (   0.0489058   0.0282358   0.0000000), wk =   0.1111111
        k(   12) = (   0.0489058   0.0564715   0.0000000), wk =   0.1111111
        k(   13) = (   0.0489058   0.0847073   0.0000000), wk =   0.1111111
        k(   14) = (   0.0489058  -0.0564715   0.0000000), wk =   0.1111111
        k(   15) = (   0.0489058  -0.0282358   0.0000000), wk =   0.1111111
        k(   16) = (   0.0489058   0.0000000   0.0000000), wk =   0.1111111
        k(   17) = (  -0.0733586  -0.0423536   0.0000000), wk =   0.0555556
        k(   18) = (  -0.0733586  -0.0141179   0.0000000), wk =   0.1111111
        k(   19) = (  -0.0733586   0.0141179   0.0000000), wk =   0.1111111
        k(   20) = (  -0.0733586  -0.1270609   0.0000000), wk =   0.0555556

     Largest allocated arrays     est. size (Mb)     dimensions
     Largest temporary arrays     est. size (Mb)     dimensions

     Initial potential from superposition of free atoms
     Check: negative starting charge=   -1.004842

     starting charge  142.21125, renormalised to  144.00000

     negative rho (up, down):  1.017E+00 0.000E+00

     *
     * You are using vdW-DF for exchange-correlation in this calculation.
     * Please cite the following three references that made this development
     * possible:
     *
     *   M. Dion, H. Rydberg, E. Schroder, D. C. Langreth, and
     *   B. I. Lundqvist, Phys. Rev. Lett. 92, 246401 (2004).
     *
     *   T. Thonhauser, V. R. Cooper, S. Li, A. Puzder, P. Hyldgaard, and
     *   D. C. Langreth, Phys. Rev. B 76, 125112 (2007).
     *
     *   G. Roman-Perez and J. M. Soler, Phys. Rev. Lett. 103, 096102 (2009).
     *
     *
     * If you are using vdW-DF2, please also cite:
     *
     *   K. Lee, E. D. Murray, L. Kong, B. I. Lundqvist, and
     *   D. C. Langreth, Phys. Rev. B 82, 081101(R) (2010).
     *
     *
     * If you are calculating the stress with vdW-DF, please also cite:
     *
     *   R. Sabatini, E. Kucukbenli, B. Kolb, T. Thonhauser, and
     *   S. de Gironcoli, J. Phys.: Condens. Matter 24, 424209 (2012).
     *

     Carrying out vdW-DF run using the following parameters:

     Nqs =      20    Nr_points =    1024   r_max =   100.000
     q_mesh =
               0.00001000     0.04494208     0.09755937     0.15916263
               0.23128650     0.31572767     0.41458969     0.53033537
               0.66584808     0.82450364     1.01025438     1.22772762
               1.48234092     1.78043706     2.12944203     2.53805004
               3.01644009     3.57652955     4.23227104     5.00000000

     Gradients computed in reciprocal space

     Adding external electric field

     Computed dipole along edir(3) :
        Dipole               -0.0000 Ry au,         -0.0000 Debye
        Dipole field         -0.0000 Ry au

        Potential amp.        0.0000 Ry
        Total length         47.1033 bohr

     Starting wfc are  219 randomized atomic wfcs

     Self-consistent Calculation

     iteration #  1     ecut=    36.75 Ry     beta=0.10
     Davidson diagonalization with overlap
     ethr =  1.00E-02,  avg # of iterations =  2.0

[...]

     total energy              =   -1511.52823532 Ry
     Harris-Foulkes estimate   =   -1513.09222625 Ry
     estimated scf accuracy    <       8.70021432 Ry

[...]

     iteration # 11     ecut=    36.75 Ry     beta=0.10
     Davidson diagonalization with overlap
     c_bands:  1 eigenvalues not converged
     c_bands:  1 eigenvalues not converged
     c_bands:  1 eigenvalues not converged
     c_bands:  1 eigenvalues not converged
     ethr =  1.47E-05,  avg # of iterations =  9.8

[...]

     End of self-consistent calculation

          k = 0.0000 0.0000 0.0000 ( 26181 PWs)   bands (ev):

   -77.3805 -77.2295 -77.2294 -39.0541 -39.0541 -39.0507 -38.9231 -38.9231
   -38.9230 -38.9230 -38.9191 -38.9190 -30.7996 -30.7650 -30.5069 -30.5068
   -30.4984 -30.4984 -30.3273 -30.0836 -30.0836 -15.6490 -15.4671 -15.1505
   -14.9040 -14.9040 -14.7561 -14.7296 -14.7296 -14.6918 -14.6918 -14.4847
   -14.1898 -14.1898 -13.9115 -13.9115 -13.7547 -13.6504 -13.5551 -13.5279
   -13.5278 -13.4663 -13.4663 -13.4076 -13.4076 -13.1869 -13.0739 -13.0739
    -1.6812  -1.2297  -0.9338  -0.1939   0.1441   0.1441   0.4291   0.5327
     0.5539   0.5539   0.5769   0.6653   0.6653   0.7091   0.7091   1.3761
     1.5507   1.5507   1.9402   1.9572   1.9573   2.1760   2.4612   2.7959
     2.8628   3.0707   3.0707   3.2577   3.2577   3.3607   3.3607   3.5602
     3.5602   3.7035   3.7035   3.7476   3.7566   3.8761   3.9371   3.9408
     3.9408   3.9631   3.9636   4.0051   4.0051   4.0886   4.0886   4.1195
     4.1938   4.2311   4.2316   4.2329   4.2723   4.2726

[...]

          k =-0.0734-0.0424 0.0000 ( 26050 PWs)   bands (ev):

[...]

     the Fermi energy is     2.3752 ev

!    total energy              =   -1512.21195883 Ry
     Harris-Foulkes estimate   =   -1512.21197126 Ry
     estimated scf accuracy    <       0.00000075 Ry

     The total energy is the sum of the following terms:

     one-electron contribution =   -7028.34632960 Ry
     hartree contribution      =    3522.40089882 Ry
     xc contribution           =    -619.45861679 Ry
     ewald contribution        =    2613.29435232 Ry
     electric field correction =       0.00000001 Ry
     smearing contrib. (-TS)   =      -0.10226359 Ry

     convergence has been achieved in  21 iterations

 BEEF-vdW xc energy contributions
           1 :   -549.560119874287
[...]
                l(1) =   0
                l(2) =   0
                l(3) =   1
                l(4) =   1
                l(5) =   2
                l(6) =   2
                l(7) =   3
                l(8) =   3
     Q(r) pseudized with  8 coefficients,  rinner =    1.700   1.700   1.700
                                                       1.700   1.700   1.700
                                                       1.700

     PseudoPot. # 2 for Re read from file:
     /afs/slac.stanford.edu/u/if/mamunm/psp/gbrv1.5pbe/Re.UPF
     MD5 check sum: 85f993410f3e006da9d71c142b4ad953
     Pseudo is Ultrasoft + core correction, Zval = 15.0
     Generated by new atomic code, or converted to UPF format
     Using radial grid of  981 points,  8 beta functions with:
                l(1) =   0
                l(2) =   0
                l(3) =   1
                l(4) =   1
                l(5) =   2
                l(6) =   2
                l(7) =   3
                l(8) =   3
     Q(r) pseudized with  8 coefficients,  rinner =    1.150   1.150   1.150
                                                       1.150   1.150   1.150
                                                       1.150

     vdW kernel table read from file vdW_kernel_table
     MD5 check sum: 095c7af220d748ca6e76c0b4c6cfb241

     atomic species   valence    mass     pseudopotential
        La1           11.00   138.90547     La( 1.00)
        Re1           15.00   186.20700     Re( 1.00)

     No symmetry found

   Cartesian axes

     site n.     atom                  positions (alat units)
         1           La1 tau(   1) = (   0.0000000   0.0000000  10.0000000  )
         2           La1 tau(   2) = (  -1.7039575   2.9513410  10.0000000  )
         3           La1 tau(   3) = (   1.7039575   2.9513410  10.0000000  )
         4           Re1 tau(   4) = (   3.4079150   0.0000000  10.0000000  )
         5           La1 tau(   5) = (   3.4079150   1.9675607  12.7825510  )
         6           La1 tau(   6) = (   1.7039575   4.9189017  12.7825510  )
         7           La1 tau(   7) = (  -1.7039575   4.9189017  12.7825510  )
         8           Re1 tau(   8) = (   0.0000000   1.9675607  12.7825510  )
         9           La1 tau(   9) = (  -0.0000313   3.8199811  15.5824395  )
        10           La1 tau(  10) = (   1.6042119   1.0413719  15.5823497  )
        11           La1 tau(  11) = (   5.2115818   1.0413524  15.5824338  )
        12           Re1 tau(  12) = (   3.4079207   3.9350942  15.0778822  )

     number of k points=    20  Fermi-Dirac smearing, width (Ry)=  0.0110
                       cart. coord. in units 2pi/alat
        k(    1) = (   0.0000000   0.0000000   0.0000000), wk =   0.0555556
        k(    2) = (   0.0000000   0.0282358   0.0000000), wk =   0.1111111
        k(    3) = (   0.0000000   0.0564715   0.0000000), wk =   0.1111111
        k(    4) = (   0.0000000  -0.0847073   0.0000000), wk =   0.0555556
        k(    5) = (   0.0244529   0.0141179   0.0000000), wk =   0.1111111
        k(    6) = (   0.0244529   0.0423536   0.0000000), wk =   0.1111111
        k(    7) = (   0.0244529   0.0705894   0.0000000), wk =   0.1111111
        k(    8) = (   0.0244529  -0.0705894   0.0000000), wk =   0.1111111
        k(    9) = (   0.0244529  -0.0423536   0.0000000), wk =   0.1111111
        k(   10) = (   0.0244529  -0.0141179   0.0000000), wk =   0.1111111
        k(   11) = (   0.0489058   0.0282358   0.0000000), wk =   0.1111111
        k(   12) = (   0.0489058   0.0564715   0.0000000), wk =   0.1111111
        k(   13) = (   0.0489058   0.0847073   0.0000000), wk =   0.1111111
        k(   14) = (   0.0489058  -0.0564715   0.0000000), wk =   0.1111111
        k(   15) = (   0.0489058  -0.0282358   0.0000000), wk =   0.1111111
        k(   16) = (   0.0489058   0.0000000   0.0000000), wk =   0.1111111
        k(   17) = (  -0.0733586  -0.0423536   0.0000000), wk =   0.0555556
        k(   18) = (  -0.0733586  -0.0141179   0.0000000), wk =   0.1111111
        k(   19) = (  -0.0733586   0.0141179   0.0000000), wk =   0.1111111
        k(   20) = (  -0.0733586  -0.1270609   0.0000000), wk =   0.0555556

     Largest allocated arrays     est. size (Mb)     dimensions
     Largest temporary arrays     est. size (Mb)     dimensions

     Initial potential from superposition of free atoms
     Check: negative starting charge=   -1.003940

     starting charge  142.21125, renormalised to  144.00000

[...]

     *
     * You are using vdW-DF for exchange-correlation in this calculation.
     * Please cite the following three references that made this development
     * possible:
     *
     *   M. Dion, H. Rydberg, E. Schroder, D. C. Langreth, and
     *   B. I. Lundqvist, Phys. Rev. Lett. 92, 246401 (2004).
     *
     *   T. Thonhauser, V. R. Cooper, S. Li, A. Puzder, P. Hyldgaard, and
     *   D. C. Langreth, Phys. Rev. B 76, 125112 (2007).
     *
     *   G. Roman-Perez and J. M. Soler, Phys. Rev. Lett. 103, 096102 (2009).
     *
     *
     * If you are using vdW-DF2, please also cite:
     *
     *   K. Lee, E. D. Murray, L. Kong, B. I. Lundqvist, and
     *   D. C. Langreth, Phys. Rev. B 82, 081101(R) (2010).
     *
     *
     * If you are calculating the stress with vdW-DF, please also cite:
     *
     *   R. Sabatini, E. Kucukbenli, B. Kolb, T. Thonhauser, and
     *   S. de Gironcoli, J. Phys.: Condens. Matter 24, 424209 (2012).
     *

     Carrying out vdW-DF run using the following parameters:

     Nqs =      20    Nr_points =    1024   r_max =   100.000
     q_mesh =
               0.00001000     0.04494208     0.09755937     0.15916263
               0.23128650     0.31572767     0.41458969     0.53033537
               0.66584808     0.82450364     1.01025438     1.22772762
               1.48234092     1.78043706     2.12944203     2.53805004
               3.01644009     3.57652955     4.23227104     5.00000000

     Gradients computed in reciprocal space

[...]

     Starting wfc are  219 randomized atomic wfcs

     Self-consistent Calculation

[...]

     iteration # 15     ecut=    36.75 Ry     beta=0.10
     Davidson diagonalization with overlap
     c_bands:  1 eigenvalues not converged
     ethr =  3.84E-07,  avg # of iterations =  5.8

[...]

     total energy              =   -1512.25001638 Ry
     Harris-Foulkes estimate   =   -1512.25001834 Ry
     estimated scf accuracy    <       0.00000159 Ry

     iteration # 23     ecut=    36.75 Ry     beta=0.10
     Davidson diagonalization with overlap
     ethr =  1.10E-09,  avg # of iterations =  1.7

[...]

     negative rho (up, down):  7.490E-01 0.000E+00

     Adding external electric field

     Computed dipole along edir(3) :
        Dipole                0.1146 Ry au,          0.2914 Debye
        Dipole field          0.0002 Ry au

        Potential amp.       -0.0196 Ry
        Total length         47.1033 bohr

     End of self-consistent calculation

[...]

          k = 0.0489 0.0000 0.0000 ( 26097 PWs)   bands (ev):

[...]

          k =-0.0734-0.1271 0.0000 ( 26050 PWs)   bands (ev):

   -77.2801 -77.1383 -77.0852 -38.9647 -38.9523 -38.9523 -38.8352 -38.8352
   -38.8254 -38.8138 -38.8137 -38.7810 -30.7127 -30.6096 -30.5333 -30.5155
   -30.4582 -30.4239 -30.0227 -29.9439 -29.8541 -15.2177 -15.0519 -14.8774
   -14.6805 -14.6016 -14.4903 -14.4700 -14.4267 -14.3299 -14.2985 -14.2941
   -14.2195 -14.2001 -14.1848 -14.0846 -14.0235 -13.9744 -13.7669 -13.5811
   -13.5366 -13.4871 -13.4368 -13.3825 -13.3317 -13.3085 -13.2481 -12.9185
    -0.4945  -0.4145   0.0435   0.7093   0.8825   0.9101   0.9586   1.1162
     1.1449   1.1462   1.2408   1.4203   1.5225   1.5565   1.6019   1.6116
     1.6477   1.8185   1.9082   1.9819   1.9830   2.0827   2.1756   2.2034
     2.3252   2.5516   2.7353   2.8241   2.8592   2.9556   3.0702   3.1583
     3.2457   3.2941   3.3793   3.3951   3.5364   3.6181   3.7000   3.7323
     3.7495   3.8680   3.9510   3.9537   4.0867   4.1069   4.1193   4.1329
     4.1936   4.2027   4.2288   4.2346   4.3000   4.3227

     the Fermi energy is     2.4510 ev

!    total energy              =   -1512.25000632 Ry
     Harris-Foulkes estimate   =   -1512.25001731 Ry
     estimated scf accuracy    <       0.00000081 Ry

     The total energy is the sum of the following terms:

     one-electron contribution =   -7167.69817700 Ry
     hartree contribution      =    3592.60767473 Ry
     xc contribution           =    -619.63866231 Ry
     ewald contribution        =    2682.57826084 Ry
     electric field correction =       0.00002379 Ry
     smearing contrib. (-TS)   =      -0.09912638 Ry

     convergence has been achieved in  23 iterations

 BEEF-vdW xc energy contributions
           1 :   -549.743134308855
           2 :    507.314745465611
           3 :   -431.711295989634
           4 :    338.301519674815
           5 :   -243.874786140986
           6 :    162.245637284359
           7 :   -101.490114141737
           8 :    63.2591288308256
           9 :   -43.9245345564632
          10 :    36.8738056043046
          11 :   -35.0804497171506
          12 :    33.1161416931749
          13 :   -28.1125396364846
          14 :    19.6672071406665
          15 :   -9.07617559360403
          16 :   -1.63332891265850
          17 :    10.5251944851144
          18 :   -16.2832903362544
          19 :    18.4324890601915
          20 :   -17.3163494720270
          21 :    13.9162784221247
          22 :   -9.58089098588698
          23 :    5.69815137436422
          24 :   -3.34748065159897
          25 :    3.00907397111962
          26 :   -4.44233672704820
          27 :    6.80540727295840
          28 :   -8.99187574356642
          29 :    10.0607284791894
          30 :   -9.59251025155982
          31 :   -46.3276345277170
          32 :   -33.5170271514528

     Forces acting on atoms (Ry/au):

     negative rho (up, down):  7.490E-01 0.000E+00
     atom    1 type  1   force =     0.00000049    0.02915798   -0.01236893
     atom    2 type  1   force =     0.02524683   -0.01457876   -0.01236965
     atom    3 type  1   force =    -0.02524223   -0.01457961   -0.01237021
     atom    4 type  2   force =     0.00000064    0.00000863    0.04952616
     atom    5 type  1   force =     0.00000293   -0.01414875   -0.00362530
     atom    6 type  1   force =    -0.01225374    0.00707576   -0.00361825
     atom    7 type  1   force =     0.01225341    0.00707352   -0.00362507
     atom    8 type  2   force =     0.00000149   -0.00000610    0.00057245
     atom    9 type  1   force =    -0.00000032    0.00048468   -0.00117066
     atom   10 type  1   force =     0.00042211   -0.00023833   -0.00117390
     atom   11 type  1   force =    -0.00042268   -0.00024066   -0.00117304
     atom   12 type  2   force =    -0.00000894   -0.00000836    0.00139639

     Total force =     0.078159     Total SCF correction =     0.003860

     entering subroutine stress ...

     negative rho (up, down):  7.490E-01 0.000E+00
          total   stress  (Ry/bohr**3)                   (kbar)     P=   -5.43
  -0.00004633   0.00000000  -0.00000000         -6.81      0.00     -0.00
   0.00000000  -0.00004633   0.00000000          0.00     -6.81      0.00
  -0.00000000   0.00000000  -0.00001818         -0.00      0.00     -2.67

 !ASE

     Writing output data file calc.save

     General routines

     Parallel routines

   This run was terminated on:  20:59:41  26Dec2018

   JOB DONE.
Job  /afs/slac/g/suncat/bin/suncat-tsmpirun -x LD_LIBRARY_PATH -wdir /scratch/qe110021_zD2CU pw.x -in pw.inp

TID   HOST_NAME   COMMAND_LINE            STATUS            TERMINATION_TIME
00000 suncat0183 pw.x -in pw.inp   Done                     12/26/2018 20:59:41
00001 suncat0183 pw.x -in pw.inp   Done                     12/26/2018 20:59:41
00002 suncat0183 pw.x -in pw.inp   Done                     12/26/2018 20:59:41
00003 suncat0183 pw.x -in pw.inp   Done                     12/26/2018 20:59:41
00004 suncat0183 pw.x -in pw.inp   Done                     12/26/2018 20:59:41
00005 suncat0183 pw.x -in pw.inp   Done                     12/26/2018 20:59:41
00006 suncat0183 pw.x -in pw.inp   Done                     12/26/2018 20:59:41
00007 suncat0183 pw.x -in pw.inp   Done                     12/26/2018 20:59:41
00008 suncat0182 pw.x -in pw.inp   Done                     12/26/2018 20:59:41
00009 suncat0182 pw.x -in pw.inp   Done                     12/26/2018 20:59:41
00010 suncat0182 pw.x -in pw.inp   Done                     12/26/2018 20:59:41
00011 suncat0182 pw.x -in pw.inp   Done                     12/26/2018 20:59:41
00012 suncat0182 pw.x -in pw.inp   Done                     12/26/2018 20:59:41
00013 suncat0182 pw.x -in pw.inp   Done                     12/26/2018 20:59:41
00014 suncat0182 pw.x -in pw.inp   Done                     12/26/2018 20:59:41
00015 suncat0182 pw.x -in pw.inp   Done                     12/26/2018 20:59:41
00016 suncat0181 pw.x -in pw.inp   Done                     12/26/2018 20:59:41
00017 suncat0181 pw.x -in pw.inp   Done                     12/26/2018 20:59:41
00018 suncat0181 pw.x -in pw.inp   Done                     12/26/2018 20:59:41
00019 suncat0181 pw.x -in pw.inp   Done                     12/26/2018 20:59:41
00020 suncat0181 pw.x -in pw.inp   Done                     12/26/2018 20:59:41
00021 suncat0181 pw.x -in pw.inp   Done                     12/26/2018 20:59:41
00022 suncat0181 pw.x -in pw.inp   Done                     12/26/2018 20:59:41
00023 suncat0181 pw.x -in pw.inp   Done                     12/26/2018 20:59:41
00024 suncat0252 pw.x -in pw.inp   Done                     12/26/2018 20:59:41
00025 suncat0252 pw.x -in pw.inp   Done                     12/26/2018 20:59:41
00026 suncat0252 pw.x -in pw.inp   Done                     12/26/2018 20:59:41
00027 suncat0252 pw.x -in pw.inp   Done                     12/26/2018 20:59:41
00028 suncat0252 pw.x -in pw.inp   Done                     12/26/2018 20:59:41
00029 suncat0252 pw.x -in pw.inp   Done                     12/26/2018 20:59:41
00030 suncat0252 pw.x -in pw.inp   Done                     12/26/2018 20:59:41
00031 suncat0252 pw.x -in pw.inp   Done                     12/26/2018 20:59:41
00032 suncat0226 pw.x -in pw.inp   Done                     12/26/2018 20:59:41
00033 suncat0226 pw.x -in pw.inp   Done                     12/26/2018 20:59:41
00034 suncat0226 pw.x -in pw.inp   Done                     12/26/2018 20:59:41
00035 suncat0226 pw.x -in pw.inp   Done                     12/26/2018 20:59:41
00036 suncat0226 pw.x -in pw.inp   Done                     12/26/2018 20:59:41
00037 suncat0226 pw.x -in pw.inp   Done                     12/26/2018 20:59:41
00038 suncat0226 pw.x -in pw.inp   Done                     12/26/2018 20:59:41
00039 suncat0226 pw.x -in pw.inp   Done                     12/26/2018 20:59:41
00040 suncat0225 pw.x -in pw.inp   Done                     12/26/2018 20:59:41
00041 suncat0225 pw.x -in pw.inp   Done                     12/26/2018 20:59:41
00042 suncat0225 pw.x -in pw.inp   Done                     12/26/2018 20:59:41
00043 suncat0225 pw.x -in pw.inp   Done                     12/26/2018 20:59:41
00044 suncat0225 pw.x -in pw.inp   Done                     12/26/2018 20:59:41
00045 suncat0225 pw.x -in pw.inp   Done                     12/26/2018 20:59:41
00046 suncat0225 pw.x -in pw.inp   Done                     12/26/2018 20:59:41
00047 suncat0225 pw.x -in pw.inp   Done                     12/26/2018 20:59:41
00048 suncat0224 pw.x -in pw.inp   Done                     12/26/2018 20:59:41
00049 suncat0224 pw.x -in pw.inp   Done                     12/26/2018 20:59:41
00050 suncat0224 pw.x -in pw.inp   Done                     12/26/2018 20:59:41
00051 suncat0224 pw.x -in pw.inp   Done                     12/26/2018 20:59:41
00052 suncat0224 pw.x -in pw.inp   Done                     12/26/2018 20:59:41
00053 suncat0224 pw.x -in pw.inp   Done                     12/26/2018 20:59:41
00054 suncat0224 pw.x -in pw.inp   Done                     12/26/2018 20:59:41
00055 suncat0224 pw.x -in pw.inp   Done                     12/26/2018 20:59:41
00056 suncat0223 pw.x -in pw.inp   Done                     12/26/2018 20:59:41
00057 suncat0223 pw.x -in pw.inp   Done                     12/26/2018 20:59:41
00058 suncat0223 pw.x -in pw.inp   Done                     12/26/2018 20:59:41
00059 suncat0223 pw.x -in pw.inp   Done                     12/26/2018 20:59:41
00060 suncat0223 pw.x -in pw.inp   Done                     12/26/2018 20:59:41
00061 suncat0223 pw.x -in pw.inp   Done                     12/26/2018 20:59:41
00062 suncat0223 pw.x -in pw.inp   Done                     12/26/2018 20:59:41
00063 suncat0223 pw.x -in pw.inp   Done                     12/26/2018 20:59:41