     Program PWSCF v.5.1rc2 (svn rev. 11289) starts on 31Dec2018 at  8:28:28

     Current dimensions of program PWSCF are:
     Max number of different atomic species (ntypx) = 10
     Max number of k-points (npk) =  40000
     Max angular momentum in pseudopotentials (lmaxx) =  3
     Presently stress not available with electric field

     IMPORTANT: XC functional enforced from input :
     Exchange-correlation      = BEEF-VDW ( 1  4 27 13 2)
     Any further DFT definition will be discarded
     Please, verify this is what you really want

     Subspace diagonalization in iterative solution of the eigenvalue problem:
     a serial algorithm will be used

     bravais-lattice index     =            0
     lattice parameter (alat)  =       1.8897  a.u.
     unit-cell volume          =    7079.1103 (a.u.)^3
     number of atoms/cell      =           12
     number of atomic types    =            2
     number of electrons       =       159.00
     number of Kohn-Sham states=          109
     kinetic-energy cutoff     =      36.7493  Ry
     charge density cutoff     =     367.4932  Ry
     convergence threshold     =      1.0E-06
     mixing beta               =       0.1000
     number of iterations used =           10  plain     mixing
     Exchange-correlation      = BEEF-VDW ( 1  4 27 13 2)
     nstep                     =           50

     celldm(1)=   1.889726  celldm(2)=   0.000000  celldm(3)=   0.000000
     celldm(4)=   0.000000  celldm(5)=   0.000000  celldm(6)=   0.000000

     crystal axes: (cart. coord. in units of alat)
               a(1) = (   6.876702   0.000000   0.000000 )
               a(2) = (  -3.438351   5.955399   0.000000 )
               a(3) = (   0.000000   0.000000  25.614804 )

     reciprocal axes: (cart. coord. in units 2 pi/alat)
               b(1) = (  0.145419  0.083957  0.000000 )
               b(2) = (  0.000000  0.167915  0.000000 )
               b(3) = (  0.000000  0.000000  0.039040 )

     PseudoPot. # 1 for Pb read from file:
     /afs/slac.stanford.edu/u/if/mamunm/psp/gbrv1.5pbe/Pb.UPF
     MD5 check sum: 3d1c1779aa92214d1e8f3a7db79003e2
     Pseudo is Ultrasoft + core correction, Zval = 14.0
     Generated by new atomic code, or converted to UPF format
     Using radial grid of  899 points,  6 beta functions with:
                l(1) =   0
                l(2) =   0
                l(3) =   1
                l(4) =   1
                l(5) =   2
                l(6) =   2
     Q(r) pseudized with  6 coefficients,  rinner =    1.000   1.000   1.000
                                                       1.000   1.000

     PseudoPot. # 2 for Au read from file:
     /afs/slac.stanford.edu/u/if/mamunm/psp/gbrv1.5pbe/Au.UPF
     MD5 check sum: 9d7f43293ad2c663164586bc4b293ffc
     Pseudo is Ultrasoft + core correction, Zval = 11.0
     Generated by new atomic code, or converted to UPF format
     Using radial grid of  985 points,  7 beta functions with:
                l(1) =   0
                l(2) =   0
                l(3) =   1
                l(4) =   1
                l(5) =   2
                l(6) =   2
                l(7) =   3
     Q(r) pseudized with  6 coefficients,  rinner =    1.900   1.900   1.900
                                                       1.900   1.900   1.900
                                                       1.900

     vdW kernel table read from file vdW_kernel_table
     MD5 check sum: 095c7af220d748ca6e76c0b4c6cfb241

     atomic species   valence    mass     pseudopotential
        Pb1           14.00   207.20000     Pb( 1.00)
        Au1           11.00   196.96657     Au( 1.00)

     No symmetry found

   Cartesian axes

     site n.     atom                  positions (alat units)
         1           Pb1 tau(   1) = (   0.0000000   0.0000000  10.0000000  )
         2           Pb1 tau(   2) = (  -1.7191755   2.9776993  10.0000000  )
         3           Pb1 tau(   3) = (   1.7191755   2.9776993  10.0000000  )
         4           Au1 tau(   4) = (   3.4383510   0.0000000  10.0000000  )
         5           Pb1 tau(   5) = (   3.4383510   1.9851329  12.8074019  )
         6           Pb1 tau(   6) = (   1.7191755   4.9628322  12.8074019  )
         7           Pb1 tau(   7) = (  -1.7191755   4.9628322  12.8074019  )
         8           Au1 tau(   8) = (   0.0000000   1.9851329  12.8074019  )
         9           Pb1 tau(   9) = (  -0.0000000   3.9702658  15.6148037  )
        10           Pb1 tau(  10) = (   1.7191755   0.9925664  15.6148037  )
        11           Pb1 tau(  11) = (   5.1575265   0.9925664  15.6148037  )
        12           Au1 tau(  12) = (   3.4383510   3.9702658  15.6148037  )

     number of k points=    20  Fermi-Dirac smearing, width (Ry)=  0.0110
                       cart. coord. in units 2pi/alat
        k(    1) = (   0.0000000   0.0000000   0.0000000), wk =   0.0555556
        k(    2) = (   0.0000000   0.0279858   0.0000000), wk =   0.1111111
        k(    3) = (   0.0000000   0.0559716   0.0000000), wk =   0.1111111
        k(    4) = (   0.0000000  -0.0839574   0.0000000), wk =   0.0555556
        k(    5) = (   0.0242364   0.0139929   0.0000000), wk =   0.1111111
        k(    6) = (   0.0242364   0.0419787   0.0000000), wk =   0.1111111
        k(    7) = (   0.0242364   0.0699645   0.0000000), wk =   0.1111111
        k(    8) = (   0.0242364  -0.0699645   0.0000000), wk =   0.1111111
        k(    9) = (   0.0242364  -0.0419787   0.0000000), wk =   0.1111111
        k(   10) = (   0.0242364  -0.0139929   0.0000000), wk =   0.1111111
        k(   11) = (   0.0484728   0.0279858   0.0000000), wk =   0.1111111
        k(   12) = (   0.0484728   0.0559716   0.0000000), wk =   0.1111111
        k(   13) = (   0.0484728   0.0839574   0.0000000), wk =   0.1111111
        k(   14) = (   0.0484728  -0.0559716   0.0000000), wk =   0.1111111
        k(   15) = (   0.0484728  -0.0279858   0.0000000), wk =   0.1111111
        k(   16) = (   0.0484728   0.0000000   0.0000000), wk =   0.1111111
        k(   17) = (  -0.0727093  -0.0419787   0.0000000), wk =   0.0555556
        k(   18) = (  -0.0727093  -0.0139929   0.0000000), wk =   0.1111111
        k(   19) = (  -0.0727093   0.0139929   0.0000000), wk =   0.1111111
        k(   20) = (  -0.0727093  -0.1259362   0.0000000), wk =   0.0555556

     Largest allocated arrays     est. size (Mb)     dimensions
     Largest temporary arrays     est. size (Mb)     dimensions

     Check: negative/imaginary core charge=   -0.000001    0.000000

     Initial potential from superposition of free atoms
     Check: negative starting charge=   -0.150808

     starting charge  158.97847, renormalised to  159.00000

     negative rho (up, down):  1.508E-01 0.000E+00

     *
     * You are using vdW-DF for exchange-correlation in this calculation.
     * Please cite the following three references that made this development
     * possible:
     *
     *   M. Dion, H. Rydberg, E. Schroder, D. C. Langreth, and
     *   B. I. Lundqvist, Phys. Rev. Lett. 92, 246401 (2004).
     *
     *   T. Thonhauser, V. R. Cooper, S. Li, A. Puzder, P. Hyldgaard, and
     *   D. C. Langreth, Phys. Rev. B 76, 125112 (2007).
     *
     *   G. Roman-Perez and J. M. Soler, Phys. Rev. Lett. 103, 096102 (2009).
     *
     *
     * If you are using vdW-DF2, please also cite:
     *
     *   K. Lee, E. D. Murray, L. Kong, B. I. Lundqvist, and
     *   D. C. Langreth, Phys. Rev. B 82, 081101(R) (2010).
     *
     *
     * If you are calculating the stress with vdW-DF, please also cite:
     *
     *   R. Sabatini, E. Kucukbenli, B. Kolb, T. Thonhauser, and
     *   S. de Gironcoli, J. Phys.: Condens. Matter 24, 424209 (2012).
     *

     Carrying out vdW-DF run using the following parameters:

     Nqs =      20    Nr_points =    1024   r_max =   100.000
     q_mesh =
               0.00001000     0.04494208     0.09755937     0.15916263
               0.23128650     0.31572767     0.41458969     0.53033537
               0.66584808     0.82450364     1.01025438     1.22772762
               1.48234092     1.78043706     2.12944203     2.53805004
               3.01644009     3.57652955     4.23227104     5.00000000

     Gradients computed in reciprocal space

     Adding external electric field

     Computed dipole along edir(3) :
        Dipole               -0.0000 Ry au,         -0.0000 Debye
        Dipole field         -0.0000 Ry au

        Potential amp.        0.0000 Ry
        Total length         47.1948 bohr

     Starting wfc are  108 randomized atomic wfcs +    1 random wfc

     Self-consistent Calculation

     iteration #  1     ecut=    36.75 Ry     beta=0.10
     Davidson diagonalization with overlap
     ethr =  1.00E-02,  avg # of iterations =  6.7

     Threshold (ethr) on eigenvalues was too large:
     Diagonalizing with lowered threshold

     Davidson diagonalization with overlap
     ethr =  9.18E-05,  avg # of iterations =  8.3

[...]

     total energy              =   -1844.28612777 Ry
     Harris-Foulkes estimate   =   -1844.30715643 Ry
     estimated scf accuracy    <       0.15636447 Ry

[...]

     End of self-consistent calculation

          k = 0.0000 0.0000 0.0000 ( 26709 PWs)   bands (ev):

   -16.7947 -16.7859 -16.7648 -16.7648 -16.7481 -16.7481 -16.7243 -16.6882
   -16.6808 -16.6808 -16.6677 -16.6476 -16.6467 -16.6467 -16.6341 -16.6341
   -16.6298 -16.6232 -16.5830 -16.5751 -16.5751 -16.5731 -16.5731 -16.5699
   -16.5698 -16.5594 -16.5594 -16.5147 -16.5147 -16.4946 -16.4946 -16.4843
   -16.4528 -16.4243 -16.4193 -16.4117 -16.4117 -16.3909 -16.3909 -16.3619
   -16.3619 -16.3581 -16.3091 -16.3091 -16.2633 -10.0372  -9.1061  -7.8801
    -7.1665  -7.1665  -6.7021  -6.7021  -6.0761  -6.0761  -3.2407  -3.1502
    -2.9222  -2.9222  -2.6935  -2.6935  -2.6454  -2.6454  -2.5505  -2.3685
    -2.3530  -2.3530  -2.3470  -2.3470  -2.3156  -2.3156  -2.2385  -1.9078
    -1.6401  -1.5683  -1.5683  -1.1608  -0.9228  -0.9228  -0.4613  -0.4613
    -0.1066   0.2184   1.3470   2.4847   2.4847   2.6734   2.6734   3.3367
     3.8905   3.9933   4.0493   4.5532   4.7014   4.7014   5.0596   5.1313
     5.1313   5.1556   5.1622   5.9545   5.9545   6.0963   6.5061   6.6134
     6.7379   6.8334   6.8334   6.8960   7.0750

[...]

          k =-0.0727-0.0420 0.0000 ( 26582 PWs)   bands (ev):

[...]

     the Fermi energy is     0.7768 ev

!    total energy              =   -1844.28655828 Ry
     Harris-Foulkes estimate   =   -1844.28645012 Ry
     estimated scf accuracy    <       0.00000088 Ry

     The total energy is the sum of the following terms:

     one-electron contribution =   -8496.51614590 Ry
     hartree contribution      =    4323.59804192 Ry
     xc contribution           =    -779.50711914 Ry
     ewald contribution        =    3108.17262485 Ry
     electric field correction =       0.00000000 Ry
     smearing contrib. (-TS)   =      -0.03396001 Ry

     convergence has been achieved in  13 iterations

 BEEF-vdW xc energy contributions
           1 :   -695.371749732773
           2 :    645.747938920268
           3 :   -558.214540933428
           4 :    451.665269301632
           5 :   -345.623827717356
[...]
                l(3) =   1
                l(4) =   1
                l(5) =   2
                l(6) =   2
     Q(r) pseudized with  6 coefficients,  rinner =    1.000   1.000   1.000
                                                       1.000   1.000

     PseudoPot. # 2 for Au read from file:
     /afs/slac.stanford.edu/u/if/mamunm/psp/gbrv1.5pbe/Au.UPF
     MD5 check sum: 9d7f43293ad2c663164586bc4b293ffc
     Pseudo is Ultrasoft + core correction, Zval = 11.0
     Generated by new atomic code, or converted to UPF format
     Using radial grid of  985 points,  7 beta functions with:
                l(1) =   0
                l(2) =   0
                l(3) =   1
                l(4) =   1
                l(5) =   2
                l(6) =   2
                l(7) =   3
     Q(r) pseudized with  6 coefficients,  rinner =    1.900   1.900   1.900
                                                       1.900   1.900   1.900
                                                       1.900

     vdW kernel table read from file vdW_kernel_table
     MD5 check sum: 095c7af220d748ca6e76c0b4c6cfb241

     atomic species   valence    mass     pseudopotential
        Pb1           14.00   207.20000     Pb( 1.00)
        Au1           11.00   196.96657     Au( 1.00)

     No symmetry found

   Cartesian axes

     site n.     atom                  positions (alat units)
         1           Pb1 tau(   1) = (   0.0000000   0.0000000  10.0000000  )
         2           Pb1 tau(   2) = (  -1.7191755   2.9776993  10.0000000  )
         3           Pb1 tau(   3) = (   1.7191755   2.9776993  10.0000000  )
         4           Au1 tau(   4) = (   3.4383510   0.0000000  10.0000000  )
         5           Pb1 tau(   5) = (   3.4383510   1.9851329  12.8074019  )
         6           Pb1 tau(   6) = (   1.7191755   4.9628322  12.8074019  )
         7           Pb1 tau(   7) = (  -1.7191755   4.9628322  12.8074019  )
         8           Au1 tau(   8) = (   0.0000000   1.9851329  12.8074019  )
         9           Pb1 tau(   9) = (   0.0000064   3.9214998  15.5722850  )
        10           Pb1 tau(  10) = (   1.6769304   1.0169498  15.5722552  )
        11           Pb1 tau(  11) = (   5.1997699   1.0169541  15.5722639  )
        12           Au1 tau(  12) = (   3.4383432   3.9702652  15.2273242  )

     number of k points=    20  Fermi-Dirac smearing, width (Ry)=  0.0110
                       cart. coord. in units 2pi/alat
        k(    1) = (   0.0000000   0.0000000   0.0000000), wk =   0.0555556
        k(    2) = (   0.0000000   0.0279858   0.0000000), wk =   0.1111111
        k(    3) = (   0.0000000   0.0559716   0.0000000), wk =   0.1111111
        k(    4) = (   0.0000000  -0.0839574   0.0000000), wk =   0.0555556
        k(    5) = (   0.0242364   0.0139929   0.0000000), wk =   0.1111111
        k(    6) = (   0.0242364   0.0419787   0.0000000), wk =   0.1111111
        k(    7) = (   0.0242364   0.0699645   0.0000000), wk =   0.1111111
        k(    8) = (   0.0242364  -0.0699645   0.0000000), wk =   0.1111111
        k(    9) = (   0.0242364  -0.0419787   0.0000000), wk =   0.1111111
        k(   10) = (   0.0242364  -0.0139929   0.0000000), wk =   0.1111111
        k(   11) = (   0.0484728   0.0279858   0.0000000), wk =   0.1111111
        k(   12) = (   0.0484728   0.0559716   0.0000000), wk =   0.1111111
        k(   13) = (   0.0484728   0.0839574   0.0000000), wk =   0.1111111
        k(   14) = (   0.0484728  -0.0559716   0.0000000), wk =   0.1111111
        k(   15) = (   0.0484728  -0.0279858   0.0000000), wk =   0.1111111
        k(   16) = (   0.0484728   0.0000000   0.0000000), wk =   0.1111111
        k(   17) = (  -0.0727093  -0.0419787   0.0000000), wk =   0.0555556
        k(   18) = (  -0.0727093  -0.0139929   0.0000000), wk =   0.1111111
        k(   19) = (  -0.0727093   0.0139929   0.0000000), wk =   0.1111111
        k(   20) = (  -0.0727093  -0.1259362   0.0000000), wk =   0.0555556

     Largest allocated arrays     est. size (Mb)     dimensions
     Largest temporary arrays     est. size (Mb)     dimensions

     Check: negative/imaginary core charge=   -0.000001    0.000000

     Initial potential from superposition of free atoms
     Check: negative starting charge=   -0.151387

     starting charge  158.97847, renormalised to  159.00000

[...]

     *
     * You are using vdW-DF for exchange-correlation in this calculation.
     * Please cite the following three references that made this development
     * possible:
     *
     *   M. Dion, H. Rydberg, E. Schroder, D. C. Langreth, and
     *   B. I. Lundqvist, Phys. Rev. Lett. 92, 246401 (2004).
     *
     *   T. Thonhauser, V. R. Cooper, S. Li, A. Puzder, P. Hyldgaard, and
     *   D. C. Langreth, Phys. Rev. B 76, 125112 (2007).
     *
     *   G. Roman-Perez and J. M. Soler, Phys. Rev. Lett. 103, 096102 (2009).
     *
     *
     * If you are using vdW-DF2, please also cite:
     *
     *   K. Lee, E. D. Murray, L. Kong, B. I. Lundqvist, and
     *   D. C. Langreth, Phys. Rev. B 82, 081101(R) (2010).
     *
     *
     * If you are calculating the stress with vdW-DF, please also cite:
     *
     *   R. Sabatini, E. Kucukbenli, B. Kolb, T. Thonhauser, and
     *   S. de Gironcoli, J. Phys.: Condens. Matter 24, 424209 (2012).
     *

     Carrying out vdW-DF run using the following parameters:

     Nqs =      20    Nr_points =    1024   r_max =   100.000
     q_mesh =
               0.00001000     0.04494208     0.09755937     0.15916263
               0.23128650     0.31572767     0.41458969     0.53033537
               0.66584808     0.82450364     1.01025438     1.22772762
               1.48234092     1.78043706     2.12944203     2.53805004
               3.01644009     3.57652955     4.23227104     5.00000000

     Gradients computed in reciprocal space

[...]

     Starting wfc are  108 randomized atomic wfcs +    1 random wfc

     Self-consistent Calculation

[...]

     Threshold (ethr) on eigenvalues was too large:
     Diagonalizing with lowered threshold

     Davidson diagonalization with overlap
     ethr =  1.04E-04,  avg # of iterations =  7.3

[...]

     total energy              =   -1844.29428378 Ry
     Harris-Foulkes estimate   =   -1844.29422220 Ry
     estimated scf accuracy    <       0.00000215 Ry

     iteration # 13     ecut=    36.75 Ry     beta=0.10
     Davidson diagonalization with overlap
     ethr =  1.35E-09,  avg # of iterations =  3.2

[...]

     negative rho (up, down):  1.606E-01 0.000E+00

     Adding external electric field

     Computed dipole along edir(3) :
        Dipole                0.0465 Ry au,          0.1182 Debye
        Dipole field          0.0001 Ry au

        Potential amp.       -0.0078 Ry
        Total length         47.1948 bohr

     End of self-consistent calculation

[...]

          k = 0.0485 0.0000 0.0000 ( 26637 PWs)   bands (ev):

[...]

          k =-0.0727-0.1259 0.0000 ( 26582 PWs)   bands (ev):

   -16.7212 -16.7108 -16.6559 -16.6443 -16.6218 -16.6202 -16.6161 -16.6124
   -16.6087 -16.6040 -16.6032 -16.5857 -16.5821 -16.5811 -16.5791 -16.5740
   -16.5720 -16.5686 -16.5660 -16.5629 -16.5602 -16.5592 -16.5486 -16.5405
   -16.5287 -16.5184 -16.5178 -16.4988 -16.4915 -16.4446 -16.4422 -16.4292
   -16.4113 -16.4062 -16.3984 -16.3832 -16.3688 -16.3674 -16.3575 -16.3565
   -16.3520 -16.3289 -16.3278 -16.3070 -16.2478  -9.2042  -8.9925  -8.2580
    -7.9010  -7.3959  -7.2918  -6.9279  -6.6909  -5.8693  -3.6686  -3.2973
    -3.1439  -3.1337  -2.9845  -2.9286  -2.9273  -2.8707  -2.8040  -2.7922
    -2.7180  -2.6262  -2.5233  -2.3378  -2.3340  -2.2713  -1.9774  -1.6798
    -0.5216  -0.2688  -0.0945   0.0528   0.2010   0.2372   0.8974   1.0471
     1.1667   1.3417   1.7905   1.8882   2.0905   2.5777   2.6907   2.7430
     3.0504   3.2332   3.6629   3.7477   3.8002   4.2103   4.4920   4.8172
     4.8748   4.9754   5.1777   5.3883   5.4449   5.4873   5.6884   5.6991
     5.7712   6.0048   6.0196   6.2771   6.3152

     the Fermi energy is     0.8284 ev

!    total energy              =   -1844.29439343 Ry
     Harris-Foulkes estimate   =   -1844.29428413 Ry
     estimated scf accuracy    <       0.00000051 Ry

     The total energy is the sum of the following terms:

     one-electron contribution =   -8634.33378200 Ry
     hartree contribution      =    4392.63280347 Ry
     xc contribution           =    -779.58032965 Ry
     ewald contribution        =    3177.01941911 Ry
     electric field correction =       0.00000384 Ry
     smearing contrib. (-TS)   =      -0.03250819 Ry

     convergence has been achieved in  13 iterations

 BEEF-vdW xc energy contributions
           1 :   -695.456321774206
           2 :    645.901837304652
           3 :   -558.447538574572
           4 :    451.912286179306
           5 :   -345.783132033349
           6 :    254.467352132169
           7 :   -184.300713976672
           8 :    133.947642921952
           9 :   -97.4731625302760
          10 :    68.3536847134625
          11 :   -42.5516116475320
          12 :    19.4827822847458
          13 :  -0.916188962004412
          14 :   -11.1658808564841
          15 :    16.3794128638554
          16 :   -16.4853637718795
          17 :    14.5615537779634
          18 :   -13.4593220516541
          19 :    14.4940853740910
          20 :   -17.0798598851896
          21 :    19.4145591735429
          22 :   -19.7385776437937
          23 :    17.4143023739998
          24 :   -13.2519147734318
          25 :    8.97820891327035
          26 :   -6.23531140905732
          27 :    5.71343632283367
          28 :   -6.88899965939493
          29 :    8.45482240871127
          30 :   -9.13890428094226
          31 :   -55.3536088830045
          32 :   -40.4410387722731

     Forces acting on atoms (Ry/au):

     negative rho (up, down):  1.606E-01 0.000E+00
     atom    1 type  1   force =    -0.00000009    0.00835562    0.00090928
     atom    2 type  1   force =     0.00723610   -0.00417824    0.00091008
     atom    3 type  1   force =    -0.00723594   -0.00417788    0.00090888
     atom    4 type  2   force =    -0.00000043    0.00000022    0.01171223
     atom    5 type  1   force =    -0.00000059   -0.00445773   -0.00430667
     atom    6 type  1   force =    -0.00386134    0.00222794   -0.00430626
     atom    7 type  1   force =     0.00386321    0.00222998   -0.00430757
     atom    8 type  2   force =     0.00000003    0.00000033   -0.00021394
     atom    9 type  1   force =    -0.00000007   -0.00029961   -0.00038500
     atom   10 type  1   force =    -0.00025852    0.00014980   -0.00038341
     atom   11 type  1   force =     0.00025806    0.00014997   -0.00038308
     atom   12 type  2   force =    -0.00000042   -0.00000041   -0.00015453

     Total force =     0.021568     Total SCF correction =     0.004861
     SCF correction compared to forces is large: reduce conv_thr to get better values

     entering subroutine stress ...

     negative rho (up, down):  1.606E-01 0.000E+00
          total   stress  (Ry/bohr**3)                   (kbar)     P=   -3.16
  -0.00002849  -0.00000000  -0.00000000         -4.19     -0.00     -0.00
  -0.00000000  -0.00002849   0.00000000         -0.00     -4.19      0.00
  -0.00000000   0.00000000  -0.00000753         -0.00      0.00     -1.11

 !ASE

     Writing output data file calc.save

     General routines

     Parallel routines

   This run was terminated on:  10:20:16  31Dec2018

   JOB DONE.
Job  /afs/slac/g/suncat/bin/suncat-tsmpirun -x LD_LIBRARY_PATH -wdir /scratch/qe648713_B374N pw.x -in pw.inp

TID   HOST_NAME   COMMAND_LINE            STATUS            TERMINATION_TIME
00000 suncat0074 pw.x -in pw.inp   Done                     12/31/2018 10:20:16
00001 suncat0074 pw.x -in pw.inp   Done                     12/31/2018 10:20:16
00002 suncat0074 pw.x -in pw.inp   Done                     12/31/2018 10:20:16
00003 suncat0074 pw.x -in pw.inp   Done                     12/31/2018 10:20:16
00004 suncat0074 pw.x -in pw.inp   Done                     12/31/2018 10:20:16
00005 suncat0074 pw.x -in pw.inp   Done                     12/31/2018 10:20:16
00006 suncat0074 pw.x -in pw.inp   Done                     12/31/2018 10:20:16
00007 suncat0074 pw.x -in pw.inp   Done                     12/31/2018 10:20:16
00008 suncat0073 pw.x -in pw.inp   Done                     12/31/2018 10:20:16
00009 suncat0073 pw.x -in pw.inp   Done                     12/31/2018 10:20:16
00010 suncat0073 pw.x -in pw.inp   Done                     12/31/2018 10:20:16
00011 suncat0073 pw.x -in pw.inp   Done                     12/31/2018 10:20:16
00012 suncat0073 pw.x -in pw.inp   Done                     12/31/2018 10:20:16
00013 suncat0073 pw.x -in pw.inp   Done                     12/31/2018 10:20:16
00014 suncat0073 pw.x -in pw.inp   Done                     12/31/2018 10:20:16
00015 suncat0073 pw.x -in pw.inp   Done                     12/31/2018 10:20:16
00016 suncat0065 pw.x -in pw.inp   Done                     12/31/2018 10:20:16
00017 suncat0065 pw.x -in pw.inp   Done                     12/31/2018 10:20:16
00018 suncat0065 pw.x -in pw.inp   Done                     12/31/2018 10:20:16
00019 suncat0065 pw.x -in pw.inp   Done                     12/31/2018 10:20:16
00020 suncat0065 pw.x -in pw.inp   Done                     12/31/2018 10:20:16
00021 suncat0065 pw.x -in pw.inp   Done                     12/31/2018 10:20:16
00022 suncat0065 pw.x -in pw.inp   Done                     12/31/2018 10:20:16
00023 suncat0065 pw.x -in pw.inp   Done                     12/31/2018 10:20:16
00024 suncat0064 pw.x -in pw.inp   Done                     12/31/2018 10:20:16
00025 suncat0064 pw.x -in pw.inp   Done                     12/31/2018 10:20:16
00026 suncat0064 pw.x -in pw.inp   Done                     12/31/2018 10:20:16
00027 suncat0064 pw.x -in pw.inp   Done                     12/31/2018 10:20:16
00028 suncat0064 pw.x -in pw.inp   Done                     12/31/2018 10:20:16
00029 suncat0064 pw.x -in pw.inp   Done                     12/31/2018 10:20:16
00030 suncat0064 pw.x -in pw.inp   Done                     12/31/2018 10:20:16
00031 suncat0064 pw.x -in pw.inp   Done                     12/31/2018 10:20:16
00032 suncat0139 pw.x -in pw.inp   Done                     12/31/2018 10:20:16
00033 suncat0139 pw.x -in pw.inp   Done                     12/31/2018 10:20:16
00034 suncat0139 pw.x -in pw.inp   Done                     12/31/2018 10:20:16
00035 suncat0139 pw.x -in pw.inp   Done                     12/31/2018 10:20:16
00036 suncat0139 pw.x -in pw.inp   Done                     12/31/2018 10:20:16
00037 suncat0139 pw.x -in pw.inp   Done                     12/31/2018 10:20:16
00038 suncat0139 pw.x -in pw.inp   Done                     12/31/2018 10:20:16
00039 suncat0139 pw.x -in pw.inp   Done                     12/31/2018 10:20:16
00040 suncat0124 pw.x -in pw.inp   Done                     12/31/2018 10:20:16
00041 suncat0124 pw.x -in pw.inp   Done                     12/31/2018 10:20:16
00042 suncat0124 pw.x -in pw.inp   Done                     12/31/2018 10:20:16
00043 suncat0124 pw.x -in pw.inp   Done                     12/31/2018 10:20:16
00044 suncat0124 pw.x -in pw.inp   Done                     12/31/2018 10:20:16
00045 suncat0124 pw.x -in pw.inp   Done                     12/31/2018 10:20:16
00046 suncat0124 pw.x -in pw.inp   Done                     12/31/2018 10:20:16
00047 suncat0124 pw.x -in pw.inp   Done                     12/31/2018 10:20:16
00048 suncat0123 pw.x -in pw.inp   Done                     12/31/2018 10:20:16
00049 suncat0123 pw.x -in pw.inp   Done                     12/31/2018 10:20:16
00050 suncat0123 pw.x -in pw.inp   Done                     12/31/2018 10:20:16
00051 suncat0123 pw.x -in pw.inp   Done                     12/31/2018 10:20:16
00052 suncat0123 pw.x -in pw.inp   Done                     12/31/2018 10:20:16
00053 suncat0123 pw.x -in pw.inp   Done                     12/31/2018 10:20:16
00054 suncat0123 pw.x -in pw.inp   Done                     12/31/2018 10:20:16
00055 suncat0123 pw.x -in pw.inp   Done                     12/31/2018 10:20:16
00056 suncat0122 pw.x -in pw.inp   Done                     12/31/2018 10:20:16
00057 suncat0122 pw.x -in pw.inp   Done                     12/31/2018 10:20:16
00058 suncat0122 pw.x -in pw.inp   Done                     12/31/2018 10:20:16
00059 suncat0122 pw.x -in pw.inp   Done                     12/31/2018 10:20:16
00060 suncat0122 pw.x -in pw.inp   Done                     12/31/2018 10:20:16
00061 suncat0122 pw.x -in pw.inp   Done                     12/31/2018 10:20:16
00062 suncat0122 pw.x -in pw.inp   Done                     12/31/2018 10:20:16
00063 suncat0122 pw.x -in pw.inp   Done                     12/31/2018 10:20:16