     Program PWSCF v.5.1rc2 (svn rev. 11289) starts on 18Dec2018 at 16:52:14

     Current dimensions of program PWSCF are:
     Max number of different atomic species (ntypx) = 10
     Max number of k-points (npk) =  40000
     Max angular momentum in pseudopotentials (lmaxx) =  3
     Presently stress not available with electric field

     IMPORTANT: XC functional enforced from input :
     Exchange-correlation      = BEEF-VDW ( 1  4 27 13 2)
     Any further DFT definition will be discarded
     Please, verify this is what you really want

     Subspace diagonalization in iterative solution of the eigenvalue problem:
     a serial algorithm will be used

     Found symmetry operation: I + ( -0.5000 -0.5000  0.0000)
     This is a supercell, fractional translations are disabled

     Generating pointlists ...
     new r_m :   0.4125 (alat units)  0.7795 (a.u.) for type    1
     new r_m :   0.4125 (alat units)  0.7795 (a.u.) for type    2

     bravais-lattice index     =            0
     lattice parameter (alat)  =       1.8897  a.u.
     unit-cell volume          =    6111.8808 (a.u.)^3
     number of atoms/cell      =           12
     number of atomic types    =            2
     number of electrons       =       156.00
     number of Kohn-Sham states=          108
     kinetic-energy cutoff     =      36.7493  Ry
     charge density cutoff     =     367.4932  Ry
     convergence threshold     =      1.0E-06
     mixing beta               =       0.1000
     number of iterations used =           10  plain     mixing
     Exchange-correlation      = BEEF-VDW ( 1  4 27 13 2)
     nstep                     =           50

     celldm(1)=   1.889726  celldm(2)=   0.000000  celldm(3)=   0.000000
     celldm(4)=   0.000000  celldm(5)=   0.000000  celldm(6)=   0.000000

     crystal axes: (cart. coord. in units of alat)
               a(1) = (   6.185729   0.000000   0.000000 )
               a(2) = (   2.015056   5.848315   0.000000 )
               a(3) = (   0.000000   0.000000  25.035520 )

     reciprocal axes: (cart. coord. in units 2 pi/alat)
               b(1) = (  0.161662 -0.055701  0.000000 )
               b(2) = (  0.000000  0.170989  0.000000 )
               b(3) = (  0.000000  0.000000  0.039943 )

     PseudoPot. # 1 for Mn read from file:
     /afs/slac.stanford.edu/u/if/mamunm/psp/gbrv1.5pbe/Mn.UPF
     MD5 check sum: 82ef2b46521d7a7d9e736dc3972e4928
     Pseudo is Ultrasoft + core correction, Zval = 15.0
     Generated by new atomic code, or converted to UPF format
     Using radial grid of  859 points,  6 beta functions with:
                l(1) =   0
                l(2) =   0
                l(3) =   1
                l(4) =   1
                l(5) =   2
                l(6) =   2
     Q(r) pseudized with  8 coefficients,  rinner =    0.950   0.950   0.950
                                                       0.950   0.950

     PseudoPot. # 2 for Y  read from file:
     /afs/slac.stanford.edu/u/if/mamunm/psp/gbrv1.5pbe/Y.UPF
     MD5 check sum: d034151ed7554c50b6e82763ed42c788
     Pseudo is Ultrasoft + core correction, Zval = 11.0
     Generated by new atomic code, or converted to UPF format
     Using radial grid of  885 points,  6 beta functions with:
                l(1) =   0
                l(2) =   0
                l(3) =   1
                l(4) =   1
                l(5) =   2
                l(6) =   2
     Q(r) pseudized with  8 coefficients,  rinner =    1.200   1.200   1.200
                                                       1.200   1.200

     vdW kernel table read from file vdW_kernel_table
     MD5 check sum: 095c7af220d748ca6e76c0b4c6cfb241

     atomic species   valence    mass     pseudopotential
        Mn1           15.00    54.93804     Mn( 1.00)
        Y1            11.00    88.90584     Y ( 1.00)

     Starting magnetic structure
     atomic species   magnetization
        Mn1          0.133
        Y1           0.182

     No symmetry found

   Cartesian axes

     site n.     atom                  positions (alat units)
         1           Mn1 tau(   1) = (   0.0000000   0.0000000  10.0000000  )
         2           Mn1 tau(   2) = (   4.1003922   2.9241577  10.0000000  )
         3           Y1  tau(   3) = (   3.0928644   0.0000000  10.0000000  )
         4           Y1  tau(   4) = (   1.0075278   2.9241577  10.0000000  )
         5           Mn1 tau(   5) = (   6.1857288   4.4112966  12.5177601  )
         6           Mn1 tau(   6) = (   2.0853366   1.4871390  12.5177601  )
         7           Y1  tau(   7) = (   3.0928644   4.4112966  12.5177601  )
         8           Y1  tau(   8) = (   5.1782010   1.4871390  12.5177601  )
         9           Mn1 tau(   9) = (   4.1706732   2.9742780  15.0355201  )
        10           Mn1 tau(  10) = (   0.0702810   0.0501203  15.0355201  )
        11           Y1  tau(  11) = (   1.0778088   2.9742780  15.0355201  )
        12           Y1  tau(  12) = (   3.1631455   0.0501203  15.0355201  )

     number of k points=    40  Fermi-Dirac smearing, width (Ry)=  0.0110
                       cart. coord. in units 2pi/alat
        k(    1) = (   0.0000000   0.0000000   0.0000000), wk =   0.0277778
        k(    2) = (   0.0000000   0.0284982   0.0000000), wk =   0.0555556
        k(    3) = (   0.0000000   0.0569965   0.0000000), wk =   0.0555556
        k(    4) = (   0.0000000  -0.0854947   0.0000000), wk =   0.0277778
        k(    5) = (   0.0269437  -0.0092836   0.0000000), wk =   0.0555556
        k(    6) = (   0.0269437   0.0192147   0.0000000), wk =   0.0555556
        k(    7) = (   0.0269437   0.0477129   0.0000000), wk =   0.0555556
        k(    8) = (   0.0269437  -0.0947783   0.0000000), wk =   0.0555556
        k(    9) = (   0.0269437  -0.0662800   0.0000000), wk =   0.0555556
        k(   10) = (   0.0269437  -0.0377818   0.0000000), wk =   0.0555556
        k(   11) = (   0.0538875  -0.0185671   0.0000000), wk =   0.0555556
        k(   12) = (   0.0538875   0.0099311   0.0000000), wk =   0.0555556
        k(   13) = (   0.0538875   0.0384294   0.0000000), wk =   0.0555556
        k(   14) = (   0.0538875  -0.1040618   0.0000000), wk =   0.0555556
        k(   15) = (   0.0538875  -0.0755636   0.0000000), wk =   0.0555556
        k(   16) = (   0.0538875  -0.0470653   0.0000000), wk =   0.0555556
        k(   17) = (  -0.0808312   0.0278507   0.0000000), wk =   0.0277778
        k(   18) = (  -0.0808312   0.0563489   0.0000000), wk =   0.0555556
        k(   19) = (  -0.0808312   0.0848471   0.0000000), wk =   0.0555556
        k(   20) = (  -0.0808312  -0.0576441   0.0000000), wk =   0.0277778
        k(   21) = (   0.0000000   0.0000000   0.0000000), wk =   0.0277778
        k(   22) = (   0.0000000   0.0284982   0.0000000), wk =   0.0555556
        k(   23) = (   0.0000000   0.0569965   0.0000000), wk =   0.0555556
        k(   24) = (   0.0000000  -0.0854947   0.0000000), wk =   0.0277778
        k(   25) = (   0.0269437  -0.0092836   0.0000000), wk =   0.0555556
        k(   26) = (   0.0269437   0.0192147   0.0000000), wk =   0.0555556
        k(   27) = (   0.0269437   0.0477129   0.0000000), wk =   0.0555556
        k(   28) = (   0.0269437  -0.0947783   0.0000000), wk =   0.0555556
        k(   29) = (   0.0269437  -0.0662800   0.0000000), wk =   0.0555556
        k(   30) = (   0.0269437  -0.0377818   0.0000000), wk =   0.0555556
        k(   31) = (   0.0538875  -0.0185671   0.0000000), wk =   0.0555556
        k(   32) = (   0.0538875   0.0099311   0.0000000), wk =   0.0555556
        k(   33) = (   0.0538875   0.0384294   0.0000000), wk =   0.0555556
        k(   34) = (   0.0538875  -0.1040618   0.0000000), wk =   0.0555556
        k(   35) = (   0.0538875  -0.0755636   0.0000000), wk =   0.0555556
        k(   36) = (   0.0538875  -0.0470653   0.0000000), wk =   0.0555556
        k(   37) = (  -0.0808312   0.0278507   0.0000000), wk =   0.0277778
        k(   38) = (  -0.0808312   0.0563489   0.0000000), wk =   0.0555556
        k(   39) = (  -0.0808312   0.0848471   0.0000000), wk =   0.0555556
        k(   40) = (  -0.0808312  -0.0576441   0.0000000), wk =   0.0277778

     Largest allocated arrays     est. size (Mb)     dimensions
     Largest temporary arrays     est. size (Mb)     dimensions

     Check: negative/imaginary core charge=   -0.000005    0.000000

     Initial potential from superposition of free atoms
     Check: negative starting charge=(component1):   -0.001315
     Check: negative starting charge=(component2):   -0.001004

     starting charge  152.97267, renormalised to  156.00000

     negative rho (up, down):  1.341E-03 1.024E-03

     *
     * You are using vdW-DF for exchange-correlation in this calculation.
     * Please cite the following three references that made this development
     * possible:
     *
     *   M. Dion, H. Rydberg, E. Schroder, D. C. Langreth, and
     *   B. I. Lundqvist, Phys. Rev. Lett. 92, 246401 (2004).
     *
     *   T. Thonhauser, V. R. Cooper, S. Li, A. Puzder, P. Hyldgaard, and
     *   D. C. Langreth, Phys. Rev. B 76, 125112 (2007).
     *
     *   G. Roman-Perez and J. M. Soler, Phys. Rev. Lett. 103, 096102 (2009).
     *
     *
     * If you are using vdW-DF2, please also cite:
     *
     *   K. Lee, E. D. Murray, L. Kong, B. I. Lundqvist, and
     *   D. C. Langreth, Phys. Rev. B 82, 081101(R) (2010).
     *
     *
     * If you are calculating the stress with vdW-DF, please also cite:
     *
     *   R. Sabatini, E. Kucukbenli, B. Kolb, T. Thonhauser, and
     *   S. de Gironcoli, J. Phys.: Condens. Matter 24, 424209 (2012).
     *

     Carrying out vdW-DF run using the following parameters:

     Nqs =      20    Nr_points =    1024   r_max =   100.000
     q_mesh =
               0.00001000     0.04494208     0.09755937     0.15916263
               0.23128650     0.31572767     0.41458969     0.53033537
               0.66584808     0.82450364     1.01025438     1.22772762
               1.48234092     1.78043706     2.12944203     2.53805004
               3.01644009     3.57652955     4.23227104     5.00000000

     Gradients computed in reciprocal space

     Adding external electric field

     Computed dipole along edir(3) :
        Dipole                0.0000 Ry au,          0.0000 Debye
        Dipole field          0.0000 Ry au

        Potential amp.       -0.0000 Ry
        Total length         46.1275 bohr

[...]

     Starting wfc are  156 randomized atomic wfcs

     Self-consistent Calculation

     iteration #  1     ecut=    36.75 Ry     beta=0.10
     Davidson diagonalization with overlap
     ethr =  1.00E-02,  avg # of iterations =  2.0

[...]

     Magnetic moment per site:
     atom:    1    charge:    6.0386    magn:    0.8325    constr:    0.0000
     atom:    2    charge:    6.0386    magn:    0.8325    constr:    0.0000
     atom:    3    charge:    0.8774    magn:    0.1450    constr:    0.0000
     atom:    4    charge:    0.8774    magn:    0.1450    constr:    0.0000
     atom:    5    charge:    6.0691    magn:    0.8042    constr:    0.0000
     atom:    6    charge:    6.0691    magn:    0.8042    constr:    0.0000
[...]
                l(3) =   1
                l(4) =   1
                l(5) =   2
                l(6) =   2
     Q(r) pseudized with  8 coefficients,  rinner =    0.950   0.950   0.950
                                                       0.950   0.950

     PseudoPot. # 2 for Y  read from file:
     /afs/slac.stanford.edu/u/if/mamunm/psp/gbrv1.5pbe/Y.UPF
     MD5 check sum: d034151ed7554c50b6e82763ed42c788
     Pseudo is Ultrasoft + core correction, Zval = 11.0
     Generated by new atomic code, or converted to UPF format
     Using radial grid of  885 points,  6 beta functions with:
                l(1) =   0
                l(2) =   0
                l(3) =   1
                l(4) =   1
                l(5) =   2
                l(6) =   2
     Q(r) pseudized with  8 coefficients,  rinner =    1.200   1.200   1.200
                                                       1.200   1.200

     vdW kernel table read from file vdW_kernel_table
     MD5 check sum: 095c7af220d748ca6e76c0b4c6cfb241

     atomic species   valence    mass     pseudopotential
        Mn1           15.00    54.93804     Mn( 1.00)
        Y1            11.00    88.90584     Y ( 1.00)

     Starting magnetic structure
     atomic species   magnetization
        Mn1          0.133
        Y1           0.182

     No symmetry found

   Cartesian axes

     site n.     atom                  positions (alat units)
         1           Mn1 tau(   1) = (   0.0000000   0.0000000  10.0000000  )
         2           Mn1 tau(   2) = (   4.1003922   2.9241577  10.0000000  )
         3           Y1  tau(   3) = (   3.0928644   0.0000000  10.0000000  )
         4           Y1  tau(   4) = (   1.0075278   2.9241577  10.0000000  )
         5           Mn1 tau(   5) = (   6.1857288   4.4112966  12.5177601  )
         6           Mn1 tau(   6) = (   2.0853366   1.4871390  12.5177601  )
         7           Y1  tau(   7) = (   3.0928644   4.4112966  12.5177601  )
         8           Y1  tau(   8) = (   5.1782010   1.4871390  12.5177601  )
         9           Mn1 tau(   9) = (   4.1672434   2.9718064  14.8400513  )
        10           Mn1 tau(  10) = (   0.0662977   0.0473092  14.8399940  )
        11           Y1  tau(  11) = (   1.0664081   2.9660190  14.9831046  )
        12           Y1  tau(  12) = (   3.1515914   0.0420122  14.9831050  )

     number of k points=    40  Fermi-Dirac smearing, width (Ry)=  0.0110
                       cart. coord. in units 2pi/alat
        k(    1) = (   0.0000000   0.0000000   0.0000000), wk =   0.0277778
        k(    2) = (   0.0000000   0.0284982   0.0000000), wk =   0.0555556
        k(    3) = (   0.0000000   0.0569965   0.0000000), wk =   0.0555556
        k(    4) = (   0.0000000  -0.0854947   0.0000000), wk =   0.0277778
        k(    5) = (   0.0269437  -0.0092836   0.0000000), wk =   0.0555556
        k(    6) = (   0.0269437   0.0192147   0.0000000), wk =   0.0555556
        k(    7) = (   0.0269437   0.0477129   0.0000000), wk =   0.0555556
        k(    8) = (   0.0269437  -0.0947783   0.0000000), wk =   0.0555556
        k(    9) = (   0.0269437  -0.0662800   0.0000000), wk =   0.0555556
        k(   10) = (   0.0269437  -0.0377818   0.0000000), wk =   0.0555556
        k(   11) = (   0.0538875  -0.0185671   0.0000000), wk =   0.0555556
        k(   12) = (   0.0538875   0.0099311   0.0000000), wk =   0.0555556
        k(   13) = (   0.0538875   0.0384294   0.0000000), wk =   0.0555556
        k(   14) = (   0.0538875  -0.1040618   0.0000000), wk =   0.0555556
        k(   15) = (   0.0538875  -0.0755636   0.0000000), wk =   0.0555556
        k(   16) = (   0.0538875  -0.0470653   0.0000000), wk =   0.0555556
        k(   17) = (  -0.0808312   0.0278507   0.0000000), wk =   0.0277778
        k(   18) = (  -0.0808312   0.0563489   0.0000000), wk =   0.0555556
        k(   19) = (  -0.0808312   0.0848471   0.0000000), wk =   0.0555556
        k(   20) = (  -0.0808312  -0.0576441   0.0000000), wk =   0.0277778
        k(   21) = (   0.0000000   0.0000000   0.0000000), wk =   0.0277778
        k(   22) = (   0.0000000   0.0284982   0.0000000), wk =   0.0555556
        k(   23) = (   0.0000000   0.0569965   0.0000000), wk =   0.0555556
        k(   24) = (   0.0000000  -0.0854947   0.0000000), wk =   0.0277778
        k(   25) = (   0.0269437  -0.0092836   0.0000000), wk =   0.0555556
        k(   26) = (   0.0269437   0.0192147   0.0000000), wk =   0.0555556
        k(   27) = (   0.0269437   0.0477129   0.0000000), wk =   0.0555556
        k(   28) = (   0.0269437  -0.0947783   0.0000000), wk =   0.0555556
        k(   29) = (   0.0269437  -0.0662800   0.0000000), wk =   0.0555556
        k(   30) = (   0.0269437  -0.0377818   0.0000000), wk =   0.0555556
        k(   31) = (   0.0538875  -0.0185671   0.0000000), wk =   0.0555556
        k(   32) = (   0.0538875   0.0099311   0.0000000), wk =   0.0555556
        k(   33) = (   0.0538875   0.0384294   0.0000000), wk =   0.0555556
        k(   34) = (   0.0538875  -0.1040618   0.0000000), wk =   0.0555556
        k(   35) = (   0.0538875  -0.0755636   0.0000000), wk =   0.0555556
        k(   36) = (   0.0538875  -0.0470653   0.0000000), wk =   0.0555556
        k(   37) = (  -0.0808312   0.0278507   0.0000000), wk =   0.0277778
        k(   38) = (  -0.0808312   0.0563489   0.0000000), wk =   0.0555556
        k(   39) = (  -0.0808312   0.0848471   0.0000000), wk =   0.0555556
        k(   40) = (  -0.0808312  -0.0576441   0.0000000), wk =   0.0277778

     Largest allocated arrays     est. size (Mb)     dimensions
     Largest temporary arrays     est. size (Mb)     dimensions

     Check: negative/imaginary core charge=   -0.000005    0.000000

     Initial potential from superposition of free atoms
     Check: negative starting charge=(component1):   -0.001297
     Check: negative starting charge=(component2):   -0.000989

     starting charge  152.97267, renormalised to  156.00000

[...]

     *
     * You are using vdW-DF for exchange-correlation in this calculation.
     * Please cite the following three references that made this development
     * possible:
     *
     *   M. Dion, H. Rydberg, E. Schroder, D. C. Langreth, and
     *   B. I. Lundqvist, Phys. Rev. Lett. 92, 246401 (2004).
     *
     *   T. Thonhauser, V. R. Cooper, S. Li, A. Puzder, P. Hyldgaard, and
     *   D. C. Langreth, Phys. Rev. B 76, 125112 (2007).
     *
     *   G. Roman-Perez and J. M. Soler, Phys. Rev. Lett. 103, 096102 (2009).
     *
     *
     * If you are using vdW-DF2, please also cite:
     *
     *   K. Lee, E. D. Murray, L. Kong, B. I. Lundqvist, and
     *   D. C. Langreth, Phys. Rev. B 82, 081101(R) (2010).
     *
     *
     * If you are calculating the stress with vdW-DF, please also cite:
     *
     *   R. Sabatini, E. Kucukbenli, B. Kolb, T. Thonhauser, and
     *   S. de Gironcoli, J. Phys.: Condens. Matter 24, 424209 (2012).
     *

     Carrying out vdW-DF run using the following parameters:

     Nqs =      20    Nr_points =    1024   r_max =   100.000
     q_mesh =
               0.00001000     0.04494208     0.09755937     0.15916263
               0.23128650     0.31572767     0.41458969     0.53033537
               0.66584808     0.82450364     1.01025438     1.22772762
               1.48234092     1.78043706     2.12944203     2.53805004
               3.01644009     3.57652955     4.23227104     5.00000000

     Gradients computed in reciprocal space

[...]

     Starting wfc are  156 randomized atomic wfcs

     Self-consistent Calculation

[...]

     total energy              =   -1834.75705863 Ry
     Harris-Foulkes estimate   =   -1834.75705402 Ry
     estimated scf accuracy    <       0.00000118 Ry

[...]

     iteration # 33     ecut=    36.75 Ry     beta=0.10
     Davidson diagonalization with overlap
     ethr =  7.54E-10,  avg # of iterations =  3.9

[...]

     negative rho (up, down):  1.494E-03 1.294E-03

[...]

     Adding external electric field

     Computed dipole along edir(3) :
        Dipole                0.0340 Ry au,          0.0864 Debye
        Dipole field          0.0001 Ry au

        Potential amp.       -0.0064 Ry
        Total length         46.1275 bohr

     Magnetic moment per site:
     atom:    1    charge:    6.0089    magn:    1.4713    constr:    0.0000
     atom:    2    charge:    6.0089    magn:    1.4714    constr:    0.0000
     atom:    3    charge:    0.8631    magn:   -0.0102    constr:    0.0000
     atom:    4    charge:    0.8631    magn:   -0.0102    constr:    0.0000
     atom:    5    charge:    6.0038    magn:    1.3693    constr:    0.0000
     atom:    6    charge:    6.0039    magn:    1.3692    constr:    0.0000
     atom:    7    charge:    0.8673    magn:   -0.0100    constr:    0.0000
     atom:    8    charge:    0.8673    magn:   -0.0100    constr:    0.0000
     atom:    9    charge:    6.0100    magn:    1.4275    constr:    0.0000
     atom:   10    charge:    6.0100    magn:    1.4275    constr:    0.0000
     atom:   11    charge:    0.8653    magn:   -0.0096    constr:    0.0000
     atom:   12    charge:    0.8653    magn:   -0.0096    constr:    0.0000

     End of self-consistent calculation

 ------ SPIN UP ------------

[...]

 ------ SPIN DOWN ----------

[...]

          k = 0.0539-0.0471 0.0000 ( 23012 PWs)   bands (ev):

[...]

          k =-0.0808-0.0576 0.0000 ( 22968 PWs)   bands (ev):

   -76.2878 -76.2875 -76.2712 -76.2709 -76.2685 -76.2681 -45.1074 -45.1057
   -45.0761 -45.0738 -45.0694 -45.0644 -45.0642 -45.0628 -45.0622 -45.0616
   -45.0593 -45.0591 -45.0572 -45.0509 -45.0495 -45.0418 -45.0394 -45.0386
   -42.2348 -42.2149 -42.1962 -42.1763 -41.5146 -41.4934 -22.3190 -22.2992
   -22.2853 -22.2609 -22.2579 -22.2302 -22.2157 -22.1670 -22.1656 -22.1217
   -22.0230 -21.9885 -21.6879 -21.5395 -21.5203 -21.5037 -21.4671 -21.3778
    -2.6537  -2.5597  -1.6533  -1.4277  -1.4212  -1.2554  -0.8819  -0.4099
    -0.4064  -0.1787  -0.1172   0.1001   0.3673   0.5433   0.5537   0.5579
     0.7735   0.7759   0.8120   0.8773   1.0005   1.0523   1.1533   1.2414
     1.3575   1.4161   1.4937   1.5252   1.5343   1.6235   1.6261   1.6492
     1.7250   1.7579   1.7726   1.9593   1.9632   1.9766   2.1567   2.3288
     2.3327   2.3606   2.5737   2.6404   2.7009   2.7125   2.7361   2.7670
     2.8140   2.8163   3.0760   3.1116   3.2293   3.2378   3.2950   3.3899
     3.4542   3.6638   3.7308   3.7893

     the Fermi energy is     0.9801 ev

!    total energy              =   -1834.75706425 Ry
     Harris-Foulkes estimate   =   -1834.75705929 Ry
     estimated scf accuracy    <       0.00000078 Ry

     The total energy is the sum of the following terms:

     one-electron contribution =  -10500.45558600 Ry
     hartree contribution      =    5243.66563430 Ry
     xc contribution           =    -335.41193741 Ry
     ewald contribution        =    3757.55058419 Ry
     electric field correction =       0.00000237 Ry
     smearing contrib. (-TS)   =      -0.10576171 Ry

     total magnetization       =    19.05 Bohr mag/cell
     absolute magnetization    =    26.23 Bohr mag/cell

     convergence has been achieved in  33 iterations

 BEEF-vdW xc energy contributions
           1 :   -292.727381208303
           2 :    263.268413771989
           3 :   -213.655348451871
           4 :    157.576220372666
           5 :   -106.863406153699
           6 :    67.7378917171743
           7 :   -40.8633640654113
           8 :    23.8061129191238
           9 :   -13.6254684396345
          10 :    8.20996175060361
          11 :   -6.32884290598116
          12 :    7.08982394708534
          13 :   -9.48268842095945
          14 :    12.2816578216604
          15 :   -14.2259150581237
          16 :    14.2861246199280
          17 :   -11.9268107454548
          18 :    7.32975233051889
          19 :   -1.46966229095767
          20 :   -4.13232729402046
          21 :    7.99078273947180
          22 :   -9.30185104105624
          23 :    8.25019364206690
          24 :   -5.78493789834522
          25 :    3.04050754078048
          26 :  -0.805298414533638
          27 :  -0.658617278889551
          28 :    1.43916830316630
          29 :   -1.68550249886567
          30 :    1.45621865975829
          31 :   -27.0893794006257
          32 :   -18.7361900251868

     Forces acting on atoms (Ry/au):

     negative rho (up, down):  1.494E-03 1.294E-03
     atom    1 type  1   force =    -0.00044676   -0.00031774    0.00931922
     atom    2 type  1   force =    -0.00044296   -0.00031663    0.00931574
     atom    3 type  2   force =     0.00134893    0.00097302    0.00344703
     atom    4 type  2   force =     0.00136121    0.00095948    0.00344568
     atom    5 type  1   force =    -0.00024832   -0.00017730    0.00230256
     atom    6 type  1   force =    -0.00024890   -0.00017695    0.00226640
     atom    7 type  2   force =    -0.00035744   -0.00024952   -0.01530807
     atom    8 type  2   force =    -0.00035344   -0.00025701   -0.01530904
     atom    9 type  1   force =    -0.00009948   -0.00007318   -0.00055197
     atom   10 type  1   force =    -0.00005615   -0.00003854   -0.00055058
     atom   11 type  2   force =    -0.00022462   -0.00016703    0.00081164
     atom   12 type  2   force =    -0.00023206   -0.00015860    0.00081138

     Total force =     0.026179     Total SCF correction =     0.002776
     SCF correction compared to forces is large: reduce conv_thr to get better values

     entering subroutine stress ...

     negative rho (up, down):  1.494E-03 1.294E-03
          total   stress  (Ry/bohr**3)                   (kbar)     P=   -5.24
  -0.00004153  -0.00000689  -0.00000173         -6.11     -1.01     -0.26
  -0.00000689  -0.00003679  -0.00000124         -1.01     -5.41     -0.18
  -0.00000173  -0.00000124  -0.00002860         -0.26     -0.18     -4.21

 !ASE

     Writing output data file calc.save

     General routines

     Parallel routines

   This run was terminated on:   0: 9: 6  19Dec2018

   JOB DONE.
Job  /afs/slac/g/suncat/bin/suncat-tsmpirun -x LD_LIBRARY_PATH -wdir /scratch/qe530243_ZTjMl pw.x -in pw.inp

TID   HOST_NAME   COMMAND_LINE            STATUS            TERMINATION_TIME
00000 suncat2066 pw.x -in pw.inp   Done                     12/19/2018 00:09:06
00001 suncat2066 pw.x -in pw.inp   Done                     12/19/2018 00:09:06
00002 suncat2066 pw.x -in pw.inp   Done                     12/19/2018 00:09:06
00003 suncat2066 pw.x -in pw.inp   Done                     12/19/2018 00:09:06
00004 suncat2066 pw.x -in pw.inp   Done                     12/19/2018 00:09:06
00005 suncat2066 pw.x -in pw.inp   Done                     12/19/2018 00:09:06
00006 suncat2066 pw.x -in pw.inp   Done                     12/19/2018 00:09:06
00007 suncat2066 pw.x -in pw.inp   Done                     12/19/2018 00:09:06
00008 suncat2066 pw.x -in pw.inp   Done                     12/19/2018 00:09:06
00009 suncat2066 pw.x -in pw.inp   Done                     12/19/2018 00:09:06
00010 suncat2066 pw.x -in pw.inp   Done                     12/19/2018 00:09:06
00011 suncat2066 pw.x -in pw.inp   Done                     12/19/2018 00:09:06
00012 suncat2066 pw.x -in pw.inp   Done                     12/19/2018 00:09:06
00013 suncat2066 pw.x -in pw.inp   Done                     12/19/2018 00:09:06
00014 suncat2066 pw.x -in pw.inp   Done                     12/19/2018 00:09:06
00015 suncat2066 pw.x -in pw.inp   Done                     12/19/2018 00:09:06
00016 suncat2065 pw.x -in pw.inp   Done                     12/19/2018 00:09:06
00017 suncat2065 pw.x -in pw.inp   Done                     12/19/2018 00:09:06
00018 suncat2065 pw.x -in pw.inp   Done                     12/19/2018 00:09:06
00019 suncat2065 pw.x -in pw.inp   Done                     12/19/2018 00:09:06
00020 suncat2065 pw.x -in pw.inp   Done                     12/19/2018 00:09:06
00021 suncat2065 pw.x -in pw.inp   Done                     12/19/2018 00:09:06
00022 suncat2065 pw.x -in pw.inp   Done                     12/19/2018 00:09:06
00023 suncat2065 pw.x -in pw.inp   Done                     12/19/2018 00:09:06
00024 suncat2065 pw.x -in pw.inp   Done                     12/19/2018 00:09:06
00025 suncat2065 pw.x -in pw.inp   Done                     12/19/2018 00:09:06
00026 suncat2065 pw.x -in pw.inp   Done                     12/19/2018 00:09:06
00027 suncat2065 pw.x -in pw.inp   Done                     12/19/2018 00:09:06
00028 suncat2065 pw.x -in pw.inp   Done                     12/19/2018 00:09:06
00029 suncat2065 pw.x -in pw.inp   Done                     12/19/2018 00:09:06
00030 suncat2065 pw.x -in pw.inp   Done                     12/19/2018 00:09:06
00031 suncat2065 pw.x -in pw.inp   Done                     12/19/2018 00:09:06