     Program PWSCF v.5.1rc2 (svn rev. 11289) starts on 31Dec2018 at 21:41:20

     Current dimensions of program PWSCF are:
     Max number of different atomic species (ntypx) = 10
     Max number of k-points (npk) =  40000
     Max angular momentum in pseudopotentials (lmaxx) =  3
     Presently stress not available with electric field

     IMPORTANT: XC functional enforced from input :
     Exchange-correlation      = BEEF-VDW ( 1  4 27 13 2)
     Any further DFT definition will be discarded
     Please, verify this is what you really want

     Subspace diagonalization in iterative solution of the eigenvalue problem:
     a serial algorithm will be used

     bravais-lattice index     =            0
     lattice parameter (alat)  =       1.8897  a.u.
     unit-cell volume          =    4105.2645 (a.u.)^3
     number of atoms/cell      =           12
     number of atomic types    =            2
     number of electrons       =       177.00
     number of Kohn-Sham states=          118
     kinetic-energy cutoff     =      36.7493  Ry
     charge density cutoff     =     367.4932  Ry
     convergence threshold     =      1.0E-06
     mixing beta               =       0.1000
     number of iterations used =           10  plain     mixing
     Exchange-correlation      = BEEF-VDW ( 1  4 27 13 2)
     nstep                     =           50

     celldm(1)=   1.889726  celldm(2)=   0.000000  celldm(3)=   0.000000
     celldm(4)=   0.000000  celldm(5)=   0.000000  celldm(6)=   0.000000

     crystal axes: (cart. coord. in units of alat)
               a(1) = (   5.367448   0.000000   0.000000 )
               a(2) = (  -2.683724   4.648346   0.000000 )
               a(3) = (   0.000000   0.000000  24.382503 )

     reciprocal axes: (cart. coord. in units 2 pi/alat)
               b(1) = (  0.186308  0.107565  0.000000 )
               b(2) = (  0.000000  0.215130  0.000000 )
               b(3) = (  0.000000  0.000000  0.041013 )

     PseudoPot. # 1 for Rh read from file:
     /afs/slac.stanford.edu/u/if/mamunm/psp/gbrv1.5pbe/Rh.UPF
     MD5 check sum: 761627e959a2e3a1f56b0b5fe687810e
     Pseudo is Ultrasoft + core correction, Zval = 15.0
     Generated by new atomic code, or converted to UPF format
     Using radial grid of  969 points,  7 beta functions with:
                l(1) =   0
                l(2) =   0
                l(3) =   1
                l(4) =   1
                l(5) =   2
                l(6) =   2
                l(7) =   2
     Q(r) pseudized with  8 coefficients,  rinner =    1.200   1.200   1.200
                                                       1.200   1.200

     PseudoPot. # 2 for Cr read from file:
     /afs/slac.stanford.edu/u/if/mamunm/psp/gbrv1.5pbe/Cr.UPF
     MD5 check sum: 0d52af634a40206e4dee301ad30da4bf
     Pseudo is Ultrasoft + core correction, Zval = 14.0
     Generated by new atomic code, or converted to UPF format
     Using radial grid of  857 points,  6 beta functions with:
                l(1) =   0
                l(2) =   0
                l(3) =   1
                l(4) =   1
                l(5) =   2
                l(6) =   2
     Q(r) pseudized with  8 coefficients,  rinner =    0.950   0.950   0.950
                                                       0.950   0.950

     vdW kernel table read from file vdW_kernel_table
     MD5 check sum: 095c7af220d748ca6e76c0b4c6cfb241

     atomic species   valence    mass     pseudopotential
        Rh1           15.00   102.90550     Rh( 1.00)
        Cr1           14.00    51.99610     Cr( 1.00)

     No symmetry found

   Cartesian axes

     site n.     atom                  positions (alat units)
         1           Rh1 tau(   1) = (   0.0000000   0.0000000  10.0000000  )
         2           Rh1 tau(   2) = (  -1.3418619   2.3241730  10.0000000  )
         3           Rh1 tau(   3) = (   1.3418619   2.3241730  10.0000000  )
         4           Cr1 tau(   4) = (   2.6837238   0.0000000  10.0000000  )
         5           Rh1 tau(   5) = (   2.6837238   1.5494487  12.1912513  )
         6           Rh1 tau(   6) = (   1.3418619   3.8736217  12.1912513  )
         7           Rh1 tau(   7) = (  -1.3418619   3.8736217  12.1912513  )
         8           Cr1 tau(   8) = (   0.0000000   1.5494487  12.1912513  )
         9           Rh1 tau(   9) = (  -0.0000000   3.0988973  14.3825026  )
        10           Rh1 tau(  10) = (   1.3418619   0.7747243  14.3825026  )
        11           Rh1 tau(  11) = (   4.0255857   0.7747243  14.3825026  )
        12           Cr1 tau(  12) = (   2.6837238   3.0988973  14.3825026  )

     number of k points=    20  Fermi-Dirac smearing, width (Ry)=  0.0110
                       cart. coord. in units 2pi/alat
        k(    1) = (   0.0000000   0.0000000   0.0000000), wk =   0.0555556
        k(    2) = (   0.0000000   0.0358550   0.0000000), wk =   0.1111111
        k(    3) = (   0.0000000   0.0717101   0.0000000), wk =   0.1111111
        k(    4) = (   0.0000000  -0.1075651   0.0000000), wk =   0.0555556
        k(    5) = (   0.0310514   0.0179275   0.0000000), wk =   0.1111111
        k(    6) = (   0.0310514   0.0537826   0.0000000), wk =   0.1111111
        k(    7) = (   0.0310514   0.0896376   0.0000000), wk =   0.1111111
        k(    8) = (   0.0310514  -0.0896376   0.0000000), wk =   0.1111111
        k(    9) = (   0.0310514  -0.0537826   0.0000000), wk =   0.1111111
        k(   10) = (   0.0310514  -0.0179275   0.0000000), wk =   0.1111111
        k(   11) = (   0.0621028   0.0358550   0.0000000), wk =   0.1111111
        k(   12) = (   0.0621028   0.0717101   0.0000000), wk =   0.1111111
        k(   13) = (   0.0621028   0.1075651   0.0000000), wk =   0.1111111
        k(   14) = (   0.0621028  -0.0717101   0.0000000), wk =   0.1111111
        k(   15) = (   0.0621028  -0.0358550   0.0000000), wk =   0.1111111
        k(   16) = (   0.0621028   0.0000000   0.0000000), wk =   0.1111111
        k(   17) = (  -0.0931541  -0.0537826   0.0000000), wk =   0.0555556
        k(   18) = (  -0.0931541  -0.0179275   0.0000000), wk =   0.1111111
        k(   19) = (  -0.0931541   0.0179275   0.0000000), wk =   0.1111111
        k(   20) = (  -0.0931541  -0.1613477   0.0000000), wk =   0.0555556

     Largest allocated arrays     est. size (Mb)     dimensions
     Largest temporary arrays     est. size (Mb)     dimensions

     Check: negative/imaginary core charge=   -0.000001    0.000000

     Initial potential from superposition of free atoms
     Check: negative starting charge=   -0.492837

     starting charge  169.49907, renormalised to  177.00000

     negative rho (up, down):  5.146E-01 0.000E+00

     *
     * You are using vdW-DF for exchange-correlation in this calculation.
     * Please cite the following three references that made this development
     * possible:
     *
     *   M. Dion, H. Rydberg, E. Schroder, D. C. Langreth, and
     *   B. I. Lundqvist, Phys. Rev. Lett. 92, 246401 (2004).
     *
     *   T. Thonhauser, V. R. Cooper, S. Li, A. Puzder, P. Hyldgaard, and
     *   D. C. Langreth, Phys. Rev. B 76, 125112 (2007).
     *
     *   G. Roman-Perez and J. M. Soler, Phys. Rev. Lett. 103, 096102 (2009).
     *
     *
     * If you are using vdW-DF2, please also cite:
     *
     *   K. Lee, E. D. Murray, L. Kong, B. I. Lundqvist, and
     *   D. C. Langreth, Phys. Rev. B 82, 081101(R) (2010).
     *
     *
     * If you are calculating the stress with vdW-DF, please also cite:
     *
     *   R. Sabatini, E. Kucukbenli, B. Kolb, T. Thonhauser, and
     *   S. de Gironcoli, J. Phys.: Condens. Matter 24, 424209 (2012).
     *

     Carrying out vdW-DF run using the following parameters:

     Nqs =      20    Nr_points =    1024   r_max =   100.000
     q_mesh =
               0.00001000     0.04494208     0.09755937     0.15916263
               0.23128650     0.31572767     0.41458969     0.53033537
               0.66584808     0.82450364     1.01025438     1.22772762
               1.48234092     1.78043706     2.12944203     2.53805004
               3.01644009     3.57652955     4.23227104     5.00000000

     Gradients computed in reciprocal space

     Adding external electric field

     Computed dipole along edir(3) :
        Dipole                0.0000 Ry au,          0.0000 Debye
        Dipole field          0.0000 Ry au

        Potential amp.       -0.0000 Ry
        Total length         44.9243 bohr

     Starting wfc are  138 randomized atomic wfcs

     Self-consistent Calculation

     iteration #  1     ecut=    36.75 Ry     beta=0.10
     Davidson diagonalization with overlap
     ethr =  1.00E-02,  avg # of iterations =  8.0

[...]

     total energy              =   -2077.66760904 Ry
     Harris-Foulkes estimate   =   -2081.75402906 Ry
     estimated scf accuracy    <      23.77221485 Ry

[...]

     End of self-consistent calculation

          k = 0.0000 0.0000 0.0000 ( 15473 PWs)   bands (ev):

   -70.6880 -70.4570 -70.4568 -45.5428 -45.3826 -45.3826 -45.3470 -45.2731
   -45.2731 -45.1107 -45.0898 -45.0745 -45.0323 -45.0323 -44.9551 -44.9551
   -44.9067 -44.9067 -44.7297 -44.7013 -44.6923 -44.6744 -44.6715 -44.6715
   -44.6401 -44.6401 -44.5914 -44.5914 -44.5900 -44.5900 -41.9576 -41.9576
   -41.9426 -41.7849 -41.7760 -41.7101 -41.7101 -41.7080 -41.7080  -5.2337
    -4.0183  -3.7712  -3.7136  -3.6331  -3.4947  -3.4947  -3.2003  -3.2003
    -3.1685  -3.0825  -3.0798  -3.0798  -2.6522  -2.6522  -2.0410  -1.5953
    -1.5953  -1.3992  -1.3992  -1.1281  -0.8941  -0.8344  -0.7764  -0.6584
    -0.6584  -0.4555  -0.4555  -0.1718  -0.1718  -0.0726  -0.0726  -0.0206
    -0.0206   0.6776   1.0034   1.0034   1.0136   1.0136   1.0234   1.0633
     1.0633   1.2075   1.6293   1.8728   1.9356   1.9356   1.9535   1.9535
     2.2891   2.3746   2.3746   2.4463   2.4463   2.4567   2.5238   2.6776
     2.7106   2.7106   2.7273   3.0167   3.0167   3.0640   3.0640   3.5463
     3.5463   3.8690   5.4049   5.4049   5.5983   5.5983   5.6149   5.6342
     5.9839   6.1977   6.7565   7.6668   8.5941   9.1986

[...]

          k =-0.0932-0.0538 0.0000 ( 15426 PWs)   bands (ev):

[...]

     the Fermi energy is     1.5911 ev

!    total energy              =   -2078.60612270 Ry
     Harris-Foulkes estimate   =   -2078.60612816 Ry
     estimated scf accuracy    <       0.00000038 Ry

     The total energy is the sum of the following terms:

     one-electron contribution =  -19025.38146164 Ry
     hartree contribution      =    9540.20837401 Ry
     xc contribution           =    -348.70567311 Ry
     ewald contribution        =    7755.38152847 Ry
     electric field correction =       0.00000001 Ry
     smearing contrib. (-TS)   =      -0.10889044 Ry

     convergence has been achieved in  23 iterations

 BEEF-vdW xc energy contributions
           1 :   -303.411432280754
           2 :    277.614830145426
           3 :   -233.350601189540
           4 :    182.156432920520
           5 :   -135.340779962670
           6 :    100.291121430940
           7 :   -78.8925804437243
           8 :    68.3136444742503
           9 :   -63.3795014978974
          10 :    59.2293875574306
          11 :   -53.1117110201109
[...]
     MD5 check sum: 761627e959a2e3a1f56b0b5fe687810e
     Pseudo is Ultrasoft + core correction, Zval = 15.0
     Generated by new atomic code, or converted to UPF format
     Using radial grid of  969 points,  7 beta functions with:
                l(1) =   0
                l(2) =   0
                l(3) =   1
                l(4) =   1
                l(5) =   2
                l(6) =   2
                l(7) =   2
     Q(r) pseudized with  8 coefficients,  rinner =    1.200   1.200   1.200
                                                       1.200   1.200

     PseudoPot. # 2 for Cr read from file:
     /afs/slac.stanford.edu/u/if/mamunm/psp/gbrv1.5pbe/Cr.UPF
     MD5 check sum: 0d52af634a40206e4dee301ad30da4bf
     Pseudo is Ultrasoft + core correction, Zval = 14.0
     Generated by new atomic code, or converted to UPF format
     Using radial grid of  857 points,  6 beta functions with:
                l(1) =   0
                l(2) =   0
                l(3) =   1
                l(4) =   1
                l(5) =   2
                l(6) =   2
     Q(r) pseudized with  8 coefficients,  rinner =    0.950   0.950   0.950
                                                       0.950   0.950

     vdW kernel table read from file vdW_kernel_table
     MD5 check sum: 095c7af220d748ca6e76c0b4c6cfb241

     atomic species   valence    mass     pseudopotential
        Rh1           15.00   102.90550     Rh( 1.00)
        Cr1           14.00    51.99610     Cr( 1.00)

     No symmetry found

   Cartesian axes

     site n.     atom                  positions (alat units)
         1           Rh1 tau(   1) = (   0.0000000   0.0000000  10.0000000  )
         2           Rh1 tau(   2) = (  -1.3418619   2.3241730  10.0000000  )
         3           Rh1 tau(   3) = (   1.3418619   2.3241730  10.0000000  )
         4           Cr1 tau(   4) = (   2.6837238   0.0000000  10.0000000  )
         5           Rh1 tau(   5) = (   2.6837238   1.5494487  12.1912513  )
         6           Rh1 tau(   6) = (   1.3418619   3.8736217  12.1912513  )
         7           Rh1 tau(   7) = (  -1.3418619   3.8736217  12.1912513  )
         8           Cr1 tau(   8) = (   0.0000000   1.5494487  12.1912513  )
         9           Rh1 tau(   9) = (  -0.0000011   3.0634222  14.3238281  )
        10           Rh1 tau(  10) = (   1.3111397   0.7924617  14.3238273  )
        11           Rh1 tau(  11) = (   4.0563083   0.7924621  14.3238264  )
        12           Cr1 tau(  12) = (   2.6837238   3.0988976  14.2183707  )

     number of k points=    20  Fermi-Dirac smearing, width (Ry)=  0.0110
                       cart. coord. in units 2pi/alat
        k(    1) = (   0.0000000   0.0000000   0.0000000), wk =   0.0555556
        k(    2) = (   0.0000000   0.0358550   0.0000000), wk =   0.1111111
        k(    3) = (   0.0000000   0.0717101   0.0000000), wk =   0.1111111
        k(    4) = (   0.0000000  -0.1075651   0.0000000), wk =   0.0555556
        k(    5) = (   0.0310514   0.0179275   0.0000000), wk =   0.1111111
        k(    6) = (   0.0310514   0.0537826   0.0000000), wk =   0.1111111
        k(    7) = (   0.0310514   0.0896376   0.0000000), wk =   0.1111111
        k(    8) = (   0.0310514  -0.0896376   0.0000000), wk =   0.1111111
        k(    9) = (   0.0310514  -0.0537826   0.0000000), wk =   0.1111111
        k(   10) = (   0.0310514  -0.0179275   0.0000000), wk =   0.1111111
        k(   11) = (   0.0621028   0.0358550   0.0000000), wk =   0.1111111
        k(   12) = (   0.0621028   0.0717101   0.0000000), wk =   0.1111111
        k(   13) = (   0.0621028   0.1075651   0.0000000), wk =   0.1111111
        k(   14) = (   0.0621028  -0.0717101   0.0000000), wk =   0.1111111
        k(   15) = (   0.0621028  -0.0358550   0.0000000), wk =   0.1111111
        k(   16) = (   0.0621028   0.0000000   0.0000000), wk =   0.1111111
        k(   17) = (  -0.0931541  -0.0537826   0.0000000), wk =   0.0555556
        k(   18) = (  -0.0931541  -0.0179275   0.0000000), wk =   0.1111111
        k(   19) = (  -0.0931541   0.0179275   0.0000000), wk =   0.1111111
        k(   20) = (  -0.0931541  -0.1613477   0.0000000), wk =   0.0555556

     Largest allocated arrays     est. size (Mb)     dimensions
     Largest temporary arrays     est. size (Mb)     dimensions

     Check: negative/imaginary core charge=   -0.000001    0.000000

     Initial potential from superposition of free atoms
     Check: negative starting charge=   -0.488792

     starting charge  169.49907, renormalised to  177.00000

[...]

     *
     * You are using vdW-DF for exchange-correlation in this calculation.
     * Please cite the following three references that made this development
     * possible:
     *
     *   M. Dion, H. Rydberg, E. Schroder, D. C. Langreth, and
     *   B. I. Lundqvist, Phys. Rev. Lett. 92, 246401 (2004).
     *
     *   T. Thonhauser, V. R. Cooper, S. Li, A. Puzder, P. Hyldgaard, and
     *   D. C. Langreth, Phys. Rev. B 76, 125112 (2007).
     *
     *   G. Roman-Perez and J. M. Soler, Phys. Rev. Lett. 103, 096102 (2009).
     *
     *
     * If you are using vdW-DF2, please also cite:
     *
     *   K. Lee, E. D. Murray, L. Kong, B. I. Lundqvist, and
     *   D. C. Langreth, Phys. Rev. B 82, 081101(R) (2010).
     *
     *
     * If you are calculating the stress with vdW-DF, please also cite:
     *
     *   R. Sabatini, E. Kucukbenli, B. Kolb, T. Thonhauser, and
     *   S. de Gironcoli, J. Phys.: Condens. Matter 24, 424209 (2012).
     *

     Carrying out vdW-DF run using the following parameters:

     Nqs =      20    Nr_points =    1024   r_max =   100.000
     q_mesh =
               0.00001000     0.04494208     0.09755937     0.15916263
               0.23128650     0.31572767     0.41458969     0.53033537
               0.66584808     0.82450364     1.01025438     1.22772762
               1.48234092     1.78043706     2.12944203     2.53805004
               3.01644009     3.57652955     4.23227104     5.00000000

     Gradients computed in reciprocal space

[...]

     Starting wfc are  138 randomized atomic wfcs

     Self-consistent Calculation

[...]

     total energy              =   -2078.61600532 Ry
     Harris-Foulkes estimate   =   -2078.61600799 Ry
     estimated scf accuracy    <       0.00002157 Ry

     iteration # 20     ecut=    36.75 Ry     beta=0.10
     Davidson diagonalization with overlap
     ethr =  1.22E-08,  avg # of iterations =  2.5

[...]

     negative rho (up, down):  5.171E-01 0.000E+00

     Adding external electric field

     Computed dipole along edir(3) :
        Dipole                0.0003 Ry au,          0.0008 Debye
        Dipole field          0.0000 Ry au

        Potential amp.       -0.0001 Ry
        Total length         44.9243 bohr

     End of self-consistent calculation

[...]

          k = 0.0621 0.0000 0.0000 ( 15442 PWs)   bands (ev):

[...]

          k =-0.0932-0.1613 0.0000 ( 15426 PWs)   bands (ev):

   -70.7023 -70.4973 -70.4407 -45.5192 -45.4171 -45.3989 -45.3638 -45.3389
   -45.3304 -45.3204 -45.2968 -45.1241 -45.0566 -44.9760 -44.9166 -44.8877
   -44.8282 -44.8269 -44.8187 -44.8069 -44.7862 -44.7846 -44.7572 -44.7303
   -44.7145 -44.6764 -44.6668 -44.6523 -44.6421 -44.5993 -41.9872 -41.9779
   -41.9588 -41.8291 -41.7657 -41.7585 -41.7529 -41.7106 -41.7007  -3.8743
    -3.6799  -3.2626  -3.1069  -3.0347  -2.8383  -2.7658  -2.6989  -2.6865
    -2.6437  -2.4661  -2.3799  -2.2038  -2.1379  -2.0666  -1.9534  -1.8642
    -1.7617  -1.6594  -1.5371  -1.0656  -1.0302  -0.9785  -0.8896  -0.8279
    -0.8080  -0.6743  -0.5891  -0.5207  -0.5016  -0.4297  -0.4203  -0.4071
    -0.3632  -0.2833  -0.1806  -0.0415   0.0092   0.1076   0.2875   0.3566
     0.5074   0.6379   0.7702   0.7884   0.8244   1.1683   1.2085   1.2504
     1.3308   1.4446   1.5397   1.6970   1.7976   1.8266   1.8757   1.8955
     2.1224   2.1366   2.3182   2.4005   2.5235   2.5950   2.8530   4.1496
     4.1723   4.8843   4.8968   5.6938   5.7118   6.2424   6.2878   7.5909
     7.6002   7.6577   7.6724   8.2568   8.2599   8.4145

     the Fermi energy is     1.5909 ev

!    total energy              =   -2078.61599923 Ry
     Harris-Foulkes estimate   =   -2078.61600569 Ry
     estimated scf accuracy    <       0.00000071 Ry

     The total energy is the sum of the following terms:

     one-electron contribution =  -19250.88348478 Ry
     hartree contribution      =    9652.71769129 Ry
     xc contribution           =    -348.85128652 Ry
     ewald contribution        =    7868.50649205 Ry
     electric field correction =       0.00000000 Ry
     smearing contrib. (-TS)   =      -0.10541127 Ry

     convergence has been achieved in  20 iterations

 BEEF-vdW xc energy contributions
           1 :   -303.565942288853
           2 :    277.842393476012
           3 :   -233.670161571082
           4 :    182.513645758302
           5 :   -135.636717001853
           6 :    100.440113113471
           7 :   -78.8725520457961
           8 :    68.1789395958216
           9 :   -63.2309480586923
          10 :    59.1611661024694
          11 :   -53.1653136497458
          12 :    44.9398586460214
          13 :   -35.9351420347071
          14 :    28.0704469930332
          15 :   -22.6267726326162
          16 :    19.7593029438088
          17 :   -18.6718976214500
          18 :    18.1801561934137
          19 :   -17.2983938945694
          20 :    15.5877682449781
          21 :   -13.1867007071315
          22 :    10.6020731658299
          23 :   -8.41415007679490
          24 :    7.02454040251649
          25 :   -6.51435914339532
          26 :    6.63290772535714
          27 :   -6.91400641557482
          28 :    6.88345715594039
          29 :   -6.27708659059670
          30 :    5.16510540661227
          31 :   -29.9538990129627
          32 :   -22.3051332746387

     Forces acting on atoms (Ry/au):

     negative rho (up, down):  5.171E-01 0.000E+00
     atom    1 type  1   force =    -0.00000006    0.02152282    0.00807385
     atom    2 type  1   force =     0.01863895   -0.01076136    0.00807417
     atom    3 type  1   force =    -0.01863904   -0.01076112    0.00807408
     atom    4 type  2   force =     0.00000000    0.00000002    0.02692252
     atom    5 type  1   force =    -0.00000002   -0.00058392   -0.01532305
     atom    6 type  1   force =    -0.00050573    0.00029183   -0.01532302
     atom    7 type  1   force =     0.00050580    0.00029182   -0.01532291
     atom    8 type  2   force =    -0.00000002   -0.00000009   -0.01042596
     atom    9 type  1   force =     0.00000034    0.00048838    0.00115410
     atom   10 type  1   force =     0.00042269   -0.00024413    0.00115469
     atom   11 type  1   force =    -0.00042310   -0.00024434    0.00115501
     atom   12 type  2   force =     0.00000018    0.00000009    0.00178652

     Total force =     0.055965     Total SCF correction =     0.003726

     entering subroutine stress ...

     negative rho (up, down):  5.171E-01 0.000E+00
          total   stress  (Ry/bohr**3)                   (kbar)     P=  -31.19
  -0.00023231  -0.00000000   0.00000000        -34.17     -0.00      0.00
  -0.00000000  -0.00023231   0.00000000         -0.00    -34.17      0.00
   0.00000000   0.00000000  -0.00017140          0.00      0.00    -25.21

 !ASE

     Writing output data file calc.save

     General routines

     Parallel routines

   This run was terminated on:  22:26:31  31Dec2018

   JOB DONE.
Job  /afs/slac/g/suncat/bin/suncat-tsmpirun -x LD_LIBRARY_PATH -wdir /scratch/qe648869_D6YzP pw.x -in pw.inp

TID   HOST_NAME   COMMAND_LINE            STATUS            TERMINATION_TIME
00000 suncat0121 pw.x -in pw.inp   Done                     12/31/2018 22:26:31
00001 suncat0121 pw.x -in pw.inp   Done                     12/31/2018 22:26:31
00002 suncat0121 pw.x -in pw.inp   Done                     12/31/2018 22:26:31
00003 suncat0121 pw.x -in pw.inp   Done                     12/31/2018 22:26:31
00004 suncat0121 pw.x -in pw.inp   Done                     12/31/2018 22:26:31
00005 suncat0121 pw.x -in pw.inp   Done                     12/31/2018 22:26:31
00006 suncat0121 pw.x -in pw.inp   Done                     12/31/2018 22:26:31
00007 suncat0121 pw.x -in pw.inp   Done                     12/31/2018 22:26:31
00008 suncat0115 pw.x -in pw.inp   Done                     12/31/2018 22:26:31
00009 suncat0115 pw.x -in pw.inp   Done                     12/31/2018 22:26:31
00010 suncat0115 pw.x -in pw.inp   Done                     12/31/2018 22:26:31
00011 suncat0115 pw.x -in pw.inp   Done                     12/31/2018 22:26:31
00012 suncat0115 pw.x -in pw.inp   Done                     12/31/2018 22:26:31
00013 suncat0115 pw.x -in pw.inp   Done                     12/31/2018 22:26:31
00014 suncat0115 pw.x -in pw.inp   Done                     12/31/2018 22:26:31
00015 suncat0115 pw.x -in pw.inp   Done                     12/31/2018 22:26:31
00016 suncat0228 pw.x -in pw.inp   Done                     12/31/2018 22:26:31
00017 suncat0228 pw.x -in pw.inp   Done                     12/31/2018 22:26:31
00018 suncat0228 pw.x -in pw.inp   Done                     12/31/2018 22:26:31
00019 suncat0228 pw.x -in pw.inp   Done                     12/31/2018 22:26:31
00020 suncat0228 pw.x -in pw.inp   Done                     12/31/2018 22:26:31
00021 suncat0228 pw.x -in pw.inp   Done                     12/31/2018 22:26:31
00022 suncat0228 pw.x -in pw.inp   Done                     12/31/2018 22:26:31
00023 suncat0228 pw.x -in pw.inp   Done                     12/31/2018 22:26:31
00024 suncat0227 pw.x -in pw.inp   Done                     12/31/2018 22:26:31
00025 suncat0227 pw.x -in pw.inp   Done                     12/31/2018 22:26:31
00026 suncat0227 pw.x -in pw.inp   Done                     12/31/2018 22:26:31
00027 suncat0227 pw.x -in pw.inp   Done                     12/31/2018 22:26:31
00028 suncat0227 pw.x -in pw.inp   Done                     12/31/2018 22:26:31
00029 suncat0227 pw.x -in pw.inp   Done                     12/31/2018 22:26:31
00030 suncat0227 pw.x -in pw.inp   Done                     12/31/2018 22:26:31
00031 suncat0227 pw.x -in pw.inp   Done                     12/31/2018 22:26:31
00032 suncat0217 pw.x -in pw.inp   Done                     12/31/2018 22:26:31
00033 suncat0217 pw.x -in pw.inp   Done                     12/31/2018 22:26:31
00034 suncat0217 pw.x -in pw.inp   Done                     12/31/2018 22:26:31
00035 suncat0217 pw.x -in pw.inp   Done                     12/31/2018 22:26:31
00036 suncat0217 pw.x -in pw.inp   Done                     12/31/2018 22:26:31
00037 suncat0217 pw.x -in pw.inp   Done                     12/31/2018 22:26:31
00038 suncat0217 pw.x -in pw.inp   Done                     12/31/2018 22:26:31
00039 suncat0217 pw.x -in pw.inp   Done                     12/31/2018 22:26:31
00040 suncat0216 pw.x -in pw.inp   Done                     12/31/2018 22:26:31
00041 suncat0216 pw.x -in pw.inp   Done                     12/31/2018 22:26:31
00042 suncat0216 pw.x -in pw.inp   Done                     12/31/2018 22:26:31
00043 suncat0216 pw.x -in pw.inp   Done                     12/31/2018 22:26:31
00044 suncat0216 pw.x -in pw.inp   Done                     12/31/2018 22:26:31
00045 suncat0216 pw.x -in pw.inp   Done                     12/31/2018 22:26:31
00046 suncat0216 pw.x -in pw.inp   Done                     12/31/2018 22:26:31
00047 suncat0216 pw.x -in pw.inp   Done                     12/31/2018 22:26:31
00048 suncat0215 pw.x -in pw.inp   Done                     12/31/2018 22:26:31
00049 suncat0215 pw.x -in pw.inp   Done                     12/31/2018 22:26:31
00050 suncat0215 pw.x -in pw.inp   Done                     12/31/2018 22:26:31
00051 suncat0215 pw.x -in pw.inp   Done                     12/31/2018 22:26:31
00052 suncat0215 pw.x -in pw.inp   Done                     12/31/2018 22:26:31
00053 suncat0215 pw.x -in pw.inp   Done                     12/31/2018 22:26:31
00054 suncat0215 pw.x -in pw.inp   Done                     12/31/2018 22:26:31
00055 suncat0215 pw.x -in pw.inp   Done                     12/31/2018 22:26:31
00056 suncat0210 pw.x -in pw.inp   Done                     12/31/2018 22:26:31
00057 suncat0210 pw.x -in pw.inp   Done                     12/31/2018 22:26:31
00058 suncat0210 pw.x -in pw.inp   Done                     12/31/2018 22:26:31
00059 suncat0210 pw.x -in pw.inp   Done                     12/31/2018 22:26:31
00060 suncat0210 pw.x -in pw.inp   Done                     12/31/2018 22:26:31
00061 suncat0210 pw.x -in pw.inp   Done                     12/31/2018 22:26:31
00062 suncat0210 pw.x -in pw.inp   Done                     12/31/2018 22:26:31
00063 suncat0210 pw.x -in pw.inp   Done                     12/31/2018 22:26:31