     Program PWSCF v.5.1rc2 (svn rev. 11289) starts on 19Dec2018 at 20:30:43

     Current dimensions of program PWSCF are:
     Max number of different atomic species (ntypx) = 10
     Max number of k-points (npk) =  40000
     Max angular momentum in pseudopotentials (lmaxx) =  3
     Presently stress not available with electric field

     IMPORTANT: XC functional enforced from input :
     Exchange-correlation      = BEEF-VDW ( 1  4 27 13 2)
     Any further DFT definition will be discarded
     Please, verify this is what you really want

     Subspace diagonalization in iterative solution of the eigenvalue problem:
     a serial algorithm will be used

     bravais-lattice index     =            0
     lattice parameter (alat)  =       1.8897  a.u.
     unit-cell volume          =    5392.5036 (a.u.)^3
     number of atoms/cell      =           12
     number of atomic types    =            2
     number of electrons       =       165.00
     number of Kohn-Sham states=          112
     kinetic-energy cutoff     =      36.7493  Ry
     charge density cutoff     =     367.4932  Ry
     convergence threshold     =      1.0E-06
     mixing beta               =       0.1000
     number of iterations used =           10  plain     mixing
     Exchange-correlation      = BEEF-VDW ( 1  4 27 13 2)
     nstep                     =           50

     celldm(1)=   1.889726  celldm(2)=   0.000000  celldm(3)=   0.000000
     celldm(4)=   0.000000  celldm(5)=   0.000000  celldm(6)=   0.000000

     crystal axes: (cart. coord. in units of alat)
               a(1) = (   6.079597   0.000000   0.000000 )
               a(2) = (  -3.039798   5.265085   0.000000 )
               a(3) = (   0.000000   0.000000  24.963970 )

     reciprocal axes: (cart. coord. in units 2 pi/alat)
               b(1) = (  0.164485  0.094965  0.000000 )
               b(2) = (  0.000000  0.189930  0.000000 )
               b(3) = (  0.000000  0.000000  0.040058 )

     PseudoPot. # 1 for Cd read from file:
     /afs/slac.stanford.edu/u/if/mamunm/psp/gbrv1.5pbe/Cd.UPF
     MD5 check sum: 17164a7926edb8e0dc231208abae86a6
     Pseudo is Ultrasoft + core correction, Zval = 12.0
     Generated by new atomic code, or converted to UPF format
     Using radial grid of  889 points,  6 beta functions with:
                l(1) =   0
                l(2) =   0
                l(3) =   1
                l(4) =   1
                l(5) =   2
                l(6) =   2
     Q(r) pseudized with  6 coefficients,  rinner =    1.000   1.000   1.000
                                                       1.000   1.000

     PseudoPot. # 2 for Cu read from file:
     /afs/slac.stanford.edu/u/if/mamunm/psp/gbrv1.5pbe/Cu.UPF
     MD5 check sum: 6e991ff952a84172a2a52a1c1e996048
     Pseudo is Ultrasoft + core correction, Zval = 19.0
     Generated by new atomic code, or converted to UPF format
     Using radial grid of  867 points,  6 beta functions with:
                l(1) =   0
                l(2) =   0
                l(3) =   1
                l(4) =   1
                l(5) =   2
                l(6) =   2
     Q(r) pseudized with  8 coefficients,  rinner =    1.150   1.150   1.150
                                                       1.150   1.150

     vdW kernel table read from file vdW_kernel_table
     MD5 check sum: 095c7af220d748ca6e76c0b4c6cfb241

     atomic species   valence    mass     pseudopotential
        Cd1           12.00   112.41400     Cd( 1.00)
        Cu1           19.00    63.54600     Cu( 1.00)

     No symmetry found

   Cartesian axes

     site n.     atom                  positions (alat units)
         1           Cd1 tau(   1) = (   0.0000000   0.0000000  10.0000000  )
         2           Cd1 tau(   2) = (  -1.5198992   2.6325427  10.0000000  )
         3           Cd1 tau(   3) = (   1.5198992   2.6325427  10.0000000  )
         4           Cu1 tau(   4) = (   3.0397984   0.0000000  10.0000000  )
         5           Cd1 tau(   5) = (   3.0397984   1.7550284  12.4819850  )
         6           Cd1 tau(   6) = (   1.5198992   4.3875711  12.4819850  )
         7           Cd1 tau(   7) = (  -1.5198992   4.3875711  12.4819850  )
         8           Cu1 tau(   8) = (   0.0000000   1.7550284  12.4819850  )
         9           Cd1 tau(   9) = (  -0.0000000   3.5100569  14.9639700  )
        10           Cd1 tau(  10) = (   1.5198992   0.8775142  14.9639700  )
        11           Cd1 tau(  11) = (   4.5596976   0.8775142  14.9639700  )
        12           Cu1 tau(  12) = (   3.0397984   3.5100569  14.9639700  )

     number of k points=    20  Fermi-Dirac smearing, width (Ry)=  0.0110
                       cart. coord. in units 2pi/alat
        k(    1) = (   0.0000000   0.0000000   0.0000000), wk =   0.0555556
        k(    2) = (   0.0000000   0.0316551   0.0000000), wk =   0.1111111
        k(    3) = (   0.0000000   0.0633101   0.0000000), wk =   0.1111111
        k(    4) = (   0.0000000  -0.0949652   0.0000000), wk =   0.0555556
        k(    5) = (   0.0274141   0.0158275   0.0000000), wk =   0.1111111
        k(    6) = (   0.0274141   0.0474826   0.0000000), wk =   0.1111111
        k(    7) = (   0.0274141   0.0791377   0.0000000), wk =   0.1111111
        k(    8) = (   0.0274141  -0.0791377   0.0000000), wk =   0.1111111
        k(    9) = (   0.0274141  -0.0474826   0.0000000), wk =   0.1111111
        k(   10) = (   0.0274141  -0.0158275   0.0000000), wk =   0.1111111
        k(   11) = (   0.0548282   0.0316551   0.0000000), wk =   0.1111111
        k(   12) = (   0.0548282   0.0633101   0.0000000), wk =   0.1111111
        k(   13) = (   0.0548282   0.0949652   0.0000000), wk =   0.1111111
        k(   14) = (   0.0548282  -0.0633101   0.0000000), wk =   0.1111111
        k(   15) = (   0.0548282  -0.0316551   0.0000000), wk =   0.1111111
        k(   16) = (   0.0548282   0.0000000   0.0000000), wk =   0.1111111
        k(   17) = (  -0.0822423  -0.0474826   0.0000000), wk =   0.0555556
        k(   18) = (  -0.0822423  -0.0158275   0.0000000), wk =   0.1111111
        k(   19) = (  -0.0822423   0.0158275   0.0000000), wk =   0.1111111
        k(   20) = (  -0.0822423  -0.1424478   0.0000000), wk =   0.0555556

     Largest allocated arrays     est. size (Mb)     dimensions
     Largest temporary arrays     est. size (Mb)     dimensions

     Initial potential from superposition of free atoms
     Check: negative starting charge=   -0.189894

     starting charge  157.49962, renormalised to  165.00000

     negative rho (up, down):  1.989E-01 0.000E+00

     *
     * You are using vdW-DF for exchange-correlation in this calculation.
     * Please cite the following three references that made this development
     * possible:
     *
     *   M. Dion, H. Rydberg, E. Schroder, D. C. Langreth, and
     *   B. I. Lundqvist, Phys. Rev. Lett. 92, 246401 (2004).
     *
     *   T. Thonhauser, V. R. Cooper, S. Li, A. Puzder, P. Hyldgaard, and
     *   D. C. Langreth, Phys. Rev. B 76, 125112 (2007).
     *
     *   G. Roman-Perez and J. M. Soler, Phys. Rev. Lett. 103, 096102 (2009).
     *
     *
     * If you are using vdW-DF2, please also cite:
     *
     *   K. Lee, E. D. Murray, L. Kong, B. I. Lundqvist, and
     *   D. C. Langreth, Phys. Rev. B 82, 081101(R) (2010).
     *
     *
     * If you are calculating the stress with vdW-DF, please also cite:
     *
     *   R. Sabatini, E. Kucukbenli, B. Kolb, T. Thonhauser, and
     *   S. de Gironcoli, J. Phys.: Condens. Matter 24, 424209 (2012).
     *

     Carrying out vdW-DF run using the following parameters:

     Nqs =      20    Nr_points =    1024   r_max =   100.000
     q_mesh =
               0.00001000     0.04494208     0.09755937     0.15916263
               0.23128650     0.31572767     0.41458969     0.53033537
               0.66584808     0.82450364     1.01025438     1.22772762
               1.48234092     1.78043706     2.12944203     2.53805004
               3.01644009     3.57652955     4.23227104     5.00000000

     Gradients computed in reciprocal space

     Adding external electric field

     Computed dipole along edir(3) :
        Dipole               -0.0000 Ry au,         -0.0000 Debye
        Dipole field         -0.0000 Ry au

        Potential amp.        0.0000 Ry
        Total length         45.9957 bohr

     Starting wfc are  120 randomized atomic wfcs

     Self-consistent Calculation

     iteration #  1     ecut=    36.75 Ry     beta=0.10
     Davidson diagonalization with overlap
     ethr =  1.00E-02,  avg # of iterations =  7.8

[...]

     total energy              =   -2257.67603380 Ry
     Harris-Foulkes estimate   =   -2261.56630339 Ry
     estimated scf accuracy    <      21.85925933 Ry

[...]

     End of self-consistent calculation

          k = 0.0000 0.0000 0.0000 ( 20287 PWs)   bands (ev):

  -112.1097-111.8251-111.8250 -69.5193 -69.5193 -69.5147 -69.2564 -69.2564
   -69.2563 -69.2563 -69.2006 -69.2005  -9.5104  -9.3804  -9.3245  -9.3244
    -9.2555  -9.2337  -9.2032  -9.1126  -9.1125  -9.0270  -9.0269  -9.0169
    -9.0169  -8.9054  -8.8684  -8.8684  -8.7807  -8.7796  -8.6656  -8.6655
    -8.5914  -8.5611  -8.5006  -8.5004  -8.4611  -8.4609  -8.3703  -8.3703
    -8.3275  -8.3128  -8.3128  -8.2613  -8.2613  -8.2388  -8.2387  -8.1926
    -8.1926  -8.1016  -8.1015  -8.0587  -7.9899  -7.9669  -7.9669  -7.8296
    -7.8215  -7.6575  -5.9241  -3.4470  -2.6035  -2.6035  -2.3612  -2.3612
    -2.2938  -2.2938  -2.2622  -2.2311  -2.0440  -2.0440  -2.0217  -2.0217
    -1.9384  -1.9384  -1.7612  -1.2941  -1.0647  -1.0647  -0.7330  -0.6975
    -0.6975  -0.4019  -0.1095  -0.0196  -0.0195   1.0568   1.0568   1.2336
     2.4544   2.4545   2.7071   2.9036   3.0015   3.0016   3.1880   3.8570
     4.4506   5.2556   5.4271   5.9108   5.9108   5.9766   6.0292   6.0293
     6.2072   7.0340   7.4720   8.0555   8.1502   8.1502   8.3171   8.4573

[...]

          k =-0.0822-0.0475 0.0000 ( 20308 PWs)   bands (ev):

[...]

     the Fermi energy is     0.3610 ev

!    total energy              =   -2259.50001957 Ry
     Harris-Foulkes estimate   =   -2259.50001721 Ry
     estimated scf accuracy    <       0.00000023 Ry

     The total energy is the sum of the following terms:

     one-electron contribution =  -13209.76405836 Ry
     hartree contribution      =    6677.56486737 Ry
     xc contribution           =    -487.18168074 Ry
     ewald contribution        =    4759.90440476 Ry
     electric field correction =       0.00000000 Ry
     smearing contrib. (-TS)   =      -0.02355259 Ry

     convergence has been achieved in  17 iterations

 BEEF-vdW xc energy contributions
           1 :   -427.898797862083
           2 :    390.481832762393
           3 :   -327.348576789680
           4 :    256.402486254162
           5 :   -194.029486624641
           6 :    149.165990119503
           7 :   -121.737253303396
           8 :    105.496195686100
           9 :   -93.0257027764006
          10 :    79.8897411687827
          11 :   -65.9367701282755
          12 :    53.7355006183184
          13 :   -45.7763495203164
          14 :    42.4507666568601
          15 :   -41.9136059136987
[...]

     PseudoPot. # 1 for Cd read from file:
     /afs/slac.stanford.edu/u/if/mamunm/psp/gbrv1.5pbe/Cd.UPF
     MD5 check sum: 17164a7926edb8e0dc231208abae86a6
     Pseudo is Ultrasoft + core correction, Zval = 12.0
     Generated by new atomic code, or converted to UPF format
     Using radial grid of  889 points,  6 beta functions with:
                l(1) =   0
                l(2) =   0
                l(3) =   1
                l(4) =   1
                l(5) =   2
                l(6) =   2
     Q(r) pseudized with  6 coefficients,  rinner =    1.000   1.000   1.000
                                                       1.000   1.000

     PseudoPot. # 2 for Cu read from file:
     /afs/slac.stanford.edu/u/if/mamunm/psp/gbrv1.5pbe/Cu.UPF
     MD5 check sum: 6e991ff952a84172a2a52a1c1e996048
     Pseudo is Ultrasoft + core correction, Zval = 19.0
     Generated by new atomic code, or converted to UPF format
     Using radial grid of  867 points,  6 beta functions with:
                l(1) =   0
                l(2) =   0
                l(3) =   1
                l(4) =   1
                l(5) =   2
                l(6) =   2
     Q(r) pseudized with  8 coefficients,  rinner =    1.150   1.150   1.150
                                                       1.150   1.150

     vdW kernel table read from file vdW_kernel_table
     MD5 check sum: 095c7af220d748ca6e76c0b4c6cfb241

     atomic species   valence    mass     pseudopotential
        Cd1           12.00   112.41400     Cd( 1.00)
        Cu1           19.00    63.54600     Cu( 1.00)

     No symmetry found

   Cartesian axes

     site n.     atom                  positions (alat units)
         1           Cd1 tau(   1) = (   0.0000000   0.0000000  10.0000000  )
         2           Cd1 tau(   2) = (  -1.5198992   2.6325427  10.0000000  )
         3           Cd1 tau(   3) = (   1.5198992   2.6325427  10.0000000  )
         4           Cu1 tau(   4) = (   3.0397984   0.0000000  10.0000000  )
         5           Cd1 tau(   5) = (   3.0397984   1.7550284  12.4819850  )
         6           Cd1 tau(   6) = (   1.5198992   4.3875711  12.4819850  )
         7           Cd1 tau(   7) = (  -1.5198992   4.3875711  12.4819850  )
         8           Cu1 tau(   8) = (   0.0000000   1.7550284  12.4819850  )
         9           Cd1 tau(   9) = (  -0.0000233   3.4982772  15.2133731  )
        10           Cd1 tau(  10) = (   1.5096926   0.8833484  15.2133187  )
        11           Cd1 tau(  11) = (   4.5698561   0.8834120  15.2134754  )
        12           Cu1 tau(  12) = (   3.0400154   3.5100173  14.7960185  )

     number of k points=    20  Fermi-Dirac smearing, width (Ry)=  0.0110
                       cart. coord. in units 2pi/alat
        k(    1) = (   0.0000000   0.0000000   0.0000000), wk =   0.0555556
        k(    2) = (   0.0000000   0.0316551   0.0000000), wk =   0.1111111
        k(    3) = (   0.0000000   0.0633101   0.0000000), wk =   0.1111111
        k(    4) = (   0.0000000  -0.0949652   0.0000000), wk =   0.0555556
        k(    5) = (   0.0274141   0.0158275   0.0000000), wk =   0.1111111
        k(    6) = (   0.0274141   0.0474826   0.0000000), wk =   0.1111111
        k(    7) = (   0.0274141   0.0791377   0.0000000), wk =   0.1111111
        k(    8) = (   0.0274141  -0.0791377   0.0000000), wk =   0.1111111
        k(    9) = (   0.0274141  -0.0474826   0.0000000), wk =   0.1111111
        k(   10) = (   0.0274141  -0.0158275   0.0000000), wk =   0.1111111
        k(   11) = (   0.0548282   0.0316551   0.0000000), wk =   0.1111111
        k(   12) = (   0.0548282   0.0633101   0.0000000), wk =   0.1111111
        k(   13) = (   0.0548282   0.0949652   0.0000000), wk =   0.1111111
        k(   14) = (   0.0548282  -0.0633101   0.0000000), wk =   0.1111111
        k(   15) = (   0.0548282  -0.0316551   0.0000000), wk =   0.1111111
        k(   16) = (   0.0548282   0.0000000   0.0000000), wk =   0.1111111
        k(   17) = (  -0.0822423  -0.0474826   0.0000000), wk =   0.0555556
        k(   18) = (  -0.0822423  -0.0158275   0.0000000), wk =   0.1111111
        k(   19) = (  -0.0822423   0.0158275   0.0000000), wk =   0.1111111
        k(   20) = (  -0.0822423  -0.1424478   0.0000000), wk =   0.0555556

     Largest allocated arrays     est. size (Mb)     dimensions
     Largest temporary arrays     est. size (Mb)     dimensions

     Initial potential from superposition of free atoms
     Check: negative starting charge=   -0.189926

     starting charge  157.49962, renormalised to  165.00000

[...]

     *
     * You are using vdW-DF for exchange-correlation in this calculation.
     * Please cite the following three references that made this development
     * possible:
     *
     *   M. Dion, H. Rydberg, E. Schroder, D. C. Langreth, and
     *   B. I. Lundqvist, Phys. Rev. Lett. 92, 246401 (2004).
     *
     *   T. Thonhauser, V. R. Cooper, S. Li, A. Puzder, P. Hyldgaard, and
     *   D. C. Langreth, Phys. Rev. B 76, 125112 (2007).
     *
     *   G. Roman-Perez and J. M. Soler, Phys. Rev. Lett. 103, 096102 (2009).
     *
     *
     * If you are using vdW-DF2, please also cite:
     *
     *   K. Lee, E. D. Murray, L. Kong, B. I. Lundqvist, and
     *   D. C. Langreth, Phys. Rev. B 82, 081101(R) (2010).
     *
     *
     * If you are calculating the stress with vdW-DF, please also cite:
     *
     *   R. Sabatini, E. Kucukbenli, B. Kolb, T. Thonhauser, and
     *   S. de Gironcoli, J. Phys.: Condens. Matter 24, 424209 (2012).
     *

     Carrying out vdW-DF run using the following parameters:

     Nqs =      20    Nr_points =    1024   r_max =   100.000
     q_mesh =
               0.00001000     0.04494208     0.09755937     0.15916263
               0.23128650     0.31572767     0.41458969     0.53033537
               0.66584808     0.82450364     1.01025438     1.22772762
               1.48234092     1.78043706     2.12944203     2.53805004
               3.01644009     3.57652955     4.23227104     5.00000000

     Gradients computed in reciprocal space

[...]

     Starting wfc are  120 randomized atomic wfcs

     Self-consistent Calculation

[...]

     total energy              =   -2259.52213262 Ry
     Harris-Foulkes estimate   =   -2259.52213313 Ry
     estimated scf accuracy    <       0.00000205 Ry

     iteration # 16     ecut=    36.75 Ry     beta=0.10
     Davidson diagonalization with overlap
     ethr =  1.24E-09,  avg # of iterations =  2.6

[...]

     negative rho (up, down):  1.964E-01 0.000E+00

     Adding external electric field

     Computed dipole along edir(3) :
        Dipole                0.0388 Ry au,          0.0986 Debye
        Dipole field          0.0001 Ry au

        Potential amp.       -0.0083 Ry
        Total length         45.9957 bohr

     End of self-consistent calculation

[...]

          k = 0.0548 0.0000 0.0000 ( 20307 PWs)   bands (ev):

[...]

          k =-0.0822-0.1424 0.0000 ( 20308 PWs)   bands (ev):

  -111.9591-111.8776-111.7771 -69.3745 -69.3745 -69.3568 -69.3014 -69.3014
   -69.2633 -69.2090 -69.2090 -69.1513  -9.1843  -9.0733  -9.0482  -8.9790
    -8.9497  -8.9132  -8.8688  -8.8244  -8.8218  -8.8078  -8.7916  -8.7811
    -8.7084  -8.6923  -8.6469  -8.6417  -8.5829  -8.5419  -8.5227  -8.4888
    -8.4859  -8.4745  -8.4620  -8.4558  -8.4371  -8.4301  -8.4029  -8.3907
    -8.3780  -8.3732  -8.3576  -8.3514  -8.3438  -8.3203  -8.3060  -8.3049
    -8.2971  -8.2303  -8.2051  -8.1702  -8.1500  -8.1394  -8.0646  -7.9489
    -7.8841  -5.9962  -5.7829  -4.3827  -4.2608  -3.2654  -2.7112  -2.4999
    -2.4498  -2.2906  -2.2420  -2.2166  -2.1529  -2.1097  -2.0651  -2.0468
    -2.0372  -1.9850  -1.9752  -1.9362  -1.8043  -1.4504  -1.3704  -1.2288
    -0.8739  -0.6124   1.0894   1.2363   1.3500   1.5361   3.4261   3.5263
     3.6804   3.7284   3.9323   3.9979   4.0670   4.5489   5.0519   5.1507
     5.1526   5.1725   5.4965   5.4998   5.7126   5.7674   6.4446   6.4948
     6.5239   6.6007   6.6759   6.7287   6.7819   6.8034   7.1675   7.2811

     the Fermi energy is     0.3843 ev

!    total energy              =   -2259.52213269 Ry
     Harris-Foulkes estimate   =   -2259.52213292 Ry
     estimated scf accuracy    <       0.00000058 Ry

     The total energy is the sum of the following terms:

     one-electron contribution =  -13016.31084843 Ry
     hartree contribution      =    6581.25576587 Ry
     xc contribution           =    -487.10913835 Ry
     ewald contribution        =    4662.66459836 Ry
     electric field correction =       0.00000350 Ry
     smearing contrib. (-TS)   =      -0.02251364 Ry

     convergence has been achieved in  16 iterations

 BEEF-vdW xc energy contributions
           1 :   -428.071261769990
           2 :    390.572967899738
           3 :   -327.348637188241
           4 :    256.386624103145
           5 :   -194.102438009499
           6 :    149.382449530514
           7 :   -122.059523784623
           8 :    105.821369929425
           9 :   -93.2613555045045
          10 :    80.0206197527227
          11 :   -66.0323333350548
          12 :    53.8936604631193
          13 :   -46.0472677987023
          14 :    42.7995409870047
          15 :   -42.2496868728763
          16 :    41.7616663036452
          17 :   -39.6903209927056
          18 :    36.1604383631383
          19 :   -32.5551681593918
          20 :    30.2867610195441
          21 :   -29.7942895682907
          22 :    30.3876304923091
          23 :   -30.8801385497493
          24 :    30.4367051207468
          25 :   -29.0330691435872
          26 :    27.2993901817835
          27 :   -25.9748875935410
          28 :    25.4088121678494
          29 :   -25.4227575914093
          30 :    25.5441988961048
          31 :   -37.3675199408887
          32 :   -26.8359142149638

     Forces acting on atoms (Ry/au):

     negative rho (up, down):  1.964E-01 0.000E+00
     atom    1 type  1   force =    -0.00000108    0.00828565   -0.01582832
     atom    2 type  1   force =     0.00715499   -0.00413661   -0.01582631
     atom    3 type  1   force =    -0.00717253   -0.00413865   -0.01582265
     atom    4 type  2   force =     0.00000262   -0.00000353    0.01072344
     atom    5 type  1   force =     0.00000779   -0.00753459    0.01107112
     atom    6 type  1   force =    -0.00651884    0.00376855    0.01108126
     atom    7 type  1   force =     0.00653263    0.00376274    0.01106982
     atom    8 type  2   force =     0.00000019   -0.00000158    0.00152378
     atom    9 type  1   force =     0.00000924   -0.00024054    0.00083996
     atom   10 type  1   force =    -0.00021224    0.00012291    0.00085215
     atom   11 type  1   force =     0.00020610    0.00011573    0.00084171
     atom   12 type  2   force =    -0.00000887   -0.00000006   -0.00052596

     Total force =     0.040187     Total SCF correction =     0.002307

     entering subroutine stress ...

     negative rho (up, down):  1.964E-01 0.000E+00
          total   stress  (Ry/bohr**3)                   (kbar)     P=  -10.96
  -0.00011187   0.00000000  -0.00000000        -16.46      0.00     -0.00
   0.00000000  -0.00011187  -0.00000000          0.00    -16.46     -0.00
  -0.00000000  -0.00000000   0.00000016         -0.00     -0.00      0.02

 !ASE

     Writing output data file calc.save

     General routines

     Parallel routines

   This run was terminated on:  21:51:43  19Dec2018

   JOB DONE.
Job  /afs/slac/g/suncat/bin/suncat-tsmpirun -x LD_LIBRARY_PATH -wdir /scratch/qe773422_52fKj pw.x -in pw.inp

TID   HOST_NAME   COMMAND_LINE            STATUS            TERMINATION_TIME
00000 suncat0145 pw.x -in pw.inp   Done                     12/19/2018 21:51:43
00001 suncat0145 pw.x -in pw.inp   Done                     12/19/2018 21:51:43
00002 suncat0145 pw.x -in pw.inp   Done                     12/19/2018 21:51:43
00003 suncat0145 pw.x -in pw.inp   Done                     12/19/2018 21:51:43
00004 suncat0145 pw.x -in pw.inp   Done                     12/19/2018 21:51:43
00005 suncat0145 pw.x -in pw.inp   Done                     12/19/2018 21:51:43
00006 suncat0145 pw.x -in pw.inp   Done                     12/19/2018 21:51:43
00007 suncat0145 pw.x -in pw.inp   Done                     12/19/2018 21:51:43
00008 suncat0144 pw.x -in pw.inp   Done                     12/19/2018 21:51:43
00009 suncat0144 pw.x -in pw.inp   Done                     12/19/2018 21:51:43
00010 suncat0144 pw.x -in pw.inp   Done                     12/19/2018 21:51:43
00011 suncat0144 pw.x -in pw.inp   Done                     12/19/2018 21:51:43
00012 suncat0144 pw.x -in pw.inp   Done                     12/19/2018 21:51:43
00013 suncat0144 pw.x -in pw.inp   Done                     12/19/2018 21:51:43
00014 suncat0144 pw.x -in pw.inp   Done                     12/19/2018 21:51:43
00015 suncat0144 pw.x -in pw.inp   Done                     12/19/2018 21:51:43
00016 suncat0143 pw.x -in pw.inp   Done                     12/19/2018 21:51:43
00017 suncat0143 pw.x -in pw.inp   Done                     12/19/2018 21:51:43
00018 suncat0143 pw.x -in pw.inp   Done                     12/19/2018 21:51:43
00019 suncat0143 pw.x -in pw.inp   Done                     12/19/2018 21:51:43
00020 suncat0143 pw.x -in pw.inp   Done                     12/19/2018 21:51:43
00021 suncat0143 pw.x -in pw.inp   Done                     12/19/2018 21:51:43
00022 suncat0143 pw.x -in pw.inp   Done                     12/19/2018 21:51:43
00023 suncat0143 pw.x -in pw.inp   Done                     12/19/2018 21:51:43
00024 suncat0142 pw.x -in pw.inp   Done                     12/19/2018 21:51:43
00025 suncat0142 pw.x -in pw.inp   Done                     12/19/2018 21:51:43
00026 suncat0142 pw.x -in pw.inp   Done                     12/19/2018 21:51:43
00027 suncat0142 pw.x -in pw.inp   Done                     12/19/2018 21:51:43
00028 suncat0142 pw.x -in pw.inp   Done                     12/19/2018 21:51:43
00029 suncat0142 pw.x -in pw.inp   Done                     12/19/2018 21:51:43
00030 suncat0142 pw.x -in pw.inp   Done                     12/19/2018 21:51:43
00031 suncat0142 pw.x -in pw.inp   Done                     12/19/2018 21:51:43
00032 suncat0141 pw.x -in pw.inp   Done                     12/19/2018 21:51:43
00033 suncat0141 pw.x -in pw.inp   Done                     12/19/2018 21:51:43
00034 suncat0141 pw.x -in pw.inp   Done                     12/19/2018 21:51:43
00035 suncat0141 pw.x -in pw.inp   Done                     12/19/2018 21:51:43
00036 suncat0141 pw.x -in pw.inp   Done                     12/19/2018 21:51:43
00037 suncat0141 pw.x -in pw.inp   Done                     12/19/2018 21:51:43
00038 suncat0141 pw.x -in pw.inp   Done                     12/19/2018 21:51:43
00039 suncat0141 pw.x -in pw.inp   Done                     12/19/2018 21:51:43
00040 suncat0140 pw.x -in pw.inp   Done                     12/19/2018 21:51:43
00041 suncat0140 pw.x -in pw.inp   Done                     12/19/2018 21:51:43
00042 suncat0140 pw.x -in pw.inp   Done                     12/19/2018 21:51:43
00043 suncat0140 pw.x -in pw.inp   Done                     12/19/2018 21:51:43
00044 suncat0140 pw.x -in pw.inp   Done                     12/19/2018 21:51:43
00045 suncat0140 pw.x -in pw.inp   Done                     12/19/2018 21:51:43
00046 suncat0140 pw.x -in pw.inp   Done                     12/19/2018 21:51:43
00047 suncat0140 pw.x -in pw.inp   Done                     12/19/2018 21:51:43
00048 suncat0139 pw.x -in pw.inp   Done                     12/19/2018 21:51:43
00049 suncat0139 pw.x -in pw.inp   Done                     12/19/2018 21:51:43
00050 suncat0139 pw.x -in pw.inp   Done                     12/19/2018 21:51:43
00051 suncat0139 pw.x -in pw.inp   Done                     12/19/2018 21:51:43
00052 suncat0139 pw.x -in pw.inp   Done                     12/19/2018 21:51:43
00053 suncat0139 pw.x -in pw.inp   Done                     12/19/2018 21:51:43
00054 suncat0139 pw.x -in pw.inp   Done                     12/19/2018 21:51:43
00055 suncat0139 pw.x -in pw.inp   Done                     12/19/2018 21:51:43
00056 suncat0138 pw.x -in pw.inp   Done                     12/19/2018 21:51:43
00057 suncat0138 pw.x -in pw.inp   Done                     12/19/2018 21:51:43
00058 suncat0138 pw.x -in pw.inp   Done                     12/19/2018 21:51:43
00059 suncat0138 pw.x -in pw.inp   Done                     12/19/2018 21:51:43
00060 suncat0138 pw.x -in pw.inp   Done                     12/19/2018 21:51:43
00061 suncat0138 pw.x -in pw.inp   Done                     12/19/2018 21:51:43
00062 suncat0138 pw.x -in pw.inp   Done                     12/19/2018 21:51:43
00063 suncat0138 pw.x -in pw.inp   Done                     12/19/2018 21:51:43