     Program PWSCF v.5.1rc2 (svn rev. 11289) starts on  2Jan2019 at 16:12:49

     Current dimensions of program PWSCF are:
     Max number of different atomic species (ntypx) = 10
     Max number of k-points (npk) =  40000
     Max angular momentum in pseudopotentials (lmaxx) =  3
     Presently stress not available with electric field

     IMPORTANT: XC functional enforced from input :
     Exchange-correlation      = BEEF-VDW ( 1  4 27 13 2)
     Any further DFT definition will be discarded
     Please, verify this is what you really want

     Subspace diagonalization in iterative solution of the eigenvalue problem:
     a serial algorithm will be used

     Generating pointlists ...
     new r_m :   0.4125 (alat units)  0.7795 (a.u.) for type    1
     new r_m :   0.4125 (alat units)  0.7795 (a.u.) for type    2

     bravais-lattice index     =            0
     lattice parameter (alat)  =       1.8897  a.u.
     unit-cell volume          =    4203.7065 (a.u.)^3
     number of atoms/cell      =           12
     number of atomic types    =            2
     number of electrons       =       225.00
     number of Kohn-Sham states=          142
     kinetic-energy cutoff     =      36.7493  Ry
     charge density cutoff     =     367.4932  Ry
     convergence threshold     =      1.0E-06
     mixing beta               =       0.1000
     number of iterations used =           10  plain     mixing
     Exchange-correlation      = BEEF-VDW ( 1  4 27 13 2)
     nstep                     =           50

     celldm(1)=   1.889726  celldm(2)=   0.000000  celldm(3)=   0.000000
     celldm(4)=   0.000000  celldm(5)=   0.000000  celldm(6)=   0.000000

     crystal axes: (cart. coord. in units of alat)
               a(1) = (   5.426095   0.000000   0.000000 )
               a(2) = (  -2.713048   4.699136   0.000000 )
               a(3) = (   0.000000   0.000000  24.430388 )

     reciprocal axes: (cart. coord. in units 2 pi/alat)
               b(1) = (  0.184295  0.106403  0.000000 )
               b(2) = (  0.000000  0.212805  0.000000 )
               b(3) = (  0.000000  0.000000  0.040933 )

     PseudoPot. # 1 for Zn read from file:
     /afs/slac.stanford.edu/u/if/mamunm/psp/gbrv1.5pbe/Zn.UPF
     MD5 check sum: df62231357ef9e81f77b2b3087fa5675
     Pseudo is Ultrasoft, Zval = 20.0
     Generated by new atomic code, or converted to UPF format
     Using radial grid of  943 points,  6 beta functions with:
                l(1) =   0
                l(2) =   0
                l(3) =   1
                l(4) =   1
                l(5) =   2
                l(6) =   2
     Q(r) pseudized with  8 coefficients,  rinner =    1.100   1.100   1.100
                                                       1.100   1.100

     PseudoPot. # 2 for Mn read from file:
     /afs/slac.stanford.edu/u/if/mamunm/psp/gbrv1.5pbe/Mn.UPF
     MD5 check sum: 82ef2b46521d7a7d9e736dc3972e4928
     Pseudo is Ultrasoft + core correction, Zval = 15.0
     Generated by new atomic code, or converted to UPF format
     Using radial grid of  859 points,  6 beta functions with:
                l(1) =   0
                l(2) =   0
                l(3) =   1
                l(4) =   1
                l(5) =   2
                l(6) =   2
     Q(r) pseudized with  8 coefficients,  rinner =    0.950   0.950   0.950
                                                       0.950   0.950

     vdW kernel table read from file vdW_kernel_table
     MD5 check sum: 095c7af220d748ca6e76c0b4c6cfb241

     atomic species   valence    mass     pseudopotential
        Zn1           20.00    65.38000     Zn( 1.00)
        Mn1           15.00    54.93804     Mn( 1.00)

     Starting magnetic structure
     atomic species   magnetization
        Zn1          0.100
        Mn1          0.133

     No symmetry found

   Cartesian axes

     site n.     atom                  positions (alat units)
         1           Zn1 tau(   1) = (   0.0000000   0.0000000  10.0000000  )
         2           Zn1 tau(   2) = (  -1.3565238   2.3495681  10.0000000  )
         3           Zn1 tau(   3) = (   1.3565238   2.3495681  10.0000000  )
         4           Mn1 tau(   4) = (   2.7130475   0.0000000  10.0000000  )
         5           Zn1 tau(   5) = (   2.7130475   1.5663787  12.2151940  )
         6           Zn1 tau(   6) = (   1.3565238   3.9159468  12.2151940  )
         7           Zn1 tau(   7) = (  -1.3565238   3.9159468  12.2151940  )
         8           Mn1 tau(   8) = (   0.0000000   1.5663787  12.2151940  )
         9           Zn1 tau(   9) = (  -0.0000000   3.1327574  14.4303880  )
        10           Zn1 tau(  10) = (   1.3565238   0.7831894  14.4303880  )
        11           Zn1 tau(  11) = (   4.0695713   0.7831894  14.4303880  )
        12           Mn1 tau(  12) = (   2.7130475   3.1327574  14.4303880  )

     number of k points=    40  Fermi-Dirac smearing, width (Ry)=  0.0110
                       cart. coord. in units 2pi/alat
        k(    1) = (   0.0000000   0.0000000   0.0000000), wk =   0.0277778
        k(    2) = (   0.0000000   0.0354675   0.0000000), wk =   0.0555556
        k(    3) = (   0.0000000   0.0709350   0.0000000), wk =   0.0555556
        k(    4) = (   0.0000000  -0.1064025   0.0000000), wk =   0.0277778
        k(    5) = (   0.0307158   0.0177338   0.0000000), wk =   0.0555556
        k(    6) = (   0.0307158   0.0532013   0.0000000), wk =   0.0555556
        k(    7) = (   0.0307158   0.0886688   0.0000000), wk =   0.0555556
        k(    8) = (   0.0307158  -0.0886688   0.0000000), wk =   0.0555556
        k(    9) = (   0.0307158  -0.0532013   0.0000000), wk =   0.0555556
        k(   10) = (   0.0307158  -0.0177338   0.0000000), wk =   0.0555556
        k(   11) = (   0.0614315   0.0354675   0.0000000), wk =   0.0555556
        k(   12) = (   0.0614315   0.0709350   0.0000000), wk =   0.0555556
        k(   13) = (   0.0614315   0.1064025   0.0000000), wk =   0.0555556
        k(   14) = (   0.0614315  -0.0709350   0.0000000), wk =   0.0555556
        k(   15) = (   0.0614315  -0.0354675   0.0000000), wk =   0.0555556
        k(   16) = (   0.0614315   0.0000000   0.0000000), wk =   0.0555556
        k(   17) = (  -0.0921473  -0.0532013   0.0000000), wk =   0.0277778
        k(   18) = (  -0.0921473  -0.0177338   0.0000000), wk =   0.0555556
        k(   19) = (  -0.0921473   0.0177338   0.0000000), wk =   0.0555556
        k(   20) = (  -0.0921473  -0.1596038   0.0000000), wk =   0.0277778
        k(   21) = (   0.0000000   0.0000000   0.0000000), wk =   0.0277778
        k(   22) = (   0.0000000   0.0354675   0.0000000), wk =   0.0555556
        k(   23) = (   0.0000000   0.0709350   0.0000000), wk =   0.0555556
        k(   24) = (   0.0000000  -0.1064025   0.0000000), wk =   0.0277778
        k(   25) = (   0.0307158   0.0177338   0.0000000), wk =   0.0555556
        k(   26) = (   0.0307158   0.0532013   0.0000000), wk =   0.0555556
        k(   27) = (   0.0307158   0.0886688   0.0000000), wk =   0.0555556
        k(   28) = (   0.0307158  -0.0886688   0.0000000), wk =   0.0555556
        k(   29) = (   0.0307158  -0.0532013   0.0000000), wk =   0.0555556
        k(   30) = (   0.0307158  -0.0177338   0.0000000), wk =   0.0555556
        k(   31) = (   0.0614315   0.0354675   0.0000000), wk =   0.0555556
        k(   32) = (   0.0614315   0.0709350   0.0000000), wk =   0.0555556
        k(   33) = (   0.0614315   0.1064025   0.0000000), wk =   0.0555556
        k(   34) = (   0.0614315  -0.0709350   0.0000000), wk =   0.0555556
        k(   35) = (   0.0614315  -0.0354675   0.0000000), wk =   0.0555556
        k(   36) = (   0.0614315   0.0000000   0.0000000), wk =   0.0555556
        k(   37) = (  -0.0921473  -0.0532013   0.0000000), wk =   0.0277778
        k(   38) = (  -0.0921473  -0.0177338   0.0000000), wk =   0.0555556
        k(   39) = (  -0.0921473   0.0177338   0.0000000), wk =   0.0555556
        k(   40) = (  -0.0921473  -0.1596038   0.0000000), wk =   0.0277778

     Largest allocated arrays     est. size (Mb)     dimensions
     Largest temporary arrays     est. size (Mb)     dimensions

     Check: negative/imaginary core charge=   -0.000004    0.000000

     Initial potential from superposition of free atoms
     Check: negative starting charge=(component1):   -0.000981
     Check: negative starting charge=(component2):   -0.000759

     starting charge  223.49848, renormalised to  225.00000

     negative rho (up, down):  9.879E-04 7.642E-04

     *
     * You are using vdW-DF for exchange-correlation in this calculation.
     * Please cite the following three references that made this development
     * possible:
     *
     *   M. Dion, H. Rydberg, E. Schroder, D. C. Langreth, and
     *   B. I. Lundqvist, Phys. Rev. Lett. 92, 246401 (2004).
     *
     *   T. Thonhauser, V. R. Cooper, S. Li, A. Puzder, P. Hyldgaard, and
     *   D. C. Langreth, Phys. Rev. B 76, 125112 (2007).
     *
     *   G. Roman-Perez and J. M. Soler, Phys. Rev. Lett. 103, 096102 (2009).
     *
     *
     * If you are using vdW-DF2, please also cite:
     *
     *   K. Lee, E. D. Murray, L. Kong, B. I. Lundqvist, and
     *   D. C. Langreth, Phys. Rev. B 82, 081101(R) (2010).
     *
     *
     * If you are calculating the stress with vdW-DF, please also cite:
     *
     *   R. Sabatini, E. Kucukbenli, B. Kolb, T. Thonhauser, and
     *   S. de Gironcoli, J. Phys.: Condens. Matter 24, 424209 (2012).
     *

     Carrying out vdW-DF run using the following parameters:

     Nqs =      20    Nr_points =    1024   r_max =   100.000
     q_mesh =
               0.00001000     0.04494208     0.09755937     0.15916263
               0.23128650     0.31572767     0.41458969     0.53033537
               0.66584808     0.82450364     1.01025438     1.22772762
               1.48234092     1.78043706     2.12944203     2.53805004
               3.01644009     3.57652955     4.23227104     5.00000000

     Gradients computed in reciprocal space

     Adding external electric field

     Computed dipole along edir(3) :
        Dipole               -0.0000 Ry au,         -0.0000 Debye
        Dipole field         -0.0000 Ry au

        Potential amp.        0.0000 Ry
        Total length         45.0126 bohr

[...]

     Starting wfc are  156 randomized atomic wfcs

     Self-consistent Calculation

     iteration #  1     ecut=    36.75 Ry     beta=0.10
     Davidson diagonalization with overlap
     ethr =  1.00E-02,  avg # of iterations =  8.2

[...]

     Magnetic moment per site:
     atom:    1    charge:   11.7175    magn:    1.0787    constr:    0.0000
     atom:    2    charge:   11.7175    magn:    1.0786    constr:    0.0000
     atom:    3    charge:   11.7175    magn:    1.0786    constr:    0.0000
     atom:    4    charge:    6.1064    magn:    0.7785    constr:    0.0000
     atom:    5    charge:   11.7004    magn:    1.0766    constr:    0.0000
     atom:    6    charge:   11.7005    magn:    1.0766    constr:    0.0000
     atom:    7    charge:   11.7005    magn:    1.0766    constr:    0.0000
     atom:    8    charge:    6.0808    magn:    0.7798    constr:    0.0000
[...]
        k(    6) = (   0.0307158   0.0532013   0.0000000), wk =   0.0555556
        k(    7) = (   0.0307158   0.0886688   0.0000000), wk =   0.0555556
        k(    8) = (   0.0307158  -0.0886688   0.0000000), wk =   0.0555556
        k(    9) = (   0.0307158  -0.0532013   0.0000000), wk =   0.0555556
        k(   10) = (   0.0307158  -0.0177338   0.0000000), wk =   0.0555556
        k(   11) = (   0.0614315   0.0354675   0.0000000), wk =   0.0555556
        k(   12) = (   0.0614315   0.0709350   0.0000000), wk =   0.0555556
        k(   13) = (   0.0614315   0.1064025   0.0000000), wk =   0.0555556
        k(   14) = (   0.0614315  -0.0709350   0.0000000), wk =   0.0555556
        k(   15) = (   0.0614315  -0.0354675   0.0000000), wk =   0.0555556
        k(   16) = (   0.0614315   0.0000000   0.0000000), wk =   0.0555556
        k(   17) = (  -0.0921473  -0.0532013   0.0000000), wk =   0.0277778
        k(   18) = (  -0.0921473  -0.0177338   0.0000000), wk =   0.0555556
        k(   19) = (  -0.0921473   0.0177338   0.0000000), wk =   0.0555556
        k(   20) = (  -0.0921473  -0.1596038   0.0000000), wk =   0.0277778
        k(   21) = (   0.0000000   0.0000000   0.0000000), wk =   0.0277778
        k(   22) = (   0.0000000   0.0354675   0.0000000), wk =   0.0555556
        k(   23) = (   0.0000000   0.0709350   0.0000000), wk =   0.0555556
        k(   24) = (   0.0000000  -0.1064025   0.0000000), wk =   0.0277778
        k(   25) = (   0.0307158   0.0177338   0.0000000), wk =   0.0555556
        k(   26) = (   0.0307158   0.0532013   0.0000000), wk =   0.0555556
        k(   27) = (   0.0307158   0.0886688   0.0000000), wk =   0.0555556
        k(   28) = (   0.0307158  -0.0886688   0.0000000), wk =   0.0555556
        k(   29) = (   0.0307158  -0.0532013   0.0000000), wk =   0.0555556
        k(   30) = (   0.0307158  -0.0177338   0.0000000), wk =   0.0555556
        k(   31) = (   0.0614315   0.0354675   0.0000000), wk =   0.0555556
        k(   32) = (   0.0614315   0.0709350   0.0000000), wk =   0.0555556
        k(   33) = (   0.0614315   0.1064025   0.0000000), wk =   0.0555556
        k(   34) = (   0.0614315  -0.0709350   0.0000000), wk =   0.0555556
        k(   35) = (   0.0614315  -0.0354675   0.0000000), wk =   0.0555556
        k(   36) = (   0.0614315   0.0000000   0.0000000), wk =   0.0555556
        k(   37) = (  -0.0921473  -0.0532013   0.0000000), wk =   0.0277778
        k(   38) = (  -0.0921473  -0.0177338   0.0000000), wk =   0.0555556
        k(   39) = (  -0.0921473   0.0177338   0.0000000), wk =   0.0555556
        k(   40) = (  -0.0921473  -0.1596038   0.0000000), wk =   0.0277778

     Largest allocated arrays     est. size (Mb)     dimensions
     Largest temporary arrays     est. size (Mb)     dimensions

     Check: negative/imaginary core charge=   -0.000004    0.000000

     Initial potential from superposition of free atoms
     Check: negative starting charge=(component1):   -0.000959
     Check: negative starting charge=(component2):   -0.000741

     starting charge  223.49848, renormalised to  225.00000

[...]

     *
     * You are using vdW-DF for exchange-correlation in this calculation.
     * Please cite the following three references that made this development
     * possible:
     *
     *   M. Dion, H. Rydberg, E. Schroder, D. C. Langreth, and
     *   B. I. Lundqvist, Phys. Rev. Lett. 92, 246401 (2004).
     *
     *   T. Thonhauser, V. R. Cooper, S. Li, A. Puzder, P. Hyldgaard, and
     *   D. C. Langreth, Phys. Rev. B 76, 125112 (2007).
     *
     *   G. Roman-Perez and J. M. Soler, Phys. Rev. Lett. 103, 096102 (2009).
     *
     *
     * If you are using vdW-DF2, please also cite:
     *
     *   K. Lee, E. D. Murray, L. Kong, B. I. Lundqvist, and
     *   D. C. Langreth, Phys. Rev. B 82, 081101(R) (2010).
     *
     *
     * If you are calculating the stress with vdW-DF, please also cite:
     *
     *   R. Sabatini, E. Kucukbenli, B. Kolb, T. Thonhauser, and
     *   S. de Gironcoli, J. Phys.: Condens. Matter 24, 424209 (2012).
     *

     Carrying out vdW-DF run using the following parameters:

     Nqs =      20    Nr_points =    1024   r_max =   100.000
     q_mesh =
               0.00001000     0.04494208     0.09755937     0.15916263
               0.23128650     0.31572767     0.41458969     0.53033537
               0.66584808     0.82450364     1.01025438     1.22772762
               1.48234092     1.78043706     2.12944203     2.53805004
               3.01644009     3.57652955     4.23227104     5.00000000

     Gradients computed in reciprocal space

[...]

     Starting wfc are  156 randomized atomic wfcs

     Self-consistent Calculation

[...]

     total energy              =   -4801.30823229 Ry
     Harris-Foulkes estimate   =   -4801.30823098 Ry
     estimated scf accuracy    <       0.00000161 Ry

[...]

     iteration # 23     ecut=    36.75 Ry     beta=0.10
     Davidson diagonalization with overlap
     ethr =  7.16E-10,  avg # of iterations =  2.0

[...]

     negative rho (up, down):  1.162E-03 1.060E-03

[...]

     Adding external electric field

     Computed dipole along edir(3) :
        Dipole                0.0015 Ry au,          0.0039 Debye
        Dipole field          0.0000 Ry au

        Potential amp.       -0.0004 Ry
        Total length         45.0126 bohr

     Magnetic moment per site:
     atom:    1    charge:   11.6886    magn:    0.0071    constr:    0.0000
     atom:    2    charge:   11.6886    magn:    0.0071    constr:    0.0000
     atom:    3    charge:   11.6886    magn:    0.0071    constr:    0.0000
     atom:    4    charge:    6.0177    magn:    1.4433    constr:    0.0000
     atom:    5    charge:   11.6703    magn:    0.0070    constr:    0.0000
     atom:    6    charge:   11.6703    magn:    0.0070    constr:    0.0000
     atom:    7    charge:   11.6703    magn:    0.0070    constr:    0.0000
     atom:    8    charge:    6.0010    magn:    1.3824    constr:    0.0000
     atom:    9    charge:   11.6841    magn:    0.0062    constr:    0.0000
     atom:   10    charge:   11.6841    magn:    0.0062    constr:    0.0000
     atom:   11    charge:   11.6841    magn:    0.0062    constr:    0.0000
     atom:   12    charge:    6.0168    magn:    1.4456    constr:    0.0000

     End of self-consistent calculation

 ------ SPIN UP ------------

[...]

 ------ SPIN DOWN ----------

[...]

          k = 0.0614 0.0000 0.0000 ( 15802 PWs)   bands (ev):

[...]

          k =-0.0921-0.1596 0.0000 ( 15852 PWs)   bands (ev):

  -125.8469-125.8464-125.8459-125.7301-125.7296-125.7291-125.6660-125.6655
  -125.6650 -80.0388 -80.0349 -80.0321 -80.0179 -80.0151 -80.0135 -80.0130
   -80.0111 -80.0070 -79.9210 -79.9189 -79.9176 -79.9095 -79.9051 -79.9010
   -79.8920 -79.8902 -79.8873 -79.8561 -79.8530 -79.8514 -79.8461 -79.8425
   -79.8386 -79.8295 -79.8277 -79.8248 -76.6137 -76.5735 -76.5718 -45.4340
   -45.4032 -45.4031 -45.3772 -45.3770 -45.3721 -45.3720 -45.3553 -45.3542
    -7.5135  -7.2973  -7.2106  -7.1675  -7.1251  -7.0843  -7.0542  -7.0362
    -7.0261  -7.0194  -7.0067  -6.9847  -6.9439  -6.8675  -6.8646  -6.8356
    -6.8171  -6.8131  -6.7489  -6.7000  -6.6754  -6.6679  -6.6514  -6.6281
    -6.6241  -6.6093  -6.5974  -6.5965  -6.5674  -6.5559  -6.5485  -6.5351
    -6.5326  -6.5203  -6.5093  -6.4856  -6.4852  -6.4288  -6.4012  -6.3740
    -6.3423  -6.3236  -6.2829  -6.2468  -6.1916  -6.1860  -6.1384  -4.7822
    -4.5725  -3.2475  -2.8322  -2.1913  -1.6410  -1.4309  -0.9787   0.0908
     0.5170   0.5300   0.6130   0.7765   0.9257   0.9653   1.3442   1.3863
     1.7780   1.7875   2.1046   2.1793   2.4045   2.4620   2.8682   2.9004
     2.9209   3.4091   4.9693   4.9876   5.1563   5.2838   5.5538   5.7426
     5.8174   5.9135   6.0136   6.0646   6.5792   6.6280   6.7440   6.7884
     7.2912   7.4751   7.5459   7.5657   7.5761   7.5926

     the Fermi energy is     0.7194 ev

!    total energy              =   -4801.30823416 Ry
     Harris-Foulkes estimate   =   -4801.30823249 Ry
     estimated scf accuracy    <       0.00000045 Ry

     The total energy is the sum of the following terms:

     one-electron contribution =  -32433.06924098 Ry
     hartree contribution      =   16201.33540561 Ry
     xc contribution           =    -473.81198516 Ry
     ewald contribution        =   11904.27780805 Ry
     electric field correction =       0.00000001 Ry
     smearing contrib. (-TS)   =      -0.04022168 Ry

     total magnetization       =    10.89 Bohr mag/cell
     absolute magnetization    =    12.26 Bohr mag/cell

     convergence has been achieved in  23 iterations

 BEEF-vdW xc energy contributions
           1 :   -419.824836768296
           2 :    380.379167756182
           3 :   -314.340757914593
           4 :    240.950759571343
           5 :   -177.072402801455
           6 :    131.003819916235
           7 :   -101.562299974214
           8 :    81.8552019689053
           9 :   -64.8058747653271
          10 :    47.0944322201805
          11 :   -29.7225997608505
          12 :    15.7354846036968
          13 :   -7.22721468454495
          14 :    3.70696803573338
          15 :   -2.59557586493406
          16 :    1.09982621010477
          17 :    2.03139550969490
          18 :   -6.04344178682186
          19 :    9.13214328391325
          20 :   -9.97542442892797
          21 :    8.70538105288244
          22 :   -6.71586960258355
          23 :    5.57806516691971
          24 :   -5.94099359039058
          25 :    7.20728952855518
          26 :   -8.14133068923195
          27 :    7.86915069255622
          28 :   -6.49588459688403
          29 :    4.91856301825516
          30 :   -4.06327811181649
          31 :   -33.3106248561805
          32 :   -22.9022858795288

     Forces acting on atoms (Ry/au):

     negative rho (up, down):  1.162E-03 1.060E-03
     atom    1 type  1   force =     0.00000025   -0.00345485   -0.01285034
     atom    2 type  1   force =    -0.00299221    0.00172762   -0.01284998
     atom    3 type  1   force =     0.00299206    0.00172736   -0.01284957
     atom    4 type  2   force =    -0.00000008    0.00000012   -0.00161380
     atom    5 type  1   force =    -0.00000013   -0.00223875    0.00910088
     atom    6 type  1   force =    -0.00193916    0.00111842    0.00910145
     atom    7 type  1   force =     0.00193908    0.00111959    0.00910107
     atom    8 type  2   force =     0.00000004    0.00000010    0.01271412
     atom    9 type  1   force =     0.00000003   -0.00043536   -0.00007276
     atom   10 type  1   force =    -0.00037723    0.00021780   -0.00007290
     atom   11 type  1   force =     0.00037708    0.00021752   -0.00007293
     atom   12 type  2   force =     0.00000026    0.00000044    0.00036475

     Total force =     0.030979     Total SCF correction =     0.001551

     entering subroutine stress ...

     negative rho (up, down):  1.162E-03 1.060E-03
          total   stress  (Ry/bohr**3)                   (kbar)     P=   -7.73
  -0.00007748  -0.00000000   0.00000000        -11.40     -0.00      0.00
  -0.00000000  -0.00007748   0.00000000         -0.00    -11.40      0.00
   0.00000000   0.00000000  -0.00000270          0.00      0.00     -0.40

 !ASE

     Writing output data file calc.save

     General routines

     Parallel routines

   This run was terminated on:  18:43:12   2Jan2019

   JOB DONE.
Job  /afs/slac/g/suncat/bin/suncat-tsmpirun -x LD_LIBRARY_PATH -wdir /scratch/qe649485_uttb7 pw.x -in pw.inp

TID   HOST_NAME   COMMAND_LINE            STATUS            TERMINATION_TIME
00000 suncat0165 pw.x -in pw.inp   Done                     01/02/2019 18:43:12
00001 suncat0165 pw.x -in pw.inp   Done                     01/02/2019 18:43:12
00002 suncat0165 pw.x -in pw.inp   Done                     01/02/2019 18:43:12
00003 suncat0165 pw.x -in pw.inp   Done                     01/02/2019 18:43:12
00004 suncat0165 pw.x -in pw.inp   Done                     01/02/2019 18:43:12
00005 suncat0165 pw.x -in pw.inp   Done                     01/02/2019 18:43:12
00006 suncat0165 pw.x -in pw.inp   Done                     01/02/2019 18:43:12
00007 suncat0165 pw.x -in pw.inp   Done                     01/02/2019 18:43:12
00008 suncat0164 pw.x -in pw.inp   Done                     01/02/2019 18:43:12
00009 suncat0164 pw.x -in pw.inp   Done                     01/02/2019 18:43:12
00010 suncat0164 pw.x -in pw.inp   Done                     01/02/2019 18:43:12
00011 suncat0164 pw.x -in pw.inp   Done                     01/02/2019 18:43:12
00012 suncat0164 pw.x -in pw.inp   Done                     01/02/2019 18:43:12
00013 suncat0164 pw.x -in pw.inp   Done                     01/02/2019 18:43:12
00014 suncat0164 pw.x -in pw.inp   Done                     01/02/2019 18:43:12
00015 suncat0164 pw.x -in pw.inp   Done                     01/02/2019 18:43:12
00016 suncat0159 pw.x -in pw.inp   Done                     01/02/2019 18:43:12
00017 suncat0159 pw.x -in pw.inp   Done                     01/02/2019 18:43:12
00018 suncat0159 pw.x -in pw.inp   Done                     01/02/2019 18:43:12
00019 suncat0159 pw.x -in pw.inp   Done                     01/02/2019 18:43:12
00020 suncat0159 pw.x -in pw.inp   Done                     01/02/2019 18:43:12
00021 suncat0159 pw.x -in pw.inp   Done                     01/02/2019 18:43:12
00022 suncat0159 pw.x -in pw.inp   Done                     01/02/2019 18:43:12
00023 suncat0159 pw.x -in pw.inp   Done                     01/02/2019 18:43:12
00024 suncat0155 pw.x -in pw.inp   Done                     01/02/2019 18:43:12
00025 suncat0155 pw.x -in pw.inp   Done                     01/02/2019 18:43:12
00026 suncat0155 pw.x -in pw.inp   Done                     01/02/2019 18:43:12
00027 suncat0155 pw.x -in pw.inp   Done                     01/02/2019 18:43:12
00028 suncat0155 pw.x -in pw.inp   Done                     01/02/2019 18:43:12
00029 suncat0155 pw.x -in pw.inp   Done                     01/02/2019 18:43:12
00030 suncat0155 pw.x -in pw.inp   Done                     01/02/2019 18:43:12
00031 suncat0155 pw.x -in pw.inp   Done                     01/02/2019 18:43:12
00032 suncat0106 pw.x -in pw.inp   Done                     01/02/2019 18:43:12
00033 suncat0106 pw.x -in pw.inp   Done                     01/02/2019 18:43:12
00034 suncat0106 pw.x -in pw.inp   Done                     01/02/2019 18:43:12
00035 suncat0106 pw.x -in pw.inp   Done                     01/02/2019 18:43:12
00036 suncat0106 pw.x -in pw.inp   Done                     01/02/2019 18:43:12
00037 suncat0106 pw.x -in pw.inp   Done                     01/02/2019 18:43:12
00038 suncat0106 pw.x -in pw.inp   Done                     01/02/2019 18:43:12
00039 suncat0106 pw.x -in pw.inp   Done                     01/02/2019 18:43:12
00040 suncat0105 pw.x -in pw.inp   Done                     01/02/2019 18:43:12
00041 suncat0105 pw.x -in pw.inp   Done                     01/02/2019 18:43:12
00042 suncat0105 pw.x -in pw.inp   Done                     01/02/2019 18:43:12
00043 suncat0105 pw.x -in pw.inp   Done                     01/02/2019 18:43:12
00044 suncat0105 pw.x -in pw.inp   Done                     01/02/2019 18:43:12
00045 suncat0105 pw.x -in pw.inp   Done                     01/02/2019 18:43:12
00046 suncat0105 pw.x -in pw.inp   Done                     01/02/2019 18:43:12
00047 suncat0105 pw.x -in pw.inp   Done                     01/02/2019 18:43:12
00048 suncat0277 pw.x -in pw.inp   Done                     01/02/2019 18:43:12
00049 suncat0277 pw.x -in pw.inp   Done                     01/02/2019 18:43:12
00050 suncat0277 pw.x -in pw.inp   Done                     01/02/2019 18:43:12
00051 suncat0277 pw.x -in pw.inp   Done                     01/02/2019 18:43:12
00052 suncat0277 pw.x -in pw.inp   Done                     01/02/2019 18:43:12
00053 suncat0277 pw.x -in pw.inp   Done                     01/02/2019 18:43:12
00054 suncat0277 pw.x -in pw.inp   Done                     01/02/2019 18:43:12
00055 suncat0277 pw.x -in pw.inp   Done                     01/02/2019 18:43:12
00056 suncat0276 pw.x -in pw.inp   Done                     01/02/2019 18:43:12
00057 suncat0276 pw.x -in pw.inp   Done                     01/02/2019 18:43:12
00058 suncat0276 pw.x -in pw.inp   Done                     01/02/2019 18:43:12
00059 suncat0276 pw.x -in pw.inp   Done                     01/02/2019 18:43:12
00060 suncat0276 pw.x -in pw.inp   Done                     01/02/2019 18:43:12
00061 suncat0276 pw.x -in pw.inp   Done                     01/02/2019 18:43:12
00062 suncat0276 pw.x -in pw.inp   Done                     01/02/2019 18:43:12
00063 suncat0276 pw.x -in pw.inp   Done                     01/02/2019 18:43:12