     Program PWSCF v.5.1rc2 (svn rev. 11289) starts on 19Dec2018 at 17: 8:52

     Current dimensions of program PWSCF are:
     Max number of different atomic species (ntypx) = 10
     Max number of k-points (npk) =  40000
     Max angular momentum in pseudopotentials (lmaxx) =  3
     Presently stress not available with electric field

     IMPORTANT: XC functional enforced from input :
     Exchange-correlation      = BEEF-VDW ( 1  4 27 13 2)
     Any further DFT definition will be discarded
     Please, verify this is what you really want

     Subspace diagonalization in iterative solution of the eigenvalue problem:
     a serial algorithm will be used

     Generating pointlists ...
     new r_m :   0.4125 (alat units)  0.7795 (a.u.) for type    1
     new r_m :   0.4125 (alat units)  0.7795 (a.u.) for type    2

     bravais-lattice index     =            0
     lattice parameter (alat)  =       1.8897  a.u.
     unit-cell volume          =    4142.5199 (a.u.)^3
     number of atoms/cell      =           12
     number of atomic types    =            2
     number of electrons       =        75.00
     number of Kohn-Sham states=           67
     kinetic-energy cutoff     =      36.7493  Ry
     charge density cutoff     =     367.4932  Ry
     convergence threshold     =      1.0E-06
     mixing beta               =       0.1000
     number of iterations used =           10  plain     mixing
     Exchange-correlation      = BEEF-VDW ( 1  4 27 13 2)
     nstep                     =           50

     celldm(1)=   1.889726  celldm(2)=   0.000000  celldm(3)=   0.000000
     celldm(4)=   0.000000  celldm(5)=   0.000000  celldm(6)=   0.000000

     crystal axes: (cart. coord. in units of alat)
               a(1) = (   5.389736   0.000000   0.000000 )
               a(2) = (  -2.694868   4.667649   0.000000 )
               a(3) = (   0.000000   0.000000  24.400701 )

     reciprocal axes: (cart. coord. in units 2 pi/alat)
               b(1) = (  0.185538  0.107120  0.000000 )
               b(2) = (  0.000000  0.214241  0.000000 )
               b(3) = (  0.000000  0.000000  0.040982 )

     PseudoPot. # 1 for Al read from file:
     /afs/slac.stanford.edu/u/if/mamunm/psp/gbrv1.5pbe/Al.UPF
     MD5 check sum: 0a6289f5291fc8f409219462bc851e1f
     Pseudo is Ultrasoft + core correction, Zval =  3.0
     Generated by new atomic code, or converted to UPF format
     Using radial grid of  893 points,  3 beta functions with:
                l(1) =   0
                l(2) =   1
                l(3) =   2
     Q(r) pseudized with  8 coefficients,  rinner =    0.900   0.900   0.900
                                                       0.900   0.900

     PseudoPot. # 2 for Fe read from file:
     /afs/slac.stanford.edu/u/if/mamunm/psp/gbrv1.5pbe/Fe.UPF
     MD5 check sum: a130daea23fe5165f5d574ae7f82ed95
     Pseudo is Ultrasoft + core correction, Zval = 16.0
     Generated by new atomic code, or converted to UPF format
     Using radial grid of  861 points,  6 beta functions with:
                l(1) =   0
                l(2) =   0
                l(3) =   1
                l(4) =   1
                l(5) =   2
                l(6) =   2
     Q(r) pseudized with  8 coefficients,  rinner =    1.000   1.000   1.000
                                                       1.000   1.000

     vdW kernel table read from file vdW_kernel_table
     MD5 check sum: 095c7af220d748ca6e76c0b4c6cfb241

     atomic species   valence    mass     pseudopotential
        Al1            3.00    26.98154     Al( 1.00)
        Fe1           16.00    55.84500     Fe( 1.00)

     Starting magnetic structure
     atomic species   magnetization
        Al1          0.667
        Fe1          0.125

     No symmetry found

   Cartesian axes

     site n.     atom                  positions (alat units)
         1           Al1 tau(   1) = (   0.0000000   0.0000000  10.0000000  )
         2           Al1 tau(   2) = (  -1.3474341   2.3338243  10.0000000  )
         3           Al1 tau(   3) = (   1.3474341   2.3338243  10.0000000  )
         4           Fe1 tau(   4) = (   2.6948682   0.0000000  10.0000000  )
         5           Al1 tau(   5) = (   2.6948682   1.5558829  12.2003507  )
         6           Al1 tau(   6) = (   1.3474341   3.8897072  12.2003507  )
         7           Al1 tau(   7) = (  -1.3474341   3.8897072  12.2003507  )
         8           Fe1 tau(   8) = (   0.0000000   1.5558829  12.2003507  )
         9           Al1 tau(   9) = (  -0.0000000   3.1117658  14.4007014  )
        10           Al1 tau(  10) = (   1.3474341   0.7779414  14.4007014  )
        11           Al1 tau(  11) = (   4.0423023   0.7779414  14.4007014  )
        12           Fe1 tau(  12) = (   2.6948682   3.1117658  14.4007014  )

     number of k points=    40  Fermi-Dirac smearing, width (Ry)=  0.0110
                       cart. coord. in units 2pi/alat
        k(    1) = (   0.0000000   0.0000000   0.0000000), wk =   0.0277778
        k(    2) = (   0.0000000   0.0357068   0.0000000), wk =   0.0555556
        k(    3) = (   0.0000000   0.0714135   0.0000000), wk =   0.0555556
        k(    4) = (   0.0000000  -0.1071203   0.0000000), wk =   0.0277778
        k(    5) = (   0.0309230   0.0178534   0.0000000), wk =   0.0555556
        k(    6) = (   0.0309230   0.0535602   0.0000000), wk =   0.0555556
        k(    7) = (   0.0309230   0.0892669   0.0000000), wk =   0.0555556
        k(    8) = (   0.0309230  -0.0892669   0.0000000), wk =   0.0555556
        k(    9) = (   0.0309230  -0.0535602   0.0000000), wk =   0.0555556
        k(   10) = (   0.0309230  -0.0178534   0.0000000), wk =   0.0555556
        k(   11) = (   0.0618459   0.0357068   0.0000000), wk =   0.0555556
        k(   12) = (   0.0618459   0.0714135   0.0000000), wk =   0.0555556
        k(   13) = (   0.0618459   0.1071203   0.0000000), wk =   0.0555556
        k(   14) = (   0.0618459  -0.0714135   0.0000000), wk =   0.0555556
        k(   15) = (   0.0618459  -0.0357068   0.0000000), wk =   0.0555556
        k(   16) = (   0.0618459   0.0000000   0.0000000), wk =   0.0555556
        k(   17) = (  -0.0927689  -0.0535602   0.0000000), wk =   0.0277778
        k(   18) = (  -0.0927689  -0.0178534   0.0000000), wk =   0.0555556
        k(   19) = (  -0.0927689   0.0178534   0.0000000), wk =   0.0555556
        k(   20) = (  -0.0927689  -0.1606805   0.0000000), wk =   0.0277778
        k(   21) = (   0.0000000   0.0000000   0.0000000), wk =   0.0277778
        k(   22) = (   0.0000000   0.0357068   0.0000000), wk =   0.0555556
        k(   23) = (   0.0000000   0.0714135   0.0000000), wk =   0.0555556
        k(   24) = (   0.0000000  -0.1071203   0.0000000), wk =   0.0277778
        k(   25) = (   0.0309230   0.0178534   0.0000000), wk =   0.0555556
        k(   26) = (   0.0309230   0.0535602   0.0000000), wk =   0.0555556
        k(   27) = (   0.0309230   0.0892669   0.0000000), wk =   0.0555556
        k(   28) = (   0.0309230  -0.0892669   0.0000000), wk =   0.0555556
        k(   29) = (   0.0309230  -0.0535602   0.0000000), wk =   0.0555556
        k(   30) = (   0.0309230  -0.0178534   0.0000000), wk =   0.0555556
        k(   31) = (   0.0618459   0.0357068   0.0000000), wk =   0.0555556
        k(   32) = (   0.0618459   0.0714135   0.0000000), wk =   0.0555556
        k(   33) = (   0.0618459   0.1071203   0.0000000), wk =   0.0555556
        k(   34) = (   0.0618459  -0.0714135   0.0000000), wk =   0.0555556
        k(   35) = (   0.0618459  -0.0357068   0.0000000), wk =   0.0555556
        k(   36) = (   0.0618459   0.0000000   0.0000000), wk =   0.0555556
        k(   37) = (  -0.0927689  -0.0535602   0.0000000), wk =   0.0277778
        k(   38) = (  -0.0927689  -0.0178534   0.0000000), wk =   0.0555556
        k(   39) = (  -0.0927689   0.0178534   0.0000000), wk =   0.0555556
        k(   40) = (  -0.0927689  -0.1606805   0.0000000), wk =   0.0277778

     Largest allocated arrays     est. size (Mb)     dimensions
     Largest temporary arrays     est. size (Mb)     dimensions

     Check: negative/imaginary core charge=   -0.000002    0.000000

     Initial potential from superposition of free atoms
     Check: negative starting charge=(component1):   -0.000127

     starting charge   71.97779, renormalised to   75.00000

     negative rho (up, down):  1.318E-04 5.280E-05

     *
     * You are using vdW-DF for exchange-correlation in this calculation.
     * Please cite the following three references that made this development
     * possible:
     *
     *   M. Dion, H. Rydberg, E. Schroder, D. C. Langreth, and
     *   B. I. Lundqvist, Phys. Rev. Lett. 92, 246401 (2004).
     *
     *   T. Thonhauser, V. R. Cooper, S. Li, A. Puzder, P. Hyldgaard, and
     *   D. C. Langreth, Phys. Rev. B 76, 125112 (2007).
     *
     *   G. Roman-Perez and J. M. Soler, Phys. Rev. Lett. 103, 096102 (2009).
     *
     *
     * If you are using vdW-DF2, please also cite:
     *
     *   K. Lee, E. D. Murray, L. Kong, B. I. Lundqvist, and
     *   D. C. Langreth, Phys. Rev. B 82, 081101(R) (2010).
     *
     *
     * If you are calculating the stress with vdW-DF, please also cite:
     *
     *   R. Sabatini, E. Kucukbenli, B. Kolb, T. Thonhauser, and
     *   S. de Gironcoli, J. Phys.: Condens. Matter 24, 424209 (2012).
     *

     Carrying out vdW-DF run using the following parameters:

     Nqs =      20    Nr_points =    1024   r_max =   100.000
     q_mesh =
               0.00001000     0.04494208     0.09755937     0.15916263
               0.23128650     0.31572767     0.41458969     0.53033537
               0.66584808     0.82450364     1.01025438     1.22772762
               1.48234092     1.78043706     2.12944203     2.53805004
               3.01644009     3.57652955     4.23227104     5.00000000

     Gradients computed in reciprocal space

     Adding external electric field

     Computed dipole along edir(3) :
        Dipole                0.0000 Ry au,          0.0000 Debye
        Dipole field          0.0000 Ry au

        Potential amp.       -0.0000 Ry
        Total length         44.9579 bohr

[...]

     Starting wfc are   75 randomized atomic wfcs

     Self-consistent Calculation

     iteration #  1     ecut=    36.75 Ry     beta=0.10
     Davidson diagonalization with overlap
     ethr =  1.00E-02,  avg # of iterations =  6.4

[...]

     Magnetic moment per site:
     atom:    1    charge:    0.0902    magn:    0.0552    constr:    0.0000
     atom:    2    charge:    0.0902    magn:    0.0552    constr:    0.0000
     atom:    3    charge:    0.0902    magn:    0.0552    constr:    0.0000
     atom:    4    charge:    7.2071    magn:    0.8979    constr:    0.0000
     atom:    5    charge:    0.0943    magn:    0.0572    constr:    0.0000
     atom:    6    charge:    0.0943    magn:    0.0572    constr:    0.0000
     atom:    7    charge:    0.0943    magn:    0.0572    constr:    0.0000
     atom:    8    charge:    7.2288    magn:    0.8758    constr:    0.0000
     atom:    9    charge:    0.0901    magn:    0.0552    constr:    0.0000
[...]
         9           Al1 tau(   9) = (  -0.0000015   3.0941733  14.5372223  )
        10           Al1 tau(  10) = (   1.3321979   0.7867359  14.5372224  )
        11           Al1 tau(  11) = (   4.0575349   0.7867356  14.5372227  )
        12           Fe1 tau(  12) = (   2.6948683   3.1117645  14.2281914  )

     number of k points=    40  Fermi-Dirac smearing, width (Ry)=  0.0110
                       cart. coord. in units 2pi/alat
        k(    1) = (   0.0000000   0.0000000   0.0000000), wk =   0.0277778
        k(    2) = (   0.0000000   0.0357068   0.0000000), wk =   0.0555556
        k(    3) = (   0.0000000   0.0714135   0.0000000), wk =   0.0555556
        k(    4) = (   0.0000000  -0.1071203   0.0000000), wk =   0.0277778
        k(    5) = (   0.0309230   0.0178534   0.0000000), wk =   0.0555556
        k(    6) = (   0.0309230   0.0535602   0.0000000), wk =   0.0555556
        k(    7) = (   0.0309230   0.0892669   0.0000000), wk =   0.0555556
        k(    8) = (   0.0309230  -0.0892669   0.0000000), wk =   0.0555556
        k(    9) = (   0.0309230  -0.0535602   0.0000000), wk =   0.0555556
        k(   10) = (   0.0309230  -0.0178534   0.0000000), wk =   0.0555556
        k(   11) = (   0.0618459   0.0357068   0.0000000), wk =   0.0555556
        k(   12) = (   0.0618459   0.0714135   0.0000000), wk =   0.0555556
        k(   13) = (   0.0618459   0.1071203   0.0000000), wk =   0.0555556
        k(   14) = (   0.0618459  -0.0714135   0.0000000), wk =   0.0555556
        k(   15) = (   0.0618459  -0.0357068   0.0000000), wk =   0.0555556
        k(   16) = (   0.0618459   0.0000000   0.0000000), wk =   0.0555556
        k(   17) = (  -0.0927689  -0.0535602   0.0000000), wk =   0.0277778
        k(   18) = (  -0.0927689  -0.0178534   0.0000000), wk =   0.0555556
        k(   19) = (  -0.0927689   0.0178534   0.0000000), wk =   0.0555556
        k(   20) = (  -0.0927689  -0.1606805   0.0000000), wk =   0.0277778
        k(   21) = (   0.0000000   0.0000000   0.0000000), wk =   0.0277778
        k(   22) = (   0.0000000   0.0357068   0.0000000), wk =   0.0555556
        k(   23) = (   0.0000000   0.0714135   0.0000000), wk =   0.0555556
        k(   24) = (   0.0000000  -0.1071203   0.0000000), wk =   0.0277778
        k(   25) = (   0.0309230   0.0178534   0.0000000), wk =   0.0555556
        k(   26) = (   0.0309230   0.0535602   0.0000000), wk =   0.0555556
        k(   27) = (   0.0309230   0.0892669   0.0000000), wk =   0.0555556
        k(   28) = (   0.0309230  -0.0892669   0.0000000), wk =   0.0555556
        k(   29) = (   0.0309230  -0.0535602   0.0000000), wk =   0.0555556
        k(   30) = (   0.0309230  -0.0178534   0.0000000), wk =   0.0555556
        k(   31) = (   0.0618459   0.0357068   0.0000000), wk =   0.0555556
        k(   32) = (   0.0618459   0.0714135   0.0000000), wk =   0.0555556
        k(   33) = (   0.0618459   0.1071203   0.0000000), wk =   0.0555556
        k(   34) = (   0.0618459  -0.0714135   0.0000000), wk =   0.0555556
        k(   35) = (   0.0618459  -0.0357068   0.0000000), wk =   0.0555556
        k(   36) = (   0.0618459   0.0000000   0.0000000), wk =   0.0555556
        k(   37) = (  -0.0927689  -0.0535602   0.0000000), wk =   0.0277778
        k(   38) = (  -0.0927689  -0.0178534   0.0000000), wk =   0.0555556
        k(   39) = (  -0.0927689   0.0178534   0.0000000), wk =   0.0555556
        k(   40) = (  -0.0927689  -0.1606805   0.0000000), wk =   0.0277778

     Largest allocated arrays     est. size (Mb)     dimensions
     Largest temporary arrays     est. size (Mb)     dimensions

     Check: negative/imaginary core charge=   -0.000002    0.000000

     Initial potential from superposition of free atoms
     Check: negative starting charge=(component1):   -0.000124

     starting charge   71.97779, renormalised to   75.00000

[...]

     *
     * You are using vdW-DF for exchange-correlation in this calculation.
     * Please cite the following three references that made this development
     * possible:
     *
     *   M. Dion, H. Rydberg, E. Schroder, D. C. Langreth, and
     *   B. I. Lundqvist, Phys. Rev. Lett. 92, 246401 (2004).
     *
     *   T. Thonhauser, V. R. Cooper, S. Li, A. Puzder, P. Hyldgaard, and
     *   D. C. Langreth, Phys. Rev. B 76, 125112 (2007).
     *
     *   G. Roman-Perez and J. M. Soler, Phys. Rev. Lett. 103, 096102 (2009).
     *
     *
     * If you are using vdW-DF2, please also cite:
     *
     *   K. Lee, E. D. Murray, L. Kong, B. I. Lundqvist, and
     *   D. C. Langreth, Phys. Rev. B 82, 081101(R) (2010).
     *
     *
     * If you are calculating the stress with vdW-DF, please also cite:
     *
     *   R. Sabatini, E. Kucukbenli, B. Kolb, T. Thonhauser, and
     *   S. de Gironcoli, J. Phys.: Condens. Matter 24, 424209 (2012).
     *

     Carrying out vdW-DF run using the following parameters:

     Nqs =      20    Nr_points =    1024   r_max =   100.000
     q_mesh =
               0.00001000     0.04494208     0.09755937     0.15916263
               0.23128650     0.31572767     0.41458969     0.53033537
               0.66584808     0.82450364     1.01025438     1.22772762
               1.48234092     1.78043706     2.12944203     2.53805004
               3.01644009     3.57652955     4.23227104     5.00000000

     Gradients computed in reciprocal space

[...]

     Starting wfc are   75 randomized atomic wfcs

     Self-consistent Calculation

[...]

     total energy              =    -815.95721619 Ry
     Harris-Foulkes estimate   =    -815.95721400 Ry
     estimated scf accuracy    <       0.00000106 Ry

[...]

     iteration # 25     ecut=    36.75 Ry     beta=0.10
     Davidson diagonalization with overlap
     ethr =  1.41E-09,  avg # of iterations =  1.9

[...]

     negative rho (up, down):  3.663E-04 5.971E-04

[...]

     Adding external electric field

     Computed dipole along edir(3) :
        Dipole                0.0405 Ry au,          0.1029 Debye
        Dipole field          0.0001 Ry au

        Potential amp.       -0.0110 Ry
        Total length         44.9579 bohr

     Magnetic moment per site:
     atom:    1    charge:    0.0804    magn:   -0.0033    constr:    0.0000
     atom:    2    charge:    0.0804    magn:   -0.0033    constr:    0.0000
     atom:    3    charge:    0.0804    magn:   -0.0033    constr:    0.0000
     atom:    4    charge:    7.0866    magn:    0.9941    constr:    0.0000
     atom:    5    charge:    0.0814    magn:   -0.0022    constr:    0.0000
     atom:    6    charge:    0.0814    magn:   -0.0022    constr:    0.0000
     atom:    7    charge:    0.0814    magn:   -0.0022    constr:    0.0000
     atom:    8    charge:    7.0724    magn:    0.7353    constr:    0.0000
     atom:    9    charge:    0.0790    magn:   -0.0027    constr:    0.0000
     atom:   10    charge:    0.0790    magn:   -0.0027    constr:    0.0000
     atom:   11    charge:    0.0790    magn:   -0.0027    constr:    0.0000
     atom:   12    charge:    7.0777    magn:    0.8789    constr:    0.0000

     End of self-consistent calculation

 ------ SPIN UP ------------

[...]

 ------ SPIN DOWN ----------

[...]

          k = 0.0618 0.0000 0.0000 ( 15554 PWs)   bands (ev):

[...]

          k =-0.0928-0.1607 0.0000 ( 15608 PWs)   bands (ev):

   -86.2311 -86.0814 -86.0067 -52.3552 -52.3552 -52.2609 -52.2263 -52.2263
   -52.1411 -52.1411 -52.0855 -52.0327  -9.4821  -9.1422  -7.5159  -7.4944
    -6.1437  -5.9986  -5.0753  -4.4939  -4.4092  -3.9268  -2.7489  -2.2192
    -2.1081  -2.0540  -1.9058  -1.7214  -1.5886  -1.1918  -1.1270  -0.8380
    -0.6361  -0.3328  -0.2683  -0.1040  -0.0183   0.1382   0.2071   0.3554
     0.6857   1.3828   1.8528   1.9819   2.1529   2.2473   2.2577   2.7165
     2.8964   3.0054   3.4006   4.0862   4.0992   4.4892   4.5526   4.5778
     4.9849   5.1966   5.2570   5.2889   5.6375   5.7667   5.8321   5.9402
     6.0266   6.0763   6.2032

     the Fermi energy is    -0.3001 ev

!    total energy              =    -815.95722127 Ry
     Harris-Foulkes estimate   =    -815.95721613 Ry
     estimated scf accuracy    <       0.00000045 Ry

     The total energy is the sum of the following terms:

     one-electron contribution =   -3927.52683925 Ry
     hartree contribution      =    1967.00983538 Ry
     xc contribution           =    -130.98005125 Ry
     ewald contribution        =    1275.58380786 Ry
     electric field correction =       0.00000497 Ry
     smearing contrib. (-TS)   =      -0.04397898 Ry

     total magnetization       =     5.04 Bohr mag/cell
     absolute magnetization    =     6.71 Bohr mag/cell

     convergence has been achieved in  25 iterations

 BEEF-vdW xc energy contributions
           1 :   -112.452057915568
           2 :    100.242117091997
           3 :   -80.4340511763440
           4 :    59.6124807360206
           5 :   -43.0188453577120
           6 :    32.5498544644170
           7 :   -26.9613445654982
           8 :    23.6425392948235
           9 :   -20.5318516449676
          10 :    16.9937084763282
          11 :   -13.4841858964088
          12 :    10.6604150897092
          13 :   -8.75265697080010
          14 :    7.52393440157670
          15 :   -6.60204223243321
          16 :    5.76206279101930
          17 :   -4.96146680633140
          18 :    4.21401154348959
          19 :   -3.50647717708141
          20 :    2.82623583491613
          21 :   -2.22175521521572
          22 :    1.78135737178604
          23 :   -1.53797264415738
          24 :    1.39909637397321
          25 :   -1.19684448863218
          26 :   0.824357456238033
          27 :  -0.339174117740498
          28 :  -7.328869260237525E-002
          29 :   0.250190523354178
          30 :  -0.192100097911577
          31 :   -11.9629848870967
          32 :   -8.58855319668164

     Forces acting on atoms (Ry/au):

     negative rho (up, down):  3.663E-04 5.971E-04
     atom    1 type  1   force =     0.00000002    0.01365296   -0.02470532
     atom    2 type  1   force =     0.01182380   -0.00682640   -0.02470533
     atom    3 type  1   force =    -0.01182370   -0.00682636   -0.02470531
     atom    4 type  2   force =    -0.00000074   -0.00000039    0.03951334
     atom    5 type  1   force =     0.00000002   -0.00728716    0.00680879
     atom    6 type  1   force =    -0.00631086    0.00364360    0.00680883
     atom    7 type  1   force =     0.00631090    0.00364359    0.00680877
     atom    8 type  2   force =     0.00000029   -0.00000042    0.01096803
     atom    9 type  1   force =     0.00000016    0.00005120    0.00097378
     atom   10 type  1   force =     0.00004446   -0.00002543    0.00097380
     atom   11 type  1   force =    -0.00004408   -0.00002541    0.00097384
     atom   12 type  2   force =    -0.00000027    0.00000020    0.00028679

     Total force =     0.066130     Total SCF correction =     0.000982

     entering subroutine stress ...

     negative rho (up, down):  3.663E-04 5.971E-04
          total   stress  (Ry/bohr**3)                   (kbar)     P=  -14.14
  -0.00016280   0.00000000   0.00000000        -23.95      0.00      0.00
   0.00000000  -0.00016280   0.00000000          0.00    -23.95      0.00
   0.00000000   0.00000000   0.00003724          0.00      0.00      5.48

 !ASE

     Writing output data file calc.save

     General routines

     Parallel routines

   This run was terminated on:  18:54:27  19Dec2018

   JOB DONE.
Job  /afs/slac/g/suncat/bin/suncat-tsmpirun -x LD_LIBRARY_PATH -wdir /scratch/qe773258_VXdUu pw.x -in pw.inp

TID   HOST_NAME   COMMAND_LINE            STATUS            TERMINATION_TIME
00000 suncat0254 pw.x -in pw.inp   Done                     12/19/2018 18:54:27
00001 suncat0254 pw.x -in pw.inp   Done                     12/19/2018 18:54:27
00002 suncat0254 pw.x -in pw.inp   Done                     12/19/2018 18:54:27
00003 suncat0254 pw.x -in pw.inp   Done                     12/19/2018 18:54:27
00004 suncat0254 pw.x -in pw.inp   Done                     12/19/2018 18:54:27
00005 suncat0254 pw.x -in pw.inp   Done                     12/19/2018 18:54:27
00006 suncat0254 pw.x -in pw.inp   Done                     12/19/2018 18:54:27
00007 suncat0254 pw.x -in pw.inp   Done                     12/19/2018 18:54:27
00008 suncat0253 pw.x -in pw.inp   Done                     12/19/2018 18:54:27
00009 suncat0253 pw.x -in pw.inp   Done                     12/19/2018 18:54:27
00010 suncat0253 pw.x -in pw.inp   Done                     12/19/2018 18:54:27
00011 suncat0253 pw.x -in pw.inp   Done                     12/19/2018 18:54:27
00012 suncat0253 pw.x -in pw.inp   Done                     12/19/2018 18:54:27
00013 suncat0253 pw.x -in pw.inp   Done                     12/19/2018 18:54:27
00014 suncat0253 pw.x -in pw.inp   Done                     12/19/2018 18:54:27
00015 suncat0253 pw.x -in pw.inp   Done                     12/19/2018 18:54:27
00016 suncat0244 pw.x -in pw.inp   Done                     12/19/2018 18:54:27
00017 suncat0244 pw.x -in pw.inp   Done                     12/19/2018 18:54:27
00018 suncat0244 pw.x -in pw.inp   Done                     12/19/2018 18:54:27
00019 suncat0244 pw.x -in pw.inp   Done                     12/19/2018 18:54:27
00020 suncat0244 pw.x -in pw.inp   Done                     12/19/2018 18:54:27
00021 suncat0244 pw.x -in pw.inp   Done                     12/19/2018 18:54:27
00022 suncat0244 pw.x -in pw.inp   Done                     12/19/2018 18:54:27
00023 suncat0244 pw.x -in pw.inp   Done                     12/19/2018 18:54:27
00024 suncat0243 pw.x -in pw.inp   Done                     12/19/2018 18:54:27
00025 suncat0243 pw.x -in pw.inp   Done                     12/19/2018 18:54:27
00026 suncat0243 pw.x -in pw.inp   Done                     12/19/2018 18:54:27
00027 suncat0243 pw.x -in pw.inp   Done                     12/19/2018 18:54:27
00028 suncat0243 pw.x -in pw.inp   Done                     12/19/2018 18:54:27
00029 suncat0243 pw.x -in pw.inp   Done                     12/19/2018 18:54:27
00030 suncat0243 pw.x -in pw.inp   Done                     12/19/2018 18:54:27
00031 suncat0243 pw.x -in pw.inp   Done                     12/19/2018 18:54:27
00032 suncat0214 pw.x -in pw.inp   Done                     12/19/2018 18:54:27
00033 suncat0214 pw.x -in pw.inp   Done                     12/19/2018 18:54:27
00034 suncat0214 pw.x -in pw.inp   Done                     12/19/2018 18:54:27
00035 suncat0214 pw.x -in pw.inp   Done                     12/19/2018 18:54:27
00036 suncat0214 pw.x -in pw.inp   Done                     12/19/2018 18:54:27
00037 suncat0214 pw.x -in pw.inp   Done                     12/19/2018 18:54:27
00038 suncat0214 pw.x -in pw.inp   Done                     12/19/2018 18:54:27
00039 suncat0214 pw.x -in pw.inp   Done                     12/19/2018 18:54:27
00040 suncat0213 pw.x -in pw.inp   Done                     12/19/2018 18:54:27
00041 suncat0213 pw.x -in pw.inp   Done                     12/19/2018 18:54:27
00042 suncat0213 pw.x -in pw.inp   Done                     12/19/2018 18:54:27
00043 suncat0213 pw.x -in pw.inp   Done                     12/19/2018 18:54:27
00044 suncat0213 pw.x -in pw.inp   Done                     12/19/2018 18:54:27
00045 suncat0213 pw.x -in pw.inp   Done                     12/19/2018 18:54:27
00046 suncat0213 pw.x -in pw.inp   Done                     12/19/2018 18:54:27
00047 suncat0213 pw.x -in pw.inp   Done                     12/19/2018 18:54:27
00048 suncat0209 pw.x -in pw.inp   Done                     12/19/2018 18:54:27
00049 suncat0209 pw.x -in pw.inp   Done                     12/19/2018 18:54:27
00050 suncat0209 pw.x -in pw.inp   Done                     12/19/2018 18:54:27
00051 suncat0209 pw.x -in pw.inp   Done                     12/19/2018 18:54:27
00052 suncat0209 pw.x -in pw.inp   Done                     12/19/2018 18:54:27
00053 suncat0209 pw.x -in pw.inp   Done                     12/19/2018 18:54:27
00054 suncat0209 pw.x -in pw.inp   Done                     12/19/2018 18:54:27
00055 suncat0209 pw.x -in pw.inp   Done                     12/19/2018 18:54:27
00056 suncat0203 pw.x -in pw.inp   Done                     12/19/2018 18:54:27
00057 suncat0203 pw.x -in pw.inp   Done                     12/19/2018 18:54:27
00058 suncat0203 pw.x -in pw.inp   Done                     12/19/2018 18:54:27
00059 suncat0203 pw.x -in pw.inp   Done                     12/19/2018 18:54:27
00060 suncat0203 pw.x -in pw.inp   Done                     12/19/2018 18:54:27
00061 suncat0203 pw.x -in pw.inp   Done                     12/19/2018 18:54:27
00062 suncat0203 pw.x -in pw.inp   Done                     12/19/2018 18:54:27
00063 suncat0203 pw.x -in pw.inp   Done                     12/19/2018 18:54:27