     Program PWSCF v.5.1rc2 (svn rev. 11289) starts on 25Dec2018 at 18:21:31

     Current dimensions of program PWSCF are:
     Max number of different atomic species (ntypx) = 10
     Max number of k-points (npk) =  40000
     Max angular momentum in pseudopotentials (lmaxx) =  3
     Presently stress not available with electric field

     IMPORTANT: XC functional enforced from input :
     Exchange-correlation      = BEEF-VDW ( 1  4 27 13 2)
     Any further DFT definition will be discarded
     Please, verify this is what you really want

     Subspace diagonalization in iterative solution of the eigenvalue problem:
     a serial algorithm will be used

     bravais-lattice index     =            0
     lattice parameter (alat)  =       1.8897  a.u.
     unit-cell volume          =    4206.8389 (a.u.)^3
     number of atoms/cell      =           12
     number of atomic types    =            2
     number of electrons       =       210.00
     number of Kohn-Sham states=          135
     kinetic-energy cutoff     =      36.7493  Ry
     charge density cutoff     =     367.4932  Ry
     convergence threshold     =      1.0E-06
     mixing beta               =       0.1000
     number of iterations used =           10  plain     mixing
     Exchange-correlation      = BEEF-VDW ( 1  4 27 13 2)
     nstep                     =           50

     celldm(1)=   1.889726  celldm(2)=   0.000000  celldm(3)=   0.000000
     celldm(4)=   0.000000  celldm(5)=   0.000000  celldm(6)=   0.000000

     crystal axes: (cart. coord. in units of alat)
               a(1) = (   5.427948   0.000000   0.000000 )
               a(2) = (  -2.713974   4.700741   0.000000 )
               a(3) = (   0.000000   0.000000  24.431901 )

     reciprocal axes: (cart. coord. in units 2 pi/alat)
               b(1) = (  0.184232  0.106366  0.000000 )
               b(2) = (  0.000000  0.212732  0.000000 )
               b(3) = (  0.000000  0.000000  0.040930 )

     PseudoPot. # 1 for Cu read from file:
     /afs/slac.stanford.edu/u/if/mamunm/psp/gbrv1.5pbe/Cu.UPF
     MD5 check sum: 6e991ff952a84172a2a52a1c1e996048
     Pseudo is Ultrasoft + core correction, Zval = 19.0
     Generated by new atomic code, or converted to UPF format
     Using radial grid of  867 points,  6 beta functions with:
                l(1) =   0
                l(2) =   0
                l(3) =   1
                l(4) =   1
                l(5) =   2
                l(6) =   2
     Q(r) pseudized with  8 coefficients,  rinner =    1.150   1.150   1.150
                                                       1.150   1.150

     PseudoPot. # 2 for Ta read from file:
     /afs/slac.stanford.edu/u/if/mamunm/psp/gbrv1.5pbe/Ta.UPF
     MD5 check sum: f8bbe9446314a3b8ea5d9f3e3836c939
     Pseudo is Ultrasoft + core correction, Zval = 13.0
     Generated by new atomic code, or converted to UPF format
     Using radial grid of  921 points,  7 beta functions with:
                l(1) =   0
                l(2) =   0
                l(3) =   1
                l(4) =   1
                l(5) =   2
                l(6) =   2
                l(7) =   3
     Q(r) pseudized with  6 coefficients,  rinner =    1.300   1.300   1.300
                                                       1.300   1.300   1.300
                                                       1.300

     vdW kernel table read from file vdW_kernel_table
     MD5 check sum: 095c7af220d748ca6e76c0b4c6cfb241

     atomic species   valence    mass     pseudopotential
        Cu1           19.00    63.54600     Cu( 1.00)
        Ta1           13.00   180.94788     Ta( 1.00)

     No symmetry found

   Cartesian axes

     site n.     atom                  positions (alat units)
         1           Cu1 tau(   1) = (   0.0000000   0.0000000  10.0000000  )
         2           Cu1 tau(   2) = (  -1.3569870   2.3503705  10.0000000  )
         3           Cu1 tau(   3) = (   1.3569870   2.3503705  10.0000000  )
         4           Ta1 tau(   4) = (   2.7139741   0.0000000  10.0000000  )
         5           Cu1 tau(   5) = (   2.7139741   1.5669137  12.2159506  )
         6           Cu1 tau(   6) = (   1.3569870   3.9172842  12.2159506  )
         7           Cu1 tau(   7) = (  -1.3569870   3.9172842  12.2159506  )
         8           Ta1 tau(   8) = (   0.0000000   1.5669137  12.2159506  )
         9           Cu1 tau(   9) = (  -0.0000000   3.1338273  14.4319011  )
        10           Cu1 tau(  10) = (   1.3569870   0.7834568  14.4319011  )
        11           Cu1 tau(  11) = (   4.0709611   0.7834568  14.4319011  )
        12           Ta1 tau(  12) = (   2.7139741   3.1338273  14.4319011  )

     number of k points=    20  Fermi-Dirac smearing, width (Ry)=  0.0110
                       cart. coord. in units 2pi/alat
        k(    1) = (   0.0000000   0.0000000   0.0000000), wk =   0.0555556
        k(    2) = (   0.0000000   0.0354554   0.0000000), wk =   0.1111111
        k(    3) = (   0.0000000   0.0709108   0.0000000), wk =   0.1111111
        k(    4) = (   0.0000000  -0.1063662   0.0000000), wk =   0.0555556
        k(    5) = (   0.0307053   0.0177277   0.0000000), wk =   0.1111111
        k(    6) = (   0.0307053   0.0531831   0.0000000), wk =   0.1111111
        k(    7) = (   0.0307053   0.0886385   0.0000000), wk =   0.1111111
        k(    8) = (   0.0307053  -0.0886385   0.0000000), wk =   0.1111111
        k(    9) = (   0.0307053  -0.0531831   0.0000000), wk =   0.1111111
        k(   10) = (   0.0307053  -0.0177277   0.0000000), wk =   0.1111111
        k(   11) = (   0.0614106   0.0354554   0.0000000), wk =   0.1111111
        k(   12) = (   0.0614106   0.0709108   0.0000000), wk =   0.1111111
        k(   13) = (   0.0614106   0.1063662   0.0000000), wk =   0.1111111
        k(   14) = (   0.0614106  -0.0709108   0.0000000), wk =   0.1111111
        k(   15) = (   0.0614106  -0.0354554   0.0000000), wk =   0.1111111
        k(   16) = (   0.0614106   0.0000000   0.0000000), wk =   0.1111111
        k(   17) = (  -0.0921158  -0.0531831   0.0000000), wk =   0.0555556
        k(   18) = (  -0.0921158  -0.0177277   0.0000000), wk =   0.1111111
        k(   19) = (  -0.0921158   0.0177277   0.0000000), wk =   0.1111111
        k(   20) = (  -0.0921158  -0.1595493   0.0000000), wk =   0.0555556

     Largest allocated arrays     est. size (Mb)     dimensions
     Largest temporary arrays     est. size (Mb)     dimensions

     Initial potential from superposition of free atoms
     Check: negative starting charge=   -0.286428

     starting charge  200.99665, renormalised to  210.00000

     negative rho (up, down):  2.993E-01 0.000E+00

     *
     * You are using vdW-DF for exchange-correlation in this calculation.
     * Please cite the following three references that made this development
     * possible:
     *
     *   M. Dion, H. Rydberg, E. Schroder, D. C. Langreth, and
     *   B. I. Lundqvist, Phys. Rev. Lett. 92, 246401 (2004).
     *
     *   T. Thonhauser, V. R. Cooper, S. Li, A. Puzder, P. Hyldgaard, and
     *   D. C. Langreth, Phys. Rev. B 76, 125112 (2007).
     *
     *   G. Roman-Perez and J. M. Soler, Phys. Rev. Lett. 103, 096102 (2009).
     *
     *
     * If you are using vdW-DF2, please also cite:
     *
     *   K. Lee, E. D. Murray, L. Kong, B. I. Lundqvist, and
     *   D. C. Langreth, Phys. Rev. B 82, 081101(R) (2010).
     *
     *
     * If you are calculating the stress with vdW-DF, please also cite:
     *
     *   R. Sabatini, E. Kucukbenli, B. Kolb, T. Thonhauser, and
     *   S. de Gironcoli, J. Phys.: Condens. Matter 24, 424209 (2012).
     *

     Carrying out vdW-DF run using the following parameters:

     Nqs =      20    Nr_points =    1024   r_max =   100.000
     q_mesh =
               0.00001000     0.04494208     0.09755937     0.15916263
               0.23128650     0.31572767     0.41458969     0.53033537
               0.66584808     0.82450364     1.01025438     1.22772762
               1.48234092     1.78043706     2.12944203     2.53805004
               3.01644009     3.57652955     4.23227104     5.00000000

     Gradients computed in reciprocal space

     Adding external electric field

     Computed dipole along edir(3) :
        Dipole                0.0000 Ry au,          0.0000 Debye
        Dipole field          0.0000 Ry au

        Potential amp.       -0.0000 Ry
        Total length         45.0154 bohr

     Starting wfc are  156 randomized atomic wfcs

     Self-consistent Calculation

     iteration #  1     ecut=    36.75 Ry     beta=0.10
     Davidson diagonalization with overlap
     ethr =  1.00E-02,  avg # of iterations =  7.3

[...]

     total energy              =   -4072.40935479 Ry
     Harris-Foulkes estimate   =   -4078.68030955 Ry
     estimated scf accuracy    <      35.76186965 Ry

[...]

     End of self-consistent calculation

          k = 0.0000 0.0000 0.0000 ( 15785 PWs)   bands (ev):

  -111.8785-111.8757-111.8757-111.7791-111.7789-111.7764-111.7764-111.7762
  -111.7762 -69.3207 -69.3124 -69.3124 -69.2999 -69.2999 -69.2895 -69.2853
   -69.2853 -69.2841 -69.2841 -69.2721 -69.2710 -69.1761 -69.1577 -69.1562
   -69.1510 -69.1510 -69.1406 -69.1406 -69.1398 -69.1398 -69.0642 -69.0628
   -69.0461 -69.0461 -69.0456 -69.0456 -68.0578 -68.0570 -67.9164 -34.4615
   -34.4592 -34.2987 -34.2987 -34.2984 -34.2984 -34.2627 -34.1857 -34.1857
    -7.0485  -5.3346  -4.0987  -3.7244  -3.7244  -3.6306  -3.6306  -3.3906
    -3.1884  -3.1884  -3.1475  -3.0768  -3.0768  -3.0088  -2.9245  -2.4740
    -2.4740  -2.3300  -2.2166  -2.2166  -2.0922  -2.0220  -2.0127  -1.9924
    -1.9423  -1.9423  -1.9053  -1.9053  -1.8531  -1.8531  -1.7364  -1.7364
    -1.6972  -1.6972  -1.5818  -1.3514  -1.3514  -1.3408  -1.3408  -1.3151
    -1.3151  -1.2367  -1.0582  -1.0582  -1.0350  -0.9838  -0.9493  -0.8856
    -0.3403   0.3422   0.5917   0.5917   0.6443   0.6443   0.9914   1.0086
     1.0086   1.3131   1.3131   1.7003   1.8980   2.0953   2.0953   2.1961
     2.1961   2.6482   2.6482   3.7922   3.7922   3.8293   4.0680   4.3273
     4.3273   4.8020   5.0378   5.5149   6.4289   6.4406   6.8327   7.1134
     7.1134   7.1594   7.1594   7.3860   7.5170   8.5543   8.5543

[...]

          k =-0.0921-0.0532 0.0000 ( 15860 PWs)   bands (ev):

[...]

     the Fermi energy is     1.0421 ev

!    total energy              =   -4073.74603053 Ry
     Harris-Foulkes estimate   =   -4073.74602297 Ry
     estimated scf accuracy    <       0.00000047 Ry

     The total energy is the sum of the following terms:

     one-electron contribution =  -28318.20680708 Ry
     hartree contribution      =   14164.53446725 Ry
     xc contribution           =    -490.08053323 Ry
     ewald contribution        =   10570.08592834 Ry
     electric field correction =       0.00000000 Ry
     smearing contrib. (-TS)   =      -0.07908581 Ry

     convergence has been achieved in  19 iterations

 BEEF-vdW xc energy contributions
           1 :   -433.691136060168
           2 :    395.145503390745
           3 :   -329.290995757299
           4 :    253.508705939217
           5 :   -184.081507036892
           6 :    130.485158759285
[...]
                l(2) =   0
                l(3) =   1
                l(4) =   1
                l(5) =   2
                l(6) =   2
     Q(r) pseudized with  8 coefficients,  rinner =    1.150   1.150   1.150
                                                       1.150   1.150

     PseudoPot. # 2 for Ta read from file:
     /afs/slac.stanford.edu/u/if/mamunm/psp/gbrv1.5pbe/Ta.UPF
     MD5 check sum: f8bbe9446314a3b8ea5d9f3e3836c939
     Pseudo is Ultrasoft + core correction, Zval = 13.0
     Generated by new atomic code, or converted to UPF format
     Using radial grid of  921 points,  7 beta functions with:
                l(1) =   0
                l(2) =   0
                l(3) =   1
                l(4) =   1
                l(5) =   2
                l(6) =   2
                l(7) =   3
     Q(r) pseudized with  6 coefficients,  rinner =    1.300   1.300   1.300
                                                       1.300   1.300   1.300
                                                       1.300

     vdW kernel table read from file vdW_kernel_table
     MD5 check sum: 095c7af220d748ca6e76c0b4c6cfb241

     atomic species   valence    mass     pseudopotential
        Cu1           19.00    63.54600     Cu( 1.00)
        Ta1           13.00   180.94788     Ta( 1.00)

     No symmetry found

   Cartesian axes

     site n.     atom                  positions (alat units)
         1           Cu1 tau(   1) = (   0.0000000   0.0000000  10.0000000  )
         2           Cu1 tau(   2) = (  -1.3569870   2.3503705  10.0000000  )
         3           Cu1 tau(   3) = (   1.3569870   2.3503705  10.0000000  )
         4           Ta1 tau(   4) = (   2.7139741   0.0000000  10.0000000  )
         5           Cu1 tau(   5) = (   2.7139741   1.5669137  12.2159506  )
         6           Cu1 tau(   6) = (   1.3569870   3.9172842  12.2159506  )
         7           Cu1 tau(   7) = (  -1.3569870   3.9172842  12.2159506  )
         8           Ta1 tau(   8) = (   0.0000000   1.5669137  12.2159506  )
         9           Cu1 tau(   9) = (  -0.0000051   3.1921877  14.3478914  )
        10           Cu1 tau(  10) = (   1.4075183   0.7542792  14.3478902  )
        11           Cu1 tau(  11) = (   4.0204294   0.7542840  14.3478916  )
        12           Ta1 tau(  12) = (   2.7139673   3.1338199  14.3425786  )

     number of k points=    20  Fermi-Dirac smearing, width (Ry)=  0.0110
                       cart. coord. in units 2pi/alat
        k(    1) = (   0.0000000   0.0000000   0.0000000), wk =   0.0555556
        k(    2) = (   0.0000000   0.0354554   0.0000000), wk =   0.1111111
        k(    3) = (   0.0000000   0.0709108   0.0000000), wk =   0.1111111
        k(    4) = (   0.0000000  -0.1063662   0.0000000), wk =   0.0555556
        k(    5) = (   0.0307053   0.0177277   0.0000000), wk =   0.1111111
        k(    6) = (   0.0307053   0.0531831   0.0000000), wk =   0.1111111
        k(    7) = (   0.0307053   0.0886385   0.0000000), wk =   0.1111111
        k(    8) = (   0.0307053  -0.0886385   0.0000000), wk =   0.1111111
        k(    9) = (   0.0307053  -0.0531831   0.0000000), wk =   0.1111111
        k(   10) = (   0.0307053  -0.0177277   0.0000000), wk =   0.1111111
        k(   11) = (   0.0614106   0.0354554   0.0000000), wk =   0.1111111
        k(   12) = (   0.0614106   0.0709108   0.0000000), wk =   0.1111111
        k(   13) = (   0.0614106   0.1063662   0.0000000), wk =   0.1111111
        k(   14) = (   0.0614106  -0.0709108   0.0000000), wk =   0.1111111
        k(   15) = (   0.0614106  -0.0354554   0.0000000), wk =   0.1111111
        k(   16) = (   0.0614106   0.0000000   0.0000000), wk =   0.1111111
        k(   17) = (  -0.0921158  -0.0531831   0.0000000), wk =   0.0555556
        k(   18) = (  -0.0921158  -0.0177277   0.0000000), wk =   0.1111111
        k(   19) = (  -0.0921158   0.0177277   0.0000000), wk =   0.1111111
        k(   20) = (  -0.0921158  -0.1595493   0.0000000), wk =   0.0555556

     Largest allocated arrays     est. size (Mb)     dimensions
     Largest temporary arrays     est. size (Mb)     dimensions

     Initial potential from superposition of free atoms
     Check: negative starting charge=   -0.286691

     starting charge  200.99665, renormalised to  210.00000

[...]

     *
     * You are using vdW-DF for exchange-correlation in this calculation.
     * Please cite the following three references that made this development
     * possible:
     *
     *   M. Dion, H. Rydberg, E. Schroder, D. C. Langreth, and
     *   B. I. Lundqvist, Phys. Rev. Lett. 92, 246401 (2004).
     *
     *   T. Thonhauser, V. R. Cooper, S. Li, A. Puzder, P. Hyldgaard, and
     *   D. C. Langreth, Phys. Rev. B 76, 125112 (2007).
     *
     *   G. Roman-Perez and J. M. Soler, Phys. Rev. Lett. 103, 096102 (2009).
     *
     *
     * If you are using vdW-DF2, please also cite:
     *
     *   K. Lee, E. D. Murray, L. Kong, B. I. Lundqvist, and
     *   D. C. Langreth, Phys. Rev. B 82, 081101(R) (2010).
     *
     *
     * If you are calculating the stress with vdW-DF, please also cite:
     *
     *   R. Sabatini, E. Kucukbenli, B. Kolb, T. Thonhauser, and
     *   S. de Gironcoli, J. Phys.: Condens. Matter 24, 424209 (2012).
     *

     Carrying out vdW-DF run using the following parameters:

     Nqs =      20    Nr_points =    1024   r_max =   100.000
     q_mesh =
               0.00001000     0.04494208     0.09755937     0.15916263
               0.23128650     0.31572767     0.41458969     0.53033537
               0.66584808     0.82450364     1.01025438     1.22772762
               1.48234092     1.78043706     2.12944203     2.53805004
               3.01644009     3.57652955     4.23227104     5.00000000

     Gradients computed in reciprocal space

[...]

     Starting wfc are  156 randomized atomic wfcs

     Self-consistent Calculation

[...]

     total energy              =   -4073.75172432 Ry
     Harris-Foulkes estimate   =   -4073.75172237 Ry
     estimated scf accuracy    <       0.00000151 Ry

     iteration # 19     ecut=    36.75 Ry     beta=0.10
     Davidson diagonalization with overlap
     ethr =  7.19E-10,  avg # of iterations =  2.5

[...]

     negative rho (up, down):  2.991E-01 0.000E+00

     Adding external electric field

     Computed dipole along edir(3) :
        Dipole               -0.0021 Ry au,         -0.0054 Debye
        Dipole field         -0.0000 Ry au

        Potential amp.        0.0006 Ry
        Total length         45.0154 bohr

     End of self-consistent calculation

[...]

          k = 0.0614 0.0000 0.0000 ( 15830 PWs)   bands (ev):

[...]

          k =-0.0921-0.1595 0.0000 ( 15860 PWs)   bands (ev):

  -111.9640-111.9631-111.9621-111.8166-111.8147-111.8140-111.7889-111.7880
  -111.7871 -69.4202 -69.4162 -69.4127 -69.3742 -69.3692 -69.3650 -69.3160
   -69.3117 -69.3039 -69.2975 -69.2922 -69.2880 -69.2506 -69.2424 -69.2337
   -69.2025 -69.1935 -69.1891 -69.1603 -69.1548 -69.1497 -69.0952 -69.0851
   -69.0801 -69.0700 -69.0642 -69.0578 -68.0620 -68.0365 -67.8907 -34.4663
   -34.4638 -34.3108 -34.3073 -34.2886 -34.2845 -34.2374 -34.1732 -34.1699
    -5.4382  -5.3154  -4.0397  -3.7426  -3.3352  -3.3316  -3.2106  -3.1322
    -3.0621  -3.0136  -2.7679  -2.7585  -2.6784  -2.6205  -2.6073  -2.5766
    -2.4704  -2.4508  -2.4202  -2.3477  -2.2810  -2.2376  -2.1766  -2.0864
    -2.0647  -2.0310  -2.0205  -1.9892  -1.9775  -1.9631  -1.9106  -1.9061
    -1.8906  -1.8840  -1.8158  -1.7493  -1.7136  -1.7071  -1.6945  -1.6669
    -1.6048  -1.6010  -1.5314  -1.4752  -1.3539  -1.3147  -1.2936  -1.2091
    -1.1328  -1.0374  -0.5175  -0.4366   0.1443   0.3191   0.5813   0.6290
     0.9511   1.0798   1.1396   1.2293   1.3112   1.7480   1.7588   1.9669
     2.1815   2.5977   3.3169   3.8464   4.5447   4.7925   4.9264   5.1000
     5.6477   5.7885   6.2775   6.3747   6.7689   6.8330   7.1563   7.1827
     7.2668   7.6410   8.0617   8.1451   8.2203   8.2674   8.7332

     the Fermi energy is     1.0319 ev

!    total energy              =   -4073.75173337 Ry
     Harris-Foulkes estimate   =   -4073.75172470 Ry
     estimated scf accuracy    <       0.00000040 Ry

     The total energy is the sum of the following terms:

     one-electron contribution =  -28637.28536399 Ry
     hartree contribution      =   14323.84143390 Ry
     xc contribution           =    -490.17319406 Ry
     ewald contribution        =   10729.94198904 Ry
     electric field correction =       0.00000001 Ry
     smearing contrib. (-TS)   =      -0.07659828 Ry

     convergence has been achieved in  19 iterations

 BEEF-vdW xc energy contributions
           1 :   -433.791413573087
           2 :    395.304232815799
           3 :   -329.514084232410
           4 :    253.738626985508
           5 :   -184.237803789654
           6 :    130.526579132558
           7 :   -93.6654383072572
           8 :    68.6826758517510
           9 :   -49.1538097547154
          10 :    31.1336212817205
          11 :   -14.4868889711182
          12 :    1.48390592479586
          13 :    5.85111116757560
          14 :   -7.68650041331870
          15 :    6.46373702804442
          16 :   -5.34667478270302
          17 :    6.29918384116399
          18 :   -9.12561704196941
          19 :    12.0026681746979
          20 :   -12.9918434507589
          21 :    11.4345350454983
          22 :   -8.33007965860395
          23 :    5.55558809281592
          24 :   -4.56428983374303
          25 :    5.47982191055530
          26 :   -7.15547621273691
          27 :    8.06979618355695
          28 :   -7.38521399308991
          29 :    5.44699985018815
          30 :   -3.43967936623432
          31 :   -35.5879464315869
          32 :   -24.9169766782570

     Forces acting on atoms (Ry/au):

     negative rho (up, down):  2.991E-01 0.000E+00
     atom    1 type  1   force =     0.00000216   -0.00685438    0.00984895
     atom    2 type  1   force =    -0.00593007    0.00343009    0.00985064
     atom    3 type  1   force =     0.00593182    0.00342813    0.00985098
     atom    4 type  2   force =     0.00000016    0.00000094    0.01172209
     atom    5 type  1   force =    -0.00000052   -0.00308577   -0.01034036
     atom    6 type  1   force =    -0.00267714    0.00153940   -0.01034284
     atom    7 type  1   force =     0.00267627    0.00154027   -0.01034271
     atom    8 type  2   force =    -0.00000007   -0.00000059   -0.00691431
     atom    9 type  1   force =    -0.00000176   -0.00075778   -0.00132258
     atom   10 type  1   force =    -0.00065468    0.00037825   -0.00132030
     atom   11 type  1   force =     0.00065394    0.00037971   -0.00132063
     atom   12 type  2   force =    -0.00000013    0.00000172    0.00063107

     Total force =     0.031208     Total SCF correction =     0.006024
     SCF correction compared to forces is large: reduce conv_thr to get better values

     entering subroutine stress ...

     negative rho (up, down):  2.991E-01 0.000E+00
          total   stress  (Ry/bohr**3)                   (kbar)     P=  -22.95
  -0.00017516  -0.00000000   0.00000000        -25.77     -0.00      0.00
  -0.00000000  -0.00017516  -0.00000000         -0.00    -25.77     -0.00
   0.00000000  -0.00000000  -0.00011762          0.00     -0.00    -17.30

 !ASE

     Writing output data file calc.save

     General routines

     Parallel routines

   This run was terminated on:  20: 1:27  25Dec2018

   JOB DONE.
Job  /afs/slac/g/suncat/bin/suncat-tsmpirun -x LD_LIBRARY_PATH -wdir /scratch/qe109595_kabff pw.x -in pw.inp

TID   HOST_NAME   COMMAND_LINE            STATUS            TERMINATION_TIME
00000 suncat0094 pw.x -in pw.inp   Done                     12/25/2018 20:01:27
00001 suncat0094 pw.x -in pw.inp   Done                     12/25/2018 20:01:27
00002 suncat0094 pw.x -in pw.inp   Done                     12/25/2018 20:01:27
00003 suncat0094 pw.x -in pw.inp   Done                     12/25/2018 20:01:27
00004 suncat0094 pw.x -in pw.inp   Done                     12/25/2018 20:01:27
00005 suncat0094 pw.x -in pw.inp   Done                     12/25/2018 20:01:27
00006 suncat0094 pw.x -in pw.inp   Done                     12/25/2018 20:01:27
00007 suncat0094 pw.x -in pw.inp   Done                     12/25/2018 20:01:27
00008 suncat0093 pw.x -in pw.inp   Done                     12/25/2018 20:01:27
00009 suncat0093 pw.x -in pw.inp   Done                     12/25/2018 20:01:27
00010 suncat0093 pw.x -in pw.inp   Done                     12/25/2018 20:01:27
00011 suncat0093 pw.x -in pw.inp   Done                     12/25/2018 20:01:27
00012 suncat0093 pw.x -in pw.inp   Done                     12/25/2018 20:01:27
00013 suncat0093 pw.x -in pw.inp   Done                     12/25/2018 20:01:27
00014 suncat0093 pw.x -in pw.inp   Done                     12/25/2018 20:01:27
00015 suncat0093 pw.x -in pw.inp   Done                     12/25/2018 20:01:27
00016 suncat0087 pw.x -in pw.inp   Done                     12/25/2018 20:01:27
00017 suncat0087 pw.x -in pw.inp   Done                     12/25/2018 20:01:27
00018 suncat0087 pw.x -in pw.inp   Done                     12/25/2018 20:01:27
00019 suncat0087 pw.x -in pw.inp   Done                     12/25/2018 20:01:27
00020 suncat0087 pw.x -in pw.inp   Done                     12/25/2018 20:01:27
00021 suncat0087 pw.x -in pw.inp   Done                     12/25/2018 20:01:27
00022 suncat0087 pw.x -in pw.inp   Done                     12/25/2018 20:01:27
00023 suncat0087 pw.x -in pw.inp   Done                     12/25/2018 20:01:27
00024 suncat0084 pw.x -in pw.inp   Done                     12/25/2018 20:01:27
00025 suncat0084 pw.x -in pw.inp   Done                     12/25/2018 20:01:27
00026 suncat0084 pw.x -in pw.inp   Done                     12/25/2018 20:01:27
00027 suncat0084 pw.x -in pw.inp   Done                     12/25/2018 20:01:27
00028 suncat0084 pw.x -in pw.inp   Done                     12/25/2018 20:01:27
00029 suncat0084 pw.x -in pw.inp   Done                     12/25/2018 20:01:27
00030 suncat0084 pw.x -in pw.inp   Done                     12/25/2018 20:01:27
00031 suncat0084 pw.x -in pw.inp   Done                     12/25/2018 20:01:27
00032 suncat0083 pw.x -in pw.inp   Done                     12/25/2018 20:01:27
00033 suncat0083 pw.x -in pw.inp   Done                     12/25/2018 20:01:27
00034 suncat0083 pw.x -in pw.inp   Done                     12/25/2018 20:01:27
00035 suncat0083 pw.x -in pw.inp   Done                     12/25/2018 20:01:27
00036 suncat0083 pw.x -in pw.inp   Done                     12/25/2018 20:01:27
00037 suncat0083 pw.x -in pw.inp   Done                     12/25/2018 20:01:27
00038 suncat0083 pw.x -in pw.inp   Done                     12/25/2018 20:01:27
00039 suncat0083 pw.x -in pw.inp   Done                     12/25/2018 20:01:27
00040 suncat0081 pw.x -in pw.inp   Done                     12/25/2018 20:01:27
00041 suncat0081 pw.x -in pw.inp   Done                     12/25/2018 20:01:27
00042 suncat0081 pw.x -in pw.inp   Done                     12/25/2018 20:01:27
00043 suncat0081 pw.x -in pw.inp   Done                     12/25/2018 20:01:27
00044 suncat0081 pw.x -in pw.inp   Done                     12/25/2018 20:01:27
00045 suncat0081 pw.x -in pw.inp   Done                     12/25/2018 20:01:27
00046 suncat0081 pw.x -in pw.inp   Done                     12/25/2018 20:01:27
00047 suncat0081 pw.x -in pw.inp   Done                     12/25/2018 20:01:27
00048 suncat0080 pw.x -in pw.inp   Done                     12/25/2018 20:01:27
00049 suncat0080 pw.x -in pw.inp   Done                     12/25/2018 20:01:27
00050 suncat0080 pw.x -in pw.inp   Done                     12/25/2018 20:01:27
00051 suncat0080 pw.x -in pw.inp   Done                     12/25/2018 20:01:27
00052 suncat0080 pw.x -in pw.inp   Done                     12/25/2018 20:01:27
00053 suncat0080 pw.x -in pw.inp   Done                     12/25/2018 20:01:27
00054 suncat0080 pw.x -in pw.inp   Done                     12/25/2018 20:01:27
00055 suncat0080 pw.x -in pw.inp   Done                     12/25/2018 20:01:27
00056 suncat0078 pw.x -in pw.inp   Done                     12/25/2018 20:01:27
00057 suncat0078 pw.x -in pw.inp   Done                     12/25/2018 20:01:27
00058 suncat0078 pw.x -in pw.inp   Done                     12/25/2018 20:01:27
00059 suncat0078 pw.x -in pw.inp   Done                     12/25/2018 20:01:27
00060 suncat0078 pw.x -in pw.inp   Done                     12/25/2018 20:01:27
00061 suncat0078 pw.x -in pw.inp   Done                     12/25/2018 20:01:27
00062 suncat0078 pw.x -in pw.inp   Done                     12/25/2018 20:01:27
00063 suncat0078 pw.x -in pw.inp   Done                     12/25/2018 20:01:27