     Program PWSCF v.5.1rc2 (svn rev. 11289) starts on  2Jan2019 at 20:50:41

     Current dimensions of program PWSCF are:
     Max number of different atomic species (ntypx) = 10
     Max number of k-points (npk) =  40000
     Max angular momentum in pseudopotentials (lmaxx) =  3
     Presently stress not available with electric field

     IMPORTANT: XC functional enforced from input :
     Exchange-correlation      = BEEF-VDW ( 1  4 27 13 2)
     Any further DFT definition will be discarded
     Please, verify this is what you really want

     Subspace diagonalization in iterative solution of the eigenvalue problem:
     a serial algorithm will be used

     bravais-lattice index     =            0
     lattice parameter (alat)  =       1.8897  a.u.
     unit-cell volume          =    5490.7911 (a.u.)^3
     number of atoms/cell      =           12
     number of atomic types    =            2
     number of electrons       =       156.00
     number of Kohn-Sham states=          108
     kinetic-energy cutoff     =      36.7493  Ry
     charge density cutoff     =     367.4932  Ry
     convergence threshold     =      1.0E-06
     mixing beta               =       0.1000
     number of iterations used =           10  plain     mixing
     Exchange-correlation      = BEEF-VDW ( 1  4 27 13 2)
     nstep                     =           50

     celldm(1)=   1.889726  celldm(2)=   0.000000  celldm(3)=   0.000000
     celldm(4)=   0.000000  celldm(5)=   0.000000  celldm(6)=   0.000000

     crystal axes: (cart. coord. in units of alat)
               a(1) = (   6.129729   0.000000   0.000000 )
               a(2) = (  -3.064864   5.308501   0.000000 )
               a(3) = (   0.000000   0.000000  25.004903 )

     reciprocal axes: (cart. coord. in units 2 pi/alat)
               b(1) = (  0.163139  0.094189  0.000000 )
               b(2) = (  0.000000  0.188377  0.000000 )
               b(3) = (  0.000000  0.000000  0.039992 )

     PseudoPot. # 1 for Zr read from file:
     /afs/slac.stanford.edu/u/if/mamunm/psp/gbrv1.5pbe/Zr.UPF
     MD5 check sum: 5db81b1e868ab7776c4564c113de050b
     Pseudo is Ultrasoft + core correction, Zval = 12.0
     Generated by new atomic code, or converted to UPF format
     Using radial grid of  887 points,  6 beta functions with:
                l(1) =   0
                l(2) =   0
                l(3) =   1
                l(4) =   1
                l(5) =   2
                l(6) =   2
     Q(r) pseudized with  6 coefficients,  rinner =    1.200   1.200   1.200
                                                       1.200   1.200

     PseudoPot. # 2 for Os read from file:
     /afs/slac.stanford.edu/u/if/mamunm/psp/gbrv1.5pbe/Os.UPF
     MD5 check sum: a3fb40a04f0c37c25c34bbc47164c9a8
     Pseudo is Ultrasoft + core correction, Zval = 16.0
     Generated by new atomic code, or converted to UPF format
     Using radial grid of  983 points,  8 beta functions with:
                l(1) =   0
                l(2) =   0
                l(3) =   1
                l(4) =   1
                l(5) =   2
                l(6) =   2
                l(7) =   3
                l(8) =   3
     Q(r) pseudized with  8 coefficients,  rinner =    1.150   1.150   1.150
                                                       1.150   1.150   1.150
                                                       1.150

     vdW kernel table read from file vdW_kernel_table
     MD5 check sum: 095c7af220d748ca6e76c0b4c6cfb241

     atomic species   valence    mass     pseudopotential
        Zr1           12.00    91.22400     Zr( 1.00)
        Os1           16.00   190.23000     Os( 1.00)

     No symmetry found

   Cartesian axes

     site n.     atom                  positions (alat units)
         1           Zr1 tau(   1) = (   0.0000000   0.0000000  10.0000000  )
         2           Zr1 tau(   2) = (  -1.5324322   2.6542504  10.0000000  )
         3           Zr1 tau(   3) = (   1.5324322   2.6542504  10.0000000  )
         4           Os1 tau(   4) = (   3.0648644   0.0000000  10.0000000  )
         5           Zr1 tau(   5) = (   3.0648644   1.7695003  12.5024513  )
         6           Zr1 tau(   6) = (   1.5324322   4.4237507  12.5024513  )
         7           Zr1 tau(   7) = (  -1.5324322   4.4237507  12.5024513  )
         8           Os1 tau(   8) = (   0.0000000   1.7695003  12.5024513  )
         9           Zr1 tau(   9) = (  -0.0000000   3.5390006  15.0049026  )
        10           Zr1 tau(  10) = (   1.5324322   0.8847501  15.0049026  )
        11           Zr1 tau(  11) = (   4.5972966   0.8847501  15.0049026  )
        12           Os1 tau(  12) = (   3.0648644   3.5390006  15.0049026  )

     number of k points=    20  Fermi-Dirac smearing, width (Ry)=  0.0110
                       cart. coord. in units 2pi/alat
        k(    1) = (   0.0000000   0.0000000   0.0000000), wk =   0.0555556
        k(    2) = (   0.0000000   0.0313962   0.0000000), wk =   0.1111111
        k(    3) = (   0.0000000   0.0627924   0.0000000), wk =   0.1111111
        k(    4) = (   0.0000000  -0.0941886   0.0000000), wk =   0.0555556
        k(    5) = (   0.0271899   0.0156981   0.0000000), wk =   0.1111111
        k(    6) = (   0.0271899   0.0470943   0.0000000), wk =   0.1111111
        k(    7) = (   0.0271899   0.0784905   0.0000000), wk =   0.1111111
        k(    8) = (   0.0271899  -0.0784905   0.0000000), wk =   0.1111111
        k(    9) = (   0.0271899  -0.0470943   0.0000000), wk =   0.1111111
        k(   10) = (   0.0271899  -0.0156981   0.0000000), wk =   0.1111111
        k(   11) = (   0.0543798   0.0313962   0.0000000), wk =   0.1111111
        k(   12) = (   0.0543798   0.0627924   0.0000000), wk =   0.1111111
        k(   13) = (   0.0543798   0.0941886   0.0000000), wk =   0.1111111
        k(   14) = (   0.0543798  -0.0627924   0.0000000), wk =   0.1111111
        k(   15) = (   0.0543798  -0.0313962   0.0000000), wk =   0.1111111
        k(   16) = (   0.0543798   0.0000000   0.0000000), wk =   0.1111111
        k(   17) = (  -0.0815697  -0.0470943   0.0000000), wk =   0.0555556
        k(   18) = (  -0.0815697  -0.0156981   0.0000000), wk =   0.1111111
        k(   19) = (  -0.0815697   0.0156981   0.0000000), wk =   0.1111111
        k(   20) = (  -0.0815697  -0.1412828   0.0000000), wk =   0.0555556

     Largest allocated arrays     est. size (Mb)     dimensions
     Largest temporary arrays     est. size (Mb)     dimensions

     Initial potential from superposition of free atoms
     Check: negative starting charge=   -0.937977

     starting charge  154.48055, renormalised to  156.00000

     negative rho (up, down):  9.472E-01 0.000E+00

     *
     * You are using vdW-DF for exchange-correlation in this calculation.
     * Please cite the following three references that made this development
     * possible:
     *
     *   M. Dion, H. Rydberg, E. Schroder, D. C. Langreth, and
     *   B. I. Lundqvist, Phys. Rev. Lett. 92, 246401 (2004).
     *
     *   T. Thonhauser, V. R. Cooper, S. Li, A. Puzder, P. Hyldgaard, and
     *   D. C. Langreth, Phys. Rev. B 76, 125112 (2007).
     *
     *   G. Roman-Perez and J. M. Soler, Phys. Rev. Lett. 103, 096102 (2009).
     *
     *
     * If you are using vdW-DF2, please also cite:
     *
     *   K. Lee, E. D. Murray, L. Kong, B. I. Lundqvist, and
     *   D. C. Langreth, Phys. Rev. B 82, 081101(R) (2010).
     *
     *
     * If you are calculating the stress with vdW-DF, please also cite:
     *
     *   R. Sabatini, E. Kucukbenli, B. Kolb, T. Thonhauser, and
     *   S. de Gironcoli, J. Phys.: Condens. Matter 24, 424209 (2012).
     *

     Carrying out vdW-DF run using the following parameters:

     Nqs =      20    Nr_points =    1024   r_max =   100.000
     q_mesh =
               0.00001000     0.04494208     0.09755937     0.15916263
               0.23128650     0.31572767     0.41458969     0.53033537
               0.66584808     0.82450364     1.01025438     1.22772762
               1.48234092     1.78043706     2.12944203     2.53805004
               3.01644009     3.57652955     4.23227104     5.00000000

     Gradients computed in reciprocal space

     Adding external electric field

     Computed dipole along edir(3) :
        Dipole                0.0000 Ry au,          0.0000 Debye
        Dipole field          0.0000 Ry au

        Potential amp.       -0.0000 Ry
        Total length         46.0711 bohr

     Starting wfc are  156 randomized atomic wfcs

     Self-consistent Calculation

     iteration #  1     ecut=    36.75 Ry     beta=0.10
     Davidson diagonalization with overlap
     ethr =  1.00E-02,  avg # of iterations =  2.0

[...]

     total energy              =   -1496.46960598 Ry
     Harris-Foulkes estimate   =   -1497.77120554 Ry
     estimated scf accuracy    <       7.34236901 Ry

[...]

     End of self-consistent calculation

          k = 0.0000 0.0000 0.0000 ( 20671 PWs)   bands (ev):

   -84.0133 -83.7342 -83.7342 -47.3415 -47.3314 -47.2206 -47.2206 -47.2182
   -47.2182 -47.0660 -46.9595 -46.9594 -43.2627 -43.2627 -43.2497 -43.0137
   -43.0137 -43.0133 -43.0133 -42.9839 -42.9827 -25.8475 -25.7698 -25.6307
   -25.5293 -25.5293 -25.4780 -25.4575 -25.4575 -25.4350 -25.4350 -25.3869
   -25.2620 -25.2620 -25.0755 -25.0755 -25.0068 -24.9658 -24.8573 -24.8291
   -24.8291 -24.8216 -24.8216 -24.8050 -24.8050 -24.6946 -24.6120 -24.6120
    -3.9336  -2.7040  -2.2890  -1.5121  -1.5120  -1.4827  -1.4073  -1.2332
    -1.2332  -0.8774  -0.8774  -0.8451  -0.8451  -0.8142  -0.8127   0.1014
     0.1014   0.4909   0.7254   0.7254   0.8114   1.1345   1.5977   1.9040
     1.9682   2.0346   2.0346   2.2200   2.2200   2.2783   2.2783   2.4865
     2.4865   2.5215   2.5215   2.7312   2.9773   3.1472   3.1473   3.2027
     3.3389   3.3389   3.8809   3.8809   3.9470   3.9470   4.0916   4.0934
     4.6600   5.2025   5.2025   5.2597   5.2597   5.5489   5.6209   5.9652
     5.9689   5.9690   5.9950   5.9950

[...]

          k =-0.0816-0.0471 0.0000 ( 20688 PWs)   bands (ev):

[...]

     the Fermi energy is     1.9178 ev

!    total energy              =   -1497.01713659 Ry
     Harris-Foulkes estimate   =   -1497.01713584 Ry
     estimated scf accuracy    <       0.00000021 Ry

     The total energy is the sum of the following terms:

     one-electron contribution =  -10758.09085338 Ry
     hartree contribution      =    5369.14347451 Ry
     xc contribution           =    -281.55903154 Ry
     ewald contribution        =    4173.60234160 Ry
     electric field correction =       0.00000000 Ry
     smearing contrib. (-TS)   =      -0.11306777 Ry

     convergence has been achieved in  17 iterations

 BEEF-vdW xc energy contributions
           1 :   -243.427335672712
           2 :    222.466959665639
           3 :   -186.439160673014
           4 :    144.554476430502
           5 :   -105.741055666014
           6 :    75.7425149427823
           7 :   -56.0146404956761
           8 :    44.4896960229924
           9 :   -37.4707260378806
          10 :    31.6044900647671
          11 :   -25.1143918234660
          12 :    17.9788673142823
          13 :   -11.2682940916230
[...]
     /afs/slac.stanford.edu/u/if/mamunm/psp/gbrv1.5pbe/Zr.UPF
     MD5 check sum: 5db81b1e868ab7776c4564c113de050b
     Pseudo is Ultrasoft + core correction, Zval = 12.0
     Generated by new atomic code, or converted to UPF format
     Using radial grid of  887 points,  6 beta functions with:
                l(1) =   0
                l(2) =   0
                l(3) =   1
                l(4) =   1
                l(5) =   2
                l(6) =   2
     Q(r) pseudized with  6 coefficients,  rinner =    1.200   1.200   1.200
                                                       1.200   1.200

     PseudoPot. # 2 for Os read from file:
     /afs/slac.stanford.edu/u/if/mamunm/psp/gbrv1.5pbe/Os.UPF
     MD5 check sum: a3fb40a04f0c37c25c34bbc47164c9a8
     Pseudo is Ultrasoft + core correction, Zval = 16.0
     Generated by new atomic code, or converted to UPF format
     Using radial grid of  983 points,  8 beta functions with:
                l(1) =   0
                l(2) =   0
                l(3) =   1
                l(4) =   1
                l(5) =   2
                l(6) =   2
                l(7) =   3
                l(8) =   3
     Q(r) pseudized with  8 coefficients,  rinner =    1.150   1.150   1.150
                                                       1.150   1.150   1.150
                                                       1.150

     vdW kernel table read from file vdW_kernel_table
     MD5 check sum: 095c7af220d748ca6e76c0b4c6cfb241

     atomic species   valence    mass     pseudopotential
        Zr1           12.00    91.22400     Zr( 1.00)
        Os1           16.00   190.23000     Os( 1.00)

     No symmetry found

   Cartesian axes

     site n.     atom                  positions (alat units)
         1           Zr1 tau(   1) = (   0.0000000   0.0000000  10.0000000  )
         2           Zr1 tau(   2) = (  -1.5324322   2.6542504  10.0000000  )
         3           Zr1 tau(   3) = (   1.5324322   2.6542504  10.0000000  )
         4           Os1 tau(   4) = (   3.0648644   0.0000000  10.0000000  )
         5           Zr1 tau(   5) = (   3.0648644   1.7695003  12.5024513  )
         6           Zr1 tau(   6) = (   1.5324322   4.4237507  12.5024513  )
         7           Zr1 tau(   7) = (  -1.5324322   4.4237507  12.5024513  )
         8           Os1 tau(   8) = (   0.0000000   1.7695003  12.5024513  )
         9           Zr1 tau(   9) = (  -0.0000047   3.4748259  15.0158968  )
        10           Zr1 tau(  10) = (   1.4768677   0.9168093  15.0159081  )
        11           Zr1 tau(  11) = (   4.6528572   0.9168079  15.0159100  )
        12           Os1 tau(  12) = (   3.0648899   3.5390543  14.5647096  )

     number of k points=    20  Fermi-Dirac smearing, width (Ry)=  0.0110
                       cart. coord. in units 2pi/alat
        k(    1) = (   0.0000000   0.0000000   0.0000000), wk =   0.0555556
        k(    2) = (   0.0000000   0.0313962   0.0000000), wk =   0.1111111
        k(    3) = (   0.0000000   0.0627924   0.0000000), wk =   0.1111111
        k(    4) = (   0.0000000  -0.0941886   0.0000000), wk =   0.0555556
        k(    5) = (   0.0271899   0.0156981   0.0000000), wk =   0.1111111
        k(    6) = (   0.0271899   0.0470943   0.0000000), wk =   0.1111111
        k(    7) = (   0.0271899   0.0784905   0.0000000), wk =   0.1111111
        k(    8) = (   0.0271899  -0.0784905   0.0000000), wk =   0.1111111
        k(    9) = (   0.0271899  -0.0470943   0.0000000), wk =   0.1111111
        k(   10) = (   0.0271899  -0.0156981   0.0000000), wk =   0.1111111
        k(   11) = (   0.0543798   0.0313962   0.0000000), wk =   0.1111111
        k(   12) = (   0.0543798   0.0627924   0.0000000), wk =   0.1111111
        k(   13) = (   0.0543798   0.0941886   0.0000000), wk =   0.1111111
        k(   14) = (   0.0543798  -0.0627924   0.0000000), wk =   0.1111111
        k(   15) = (   0.0543798  -0.0313962   0.0000000), wk =   0.1111111
        k(   16) = (   0.0543798   0.0000000   0.0000000), wk =   0.1111111
        k(   17) = (  -0.0815697  -0.0470943   0.0000000), wk =   0.0555556
        k(   18) = (  -0.0815697  -0.0156981   0.0000000), wk =   0.1111111
        k(   19) = (  -0.0815697   0.0156981   0.0000000), wk =   0.1111111
        k(   20) = (  -0.0815697  -0.1412828   0.0000000), wk =   0.0555556

     Largest allocated arrays     est. size (Mb)     dimensions
     Largest temporary arrays     est. size (Mb)     dimensions

     Initial potential from superposition of free atoms
     Check: negative starting charge=   -0.932115

     starting charge  154.48055, renormalised to  156.00000

[...]

     *
     * You are using vdW-DF for exchange-correlation in this calculation.
     * Please cite the following three references that made this development
     * possible:
     *
     *   M. Dion, H. Rydberg, E. Schroder, D. C. Langreth, and
     *   B. I. Lundqvist, Phys. Rev. Lett. 92, 246401 (2004).
     *
     *   T. Thonhauser, V. R. Cooper, S. Li, A. Puzder, P. Hyldgaard, and
     *   D. C. Langreth, Phys. Rev. B 76, 125112 (2007).
     *
     *   G. Roman-Perez and J. M. Soler, Phys. Rev. Lett. 103, 096102 (2009).
     *
     *
     * If you are using vdW-DF2, please also cite:
     *
     *   K. Lee, E. D. Murray, L. Kong, B. I. Lundqvist, and
     *   D. C. Langreth, Phys. Rev. B 82, 081101(R) (2010).
     *
     *
     * If you are calculating the stress with vdW-DF, please also cite:
     *
     *   R. Sabatini, E. Kucukbenli, B. Kolb, T. Thonhauser, and
     *   S. de Gironcoli, J. Phys.: Condens. Matter 24, 424209 (2012).
     *

     Carrying out vdW-DF run using the following parameters:

     Nqs =      20    Nr_points =    1024   r_max =   100.000
     q_mesh =
               0.00001000     0.04494208     0.09755937     0.15916263
               0.23128650     0.31572767     0.41458969     0.53033537
               0.66584808     0.82450364     1.01025438     1.22772762
               1.48234092     1.78043706     2.12944203     2.53805004
               3.01644009     3.57652955     4.23227104     5.00000000

     Gradients computed in reciprocal space

[...]

     Starting wfc are  156 randomized atomic wfcs

     Self-consistent Calculation

[...]

     total energy              =   -1497.04846469 Ry
     Harris-Foulkes estimate   =   -1497.04846418 Ry
     estimated scf accuracy    <       0.00000316 Ry

     iteration # 18     ecut=    36.75 Ry     beta=0.10
     Davidson diagonalization with overlap
     ethr =  2.03E-09,  avg # of iterations =  2.0

[...]

     negative rho (up, down):  9.414E-01 0.000E+00

     Adding external electric field

     Computed dipole along edir(3) :
        Dipole                0.0853 Ry au,          0.2168 Debye
        Dipole field          0.0002 Ry au

        Potential amp.       -0.0180 Ry
        Total length         46.0711 bohr

     End of self-consistent calculation

[...]

          k = 0.0544 0.0000 0.0000 ( 20621 PWs)   bands (ev):

[...]

          k =-0.0816-0.1413 0.0000 ( 20688 PWs)   bands (ev):

   -83.9300 -83.7377 -83.6186 -47.2373 -47.1948 -47.1776 -47.1552 -47.1444
   -47.1164 -46.8774 -46.8403 -46.8025 -43.1776 -43.1764 -43.1748 -43.0576
   -43.0259 -43.0250 -42.8954 -42.8943 -42.8758 -25.5555 -25.5011 -25.4564
   -25.3672 -25.3510 -25.2916 -25.2818 -25.2433 -25.2271 -25.2199 -25.1927
   -25.1575 -25.1477 -25.1196 -25.0909 -25.0713 -25.0537 -24.9034 -24.8065
   -24.8047 -24.7751 -24.7532 -24.7157 -24.6920 -24.6884 -24.6620 -24.4964
    -2.5415  -2.3173  -1.5060  -1.0936  -0.8671  -0.7666  -0.6419  -0.5981
    -0.5732  -0.4356  -0.2563  -0.1982  -0.1147  -0.0011   0.1312   0.1841
     0.4397   0.4476   0.5782   0.6374   0.7659   0.8083   1.0134   1.0504
     1.1881   1.3225   1.5766   1.7272   1.8205   1.8306   1.8960   2.0503
     2.0869   2.1115   2.2115   2.3034   2.5452   2.6199   2.8140   2.9255
     2.9333   3.3148   3.4644   3.6017   3.6879   3.7513   3.8091   3.9785
     4.1115   4.3964   4.4989   4.6304   4.6787   4.7673   4.9818   5.1479
     5.1845   5.3087   5.3768   5.5878

     the Fermi energy is     2.0175 ev

!    total energy              =   -1497.04846463 Ry
     Harris-Foulkes estimate   =   -1497.04846478 Ry
     estimated scf accuracy    <       0.00000066 Ry

     The total energy is the sum of the following terms:

     one-electron contribution =  -10947.51378588 Ry
     hartree contribution      =    5464.35884913 Ry
     xc contribution           =    -281.75028907 Ry
     ewald contribution        =    4267.96421956 Ry
     electric field correction =       0.00001664 Ry
     smearing contrib. (-TS)   =      -0.10747501 Ry

     convergence has been achieved in  18 iterations

 BEEF-vdW xc energy contributions
           1 :   -243.696867118177
           2 :    222.803600522625
           3 :   -186.859916364761
           4 :    145.006147376598
           5 :   -106.118094996625
           6 :    75.9361373405656
           7 :   -55.9724418527818
           8 :    44.2530461001815
           9 :   -37.1619550485185
          10 :    31.3645053179550
          11 :   -25.0281600342265
          12 :    18.0370426842484
          13 :   -11.3869398199694
          14 :    6.24137353078481
          15 :   -3.17985125264721
          16 :    1.96340239960773
          17 :   -1.81488815219086
          18 :    1.92824593105343
          19 :   -1.85964630902038
          20 :    1.60288123001737
          21 :   -1.39219833166931
          22 :    1.42623731670119
          23 :   -1.70475521762336
          24 :    2.04665683852971
          25 :   -2.23280901619216
          26 :    2.15357597449344
          27 :   -1.86508488968343
          28 :    1.52919303402098
          29 :   -1.29189338885516
          30 :    1.18835716605105
          31 :   -26.0292073572318
          32 :   -19.5456512274505

     Forces acting on atoms (Ry/au):

     negative rho (up, down):  9.414E-01 0.000E+00
     atom    1 type  1   force =     0.00000111    0.03044656   -0.00691971
     atom    2 type  1   force =     0.02636765   -0.01522235   -0.00692004
     atom    3 type  1   force =    -0.02636723   -0.01522357   -0.00691933
     atom    4 type  2   force =    -0.00000297   -0.00000036    0.04705153
     atom    5 type  1   force =    -0.00000075   -0.01150503   -0.00634770
     atom    6 type  1   force =    -0.00996566    0.00575262   -0.00635334
     atom    7 type  1   force =     0.00996708    0.00575462   -0.00635655
     atom    8 type  2   force =     0.00000043    0.00000139   -0.00725708
     atom    9 type  1   force =     0.00000047    0.00001359   -0.00001083
     atom   10 type  1   force =     0.00001427   -0.00000719   -0.00000963
     atom   11 type  1   force =    -0.00001399   -0.00000804   -0.00000933
     atom   12 type  2   force =    -0.00000042   -0.00000224    0.00005200

     Total force =     0.075561     Total SCF correction =     0.001800

     entering subroutine stress ...

     negative rho (up, down):  9.414E-01 0.000E+00
          total   stress  (Ry/bohr**3)                   (kbar)     P=  -13.07
  -0.00012042  -0.00000000  -0.00000000        -17.71     -0.00     -0.00
  -0.00000000  -0.00012042  -0.00000000         -0.00    -17.71     -0.00
  -0.00000000  -0.00000000  -0.00002577         -0.00     -0.00     -3.79

 !ASE

     Writing output data file calc.save

     General routines

     Parallel routines

   This run was terminated on:  23:24:47   2Jan2019

   JOB DONE.
Job  /afs/slac/g/suncat/bin/suncat-tsmpirun -x LD_LIBRARY_PATH -wdir /scratch/qe649554_8Tzuo pw.x -in pw.inp

TID   HOST_NAME   COMMAND_LINE            STATUS            TERMINATION_TIME
00000 suncat0188 pw.x -in pw.inp   Done                     01/02/2019 23:24:47
00001 suncat0188 pw.x -in pw.inp   Done                     01/02/2019 23:24:47
00002 suncat0188 pw.x -in pw.inp   Done                     01/02/2019 23:24:47
00003 suncat0188 pw.x -in pw.inp   Done                     01/02/2019 23:24:47
00004 suncat0188 pw.x -in pw.inp   Done                     01/02/2019 23:24:47
00005 suncat0188 pw.x -in pw.inp   Done                     01/02/2019 23:24:47
00006 suncat0188 pw.x -in pw.inp   Done                     01/02/2019 23:24:47
00007 suncat0188 pw.x -in pw.inp   Done                     01/02/2019 23:24:47
00008 suncat0129 pw.x -in pw.inp   Done                     01/02/2019 23:24:47
00009 suncat0129 pw.x -in pw.inp   Done                     01/02/2019 23:24:47
00010 suncat0129 pw.x -in pw.inp   Done                     01/02/2019 23:24:47
00011 suncat0129 pw.x -in pw.inp   Done                     01/02/2019 23:24:47
00012 suncat0129 pw.x -in pw.inp   Done                     01/02/2019 23:24:47
00013 suncat0129 pw.x -in pw.inp   Done                     01/02/2019 23:24:47
00014 suncat0129 pw.x -in pw.inp   Done                     01/02/2019 23:24:47
00015 suncat0129 pw.x -in pw.inp   Done                     01/02/2019 23:24:47
00016 suncat0116 pw.x -in pw.inp   Done                     01/02/2019 23:24:47
00017 suncat0116 pw.x -in pw.inp   Done                     01/02/2019 23:24:47
00018 suncat0116 pw.x -in pw.inp   Done                     01/02/2019 23:24:47
00019 suncat0116 pw.x -in pw.inp   Done                     01/02/2019 23:24:47
00020 suncat0116 pw.x -in pw.inp   Done                     01/02/2019 23:24:47
00021 suncat0116 pw.x -in pw.inp   Done                     01/02/2019 23:24:47
00022 suncat0116 pw.x -in pw.inp   Done                     01/02/2019 23:24:47
00023 suncat0116 pw.x -in pw.inp   Done                     01/02/2019 23:24:47
00024 suncat0114 pw.x -in pw.inp   Done                     01/02/2019 23:24:47
00025 suncat0114 pw.x -in pw.inp   Done                     01/02/2019 23:24:47
00026 suncat0114 pw.x -in pw.inp   Done                     01/02/2019 23:24:47
00027 suncat0114 pw.x -in pw.inp   Done                     01/02/2019 23:24:47
00028 suncat0114 pw.x -in pw.inp   Done                     01/02/2019 23:24:47
00029 suncat0114 pw.x -in pw.inp   Done                     01/02/2019 23:24:47
00030 suncat0114 pw.x -in pw.inp   Done                     01/02/2019 23:24:47
00031 suncat0114 pw.x -in pw.inp   Done                     01/02/2019 23:24:47
00032 suncat0264 pw.x -in pw.inp   Done                     01/02/2019 23:24:47
00033 suncat0264 pw.x -in pw.inp   Done                     01/02/2019 23:24:47
00034 suncat0264 pw.x -in pw.inp   Done                     01/02/2019 23:24:47
00035 suncat0264 pw.x -in pw.inp   Done                     01/02/2019 23:24:47
00036 suncat0264 pw.x -in pw.inp   Done                     01/02/2019 23:24:47
00037 suncat0264 pw.x -in pw.inp   Done                     01/02/2019 23:24:47
00038 suncat0264 pw.x -in pw.inp   Done                     01/02/2019 23:24:47
00039 suncat0264 pw.x -in pw.inp   Done                     01/02/2019 23:24:47
00040 suncat0260 pw.x -in pw.inp   Done                     01/02/2019 23:24:47
00041 suncat0260 pw.x -in pw.inp   Done                     01/02/2019 23:24:47
00042 suncat0260 pw.x -in pw.inp   Done                     01/02/2019 23:24:47
00043 suncat0260 pw.x -in pw.inp   Done                     01/02/2019 23:24:47
00044 suncat0260 pw.x -in pw.inp   Done                     01/02/2019 23:24:47
00045 suncat0260 pw.x -in pw.inp   Done                     01/02/2019 23:24:47
00046 suncat0260 pw.x -in pw.inp   Done                     01/02/2019 23:24:47
00047 suncat0260 pw.x -in pw.inp   Done                     01/02/2019 23:24:47
00048 suncat0249 pw.x -in pw.inp   Done                     01/02/2019 23:24:47
00049 suncat0249 pw.x -in pw.inp   Done                     01/02/2019 23:24:47
00050 suncat0249 pw.x -in pw.inp   Done                     01/02/2019 23:24:47
00051 suncat0249 pw.x -in pw.inp   Done                     01/02/2019 23:24:47
00052 suncat0249 pw.x -in pw.inp   Done                     01/02/2019 23:24:47
00053 suncat0249 pw.x -in pw.inp   Done                     01/02/2019 23:24:47
00054 suncat0249 pw.x -in pw.inp   Done                     01/02/2019 23:24:47
00055 suncat0249 pw.x -in pw.inp   Done                     01/02/2019 23:24:47
00056 suncat0231 pw.x -in pw.inp   Done                     01/02/2019 23:24:47
00057 suncat0231 pw.x -in pw.inp   Done                     01/02/2019 23:24:47
00058 suncat0231 pw.x -in pw.inp   Done                     01/02/2019 23:24:47
00059 suncat0231 pw.x -in pw.inp   Done                     01/02/2019 23:24:47
00060 suncat0231 pw.x -in pw.inp   Done                     01/02/2019 23:24:47
00061 suncat0231 pw.x -in pw.inp   Done                     01/02/2019 23:24:47
00062 suncat0231 pw.x -in pw.inp   Done                     01/02/2019 23:24:47
00063 suncat0231 pw.x -in pw.inp   Done                     01/02/2019 23:24:47