     Program PWSCF v.5.1rc2 (svn rev. 11289) starts on 25Dec2018 at 11:46:58

     Current dimensions of program PWSCF are:
     Max number of different atomic species (ntypx) = 10
     Max number of k-points (npk) =  40000
     Max angular momentum in pseudopotentials (lmaxx) =  3
     Presently stress not available with electric field

     IMPORTANT: XC functional enforced from input :
     Exchange-correlation      = BEEF-VDW ( 1  4 27 13 2)
     Any further DFT definition will be discarded
     Please, verify this is what you really want

     Subspace diagonalization in iterative solution of the eigenvalue problem:
     a serial algorithm will be used

     bravais-lattice index     =            0
     lattice parameter (alat)  =       1.8897  a.u.
     unit-cell volume          =    4323.8936 (a.u.)^3
     number of atoms/cell      =           12
     number of atomic types    =            2
     number of electrons       =       168.00
     number of Kohn-Sham states=          114
     kinetic-energy cutoff     =      36.7493  Ry
     charge density cutoff     =     367.4932  Ry
     convergence threshold     =      1.0E-06
     mixing beta               =       0.1000
     number of iterations used =           10  plain     mixing
     Exchange-correlation      = BEEF-VDW ( 1  4 27 13 2)
     nstep                     =           50

     celldm(1)=   1.889726  celldm(2)=   0.000000  celldm(3)=   0.000000
     celldm(4)=   0.000000  celldm(5)=   0.000000  celldm(6)=   0.000000

     crystal axes: (cart. coord. in units of alat)
               a(1) = (   5.496640   0.000000   0.000000 )
               a(2) = (  -2.748320   4.760230   0.000000 )
               a(3) = (   0.000000   0.000000  24.487988 )

     reciprocal axes: (cart. coord. in units 2 pi/alat)
               b(1) = (  0.181929  0.105037  0.000000 )
               b(2) = (  0.000000  0.210074  0.000000 )
               b(3) = (  0.000000  0.000000  0.040836 )

     PseudoPot. # 1 for Cr read from file:
     /afs/slac.stanford.edu/u/if/mamunm/psp/gbrv1.5pbe/Cr.UPF
     MD5 check sum: 0d52af634a40206e4dee301ad30da4bf
     Pseudo is Ultrasoft + core correction, Zval = 14.0
     Generated by new atomic code, or converted to UPF format
     Using radial grid of  857 points,  6 beta functions with:
                l(1) =   0
                l(2) =   0
                l(3) =   1
                l(4) =   1
                l(5) =   2
                l(6) =   2
     Q(r) pseudized with  8 coefficients,  rinner =    0.950   0.950   0.950
                                                       0.950   0.950

     PseudoPot. # 2 for Pb read from file:
     /afs/slac.stanford.edu/u/if/mamunm/psp/gbrv1.5pbe/Pb.UPF
     MD5 check sum: 3d1c1779aa92214d1e8f3a7db79003e2
     Pseudo is Ultrasoft + core correction, Zval = 14.0
     Generated by new atomic code, or converted to UPF format
     Using radial grid of  899 points,  6 beta functions with:
                l(1) =   0
                l(2) =   0
                l(3) =   1
                l(4) =   1
                l(5) =   2
                l(6) =   2
     Q(r) pseudized with  6 coefficients,  rinner =    1.000   1.000   1.000
                                                       1.000   1.000

     vdW kernel table read from file vdW_kernel_table
     MD5 check sum: 095c7af220d748ca6e76c0b4c6cfb241

     atomic species   valence    mass     pseudopotential
        Cr1           14.00    51.99610     Cr( 1.00)
        Pb1           14.00   207.20000     Pb( 1.00)

     No symmetry found

   Cartesian axes

     site n.     atom                  positions (alat units)
         1           Cr1 tau(   1) = (   0.0000000   0.0000000  10.0000000  )
         2           Cr1 tau(   2) = (  -1.3741601   2.3801151  10.0000000  )
         3           Cr1 tau(   3) = (   1.3741601   2.3801151  10.0000000  )
         4           Pb1 tau(   4) = (   2.7483202   0.0000000  10.0000000  )
         5           Cr1 tau(   5) = (   2.7483202   1.5867434  12.2439941  )
         6           Cr1 tau(   6) = (   1.3741601   3.9668586  12.2439941  )
         7           Cr1 tau(   7) = (  -1.3741601   3.9668586  12.2439941  )
         8           Pb1 tau(   8) = (   0.0000000   1.5867434  12.2439941  )
         9           Cr1 tau(   9) = (  -0.0000000   3.1734869  14.4879882  )
        10           Cr1 tau(  10) = (   1.3741601   0.7933717  14.4879882  )
        11           Cr1 tau(  11) = (   4.1224804   0.7933717  14.4879882  )
        12           Pb1 tau(  12) = (   2.7483202   3.1734869  14.4879882  )

     number of k points=    20  Fermi-Dirac smearing, width (Ry)=  0.0110
                       cart. coord. in units 2pi/alat
        k(    1) = (   0.0000000   0.0000000   0.0000000), wk =   0.0555556
        k(    2) = (   0.0000000   0.0350123   0.0000000), wk =   0.1111111
        k(    3) = (   0.0000000   0.0700246   0.0000000), wk =   0.1111111
        k(    4) = (   0.0000000  -0.1050369   0.0000000), wk =   0.0555556
        k(    5) = (   0.0303216   0.0175062   0.0000000), wk =   0.1111111
        k(    6) = (   0.0303216   0.0525185   0.0000000), wk =   0.1111111
        k(    7) = (   0.0303216   0.0875308   0.0000000), wk =   0.1111111
        k(    8) = (   0.0303216  -0.0875308   0.0000000), wk =   0.1111111
        k(    9) = (   0.0303216  -0.0525185   0.0000000), wk =   0.1111111
        k(   10) = (   0.0303216  -0.0175062   0.0000000), wk =   0.1111111
        k(   11) = (   0.0606431   0.0350123   0.0000000), wk =   0.1111111
        k(   12) = (   0.0606431   0.0700246   0.0000000), wk =   0.1111111
        k(   13) = (   0.0606431   0.1050369   0.0000000), wk =   0.1111111
        k(   14) = (   0.0606431  -0.0700246   0.0000000), wk =   0.1111111
        k(   15) = (   0.0606431  -0.0350123   0.0000000), wk =   0.1111111
        k(   16) = (   0.0606431   0.0000000   0.0000000), wk =   0.1111111
        k(   17) = (  -0.0909647  -0.0525185   0.0000000), wk =   0.0555556
        k(   18) = (  -0.0909647  -0.0175062   0.0000000), wk =   0.1111111
        k(   19) = (  -0.0909647   0.0175062   0.0000000), wk =   0.1111111
        k(   20) = (  -0.0909647  -0.1575554   0.0000000), wk =   0.0555556

     Largest allocated arrays     est. size (Mb)     dimensions
     Largest temporary arrays     est. size (Mb)     dimensions

     Check: negative/imaginary core charge=   -0.000003    0.000000

     Initial potential from superposition of free atoms
     Check: negative starting charge=   -0.058212

     starting charge  158.99281, renormalised to  168.00000

     negative rho (up, down):  6.151E-02 0.000E+00

     *
     * You are using vdW-DF for exchange-correlation in this calculation.
     * Please cite the following three references that made this development
     * possible:
     *
     *   M. Dion, H. Rydberg, E. Schroder, D. C. Langreth, and
     *   B. I. Lundqvist, Phys. Rev. Lett. 92, 246401 (2004).
     *
     *   T. Thonhauser, V. R. Cooper, S. Li, A. Puzder, P. Hyldgaard, and
     *   D. C. Langreth, Phys. Rev. B 76, 125112 (2007).
     *
     *   G. Roman-Perez and J. M. Soler, Phys. Rev. Lett. 103, 096102 (2009).
     *
     *
     * If you are using vdW-DF2, please also cite:
     *
     *   K. Lee, E. D. Murray, L. Kong, B. I. Lundqvist, and
     *   D. C. Langreth, Phys. Rev. B 82, 081101(R) (2010).
     *
     *
     * If you are calculating the stress with vdW-DF, please also cite:
     *
     *   R. Sabatini, E. Kucukbenli, B. Kolb, T. Thonhauser, and
     *   S. de Gironcoli, J. Phys.: Condens. Matter 24, 424209 (2012).
     *

     Carrying out vdW-DF run using the following parameters:

     Nqs =      20    Nr_points =    1024   r_max =   100.000
     q_mesh =
               0.00001000     0.04494208     0.09755937     0.15916263
               0.23128650     0.31572767     0.41458969     0.53033537
               0.66584808     0.82450364     1.01025438     1.22772762
               1.48234092     1.78043706     2.12944203     2.53805004
               3.01644009     3.57652955     4.23227104     5.00000000

     Gradients computed in reciprocal space

     Adding external electric field

     Computed dipole along edir(3) :
        Dipole               -0.0000 Ry au,         -0.0000 Debye
        Dipole field         -0.0000 Ry au

        Potential amp.        0.0000 Ry
        Total length         45.1187 bohr

     Starting wfc are  117 randomized atomic wfcs

     Self-consistent Calculation

     iteration #  1     ecut=    36.75 Ry     beta=0.10
     Davidson diagonalization with overlap
     ethr =  1.00E-02,  avg # of iterations =  6.2

[...]

     total energy              =   -2085.01586538 Ry
     Harris-Foulkes estimate   =   -2086.88982396 Ry
     estimated scf accuracy    <      11.64076608 Ry

[...]

     End of self-consistent calculation

          k = 0.0000 0.0000 0.0000 ( 16175 PWs)   bands (ev):

   -70.4463 -70.4082 -70.4082 -70.2880 -70.2861 -70.2518 -70.2518 -70.2513
   -70.2512 -41.8892 -41.8620 -41.8619 -41.7913 -41.7572 -41.7572 -41.7122
   -41.6859 -41.6796 -41.6780 -41.6780 -41.6427 -41.6427 -41.6128 -41.6110
   -41.6110 -41.5918 -41.5918 -41.5662 -41.5662 -41.5449 -41.5441 -41.5377
   -41.3747 -41.3747 -41.3729 -41.3728 -16.0185 -16.0185 -16.0078 -15.9700
   -15.9700 -15.5689 -15.5689 -15.5661 -15.5661 -15.5624 -15.5480 -15.4975
   -15.4975 -15.4925 -15.4925  -9.5776  -8.0791  -7.5042  -2.3902  -2.2286
    -1.8422  -1.6659  -1.6659  -1.4731  -1.4731  -0.8155  -0.7050  -0.7050
    -0.6148  -0.4546  -0.4546  -0.0801  -0.0801   0.0749   0.1522   0.4074
     0.5549   0.5550   0.6408   0.6408   0.6727   0.6728   0.7446   0.7446
     0.9365   1.0736   1.3619   1.7534   1.7535   1.8387   1.9109   1.9110
     2.0413   2.0414   2.1711   2.1711   2.2324   2.2325   2.2566   2.4583
     2.4583   2.5210   2.6646   2.7380   2.7583   2.7583   3.0163   3.1598
     3.1599   3.2247   3.2572   3.4207   3.4207   3.8423   4.1889   5.0807
     5.4086   5.4773

[...]

          k =-0.0910-0.0525 0.0000 ( 16232 PWs)   bands (ev):

[...]

     the Fermi energy is     1.3945 ev

!    total energy              =   -2083.81053203 Ry
     Harris-Foulkes estimate   =   -2083.81054319 Ry
     estimated scf accuracy    <       0.00000092 Ry

     The total energy is the sum of the following terms:

     one-electron contribution =  -16488.77848722 Ry
     hartree contribution      =    8256.40673664 Ry
     xc contribution           =    -405.66154468 Ry
     ewald contribution        =    6554.33264054 Ry
     electric field correction =       0.00000000 Ry
     smearing contrib. (-TS)   =      -0.10987731 Ry

     convergence has been achieved in  27 iterations

 BEEF-vdW xc energy contributions
           1 :   -356.346115780996
           2 :    326.037876851980
           3 :   -274.318824374010
           4 :    214.967562456156
           5 :   -160.989035851458
           6 :    120.156104312223
           7 :   -93.5872214544430
           8 :    77.4252755776106
           9 :   -66.1754770948967
          10 :    55.7334709559618
          11 :   -44.7462966271468
          12 :    34.1231929873652
          13 :   -25.5165159017164
[...]
     /afs/slac.stanford.edu/u/if/mamunm/psp/gbrv1.5pbe/Cr.UPF
     MD5 check sum: 0d52af634a40206e4dee301ad30da4bf
     Pseudo is Ultrasoft + core correction, Zval = 14.0
     Generated by new atomic code, or converted to UPF format
     Using radial grid of  857 points,  6 beta functions with:
                l(1) =   0
                l(2) =   0
                l(3) =   1
                l(4) =   1
                l(5) =   2
                l(6) =   2
     Q(r) pseudized with  8 coefficients,  rinner =    0.950   0.950   0.950
                                                       0.950   0.950

     PseudoPot. # 2 for Pb read from file:
     /afs/slac.stanford.edu/u/if/mamunm/psp/gbrv1.5pbe/Pb.UPF
     MD5 check sum: 3d1c1779aa92214d1e8f3a7db79003e2
     Pseudo is Ultrasoft + core correction, Zval = 14.0
     Generated by new atomic code, or converted to UPF format
     Using radial grid of  899 points,  6 beta functions with:
                l(1) =   0
                l(2) =   0
                l(3) =   1
                l(4) =   1
                l(5) =   2
                l(6) =   2
     Q(r) pseudized with  6 coefficients,  rinner =    1.000   1.000   1.000
                                                       1.000   1.000

     vdW kernel table read from file vdW_kernel_table
     MD5 check sum: 095c7af220d748ca6e76c0b4c6cfb241

     atomic species   valence    mass     pseudopotential
        Cr1           14.00    51.99610     Cr( 1.00)
        Pb1           14.00   207.20000     Pb( 1.00)

     No symmetry found

   Cartesian axes

     site n.     atom                  positions (alat units)
         1           Cr1 tau(   1) = (   0.0000000   0.0000000  10.0000000  )
         2           Cr1 tau(   2) = (  -1.3741601   2.3801151  10.0000000  )
         3           Cr1 tau(   3) = (   1.3741601   2.3801151  10.0000000  )
         4           Pb1 tau(   4) = (   2.7483202   0.0000000  10.0000000  )
         5           Cr1 tau(   5) = (   2.7483202   1.5867434  12.2439941  )
         6           Cr1 tau(   6) = (   1.3741601   3.9668586  12.2439941  )
         7           Cr1 tau(   7) = (  -1.3741601   3.9668586  12.2439941  )
         8           Pb1 tau(   8) = (   0.0000000   1.5867434  12.2439941  )
         9           Cr1 tau(   9) = (   0.0000447   3.4883738  14.2848874  )
        10           Cr1 tau(  10) = (   1.6469137   0.6359541  14.2848631  )
        11           Cr1 tau(  11) = (   3.8497697   0.6359266  14.2848711  )
        12           Pb1 tau(  12) = (   2.7482594   3.1734566  14.9755879  )

     number of k points=    20  Fermi-Dirac smearing, width (Ry)=  0.0110
                       cart. coord. in units 2pi/alat
        k(    1) = (   0.0000000   0.0000000   0.0000000), wk =   0.0555556
        k(    2) = (   0.0000000   0.0350123   0.0000000), wk =   0.1111111
        k(    3) = (   0.0000000   0.0700246   0.0000000), wk =   0.1111111
        k(    4) = (   0.0000000  -0.1050369   0.0000000), wk =   0.0555556
        k(    5) = (   0.0303216   0.0175062   0.0000000), wk =   0.1111111
        k(    6) = (   0.0303216   0.0525185   0.0000000), wk =   0.1111111
        k(    7) = (   0.0303216   0.0875308   0.0000000), wk =   0.1111111
        k(    8) = (   0.0303216  -0.0875308   0.0000000), wk =   0.1111111
        k(    9) = (   0.0303216  -0.0525185   0.0000000), wk =   0.1111111
        k(   10) = (   0.0303216  -0.0175062   0.0000000), wk =   0.1111111
        k(   11) = (   0.0606431   0.0350123   0.0000000), wk =   0.1111111
        k(   12) = (   0.0606431   0.0700246   0.0000000), wk =   0.1111111
        k(   13) = (   0.0606431   0.1050369   0.0000000), wk =   0.1111111
        k(   14) = (   0.0606431  -0.0700246   0.0000000), wk =   0.1111111
        k(   15) = (   0.0606431  -0.0350123   0.0000000), wk =   0.1111111
        k(   16) = (   0.0606431   0.0000000   0.0000000), wk =   0.1111111
        k(   17) = (  -0.0909647  -0.0525185   0.0000000), wk =   0.0555556
        k(   18) = (  -0.0909647  -0.0175062   0.0000000), wk =   0.1111111
        k(   19) = (  -0.0909647   0.0175062   0.0000000), wk =   0.1111111
        k(   20) = (  -0.0909647  -0.1575554   0.0000000), wk =   0.0555556

     Largest allocated arrays     est. size (Mb)     dimensions
     Largest temporary arrays     est. size (Mb)     dimensions

     Check: negative/imaginary core charge=   -0.000003    0.000000

     Initial potential from superposition of free atoms
     Check: negative starting charge=   -0.060757

     starting charge  158.99281, renormalised to  168.00000

[...]

     *
     * You are using vdW-DF for exchange-correlation in this calculation.
     * Please cite the following three references that made this development
     * possible:
     *
     *   M. Dion, H. Rydberg, E. Schroder, D. C. Langreth, and
     *   B. I. Lundqvist, Phys. Rev. Lett. 92, 246401 (2004).
     *
     *   T. Thonhauser, V. R. Cooper, S. Li, A. Puzder, P. Hyldgaard, and
     *   D. C. Langreth, Phys. Rev. B 76, 125112 (2007).
     *
     *   G. Roman-Perez and J. M. Soler, Phys. Rev. Lett. 103, 096102 (2009).
     *
     *
     * If you are using vdW-DF2, please also cite:
     *
     *   K. Lee, E. D. Murray, L. Kong, B. I. Lundqvist, and
     *   D. C. Langreth, Phys. Rev. B 82, 081101(R) (2010).
     *
     *
     * If you are calculating the stress with vdW-DF, please also cite:
     *
     *   R. Sabatini, E. Kucukbenli, B. Kolb, T. Thonhauser, and
     *   S. de Gironcoli, J. Phys.: Condens. Matter 24, 424209 (2012).
     *

     Carrying out vdW-DF run using the following parameters:

     Nqs =      20    Nr_points =    1024   r_max =   100.000
     q_mesh =
               0.00001000     0.04494208     0.09755937     0.15916263
               0.23128650     0.31572767     0.41458969     0.53033537
               0.66584808     0.82450364     1.01025438     1.22772762
               1.48234092     1.78043706     2.12944203     2.53805004
               3.01644009     3.57652955     4.23227104     5.00000000

     Gradients computed in reciprocal space

[...]

     Starting wfc are  117 randomized atomic wfcs

     Self-consistent Calculation

[...]

     total energy              =   -2083.94679419 Ry
     Harris-Foulkes estimate   =   -2083.94679473 Ry
     estimated scf accuracy    <       0.00000180 Ry

     iteration # 26     ecut=    36.75 Ry     beta=0.10
     Davidson diagonalization with overlap
     ethr =  1.07E-09,  avg # of iterations =  2.4

[...]

     negative rho (up, down):  6.879E-02 0.000E+00

     Adding external electric field

     Computed dipole along edir(3) :
        Dipole                0.0944 Ry au,          0.2399 Debye
        Dipole field          0.0003 Ry au

        Potential amp.       -0.0248 Ry
        Total length         45.1187 bohr

     End of self-consistent calculation

[...]

          k = 0.0606 0.0000 0.0000 ( 16282 PWs)   bands (ev):

[...]

          k =-0.0910-0.1576 0.0000 ( 16232 PWs)   bands (ev):

   -70.3285 -70.2843 -70.2674 -70.2531 -70.1376 -70.1256 -70.1139 -70.0751
   -70.0737 -42.1077 -41.8175 -41.8006 -41.7859 -41.7351 -41.6820 -41.6339
   -41.6298 -41.5839 -41.5691 -41.5458 -41.5421 -41.5029 -41.4818 -41.4766
   -41.4744 -41.4579 -41.4477 -41.4092 -41.3907 -41.3744 -41.3709 -41.3183
   -41.2361 -41.1987 -41.0517 -41.0358 -15.9007 -15.8813 -15.8599 -15.8373
   -15.8352 -15.4276 -15.3992 -15.3983 -15.3795 -15.3636 -15.3612 -15.3576
   -15.3462 -15.3398 -15.3349  -8.4583  -7.6391  -7.1026  -3.7653  -2.8425
    -2.6591  -2.4535  -1.7143  -1.2618  -1.1360  -1.0114  -0.9342  -0.8446
    -0.6833  -0.5126  -0.2744  -0.1531  -0.1268   0.0641   0.0830   0.1533
     0.2419   0.3767   0.5031   0.5149   0.7184   0.8450   0.8978   0.9237
     1.0275   1.1953   1.2674   1.3619   1.6302   1.7222   1.7250   1.8842
     1.8924   2.0311   2.0387   2.0765   2.2188   2.3127   2.3397   2.4664
     2.5254   2.6834   2.7128   2.8184   2.9834   3.0426   3.3445   3.4736
     3.6691   3.9850   4.1683   4.4830   4.6116   4.8984   5.8842   6.2261
     6.6475   6.8422

     the Fermi energy is     1.5357 ev

!    total energy              =   -2083.94678501 Ry
     Harris-Foulkes estimate   =   -2083.94679670 Ry
     estimated scf accuracy    <       0.00000070 Ry

     The total energy is the sum of the following terms:

     one-electron contribution =  -16568.28060704 Ry
     hartree contribution      =    8296.79595482 Ry
     xc contribution           =    -405.89178283 Ry
     ewald contribution        =    6593.51954453 Ry
     electric field correction =       0.00002589 Ry
     smearing contrib. (-TS)   =      -0.08992039 Ry

     convergence has been achieved in  26 iterations

 BEEF-vdW xc energy contributions
           1 :   -356.590841873988
           2 :    326.324740426586
           3 :   -274.618910454312
           4 :    215.160267229232
           5 :   -160.920045047370
           6 :    119.741522056213
           7 :   -92.8877160788069
           8 :    76.6328379723482
           9 :   -65.5146778938280
          10 :    55.3340904342381
          11 :   -44.5648271680176
          12 :    33.9654586283968
          13 :   -25.1570742735830
          14 :    19.2374844028847
          15 :   -16.1670788632229
          16 :    15.0141620616859
          17 :   -14.6445999193329
          18 :    14.3097472959830
          19 :   -13.8159660005667
          20 :    13.3085302211196
          21 :   -12.9432312736205
          22 :    12.7125429526931
          23 :   -12.5042998859386
          24 :    12.2621662213035
          25 :   -12.0618967665316
          26 :    12.0258149997572
          27 :   -12.1645845026567
          28 :    12.3040742191869
          29 :   -12.1798628562851
          30 :    11.6333252099613
          31 :   -31.8607383190601
          32 :   -23.1676520726123

     Forces acting on atoms (Ry/au):

     negative rho (up, down):  6.879E-02 0.000E+00
     atom    1 type  1   force =     0.00000020   -0.03370037    0.02971314
     atom    2 type  1   force =    -0.02919647    0.01685694    0.02972071
     atom    3 type  1   force =     0.02918407    0.01685054    0.02970468
     atom    4 type  2   force =     0.00000991    0.00000610   -0.09295824
     atom    5 type  1   force =    -0.00000026    0.02877241   -0.00089656
     atom    6 type  1   force =     0.02491329   -0.01438512   -0.00089265
     atom    7 type  1   force =    -0.02491690   -0.01438653   -0.00089923
     atom    8 type  2   force =    -0.00001683    0.00000587    0.00848006
     atom    9 type  1   force =    -0.00002076   -0.00175784   -0.00042767
     atom   10 type  1   force =    -0.00151978    0.00084818   -0.00041908
     atom   11 type  1   force =     0.00152907    0.00087778   -0.00042313
     atom   12 type  2   force =     0.00003447    0.00001204   -0.00070202

     Total force =     0.131399     Total SCF correction =     0.004591

     entering subroutine stress ...

     negative rho (up, down):  6.879E-02 0.000E+00
          total   stress  (Ry/bohr**3)                   (kbar)     P=  -11.28
  -0.00011341   0.00000004   0.00000002        -16.68      0.01      0.00
   0.00000004  -0.00011338  -0.00000000          0.01    -16.68     -0.00
   0.00000002  -0.00000000  -0.00000317          0.00     -0.00     -0.47

 !ASE

     Writing output data file calc.save

     General routines

     Parallel routines

   This run was terminated on:  15:49:12  25Dec2018

   JOB DONE.
Job  /afs/slac/g/suncat/bin/suncat-tsmpirun -x LD_LIBRARY_PATH -wdir /scratch/qe109522_AyqOD pw.x -in pw.inp

TID   HOST_NAME   COMMAND_LINE            STATUS            TERMINATION_TIME
00000 suncat0190 pw.x -in pw.inp   Done                     12/25/2018 15:49:12
00001 suncat0190 pw.x -in pw.inp   Done                     12/25/2018 15:49:12
00002 suncat0190 pw.x -in pw.inp   Done                     12/25/2018 15:49:12
00003 suncat0190 pw.x -in pw.inp   Done                     12/25/2018 15:49:12
00004 suncat0190 pw.x -in pw.inp   Done                     12/25/2018 15:49:12
00005 suncat0190 pw.x -in pw.inp   Done                     12/25/2018 15:49:12
00006 suncat0190 pw.x -in pw.inp   Done                     12/25/2018 15:49:12
00007 suncat0190 pw.x -in pw.inp   Done                     12/25/2018 15:49:12
00008 suncat0009 pw.x -in pw.inp   Done                     12/25/2018 15:49:12
00009 suncat0009 pw.x -in pw.inp   Done                     12/25/2018 15:49:12
00010 suncat0009 pw.x -in pw.inp   Done                     12/25/2018 15:49:12
00011 suncat0009 pw.x -in pw.inp   Done                     12/25/2018 15:49:12
00012 suncat0009 pw.x -in pw.inp   Done                     12/25/2018 15:49:12
00013 suncat0009 pw.x -in pw.inp   Done                     12/25/2018 15:49:12
00014 suncat0009 pw.x -in pw.inp   Done                     12/25/2018 15:49:12
00015 suncat0009 pw.x -in pw.inp   Done                     12/25/2018 15:49:12
00016 suncat0169 pw.x -in pw.inp   Done                     12/25/2018 15:49:12
00017 suncat0169 pw.x -in pw.inp   Done                     12/25/2018 15:49:12
00018 suncat0169 pw.x -in pw.inp   Done                     12/25/2018 15:49:12
00019 suncat0169 pw.x -in pw.inp   Done                     12/25/2018 15:49:12
00020 suncat0169 pw.x -in pw.inp   Done                     12/25/2018 15:49:12
00021 suncat0169 pw.x -in pw.inp   Done                     12/25/2018 15:49:12
00022 suncat0169 pw.x -in pw.inp   Done                     12/25/2018 15:49:12
00023 suncat0169 pw.x -in pw.inp   Done                     12/25/2018 15:49:12
00024 suncat0168 pw.x -in pw.inp   Done                     12/25/2018 15:49:12
00025 suncat0168 pw.x -in pw.inp   Done                     12/25/2018 15:49:12
00026 suncat0168 pw.x -in pw.inp   Done                     12/25/2018 15:49:12
00027 suncat0168 pw.x -in pw.inp   Done                     12/25/2018 15:49:12
00028 suncat0168 pw.x -in pw.inp   Done                     12/25/2018 15:49:12
00029 suncat0168 pw.x -in pw.inp   Done                     12/25/2018 15:49:12
00030 suncat0168 pw.x -in pw.inp   Done                     12/25/2018 15:49:12
00031 suncat0168 pw.x -in pw.inp   Done                     12/25/2018 15:49:12
00032 suncat0114 pw.x -in pw.inp   Done                     12/25/2018 15:49:12
00033 suncat0114 pw.x -in pw.inp   Done                     12/25/2018 15:49:12
00034 suncat0114 pw.x -in pw.inp   Done                     12/25/2018 15:49:12
00035 suncat0114 pw.x -in pw.inp   Done                     12/25/2018 15:49:12
00036 suncat0114 pw.x -in pw.inp   Done                     12/25/2018 15:49:12
00037 suncat0114 pw.x -in pw.inp   Done                     12/25/2018 15:49:12
00038 suncat0114 pw.x -in pw.inp   Done                     12/25/2018 15:49:12
00039 suncat0114 pw.x -in pw.inp   Done                     12/25/2018 15:49:12
00040 suncat0113 pw.x -in pw.inp   Done                     12/25/2018 15:49:12
00041 suncat0113 pw.x -in pw.inp   Done                     12/25/2018 15:49:12
00042 suncat0113 pw.x -in pw.inp   Done                     12/25/2018 15:49:12
00043 suncat0113 pw.x -in pw.inp   Done                     12/25/2018 15:49:12
00044 suncat0113 pw.x -in pw.inp   Done                     12/25/2018 15:49:12
00045 suncat0113 pw.x -in pw.inp   Done                     12/25/2018 15:49:12
00046 suncat0113 pw.x -in pw.inp   Done                     12/25/2018 15:49:12
00047 suncat0113 pw.x -in pw.inp   Done                     12/25/2018 15:49:12
00048 suncat0110 pw.x -in pw.inp   Done                     12/25/2018 15:49:12
00049 suncat0110 pw.x -in pw.inp   Done                     12/25/2018 15:49:12
00050 suncat0110 pw.x -in pw.inp   Done                     12/25/2018 15:49:12
00051 suncat0110 pw.x -in pw.inp   Done                     12/25/2018 15:49:12
00052 suncat0110 pw.x -in pw.inp   Done                     12/25/2018 15:49:12
00053 suncat0110 pw.x -in pw.inp   Done                     12/25/2018 15:49:12
00054 suncat0110 pw.x -in pw.inp   Done                     12/25/2018 15:49:12
00055 suncat0110 pw.x -in pw.inp   Done                     12/25/2018 15:49:12
00056 suncat0109 pw.x -in pw.inp   Done                     12/25/2018 15:49:12
00057 suncat0109 pw.x -in pw.inp   Done                     12/25/2018 15:49:12
00058 suncat0109 pw.x -in pw.inp   Done                     12/25/2018 15:49:12
00059 suncat0109 pw.x -in pw.inp   Done                     12/25/2018 15:49:12
00060 suncat0109 pw.x -in pw.inp   Done                     12/25/2018 15:49:12
00061 suncat0109 pw.x -in pw.inp   Done                     12/25/2018 15:49:12
00062 suncat0109 pw.x -in pw.inp   Done                     12/25/2018 15:49:12
00063 suncat0109 pw.x -in pw.inp   Done                     12/25/2018 15:49:12