     Program PWSCF v.5.1rc2 (svn rev. 11289) starts on 25Dec2018 at 19:12:36

     Current dimensions of program PWSCF are:
     Max number of different atomic species (ntypx) = 10
     Max number of k-points (npk) =  40000
     Max angular momentum in pseudopotentials (lmaxx) =  3
     Presently stress not available with electric field

     IMPORTANT: XC functional enforced from input :
     Exchange-correlation      = BEEF-VDW ( 1  4 27 13 2)
     Any further DFT definition will be discarded
     Please, verify this is what you really want

     Subspace diagonalization in iterative solution of the eigenvalue problem:
     a serial algorithm will be used

     bravais-lattice index     =            0
     lattice parameter (alat)  =       1.8897  a.u.
     unit-cell volume          =    3892.4578 (a.u.)^3
     number of atoms/cell      =           12
     number of atomic types    =            2
     number of electrons       =       231.00
     number of Kohn-Sham states=          145
     kinetic-energy cutoff     =      36.7493  Ry
     charge density cutoff     =     367.4932  Ry
     convergence threshold     =      1.0E-06
     mixing beta               =       0.1000
     number of iterations used =           10  plain     mixing
     Exchange-correlation      = BEEF-VDW ( 1  4 27 13 2)
     nstep                     =           50

     celldm(1)=   1.889726  celldm(2)=   0.000000  celldm(3)=   0.000000
     celldm(4)=   0.000000  celldm(5)=   0.000000  celldm(6)=   0.000000

     crystal axes: (cart. coord. in units of alat)
               a(1) = (   5.237856   0.000000   0.000000 )
               a(2) = (  -2.618928   4.536117   0.000000 )
               a(3) = (   0.000000   0.000000  24.276692 )

     reciprocal axes: (cart. coord. in units 2 pi/alat)
               b(1) = (  0.190918  0.110226  0.000000 )
               b(2) = (  0.000000  0.220453  0.000000 )
               b(3) = (  0.000000  0.000000  0.041192 )

     PseudoPot. # 1 for Cu read from file:
     /afs/slac.stanford.edu/u/if/mamunm/psp/gbrv1.5pbe/Cu.UPF
     MD5 check sum: 6e991ff952a84172a2a52a1c1e996048
     Pseudo is Ultrasoft + core correction, Zval = 19.0
     Generated by new atomic code, or converted to UPF format
     Using radial grid of  867 points,  6 beta functions with:
                l(1) =   0
                l(2) =   0
                l(3) =   1
                l(4) =   1
                l(5) =   2
                l(6) =   2
     Q(r) pseudized with  8 coefficients,  rinner =    1.150   1.150   1.150
                                                       1.150   1.150

     PseudoPot. # 2 for Zn read from file:
     /afs/slac.stanford.edu/u/if/mamunm/psp/gbrv1.5pbe/Zn.UPF
     MD5 check sum: df62231357ef9e81f77b2b3087fa5675
     Pseudo is Ultrasoft, Zval = 20.0
     Generated by new atomic code, or converted to UPF format
     Using radial grid of  943 points,  6 beta functions with:
                l(1) =   0
                l(2) =   0
                l(3) =   1
                l(4) =   1
                l(5) =   2
                l(6) =   2
     Q(r) pseudized with  8 coefficients,  rinner =    1.100   1.100   1.100
                                                       1.100   1.100

     vdW kernel table read from file vdW_kernel_table
     MD5 check sum: 095c7af220d748ca6e76c0b4c6cfb241

     atomic species   valence    mass     pseudopotential
        Cu1           19.00    63.54600     Cu( 1.00)
        Zn1           20.00    65.38000     Zn( 1.00)

     No symmetry found

   Cartesian axes

     site n.     atom                  positions (alat units)
         1           Cu1 tau(   1) = (   0.0000000   0.0000000  10.0000000  )
         2           Cu1 tau(   2) = (  -1.3094641   2.2680584  10.0000000  )
         3           Cu1 tau(   3) = (   1.3094641   2.2680584  10.0000000  )
         4           Zn1 tau(   4) = (   2.6189282   0.0000000  10.0000000  )
         5           Cu1 tau(   5) = (   2.6189282   1.5120389  12.1383459  )
         6           Cu1 tau(   6) = (   1.3094641   3.7800973  12.1383459  )
         7           Cu1 tau(   7) = (  -1.3094641   3.7800973  12.1383459  )
         8           Zn1 tau(   8) = (   0.0000000   1.5120389  12.1383459  )
         9           Cu1 tau(   9) = (  -0.0000000   3.0240778  14.2766919  )
        10           Cu1 tau(  10) = (   1.3094641   0.7560195  14.2766919  )
        11           Cu1 tau(  11) = (   3.9283923   0.7560195  14.2766919  )
        12           Zn1 tau(  12) = (   2.6189282   3.0240778  14.2766919  )

     number of k points=    20  Fermi-Dirac smearing, width (Ry)=  0.0110
                       cart. coord. in units 2pi/alat
        k(    1) = (   0.0000000   0.0000000   0.0000000), wk =   0.0555556
        k(    2) = (   0.0000000   0.0367421   0.0000000), wk =   0.1111111
        k(    3) = (   0.0000000   0.0734843   0.0000000), wk =   0.1111111
        k(    4) = (   0.0000000  -0.1102264   0.0000000), wk =   0.0555556
        k(    5) = (   0.0318196   0.0183711   0.0000000), wk =   0.1111111
        k(    6) = (   0.0318196   0.0551132   0.0000000), wk =   0.1111111
        k(    7) = (   0.0318196   0.0918554   0.0000000), wk =   0.1111111
        k(    8) = (   0.0318196  -0.0918554   0.0000000), wk =   0.1111111
        k(    9) = (   0.0318196  -0.0551132   0.0000000), wk =   0.1111111
        k(   10) = (   0.0318196  -0.0183711   0.0000000), wk =   0.1111111
        k(   11) = (   0.0636393   0.0367421   0.0000000), wk =   0.1111111
        k(   12) = (   0.0636393   0.0734843   0.0000000), wk =   0.1111111
        k(   13) = (   0.0636393   0.1102264   0.0000000), wk =   0.1111111
        k(   14) = (   0.0636393  -0.0734843   0.0000000), wk =   0.1111111
        k(   15) = (   0.0636393  -0.0367421   0.0000000), wk =   0.1111111
        k(   16) = (   0.0636393   0.0000000   0.0000000), wk =   0.1111111
        k(   17) = (  -0.0954589  -0.0551132   0.0000000), wk =   0.0555556
        k(   18) = (  -0.0954589  -0.0183711   0.0000000), wk =   0.1111111
        k(   19) = (  -0.0954589   0.0183711   0.0000000), wk =   0.1111111
        k(   20) = (  -0.0954589  -0.1653397   0.0000000), wk =   0.0555556

     Largest allocated arrays     est. size (Mb)     dimensions
     Largest temporary arrays     est. size (Mb)     dimensions

     Initial potential from superposition of free atoms
     Check: negative starting charge=   -0.000462

     starting charge  221.99956, renormalised to  231.00000

     negative rho (up, down):  4.805E-04 0.000E+00

     *
     * You are using vdW-DF for exchange-correlation in this calculation.
     * Please cite the following three references that made this development
     * possible:
     *
     *   M. Dion, H. Rydberg, E. Schroder, D. C. Langreth, and
     *   B. I. Lundqvist, Phys. Rev. Lett. 92, 246401 (2004).
     *
     *   T. Thonhauser, V. R. Cooper, S. Li, A. Puzder, P. Hyldgaard, and
     *   D. C. Langreth, Phys. Rev. B 76, 125112 (2007).
     *
     *   G. Roman-Perez and J. M. Soler, Phys. Rev. Lett. 103, 096102 (2009).
     *
     *
     * If you are using vdW-DF2, please also cite:
     *
     *   K. Lee, E. D. Murray, L. Kong, B. I. Lundqvist, and
     *   D. C. Langreth, Phys. Rev. B 82, 081101(R) (2010).
     *
     *
     * If you are calculating the stress with vdW-DF, please also cite:
     *
     *   R. Sabatini, E. Kucukbenli, B. Kolb, T. Thonhauser, and
     *   S. de Gironcoli, J. Phys.: Condens. Matter 24, 424209 (2012).
     *

     Carrying out vdW-DF run using the following parameters:

     Nqs =      20    Nr_points =    1024   r_max =   100.000
     q_mesh =
               0.00001000     0.04494208     0.09755937     0.15916263
               0.23128650     0.31572767     0.41458969     0.53033537
               0.66584808     0.82450364     1.01025438     1.22772762
               1.48234092     1.78043706     2.12944203     2.53805004
               3.01644009     3.57652955     4.23227104     5.00000000

     Gradients computed in reciprocal space

     Adding external electric field

     Computed dipole along edir(3) :
        Dipole               -0.0000 Ry au,         -0.0000 Debye
        Dipole field         -0.0000 Ry au

        Potential amp.        0.0000 Ry
        Total length         44.7294 bohr

     Starting wfc are  156 randomized atomic wfcs

     Self-consistent Calculation

     iteration #  1     ecut=    36.75 Ry     beta=0.10
     Davidson diagonalization with overlap
     ethr =  1.00E-02,  avg # of iterations =  6.7

[...]

     total energy              =   -4999.32348597 Ry
     Harris-Foulkes estimate   =   -5047.68689486 Ry
     estimated scf accuracy    <     265.48880487 Ry

[...]

     End of self-consistent calculation

          k = 0.0000 0.0000 0.0000 ( 14717 PWs)   bands (ev):

  -126.1411-125.9412-125.9409-112.4983-112.4935-112.4935-112.1323-112.1321
  -112.1275-112.1275-112.1274-112.1274 -80.3200 -80.3200 -80.3151 -80.1285
   -80.1281 -80.1137 -80.1137 -80.1134 -80.1134 -69.9346 -69.9170 -69.9170
   -69.8994 -69.8994 -69.8886 -69.8739 -69.8463 -69.8463 -69.5795 -69.5795
   -69.5790 -69.5790 -69.5691 -69.5690 -69.5562 -69.5561 -69.5186 -69.5186
   -69.5185 -69.5185 -69.4799 -69.4787 -69.4731 -69.4731 -69.4724 -69.4724
    -8.5671  -7.2808  -7.2808  -7.2627  -7.2232  -7.2232  -7.1430  -6.9954
    -6.9954  -6.9875  -6.9874  -6.9874  -6.8733  -6.8733  -6.8528  -6.8528
    -6.3307  -4.9970  -4.2370  -3.9957  -3.8205  -3.5693  -3.5693  -3.3605
    -3.2810  -3.2810  -3.2653  -3.2653  -3.0691  -3.0691  -3.0660  -2.7232
    -2.7232  -2.7002  -2.7002  -2.5820  -2.5633  -2.4829  -2.3034  -2.2980
    -2.2980  -2.2943  -2.2943  -2.1379  -2.1379  -1.8929  -1.8900  -1.8900
    -1.8163  -1.8163  -1.7807  -1.7807  -1.7287  -1.7287  -1.6481  -1.6481
    -1.6239  -1.5182  -1.4485  -1.4485  -1.4440  -1.2498  -1.2399  -0.2885
    -0.2885  -0.2323   0.1022   0.7099   0.7099   0.7229   1.1760   1.1760
     1.2032   3.2178   3.8134   3.8134   3.9816   4.3678   4.6545   4.9995
     5.2249   5.2249   5.2803   5.9390   5.9428   5.9428   6.2813   7.8845
     8.1108   8.3613   8.5532   8.5532   8.5710   8.7475   8.7475  10.4310
    10.6844

[...]

          k =-0.0955-0.0551 0.0000 ( 14638 PWs)   bands (ev):

[...]

     the Fermi energy is     0.4504 ev

!    total energy              =   -5032.77444735 Ry
     Harris-Foulkes estimate   =   -5032.77443443 Ry
     estimated scf accuracy    <       0.00000054 Ry

     The total energy is the sum of the following terms:

     one-electron contribution =  -37292.53481576 Ry
     hartree contribution      =   18650.56935990 Ry
     xc contribution           =    -490.32720553 Ry
     ewald contribution        =   14099.54114560 Ry
     electric field correction =       0.00000001 Ry
     smearing contrib. (-TS)   =      -0.02293157 Ry

     convergence has been achieved in  17 iterations

 BEEF-vdW xc energy contributions
           1 :   -434.991435964974
           2 :    394.480218211088
           3 :   -325.960693520315
           4 :    248.510077406725
           5 :   -179.442551330126
           6 :    127.974824003766
           7 :   -93.7796201972055
[...]
                l(1) =   0
                l(2) =   0
                l(3) =   1
                l(4) =   1
                l(5) =   2
                l(6) =   2
     Q(r) pseudized with  8 coefficients,  rinner =    1.150   1.150   1.150
                                                       1.150   1.150

     PseudoPot. # 2 for Zn read from file:
     /afs/slac.stanford.edu/u/if/mamunm/psp/gbrv1.5pbe/Zn.UPF
     MD5 check sum: df62231357ef9e81f77b2b3087fa5675
     Pseudo is Ultrasoft, Zval = 20.0
     Generated by new atomic code, or converted to UPF format
     Using radial grid of  943 points,  6 beta functions with:
                l(1) =   0
                l(2) =   0
                l(3) =   1
                l(4) =   1
                l(5) =   2
                l(6) =   2
     Q(r) pseudized with  8 coefficients,  rinner =    1.100   1.100   1.100
                                                       1.100   1.100

     vdW kernel table read from file vdW_kernel_table
     MD5 check sum: 095c7af220d748ca6e76c0b4c6cfb241

     atomic species   valence    mass     pseudopotential
        Cu1           19.00    63.54600     Cu( 1.00)
        Zn1           20.00    65.38000     Zn( 1.00)

     No symmetry found

   Cartesian axes

     site n.     atom                  positions (alat units)
         1           Cu1 tau(   1) = (   0.0000000   0.0000000  10.0000000  )
         2           Cu1 tau(   2) = (  -1.3094641   2.2680584  10.0000000  )
         3           Cu1 tau(   3) = (   1.3094641   2.2680584  10.0000000  )
         4           Zn1 tau(   4) = (   2.6189282   0.0000000  10.0000000  )
         5           Cu1 tau(   5) = (   2.6189282   1.5120389  12.1383459  )
         6           Cu1 tau(   6) = (   1.3094641   3.7800973  12.1383459  )
         7           Cu1 tau(   7) = (  -1.3094641   3.7800973  12.1383459  )
         8           Zn1 tau(   8) = (   0.0000000   1.5120389  12.1383459  )
         9           Cu1 tau(   9) = (   0.0000166   3.0330594  14.2545795  )
        10           Cu1 tau(  10) = (   1.3172495   0.7515280  14.2545659  )
        11           Cu1 tau(  11) = (   3.9206085   0.7515212  14.2545790  )
        12           Zn1 tau(  12) = (   2.6189323   3.0240743  14.4391975  )

     number of k points=    20  Fermi-Dirac smearing, width (Ry)=  0.0110
                       cart. coord. in units 2pi/alat
        k(    1) = (   0.0000000   0.0000000   0.0000000), wk =   0.0555556
        k(    2) = (   0.0000000   0.0367421   0.0000000), wk =   0.1111111
        k(    3) = (   0.0000000   0.0734843   0.0000000), wk =   0.1111111
        k(    4) = (   0.0000000  -0.1102264   0.0000000), wk =   0.0555556
        k(    5) = (   0.0318196   0.0183711   0.0000000), wk =   0.1111111
        k(    6) = (   0.0318196   0.0551132   0.0000000), wk =   0.1111111
        k(    7) = (   0.0318196   0.0918554   0.0000000), wk =   0.1111111
        k(    8) = (   0.0318196  -0.0918554   0.0000000), wk =   0.1111111
        k(    9) = (   0.0318196  -0.0551132   0.0000000), wk =   0.1111111
        k(   10) = (   0.0318196  -0.0183711   0.0000000), wk =   0.1111111
        k(   11) = (   0.0636393   0.0367421   0.0000000), wk =   0.1111111
        k(   12) = (   0.0636393   0.0734843   0.0000000), wk =   0.1111111
        k(   13) = (   0.0636393   0.1102264   0.0000000), wk =   0.1111111
        k(   14) = (   0.0636393  -0.0734843   0.0000000), wk =   0.1111111
        k(   15) = (   0.0636393  -0.0367421   0.0000000), wk =   0.1111111
        k(   16) = (   0.0636393   0.0000000   0.0000000), wk =   0.1111111
        k(   17) = (  -0.0954589  -0.0551132   0.0000000), wk =   0.0555556
        k(   18) = (  -0.0954589  -0.0183711   0.0000000), wk =   0.1111111
        k(   19) = (  -0.0954589   0.0183711   0.0000000), wk =   0.1111111
        k(   20) = (  -0.0954589  -0.1653397   0.0000000), wk =   0.0555556

     Largest allocated arrays     est. size (Mb)     dimensions
     Largest temporary arrays     est. size (Mb)     dimensions

     Initial potential from superposition of free atoms
     Check: negative starting charge=   -0.000447

     starting charge  221.99956, renormalised to  231.00000

[...]

     *
     * You are using vdW-DF for exchange-correlation in this calculation.
     * Please cite the following three references that made this development
     * possible:
     *
     *   M. Dion, H. Rydberg, E. Schroder, D. C. Langreth, and
     *   B. I. Lundqvist, Phys. Rev. Lett. 92, 246401 (2004).
     *
     *   T. Thonhauser, V. R. Cooper, S. Li, A. Puzder, P. Hyldgaard, and
     *   D. C. Langreth, Phys. Rev. B 76, 125112 (2007).
     *
     *   G. Roman-Perez and J. M. Soler, Phys. Rev. Lett. 103, 096102 (2009).
     *
     *
     * If you are using vdW-DF2, please also cite:
     *
     *   K. Lee, E. D. Murray, L. Kong, B. I. Lundqvist, and
     *   D. C. Langreth, Phys. Rev. B 82, 081101(R) (2010).
     *
     *
     * If you are calculating the stress with vdW-DF, please also cite:
     *
     *   R. Sabatini, E. Kucukbenli, B. Kolb, T. Thonhauser, and
     *   S. de Gironcoli, J. Phys.: Condens. Matter 24, 424209 (2012).
     *

     Carrying out vdW-DF run using the following parameters:

     Nqs =      20    Nr_points =    1024   r_max =   100.000
     q_mesh =
               0.00001000     0.04494208     0.09755937     0.15916263
               0.23128650     0.31572767     0.41458969     0.53033537
               0.66584808     0.82450364     1.01025438     1.22772762
               1.48234092     1.78043706     2.12944203     2.53805004
               3.01644009     3.57652955     4.23227104     5.00000000

     Gradients computed in reciprocal space

[...]

     Starting wfc are  156 randomized atomic wfcs

     Self-consistent Calculation

[...]

     total energy              =   -5032.77682352 Ry
     Harris-Foulkes estimate   =   -5032.77682183 Ry
     estimated scf accuracy    <       0.00000134 Ry

     iteration # 20     ecut=    36.75 Ry     beta=0.10
     Davidson diagonalization with overlap
     ethr =  5.79E-10,  avg # of iterations =  1.6

[...]

     negative rho (up, down):  1.098E-03 0.000E+00

     Adding external electric field

     Computed dipole along edir(3) :
        Dipole                0.0068 Ry au,          0.0174 Debye
        Dipole field          0.0000 Ry au

        Potential amp.       -0.0020 Ry
        Total length         44.7294 bohr

     End of self-consistent calculation

[...]

          k = 0.0636 0.0000 0.0000 ( 14635 PWs)   bands (ev):

[...]

          k =-0.0955-0.1653 0.0000 ( 14638 PWs)   bands (ev):

  -126.1159-125.9219-125.8645-112.4397-112.4381-112.4365-112.1355-112.1339
  -112.1323-112.1147-112.1131-112.1115 -80.2940 -80.2939 -80.2904 -80.1095
   -80.0944 -80.0943 -80.0527 -80.0377 -80.0376 -69.8632 -69.8499 -69.8487
   -69.8470 -69.8462 -69.8367 -69.8162 -69.8085 -69.7965 -69.5816 -69.5726
   -69.5674 -69.5621 -69.5532 -69.5528 -69.5479 -69.5397 -69.5343 -69.5229
   -69.5213 -69.5042 -69.4844 -69.4823 -69.4798 -69.4620 -69.4599 -69.4575
    -7.3199  -7.1768  -7.1610  -7.1600  -7.1217  -7.0236  -7.0050  -6.9309
    -6.9013  -6.8972  -6.8562  -6.8405  -6.8173  -6.8079  -6.7638  -6.4349
    -6.4018  -4.8988  -4.8522  -4.1001  -3.9392  -3.9128  -3.5863  -3.3198
    -3.2760  -3.1855  -3.1167  -3.0892  -3.0204  -2.9988  -2.9711  -2.8938
    -2.8576  -2.7496  -2.6432  -2.6244  -2.5248  -2.5128  -2.4830  -2.4753
    -2.4388  -2.4169  -2.3807  -2.3064  -2.2792  -2.2257  -2.2081  -2.1566
    -2.1532  -2.0994  -2.0824  -2.0408  -2.0229  -2.0042  -1.9390  -1.9149
    -1.8468  -1.8338  -1.7514  -1.6953  -1.6334  -1.6324  -1.4785  -1.3951
    -0.8346  -0.1429  -0.0921  -0.0501   0.6149   0.8307   2.4519   2.6377
     3.0562   3.1591   5.4245   5.5645   5.9234   6.0797   6.1421   6.3178
     6.3354   6.4631   6.4921   6.7607   6.8000   6.8096   7.7385   7.7580
     7.8545   7.9362   7.9911   8.1374   8.2100   8.2135   9.0050   9.4033
     9.5477

     the Fermi energy is     0.4561 ev

!    total energy              =   -5032.77683123 Ry
     Harris-Foulkes estimate   =   -5032.77682364 Ry
     estimated scf accuracy    <       0.00000035 Ry

     The total energy is the sum of the following terms:

     one-electron contribution =  -37163.05390524 Ry
     hartree contribution      =   18586.04180029 Ry
     xc contribution           =    -490.30690607 Ry
     ewald contribution        =   14034.56433494 Ry
     electric field correction =       0.00000015 Ry
     smearing contrib. (-TS)   =      -0.02215530 Ry

     convergence has been achieved in  20 iterations

 BEEF-vdW xc energy contributions
           1 :   -434.969383205338
           2 :    394.442850761596
           3 :   -325.904838312835
           4 :    248.447602396627
           5 :   -179.391510981955
           6 :    127.945574091487
           7 :   -93.7664321517980
           8 :    70.3514327507323
           9 :   -50.6100373739990
          10 :    31.1423710575923
          11 :   -13.0771181803070
          12 :  -0.270537945752096
          13 :    6.74886200059490
          14 :   -7.30349404345634
          15 :    5.39707886065707
          16 :   -4.67314199884333
          17 :    6.70655755538911
          18 :   -10.3878226402447
          19 :    13.1784807216957
          20 :   -13.1720356446453
          21 :    10.4592283565441
          22 :   -6.93378798936453
          23 :    4.83424913072417
          24 :   -5.16538552902534
          25 :    7.11574541192664
          26 :   -8.79345375539947
          27 :    8.65342572343832
          28 :   -6.56361472503568
          29 :    3.79537779571865
          30 :   -2.02996260056324
          31 :   -34.2882030895320
          32 :   -23.4200678778232

     Forces acting on atoms (Ry/au):

     negative rho (up, down):  1.098E-03 0.000E+00
     atom    1 type  1   force =     0.00000015   -0.00140554    0.00283281
     atom    2 type  1   force =    -0.00121830    0.00070338    0.00283437
     atom    3 type  1   force =     0.00121778    0.00070207    0.00283382
     atom    4 type  2   force =    -0.00000041    0.00000069   -0.01527973
     atom    5 type  1   force =     0.00000120    0.00384397    0.00216579
     atom    6 type  1   force =     0.00332952   -0.00192127    0.00216751
     atom    7 type  1   force =    -0.00332924   -0.00192256    0.00216630
     atom    8 type  2   force =    -0.00000117   -0.00000012   -0.00166055
     atom    9 type  1   force =    -0.00000279   -0.00113041    0.00057487
     atom   10 type  1   force =    -0.00097826    0.00056331    0.00057703
     atom   11 type  1   force =     0.00097996    0.00056632    0.00057483
     atom   12 type  2   force =     0.00000157    0.00000017    0.00021295

     Total force =     0.018153     Total SCF correction =     0.002614
     SCF correction compared to forces is large: reduce conv_thr to get better values

     entering subroutine stress ...

     negative rho (up, down):  1.098E-03 0.000E+00
          total   stress  (Ry/bohr**3)                   (kbar)     P=  -20.73
  -0.00017583   0.00000000  -0.00000000        -25.86      0.00     -0.00
   0.00000000  -0.00017583   0.00000000          0.00    -25.86      0.00
  -0.00000000   0.00000000  -0.00007114         -0.00      0.00    -10.47

 !ASE

     Writing output data file calc.save

     General routines

     Parallel routines

   This run was terminated on:  20:57:55  25Dec2018

   JOB DONE.
Job  /afs/slac/g/suncat/bin/suncat-tsmpirun -x LD_LIBRARY_PATH -wdir /scratch/qe109607_oKa9L pw.x -in pw.inp

TID   HOST_NAME   COMMAND_LINE            STATUS            TERMINATION_TIME
00000 suncat0050 pw.x -in pw.inp   Done                     12/25/2018 20:57:55
00001 suncat0050 pw.x -in pw.inp   Done                     12/25/2018 20:57:55
00002 suncat0050 pw.x -in pw.inp   Done                     12/25/2018 20:57:55
00003 suncat0050 pw.x -in pw.inp   Done                     12/25/2018 20:57:55
00004 suncat0050 pw.x -in pw.inp   Done                     12/25/2018 20:57:55
00005 suncat0050 pw.x -in pw.inp   Done                     12/25/2018 20:57:55
00006 suncat0050 pw.x -in pw.inp   Done                     12/25/2018 20:57:55
00007 suncat0050 pw.x -in pw.inp   Done                     12/25/2018 20:57:55
00008 suncat0049 pw.x -in pw.inp   Done                     12/25/2018 20:57:55
00009 suncat0049 pw.x -in pw.inp   Done                     12/25/2018 20:57:55
00010 suncat0049 pw.x -in pw.inp   Done                     12/25/2018 20:57:55
00011 suncat0049 pw.x -in pw.inp   Done                     12/25/2018 20:57:55
00012 suncat0049 pw.x -in pw.inp   Done                     12/25/2018 20:57:55
00013 suncat0049 pw.x -in pw.inp   Done                     12/25/2018 20:57:55
00014 suncat0049 pw.x -in pw.inp   Done                     12/25/2018 20:57:55
00015 suncat0049 pw.x -in pw.inp   Done                     12/25/2018 20:57:55
00016 suncat0031 pw.x -in pw.inp   Done                     12/25/2018 20:57:55
00017 suncat0031 pw.x -in pw.inp   Done                     12/25/2018 20:57:55
00018 suncat0031 pw.x -in pw.inp   Done                     12/25/2018 20:57:55
00019 suncat0031 pw.x -in pw.inp   Done                     12/25/2018 20:57:55
00020 suncat0031 pw.x -in pw.inp   Done                     12/25/2018 20:57:55
00021 suncat0031 pw.x -in pw.inp   Done                     12/25/2018 20:57:55
00022 suncat0031 pw.x -in pw.inp   Done                     12/25/2018 20:57:55
00023 suncat0031 pw.x -in pw.inp   Done                     12/25/2018 20:57:55
00024 suncat0030 pw.x -in pw.inp   Done                     12/25/2018 20:57:55
00025 suncat0030 pw.x -in pw.inp   Done                     12/25/2018 20:57:55
00026 suncat0030 pw.x -in pw.inp   Done                     12/25/2018 20:57:55
00027 suncat0030 pw.x -in pw.inp   Done                     12/25/2018 20:57:55
00028 suncat0030 pw.x -in pw.inp   Done                     12/25/2018 20:57:55
00029 suncat0030 pw.x -in pw.inp   Done                     12/25/2018 20:57:55
00030 suncat0030 pw.x -in pw.inp   Done                     12/25/2018 20:57:55
00031 suncat0030 pw.x -in pw.inp   Done                     12/25/2018 20:57:55
00032 suncat0280 pw.x -in pw.inp   Done                     12/25/2018 20:57:55
00033 suncat0280 pw.x -in pw.inp   Done                     12/25/2018 20:57:55
00034 suncat0280 pw.x -in pw.inp   Done                     12/25/2018 20:57:55
00035 suncat0280 pw.x -in pw.inp   Done                     12/25/2018 20:57:55
00036 suncat0280 pw.x -in pw.inp   Done                     12/25/2018 20:57:55
00037 suncat0280 pw.x -in pw.inp   Done                     12/25/2018 20:57:55
00038 suncat0280 pw.x -in pw.inp   Done                     12/25/2018 20:57:55
00039 suncat0280 pw.x -in pw.inp   Done                     12/25/2018 20:57:55
00040 suncat0279 pw.x -in pw.inp   Done                     12/25/2018 20:57:55
00041 suncat0279 pw.x -in pw.inp   Done                     12/25/2018 20:57:55
00042 suncat0279 pw.x -in pw.inp   Done                     12/25/2018 20:57:55
00043 suncat0279 pw.x -in pw.inp   Done                     12/25/2018 20:57:55
00044 suncat0279 pw.x -in pw.inp   Done                     12/25/2018 20:57:55
00045 suncat0279 pw.x -in pw.inp   Done                     12/25/2018 20:57:55
00046 suncat0279 pw.x -in pw.inp   Done                     12/25/2018 20:57:55
00047 suncat0279 pw.x -in pw.inp   Done                     12/25/2018 20:57:55
00048 suncat0278 pw.x -in pw.inp   Done                     12/25/2018 20:57:55
00049 suncat0278 pw.x -in pw.inp   Done                     12/25/2018 20:57:55
00050 suncat0278 pw.x -in pw.inp   Done                     12/25/2018 20:57:55
00051 suncat0278 pw.x -in pw.inp   Done                     12/25/2018 20:57:55
00052 suncat0278 pw.x -in pw.inp   Done                     12/25/2018 20:57:55
00053 suncat0278 pw.x -in pw.inp   Done                     12/25/2018 20:57:55
00054 suncat0278 pw.x -in pw.inp   Done                     12/25/2018 20:57:55
00055 suncat0278 pw.x -in pw.inp   Done                     12/25/2018 20:57:55
00056 suncat0099 pw.x -in pw.inp   Done                     12/25/2018 20:57:55
00057 suncat0099 pw.x -in pw.inp   Done                     12/25/2018 20:57:55
00058 suncat0099 pw.x -in pw.inp   Done                     12/25/2018 20:57:55
00059 suncat0099 pw.x -in pw.inp   Done                     12/25/2018 20:57:55
00060 suncat0099 pw.x -in pw.inp   Done                     12/25/2018 20:57:55
00061 suncat0099 pw.x -in pw.inp   Done                     12/25/2018 20:57:55
00062 suncat0099 pw.x -in pw.inp   Done                     12/25/2018 20:57:55
00063 suncat0099 pw.x -in pw.inp   Done                     12/25/2018 20:57:55