     Program PWSCF v.5.1rc2 (svn rev. 11289) starts on  1Jan2019 at 16:16:17

     Current dimensions of program PWSCF are:
     Max number of different atomic species (ntypx) = 10
     Max number of k-points (npk) =  40000
     Max angular momentum in pseudopotentials (lmaxx) =  3
     Presently stress not available with electric field

     IMPORTANT: XC functional enforced from input :
     Exchange-correlation      = BEEF-VDW ( 1  4 27 13 2)
     Any further DFT definition will be discarded
     Please, verify this is what you really want

     Subspace diagonalization in iterative solution of the eigenvalue problem:
     a serial algorithm will be used

     bravais-lattice index     =            0
     lattice parameter (alat)  =       1.8897  a.u.
     unit-cell volume          =    4911.3877 (a.u.)^3
     number of atoms/cell      =           12
     number of atomic types    =            2
     number of electrons       =       174.00
     number of Kohn-Sham states=          117
     kinetic-energy cutoff     =      36.7493  Ry
     charge density cutoff     =     367.4932  Ry
     convergence threshold     =      1.0E-06
     mixing beta               =       0.1000
     number of iterations used =           10  plain     mixing
     Exchange-correlation      = BEEF-VDW ( 1  4 27 13 2)
     nstep                     =           50

     celldm(1)=   1.889726  celldm(2)=   0.000000  celldm(3)=   0.000000
     celldm(4)=   0.000000  celldm(5)=   0.000000  celldm(6)=   0.000000

     crystal axes: (cart. coord. in units of alat)
               a(1) = (   5.826242   0.000000   0.000000 )
               a(2) = (  -2.913121   5.045674   0.000000 )
               a(3) = (   0.000000   0.000000  24.757107 )

     reciprocal axes: (cart. coord. in units 2 pi/alat)
               b(1) = (  0.171637  0.099095  0.000000 )
               b(2) = (  0.000000  0.198190  0.000000 )
               b(3) = (  0.000000  0.000000  0.040392 )

     PseudoPot. # 1 for Ta read from file:
     /afs/slac.stanford.edu/u/if/mamunm/psp/gbrv1.5pbe/Ta.UPF
     MD5 check sum: f8bbe9446314a3b8ea5d9f3e3836c939
     Pseudo is Ultrasoft + core correction, Zval = 13.0
     Generated by new atomic code, or converted to UPF format
     Using radial grid of  921 points,  7 beta functions with:
                l(1) =   0
                l(2) =   0
                l(3) =   1
                l(4) =   1
                l(5) =   2
                l(6) =   2
                l(7) =   3
     Q(r) pseudized with  6 coefficients,  rinner =    1.300   1.300   1.300
                                                       1.300   1.300   1.300
                                                       1.300

     PseudoPot. # 2 for Ga read from file:
     /afs/slac.stanford.edu/u/if/mamunm/psp/gbrv1.5pbe/Ga.UPF
     MD5 check sum: ccd671392a58a050fbb373893b4fcd66
     Pseudo is Ultrasoft + core correction, Zval = 19.0
     Generated by new atomic code, or converted to UPF format
     Using radial grid of  871 points,  6 beta functions with:
                l(1) =   0
                l(2) =   0
                l(3) =   1
                l(4) =   1
                l(5) =   2
                l(6) =   2
     Q(r) pseudized with  8 coefficients,  rinner =    1.250   1.250   1.250
                                                       1.250   1.250

     vdW kernel table read from file vdW_kernel_table
     MD5 check sum: 095c7af220d748ca6e76c0b4c6cfb241

     atomic species   valence    mass     pseudopotential
        Ta1           13.00   180.94788     Ta( 1.00)
        Ga1           19.00    69.72300     Ga( 1.00)

     No symmetry found

   Cartesian axes

     site n.     atom                  positions (alat units)
         1           Ta1 tau(   1) = (   0.0000000   0.0000000  10.0000000  )
         2           Ta1 tau(   2) = (  -1.4565606   2.5228369  10.0000000  )
         3           Ta1 tau(   3) = (   1.4565606   2.5228369  10.0000000  )
         4           Ga1 tau(   4) = (   2.9131212   0.0000000  10.0000000  )
         5           Ta1 tau(   5) = (   2.9131212   1.6818913  12.3785535  )
         6           Ta1 tau(   6) = (   1.4565606   4.2047282  12.3785535  )
         7           Ta1 tau(   7) = (  -1.4565606   4.2047282  12.3785535  )
         8           Ga1 tau(   8) = (   0.0000000   1.6818913  12.3785535  )
         9           Ta1 tau(   9) = (  -0.0000000   3.3637826  14.7571070  )
        10           Ta1 tau(  10) = (   1.4565606   0.8409456  14.7571070  )
        11           Ta1 tau(  11) = (   4.3696818   0.8409456  14.7571070  )
        12           Ga1 tau(  12) = (   2.9131212   3.3637826  14.7571070  )

     number of k points=    20  Fermi-Dirac smearing, width (Ry)=  0.0110
                       cart. coord. in units 2pi/alat
        k(    1) = (   0.0000000   0.0000000   0.0000000), wk =   0.0555556
        k(    2) = (   0.0000000   0.0330316   0.0000000), wk =   0.1111111
        k(    3) = (   0.0000000   0.0660632   0.0000000), wk =   0.1111111
        k(    4) = (   0.0000000  -0.0990948   0.0000000), wk =   0.0555556
        k(    5) = (   0.0286062   0.0165158   0.0000000), wk =   0.1111111
        k(    6) = (   0.0286062   0.0495474   0.0000000), wk =   0.1111111
        k(    7) = (   0.0286062   0.0825790   0.0000000), wk =   0.1111111
        k(    8) = (   0.0286062  -0.0825790   0.0000000), wk =   0.1111111
        k(    9) = (   0.0286062  -0.0495474   0.0000000), wk =   0.1111111
        k(   10) = (   0.0286062  -0.0165158   0.0000000), wk =   0.1111111
        k(   11) = (   0.0572124   0.0330316   0.0000000), wk =   0.1111111
        k(   12) = (   0.0572124   0.0660632   0.0000000), wk =   0.1111111
        k(   13) = (   0.0572124   0.0990948   0.0000000), wk =   0.1111111
        k(   14) = (   0.0572124  -0.0660632   0.0000000), wk =   0.1111111
        k(   15) = (   0.0572124  -0.0330316   0.0000000), wk =   0.1111111
        k(   16) = (   0.0572124   0.0000000   0.0000000), wk =   0.1111111
        k(   17) = (  -0.0858186  -0.0495474   0.0000000), wk =   0.0555556
        k(   18) = (  -0.0858186  -0.0165158   0.0000000), wk =   0.1111111
        k(   19) = (  -0.0858186   0.0165158   0.0000000), wk =   0.1111111
        k(   20) = (  -0.0858186  -0.1486422   0.0000000), wk =   0.0555556

     Largest allocated arrays     est. size (Mb)     dimensions
     Largest temporary arrays     est. size (Mb)     dimensions

     Initial potential from superposition of free atoms
     Check: negative starting charge=   -0.840235

     starting charge  170.98999, renormalised to  174.00000

     negative rho (up, down):  8.550E-01 0.000E+00

     *
     * You are using vdW-DF for exchange-correlation in this calculation.
     * Please cite the following three references that made this development
     * possible:
     *
     *   M. Dion, H. Rydberg, E. Schroder, D. C. Langreth, and
     *   B. I. Lundqvist, Phys. Rev. Lett. 92, 246401 (2004).
     *
     *   T. Thonhauser, V. R. Cooper, S. Li, A. Puzder, P. Hyldgaard, and
     *   D. C. Langreth, Phys. Rev. B 76, 125112 (2007).
     *
     *   G. Roman-Perez and J. M. Soler, Phys. Rev. Lett. 103, 096102 (2009).
     *
     *
     * If you are using vdW-DF2, please also cite:
     *
     *   K. Lee, E. D. Murray, L. Kong, B. I. Lundqvist, and
     *   D. C. Langreth, Phys. Rev. B 82, 081101(R) (2010).
     *
     *
     * If you are calculating the stress with vdW-DF, please also cite:
     *
     *   R. Sabatini, E. Kucukbenli, B. Kolb, T. Thonhauser, and
     *   S. de Gironcoli, J. Phys.: Condens. Matter 24, 424209 (2012).
     *

     Carrying out vdW-DF run using the following parameters:

     Nqs =      20    Nr_points =    1024   r_max =   100.000
     q_mesh =
               0.00001000     0.04494208     0.09755937     0.15916263
               0.23128650     0.31572767     0.41458969     0.53033537
               0.66584808     0.82450364     1.01025438     1.22772762
               1.48234092     1.78043706     2.12944203     2.53805004
               3.01644009     3.57652955     4.23227104     5.00000000

     Gradients computed in reciprocal space

     Adding external electric field

     Computed dipole along edir(3) :
        Dipole               -0.0000 Ry au,         -0.0000 Debye
        Dipole field         -0.0000 Ry au

        Potential amp.        0.0000 Ry
        Total length         45.6145 bohr

     Starting wfc are  153 randomized atomic wfcs

     Self-consistent Calculation

     iteration #  1     ecut=    36.75 Ry     beta=0.10
     Davidson diagonalization with overlap
     ethr =  1.00E-02,  avg # of iterations =  2.1

[...]

     total energy              =   -2538.80385323 Ry
     Harris-Foulkes estimate   =   -2539.50314807 Ry
     estimated scf accuracy    <       4.20344660 Ry

[...]

     End of self-consistent calculation

          k = 0.0000 0.0000 0.0000 ( 18511 PWs)   bands (ev):

   -92.6219 -92.6219 -92.6152 -92.3405 -92.3404 -92.3006 -92.3006 -92.3006
   -92.3006 -66.6993 -66.6961 -66.6403 -66.6403 -66.6395 -66.6395 -66.4705
   -66.4152 -66.4152 -33.4491 -33.3904 -33.3262 -33.2678 -33.2678 -33.2469
   -33.2469 -33.2468 -33.1967 -33.1966 -33.1391 -33.0384 -33.0384 -32.9133
   -32.9133 -32.8439 -32.7963 -32.6384 -32.6383 -32.6266 -32.6021 -32.5634
   -32.5634 -32.5543 -32.5543 -32.4102 -32.4102 -13.0073 -13.0073 -13.0001
   -12.9808 -12.9808 -12.6969 -12.6888 -12.6735 -12.6735 -12.6655 -12.6655
   -12.6609 -12.6609 -12.6581 -12.6581  -7.3247  -5.7008  -5.3363  -3.0820
    -2.7254  -2.6408  -1.6821  -1.6821  -1.1371  -1.1370  -0.9946  -0.9946
    -0.9282  -0.7978  -0.5638  -0.5637   0.1158   0.1158   0.7765   0.7936
     1.2252   1.3673   1.3673   1.5654   1.5654   1.7291   1.7291   1.7377
     1.7377   1.9735   2.1787   2.3908   3.2140   3.5386   3.7738   3.7738
     4.0716   4.0716   4.1756   4.2784   4.2784   4.3869   4.6311   4.6311
     4.7385   4.7385   5.1888   5.1888   5.2795   5.4046   5.5326   5.5326
     5.6981   5.6981   5.7223   5.8980   6.5423

[...]

          k =-0.0858-0.0495 0.0000 ( 18452 PWs)   bands (ev):

[...]

     the Fermi energy is     1.6455 ev

!    total energy              =   -2538.57707251 Ry
     Harris-Foulkes estimate   =   -2538.57706847 Ry
     estimated scf accuracy    <       0.00000014 Ry

     The total energy is the sum of the following terms:

     one-electron contribution =  -15923.54216854 Ry
     hartree contribution      =    7952.34578041 Ry
     xc contribution           =    -541.67374606 Ry
     ewald contribution        =    5974.37875169 Ry
     electric field correction =       0.00000000 Ry
     smearing contrib. (-TS)   =      -0.08569002 Ry

     convergence has been achieved in  16 iterations

 BEEF-vdW xc energy contributions
           1 :   -478.734103271053
           2 :    440.302556768676
           3 :   -373.845238672797
           4 :    295.713454220547
           5 :   -221.794090234214
           6 :    162.256925029801
           7 :   -119.611287662747
           8 :    90.3635047688113
           9 :   -68.7687069198346
          10 :    50.3820323361804
          11 :   -33.6902528137213
[...]
     MD5 check sum: f8bbe9446314a3b8ea5d9f3e3836c939
     Pseudo is Ultrasoft + core correction, Zval = 13.0
     Generated by new atomic code, or converted to UPF format
     Using radial grid of  921 points,  7 beta functions with:
                l(1) =   0
                l(2) =   0
                l(3) =   1
                l(4) =   1
                l(5) =   2
                l(6) =   2
                l(7) =   3
     Q(r) pseudized with  6 coefficients,  rinner =    1.300   1.300   1.300
                                                       1.300   1.300   1.300
                                                       1.300

     PseudoPot. # 2 for Ga read from file:
     /afs/slac.stanford.edu/u/if/mamunm/psp/gbrv1.5pbe/Ga.UPF
     MD5 check sum: ccd671392a58a050fbb373893b4fcd66
     Pseudo is Ultrasoft + core correction, Zval = 19.0
     Generated by new atomic code, or converted to UPF format
     Using radial grid of  871 points,  6 beta functions with:
                l(1) =   0
                l(2) =   0
                l(3) =   1
                l(4) =   1
                l(5) =   2
                l(6) =   2
     Q(r) pseudized with  8 coefficients,  rinner =    1.250   1.250   1.250
                                                       1.250   1.250

     vdW kernel table read from file vdW_kernel_table
     MD5 check sum: 095c7af220d748ca6e76c0b4c6cfb241

     atomic species   valence    mass     pseudopotential
        Ta1           13.00   180.94788     Ta( 1.00)
        Ga1           19.00    69.72300     Ga( 1.00)

     No symmetry found

   Cartesian axes

     site n.     atom                  positions (alat units)
         1           Ta1 tau(   1) = (   0.0000000   0.0000000  10.0000000  )
         2           Ta1 tau(   2) = (  -1.4565606   2.5228369  10.0000000  )
         3           Ta1 tau(   3) = (   1.4565606   2.5228369  10.0000000  )
         4           Ga1 tau(   4) = (   2.9131212   0.0000000  10.0000000  )
         5           Ta1 tau(   5) = (   2.9131212   1.6818913  12.3785535  )
         6           Ta1 tau(   6) = (   1.4565606   4.2047282  12.3785535  )
         7           Ta1 tau(   7) = (  -1.4565606   4.2047282  12.3785535  )
         8           Ga1 tau(   8) = (   0.0000000   1.6818913  12.3785535  )
         9           Ta1 tau(   9) = (   0.0000642   3.3451090  14.6503809  )
        10           Ta1 tau(  10) = (   1.4404191   0.8503196  14.6503715  )
        11           Ta1 tau(  11) = (   4.3859161   0.8502969  14.6503809  )
        12           Ga1 tau(  12) = (   2.9132321   3.3637930  15.0034871  )

     number of k points=    20  Fermi-Dirac smearing, width (Ry)=  0.0110
                       cart. coord. in units 2pi/alat
        k(    1) = (   0.0000000   0.0000000   0.0000000), wk =   0.0555556
        k(    2) = (   0.0000000   0.0330316   0.0000000), wk =   0.1111111
        k(    3) = (   0.0000000   0.0660632   0.0000000), wk =   0.1111111
        k(    4) = (   0.0000000  -0.0990948   0.0000000), wk =   0.0555556
        k(    5) = (   0.0286062   0.0165158   0.0000000), wk =   0.1111111
        k(    6) = (   0.0286062   0.0495474   0.0000000), wk =   0.1111111
        k(    7) = (   0.0286062   0.0825790   0.0000000), wk =   0.1111111
        k(    8) = (   0.0286062  -0.0825790   0.0000000), wk =   0.1111111
        k(    9) = (   0.0286062  -0.0495474   0.0000000), wk =   0.1111111
        k(   10) = (   0.0286062  -0.0165158   0.0000000), wk =   0.1111111
        k(   11) = (   0.0572124   0.0330316   0.0000000), wk =   0.1111111
        k(   12) = (   0.0572124   0.0660632   0.0000000), wk =   0.1111111
        k(   13) = (   0.0572124   0.0990948   0.0000000), wk =   0.1111111
        k(   14) = (   0.0572124  -0.0660632   0.0000000), wk =   0.1111111
        k(   15) = (   0.0572124  -0.0330316   0.0000000), wk =   0.1111111
        k(   16) = (   0.0572124   0.0000000   0.0000000), wk =   0.1111111
        k(   17) = (  -0.0858186  -0.0495474   0.0000000), wk =   0.0555556
        k(   18) = (  -0.0858186  -0.0165158   0.0000000), wk =   0.1111111
        k(   19) = (  -0.0858186   0.0165158   0.0000000), wk =   0.1111111
        k(   20) = (  -0.0858186  -0.1486422   0.0000000), wk =   0.0555556

     Largest allocated arrays     est. size (Mb)     dimensions
     Largest temporary arrays     est. size (Mb)     dimensions

     Initial potential from superposition of free atoms
     Check: negative starting charge=   -0.841946

     starting charge  170.98999, renormalised to  174.00000

[...]

     *
     * You are using vdW-DF for exchange-correlation in this calculation.
     * Please cite the following three references that made this development
     * possible:
     *
     *   M. Dion, H. Rydberg, E. Schroder, D. C. Langreth, and
     *   B. I. Lundqvist, Phys. Rev. Lett. 92, 246401 (2004).
     *
     *   T. Thonhauser, V. R. Cooper, S. Li, A. Puzder, P. Hyldgaard, and
     *   D. C. Langreth, Phys. Rev. B 76, 125112 (2007).
     *
     *   G. Roman-Perez and J. M. Soler, Phys. Rev. Lett. 103, 096102 (2009).
     *
     *
     * If you are using vdW-DF2, please also cite:
     *
     *   K. Lee, E. D. Murray, L. Kong, B. I. Lundqvist, and
     *   D. C. Langreth, Phys. Rev. B 82, 081101(R) (2010).
     *
     *
     * If you are calculating the stress with vdW-DF, please also cite:
     *
     *   R. Sabatini, E. Kucukbenli, B. Kolb, T. Thonhauser, and
     *   S. de Gironcoli, J. Phys.: Condens. Matter 24, 424209 (2012).
     *

     Carrying out vdW-DF run using the following parameters:

     Nqs =      20    Nr_points =    1024   r_max =   100.000
     q_mesh =
               0.00001000     0.04494208     0.09755937     0.15916263
               0.23128650     0.31572767     0.41458969     0.53033537
               0.66584808     0.82450364     1.01025438     1.22772762
               1.48234092     1.78043706     2.12944203     2.53805004
               3.01644009     3.57652955     4.23227104     5.00000000

     Gradients computed in reciprocal space

[...]

     Starting wfc are  153 randomized atomic wfcs

     Self-consistent Calculation

[...]

     total energy              =   -2538.60800404 Ry
     Harris-Foulkes estimate   =   -2538.60800345 Ry
     estimated scf accuracy    <       0.00000265 Ry

     iteration # 16     ecut=    36.75 Ry     beta=0.10
     Davidson diagonalization with overlap
     ethr =  1.52E-09,  avg # of iterations =  2.0

[...]

     negative rho (up, down):  8.795E-01 0.000E+00

     Adding external electric field

     Computed dipole along edir(3) :
        Dipole               -0.0209 Ry au,         -0.0532 Debye
        Dipole field         -0.0001 Ry au

        Potential amp.        0.0049 Ry
        Total length         45.6145 bohr

     End of self-consistent calculation

[...]

          k = 0.0572 0.0000 0.0000 ( 18493 PWs)   bands (ev):

[...]

          k =-0.0858-0.1486 0.0000 ( 18452 PWs)   bands (ev):

   -92.6634 -92.6634 -92.6551 -92.3823 -92.3417 -92.3417 -92.3400 -92.2804
   -92.2804 -66.7140 -66.6949 -66.6755 -66.6476 -66.6273 -66.6070 -66.4701
   -66.4528 -66.4346 -33.3529 -33.3471 -33.3033 -33.2273 -33.2051 -33.1900
   -33.1671 -33.1070 -33.1053 -33.0902 -33.0501 -33.0203 -33.0199 -33.0027
   -32.9621 -32.9491 -32.9093 -32.8548 -32.7936 -32.7876 -32.7693 -32.6329
   -32.6090 -32.5753 -32.5710 -32.5364 -32.4414 -13.0514 -13.0413 -13.0382
   -13.0263 -13.0249 -12.7270 -12.7062 -12.7058 -12.6939 -12.6859 -12.6666
   -12.6401 -12.6396 -12.6200 -12.6123  -6.0485  -5.4090  -4.6167  -3.6609
    -2.8526  -2.6976  -2.3456  -1.6610  -1.0685  -0.9802  -0.9284  -0.6557
    -0.6008  -0.5127  -0.2304  -0.0498   0.2844   0.3362   0.4283   0.4840
     0.5381   0.8202   0.8983   0.9541   1.0657   1.2980   1.3545   1.7711
     1.8066   1.9282   2.0604   2.3055   2.4400   2.9161   3.2814   3.4454
     3.6293   3.7216   3.7266   3.8018   3.8988   4.1131   4.1156   4.2912
     4.3028   4.3562   4.5683   4.8234   4.9635   5.2627   5.7608   5.8128
     5.8855   5.9208   6.7544   6.9835   7.1656

     the Fermi energy is     1.6133 ev

!    total energy              =   -2538.60800720 Ry
     Harris-Foulkes estimate   =   -2538.60800420 Ry
     estimated scf accuracy    <       0.00000046 Ry

     The total energy is the sum of the following terms:

     one-electron contribution =  -15898.43858234 Ry
     hartree contribution      =    7939.69418907 Ry
     xc contribution           =    -541.78050780 Ry
     ewald contribution        =    5961.99516274 Ry
     electric field correction =       0.00000112 Ry
     smearing contrib. (-TS)   =      -0.07827000 Ry

     convergence has been achieved in  16 iterations

 BEEF-vdW xc energy contributions
           1 :   -479.251274593347
           2 :    440.840853917137
           3 :   -374.407745327364
           4 :    296.276391480455
           5 :   -222.315893102503
           6 :    162.702225401967
           7 :   -119.974348769069
           8 :    90.6752405900995
           9 :   -69.0818307276846
          10 :    50.7424570011951
          11 :   -34.1116855941124
          12 :    19.9719135610153
          13 :   -9.63789355501103
          14 :    3.39203849363298
          15 :  -9.361629035799979E-002
          16 :   -2.06866171533875
          17 :    4.44496928731303
          18 :   -7.26639369351005
          19 :    9.82504919192235
          20 :   -11.2288531707625
          21 :    11.1302029471493
          22 :   -9.95256448289342
          23 :    8.55403355747762
          24 :   -7.65381486185254
          25 :    7.44935460805499
          26 :   -7.64702736726429
          27 :    7.80172466214270
          28 :   -7.66499810805794
          29 :    7.29285868787707
          30 :   -6.89017529174032
          31 :   -40.6270641297027
          32 :   -29.6245864383012

     Forces acting on atoms (Ry/au):

     negative rho (up, down):  8.795E-01 0.000E+00
     atom    1 type  1   force =     0.00000035    0.00312029    0.02446159
     atom    2 type  1   force =     0.00270384   -0.00156079    0.02446139
     atom    3 type  1   force =    -0.00270377   -0.00156098    0.02446125
     atom    4 type  2   force =    -0.00000068    0.00000249   -0.03266680
     atom    5 type  1   force =     0.00000077    0.01137956   -0.00484074
     atom    6 type  1   force =     0.00986082   -0.00569156   -0.00484373
     atom    7 type  1   force =    -0.00985135   -0.00568675   -0.00483627
     atom    8 type  2   force =    -0.00001046    0.00000492   -0.02314492
     atom    9 type  1   force =    -0.00000004    0.00129639   -0.00134314
     atom   10 type  1   force =     0.00112762   -0.00065370   -0.00134142
     atom   11 type  1   force =    -0.00111852   -0.00064791   -0.00134196
     atom   12 type  2   force =    -0.00000859   -0.00000196    0.00097474

     Total force =     0.062429     Total SCF correction =     0.002929

     entering subroutine stress ...

     negative rho (up, down):  8.795E-01 0.000E+00
          total   stress  (Ry/bohr**3)                   (kbar)     P=  -22.34
  -0.00018967   0.00000001  -0.00000001        -27.90      0.00     -0.00
   0.00000001  -0.00018967  -0.00000000          0.00    -27.90     -0.00
  -0.00000001  -0.00000000  -0.00007618         -0.00     -0.00    -11.21

 !ASE

     Writing output data file calc.save

     General routines

     Parallel routines

   This run was terminated on:  17:38:17   1Jan2019

   JOB DONE.
Job  /afs/slac/g/suncat/bin/suncat-tsmpirun -x LD_LIBRARY_PATH -wdir /scratch/qe649098_1GmzH pw.x -in pw.inp

TID   HOST_NAME   COMMAND_LINE            STATUS            TERMINATION_TIME
00000 suncat0068 pw.x -in pw.inp   Done                     01/01/2019 17:38:17
00001 suncat0068 pw.x -in pw.inp   Done                     01/01/2019 17:38:17
00002 suncat0068 pw.x -in pw.inp   Done                     01/01/2019 17:38:17
00003 suncat0068 pw.x -in pw.inp   Done                     01/01/2019 17:38:17
00004 suncat0068 pw.x -in pw.inp   Done                     01/01/2019 17:38:17
00005 suncat0068 pw.x -in pw.inp   Done                     01/01/2019 17:38:17
00006 suncat0068 pw.x -in pw.inp   Done                     01/01/2019 17:38:17
00007 suncat0068 pw.x -in pw.inp   Done                     01/01/2019 17:38:17
00008 suncat0065 pw.x -in pw.inp   Done                     01/01/2019 17:38:17
00009 suncat0065 pw.x -in pw.inp   Done                     01/01/2019 17:38:17
00010 suncat0065 pw.x -in pw.inp   Done                     01/01/2019 17:38:17
00011 suncat0065 pw.x -in pw.inp   Done                     01/01/2019 17:38:17
00012 suncat0065 pw.x -in pw.inp   Done                     01/01/2019 17:38:17
00013 suncat0065 pw.x -in pw.inp   Done                     01/01/2019 17:38:17
00014 suncat0065 pw.x -in pw.inp   Done                     01/01/2019 17:38:17
00015 suncat0065 pw.x -in pw.inp   Done                     01/01/2019 17:38:17
00016 suncat0064 pw.x -in pw.inp   Done                     01/01/2019 17:38:17
00017 suncat0064 pw.x -in pw.inp   Done                     01/01/2019 17:38:17
00018 suncat0064 pw.x -in pw.inp   Done                     01/01/2019 17:38:17
00019 suncat0064 pw.x -in pw.inp   Done                     01/01/2019 17:38:17
00020 suncat0064 pw.x -in pw.inp   Done                     01/01/2019 17:38:17
00021 suncat0064 pw.x -in pw.inp   Done                     01/01/2019 17:38:17
00022 suncat0064 pw.x -in pw.inp   Done                     01/01/2019 17:38:17
00023 suncat0064 pw.x -in pw.inp   Done                     01/01/2019 17:38:17
00024 suncat0059 pw.x -in pw.inp   Done                     01/01/2019 17:38:17
00025 suncat0059 pw.x -in pw.inp   Done                     01/01/2019 17:38:17
00026 suncat0059 pw.x -in pw.inp   Done                     01/01/2019 17:38:17
00027 suncat0059 pw.x -in pw.inp   Done                     01/01/2019 17:38:17
00028 suncat0059 pw.x -in pw.inp   Done                     01/01/2019 17:38:17
00029 suncat0059 pw.x -in pw.inp   Done                     01/01/2019 17:38:17
00030 suncat0059 pw.x -in pw.inp   Done                     01/01/2019 17:38:17
00031 suncat0059 pw.x -in pw.inp   Done                     01/01/2019 17:38:17
00032 suncat0169 pw.x -in pw.inp   Done                     01/01/2019 17:38:17
00033 suncat0169 pw.x -in pw.inp   Done                     01/01/2019 17:38:17
00034 suncat0169 pw.x -in pw.inp   Done                     01/01/2019 17:38:17
00035 suncat0169 pw.x -in pw.inp   Done                     01/01/2019 17:38:17
00036 suncat0169 pw.x -in pw.inp   Done                     01/01/2019 17:38:17
00037 suncat0169 pw.x -in pw.inp   Done                     01/01/2019 17:38:17
00038 suncat0169 pw.x -in pw.inp   Done                     01/01/2019 17:38:17
00039 suncat0169 pw.x -in pw.inp   Done                     01/01/2019 17:38:17
00040 suncat0168 pw.x -in pw.inp   Done                     01/01/2019 17:38:17
00041 suncat0168 pw.x -in pw.inp   Done                     01/01/2019 17:38:17
00042 suncat0168 pw.x -in pw.inp   Done                     01/01/2019 17:38:17
00043 suncat0168 pw.x -in pw.inp   Done                     01/01/2019 17:38:17
00044 suncat0168 pw.x -in pw.inp   Done                     01/01/2019 17:38:17
00045 suncat0168 pw.x -in pw.inp   Done                     01/01/2019 17:38:17
00046 suncat0168 pw.x -in pw.inp   Done                     01/01/2019 17:38:17
00047 suncat0168 pw.x -in pw.inp   Done                     01/01/2019 17:38:17
00048 suncat0156 pw.x -in pw.inp   Done                     01/01/2019 17:38:17
00049 suncat0156 pw.x -in pw.inp   Done                     01/01/2019 17:38:17
00050 suncat0156 pw.x -in pw.inp   Done                     01/01/2019 17:38:17
00051 suncat0156 pw.x -in pw.inp   Done                     01/01/2019 17:38:17
00052 suncat0156 pw.x -in pw.inp   Done                     01/01/2019 17:38:17
00053 suncat0156 pw.x -in pw.inp   Done                     01/01/2019 17:38:17
00054 suncat0156 pw.x -in pw.inp   Done                     01/01/2019 17:38:17
00055 suncat0156 pw.x -in pw.inp   Done                     01/01/2019 17:38:17
00056 suncat0153 pw.x -in pw.inp   Done                     01/01/2019 17:38:17
00057 suncat0153 pw.x -in pw.inp   Done                     01/01/2019 17:38:17
00058 suncat0153 pw.x -in pw.inp   Done                     01/01/2019 17:38:17
00059 suncat0153 pw.x -in pw.inp   Done                     01/01/2019 17:38:17
00060 suncat0153 pw.x -in pw.inp   Done                     01/01/2019 17:38:17
00061 suncat0153 pw.x -in pw.inp   Done                     01/01/2019 17:38:17
00062 suncat0153 pw.x -in pw.inp   Done                     01/01/2019 17:38:17
00063 suncat0153 pw.x -in pw.inp   Done                     01/01/2019 17:38:17