     Program PWSCF v.5.1rc2 (svn rev. 11289) starts on 30Dec2018 at  4:43:11

     Current dimensions of program PWSCF are:
     Max number of different atomic species (ntypx) = 10
     Max number of k-points (npk) =  40000
     Max angular momentum in pseudopotentials (lmaxx) =  3
     Presently stress not available with electric field

     IMPORTANT: XC functional enforced from input :
     Exchange-correlation      = BEEF-VDW ( 1  4 27 13 2)
     Any further DFT definition will be discarded
     Please, verify this is what you really want

     Subspace diagonalization in iterative solution of the eigenvalue problem:
     a serial algorithm will be used

     Generating pointlists ...
     new r_m :   0.4125 (alat units)  0.7795 (a.u.) for type    1
     new r_m :   0.4125 (alat units)  0.7795 (a.u.) for type    2

     bravais-lattice index     =            0
     lattice parameter (alat)  =       1.8897  a.u.
     unit-cell volume          =    4098.7728 (a.u.)^3
     number of atoms/cell      =           12
     number of atomic types    =            2
     number of electrons       =       201.00
     number of Kohn-Sham states=          130
     kinetic-energy cutoff     =      36.7493  Ry
     charge density cutoff     =     367.4932  Ry
     convergence threshold     =      1.0E-06
     mixing beta               =       0.1000
     number of iterations used =           10  plain     mixing
     Exchange-correlation      = BEEF-VDW ( 1  4 27 13 2)
     nstep                     =           50

     celldm(1)=   1.889726  celldm(2)=   0.000000  celldm(3)=   0.000000
     celldm(4)=   0.000000  celldm(5)=   0.000000  celldm(6)=   0.000000

     crystal axes: (cart. coord. in units of alat)
               a(1) = (   5.363552   0.000000   0.000000 )
               a(2) = (  -2.681776   4.644972   0.000000 )
               a(3) = (   0.000000   0.000000  24.379322 )

     reciprocal axes: (cart. coord. in units 2 pi/alat)
               b(1) = (  0.186444  0.107643  0.000000 )
               b(2) = (  0.000000  0.215287  0.000000 )
               b(3) = (  0.000000  0.000000  0.041018 )

     PseudoPot. # 1 for Fe read from file:
     /afs/slac.stanford.edu/u/if/mamunm/psp/gbrv1.5pbe/Fe.UPF
     MD5 check sum: a130daea23fe5165f5d574ae7f82ed95
     Pseudo is Ultrasoft + core correction, Zval = 16.0
     Generated by new atomic code, or converted to UPF format
     Using radial grid of  861 points,  6 beta functions with:
                l(1) =   0
                l(2) =   0
                l(3) =   1
                l(4) =   1
                l(5) =   2
                l(6) =   2
     Q(r) pseudized with  8 coefficients,  rinner =    1.000   1.000   1.000
                                                       1.000   1.000

     PseudoPot. # 2 for Ag read from file:
     /afs/slac.stanford.edu/u/if/mamunm/psp/gbrv1.5pbe/Ag.UPF
     MD5 check sum: d66d668201baa78d5eb5b04ef7011058
     Pseudo is Ultrasoft + core correction, Zval = 19.0
     Generated by new atomic code, or converted to UPF format
     Using radial grid of  887 points,  6 beta functions with:
                l(1) =   0
                l(2) =   0
                l(3) =   1
                l(4) =   1
                l(5) =   2
                l(6) =   2
     Q(r) pseudized with  6 coefficients,  rinner =    1.300   1.300   1.300
                                                       1.300   1.300

     vdW kernel table read from file vdW_kernel_table
     MD5 check sum: 095c7af220d748ca6e76c0b4c6cfb241

     atomic species   valence    mass     pseudopotential
        Fe1           16.00    55.84500     Fe( 1.00)
        Ag1           19.00   107.86820     Ag( 1.00)

     Starting magnetic structure
     atomic species   magnetization
        Fe1          0.125
        Ag1          0.105

     No symmetry found

   Cartesian axes

     site n.     atom                  positions (alat units)
         1           Fe1 tau(   1) = (   0.0000000   0.0000000  10.0000000  )
         2           Fe1 tau(   2) = (  -1.3408880   2.3224861  10.0000000  )
         3           Fe1 tau(   3) = (   1.3408880   2.3224861  10.0000000  )
         4           Ag1 tau(   4) = (   2.6817760   0.0000000  10.0000000  )
         5           Fe1 tau(   5) = (   2.6817760   1.5483241  12.1896609  )
         6           Fe1 tau(   6) = (   1.3408880   3.8708102  12.1896609  )
         7           Fe1 tau(   7) = (  -1.3408880   3.8708102  12.1896609  )
         8           Ag1 tau(   8) = (   0.0000000   1.5483241  12.1896609  )
         9           Fe1 tau(   9) = (  -0.0000000   3.0966482  14.3793219  )
        10           Fe1 tau(  10) = (   1.3408880   0.7741620  14.3793219  )
        11           Fe1 tau(  11) = (   4.0226640   0.7741620  14.3793219  )
        12           Ag1 tau(  12) = (   2.6817760   3.0966482  14.3793219  )

     number of k points=    40  Fermi-Dirac smearing, width (Ry)=  0.0110
                       cart. coord. in units 2pi/alat
        k(    1) = (   0.0000000   0.0000000   0.0000000), wk =   0.0277778
        k(    2) = (   0.0000000   0.0358811   0.0000000), wk =   0.0555556
        k(    3) = (   0.0000000   0.0717622   0.0000000), wk =   0.0555556
        k(    4) = (   0.0000000  -0.1076433   0.0000000), wk =   0.0277778
        k(    5) = (   0.0310739   0.0179405   0.0000000), wk =   0.0555556
        k(    6) = (   0.0310739   0.0538216   0.0000000), wk =   0.0555556
        k(    7) = (   0.0310739   0.0897027   0.0000000), wk =   0.0555556
        k(    8) = (   0.0310739  -0.0897027   0.0000000), wk =   0.0555556
        k(    9) = (   0.0310739  -0.0538216   0.0000000), wk =   0.0555556
        k(   10) = (   0.0310739  -0.0179405   0.0000000), wk =   0.0555556
        k(   11) = (   0.0621479   0.0358811   0.0000000), wk =   0.0555556
        k(   12) = (   0.0621479   0.0717622   0.0000000), wk =   0.0555556
        k(   13) = (   0.0621479   0.1076433   0.0000000), wk =   0.0555556
        k(   14) = (   0.0621479  -0.0717622   0.0000000), wk =   0.0555556
        k(   15) = (   0.0621479  -0.0358811   0.0000000), wk =   0.0555556
        k(   16) = (   0.0621479   0.0000000   0.0000000), wk =   0.0555556
        k(   17) = (  -0.0932218  -0.0538216   0.0000000), wk =   0.0277778
        k(   18) = (  -0.0932218  -0.0179405   0.0000000), wk =   0.0555556
        k(   19) = (  -0.0932218   0.0179405   0.0000000), wk =   0.0555556
        k(   20) = (  -0.0932218  -0.1614649   0.0000000), wk =   0.0277778
        k(   21) = (   0.0000000   0.0000000   0.0000000), wk =   0.0277778
        k(   22) = (   0.0000000   0.0358811   0.0000000), wk =   0.0555556
        k(   23) = (   0.0000000   0.0717622   0.0000000), wk =   0.0555556
        k(   24) = (   0.0000000  -0.1076433   0.0000000), wk =   0.0277778
        k(   25) = (   0.0310739   0.0179405   0.0000000), wk =   0.0555556
        k(   26) = (   0.0310739   0.0538216   0.0000000), wk =   0.0555556
        k(   27) = (   0.0310739   0.0897027   0.0000000), wk =   0.0555556
        k(   28) = (   0.0310739  -0.0897027   0.0000000), wk =   0.0555556
        k(   29) = (   0.0310739  -0.0538216   0.0000000), wk =   0.0555556
        k(   30) = (   0.0310739  -0.0179405   0.0000000), wk =   0.0555556
        k(   31) = (   0.0621479   0.0358811   0.0000000), wk =   0.0555556
        k(   32) = (   0.0621479   0.0717622   0.0000000), wk =   0.0555556
        k(   33) = (   0.0621479   0.1076433   0.0000000), wk =   0.0555556
        k(   34) = (   0.0621479  -0.0717622   0.0000000), wk =   0.0555556
        k(   35) = (   0.0621479  -0.0358811   0.0000000), wk =   0.0555556
        k(   36) = (   0.0621479   0.0000000   0.0000000), wk =   0.0555556
        k(   37) = (  -0.0932218  -0.0538216   0.0000000), wk =   0.0277778
        k(   38) = (  -0.0932218  -0.0179405   0.0000000), wk =   0.0555556
        k(   39) = (  -0.0932218   0.0179405   0.0000000), wk =   0.0555556
        k(   40) = (  -0.0932218  -0.1614649   0.0000000), wk =   0.0277778

     Largest allocated arrays     est. size (Mb)     dimensions
     Largest temporary arrays     est. size (Mb)     dimensions

     Check: negative/imaginary core charge=   -0.000006    0.000000

     Initial potential from superposition of free atoms
     Check: negative starting charge=(component1):   -0.000584
     Check: negative starting charge=(component2):   -0.000473

     starting charge  190.49981, renormalised to  201.00000

     negative rho (up, down):  6.158E-04 4.987E-04

     *
     * You are using vdW-DF for exchange-correlation in this calculation.
     * Please cite the following three references that made this development
     * possible:
     *
     *   M. Dion, H. Rydberg, E. Schroder, D. C. Langreth, and
     *   B. I. Lundqvist, Phys. Rev. Lett. 92, 246401 (2004).
     *
     *   T. Thonhauser, V. R. Cooper, S. Li, A. Puzder, P. Hyldgaard, and
     *   D. C. Langreth, Phys. Rev. B 76, 125112 (2007).
     *
     *   G. Roman-Perez and J. M. Soler, Phys. Rev. Lett. 103, 096102 (2009).
     *
     *
     * If you are using vdW-DF2, please also cite:
     *
     *   K. Lee, E. D. Murray, L. Kong, B. I. Lundqvist, and
     *   D. C. Langreth, Phys. Rev. B 82, 081101(R) (2010).
     *
     *
     * If you are calculating the stress with vdW-DF, please also cite:
     *
     *   R. Sabatini, E. Kucukbenli, B. Kolb, T. Thonhauser, and
     *   S. de Gironcoli, J. Phys.: Condens. Matter 24, 424209 (2012).
     *

     Carrying out vdW-DF run using the following parameters:

     Nqs =      20    Nr_points =    1024   r_max =   100.000
     q_mesh =
               0.00001000     0.04494208     0.09755937     0.15916263
               0.23128650     0.31572767     0.41458969     0.53033537
               0.66584808     0.82450364     1.01025438     1.22772762
               1.48234092     1.78043706     2.12944203     2.53805004
               3.01644009     3.57652955     4.23227104     5.00000000

     Gradients computed in reciprocal space

     Adding external electric field

     Computed dipole along edir(3) :
        Dipole                0.0000 Ry au,          0.0000 Debye
        Dipole field          0.0000 Ry au

        Potential amp.       -0.0000 Ry
        Total length         44.9185 bohr

[...]

     Starting wfc are  156 randomized atomic wfcs

     Self-consistent Calculation

     iteration #  1     ecut=    36.75 Ry     beta=0.10
     Davidson diagonalization with overlap
     ethr =  1.00E-02,  avg # of iterations =  7.8

[...]

     Magnetic moment per site:
     atom:    1    charge:    7.3433    magn:    0.8660    constr:    0.0000
     atom:    2    charge:    7.3433    magn:    0.8660    constr:    0.0000
     atom:    3    charge:    7.3433    magn:    0.8660    constr:    0.0000
     atom:    4    charge:    5.1337    magn:    0.5069    constr:    0.0000
     atom:    5    charge:    7.3265    magn:    0.8666    constr:    0.0000
     atom:    6    charge:    7.3265    magn:    0.8666    constr:    0.0000
     atom:    7    charge:    7.3265    magn:    0.8666    constr:    0.0000
     atom:    8    charge:    5.1310    magn:    0.5077    constr:    0.0000
[...]
        k(    4) = (   0.0000000  -0.1076433   0.0000000), wk =   0.0277778
        k(    5) = (   0.0310739   0.0179405   0.0000000), wk =   0.0555556
        k(    6) = (   0.0310739   0.0538216   0.0000000), wk =   0.0555556
        k(    7) = (   0.0310739   0.0897027   0.0000000), wk =   0.0555556
        k(    8) = (   0.0310739  -0.0897027   0.0000000), wk =   0.0555556
        k(    9) = (   0.0310739  -0.0538216   0.0000000), wk =   0.0555556
        k(   10) = (   0.0310739  -0.0179405   0.0000000), wk =   0.0555556
        k(   11) = (   0.0621479   0.0358811   0.0000000), wk =   0.0555556
        k(   12) = (   0.0621479   0.0717622   0.0000000), wk =   0.0555556
        k(   13) = (   0.0621479   0.1076433   0.0000000), wk =   0.0555556
        k(   14) = (   0.0621479  -0.0717622   0.0000000), wk =   0.0555556
        k(   15) = (   0.0621479  -0.0358811   0.0000000), wk =   0.0555556
        k(   16) = (   0.0621479   0.0000000   0.0000000), wk =   0.0555556
        k(   17) = (  -0.0932218  -0.0538216   0.0000000), wk =   0.0277778
        k(   18) = (  -0.0932218  -0.0179405   0.0000000), wk =   0.0555556
        k(   19) = (  -0.0932218   0.0179405   0.0000000), wk =   0.0555556
        k(   20) = (  -0.0932218  -0.1614649   0.0000000), wk =   0.0277778
        k(   21) = (   0.0000000   0.0000000   0.0000000), wk =   0.0277778
        k(   22) = (   0.0000000   0.0358811   0.0000000), wk =   0.0555556
        k(   23) = (   0.0000000   0.0717622   0.0000000), wk =   0.0555556
        k(   24) = (   0.0000000  -0.1076433   0.0000000), wk =   0.0277778
        k(   25) = (   0.0310739   0.0179405   0.0000000), wk =   0.0555556
        k(   26) = (   0.0310739   0.0538216   0.0000000), wk =   0.0555556
        k(   27) = (   0.0310739   0.0897027   0.0000000), wk =   0.0555556
        k(   28) = (   0.0310739  -0.0897027   0.0000000), wk =   0.0555556
        k(   29) = (   0.0310739  -0.0538216   0.0000000), wk =   0.0555556
        k(   30) = (   0.0310739  -0.0179405   0.0000000), wk =   0.0555556
        k(   31) = (   0.0621479   0.0358811   0.0000000), wk =   0.0555556
        k(   32) = (   0.0621479   0.0717622   0.0000000), wk =   0.0555556
        k(   33) = (   0.0621479   0.1076433   0.0000000), wk =   0.0555556
        k(   34) = (   0.0621479  -0.0717622   0.0000000), wk =   0.0555556
        k(   35) = (   0.0621479  -0.0358811   0.0000000), wk =   0.0555556
        k(   36) = (   0.0621479   0.0000000   0.0000000), wk =   0.0555556
        k(   37) = (  -0.0932218  -0.0538216   0.0000000), wk =   0.0277778
        k(   38) = (  -0.0932218  -0.0179405   0.0000000), wk =   0.0555556
        k(   39) = (  -0.0932218   0.0179405   0.0000000), wk =   0.0555556
        k(   40) = (  -0.0932218  -0.1614649   0.0000000), wk =   0.0277778

     Largest allocated arrays     est. size (Mb)     dimensions
     Largest temporary arrays     est. size (Mb)     dimensions

     Check: negative/imaginary core charge=   -0.000006    0.000000

     Initial potential from superposition of free atoms
     Check: negative starting charge=(component1):   -0.000602
     Check: negative starting charge=(component2):   -0.000487

     starting charge  190.49981, renormalised to  201.00000

[...]

     *
     * You are using vdW-DF for exchange-correlation in this calculation.
     * Please cite the following three references that made this development
     * possible:
     *
     *   M. Dion, H. Rydberg, E. Schroder, D. C. Langreth, and
     *   B. I. Lundqvist, Phys. Rev. Lett. 92, 246401 (2004).
     *
     *   T. Thonhauser, V. R. Cooper, S. Li, A. Puzder, P. Hyldgaard, and
     *   D. C. Langreth, Phys. Rev. B 76, 125112 (2007).
     *
     *   G. Roman-Perez and J. M. Soler, Phys. Rev. Lett. 103, 096102 (2009).
     *
     *
     * If you are using vdW-DF2, please also cite:
     *
     *   K. Lee, E. D. Murray, L. Kong, B. I. Lundqvist, and
     *   D. C. Langreth, Phys. Rev. B 82, 081101(R) (2010).
     *
     *
     * If you are calculating the stress with vdW-DF, please also cite:
     *
     *   R. Sabatini, E. Kucukbenli, B. Kolb, T. Thonhauser, and
     *   S. de Gironcoli, J. Phys.: Condens. Matter 24, 424209 (2012).
     *

     Carrying out vdW-DF run using the following parameters:

     Nqs =      20    Nr_points =    1024   r_max =   100.000
     q_mesh =
               0.00001000     0.04494208     0.09755937     0.15916263
               0.23128650     0.31572767     0.41458969     0.53033537
               0.66584808     0.82450364     1.01025438     1.22772762
               1.48234092     1.78043706     2.12944203     2.53805004
               3.01644009     3.57652955     4.23227104     5.00000000

     Gradients computed in reciprocal space

[...]

     Starting wfc are  156 randomized atomic wfcs

     Self-consistent Calculation

[...]

     total energy              =   -3151.69533431 Ry
     Harris-Foulkes estimate   =   -3151.69533231 Ry
     estimated scf accuracy    <       0.00000132 Ry

[...]

     iteration # 31     ecut=    36.75 Ry     beta=0.10
     Davidson diagonalization with overlap
     ethr =  6.57E-10,  avg # of iterations =  1.8

[...]

     negative rho (up, down):  5.181E-04 1.001E-03

[...]

     Adding external electric field

     Computed dipole along edir(3) :
        Dipole               -0.0192 Ry au,         -0.0489 Debye
        Dipole field         -0.0001 Ry au

        Potential amp.        0.0053 Ry
        Total length         44.9185 bohr

     Magnetic moment per site:
     atom:    1    charge:    7.0959    magn:    1.3682    constr:    0.0000
     atom:    2    charge:    7.0960    magn:    1.3682    constr:    0.0000
     atom:    3    charge:    7.0959    magn:    1.3682    constr:    0.0000
     atom:    4    charge:    5.0878    magn:    0.0234    constr:    0.0000
     atom:    5    charge:    7.0848    magn:    1.3154    constr:    0.0000
     atom:    6    charge:    7.0847    magn:    1.3154    constr:    0.0000
     atom:    7    charge:    7.0848    magn:    1.3153    constr:    0.0000
     atom:    8    charge:    5.0808    magn:    0.0247    constr:    0.0000
     atom:    9    charge:    7.0946    magn:    1.3411    constr:    0.0000
     atom:   10    charge:    7.0945    magn:    1.3412    constr:    0.0000
     atom:   11    charge:    7.0945    magn:    1.3412    constr:    0.0000
     atom:   12    charge:    5.0777    magn:    0.0183    constr:    0.0000

     End of self-consistent calculation

 ------ SPIN UP ------------

[...]

 ------ SPIN DOWN ----------

[...]

          k = 0.0621 0.0000 0.0000 ( 15410 PWs)   bands (ev):

[...]

          k =-0.0932-0.1615 0.0000 ( 15402 PWs)   bands (ev):

   -91.6197 -91.3741 -91.0791 -84.1965 -84.1904 -84.1842 -84.1527 -84.1346
   -84.1304 -84.1199 -84.1151 -84.1101 -55.0986 -55.0984 -55.0974 -54.8741
   -54.8730 -54.8062 -54.5950 -54.5941 -54.4858 -50.3584 -50.3517 -50.3511
   -50.3340 -50.3316 -50.3190 -50.3112 -50.3075 -50.3040 -50.2946 -50.2880
   -50.2860 -50.2817 -50.2739 -50.2524 -50.2452 -50.2403 -50.2180 -50.2160
   -50.2044 -50.1946 -50.1934 -50.1835 -50.1615 -50.1597 -50.1518 -50.1345
    -5.0036  -4.6790  -4.5435  -4.4424  -4.4401  -4.2687  -4.1722  -4.0184
    -3.9547  -3.8562  -3.7891  -3.7746  -3.6220  -3.5423  -3.4294  -3.3612
    -3.2248  -2.5757  -2.1810  -1.6195  -1.3534  -1.1553  -0.6063  -0.3903
    -0.1856   0.0336   0.0717   0.1280   0.1392   0.1695   0.4033   0.4906
     0.5349   0.5832   0.6102   0.7153   0.7302   0.8298   0.8587   1.0288
     1.0849   1.0984   1.3211   1.3514   1.5038   1.5136   1.5260   1.6133
     1.9175   1.9553   2.0316   2.1352   2.1763   2.2629   2.3061   2.3355
     2.3907   2.3982   2.4908   2.4997   2.6111   2.8022   2.8720   3.0669
     3.2272   3.3005   3.3671   4.0248   4.0773   4.3859   4.7572   5.0330
     5.9001   5.9027   6.5528   6.5723   7.0327   7.0879   7.2732   7.2904
     8.1733   8.3114

     the Fermi energy is     1.1173 ev

!    total energy              =   -3151.69534002 Ry
     Harris-Foulkes estimate   =   -3151.69533432 Ry
     estimated scf accuracy    <       0.00000061 Ry

     The total energy is the sum of the following terms:

     one-electron contribution =  -25612.78164116 Ry
     hartree contribution      =   12802.78686107 Ry
     xc contribution           =    -362.94103807 Ry
     ewald contribution        =   10021.32071604 Ry
     electric field correction =       0.00000113 Ry
     smearing contrib. (-TS)   =      -0.08023904 Ry

     total magnetization       =    25.15 Bohr mag/cell
     absolute magnetization    =    27.02 Bohr mag/cell

     convergence has been achieved in  31 iterations

 BEEF-vdW xc energy contributions
           1 :   -316.988349539536
           2 :    286.788780123825
           3 :   -236.355333096060
           4 :    180.704055300978
           5 :   -133.218036614826
           6 :    100.764633656217
           7 :   -82.7320727182399
           8 :    73.6049571854579
           9 :   -67.0317379607874
          10 :    59.0318587464039
          11 :   -49.0313648946175
          12 :    38.8107322972944
          13 :   -30.5409309294287
          14 :    25.2404574102107
          15 :   -22.4139736738645
          16 :    20.7128241246430
          17 :   -18.9222514631833
          18 :    16.5767726618060
          19 :   -13.9635675021191
          20 :    11.6874148122243
          21 :   -10.1819450785149
          22 :    9.44811909655704
          23 :   -9.11365250639875
          24 :    8.69485561615284
          25 :   -7.88348105292846
          26 :    6.69528493510262
          27 :   -5.43301414924872
          28 :    4.49313781557800
          29 :   -4.12755667145586
          30 :    4.28106267327945
          31 :   -28.7458211172812
          32 :   -20.4492853366226

     Forces acting on atoms (Ry/au):

     negative rho (up, down):  5.181E-04 1.001E-03
     atom    1 type  1   force =    -0.00002330   -0.01226897    0.01044421
     atom    2 type  1   force =    -0.01061833    0.00612080    0.01042123
     atom    3 type  1   force =     0.01061739    0.00614688    0.01043977
     atom    4 type  2   force =     0.00001227   -0.00000490   -0.03255492
     atom    5 type  1   force =    -0.00000994    0.01289138    0.00451953
     atom    6 type  1   force =     0.01117730   -0.00644491    0.00449808
     atom    7 type  1   force =    -0.01117866   -0.00643345    0.00451276
     atom    8 type  2   force =     0.00000810   -0.00000494   -0.00950912
     atom    9 type  1   force =     0.00005873    0.00039455   -0.00069758
     atom   10 type  1   force =     0.00034974   -0.00015369   -0.00066412
     atom   11 type  1   force =    -0.00033834   -0.00021436   -0.00068479
     atom   12 type  2   force =    -0.00005495   -0.00002839   -0.00072506

     Total force =     0.049906     Total SCF correction =     0.003837

     entering subroutine stress ...

     negative rho (up, down):  5.181E-04 1.001E-03
          total   stress  (Ry/bohr**3)                   (kbar)     P=   -5.98
  -0.00005370   0.00000001  -0.00000000         -7.90      0.00     -0.00
   0.00000001  -0.00005370  -0.00000002          0.00     -7.90     -0.00
  -0.00000000  -0.00000002  -0.00001451         -0.00     -0.00     -2.14

 !ASE

     Writing output data file calc.save

     General routines

     Parallel routines

   This run was terminated on:  11:10: 0  30Dec2018

   JOB DONE.
Job  /afs/slac/g/suncat/bin/suncat-tsmpirun -x LD_LIBRARY_PATH -wdir /scratch/qe648427_qtcyY pw.x -in pw.inp

TID   HOST_NAME   COMMAND_LINE            STATUS            TERMINATION_TIME
00000 suncat0238 pw.x -in pw.inp   Done                     12/30/2018 11:10:00
00001 suncat0238 pw.x -in pw.inp   Done                     12/30/2018 11:10:00
00002 suncat0238 pw.x -in pw.inp   Done                     12/30/2018 11:10:00
00003 suncat0238 pw.x -in pw.inp   Done                     12/30/2018 11:10:00
00004 suncat0238 pw.x -in pw.inp   Done                     12/30/2018 11:10:00
00005 suncat0238 pw.x -in pw.inp   Done                     12/30/2018 11:10:00
00006 suncat0238 pw.x -in pw.inp   Done                     12/30/2018 11:10:00
00007 suncat0238 pw.x -in pw.inp   Done                     12/30/2018 11:10:00
00008 suncat0237 pw.x -in pw.inp   Done                     12/30/2018 11:10:00
00009 suncat0237 pw.x -in pw.inp   Done                     12/30/2018 11:10:00
00010 suncat0237 pw.x -in pw.inp   Done                     12/30/2018 11:10:00
00011 suncat0237 pw.x -in pw.inp   Done                     12/30/2018 11:10:00
00012 suncat0237 pw.x -in pw.inp   Done                     12/30/2018 11:10:00
00013 suncat0237 pw.x -in pw.inp   Done                     12/30/2018 11:10:00
00014 suncat0237 pw.x -in pw.inp   Done                     12/30/2018 11:10:00
00015 suncat0237 pw.x -in pw.inp   Done                     12/30/2018 11:10:00
00016 suncat0236 pw.x -in pw.inp   Done                     12/30/2018 11:10:00
00017 suncat0236 pw.x -in pw.inp   Done                     12/30/2018 11:10:00
00018 suncat0236 pw.x -in pw.inp   Done                     12/30/2018 11:10:00
00019 suncat0236 pw.x -in pw.inp   Done                     12/30/2018 11:10:00
00020 suncat0236 pw.x -in pw.inp   Done                     12/30/2018 11:10:00
00021 suncat0236 pw.x -in pw.inp   Done                     12/30/2018 11:10:00
00022 suncat0236 pw.x -in pw.inp   Done                     12/30/2018 11:10:00
00023 suncat0236 pw.x -in pw.inp   Done                     12/30/2018 11:10:00
00024 suncat0235 pw.x -in pw.inp   Done                     12/30/2018 11:10:00
00025 suncat0235 pw.x -in pw.inp   Done                     12/30/2018 11:10:00
00026 suncat0235 pw.x -in pw.inp   Done                     12/30/2018 11:10:00
00027 suncat0235 pw.x -in pw.inp   Done                     12/30/2018 11:10:00
00028 suncat0235 pw.x -in pw.inp   Done                     12/30/2018 11:10:00
00029 suncat0235 pw.x -in pw.inp   Done                     12/30/2018 11:10:00
00030 suncat0235 pw.x -in pw.inp   Done                     12/30/2018 11:10:00
00031 suncat0235 pw.x -in pw.inp   Done                     12/30/2018 11:10:00
00032 suncat0218 pw.x -in pw.inp   Done                     12/30/2018 11:10:00
00033 suncat0218 pw.x -in pw.inp   Done                     12/30/2018 11:10:00
00034 suncat0218 pw.x -in pw.inp   Done                     12/30/2018 11:10:00
00035 suncat0218 pw.x -in pw.inp   Done                     12/30/2018 11:10:00
00036 suncat0218 pw.x -in pw.inp   Done                     12/30/2018 11:10:00
00037 suncat0218 pw.x -in pw.inp   Done                     12/30/2018 11:10:00
00038 suncat0218 pw.x -in pw.inp   Done                     12/30/2018 11:10:00
00039 suncat0218 pw.x -in pw.inp   Done                     12/30/2018 11:10:00
00040 suncat0212 pw.x -in pw.inp   Done                     12/30/2018 11:10:00
00041 suncat0212 pw.x -in pw.inp   Done                     12/30/2018 11:10:00
00042 suncat0212 pw.x -in pw.inp   Done                     12/30/2018 11:10:00
00043 suncat0212 pw.x -in pw.inp   Done                     12/30/2018 11:10:00
00044 suncat0212 pw.x -in pw.inp   Done                     12/30/2018 11:10:00
00045 suncat0212 pw.x -in pw.inp   Done                     12/30/2018 11:10:00
00046 suncat0212 pw.x -in pw.inp   Done                     12/30/2018 11:10:00
00047 suncat0212 pw.x -in pw.inp   Done                     12/30/2018 11:10:00
00048 suncat0211 pw.x -in pw.inp   Done                     12/30/2018 11:10:00
00049 suncat0211 pw.x -in pw.inp   Done                     12/30/2018 11:10:00
00050 suncat0211 pw.x -in pw.inp   Done                     12/30/2018 11:10:00
00051 suncat0211 pw.x -in pw.inp   Done                     12/30/2018 11:10:00
00052 suncat0211 pw.x -in pw.inp   Done                     12/30/2018 11:10:00
00053 suncat0211 pw.x -in pw.inp   Done                     12/30/2018 11:10:00
00054 suncat0211 pw.x -in pw.inp   Done                     12/30/2018 11:10:00
00055 suncat0211 pw.x -in pw.inp   Done                     12/30/2018 11:10:00
00056 suncat0208 pw.x -in pw.inp   Done                     12/30/2018 11:10:00
00057 suncat0208 pw.x -in pw.inp   Done                     12/30/2018 11:10:00
00058 suncat0208 pw.x -in pw.inp   Done                     12/30/2018 11:10:00
00059 suncat0208 pw.x -in pw.inp   Done                     12/30/2018 11:10:00
00060 suncat0208 pw.x -in pw.inp   Done                     12/30/2018 11:10:00
00061 suncat0208 pw.x -in pw.inp   Done                     12/30/2018 11:10:00
00062 suncat0208 pw.x -in pw.inp   Done                     12/30/2018 11:10:00
00063 suncat0208 pw.x -in pw.inp   Done                     12/30/2018 11:10:00