     Program PWSCF v.5.1rc2 (svn rev. 11289) starts on  1Jan2019 at 10:28: 2

     Current dimensions of program PWSCF are:
     Max number of different atomic species (ntypx) = 10
     Max number of k-points (npk) =  40000
     Max angular momentum in pseudopotentials (lmaxx) =  3
     Presently stress not available with electric field

     IMPORTANT: XC functional enforced from input :
     Exchange-correlation      = BEEF-VDW ( 1  4 27 13 2)
     Any further DFT definition will be discarded
     Please, verify this is what you really want

     Subspace diagonalization in iterative solution of the eigenvalue problem:
     a serial algorithm will be used

     bravais-lattice index     =            0
     lattice parameter (alat)  =       1.8897  a.u.
     unit-cell volume          =    6535.3725 (a.u.)^3
     number of atoms/cell      =           12
     number of atomic types    =            2
     number of electrons       =       159.00
     number of Kohn-Sham states=          109
     kinetic-energy cutoff     =      36.7493  Ry
     charge density cutoff     =     367.4932  Ry
     convergence threshold     =      1.0E-06
     mixing beta               =       0.1000
     number of iterations used =           10  plain     mixing
     Exchange-correlation      = BEEF-VDW ( 1  4 27 13 2)
     nstep                     =           50

     celldm(1)=   1.889726  celldm(2)=   0.000000  celldm(3)=   0.000000
     celldm(4)=   0.000000  celldm(5)=   0.000000  celldm(6)=   0.000000

     crystal axes: (cart. coord. in units of alat)
               a(1) = (   6.633131   0.000000   0.000000 )
               a(2) = (  -3.316565   5.744460   0.000000 )
               a(3) = (   0.000000   0.000000  25.415929 )

     reciprocal axes: (cart. coord. in units 2 pi/alat)
               b(1) = (  0.150758  0.087040  0.000000 )
               b(2) = (  0.000000  0.174081  0.000000 )
               b(3) = (  0.000000  0.000000  0.039345 )

     PseudoPot. # 1 for Sn read from file:
     /afs/slac.stanford.edu/u/if/mamunm/psp/gbrv1.5pbe/Sn.UPF
     MD5 check sum: 469debedee59599fedebd795477fea03
     Pseudo is Ultrasoft + core correction, Zval = 14.0
     Generated by new atomic code, or converted to UPF format
     Using radial grid of  891 points,  6 beta functions with:
                l(1) =   0
                l(2) =   0
                l(3) =   1
                l(4) =   1
                l(5) =   2
                l(6) =   2
     Q(r) pseudized with  8 coefficients,  rinner =    1.350   1.350   1.350
                                                       1.350   1.350

     PseudoPot. # 2 for Au read from file:
     /afs/slac.stanford.edu/u/if/mamunm/psp/gbrv1.5pbe/Au.UPF
     MD5 check sum: 9d7f43293ad2c663164586bc4b293ffc
     Pseudo is Ultrasoft + core correction, Zval = 11.0
     Generated by new atomic code, or converted to UPF format
     Using radial grid of  985 points,  7 beta functions with:
                l(1) =   0
                l(2) =   0
                l(3) =   1
                l(4) =   1
                l(5) =   2
                l(6) =   2
                l(7) =   3
     Q(r) pseudized with  6 coefficients,  rinner =    1.900   1.900   1.900
                                                       1.900   1.900   1.900
                                                       1.900

     vdW kernel table read from file vdW_kernel_table
     MD5 check sum: 095c7af220d748ca6e76c0b4c6cfb241

     atomic species   valence    mass     pseudopotential
        Sn1           14.00   118.71000     Sn( 1.00)
        Au1           11.00   196.96657     Au( 1.00)

     No symmetry found

   Cartesian axes

     site n.     atom                  positions (alat units)
         1           Sn1 tau(   1) = (   0.0000000   0.0000000  10.0000000  )
         2           Sn1 tau(   2) = (  -1.6582827   2.8722299  10.0000000  )
         3           Sn1 tau(   3) = (   1.6582827   2.8722299  10.0000000  )
         4           Au1 tau(   4) = (   3.3165654   0.0000000  10.0000000  )
         5           Sn1 tau(   5) = (   3.3165654   1.9148199  12.7079643  )
         6           Sn1 tau(   6) = (   1.6582827   4.7870499  12.7079643  )
         7           Sn1 tau(   7) = (  -1.6582827   4.7870499  12.7079643  )
         8           Au1 tau(   8) = (   0.0000000   1.9148199  12.7079643  )
         9           Sn1 tau(   9) = (  -0.0000000   3.8296399  15.4159287  )
        10           Sn1 tau(  10) = (   1.6582827   0.9574100  15.4159287  )
        11           Sn1 tau(  11) = (   4.9748481   0.9574100  15.4159287  )
        12           Au1 tau(  12) = (   3.3165654   3.8296399  15.4159287  )

     number of k points=    20  Fermi-Dirac smearing, width (Ry)=  0.0110
                       cart. coord. in units 2pi/alat
        k(    1) = (   0.0000000   0.0000000   0.0000000), wk =   0.0555556
        k(    2) = (   0.0000000   0.0290135   0.0000000), wk =   0.1111111
        k(    3) = (   0.0000000   0.0580269   0.0000000), wk =   0.1111111
        k(    4) = (   0.0000000  -0.0870404   0.0000000), wk =   0.0555556
        k(    5) = (   0.0251264   0.0145067   0.0000000), wk =   0.1111111
        k(    6) = (   0.0251264   0.0435202   0.0000000), wk =   0.1111111
        k(    7) = (   0.0251264   0.0725337   0.0000000), wk =   0.1111111
        k(    8) = (   0.0251264  -0.0725337   0.0000000), wk =   0.1111111
        k(    9) = (   0.0251264  -0.0435202   0.0000000), wk =   0.1111111
        k(   10) = (   0.0251264  -0.0145067   0.0000000), wk =   0.1111111
        k(   11) = (   0.0502528   0.0290135   0.0000000), wk =   0.1111111
        k(   12) = (   0.0502528   0.0580269   0.0000000), wk =   0.1111111
        k(   13) = (   0.0502528   0.0870404   0.0000000), wk =   0.1111111
        k(   14) = (   0.0502528  -0.0580269   0.0000000), wk =   0.1111111
        k(   15) = (   0.0502528  -0.0290135   0.0000000), wk =   0.1111111
        k(   16) = (   0.0502528   0.0000000   0.0000000), wk =   0.1111111
        k(   17) = (  -0.0753792  -0.0435202   0.0000000), wk =   0.0555556
        k(   18) = (  -0.0753792  -0.0145067   0.0000000), wk =   0.1111111
        k(   19) = (  -0.0753792   0.0145067   0.0000000), wk =   0.1111111
        k(   20) = (  -0.0753792  -0.1305606   0.0000000), wk =   0.0555556

     Largest allocated arrays     est. size (Mb)     dimensions
     Largest temporary arrays     est. size (Mb)     dimensions

     Check: negative/imaginary core charge=   -0.000001    0.000000

     Initial potential from superposition of free atoms
     Check: negative starting charge=   -0.001313

     starting charge  149.99923, renormalised to  159.00000

     negative rho (up, down):  1.392E-03 0.000E+00

     *
     * You are using vdW-DF for exchange-correlation in this calculation.
     * Please cite the following three references that made this development
     * possible:
     *
     *   M. Dion, H. Rydberg, E. Schroder, D. C. Langreth, and
     *   B. I. Lundqvist, Phys. Rev. Lett. 92, 246401 (2004).
     *
     *   T. Thonhauser, V. R. Cooper, S. Li, A. Puzder, P. Hyldgaard, and
     *   D. C. Langreth, Phys. Rev. B 76, 125112 (2007).
     *
     *   G. Roman-Perez and J. M. Soler, Phys. Rev. Lett. 103, 096102 (2009).
     *
     *
     * If you are using vdW-DF2, please also cite:
     *
     *   K. Lee, E. D. Murray, L. Kong, B. I. Lundqvist, and
     *   D. C. Langreth, Phys. Rev. B 82, 081101(R) (2010).
     *
     *
     * If you are calculating the stress with vdW-DF, please also cite:
     *
     *   R. Sabatini, E. Kucukbenli, B. Kolb, T. Thonhauser, and
     *   S. de Gironcoli, J. Phys.: Condens. Matter 24, 424209 (2012).
     *

     Carrying out vdW-DF run using the following parameters:

     Nqs =      20    Nr_points =    1024   r_max =   100.000
     q_mesh =
               0.00001000     0.04494208     0.09755937     0.15916263
               0.23128650     0.31572767     0.41458969     0.53033537
               0.66584808     0.82450364     1.01025438     1.22772762
               1.48234092     1.78043706     2.12944203     2.53805004
               3.01644009     3.57652955     4.23227104     5.00000000

     Gradients computed in reciprocal space

     Adding external electric field

     Computed dipole along edir(3) :
        Dipole               -0.0000 Ry au,         -0.0000 Debye
        Dipole field         -0.0000 Ry au

        Potential amp.        0.0000 Ry
        Total length         46.8284 bohr

     Starting wfc are  108 randomized atomic wfcs +    1 random wfc

     Self-consistent Calculation

     iteration #  1     ecut=    36.75 Ry     beta=0.10
     Davidson diagonalization with overlap
     ethr =  1.00E-02,  avg # of iterations =  9.6

[...]

     total energy              =   -1797.65489381 Ry
     Harris-Foulkes estimate   =   -1799.78241892 Ry
     estimated scf accuracy    <      12.45366977 Ry

[...]

     End of self-consistent calculation

          k = 0.0000 0.0000 0.0000 ( 24489 PWs)   bands (ev):

   -21.5492 -21.5434 -21.5342 -21.5342 -21.5261 -21.5261 -21.5057 -21.4905
   -21.4885 -21.4885 -21.4784 -21.4698 -21.4698 -21.4677 -21.4624 -21.4542
   -21.4542 -21.4402 -21.4371 -21.4306 -21.4306 -21.4299 -21.4299 -21.4287
   -21.4287 -21.4210 -21.4210 -21.3895 -21.3895 -21.3800 -21.3800 -21.3720
   -21.3449 -21.3444 -21.3406 -21.3382 -21.3382 -21.3213 -21.3213 -21.3070
   -21.2947 -21.2947 -21.2658 -21.2658 -21.2484  -9.6918  -8.5353  -7.0540
    -6.2403  -6.2403  -5.5968  -5.5968  -4.9340  -4.9340  -3.8783  -3.8648
    -3.4077  -3.4077  -3.2078  -3.2078  -3.1324  -3.0661  -3.0661  -2.8784
    -2.6632  -2.6632  -2.6426  -2.6188  -2.6188  -2.4694  -2.4694  -2.3705
    -2.1293  -2.0861  -2.0861  -1.5937  -1.2690  -1.2690  -0.7576  -0.7576
    -0.1450   0.0082   1.1022   2.2358   2.2358   2.3382   2.3382   3.1455
     3.5790   3.7858   3.8149   4.3792   4.5171   4.5171   4.8244   4.9695
     5.0448   5.0786   5.0786   5.8936   5.8936   5.9322   6.5296   6.7303
     6.7852   6.7852   6.8759   7.0258   7.0258

[...]

          k =-0.0754-0.0435 0.0000 ( 24556 PWs)   bands (ev):

[...]

     the Fermi energy is     0.5771 ev

!    total energy              =   -1796.37510290 Ry
     Harris-Foulkes estimate   =   -1796.37510130 Ry
     estimated scf accuracy    <       0.00000084 Ry

     The total energy is the sum of the following terms:

     one-electron contribution =   -9466.51126597 Ry
     hartree contribution      =    4803.89159598 Ry
     xc contribution           =    -592.15182105 Ry
     ewald contribution        =    3458.42882008 Ry
     electric field correction =       0.00000000 Ry
     smearing contrib. (-TS)   =      -0.03243194 Ry

     convergence has been achieved in  15 iterations

 BEEF-vdW xc energy contributions
           1 :   -523.287496596113
           2 :    481.307560958431
           3 :   -409.050992743107
           4 :    324.922507541327
           5 :   -246.904859651233
           6 :    186.578392662659
           7 :   -146.642343174730
           8 :    122.453305263582
           9 :   -106.276700026817
          10 :    91.8154834709489
          11 :   -76.8005053822413
[...]
     Generated by new atomic code, or converted to UPF format
     Using radial grid of  891 points,  6 beta functions with:
                l(1) =   0
                l(2) =   0
                l(3) =   1
                l(4) =   1
                l(5) =   2
                l(6) =   2
     Q(r) pseudized with  8 coefficients,  rinner =    1.350   1.350   1.350
                                                       1.350   1.350

     PseudoPot. # 2 for Au read from file:
     /afs/slac.stanford.edu/u/if/mamunm/psp/gbrv1.5pbe/Au.UPF
     MD5 check sum: 9d7f43293ad2c663164586bc4b293ffc
     Pseudo is Ultrasoft + core correction, Zval = 11.0
     Generated by new atomic code, or converted to UPF format
     Using radial grid of  985 points,  7 beta functions with:
                l(1) =   0
                l(2) =   0
                l(3) =   1
                l(4) =   1
                l(5) =   2
                l(6) =   2
                l(7) =   3
     Q(r) pseudized with  6 coefficients,  rinner =    1.900   1.900   1.900
                                                       1.900   1.900   1.900
                                                       1.900

     vdW kernel table read from file vdW_kernel_table
     MD5 check sum: 095c7af220d748ca6e76c0b4c6cfb241

     atomic species   valence    mass     pseudopotential
        Sn1           14.00   118.71000     Sn( 1.00)
        Au1           11.00   196.96657     Au( 1.00)

     No symmetry found

   Cartesian axes

     site n.     atom                  positions (alat units)
         1           Sn1 tau(   1) = (   0.0000000   0.0000000  10.0000000  )
         2           Sn1 tau(   2) = (  -1.6582827   2.8722299  10.0000000  )
         3           Sn1 tau(   3) = (   1.6582827   2.8722299  10.0000000  )
         4           Au1 tau(   4) = (   3.3165654   0.0000000  10.0000000  )
         5           Sn1 tau(   5) = (   3.3165654   1.9148199  12.7079643  )
         6           Sn1 tau(   6) = (   1.6582827   4.7870499  12.7079643  )
         7           Sn1 tau(   7) = (  -1.6582827   4.7870499  12.7079643  )
         8           Au1 tau(   8) = (   0.0000000   1.9148199  12.7079643  )
         9           Sn1 tau(   9) = (  -0.0000094   3.7751898  15.3402519  )
        10           Sn1 tau(  10) = (   1.6111408   0.9846142  15.3402550  )
        11           Sn1 tau(  11) = (   5.0219924   0.9845883  15.3402844  )
        12           Au1 tau(  12) = (   3.3165647   3.8296500  15.0393474  )

     number of k points=    20  Fermi-Dirac smearing, width (Ry)=  0.0110
                       cart. coord. in units 2pi/alat
        k(    1) = (   0.0000000   0.0000000   0.0000000), wk =   0.0555556
        k(    2) = (   0.0000000   0.0290135   0.0000000), wk =   0.1111111
        k(    3) = (   0.0000000   0.0580269   0.0000000), wk =   0.1111111
        k(    4) = (   0.0000000  -0.0870404   0.0000000), wk =   0.0555556
        k(    5) = (   0.0251264   0.0145067   0.0000000), wk =   0.1111111
        k(    6) = (   0.0251264   0.0435202   0.0000000), wk =   0.1111111
        k(    7) = (   0.0251264   0.0725337   0.0000000), wk =   0.1111111
        k(    8) = (   0.0251264  -0.0725337   0.0000000), wk =   0.1111111
        k(    9) = (   0.0251264  -0.0435202   0.0000000), wk =   0.1111111
        k(   10) = (   0.0251264  -0.0145067   0.0000000), wk =   0.1111111
        k(   11) = (   0.0502528   0.0290135   0.0000000), wk =   0.1111111
        k(   12) = (   0.0502528   0.0580269   0.0000000), wk =   0.1111111
        k(   13) = (   0.0502528   0.0870404   0.0000000), wk =   0.1111111
        k(   14) = (   0.0502528  -0.0580269   0.0000000), wk =   0.1111111
        k(   15) = (   0.0502528  -0.0290135   0.0000000), wk =   0.1111111
        k(   16) = (   0.0502528   0.0000000   0.0000000), wk =   0.1111111
        k(   17) = (  -0.0753792  -0.0435202   0.0000000), wk =   0.0555556
        k(   18) = (  -0.0753792  -0.0145067   0.0000000), wk =   0.1111111
        k(   19) = (  -0.0753792   0.0145067   0.0000000), wk =   0.1111111
        k(   20) = (  -0.0753792  -0.1305606   0.0000000), wk =   0.0555556

     Largest allocated arrays     est. size (Mb)     dimensions
     Largest temporary arrays     est. size (Mb)     dimensions

     Check: negative/imaginary core charge=   -0.000001    0.000000

     Initial potential from superposition of free atoms
     Check: negative starting charge=   -0.001301

     starting charge  149.99923, renormalised to  159.00000

[...]

     *
     * You are using vdW-DF for exchange-correlation in this calculation.
     * Please cite the following three references that made this development
     * possible:
     *
     *   M. Dion, H. Rydberg, E. Schroder, D. C. Langreth, and
     *   B. I. Lundqvist, Phys. Rev. Lett. 92, 246401 (2004).
     *
     *   T. Thonhauser, V. R. Cooper, S. Li, A. Puzder, P. Hyldgaard, and
     *   D. C. Langreth, Phys. Rev. B 76, 125112 (2007).
     *
     *   G. Roman-Perez and J. M. Soler, Phys. Rev. Lett. 103, 096102 (2009).
     *
     *
     * If you are using vdW-DF2, please also cite:
     *
     *   K. Lee, E. D. Murray, L. Kong, B. I. Lundqvist, and
     *   D. C. Langreth, Phys. Rev. B 82, 081101(R) (2010).
     *
     *
     * If you are calculating the stress with vdW-DF, please also cite:
     *
     *   R. Sabatini, E. Kucukbenli, B. Kolb, T. Thonhauser, and
     *   S. de Gironcoli, J. Phys.: Condens. Matter 24, 424209 (2012).
     *

     Carrying out vdW-DF run using the following parameters:

     Nqs =      20    Nr_points =    1024   r_max =   100.000
     q_mesh =
               0.00001000     0.04494208     0.09755937     0.15916263
               0.23128650     0.31572767     0.41458969     0.53033537
               0.66584808     0.82450364     1.01025438     1.22772762
               1.48234092     1.78043706     2.12944203     2.53805004
               3.01644009     3.57652955     4.23227104     5.00000000

     Gradients computed in reciprocal space

[...]

     Starting wfc are  108 randomized atomic wfcs +    1 random wfc

     Self-consistent Calculation

[...]

     total energy              =   -1796.38432127 Ry
     Harris-Foulkes estimate   =   -1796.38432136 Ry
     estimated scf accuracy    <       0.00000128 Ry

     iteration # 17     ecut=    36.75 Ry     beta=0.10
     Davidson diagonalization with overlap
     ethr =  8.04E-10,  avg # of iterations =  2.0

[...]

     negative rho (up, down):  3.857E-04 0.000E+00

     Adding external electric field

     Computed dipole along edir(3) :
        Dipole                0.0222 Ry au,          0.0564 Debye
        Dipole field          0.0000 Ry au

        Potential amp.       -0.0040 Ry
        Total length         46.8284 bohr

     End of self-consistent calculation

[...]

          k = 0.0503 0.0000 0.0000 ( 24590 PWs)   bands (ev):

[...]

          k =-0.0754-0.1306 0.0000 ( 24556 PWs)   bands (ev):

   -21.5071 -21.4913 -21.4669 -21.4604 -21.4517 -21.4476 -21.4459 -21.4449
   -21.4397 -21.4395 -21.4358 -21.4321 -21.4281 -21.4256 -21.4245 -21.4225
   -21.4200 -21.4174 -21.4144 -21.4112 -21.4085 -21.4056 -21.4024 -21.4009
   -21.3942 -21.3871 -21.3847 -21.3828 -21.3635 -21.3599 -21.3489 -21.3449
   -21.3398 -21.3338 -21.3306 -21.3204 -21.3160 -21.3133 -21.3061 -21.3001
   -21.2940 -21.2873 -21.2835 -21.2725 -21.2414  -8.7942  -8.5812  -7.5741
    -7.2793  -6.6151  -6.5664  -5.8882  -5.6380  -4.4485  -4.3799  -3.9671
    -3.7972  -3.7498  -3.5497  -3.5120  -3.4550  -3.3515  -3.3360  -3.3132
    -3.2375  -3.0718  -2.9386  -2.7992  -2.6226  -2.6056  -2.4101  -1.6774
    -0.7826  -0.6877  -0.4256  -0.2397  -0.1702  -0.0134   0.5819   0.8252
     0.9902   1.0660   1.5155   1.7379   1.8626   2.2355   2.3497   2.5515
     2.7246   3.1132   3.4038   3.5633   3.6273   4.0735   4.3444   4.6801
     4.8907   4.9607   5.1491   5.2923   5.3049   5.3191   5.4666   5.7683
     5.8566   5.8858   5.9420   6.2419   6.2555

     the Fermi energy is     0.6145 ev

!    total energy              =   -1796.38432229 Ry
     Harris-Foulkes estimate   =   -1796.38432132 Ry
     estimated scf accuracy    <       0.00000082 Ry

     The total energy is the sum of the following terms:

     one-electron contribution =   -9649.20864705 Ry
     hartree contribution      =    4895.27288210 Ry
     xc contribution           =    -592.25689662 Ry
     ewald contribution        =    3549.83957427 Ry
     electric field correction =       0.00000095 Ry
     smearing contrib. (-TS)   =      -0.03123595 Ry

     convergence has been achieved in  17 iterations

 BEEF-vdW xc energy contributions
           1 :   -523.404279636959
           2 :    481.507785003846
           3 :   -409.353130794747
           4 :    325.260403624070
           5 :   -247.165613795646
           6 :    186.672901218291
           7 :   -146.562522680419
           8 :    122.281037777204
           9 :   -106.138890187570
          10 :    91.8116335850243
          11 :   -76.9452170102531
          12 :    62.9474743255246
          13 :   -52.6929950615967
          14 :    47.8624407324205
          15 :   -47.5574293655053
          16 :    48.8129990737209
          17 :   -48.4251301077423
          18 :    44.7985376883969
          19 :   -38.6779062867782
          20 :    32.4233465891976
          21 :   -28.4154156721129
          22 :    27.6337109356862
          23 :   -29.2424933192086
          24 :    31.3097879564393
          25 :   -32.0905441510904
          26 :    31.0228535872270
          27 :   -28.8663938434819
          28 :    27.0033765974301
          29 :   -26.4438354606790
          30 :    27.1958826310307
          31 :   -44.2514709227344
          32 :   -32.1850892772869

     Forces acting on atoms (Ry/au):

     negative rho (up, down):  3.857E-04 0.000E+00
     atom    1 type  1   force =     0.00000052    0.00693775    0.00230162
     atom    2 type  1   force =     0.00600677   -0.00346834    0.00230223
     atom    3 type  1   force =    -0.00600659   -0.00347024    0.00230082
     atom    4 type  2   force =    -0.00000032   -0.00000042    0.01099479
     atom    5 type  1   force =     0.00000046   -0.00598327   -0.00671239
     atom    6 type  1   force =    -0.00518139    0.00299120   -0.00671076
     atom    7 type  1   force =     0.00518242    0.00299264   -0.00671392
     atom    8 type  2   force =    -0.00000069    0.00000014   -0.00188315
     atom    9 type  1   force =     0.00000062   -0.00007074    0.00164310
     atom   10 type  1   force =    -0.00006091    0.00003558    0.00164197
     atom   11 type  1   force =     0.00005946    0.00003560    0.00164245
     atom   12 type  2   force =    -0.00000036    0.00000008   -0.00080675

     Total force =     0.023152     Total SCF correction =     0.005326
     SCF correction compared to forces is large: reduce conv_thr to get better values

     entering subroutine stress ...

     negative rho (up, down):  3.857E-04 0.000E+00
          total   stress  (Ry/bohr**3)                   (kbar)     P=   -4.73
  -0.00003624   0.00000000  -0.00000000         -5.33      0.00     -0.00
   0.00000000  -0.00003625   0.00000000          0.00     -5.33      0.00
  -0.00000000   0.00000000  -0.00002404         -0.00      0.00     -3.54

 !ASE

     Writing output data file calc.save

     General routines

     Parallel routines

   This run was terminated on:  12:35: 7   1Jan2019

   JOB DONE.
Job  /afs/slac/g/suncat/bin/suncat-tsmpirun -x LD_LIBRARY_PATH -wdir /scratch/qe648994_hvym2 pw.x -in pw.inp

TID   HOST_NAME   COMMAND_LINE            STATUS            TERMINATION_TIME
00000 suncat0278 pw.x -in pw.inp   Done                     01/01/2019 12:35:07
00001 suncat0278 pw.x -in pw.inp   Done                     01/01/2019 12:35:07
00002 suncat0278 pw.x -in pw.inp   Done                     01/01/2019 12:35:07
00003 suncat0278 pw.x -in pw.inp   Done                     01/01/2019 12:35:07
00004 suncat0278 pw.x -in pw.inp   Done                     01/01/2019 12:35:07
00005 suncat0278 pw.x -in pw.inp   Done                     01/01/2019 12:35:07
00006 suncat0278 pw.x -in pw.inp   Done                     01/01/2019 12:35:07
00007 suncat0278 pw.x -in pw.inp   Done                     01/01/2019 12:35:07
00008 suncat0271 pw.x -in pw.inp   Done                     01/01/2019 12:35:07
00009 suncat0271 pw.x -in pw.inp   Done                     01/01/2019 12:35:07
00010 suncat0271 pw.x -in pw.inp   Done                     01/01/2019 12:35:07
00011 suncat0271 pw.x -in pw.inp   Done                     01/01/2019 12:35:07
00012 suncat0271 pw.x -in pw.inp   Done                     01/01/2019 12:35:07
00013 suncat0271 pw.x -in pw.inp   Done                     01/01/2019 12:35:07
00014 suncat0271 pw.x -in pw.inp   Done                     01/01/2019 12:35:07
00015 suncat0271 pw.x -in pw.inp   Done                     01/01/2019 12:35:07
00016 suncat0266 pw.x -in pw.inp   Done                     01/01/2019 12:35:07
00017 suncat0266 pw.x -in pw.inp   Done                     01/01/2019 12:35:07
00018 suncat0266 pw.x -in pw.inp   Done                     01/01/2019 12:35:07
00019 suncat0266 pw.x -in pw.inp   Done                     01/01/2019 12:35:07
00020 suncat0266 pw.x -in pw.inp   Done                     01/01/2019 12:35:07
00021 suncat0266 pw.x -in pw.inp   Done                     01/01/2019 12:35:07
00022 suncat0266 pw.x -in pw.inp   Done                     01/01/2019 12:35:07
00023 suncat0266 pw.x -in pw.inp   Done                     01/01/2019 12:35:07
00024 suncat0251 pw.x -in pw.inp   Done                     01/01/2019 12:35:07
00025 suncat0251 pw.x -in pw.inp   Done                     01/01/2019 12:35:07
00026 suncat0251 pw.x -in pw.inp   Done                     01/01/2019 12:35:07
00027 suncat0251 pw.x -in pw.inp   Done                     01/01/2019 12:35:07
00028 suncat0251 pw.x -in pw.inp   Done                     01/01/2019 12:35:07
00029 suncat0251 pw.x -in pw.inp   Done                     01/01/2019 12:35:07
00030 suncat0251 pw.x -in pw.inp   Done                     01/01/2019 12:35:07
00031 suncat0251 pw.x -in pw.inp   Done                     01/01/2019 12:35:07
00032 suncat0244 pw.x -in pw.inp   Done                     01/01/2019 12:35:07
00033 suncat0244 pw.x -in pw.inp   Done                     01/01/2019 12:35:07
00034 suncat0244 pw.x -in pw.inp   Done                     01/01/2019 12:35:07
00035 suncat0244 pw.x -in pw.inp   Done                     01/01/2019 12:35:07
00036 suncat0244 pw.x -in pw.inp   Done                     01/01/2019 12:35:07
00037 suncat0244 pw.x -in pw.inp   Done                     01/01/2019 12:35:07
00038 suncat0244 pw.x -in pw.inp   Done                     01/01/2019 12:35:07
00039 suncat0244 pw.x -in pw.inp   Done                     01/01/2019 12:35:07
00040 suncat0239 pw.x -in pw.inp   Done                     01/01/2019 12:35:07
00041 suncat0239 pw.x -in pw.inp   Done                     01/01/2019 12:35:07
00042 suncat0239 pw.x -in pw.inp   Done                     01/01/2019 12:35:07
00043 suncat0239 pw.x -in pw.inp   Done                     01/01/2019 12:35:07
00044 suncat0239 pw.x -in pw.inp   Done                     01/01/2019 12:35:07
00045 suncat0239 pw.x -in pw.inp   Done                     01/01/2019 12:35:07
00046 suncat0239 pw.x -in pw.inp   Done                     01/01/2019 12:35:07
00047 suncat0239 pw.x -in pw.inp   Done                     01/01/2019 12:35:07
00048 suncat0099 pw.x -in pw.inp   Done                     01/01/2019 12:35:07
00049 suncat0099 pw.x -in pw.inp   Done                     01/01/2019 12:35:07
00050 suncat0099 pw.x -in pw.inp   Done                     01/01/2019 12:35:07
00051 suncat0099 pw.x -in pw.inp   Done                     01/01/2019 12:35:07
00052 suncat0099 pw.x -in pw.inp   Done                     01/01/2019 12:35:07
00053 suncat0099 pw.x -in pw.inp   Done                     01/01/2019 12:35:07
00054 suncat0099 pw.x -in pw.inp   Done                     01/01/2019 12:35:07
00055 suncat0099 pw.x -in pw.inp   Done                     01/01/2019 12:35:07
00056 suncat0098 pw.x -in pw.inp   Done                     01/01/2019 12:35:07
00057 suncat0098 pw.x -in pw.inp   Done                     01/01/2019 12:35:07
00058 suncat0098 pw.x -in pw.inp   Done                     01/01/2019 12:35:07
00059 suncat0098 pw.x -in pw.inp   Done                     01/01/2019 12:35:07
00060 suncat0098 pw.x -in pw.inp   Done                     01/01/2019 12:35:07
00061 suncat0098 pw.x -in pw.inp   Done                     01/01/2019 12:35:07
00062 suncat0098 pw.x -in pw.inp   Done                     01/01/2019 12:35:07
00063 suncat0098 pw.x -in pw.inp   Done                     01/01/2019 12:35:07