     Program PWSCF v.5.1rc2 (svn rev. 11289) starts on 30Dec2018 at  8:18:37

     Current dimensions of program PWSCF are:
     Max number of different atomic species (ntypx) = 10
     Max number of k-points (npk) =  40000
     Max angular momentum in pseudopotentials (lmaxx) =  3
     Presently stress not available with electric field

     IMPORTANT: XC functional enforced from input :
     Exchange-correlation      = BEEF-VDW ( 1  4 27 13 2)
     Any further DFT definition will be discarded
     Please, verify this is what you really want

     Subspace diagonalization in iterative solution of the eigenvalue problem:
     a serial algorithm will be used

     bravais-lattice index     =            0
     lattice parameter (alat)  =       1.8897  a.u.
     unit-cell volume          =    6781.5529 (a.u.)^3
     number of atoms/cell      =           12
     number of atomic types    =            2
     number of electrons       =       165.00
     number of Kohn-Sham states=          112
     kinetic-energy cutoff     =      36.7493  Ry
     charge density cutoff     =     367.4932  Ry
     convergence threshold     =      1.0E-06
     mixing beta               =       0.1000
     number of iterations used =           10  plain     mixing
     Exchange-correlation      = BEEF-VDW ( 1  4 27 13 2)
     nstep                     =           50

     celldm(1)=   1.889726  celldm(2)=   0.000000  celldm(3)=   0.000000
     celldm(4)=   0.000000  celldm(5)=   0.000000  celldm(6)=   0.000000

     crystal axes: (cart. coord. in units of alat)
               a(1) = (   6.744818   0.000000   0.000000 )
               a(2) = (  -3.372409   5.841184   0.000000 )
               a(3) = (   0.000000   0.000000  25.507121 )

     reciprocal axes: (cart. coord. in units 2 pi/alat)
               b(1) = (  0.148262  0.085599  0.000000 )
               b(2) = (  0.000000  0.171198  0.000000 )
               b(3) = (  0.000000  0.000000  0.039205 )

     PseudoPot. # 1 for Hg read from file:
     /afs/slac.stanford.edu/u/if/mamunm/psp/gbrv1.5pbe/Hg.UPF
     MD5 check sum: 8f42caffe07f7fd9c0a564347f8c5498
     Pseudo is Ultrasoft + core correction, Zval = 12.0
     Generated by new atomic code, or converted to UPF format
     Using radial grid of  985 points,  6 beta functions with:
                l(1) =   0
                l(2) =   0
                l(3) =   1
                l(4) =   1
                l(5) =   2
                l(6) =   2
     Q(r) pseudized with  8 coefficients,  rinner =    2.000   2.000   2.000
                                                       2.000   2.000

     PseudoPot. # 2 for Ga read from file:
     /afs/slac.stanford.edu/u/if/mamunm/psp/gbrv1.5pbe/Ga.UPF
     MD5 check sum: ccd671392a58a050fbb373893b4fcd66
     Pseudo is Ultrasoft + core correction, Zval = 19.0
     Generated by new atomic code, or converted to UPF format
     Using radial grid of  871 points,  6 beta functions with:
                l(1) =   0
                l(2) =   0
                l(3) =   1
                l(4) =   1
                l(5) =   2
                l(6) =   2
     Q(r) pseudized with  8 coefficients,  rinner =    1.250   1.250   1.250
                                                       1.250   1.250

     vdW kernel table read from file vdW_kernel_table
     MD5 check sum: 095c7af220d748ca6e76c0b4c6cfb241

     atomic species   valence    mass     pseudopotential
        Hg1           12.00   200.59200     Hg( 1.00)
        Ga1           19.00    69.72300     Ga( 1.00)

     No symmetry found

   Cartesian axes

     site n.     atom                  positions (alat units)
         1           Hg1 tau(   1) = (   0.0000000   0.0000000  10.0000000  )
         2           Hg1 tau(   2) = (  -1.6862045   2.9205919  10.0000000  )
         3           Hg1 tau(   3) = (   1.6862045   2.9205919  10.0000000  )
         4           Ga1 tau(   4) = (   3.3724090   0.0000000  10.0000000  )
         5           Hg1 tau(   5) = (   3.3724090   1.9470613  12.7535604  )
         6           Hg1 tau(   6) = (   1.6862045   4.8676532  12.7535604  )
         7           Hg1 tau(   7) = (  -1.6862045   4.8676532  12.7535604  )
         8           Ga1 tau(   8) = (   0.0000000   1.9470613  12.7535604  )
         9           Hg1 tau(   9) = (  -0.0000000   3.8941225  15.5071209  )
        10           Hg1 tau(  10) = (   1.6862045   0.9735306  15.5071209  )
        11           Hg1 tau(  11) = (   5.0586136   0.9735306  15.5071209  )
        12           Ga1 tau(  12) = (   3.3724090   3.8941225  15.5071209  )

     number of k points=    20  Fermi-Dirac smearing, width (Ry)=  0.0110
                       cart. coord. in units 2pi/alat
        k(    1) = (   0.0000000   0.0000000   0.0000000), wk =   0.0555556
        k(    2) = (   0.0000000   0.0285330   0.0000000), wk =   0.1111111
        k(    3) = (   0.0000000   0.0570661   0.0000000), wk =   0.1111111
        k(    4) = (   0.0000000  -0.0855991   0.0000000), wk =   0.0555556
        k(    5) = (   0.0247103   0.0142665   0.0000000), wk =   0.1111111
        k(    6) = (   0.0247103   0.0427995   0.0000000), wk =   0.1111111
        k(    7) = (   0.0247103   0.0713326   0.0000000), wk =   0.1111111
        k(    8) = (   0.0247103  -0.0713326   0.0000000), wk =   0.1111111
        k(    9) = (   0.0247103  -0.0427995   0.0000000), wk =   0.1111111
        k(   10) = (   0.0247103  -0.0142665   0.0000000), wk =   0.1111111
        k(   11) = (   0.0494207   0.0285330   0.0000000), wk =   0.1111111
        k(   12) = (   0.0494207   0.0570661   0.0000000), wk =   0.1111111
        k(   13) = (   0.0494207   0.0855991   0.0000000), wk =   0.1111111
        k(   14) = (   0.0494207  -0.0570661   0.0000000), wk =   0.1111111
        k(   15) = (   0.0494207  -0.0285330   0.0000000), wk =   0.1111111
        k(   16) = (   0.0494207  -0.0000000   0.0000000), wk =   0.1111111
        k(   17) = (  -0.0741310  -0.0427995   0.0000000), wk =   0.0555556
        k(   18) = (  -0.0741310  -0.0142665   0.0000000), wk =   0.1111111
        k(   19) = (  -0.0741310   0.0142665   0.0000000), wk =   0.1111111
        k(   20) = (  -0.0741310  -0.1283986   0.0000000), wk =   0.0555556

     Largest allocated arrays     est. size (Mb)     dimensions
     Largest temporary arrays     est. size (Mb)     dimensions

     Initial potential from superposition of free atoms
     Check: negative starting charge=   -0.000608

     starting charge  161.99947, renormalised to  165.00000

     negative rho (up, down):  6.195E-04 0.000E+00

     *
     * You are using vdW-DF for exchange-correlation in this calculation.
     * Please cite the following three references that made this development
     * possible:
     *
     *   M. Dion, H. Rydberg, E. Schroder, D. C. Langreth, and
     *   B. I. Lundqvist, Phys. Rev. Lett. 92, 246401 (2004).
     *
     *   T. Thonhauser, V. R. Cooper, S. Li, A. Puzder, P. Hyldgaard, and
     *   D. C. Langreth, Phys. Rev. B 76, 125112 (2007).
     *
     *   G. Roman-Perez and J. M. Soler, Phys. Rev. Lett. 103, 096102 (2009).
     *
     *
     * If you are using vdW-DF2, please also cite:
     *
     *   K. Lee, E. D. Murray, L. Kong, B. I. Lundqvist, and
     *   D. C. Langreth, Phys. Rev. B 82, 081101(R) (2010).
     *
     *
     * If you are calculating the stress with vdW-DF, please also cite:
     *
     *   R. Sabatini, E. Kucukbenli, B. Kolb, T. Thonhauser, and
     *   S. de Gironcoli, J. Phys.: Condens. Matter 24, 424209 (2012).
     *

     Carrying out vdW-DF run using the following parameters:

     Nqs =      20    Nr_points =    1024   r_max =   100.000
     q_mesh =
               0.00001000     0.04494208     0.09755937     0.15916263
               0.23128650     0.31572767     0.41458969     0.53033537
               0.66584808     0.82450364     1.01025438     1.22772762
               1.48234092     1.78043706     2.12944203     2.53805004
               3.01644009     3.57652955     4.23227104     5.00000000

     Gradients computed in reciprocal space

     Adding external electric field

     Computed dipole along edir(3) :
        Dipole               -0.0000 Ry au,         -0.0000 Debye
        Dipole field         -0.0000 Ry au

        Potential amp.        0.0000 Ry
        Total length         46.9964 bohr

     Starting wfc are  117 randomized atomic wfcs

     Self-consistent Calculation

     iteration #  1     ecut=    36.75 Ry     beta=0.10
     Davidson diagonalization with overlap
     ethr =  1.00E-02,  avg # of iterations =  8.4

[...]

     total energy              =   -2232.02548709 Ry
     Harris-Foulkes estimate   =   -2232.39340355 Ry
     estimated scf accuracy    <       2.16482881 Ry

[...]

     End of self-consistent calculation

          k = 0.0000 0.0000 0.0000 ( 25581 PWs)   bands (ev):

   -95.3192 -95.3166 -95.3166 -95.3121 -95.3121 -95.3061 -95.3061 -95.3058
   -95.3058 -15.6363 -15.6341 -15.6341 -15.6313 -15.6313 -15.6237 -15.6232
   -15.6198 -15.6198 -15.6193 -15.6193 -15.6179 -15.6179 -15.6176 -15.6176
    -8.1314  -7.7538  -7.5533  -7.4486  -7.4213  -7.3790  -7.3790  -7.3508
    -7.3048  -7.2426  -7.2426  -7.1734  -7.1734  -7.1280  -7.1280  -6.9968
    -6.9968  -6.9842  -6.9272  -6.8073  -6.8073  -6.7575  -6.7224  -6.7197
    -6.7197  -6.6415  -6.6415  -6.5759  -6.5759  -6.5299  -6.5299  -6.5173
    -6.4307  -6.4307  -6.4127  -6.4127  -6.4040  -6.4040  -6.3112  -6.3112
    -6.2959  -6.2723  -6.2194  -6.1684  -6.1684  -6.0719  -6.0617  -4.6892
    -3.5773  -3.5314  -2.8180  -2.6562  -2.6562  -2.4677  -2.4677  -1.4057
    -1.4057  -1.0897  -1.0897  -0.9989  -0.4130   0.3418   0.3418   0.3440
     0.4897   0.4897   0.8054   1.7390   3.1961   3.2026   3.5477   3.9046
     4.4483   4.4483   4.5927   4.5927   4.6118   4.8143   5.5166   5.5166
     5.6066   6.3385   6.5080   6.5080   6.5098   6.5098   6.6285   6.9166

[...]

          k =-0.0741-0.0428 0.0000 ( 25506 PWs)   bands (ev):

[...]

     the Fermi energy is     0.0313 ev

!    total energy              =   -2231.70223352 Ry
     Harris-Foulkes estimate   =   -2231.70222870 Ry
     estimated scf accuracy    <       0.00000068 Ry

     The total energy is the sum of the following terms:

     one-electron contribution =  -10619.76398258 Ry
     hartree contribution      =    5376.28722793 Ry
     xc contribution           =    -512.59691184 Ry
     ewald contribution        =    3524.39613725 Ry
     electric field correction =       0.00000000 Ry
     smearing contrib. (-TS)   =      -0.02470429 Ry

     convergence has been achieved in  13 iterations

 BEEF-vdW xc energy contributions
           1 :   -451.823464510010
           2 :    413.362791839837
           3 :   -347.702962948715
           4 :    272.147938617569
           5 :   -202.894223734510
           6 :    149.566314542599
           7 :   -113.556002361679
           8 :    90.1839419234165
           9 :   -72.9228975467643
          10 :    57.1854698115399
          11 :   -41.8675818496706
          12 :    28.4041932391169
          13 :   -18.5568532842254
          14 :    12.6338977809768
          15 :   -9.20975809350182
[...]
     /afs/slac.stanford.edu/u/if/mamunm/psp/gbrv1.5pbe/Hg.UPF
     MD5 check sum: 8f42caffe07f7fd9c0a564347f8c5498
     Pseudo is Ultrasoft + core correction, Zval = 12.0
     Generated by new atomic code, or converted to UPF format
     Using radial grid of  985 points,  6 beta functions with:
                l(1) =   0
                l(2) =   0
                l(3) =   1
                l(4) =   1
                l(5) =   2
                l(6) =   2
     Q(r) pseudized with  8 coefficients,  rinner =    2.000   2.000   2.000
                                                       2.000   2.000

     PseudoPot. # 2 for Ga read from file:
     /afs/slac.stanford.edu/u/if/mamunm/psp/gbrv1.5pbe/Ga.UPF
     MD5 check sum: ccd671392a58a050fbb373893b4fcd66
     Pseudo is Ultrasoft + core correction, Zval = 19.0
     Generated by new atomic code, or converted to UPF format
     Using radial grid of  871 points,  6 beta functions with:
                l(1) =   0
                l(2) =   0
                l(3) =   1
                l(4) =   1
                l(5) =   2
                l(6) =   2
     Q(r) pseudized with  8 coefficients,  rinner =    1.250   1.250   1.250
                                                       1.250   1.250

     vdW kernel table read from file vdW_kernel_table
     MD5 check sum: 095c7af220d748ca6e76c0b4c6cfb241

     atomic species   valence    mass     pseudopotential
        Hg1           12.00   200.59200     Hg( 1.00)
        Ga1           19.00    69.72300     Ga( 1.00)

     No symmetry found

   Cartesian axes

     site n.     atom                  positions (alat units)
         1           Hg1 tau(   1) = (   0.0000000   0.0000000  10.0000000  )
         2           Hg1 tau(   2) = (  -1.6862045   2.9205919  10.0000000  )
         3           Hg1 tau(   3) = (   1.6862045   2.9205919  10.0000000  )
         4           Ga1 tau(   4) = (   3.3724090   0.0000000  10.0000000  )
         5           Hg1 tau(   5) = (   3.3724090   1.9470613  12.7535604  )
         6           Hg1 tau(   6) = (   1.6862045   4.8676532  12.7535604  )
         7           Hg1 tau(   7) = (  -1.6862045   4.8676532  12.7535604  )
         8           Ga1 tau(   8) = (   0.0000000   1.9470613  12.7535604  )
         9           Hg1 tau(   9) = (  -0.0001520   3.8890394  15.8319123  )
        10           Hg1 tau(  10) = (   1.6818907   0.9761205  15.8319097  )
        11           Hg1 tau(  11) = (   5.0628814   0.9762322  15.8318916  )
        12           Ga1 tau(  12) = (   3.3731135   3.8936856  15.2142828  )

     number of k points=    20  Fermi-Dirac smearing, width (Ry)=  0.0110
                       cart. coord. in units 2pi/alat
        k(    1) = (   0.0000000   0.0000000   0.0000000), wk =   0.0555556
        k(    2) = (   0.0000000   0.0285330   0.0000000), wk =   0.1111111
        k(    3) = (   0.0000000   0.0570661   0.0000000), wk =   0.1111111
        k(    4) = (   0.0000000  -0.0855991   0.0000000), wk =   0.0555556
        k(    5) = (   0.0247103   0.0142665   0.0000000), wk =   0.1111111
        k(    6) = (   0.0247103   0.0427995   0.0000000), wk =   0.1111111
        k(    7) = (   0.0247103   0.0713326   0.0000000), wk =   0.1111111
        k(    8) = (   0.0247103  -0.0713326   0.0000000), wk =   0.1111111
        k(    9) = (   0.0247103  -0.0427995   0.0000000), wk =   0.1111111
        k(   10) = (   0.0247103  -0.0142665   0.0000000), wk =   0.1111111
        k(   11) = (   0.0494207   0.0285330   0.0000000), wk =   0.1111111
        k(   12) = (   0.0494207   0.0570661   0.0000000), wk =   0.1111111
        k(   13) = (   0.0494207   0.0855991   0.0000000), wk =   0.1111111
        k(   14) = (   0.0494207  -0.0570661   0.0000000), wk =   0.1111111
        k(   15) = (   0.0494207  -0.0285330   0.0000000), wk =   0.1111111
        k(   16) = (   0.0494207  -0.0000000   0.0000000), wk =   0.1111111
        k(   17) = (  -0.0741310  -0.0427995   0.0000000), wk =   0.0555556
        k(   18) = (  -0.0741310  -0.0142665   0.0000000), wk =   0.1111111
        k(   19) = (  -0.0741310   0.0142665   0.0000000), wk =   0.1111111
        k(   20) = (  -0.0741310  -0.1283986   0.0000000), wk =   0.0555556

     Largest allocated arrays     est. size (Mb)     dimensions
     Largest temporary arrays     est. size (Mb)     dimensions

     Initial potential from superposition of free atoms
     Check: negative starting charge=   -0.000574

     starting charge  161.99947, renormalised to  165.00000

[...]

     *
     * You are using vdW-DF for exchange-correlation in this calculation.
     * Please cite the following three references that made this development
     * possible:
     *
     *   M. Dion, H. Rydberg, E. Schroder, D. C. Langreth, and
     *   B. I. Lundqvist, Phys. Rev. Lett. 92, 246401 (2004).
     *
     *   T. Thonhauser, V. R. Cooper, S. Li, A. Puzder, P. Hyldgaard, and
     *   D. C. Langreth, Phys. Rev. B 76, 125112 (2007).
     *
     *   G. Roman-Perez and J. M. Soler, Phys. Rev. Lett. 103, 096102 (2009).
     *
     *
     * If you are using vdW-DF2, please also cite:
     *
     *   K. Lee, E. D. Murray, L. Kong, B. I. Lundqvist, and
     *   D. C. Langreth, Phys. Rev. B 82, 081101(R) (2010).
     *
     *
     * If you are calculating the stress with vdW-DF, please also cite:
     *
     *   R. Sabatini, E. Kucukbenli, B. Kolb, T. Thonhauser, and
     *   S. de Gironcoli, J. Phys.: Condens. Matter 24, 424209 (2012).
     *

     Carrying out vdW-DF run using the following parameters:

     Nqs =      20    Nr_points =    1024   r_max =   100.000
     q_mesh =
               0.00001000     0.04494208     0.09755937     0.15916263
               0.23128650     0.31572767     0.41458969     0.53033537
               0.66584808     0.82450364     1.01025438     1.22772762
               1.48234092     1.78043706     2.12944203     2.53805004
               3.01644009     3.57652955     4.23227104     5.00000000

     Gradients computed in reciprocal space

[...]

     Starting wfc are  117 randomized atomic wfcs

     Self-consistent Calculation

[...]

     total energy              =   -2231.71046282 Ry
     Harris-Foulkes estimate   =   -2231.71046142 Ry
     estimated scf accuracy    <       0.00000174 Ry

     iteration # 14     ecut=    36.75 Ry     beta=0.10
     Davidson diagonalization with overlap
     ethr =  1.05E-09,  avg # of iterations =  2.0

[...]

     negative rho (up, down):  4.740E-04 0.000E+00

     Adding external electric field

     Computed dipole along edir(3) :
        Dipole               -0.0201 Ry au,         -0.0510 Debye
        Dipole field         -0.0000 Ry au

        Potential amp.        0.0035 Ry
        Total length         46.9964 bohr

     End of self-consistent calculation

[...]

          k = 0.0494-0.0000 0.0000 ( 25506 PWs)   bands (ev):

[...]

          k =-0.0741-0.1284 0.0000 ( 25506 PWs)   bands (ev):

   -95.3473 -95.3420 -95.3420 -95.2947 -95.2908 -95.2908 -95.2328 -95.2328
   -95.2240 -15.6605 -15.6570 -15.6570 -15.6542 -15.6536 -15.6058 -15.6037
   -15.6035 -15.6023 -15.6019 -15.5492 -15.5488 -15.5424 -15.5423 -15.5396
    -7.5434  -7.4009  -7.3690  -7.2830  -7.2202  -7.2033  -7.1789  -7.1232
    -7.0948  -7.0899  -7.0526  -7.0447  -7.0317  -6.9759  -6.9353  -6.8849
    -6.8658  -6.8620  -6.7973  -6.7660  -6.7548  -6.7520  -6.7044  -6.6829
    -6.6749  -6.6609  -6.6522  -6.6438  -6.6268  -6.6124  -6.6065  -6.5915
    -6.5819  -6.5625  -6.5451  -6.5323  -6.5195  -6.4988  -6.4829  -6.4349
    -6.3785  -6.3702  -6.3542  -6.3198  -6.2666  -6.2349  -6.1625  -5.5099
    -5.0526  -4.4483  -3.6956  -3.5858  -3.5665  -3.0844  -2.5060  -2.2575
    -1.2914   0.3449   0.4886   0.9865   1.2527   1.3659   1.5901   1.8229
     2.1293   2.1674   2.5561   2.8566   3.0260   3.0921   3.5969   3.7103
     3.9452   4.0074   4.2303   4.2597   4.7963   4.8774   4.9187   4.9327
     4.9400   4.9746   5.0925   5.4255   5.5913   5.6146   5.7324   5.9377

     the Fermi energy is     0.0283 ev

!    total energy              =   -2231.71046855 Ry
     Harris-Foulkes estimate   =   -2231.71046294 Ry
     estimated scf accuracy    <       0.00000061 Ry

     The total energy is the sum of the following terms:

     one-electron contribution =  -10451.94233696 Ry
     hartree contribution      =    5292.46638325 Ry
     xc contribution           =    -512.55839735 Ry
     ewald contribution        =    3440.34823952 Ry
     electric field correction =       0.00000075 Ry
     smearing contrib. (-TS)   =      -0.02435775 Ry

     convergence has been achieved in  14 iterations

 BEEF-vdW xc energy contributions
           1 :   -451.768746079713
           2 :    413.223398353904
           3 :   -347.485826761078
           4 :    271.953147361816
           5 :   -202.833079056634
           6 :    149.669818795334
           7 :   -113.744017260384
           8 :    90.3178831346055
           9 :   -72.9033793230631
          10 :    57.0238017965436
          11 :   -41.6787008451270
          12 :    28.3251197743286
          13 :   -18.6487216153203
          14 :    12.8382745273594
          15 :   -9.39118244252916
          16 :    6.25477629362786
          17 :   -2.24676629746534
          18 :   -2.30908659402718
          19 :    6.07586078123904
          20 :   -7.84219859432812
          21 :    7.44578039429541
          22 :   -5.87795270226212
          23 :    4.58916544529279
          24 :   -4.55582508275040
          25 :    5.75993986269043
          26 :   -7.37149300902297
          27 :    8.41020725730323
          28 :   -8.38032490333660
          29 :    7.47295953563992
          30 :   -6.29309283833095
          31 :   -39.3950981173682
          32 :   -28.1928482678670

     Forces acting on atoms (Ry/au):

     negative rho (up, down):  4.740E-04 0.000E+00
     atom    1 type  1   force =     0.00000099    0.00034509   -0.00708096
     atom    2 type  1   force =     0.00029785   -0.00017163   -0.00708008
     atom    3 type  1   force =    -0.00029987   -0.00017408   -0.00707907
     atom    4 type  2   force =    -0.00000401   -0.00000144    0.00475066
     atom    5 type  1   force =    -0.00000261   -0.00599301    0.00409877
     atom    6 type  1   force =    -0.00518367    0.00299266    0.00411648
     atom    7 type  1   force =     0.00519082    0.00299885    0.00410097
     atom    8 type  2   force =     0.00000105    0.00000647    0.00280752
     atom    9 type  1   force =     0.00001761    0.00079128    0.00044918
     atom   10 type  1   force =     0.00066743   -0.00038795    0.00045062
     atom   11 type  1   force =    -0.00067215   -0.00041157    0.00045095
     atom   12 type  2   force =    -0.00001343    0.00000534    0.00001496

     Total force =     0.018490     Total SCF correction =     0.001853
     SCF correction compared to forces is large: reduce conv_thr to get better values

     entering subroutine stress ...

     negative rho (up, down):  4.740E-04 0.000E+00
          total   stress  (Ry/bohr**3)                   (kbar)     P=    1.03
   0.00000325   0.00000000   0.00000000          0.48      0.00      0.00
   0.00000000   0.00000325  -0.00000000          0.00      0.48     -0.00
   0.00000000  -0.00000000   0.00001457          0.00     -0.00      2.14

 !ASE

     Writing output data file calc.save

     General routines

     Parallel routines

   This run was terminated on:  10: 4:48  30Dec2018

   JOB DONE.
Job  /afs/slac/g/suncat/bin/suncat-tsmpirun -x LD_LIBRARY_PATH -wdir /scratch/qe648486_HzZGn pw.x -in pw.inp

TID   HOST_NAME   COMMAND_LINE            STATUS            TERMINATION_TIME
00000 suncat0154 pw.x -in pw.inp   Done                     12/30/2018 10:04:49
00001 suncat0154 pw.x -in pw.inp   Done                     12/30/2018 10:04:49
00002 suncat0154 pw.x -in pw.inp   Done                     12/30/2018 10:04:49
00003 suncat0154 pw.x -in pw.inp   Done                     12/30/2018 10:04:49
00004 suncat0154 pw.x -in pw.inp   Done                     12/30/2018 10:04:49
00005 suncat0154 pw.x -in pw.inp   Done                     12/30/2018 10:04:49
00006 suncat0154 pw.x -in pw.inp   Done                     12/30/2018 10:04:49
00007 suncat0154 pw.x -in pw.inp   Done                     12/30/2018 10:04:49
00008 suncat0143 pw.x -in pw.inp   Done                     12/30/2018 10:04:49
00009 suncat0143 pw.x -in pw.inp   Done                     12/30/2018 10:04:49
00010 suncat0143 pw.x -in pw.inp   Done                     12/30/2018 10:04:49
00011 suncat0143 pw.x -in pw.inp   Done                     12/30/2018 10:04:49
00012 suncat0143 pw.x -in pw.inp   Done                     12/30/2018 10:04:49
00013 suncat0143 pw.x -in pw.inp   Done                     12/30/2018 10:04:49
00014 suncat0143 pw.x -in pw.inp   Done                     12/30/2018 10:04:49
00015 suncat0143 pw.x -in pw.inp   Done                     12/30/2018 10:04:49
00016 suncat0108 pw.x -in pw.inp   Done                     12/30/2018 10:04:49
00017 suncat0108 pw.x -in pw.inp   Done                     12/30/2018 10:04:49
00018 suncat0108 pw.x -in pw.inp   Done                     12/30/2018 10:04:49
00019 suncat0108 pw.x -in pw.inp   Done                     12/30/2018 10:04:49
00020 suncat0108 pw.x -in pw.inp   Done                     12/30/2018 10:04:49
00021 suncat0108 pw.x -in pw.inp   Done                     12/30/2018 10:04:49
00022 suncat0108 pw.x -in pw.inp   Done                     12/30/2018 10:04:49
00023 suncat0108 pw.x -in pw.inp   Done                     12/30/2018 10:04:49
00024 suncat0252 pw.x -in pw.inp   Done                     12/30/2018 10:04:49
00025 suncat0252 pw.x -in pw.inp   Done                     12/30/2018 10:04:49
00026 suncat0252 pw.x -in pw.inp   Done                     12/30/2018 10:04:49
00027 suncat0252 pw.x -in pw.inp   Done                     12/30/2018 10:04:49
00028 suncat0252 pw.x -in pw.inp   Done                     12/30/2018 10:04:49
00029 suncat0252 pw.x -in pw.inp   Done                     12/30/2018 10:04:49
00030 suncat0252 pw.x -in pw.inp   Done                     12/30/2018 10:04:49
00031 suncat0252 pw.x -in pw.inp   Done                     12/30/2018 10:04:49
00032 suncat0226 pw.x -in pw.inp   Done                     12/30/2018 10:04:49
00033 suncat0226 pw.x -in pw.inp   Done                     12/30/2018 10:04:49
00034 suncat0226 pw.x -in pw.inp   Done                     12/30/2018 10:04:49
00035 suncat0226 pw.x -in pw.inp   Done                     12/30/2018 10:04:49
00036 suncat0226 pw.x -in pw.inp   Done                     12/30/2018 10:04:49
00037 suncat0226 pw.x -in pw.inp   Done                     12/30/2018 10:04:49
00038 suncat0226 pw.x -in pw.inp   Done                     12/30/2018 10:04:49
00039 suncat0226 pw.x -in pw.inp   Done                     12/30/2018 10:04:49
00040 suncat0225 pw.x -in pw.inp   Done                     12/30/2018 10:04:49
00041 suncat0225 pw.x -in pw.inp   Done                     12/30/2018 10:04:49
00042 suncat0225 pw.x -in pw.inp   Done                     12/30/2018 10:04:49
00043 suncat0225 pw.x -in pw.inp   Done                     12/30/2018 10:04:49
00044 suncat0225 pw.x -in pw.inp   Done                     12/30/2018 10:04:49
00045 suncat0225 pw.x -in pw.inp   Done                     12/30/2018 10:04:49
00046 suncat0225 pw.x -in pw.inp   Done                     12/30/2018 10:04:49
00047 suncat0225 pw.x -in pw.inp   Done                     12/30/2018 10:04:49
00048 suncat0224 pw.x -in pw.inp   Done                     12/30/2018 10:04:49
00049 suncat0224 pw.x -in pw.inp   Done                     12/30/2018 10:04:49
00050 suncat0224 pw.x -in pw.inp   Done                     12/30/2018 10:04:49
00051 suncat0224 pw.x -in pw.inp   Done                     12/30/2018 10:04:49
00052 suncat0224 pw.x -in pw.inp   Done                     12/30/2018 10:04:49
00053 suncat0224 pw.x -in pw.inp   Done                     12/30/2018 10:04:49
00054 suncat0224 pw.x -in pw.inp   Done                     12/30/2018 10:04:49
00055 suncat0224 pw.x -in pw.inp   Done                     12/30/2018 10:04:49
00056 suncat0223 pw.x -in pw.inp   Done                     12/30/2018 10:04:49
00057 suncat0223 pw.x -in pw.inp   Done                     12/30/2018 10:04:49
00058 suncat0223 pw.x -in pw.inp   Done                     12/30/2018 10:04:49
00059 suncat0223 pw.x -in pw.inp   Done                     12/30/2018 10:04:49
00060 suncat0223 pw.x -in pw.inp   Done                     12/30/2018 10:04:49
00061 suncat0223 pw.x -in pw.inp   Done                     12/30/2018 10:04:49
00062 suncat0223 pw.x -in pw.inp   Done                     12/30/2018 10:04:49
00063 suncat0223 pw.x -in pw.inp   Done                     12/30/2018 10:04:49