     Program PWSCF v.5.1rc2 (svn rev. 11289) starts on  1Jan2019 at  2:19:43

     Current dimensions of program PWSCF are:
     Max number of different atomic species (ntypx) = 10
     Max number of k-points (npk) =  40000
     Max angular momentum in pseudopotentials (lmaxx) =  3
     Presently stress not available with electric field

     IMPORTANT: XC functional enforced from input :
     Exchange-correlation      = BEEF-VDW ( 1  4 27 13 2)
     Any further DFT definition will be discarded
     Please, verify this is what you really want

     Subspace diagonalization in iterative solution of the eigenvalue problem:
     a serial algorithm will be used

     Generating pointlists ...
     new r_m :   0.4125 (alat units)  0.7795 (a.u.) for type    1
     new r_m :   0.4125 (alat units)  0.7795 (a.u.) for type    2

     bravais-lattice index     =            0
     lattice parameter (alat)  =       1.8897  a.u.
     unit-cell volume          =    4047.6353 (a.u.)^3
     number of atoms/cell      =           12
     number of atomic types    =            2
     number of electrons       =       189.00
     number of Kohn-Sham states=          124
     kinetic-energy cutoff     =      36.7493  Ry
     charge density cutoff     =     367.4932  Ry
     convergence threshold     =      1.0E-06
     mixing beta               =       0.1000
     number of iterations used =           10  plain     mixing
     Exchange-correlation      = BEEF-VDW ( 1  4 27 13 2)
     nstep                     =           50

     celldm(1)=   1.889726  celldm(2)=   0.000000  celldm(3)=   0.000000
     celldm(4)=   0.000000  celldm(5)=   0.000000  celldm(6)=   0.000000

     crystal axes: (cart. coord. in units of alat)
               a(1) = (   5.332741   0.000000   0.000000 )
               a(2) = (  -2.666370   4.618289   0.000000 )
               a(3) = (   0.000000   0.000000  24.354164 )

     reciprocal axes: (cart. coord. in units 2 pi/alat)
               b(1) = (  0.187521  0.108265  0.000000 )
               b(2) = (  0.000000  0.216530  0.000000 )
               b(3) = (  0.000000  0.000000  0.041061 )

     PseudoPot. # 1 for Ru read from file:
     /afs/slac.stanford.edu/u/if/mamunm/psp/gbrv1.5pbe/Ru.UPF
     MD5 check sum: 7158a806dd851261a58e6920c40ebe78
     Pseudo is Ultrasoft + core correction, Zval = 16.0
     Generated by new atomic code, or converted to UPF format
     Using radial grid of  967 points,  6 beta functions with:
                l(1) =   0
                l(2) =   0
                l(3) =   1
                l(4) =   1
                l(5) =   2
                l(6) =   2
     Q(r) pseudized with  8 coefficients,  rinner =    1.300   1.300   1.300
                                                       1.300   1.300

     PseudoPot. # 2 for Mn read from file:
     /afs/slac.stanford.edu/u/if/mamunm/psp/gbrv1.5pbe/Mn.UPF
     MD5 check sum: 82ef2b46521d7a7d9e736dc3972e4928
     Pseudo is Ultrasoft + core correction, Zval = 15.0
     Generated by new atomic code, or converted to UPF format
     Using radial grid of  859 points,  6 beta functions with:
                l(1) =   0
                l(2) =   0
                l(3) =   1
                l(4) =   1
                l(5) =   2
                l(6) =   2
     Q(r) pseudized with  8 coefficients,  rinner =    0.950   0.950   0.950
                                                       0.950   0.950

     vdW kernel table read from file vdW_kernel_table
     MD5 check sum: 095c7af220d748ca6e76c0b4c6cfb241

     atomic species   valence    mass     pseudopotential
        Ru1           16.00   101.07000     Ru( 1.00)
        Mn1           15.00    54.93804     Mn( 1.00)

     Starting magnetic structure
     atomic species   magnetization
        Ru1          0.125
        Mn1          0.133

     No symmetry found

   Cartesian axes

     site n.     atom                  positions (alat units)
         1           Ru1 tau(   1) = (   0.0000000   0.0000000  10.0000000  )
         2           Ru1 tau(   2) = (  -1.3331851   2.3091444  10.0000000  )
         3           Ru1 tau(   3) = (   1.3331851   2.3091444  10.0000000  )
         4           Mn1 tau(   4) = (   2.6663703   0.0000000  10.0000000  )
         5           Ru1 tau(   5) = (   2.6663703   1.5394296  12.1770822  )
         6           Ru1 tau(   6) = (   1.3331851   3.8485740  12.1770822  )
         7           Ru1 tau(   7) = (  -1.3331851   3.8485740  12.1770822  )
         8           Mn1 tau(   8) = (   0.0000000   1.5394296  12.1770822  )
         9           Ru1 tau(   9) = (  -0.0000000   3.0788592  14.3541644  )
        10           Ru1 tau(  10) = (   1.3331851   0.7697148  14.3541644  )
        11           Ru1 tau(  11) = (   3.9995554   0.7697148  14.3541644  )
        12           Mn1 tau(  12) = (   2.6663703   3.0788592  14.3541644  )

     number of k points=    40  Fermi-Dirac smearing, width (Ry)=  0.0110
                       cart. coord. in units 2pi/alat
        k(    1) = (   0.0000000   0.0000000   0.0000000), wk =   0.0277778
        k(    2) = (   0.0000000   0.0360884   0.0000000), wk =   0.0555556
        k(    3) = (   0.0000000   0.0721768   0.0000000), wk =   0.0555556
        k(    4) = (   0.0000000  -0.1082652   0.0000000), wk =   0.0277778
        k(    5) = (   0.0312535   0.0180442   0.0000000), wk =   0.0555556
        k(    6) = (   0.0312535   0.0541326   0.0000000), wk =   0.0555556
        k(    7) = (   0.0312535   0.0902210   0.0000000), wk =   0.0555556
        k(    8) = (   0.0312535  -0.0902210   0.0000000), wk =   0.0555556
        k(    9) = (   0.0312535  -0.0541326   0.0000000), wk =   0.0555556
        k(   10) = (   0.0312535  -0.0180442   0.0000000), wk =   0.0555556
        k(   11) = (   0.0625069   0.0360884   0.0000000), wk =   0.0555556
        k(   12) = (   0.0625069   0.0721768   0.0000000), wk =   0.0555556
        k(   13) = (   0.0625069   0.1082652   0.0000000), wk =   0.0555556
        k(   14) = (   0.0625069  -0.0721768   0.0000000), wk =   0.0555556
        k(   15) = (   0.0625069  -0.0360884   0.0000000), wk =   0.0555556
        k(   16) = (   0.0625069   0.0000000   0.0000000), wk =   0.0555556
        k(   17) = (  -0.0937604  -0.0541326   0.0000000), wk =   0.0277778
        k(   18) = (  -0.0937604  -0.0180442   0.0000000), wk =   0.0555556
        k(   19) = (  -0.0937604   0.0180442   0.0000000), wk =   0.0555556
        k(   20) = (  -0.0937604  -0.1623978   0.0000000), wk =   0.0277778
        k(   21) = (   0.0000000   0.0000000   0.0000000), wk =   0.0277778
        k(   22) = (   0.0000000   0.0360884   0.0000000), wk =   0.0555556
        k(   23) = (   0.0000000   0.0721768   0.0000000), wk =   0.0555556
        k(   24) = (   0.0000000  -0.1082652   0.0000000), wk =   0.0277778
        k(   25) = (   0.0312535   0.0180442   0.0000000), wk =   0.0555556
        k(   26) = (   0.0312535   0.0541326   0.0000000), wk =   0.0555556
        k(   27) = (   0.0312535   0.0902210   0.0000000), wk =   0.0555556
        k(   28) = (   0.0312535  -0.0902210   0.0000000), wk =   0.0555556
        k(   29) = (   0.0312535  -0.0541326   0.0000000), wk =   0.0555556
        k(   30) = (   0.0312535  -0.0180442   0.0000000), wk =   0.0555556
        k(   31) = (   0.0625069   0.0360884   0.0000000), wk =   0.0555556
        k(   32) = (   0.0625069   0.0721768   0.0000000), wk =   0.0555556
        k(   33) = (   0.0625069   0.1082652   0.0000000), wk =   0.0555556
        k(   34) = (   0.0625069  -0.0721768   0.0000000), wk =   0.0555556
        k(   35) = (   0.0625069  -0.0360884   0.0000000), wk =   0.0555556
        k(   36) = (   0.0625069   0.0000000   0.0000000), wk =   0.0555556
        k(   37) = (  -0.0937604  -0.0541326   0.0000000), wk =   0.0277778
        k(   38) = (  -0.0937604  -0.0180442   0.0000000), wk =   0.0555556
        k(   39) = (  -0.0937604   0.0180442   0.0000000), wk =   0.0555556
        k(   40) = (  -0.0937604  -0.1623978   0.0000000), wk =   0.0277778

     Largest allocated arrays     est. size (Mb)     dimensions
     Largest temporary arrays     est. size (Mb)     dimensions

     Check: negative/imaginary core charge=   -0.000004    0.000000

     Initial potential from superposition of free atoms
     Check: negative starting charge=(component1):   -0.371199
     Check: negative starting charge=(component2):   -0.288711

     starting charge  178.49960, renormalised to  189.00000

     negative rho (up, down):  3.930E-01 3.057E-01

     *
     * You are using vdW-DF for exchange-correlation in this calculation.
     * Please cite the following three references that made this development
     * possible:
     *
     *   M. Dion, H. Rydberg, E. Schroder, D. C. Langreth, and
     *   B. I. Lundqvist, Phys. Rev. Lett. 92, 246401 (2004).
     *
     *   T. Thonhauser, V. R. Cooper, S. Li, A. Puzder, P. Hyldgaard, and
     *   D. C. Langreth, Phys. Rev. B 76, 125112 (2007).
     *
     *   G. Roman-Perez and J. M. Soler, Phys. Rev. Lett. 103, 096102 (2009).
     *
     *
     * If you are using vdW-DF2, please also cite:
     *
     *   K. Lee, E. D. Murray, L. Kong, B. I. Lundqvist, and
     *   D. C. Langreth, Phys. Rev. B 82, 081101(R) (2010).
     *
     *
     * If you are calculating the stress with vdW-DF, please also cite:
     *
     *   R. Sabatini, E. Kucukbenli, B. Kolb, T. Thonhauser, and
     *   S. de Gironcoli, J. Phys.: Condens. Matter 24, 424209 (2012).
     *

     Carrying out vdW-DF run using the following parameters:

     Nqs =      20    Nr_points =    1024   r_max =   100.000
     q_mesh =
               0.00001000     0.04494208     0.09755937     0.15916263
               0.23128650     0.31572767     0.41458969     0.53033537
               0.66584808     0.82450364     1.01025438     1.22772762
               1.48234092     1.78043706     2.12944203     2.53805004
               3.01644009     3.57652955     4.23227104     5.00000000

     Gradients computed in reciprocal space

     Adding external electric field

     Computed dipole along edir(3) :
        Dipole                0.0000 Ry au,          0.0000 Debye
        Dipole field          0.0000 Ry au

        Potential amp.       -0.0000 Ry
        Total length         44.8721 bohr

[...]

     Starting wfc are  156 randomized atomic wfcs

     Self-consistent Calculation

     iteration #  1     ecut=    36.75 Ry     beta=0.10
     Davidson diagonalization with overlap
     ethr =  1.00E-02,  avg # of iterations =  8.2

[...]

     Magnetic moment per site:
     atom:    1    charge:    2.9690    magn:    0.3468    constr:    0.0000
     atom:    2    charge:    2.9690    magn:    0.3468    constr:    0.0000
     atom:    3    charge:    2.9690    magn:    0.3468    constr:    0.0000
     atom:    4    charge:    6.1120    magn:    0.7662    constr:    0.0000
     atom:    5    charge:    2.9725    magn:    0.3460    constr:    0.0000
     atom:    6    charge:    2.9725    magn:    0.3460    constr:    0.0000
     atom:    7    charge:    2.9725    magn:    0.3460    constr:    0.0000
     atom:    8    charge:    6.1235    magn:    0.7672    constr:    0.0000
[...]
        k(    3) = (   0.0000000   0.0721768   0.0000000), wk =   0.0555556
        k(    4) = (   0.0000000  -0.1082652   0.0000000), wk =   0.0277778
        k(    5) = (   0.0312535   0.0180442   0.0000000), wk =   0.0555556
        k(    6) = (   0.0312535   0.0541326   0.0000000), wk =   0.0555556
        k(    7) = (   0.0312535   0.0902210   0.0000000), wk =   0.0555556
        k(    8) = (   0.0312535  -0.0902210   0.0000000), wk =   0.0555556
        k(    9) = (   0.0312535  -0.0541326   0.0000000), wk =   0.0555556
        k(   10) = (   0.0312535  -0.0180442   0.0000000), wk =   0.0555556
        k(   11) = (   0.0625069   0.0360884   0.0000000), wk =   0.0555556
        k(   12) = (   0.0625069   0.0721768   0.0000000), wk =   0.0555556
        k(   13) = (   0.0625069   0.1082652   0.0000000), wk =   0.0555556
        k(   14) = (   0.0625069  -0.0721768   0.0000000), wk =   0.0555556
        k(   15) = (   0.0625069  -0.0360884   0.0000000), wk =   0.0555556
        k(   16) = (   0.0625069   0.0000000   0.0000000), wk =   0.0555556
        k(   17) = (  -0.0937604  -0.0541326   0.0000000), wk =   0.0277778
        k(   18) = (  -0.0937604  -0.0180442   0.0000000), wk =   0.0555556
        k(   19) = (  -0.0937604   0.0180442   0.0000000), wk =   0.0555556
        k(   20) = (  -0.0937604  -0.1623978   0.0000000), wk =   0.0277778
        k(   21) = (   0.0000000   0.0000000   0.0000000), wk =   0.0277778
        k(   22) = (   0.0000000   0.0360884   0.0000000), wk =   0.0555556
        k(   23) = (   0.0000000   0.0721768   0.0000000), wk =   0.0555556
        k(   24) = (   0.0000000  -0.1082652   0.0000000), wk =   0.0277778
        k(   25) = (   0.0312535   0.0180442   0.0000000), wk =   0.0555556
        k(   26) = (   0.0312535   0.0541326   0.0000000), wk =   0.0555556
        k(   27) = (   0.0312535   0.0902210   0.0000000), wk =   0.0555556
        k(   28) = (   0.0312535  -0.0902210   0.0000000), wk =   0.0555556
        k(   29) = (   0.0312535  -0.0541326   0.0000000), wk =   0.0555556
        k(   30) = (   0.0312535  -0.0180442   0.0000000), wk =   0.0555556
        k(   31) = (   0.0625069   0.0360884   0.0000000), wk =   0.0555556
        k(   32) = (   0.0625069   0.0721768   0.0000000), wk =   0.0555556
        k(   33) = (   0.0625069   0.1082652   0.0000000), wk =   0.0555556
        k(   34) = (   0.0625069  -0.0721768   0.0000000), wk =   0.0555556
        k(   35) = (   0.0625069  -0.0360884   0.0000000), wk =   0.0555556
        k(   36) = (   0.0625069   0.0000000   0.0000000), wk =   0.0555556
        k(   37) = (  -0.0937604  -0.0541326   0.0000000), wk =   0.0277778
        k(   38) = (  -0.0937604  -0.0180442   0.0000000), wk =   0.0555556
        k(   39) = (  -0.0937604   0.0180442   0.0000000), wk =   0.0555556
        k(   40) = (  -0.0937604  -0.1623978   0.0000000), wk =   0.0277778

     Largest allocated arrays     est. size (Mb)     dimensions
     Largest temporary arrays     est. size (Mb)     dimensions

     Check: negative/imaginary core charge=   -0.000004    0.000000

     Initial potential from superposition of free atoms
     Check: negative starting charge=(component1):   -0.370841
     Check: negative starting charge=(component2):   -0.288432

     starting charge  178.49960, renormalised to  189.00000

[...]

     *
     * You are using vdW-DF for exchange-correlation in this calculation.
     * Please cite the following three references that made this development
     * possible:
     *
     *   M. Dion, H. Rydberg, E. Schroder, D. C. Langreth, and
     *   B. I. Lundqvist, Phys. Rev. Lett. 92, 246401 (2004).
     *
     *   T. Thonhauser, V. R. Cooper, S. Li, A. Puzder, P. Hyldgaard, and
     *   D. C. Langreth, Phys. Rev. B 76, 125112 (2007).
     *
     *   G. Roman-Perez and J. M. Soler, Phys. Rev. Lett. 103, 096102 (2009).
     *
     *
     * If you are using vdW-DF2, please also cite:
     *
     *   K. Lee, E. D. Murray, L. Kong, B. I. Lundqvist, and
     *   D. C. Langreth, Phys. Rev. B 82, 081101(R) (2010).
     *
     *
     * If you are calculating the stress with vdW-DF, please also cite:
     *
     *   R. Sabatini, E. Kucukbenli, B. Kolb, T. Thonhauser, and
     *   S. de Gironcoli, J. Phys.: Condens. Matter 24, 424209 (2012).
     *

     Carrying out vdW-DF run using the following parameters:

     Nqs =      20    Nr_points =    1024   r_max =   100.000
     q_mesh =
               0.00001000     0.04494208     0.09755937     0.15916263
               0.23128650     0.31572767     0.41458969     0.53033537
               0.66584808     0.82450364     1.01025438     1.22772762
               1.48234092     1.78043706     2.12944203     2.53805004
               3.01644009     3.57652955     4.23227104     5.00000000

     Gradients computed in reciprocal space

[...]

     Starting wfc are  156 randomized atomic wfcs

     Self-consistent Calculation

[...]

     total energy              =   -2392.29900352 Ry
     Harris-Foulkes estimate   =   -2392.29900268 Ry
     estimated scf accuracy    <       0.00000180 Ry

[...]

     iteration # 34     ecut=    36.75 Ry     beta=0.10
     Davidson diagonalization with overlap
     ethr =  9.50E-10,  avg # of iterations =  2.0

[...]

     negative rho (up, down):  3.481E-01 3.377E-01

[...]

     Adding external electric field

     Computed dipole along edir(3) :
        Dipole                0.0089 Ry au,          0.0226 Debye
        Dipole field          0.0000 Ry au

        Potential amp.       -0.0025 Ry
        Total length         44.8721 bohr

     Magnetic moment per site:
     atom:    1    charge:    2.8413    magn:   -0.0434    constr:    0.0000
     atom:    2    charge:    2.8413    magn:   -0.0434    constr:    0.0000
     atom:    3    charge:    2.8413    magn:   -0.0434    constr:    0.0000
     atom:    4    charge:    5.9944    magn:    1.3134    constr:    0.0000
     atom:    5    charge:    2.8467    magn:   -0.0411    constr:    0.0000
     atom:    6    charge:    2.8467    magn:   -0.0411    constr:    0.0000
     atom:    7    charge:    2.8467    magn:   -0.0411    constr:    0.0000
     atom:    8    charge:    5.9849    magn:    1.0518    constr:    0.0000
     atom:    9    charge:    2.8455    magn:   -0.0438    constr:    0.0000
     atom:   10    charge:    2.8455    magn:   -0.0438    constr:    0.0000
     atom:   11    charge:    2.8455    magn:   -0.0438    constr:    0.0000
     atom:   12    charge:    5.9960    magn:    1.2690    constr:    0.0000

     End of self-consistent calculation

 ------ SPIN UP ------------

[...]

 ------ SPIN DOWN ----------

[...]

          k = 0.0625 0.0000 0.0000 ( 15240 PWs)   bands (ev):

[...]

          k =-0.0938-0.1624 0.0000 ( 15234 PWs)   bands (ev):

   -75.7903 -75.3952 -75.3329 -71.1300 -71.0981 -71.0657 -70.6799 -70.6498
   -70.6379 -70.6194 -70.6073 -70.5770 -44.5821 -44.5749 -44.5386 -44.2097
   -44.2026 -44.1523 -44.1456 -44.1256 -44.0498 -41.3919 -41.2544 -41.2231
   -41.1669 -41.1185 -41.0871 -41.0471 -41.0457 -40.9250 -40.8663 -40.7766
   -40.6691 -40.6494 -40.6360 -40.6196 -40.6013 -40.5932 -40.5724 -40.5636
   -40.5439 -40.5399 -40.5045 -40.5033 -40.4661 -40.4621 -40.3647 -40.3286
    -3.2749  -3.0687  -2.7872  -2.5406  -2.3568  -2.2070  -2.0202  -1.9680
    -1.8974  -1.7665  -1.7657  -1.6593  -1.4337  -1.2710  -1.2473  -1.2159
    -1.0618  -0.9964  -0.7794  -0.5891  -0.1835  -0.0845   0.0107   0.0180
     0.1397   0.1500   0.2302   0.3554   0.3724   0.4081   0.4878   0.5209
     0.5473   0.6044   0.9170   0.9638   1.1014   1.2205   1.2955   1.3535
     1.4851   1.8012   1.8660   1.9995   2.0429   2.0530   2.4929   2.5124
     2.5522   2.7121   2.8889   2.9812   3.2566   3.3325   3.3628   3.4190
     3.4287   3.5266   3.7639   3.9554   3.9794   4.0785   4.2935   4.3922
     5.2123   5.2206   6.2331   6.4715   6.8546   6.9621   7.0383   7.1218
     8.1922   8.2207   8.5375   8.5991

     the Fermi energy is     2.1908 ev

!    total energy              =   -2392.29900476 Ry
     Harris-Foulkes estimate   =   -2392.29900397 Ry
     estimated scf accuracy    <       0.00000085 Ry

     The total energy is the sum of the following terms:

     one-electron contribution =  -22293.64237296 Ry
     hartree contribution      =   11145.97220316 Ry
     xc contribution           =    -324.54131194 Ry
     ewald contribution        =    9079.99456863 Ry
     electric field correction =       0.00000025 Ry
     smearing contrib. (-TS)   =      -0.08209190 Ry

     total magnetization       =     6.28 Bohr mag/cell
     absolute magnetization    =    12.64 Bohr mag/cell

     convergence has been achieved in  34 iterations

 BEEF-vdW xc energy contributions
           1 :   -282.042440497772
           2 :    258.042478466272
           3 :   -216.877089176902
           4 :    169.233960261184
           5 :   -125.516402575307
           6 :    92.5365190500471
           7 :   -72.1867245718483
           8 :    62.1486308491866
           9 :   -57.8930588632334
          10 :    54.9165845638763
          11 :   -50.3337154344231
          12 :    43.4055571764360
          13 :   -35.1136382221449
          14 :    27.2196383778961
          15 :   -21.2971341025321
          16 :    18.0673915915066
          17 :   -17.1936477863380
          18 :    17.5346494241094
          19 :   -17.7175508276646
          20 :    16.7649798646151
          21 :   -14.4879586422794
          22 :    11.4703094726441
          23 :   -8.67994262107703
          24 :    6.92719684580629
          25 :   -6.46080005441610
          26 :    6.90115024160980
          27 :   -7.51270311448650
          28 :    7.62503132741921
          29 :   -6.95370052421850
          30 :    5.66660914264492
          31 :   -28.2676645729918
          32 :   -21.1451323213465

     Forces acting on atoms (Ry/au):

     negative rho (up, down):  3.481E-01 3.377E-01
     atom    1 type  1   force =     0.00000056   -0.00406506    0.01184214
     atom    2 type  1   force =    -0.00351861    0.00203314    0.01184718
     atom    3 type  1   force =     0.00351951    0.00203295    0.01184632
     atom    4 type  2   force =     0.00000085    0.00000012    0.00271384
     atom    5 type  1   force =    -0.00000077    0.00351814   -0.01056202
     atom    6 type  1   force =     0.00305496   -0.00175750   -0.01057007
     atom    7 type  1   force =    -0.00305398   -0.00175600   -0.01056903
     atom    8 type  2   force =    -0.00000215    0.00000469   -0.00626558
     atom    9 type  1   force =     0.00000063   -0.00028315   -0.00002037
     atom   10 type  1   force =    -0.00024680    0.00013801   -0.00002261
     atom   11 type  1   force =     0.00024586    0.00013664   -0.00003198
     atom   12 type  2   force =    -0.00000005   -0.00000198   -0.00020782

     Total force =     0.029826     Total SCF correction =     0.002462

     entering subroutine stress ...

     negative rho (up, down):  3.481E-01 3.377E-01
          total   stress  (Ry/bohr**3)                   (kbar)     P=   -8.07
  -0.00005889  -0.00000000  -0.00000000         -8.66     -0.00     -0.00
  -0.00000000  -0.00005892   0.00000000         -0.00     -8.67      0.00
  -0.00000000   0.00000000  -0.00004669         -0.00      0.00     -6.87

 !ASE

     Writing output data file calc.save

     General routines

     Parallel routines

   This run was terminated on:   6:10:38   1Jan2019

   JOB DONE.
Job  /afs/slac/g/suncat/bin/suncat-tsmpirun -x LD_LIBRARY_PATH -wdir /scratch/qe648930_UWMn0 pw.x -in pw.inp

TID   HOST_NAME   COMMAND_LINE            STATUS            TERMINATION_TIME
00000 suncat0146 pw.x -in pw.inp   Done                     01/01/2019 06:10:38
00001 suncat0146 pw.x -in pw.inp   Done                     01/01/2019 06:10:38
00002 suncat0146 pw.x -in pw.inp   Done                     01/01/2019 06:10:38
00003 suncat0146 pw.x -in pw.inp   Done                     01/01/2019 06:10:38
00004 suncat0146 pw.x -in pw.inp   Done                     01/01/2019 06:10:38
00005 suncat0146 pw.x -in pw.inp   Done                     01/01/2019 06:10:38
00006 suncat0146 pw.x -in pw.inp   Done                     01/01/2019 06:10:38
00007 suncat0146 pw.x -in pw.inp   Done                     01/01/2019 06:10:38
00008 suncat0136 pw.x -in pw.inp   Done                     01/01/2019 06:10:38
00009 suncat0136 pw.x -in pw.inp   Done                     01/01/2019 06:10:38
00010 suncat0136 pw.x -in pw.inp   Done                     01/01/2019 06:10:38
00011 suncat0136 pw.x -in pw.inp   Done                     01/01/2019 06:10:38
00012 suncat0136 pw.x -in pw.inp   Done                     01/01/2019 06:10:38
00013 suncat0136 pw.x -in pw.inp   Done                     01/01/2019 06:10:38
00014 suncat0136 pw.x -in pw.inp   Done                     01/01/2019 06:10:38
00015 suncat0136 pw.x -in pw.inp   Done                     01/01/2019 06:10:38
00016 suncat0248 pw.x -in pw.inp   Done                     01/01/2019 06:10:38
00017 suncat0248 pw.x -in pw.inp   Done                     01/01/2019 06:10:38
00018 suncat0248 pw.x -in pw.inp   Done                     01/01/2019 06:10:38
00019 suncat0248 pw.x -in pw.inp   Done                     01/01/2019 06:10:38
00020 suncat0248 pw.x -in pw.inp   Done                     01/01/2019 06:10:38
00021 suncat0248 pw.x -in pw.inp   Done                     01/01/2019 06:10:38
00022 suncat0248 pw.x -in pw.inp   Done                     01/01/2019 06:10:38
00023 suncat0248 pw.x -in pw.inp   Done                     01/01/2019 06:10:38
00024 suncat0247 pw.x -in pw.inp   Done                     01/01/2019 06:10:38
00025 suncat0247 pw.x -in pw.inp   Done                     01/01/2019 06:10:38
00026 suncat0247 pw.x -in pw.inp   Done                     01/01/2019 06:10:38
00027 suncat0247 pw.x -in pw.inp   Done                     01/01/2019 06:10:38
00028 suncat0247 pw.x -in pw.inp   Done                     01/01/2019 06:10:38
00029 suncat0247 pw.x -in pw.inp   Done                     01/01/2019 06:10:38
00030 suncat0247 pw.x -in pw.inp   Done                     01/01/2019 06:10:38
00031 suncat0247 pw.x -in pw.inp   Done                     01/01/2019 06:10:38
00032 suncat0246 pw.x -in pw.inp   Done                     01/01/2019 06:10:38
00033 suncat0246 pw.x -in pw.inp   Done                     01/01/2019 06:10:38
00034 suncat0246 pw.x -in pw.inp   Done                     01/01/2019 06:10:38
00035 suncat0246 pw.x -in pw.inp   Done                     01/01/2019 06:10:38
00036 suncat0246 pw.x -in pw.inp   Done                     01/01/2019 06:10:38
00037 suncat0246 pw.x -in pw.inp   Done                     01/01/2019 06:10:38
00038 suncat0246 pw.x -in pw.inp   Done                     01/01/2019 06:10:38
00039 suncat0246 pw.x -in pw.inp   Done                     01/01/2019 06:10:38
00040 suncat0245 pw.x -in pw.inp   Done                     01/01/2019 06:10:38
00041 suncat0245 pw.x -in pw.inp   Done                     01/01/2019 06:10:38
00042 suncat0245 pw.x -in pw.inp   Done                     01/01/2019 06:10:38
00043 suncat0245 pw.x -in pw.inp   Done                     01/01/2019 06:10:38
00044 suncat0245 pw.x -in pw.inp   Done                     01/01/2019 06:10:38
00045 suncat0245 pw.x -in pw.inp   Done                     01/01/2019 06:10:38
00046 suncat0245 pw.x -in pw.inp   Done                     01/01/2019 06:10:38
00047 suncat0245 pw.x -in pw.inp   Done                     01/01/2019 06:10:38
00048 suncat0214 pw.x -in pw.inp   Done                     01/01/2019 06:10:38
00049 suncat0214 pw.x -in pw.inp   Done                     01/01/2019 06:10:38
00050 suncat0214 pw.x -in pw.inp   Done                     01/01/2019 06:10:38
00051 suncat0214 pw.x -in pw.inp   Done                     01/01/2019 06:10:38
00052 suncat0214 pw.x -in pw.inp   Done                     01/01/2019 06:10:38
00053 suncat0214 pw.x -in pw.inp   Done                     01/01/2019 06:10:38
00054 suncat0214 pw.x -in pw.inp   Done                     01/01/2019 06:10:38
00055 suncat0214 pw.x -in pw.inp   Done                     01/01/2019 06:10:38
00056 suncat0213 pw.x -in pw.inp   Done                     01/01/2019 06:10:38
00057 suncat0213 pw.x -in pw.inp   Done                     01/01/2019 06:10:38
00058 suncat0213 pw.x -in pw.inp   Done                     01/01/2019 06:10:38
00059 suncat0213 pw.x -in pw.inp   Done                     01/01/2019 06:10:38
00060 suncat0213 pw.x -in pw.inp   Done                     01/01/2019 06:10:38
00061 suncat0213 pw.x -in pw.inp   Done                     01/01/2019 06:10:38
00062 suncat0213 pw.x -in pw.inp   Done                     01/01/2019 06:10:38
00063 suncat0213 pw.x -in pw.inp   Done                     01/01/2019 06:10:38