     Program PWSCF v.5.1rc2 (svn rev. 11289) starts on 30Dec2018 at 19:39:58

     Current dimensions of program PWSCF are:
     Max number of different atomic species (ntypx) = 10
     Max number of k-points (npk) =  40000
     Max angular momentum in pseudopotentials (lmaxx) =  3
     Presently stress not available with electric field

     IMPORTANT: XC functional enforced from input :
     Exchange-correlation      = BEEF-VDW ( 1  4 27 13 2)
     Any further DFT definition will be discarded
     Please, verify this is what you really want

     Subspace diagonalization in iterative solution of the eigenvalue problem:
     a serial algorithm will be used

     bravais-lattice index     =            0
     lattice parameter (alat)  =       1.8897  a.u.
     unit-cell volume          =    5344.0461 (a.u.)^3
     number of atoms/cell      =           12
     number of atomic types    =            2
     number of electrons       =       159.00
     number of Kohn-Sham states=          109
     kinetic-energy cutoff     =      36.7493  Ry
     charge density cutoff     =     367.4932  Ry
     convergence threshold     =      1.0E-06
     mixing beta               =       0.1000
     number of iterations used =           10  plain     mixing
     Exchange-correlation      = BEEF-VDW ( 1  4 27 13 2)
     nstep                     =           50

     celldm(1)=   1.889726  celldm(2)=   0.000000  celldm(3)=   0.000000
     celldm(4)=   0.000000  celldm(5)=   0.000000  celldm(6)=   0.000000

     crystal axes: (cart. coord. in units of alat)
               a(1) = (   6.054686   0.000000   0.000000 )
               a(2) = (  -3.027343   5.243512   0.000000 )
               a(3) = (   0.000000   0.000000  24.943631 )

     reciprocal axes: (cart. coord. in units 2 pi/alat)
               b(1) = (  0.165161  0.095356  0.000000 )
               b(2) = (  0.000000  0.190712  0.000000 )
               b(3) = (  0.000000  0.000000  0.040090 )

     PseudoPot. # 1 for Mo read from file:
     /afs/slac.stanford.edu/u/if/mamunm/psp/gbrv1.5pbe/Mo.UPF
     MD5 check sum: 30c4dcd161f5d35cd49bb5239c51a633
     Pseudo is Ultrasoft + core correction, Zval = 14.0
     Generated by new atomic code, or converted to UPF format
     Using radial grid of  889 points,  6 beta functions with:
                l(1) =   0
                l(2) =   0
                l(3) =   1
                l(4) =   1
                l(5) =   2
                l(6) =   2
     Q(r) pseudized with  6 coefficients,  rinner =    1.000   1.000   1.000
                                                       1.000   1.000

     PseudoPot. # 2 for La read from file:
     /afs/slac.stanford.edu/u/if/mamunm/psp/gbrv1.5pbe/La.UPF
     MD5 check sum: 5937b0c7494ba0601a847275249473aa
     Pseudo is Ultrasoft + core correction, Zval = 11.0
     Generated by new atomic code, or converted to UPF format
     Using radial grid of  995 points,  8 beta functions with:
                l(1) =   0
                l(2) =   0
                l(3) =   1
                l(4) =   1
                l(5) =   2
                l(6) =   2
                l(7) =   3
                l(8) =   3
     Q(r) pseudized with  8 coefficients,  rinner =    1.700   1.700   1.700
                                                       1.700   1.700   1.700
                                                       1.700

     vdW kernel table read from file vdW_kernel_table
     MD5 check sum: 095c7af220d748ca6e76c0b4c6cfb241

     atomic species   valence    mass     pseudopotential
        Mo1           14.00    95.95000     Mo( 1.00)
        La1           11.00   138.90547     La( 1.00)

     No symmetry found

   Cartesian axes

     site n.     atom                  positions (alat units)
         1           Mo1 tau(   1) = (   0.0000000   0.0000000  10.0000000  )
         2           Mo1 tau(   2) = (  -1.5136716   2.6217561  10.0000000  )
         3           Mo1 tau(   3) = (   1.5136716   2.6217561  10.0000000  )
         4           La1 tau(   4) = (   3.0273431   0.0000000  10.0000000  )
         5           Mo1 tau(   5) = (   3.0273431   1.7478374  12.4718153  )
         6           Mo1 tau(   6) = (   1.5136716   4.3695935  12.4718153  )
         7           Mo1 tau(   7) = (  -1.5136716   4.3695935  12.4718153  )
         8           La1 tau(   8) = (   0.0000000   1.7478374  12.4718153  )
         9           Mo1 tau(   9) = (  -0.0000000   3.4956748  14.9436307  )
        10           Mo1 tau(  10) = (   1.5136716   0.8739187  14.9436307  )
        11           Mo1 tau(  11) = (   4.5410147   0.8739187  14.9436307  )
        12           La1 tau(  12) = (   3.0273431   3.4956748  14.9436307  )

     number of k points=    20  Fermi-Dirac smearing, width (Ry)=  0.0110
                       cart. coord. in units 2pi/alat
        k(    1) = (   0.0000000   0.0000000   0.0000000), wk =   0.0555556
        k(    2) = (   0.0000000   0.0317853   0.0000000), wk =   0.1111111
        k(    3) = (   0.0000000   0.0635706   0.0000000), wk =   0.1111111
        k(    4) = (   0.0000000  -0.0953559   0.0000000), wk =   0.0555556
        k(    5) = (   0.0275269   0.0158927   0.0000000), wk =   0.1111111
        k(    6) = (   0.0275269   0.0476780   0.0000000), wk =   0.1111111
        k(    7) = (   0.0275269   0.0794633   0.0000000), wk =   0.1111111
        k(    8) = (   0.0275269  -0.0794633   0.0000000), wk =   0.1111111
        k(    9) = (   0.0275269  -0.0476780   0.0000000), wk =   0.1111111
        k(   10) = (   0.0275269  -0.0158927   0.0000000), wk =   0.1111111
        k(   11) = (   0.0550538   0.0317853   0.0000000), wk =   0.1111111
        k(   12) = (   0.0550538   0.0635706   0.0000000), wk =   0.1111111
        k(   13) = (   0.0550538   0.0953559   0.0000000), wk =   0.1111111
        k(   14) = (   0.0550538  -0.0635706   0.0000000), wk =   0.1111111
        k(   15) = (   0.0550538  -0.0317853   0.0000000), wk =   0.1111111
        k(   16) = (   0.0550538   0.0000000   0.0000000), wk =   0.1111111
        k(   17) = (  -0.0825807  -0.0476780   0.0000000), wk =   0.0555556
        k(   18) = (  -0.0825807  -0.0158927   0.0000000), wk =   0.1111111
        k(   19) = (  -0.0825807   0.0158927   0.0000000), wk =   0.1111111
        k(   20) = (  -0.0825807  -0.1430339   0.0000000), wk =   0.0555556

     Largest allocated arrays     est. size (Mb)     dimensions
     Largest temporary arrays     est. size (Mb)     dimensions

     Initial potential from superposition of free atoms
     Check: negative starting charge=   -0.208319

     starting charge  158.89422, renormalised to  159.00000

     negative rho (up, down):  2.085E-01 0.000E+00

     *
     * You are using vdW-DF for exchange-correlation in this calculation.
     * Please cite the following three references that made this development
     * possible:
     *
     *   M. Dion, H. Rydberg, E. Schroder, D. C. Langreth, and
     *   B. I. Lundqvist, Phys. Rev. Lett. 92, 246401 (2004).
     *
     *   T. Thonhauser, V. R. Cooper, S. Li, A. Puzder, P. Hyldgaard, and
     *   D. C. Langreth, Phys. Rev. B 76, 125112 (2007).
     *
     *   G. Roman-Perez and J. M. Soler, Phys. Rev. Lett. 103, 096102 (2009).
     *
     *
     * If you are using vdW-DF2, please also cite:
     *
     *   K. Lee, E. D. Murray, L. Kong, B. I. Lundqvist, and
     *   D. C. Langreth, Phys. Rev. B 82, 081101(R) (2010).
     *
     *
     * If you are calculating the stress with vdW-DF, please also cite:
     *
     *   R. Sabatini, E. Kucukbenli, B. Kolb, T. Thonhauser, and
     *   S. de Gironcoli, J. Phys.: Condens. Matter 24, 424209 (2012).
     *

     Carrying out vdW-DF run using the following parameters:

     Nqs =      20    Nr_points =    1024   r_max =   100.000
     q_mesh =
               0.00001000     0.04494208     0.09755937     0.15916263
               0.23128650     0.31572767     0.41458969     0.53033537
               0.66584808     0.82450364     1.01025438     1.22772762
               1.48234092     1.78043706     2.12944203     2.53805004
               3.01644009     3.57652955     4.23227104     5.00000000

     Gradients computed in reciprocal space

     Adding external electric field

     Computed dipole along edir(3) :
        Dipole               -0.0000 Ry au,         -0.0000 Debye
        Dipole field         -0.0000 Ry au

        Potential amp.        0.0000 Ry
        Total length         45.9582 bohr

     Starting wfc are  177 randomized atomic wfcs

     Self-consistent Calculation

     iteration #  1     ecut=    36.75 Ry     beta=0.10
     Davidson diagonalization with overlap
     ethr =  1.00E-02,  avg # of iterations =  2.0

[...]

     total energy              =   -1569.49634998 Ry
     Harris-Foulkes estimate   =   -1571.77190227 Ry
     estimated scf accuracy    <      12.53492554 Ry

[...]

     End of self-consistent calculation

          k = 0.0000 0.0000 0.0000 ( 19951 PWs)   bands (ev):

   -58.7724 -58.7190 -58.7189 -58.7060 -58.6983 -58.6585 -58.6585 -58.6565
   -58.6565 -33.0702 -32.9812 -32.9754 -32.9659 -32.9659 -32.9238 -32.8982
   -32.8981 -32.8276 -32.8276 -32.7774 -32.7255 -32.7255 -32.7178 -32.7178
   -32.7096 -32.6055 -32.6012 -32.6012 -32.5887 -32.5723 -32.5722 -32.5642
   -32.5117 -32.5117 -32.5078 -32.5078 -29.6233 -29.5948 -29.1756 -13.4916
   -13.4465 -13.4465 -13.4273 -13.4273 -13.4015 -13.1996 -13.0788 -13.0788
    -2.4671  -1.4235  -1.4110  -1.3981  -1.3981  -1.1445  -1.1445  -0.7774
    -0.6531  -0.6531  -0.6312  -0.6312  -0.5368  -0.0511   0.0780   0.5336
     0.5336   0.5507   1.1151   1.1151   1.4648   1.4718   1.6622   1.7712
     2.0720   2.0721   2.1580   2.1580   2.3132   2.3132   2.4096   2.4096
     2.4484   2.5406   2.5407   2.9513   2.9740   3.3615   3.3615   3.6574
     3.6575   3.6649   3.7648   3.7649   4.1209   4.1209   4.2050   4.3699
     4.5539   5.0797   5.2756   5.2756   5.3225   5.3591   5.4006   5.5077
     5.5151   5.5151   5.6298   5.6691   5.6694

[...]

          k =-0.0826-0.0477 0.0000 ( 20120 PWs)   bands (ev):

[...]

     the Fermi energy is     2.2324 ev

!    total energy              =   -1570.88681536 Ry
     Harris-Foulkes estimate   =   -1570.88681606 Ry
     estimated scf accuracy    <       0.00000058 Ry

     The total energy is the sum of the following terms:

     one-electron contribution =  -11463.80066924 Ry
     hartree contribution      =    5732.10122905 Ry
     xc contribution           =    -332.50314622 Ry
     ewald contribution        =    4493.45985619 Ry
     electric field correction =       0.00000000 Ry
     smearing contrib. (-TS)   =      -0.14408515 Ry

     convergence has been achieved in  20 iterations

 BEEF-vdW xc energy contributions
           1 :   -289.608095650621
           2 :    265.357026444406
           3 :   -223.151362780858
           4 :    173.128452278213
           5 :   -125.776819789125
           6 :    88.7877860341545
           7 :   -65.3644359052619
           8 :    54.2850099512530
           9 :   -51.3987810806874
          10 :    51.7402169765774
          11 :   -51.3912361676236
          12 :    48.4474120601677
[...]
     MD5 check sum: 30c4dcd161f5d35cd49bb5239c51a633
     Pseudo is Ultrasoft + core correction, Zval = 14.0
     Generated by new atomic code, or converted to UPF format
     Using radial grid of  889 points,  6 beta functions with:
                l(1) =   0
                l(2) =   0
                l(3) =   1
                l(4) =   1
                l(5) =   2
                l(6) =   2
     Q(r) pseudized with  6 coefficients,  rinner =    1.000   1.000   1.000
                                                       1.000   1.000

     PseudoPot. # 2 for La read from file:
     /afs/slac.stanford.edu/u/if/mamunm/psp/gbrv1.5pbe/La.UPF
     MD5 check sum: 5937b0c7494ba0601a847275249473aa
     Pseudo is Ultrasoft + core correction, Zval = 11.0
     Generated by new atomic code, or converted to UPF format
     Using radial grid of  995 points,  8 beta functions with:
                l(1) =   0
                l(2) =   0
                l(3) =   1
                l(4) =   1
                l(5) =   2
                l(6) =   2
                l(7) =   3
                l(8) =   3
     Q(r) pseudized with  8 coefficients,  rinner =    1.700   1.700   1.700
                                                       1.700   1.700   1.700
                                                       1.700

     vdW kernel table read from file vdW_kernel_table
     MD5 check sum: 095c7af220d748ca6e76c0b4c6cfb241

     atomic species   valence    mass     pseudopotential
        Mo1           14.00    95.95000     Mo( 1.00)
        La1           11.00   138.90547     La( 1.00)

     No symmetry found

   Cartesian axes

     site n.     atom                  positions (alat units)
         1           Mo1 tau(   1) = (   0.0000000   0.0000000  10.0000000  )
         2           Mo1 tau(   2) = (  -1.5136716   2.6217561  10.0000000  )
         3           Mo1 tau(   3) = (   1.5136716   2.6217561  10.0000000  )
         4           La1 tau(   4) = (   3.0273431   0.0000000  10.0000000  )
         5           Mo1 tau(   5) = (   3.0273431   1.7478374  12.4718153  )
         6           Mo1 tau(   6) = (   1.5136716   4.3695935  12.4718153  )
         7           Mo1 tau(   7) = (  -1.5136716   4.3695935  12.4718153  )
         8           La1 tau(   8) = (   0.0000000   1.7478374  12.4718153  )
         9           Mo1 tau(   9) = (  -0.0001324   3.6968596  14.4020977  )
        10           Mo1 tau(  10) = (   1.6878450   0.7732381  14.4021397  )
        11           Mo1 tau(  11) = (   4.3667464   0.7733598  14.4020065  )
        12           La1 tau(  12) = (   3.0272638   3.4956542  15.5425429  )

     number of k points=    20  Fermi-Dirac smearing, width (Ry)=  0.0110
                       cart. coord. in units 2pi/alat
        k(    1) = (   0.0000000   0.0000000   0.0000000), wk =   0.0555556
        k(    2) = (   0.0000000   0.0317853   0.0000000), wk =   0.1111111
        k(    3) = (   0.0000000   0.0635706   0.0000000), wk =   0.1111111
        k(    4) = (   0.0000000  -0.0953559   0.0000000), wk =   0.0555556
        k(    5) = (   0.0275269   0.0158927   0.0000000), wk =   0.1111111
        k(    6) = (   0.0275269   0.0476780   0.0000000), wk =   0.1111111
        k(    7) = (   0.0275269   0.0794633   0.0000000), wk =   0.1111111
        k(    8) = (   0.0275269  -0.0794633   0.0000000), wk =   0.1111111
        k(    9) = (   0.0275269  -0.0476780   0.0000000), wk =   0.1111111
        k(   10) = (   0.0275269  -0.0158927   0.0000000), wk =   0.1111111
        k(   11) = (   0.0550538   0.0317853   0.0000000), wk =   0.1111111
        k(   12) = (   0.0550538   0.0635706   0.0000000), wk =   0.1111111
        k(   13) = (   0.0550538   0.0953559   0.0000000), wk =   0.1111111
        k(   14) = (   0.0550538  -0.0635706   0.0000000), wk =   0.1111111
        k(   15) = (   0.0550538  -0.0317853   0.0000000), wk =   0.1111111
        k(   16) = (   0.0550538   0.0000000   0.0000000), wk =   0.1111111
        k(   17) = (  -0.0825807  -0.0476780   0.0000000), wk =   0.0555556
        k(   18) = (  -0.0825807  -0.0158927   0.0000000), wk =   0.1111111
        k(   19) = (  -0.0825807   0.0158927   0.0000000), wk =   0.1111111
        k(   20) = (  -0.0825807  -0.1430339   0.0000000), wk =   0.0555556

     Largest allocated arrays     est. size (Mb)     dimensions
     Largest temporary arrays     est. size (Mb)     dimensions

     Initial potential from superposition of free atoms
     Check: negative starting charge=   -0.208604

     starting charge  158.89422, renormalised to  159.00000

[...]

     *
     * You are using vdW-DF for exchange-correlation in this calculation.
     * Please cite the following three references that made this development
     * possible:
     *
     *   M. Dion, H. Rydberg, E. Schroder, D. C. Langreth, and
     *   B. I. Lundqvist, Phys. Rev. Lett. 92, 246401 (2004).
     *
     *   T. Thonhauser, V. R. Cooper, S. Li, A. Puzder, P. Hyldgaard, and
     *   D. C. Langreth, Phys. Rev. B 76, 125112 (2007).
     *
     *   G. Roman-Perez and J. M. Soler, Phys. Rev. Lett. 103, 096102 (2009).
     *
     *
     * If you are using vdW-DF2, please also cite:
     *
     *   K. Lee, E. D. Murray, L. Kong, B. I. Lundqvist, and
     *   D. C. Langreth, Phys. Rev. B 82, 081101(R) (2010).
     *
     *
     * If you are calculating the stress with vdW-DF, please also cite:
     *
     *   R. Sabatini, E. Kucukbenli, B. Kolb, T. Thonhauser, and
     *   S. de Gironcoli, J. Phys.: Condens. Matter 24, 424209 (2012).
     *

     Carrying out vdW-DF run using the following parameters:

     Nqs =      20    Nr_points =    1024   r_max =   100.000
     q_mesh =
               0.00001000     0.04494208     0.09755937     0.15916263
               0.23128650     0.31572767     0.41458969     0.53033537
               0.66584808     0.82450364     1.01025438     1.22772762
               1.48234092     1.78043706     2.12944203     2.53805004
               3.01644009     3.57652955     4.23227104     5.00000000

     Gradients computed in reciprocal space

[...]

     Starting wfc are  177 randomized atomic wfcs

     Self-consistent Calculation

[...]

     total energy              =   -1571.09495967 Ry
     Harris-Foulkes estimate   =   -1571.09496057 Ry
     estimated scf accuracy    <       0.00000149 Ry

     iteration # 21     ecut=    36.75 Ry     beta=0.10
     Davidson diagonalization with overlap
     ethr =  9.34E-10,  avg # of iterations =  3.0

[...]

     negative rho (up, down):  1.175E-01 0.000E+00

     Adding external electric field

     Computed dipole along edir(3) :
        Dipole                0.5040 Ry au,          1.2810 Debye
        Dipole field          0.0012 Ry au

        Potential amp.       -0.1089 Ry
        Total length         45.9582 bohr

     End of self-consistent calculation

[...]

          k = 0.0551 0.0000 0.0000 ( 20107 PWs)   bands (ev):

[...]

          k =-0.0826-0.1430 0.0000 ( 20120 PWs)   bands (ev):

   -58.2944 -58.2318 -58.2101 -58.1634 -58.1494 -58.1335 -58.0215 -57.9819
   -57.9754 -32.8831 -32.7747 -32.7250 -32.6898 -32.5939 -32.5123 -32.4289
   -32.3709 -32.3119 -32.2370 -32.2339 -32.2129 -32.1981 -32.1845 -32.1811
   -32.1722 -32.1663 -32.0670 -32.0346 -32.0088 -31.9684 -31.8229 -31.7959
   -31.7551 -31.7538 -31.7221 -31.7029 -30.3085 -29.1061 -28.6671 -13.9937
   -13.9529 -13.9311 -13.1462 -13.0361 -13.0267 -12.8826 -12.8747 -12.7909
    -1.1565  -0.7952  -0.6393  -0.2681  -0.1095  -0.0837  -0.0297   0.0572
     0.2331   0.3690   0.3967   0.3968   0.6188   0.7280   0.9092   1.0596
     1.1385   1.1948   1.2623   1.5238   1.5722   1.6174   1.6433   1.7816
     1.9739   2.0466   2.1332   2.1407   2.3241   2.3385   2.5966   2.7463
     2.7877   2.8546   2.8898   3.1647   3.1910   3.2030   3.4192   3.4327
     3.5226   3.6540   3.6725   3.8119   3.8991   4.1127   4.2140   4.4000
     4.5092   4.5159   4.5548   4.6130   4.6344   4.6851   4.6867   4.7571
     4.7923   4.8144   5.0507   5.2249   5.3641

     the Fermi energy is     2.7478 ev

!    total energy              =   -1571.09496046 Ry
     Harris-Foulkes estimate   =   -1571.09495027 Ry
     estimated scf accuracy    <       0.00000075 Ry

     The total energy is the sum of the following terms:

     one-electron contribution =  -11946.88433555 Ry
     hartree contribution      =    5975.96194293 Ry
     xc contribution           =    -333.04431424 Ry
     ewald contribution        =    4732.96933905 Ry
     electric field correction =       0.00059730 Ry
     smearing contrib. (-TS)   =      -0.09818995 Ry

     convergence has been achieved in  21 iterations

 BEEF-vdW xc energy contributions
           1 :   -290.334881424781
           2 :    266.291380058187
           3 :   -224.378709766567
           4 :    174.524661811692
           5 :   -127.016930844947
           6 :    89.4867101198410
           7 :   -65.2818561580420
           8 :    53.4613228581293
           9 :   -50.1477200843053
          10 :    50.5144425547987
          11 :   -50.5917817913473
          12 :    48.2611429360075
          13 :   -43.2998262345538
          14 :    36.7307091349167
          15 :   -29.9512402815154
          16 :    24.0401482797720
          17 :   -19.4603916217495
          18 :    16.1323455554342
          19 :   -13.7137944898472
          20 :    11.8717746639592
          21 :   -10.4147384732984
          22 :    9.26084385359496
          23 :   -8.32751628385239
          24 :    7.44610401051892
          25 :   -6.37741234605534
          26 :    4.91636834449281
          27 :   -3.01792083003397
          28 :   0.852340085344963
          29 :    1.25520066731059
          30 :   -2.98000949855350
          31 :   -29.0997201079261
          32 :   -21.7695328063055

     Forces acting on atoms (Ry/au):

     negative rho (up, down):  1.175E-01 0.000E+00
     atom    1 type  1   force =    -0.00000182   -0.03344735    0.03674525
     atom    2 type  1   force =    -0.02896733    0.01672233    0.03674028
     atom    3 type  1   force =     0.02896835    0.01672490    0.03674151
     atom    4 type  2   force =     0.00000379    0.00000046   -0.08543802
     atom    5 type  1   force =    -0.00000106    0.03910392    0.00031933
     atom    6 type  1   force =     0.03386254   -0.01955138    0.00032039
     atom    7 type  1   force =    -0.03387133   -0.01955658    0.00031554
     atom    8 type  2   force =     0.00001373    0.00000575   -0.02690797
     atom    9 type  1   force =    -0.00000175    0.00077469    0.00034808
     atom   10 type  1   force =     0.00066949   -0.00038831    0.00034648
     atom   11 type  1   force =    -0.00067325   -0.00038798    0.00034656
     atom   12 type  2   force =    -0.00000136   -0.00000044    0.00012258

     Total force =     0.141493     Total SCF correction =     0.002503

     entering subroutine stress ...

     negative rho (up, down):  1.175E-01 0.000E+00
          total   stress  (Ry/bohr**3)                   (kbar)     P=   -1.55
  -0.00000550   0.00000001  -0.00000001         -0.81      0.00     -0.00
   0.00000001  -0.00000551  -0.00000000          0.00     -0.81     -0.00
  -0.00000001  -0.00000000  -0.00002059         -0.00     -0.00     -3.03

 !ASE

     Writing output data file calc.save

     General routines

     Parallel routines

   This run was terminated on:   1:16:48  31Dec2018

   JOB DONE.
Job  /afs/slac/g/suncat/bin/suncat-tsmpirun -x LD_LIBRARY_PATH -wdir /scratch/qe648609_m6GL3 pw.x -in pw.inp

TID   HOST_NAME   COMMAND_LINE            STATUS            TERMINATION_TIME
00000 suncat0251 pw.x -in pw.inp   Done                     12/31/2018 01:16:48
00001 suncat0251 pw.x -in pw.inp   Done                     12/31/2018 01:16:48
00002 suncat0251 pw.x -in pw.inp   Done                     12/31/2018 01:16:48
00003 suncat0251 pw.x -in pw.inp   Done                     12/31/2018 01:16:48
00004 suncat0251 pw.x -in pw.inp   Done                     12/31/2018 01:16:48
00005 suncat0251 pw.x -in pw.inp   Done                     12/31/2018 01:16:48
00006 suncat0251 pw.x -in pw.inp   Done                     12/31/2018 01:16:48
00007 suncat0251 pw.x -in pw.inp   Done                     12/31/2018 01:16:48
00008 suncat0244 pw.x -in pw.inp   Done                     12/31/2018 01:16:48
00009 suncat0244 pw.x -in pw.inp   Done                     12/31/2018 01:16:48
00010 suncat0244 pw.x -in pw.inp   Done                     12/31/2018 01:16:48
00011 suncat0244 pw.x -in pw.inp   Done                     12/31/2018 01:16:48
00012 suncat0244 pw.x -in pw.inp   Done                     12/31/2018 01:16:48
00013 suncat0244 pw.x -in pw.inp   Done                     12/31/2018 01:16:48
00014 suncat0244 pw.x -in pw.inp   Done                     12/31/2018 01:16:48
00015 suncat0244 pw.x -in pw.inp   Done                     12/31/2018 01:16:48
00016 suncat0243 pw.x -in pw.inp   Done                     12/31/2018 01:16:48
00017 suncat0243 pw.x -in pw.inp   Done                     12/31/2018 01:16:48
00018 suncat0243 pw.x -in pw.inp   Done                     12/31/2018 01:16:48
00019 suncat0243 pw.x -in pw.inp   Done                     12/31/2018 01:16:48
00020 suncat0243 pw.x -in pw.inp   Done                     12/31/2018 01:16:48
00021 suncat0243 pw.x -in pw.inp   Done                     12/31/2018 01:16:48
00022 suncat0243 pw.x -in pw.inp   Done                     12/31/2018 01:16:48
00023 suncat0243 pw.x -in pw.inp   Done                     12/31/2018 01:16:48
00024 suncat0242 pw.x -in pw.inp   Done                     12/31/2018 01:16:48
00025 suncat0242 pw.x -in pw.inp   Done                     12/31/2018 01:16:48
00026 suncat0242 pw.x -in pw.inp   Done                     12/31/2018 01:16:48
00027 suncat0242 pw.x -in pw.inp   Done                     12/31/2018 01:16:48
00028 suncat0242 pw.x -in pw.inp   Done                     12/31/2018 01:16:48
00029 suncat0242 pw.x -in pw.inp   Done                     12/31/2018 01:16:48
00030 suncat0242 pw.x -in pw.inp   Done                     12/31/2018 01:16:48
00031 suncat0242 pw.x -in pw.inp   Done                     12/31/2018 01:16:48
00032 suncat0209 pw.x -in pw.inp   Done                     12/31/2018 01:16:48
00033 suncat0209 pw.x -in pw.inp   Done                     12/31/2018 01:16:48
00034 suncat0209 pw.x -in pw.inp   Done                     12/31/2018 01:16:48
00035 suncat0209 pw.x -in pw.inp   Done                     12/31/2018 01:16:48
00036 suncat0209 pw.x -in pw.inp   Done                     12/31/2018 01:16:48
00037 suncat0209 pw.x -in pw.inp   Done                     12/31/2018 01:16:48
00038 suncat0209 pw.x -in pw.inp   Done                     12/31/2018 01:16:48
00039 suncat0209 pw.x -in pw.inp   Done                     12/31/2018 01:16:48
00040 suncat0205 pw.x -in pw.inp   Done                     12/31/2018 01:16:48
00041 suncat0205 pw.x -in pw.inp   Done                     12/31/2018 01:16:48
00042 suncat0205 pw.x -in pw.inp   Done                     12/31/2018 01:16:48
00043 suncat0205 pw.x -in pw.inp   Done                     12/31/2018 01:16:48
00044 suncat0205 pw.x -in pw.inp   Done                     12/31/2018 01:16:48
00045 suncat0205 pw.x -in pw.inp   Done                     12/31/2018 01:16:48
00046 suncat0205 pw.x -in pw.inp   Done                     12/31/2018 01:16:48
00047 suncat0205 pw.x -in pw.inp   Done                     12/31/2018 01:16:48
00048 suncat0204 pw.x -in pw.inp   Done                     12/31/2018 01:16:48
00049 suncat0204 pw.x -in pw.inp   Done                     12/31/2018 01:16:48
00050 suncat0204 pw.x -in pw.inp   Done                     12/31/2018 01:16:48
00051 suncat0204 pw.x -in pw.inp   Done                     12/31/2018 01:16:48
00052 suncat0204 pw.x -in pw.inp   Done                     12/31/2018 01:16:48
00053 suncat0204 pw.x -in pw.inp   Done                     12/31/2018 01:16:48
00054 suncat0204 pw.x -in pw.inp   Done                     12/31/2018 01:16:48
00055 suncat0204 pw.x -in pw.inp   Done                     12/31/2018 01:16:48
00056 suncat0203 pw.x -in pw.inp   Done                     12/31/2018 01:16:48
00057 suncat0203 pw.x -in pw.inp   Done                     12/31/2018 01:16:48
00058 suncat0203 pw.x -in pw.inp   Done                     12/31/2018 01:16:48
00059 suncat0203 pw.x -in pw.inp   Done                     12/31/2018 01:16:48
00060 suncat0203 pw.x -in pw.inp   Done                     12/31/2018 01:16:48
00061 suncat0203 pw.x -in pw.inp   Done                     12/31/2018 01:16:48
00062 suncat0203 pw.x -in pw.inp   Done                     12/31/2018 01:16:48
00063 suncat0203 pw.x -in pw.inp   Done                     12/31/2018 01:16:48